
units lj                  # Use reduced LJ style units
atom_style atomic         # Uncharged point particles
atom_modify map hash      # Needed for indexing of clusters etc
                          # Used to be able to find where atoms are in relation to each other.

lattice fcc 1.0 spacing 1 1 1
Lattice spacing in x,y,z = 1.5874011 1.5874011 1.5874011
region box block 0 10 0 10 0 10 units lattice
create_box 2 box
Created orthogonal box = (0.0000000 0.0000000 0.0000000) to (15.874011 15.874011 15.874011)
  3 by 4 by 4 MPI processor grid
create_atoms 1 box
Created 4000 atoms
  using lattice units in orthogonal box = (0.0000000 0.0000000 0.0000000) to (15.874011 15.874011 15.874011)
  create_atoms CPU = 0.005 seconds
set type 1 type/fraction 2 0.74 78393
Setting atom values ...
  2966 settings made for type/fraction
mass 1 1.0
mass 2 1.0
pair_style lj/cut  3.5
pair_modify tail  yes
pair_coeff 1  1  1.0  1.0   # Intearaction between 1 and 1 set with epsilon = 1 and sigma = 1
pair_coeff 1  2  1.5  0.8
pair_coeff 2  2  0.5  0.88

write_data data.0
System init for write_data ...
Neighbor list info ...
  update every 1 steps, delay 10 steps, check yes
  max neighbors/atom: 2000, page size: 100000
  master list distance cutoff = 3.8
  ghost atom cutoff = 3.8
  binsize = 1.9, bins = 9 9 9
  1 neighbor lists, perpetual/occasional/extra = 1 0 0
  (1) pair lj/cut, perpetual
      attributes: half, newton on
      pair build: half/bin/atomonly/newton
      stencil: half/bin/3d
      bin: standard
WARNING: Not all mixed pair coeffs generated from mixing. Use write_data with 'pair ij' option to store all pair coeffs. (../write_data.cpp:312)


#############################
#   M E L T   S Y S T E M   #
#############################

velocity all create 2.4 5300450 mom yes dist gaussian # Assign velocities
                                                    # Temperature 2.4, random number seed, zero linear momentum
                                                                                # Gaussian distribution

timestep 0.002   # simulation timestep
thermo 1000       # output thermodynamic data every 1000 steps bf 100

# Define a fix  in this case with index 1 applied to all
# particles in the simulation. This fix is for simulations
# in the anisotropic NPT ensemble. Note that we use the MTK
# correction.
fix 1 all npt temp 2.4 2.4 0.1 iso 5.68 5.68 0.5 mtk yes tchain 5 pchain 5 # Use NPT ensemble
                                                                         # Set temperature and pressure and damping
                                                                         # Numbers of thermostats in chain and in barostat
run 10000          # run for 10000 steps
Per MPI rank memory allocation (min/avg/max) = 3.642 | 3.644 | 3.648 Mbytes
Step Temp E_pair E_mol TotEng Press Volume 
       0          2.4   -3.9840525            0  -0.38495247   -3.5781436         4000 
    1000    2.4104792   -3.5830898            0   0.03172511     5.587263    3672.8475 
    2000    2.4018535    -3.500699            0   0.10118049    5.7125948    3697.2669 
    3000    2.3824224   -3.4594814            0   0.11325872     5.584802    3744.1206 
    4000     2.423084   -3.5001211            0    0.1335962    5.7738569    3699.2297 
    5000    2.3585736   -3.4799224            0  0.057053488    5.7551599    3711.9954 
    6000     2.397743   -3.5403444            0  0.055370913    5.7439009    3671.5763 
    7000    2.3950678   -3.5584382            0  0.033265287    5.4574237    3697.9368 
    8000    2.3890409   -3.5026694            0  0.079996026    5.7203983    3706.9968 
    9000    2.4159291   -3.5608432            0  0.062144524     5.531382    3685.7582 
   10000    2.3909365   -3.5318248            0  0.053683406    5.4312537    3709.6276 
Loop time of 2.63105 on 48 procs for 10000 steps with 4000 atoms

Performance: 656772.155 tau/day, 3800.765 timesteps/s
99.6% CPU use with 48 MPI tasks x no OpenMP threads

MPI task timing breakdown:
Section |  min time  |  avg time  |  max time  |%varavg| %total
---------------------------------------------------------------
Pair    | 1.1756     | 1.251      | 1.4068     |   3.9 | 47.55
Neigh   | 0.21218    | 0.2211     | 0.24849    |   1.3 |  8.40
Comm    | 0.71559    | 0.89575    | 0.99014    |   5.1 | 34.05
Output  | 0.00025236 | 0.00025942 | 0.00042343 |   0.0 |  0.01
Modify  | 0.21649    | 0.24714    | 0.27828    |   3.3 |  9.39
Other   |            | 0.01579    |            |       |  0.60

Nlocal:        83.3333 ave          95 max          77 min
Histogram: 4 9 10 8 3 6 5 2 0 1
Nghost:        1725.92 ave        1754 max        1695 min
Histogram: 2 0 3 9 9 4 13 3 3 2
Neighs:        10292.5 ave       11632 max        9110 min
Histogram: 1 7 6 7 6 7 3 6 4 1

Total # of neighbors = 494041
Ave neighs/atom = 123.51025
Neighbor list builds = 899
Dangerous builds = 164

# Equilibrate just above the melting temperature to avoid step fn in T

fix 1 all npt temp 1.25 1.25 0.1 iso 5.68 5.68 0.5 mtk yes tchain 5 pchain 5
run 2000
Per MPI rank memory allocation (min/avg/max) = 3.644 | 3.646 | 3.649 Mbytes
Step Temp E_pair E_mol TotEng Press Volume 
   10000    2.3909365   -3.5318248            0  0.053683406    5.4312537    3709.6276 
   11000    1.2631021   -5.2021467            0   -3.3079672    5.5271925    2828.3156 
   12000    1.2752955   -5.1886678            0   -3.2762027    5.9648745    2816.0204 
Loop time of 0.656234 on 48 procs for 2000 steps with 4000 atoms

Performance: 526641.083 tau/day, 3047.691 timesteps/s
99.6% CPU use with 48 MPI tasks x no OpenMP threads

MPI task timing breakdown:
Section |  min time  |  avg time  |  max time  |%varavg| %total
---------------------------------------------------------------
Pair    | 0.2955     | 0.32142    | 0.36315    |   2.3 | 48.98
Neigh   | 0.041192   | 0.04366    | 0.049624   |   0.7 |  6.65
Comm    | 0.19439    | 0.24153    | 0.27075    |   3.1 | 36.80
Output  | 5.1692e-05 | 5.3829e-05 | 7.1658e-05 |   0.0 |  0.01
Modify  | 0.041199   | 0.044693   | 0.048029   |   0.8 |  6.81
Other   |            | 0.004878   |            |       |  0.74

Nlocal:        83.3333 ave          91 max          75 min
Histogram: 1 2 3 11 4 11 8 1 2 5
Nghost:        2082.25 ave        2097 max        2066 min
Histogram: 3 6 3 3 8 4 7 5 5 4
Neighs:        13542.2 ave       15479 max       12279 min
Histogram: 5 8 7 6 5 8 4 2 0 3

Total # of neighbors = 650026
Ave neighs/atom = 162.50650
Neighbor list builds = 144
Dangerous builds = 17

#############################
# L I N E A R  Q U E N C H  #
#############################

# Define solid atoms. This closely follows ten Wolde  Ruiz-Montero and Frenkel  Faraday Discuss  1996  104  93-110
# Compute components of the per-atom q6 vector
compute q6 all orientorder/atom degrees 1 6 components 6 nnn NULL cutoff 1.3 # compute the Q6 parameter.
                                                                             # Use all neighbours within 1.3 unit cell.

# get number of connections
compute coord_number all coord/atom orientorder q6 0.5

# An atom is solid if it has 8 or more connections (of a possible 14)
variable is_solid atom c_coord_number>=8
group solid dynamic all var is_solid    # Must be dynamic to update
dynamic group solid defined

# do clustering
compute cluster solid cluster/atom 1.3 # Create a cluster where all atoms within are solid and max 1.3 units from another member

# define chunks one chunk per cluster
compute clus_chunks solid chunk/atom c_cluster nchunk every compress yes  # Says which atoms are in which chunk

# count the size of each chunk
compute size_chunks solid property/chunk clus_chunks count


# Find the maximum entry in the vector of chunk sizes
variable max_n equal max(c_size_chunks)


# Thermo style which includes this variable
# thermo_style custom step temp pe vol v_max_n

thermo ${N}  # Print the thermo information every 100 steps
thermo 1000  

# Reset the npt fix at a lower temperature (below freezing)
fix 1  all npt temp  ${temp} ${temp}  0.1  iso  5.68  5.68  0.5  mtk yes tchain  5  pchain  5
fix 1  all npt temp  0.45 ${temp}  0.1  iso  5.68  5.68  0.5  mtk yes tchain  5  pchain  5
fix 1  all npt temp  0.45 0.45  0.1  iso  5.68  5.68  0.5  mtk yes tchain  5  pchain  5

dump dmp2 all dcd ${N} traj.dcd
dump dmp2 all dcd 1000 traj.dcd


compute msd all msd com yes
variable twopoint equal c_msd[4]/6/(step*dt+1.0e-6)
fix 9 all vector 10 c_msd[4]
variable fit equal slope(f_9)/6/(10*dt)
thermo_style custom step temp pe c_msd[4] v_twopoint v_fit v_max_n

fix 1 all npt temp 1.25 ${temp} 0.1 iso 5.68 5.68 0.5 mtk yes tchain 5 pchain 5
fix 1 all npt temp 1.25 0.45 0.1 iso 5.68 5.68 0.5 mtk yes tchain 5 pchain 5
run 5000000 # 5000000  # Run for this many steps
Neighbor list info ...
  update every 1 steps, delay 10 steps, check yes
  max neighbors/atom: 2000, page size: 100000
  master list distance cutoff = 3.8
  ghost atom cutoff = 3.8
  binsize = 1.9, bins = 8 8 8
  4 neighbor lists, perpetual/occasional/extra = 1 3 0
  (1) pair lj/cut, perpetual
      attributes: half, newton on
      pair build: half/bin/atomonly/newton
      stencil: half/bin/3d
      bin: standard
  (2) compute orientorder/atom, occasional
      attributes: full, newton on
      pair build: full/bin/atomonly
      stencil: full/bin/3d
      bin: standard
  (3) compute coord/atom, occasional
      attributes: full, newton on
      pair build: full/bin/atomonly
      stencil: full/bin/3d
      bin: standard
  (4) compute cluster/atom, occasional
      attributes: full, newton on
      pair build: full/bin/atomonly
      stencil: full/bin/3d
      bin: standard
Per MPI rank memory allocation (min/avg/max) = 9.842 | 9.846 | 9.850 Mbytes
Step Temp PotEng c_msd[4] v_twopoint v_fit v_max_n 
   12000    1.2752955   -5.1886678 2.5667562e-30 1.7824695e-32 8.3333333e+20            4 
   13000    1.2696385   -5.2285135   0.69579419  0.004460219  0.057131133            2 
   14000    1.2659241   -5.2553038    1.3529048 0.0080530045  0.057391739            2 
   15000    1.2199602   -5.1916238    2.0190147  0.011216748  0.055735051            2 
   16000    1.2624529    -5.231964     2.689859  0.014009682  0.055923121            2 
   17000    1.2331444   -5.1986979    3.3879417  0.016607557  0.056053868            2 
   18000    1.2450775   -5.1655912    4.0880237  0.018926035  0.056502606            2 
   19000    1.2385498   -5.2193137    4.7225964  0.020713142  0.056594618            1 
   20000    1.2442993   -5.1978473    5.2984569  0.022076903  0.055997338            3 
   21000     1.255729   -5.2009992    5.8548399  0.023233491  0.055140894            3 
   22000    1.2235635   -5.2188528    6.5564625  0.024835085  0.054570271            2 
   23000    1.2195137     -5.18474    7.3030421  0.026460297  0.054421217            2 
   24000     1.263707   -5.1925985    8.0599452   0.02798592  0.054720548            2 
   25000    1.2408509   -5.2693133    8.7775818  0.029258605    0.0551973            6 
   26000    1.2274515   -5.2056527    9.4423365  0.030263898  0.055459384            2 
   27000    1.2405945   -5.2137409     10.10245  0.031180401  0.055654704            2 
   28000    1.2443759   -5.2514755    10.815706    0.0321896  0.055777594            2 
   29000    1.2537716   -5.2219369    11.426928     0.032836  0.055901213            1 
   30000    1.2548715   -5.1911499     12.08249  0.033562471  0.055949564            2 
   31000    1.2752769   -5.2201643    12.698862  0.034136725  0.055911699            2 
   32000    1.2450989   -5.2035688    13.379899  0.034843486   0.05586521            6 
   33000    1.2413512   -5.1964565     13.99716  0.035346364  0.055817482            4 
   34000    1.2424945   -5.1764325    14.621411  0.035836791  0.055743948            3 
   35000     1.227904   -5.1757303    15.320787  0.036478063  0.055634776            2 
   36000    1.2407941   -5.1987931    16.036615  0.037121794  0.055627772            2 
   37000    1.2658741   -5.1974716    16.501566  0.037165688  0.055536624            7 
   38000    1.2641195   -5.1944212    17.138145  0.037583651  0.055383222            1 
   39000    1.2309712   -5.2046743      17.9112  0.038271794  0.055290225            4 
   40000    1.2543598   -5.2048514    18.704058  0.038966787  0.055293781            4 
   41000    1.2284229   -5.1833517       19.521  0.039676829  0.055386649            2 
   42000    1.2485204   -5.2296323    20.142186  0.039964655  0.055471796            3 
   43000    1.2163995   -5.2193195    20.660744  0.040040201  0.055488997            2 
   44000    1.2292384   -5.2180887    21.247872  0.040242182  0.055476398            4 
   45000    1.2326706   -5.1907129    22.272028  0.041244497  0.055510684            4 
   46000    1.2481549   -5.1910875    23.100624  0.041848957  0.055629947            2 
   47000    1.2120018   -5.2204553     23.66178  0.041953511  0.055743529            2 
   48000     1.236097   -5.2256236    24.314127  0.042212026  0.055829307            4 
   49000    1.2445407   -5.2430211    25.189607  0.042839467  0.055968448            2 
   50000    1.2384882   -5.2277375    25.833439  0.043055731  0.056089878            2 
   51000    1.2367322   -5.2616504    26.256504  0.042902784  0.056174134            3 
   52000    1.2663336   -5.2269159    26.935545  0.043165936  0.056218139            2 
   53000    1.2313225   -5.2175045    27.577387  0.043360671  0.056217918            1 
   54000    1.2685503   -5.1929853    28.426323  0.043867782  0.056215081            2 
   55000    1.2378739   -5.2016837    29.087424  0.044071855  0.056253312            2 
   56000    1.2428106   -5.2386888    29.746202  0.044265181  0.056297521            3 
   57000    1.2276876   -5.2393462    30.454047  0.044523459  0.056353942            3 
   58000    1.2457665    -5.225278      31.3485  0.045040948  0.056401846            3 
   59000    1.2463458   -5.2138508    32.088821  0.045323193   0.05644276            2 
   60000    1.2560098   -5.2404211    32.480891  0.045112348  0.056485279            4 
   61000    1.2378256   -5.2278894    33.271214  0.045452478  0.056522241            2 
   62000    1.2390218   -5.2641819    33.767884   0.04538694  0.056545434            2 
   63000    1.2528069   -5.2501448    34.390639  0.045490262  0.056554354            2 
   64000    1.2263802   -5.2152634    35.293567  0.045955164  0.056582612            1 
   65000     1.236272   -5.1976391    35.892145   0.04601557  0.056586758            4 
   66000    1.2509972   -5.2311976    36.388176  0.045944666  0.056572856            2 
   67000    1.2540985   -5.2068429    37.150292  0.046206831  0.056578085            2 
   68000     1.219925   -5.1990385    37.977275  0.046540778  0.056581317            1 
   69000    1.2436194   -5.2296348    38.383235  0.046356563  0.056573244            2 
   70000    1.2338141   -5.2054237    38.972285  0.046395577  0.056541125            3 
   71000    1.2381268   -5.1956972    39.658483  0.046547515  0.056509059            2 
   72000    1.2250885   -5.1995378    40.294635  0.046637309  0.056469152            1 
   73000    1.2562614   -5.2295824    40.804993  0.046581042  0.056421417            4 
   74000    1.2301972    -5.176403    41.432509  0.046658231  0.056359945            2 
   75000    1.2470424   -5.2401556    42.035719  0.046706354   0.05630038            2 
   76000    1.2675978   -5.2328768    42.691868  0.046811258  0.056243441            1 
   77000    1.2638854   -5.2169877    43.270413  0.046829451  0.056187673            2 
   78000    1.2231789   -5.2571887    44.307122  0.047336669  0.056136352            3 
   79000    1.2649706   -5.2263191    44.900241  0.047363123  0.056118002            1 
   80000    1.2558662   -5.2059411    45.499555  0.047395369   0.05610043            1 
   81000     1.215713    -5.245885    46.293981  0.047627552  0.056090194            3 
   82000    1.2407301   -5.2663825    47.013609  0.047778057  0.056088376            2 
   83000    1.2429496   -5.2277142    47.693488  0.047885028  0.056089758            2 
   84000    1.2320105   -5.2447572    48.311281  0.047927858  0.056086188            2 
   85000     1.253659    -5.261735    48.923934  0.047964641  0.056076154            3 
   86000    1.2207451   -5.2388495    49.825852  0.048280864  0.056079086            1 
   87000    1.2240466   -5.2444624    50.300886  0.048180925  0.056065077            2 
   88000    1.2494405   -5.2022934    51.111777  0.048401304  0.056060059            1 
   89000    1.2433833   -5.2749954    51.446062   0.04817047  0.056046949            2 
   90000    1.2526929   -5.2216546    51.907646  0.048062634   0.05602241            1 
   91000    1.2419124   -5.2217607    52.966189  0.048503836  0.056003214            2 
   92000    1.2177797   -5.2339324    53.377366  0.048349063  0.055970596            2 
   93000    1.2057397   -5.2276832    54.060382  0.048441202  0.055930087            1 
   94000     1.249168   -5.2404885    54.282855  0.048123098  0.055891939            2 
   95000     1.227166   -5.2569835    55.180672  0.048404098   0.05584504            2 
   96000      1.24045   -5.2471752    55.390358  0.048081908  0.055801142            3 
   97000    1.2208757    -5.226139    56.654212  0.048672003  0.055759984            2 
   98000     1.237101   -5.2380183     57.29519  0.048720399  0.055722462            2 
   99000    1.2357842   -5.2136713    57.697681  0.048567071  0.055686529            2 
  100000     1.221821    -5.255689    58.302429  0.048585358  0.055649559            5 
  101000     1.244167   -5.2103098    58.949183  0.048637939   0.05560344            2 
  102000    1.2363306   -5.2191266    59.522945  0.048629856  0.055557982            4 
  103000    1.2550923   -5.2546987    59.901796  0.048464236  0.055507541            5 
  104000    1.2444986   -5.2240793    60.765012  0.048689913  0.055468004            1 
  105000    1.2413092    -5.247077    61.431182  0.048754906   0.05543658            2 
  106000    1.2490847   -5.2574984    62.188539  0.048890361  0.055401575            4 
  107000    1.2507374   -5.2531863    62.914942  0.048999175  0.055376237            2 
  108000     1.224968   -5.2332616    63.740534  0.049182511  0.055357003            2 
  109000    1.2441298   -5.2417538     64.38728  0.049225749  0.055347301            2 
  110000    1.2361385   -5.2198116    65.164283  0.049366881  0.055336485            6 
  111000    1.2270695    -5.225794    65.826971  0.049419648  0.055327452            2 
  112000    1.2547194   -5.2648136    66.445053  0.049438284  0.055315408            2 
  113000    1.1944887   -5.2603437    66.864073  0.049309788  0.055298607            2 
  114000    1.2420645   -5.2456732    67.255987  0.049163733  0.055278988            5 
  115000    1.2117735   -5.2098865    68.084446  0.049336555  0.055260376            4 
  116000    1.2572322   -5.2583096    68.923226  0.049513812  0.055248359            2 
  117000    1.2420286   -5.2446781    69.469642  0.049479802  0.055237378            1 
  118000    1.2510243   -5.2447297    70.493522  0.049783561  0.055227592            3 
  119000    1.2174738   -5.2593508    71.286928  0.049920818  0.055234765            2 
  120000    1.2243125   -5.2466811     72.07376  0.050051222  0.055246896            3 
  121000    1.2150253   -5.2149388    72.913797  0.050216113  0.055264952            5 
  122000    1.2385576   -5.2357604    73.687972  0.050333314   0.05528375            2 
  123000    1.2672906   -5.2560607    74.055119  0.050172845  0.055301647            2 
  124000    1.2450449   -5.2867097    74.826707  0.050286765  0.055306699            2 
  125000    1.2298105   -5.2127115    75.738515  0.050492343   0.05531813            4 
  126000    1.2131254    -5.250042    75.829468  0.050151764  0.055319232            2 
  127000    1.2426731   -5.2433272    76.588734  0.050255075  0.055322531            3 
  128000    1.2292651   -5.3280542    76.853132  0.050034591  0.055310953            4 
  129000    1.2202003   -5.2239744    77.490632  0.050058548  0.055294893            3 
  130000    1.2251854   -5.2477198    77.567455  0.049722727  0.055277381            1 
  131000    1.2533239   -5.2635193    78.186211  0.049736775  0.055244785            2 
  132000    1.2322893   -5.2307547    79.180559  0.049987727  0.055214914            4 
  133000    1.2587784   -5.2242966    79.775817  0.049984847  0.055185218            2 
  134000    1.2291167   -5.2296033    79.877791  0.049675243  0.055151649            1 
  135000    1.2215866   -5.2649017    80.690464  0.049808928  0.055112125            1 
  136000    1.2537726   -5.2093603    81.939966  0.050208312  0.055089759            1 
  137000    1.2075398   -5.2697571    82.605858  0.050246872  0.055071296            2 
  138000    1.2391519     -5.23185    82.990551  0.050115067  0.055054104            2 
  139000    1.2450028   -5.2150397    83.577225   0.05010625  0.055038336            2 
  140000    1.2724346   -5.2605416    84.572802  0.050340954  0.055021671            5 
  141000    1.2304094   -5.2440754     85.31493  0.050422535  0.055011049            2 
  142000    1.2072943   -5.2683277    85.508516  0.050181054  0.054996177            4 
  143000    1.2672528   -5.2583086    86.148322  0.050202985  0.054982428            2 
  144000    1.2079248   -5.3028244    87.130779  0.050422904  0.054972125            3 
  145000    1.2357036   -5.2441868    87.632007  0.050363222  0.054962635            1 
  146000    1.2292814   -5.2200347    88.666872  0.050608945  0.054948781            1 
  147000     1.231532   -5.2316377    89.096485  0.050508211  0.054939099            1 
  148000    1.2451977   -5.2641766    89.811724  0.050569664   0.05492901            2 
  149000    1.2406734   -5.2800393    90.296426  0.050501357  0.054919526            2 
  150000    1.2199685   -5.2295054    91.492786  0.050829326  0.054916359            2 
  151000    1.2311311   -5.2283687    91.684677  0.050598607   0.05490902            1 
  152000    1.2068102   -5.2566165    92.235073  0.050567474    0.0549001            8 
  153000     1.222784   -5.2471234    92.859397  0.050577014   0.05488775            4 
  154000    1.2275093    -5.251263    93.952375   0.05084003  0.054878929            2 
  155000    1.2678943   -5.2185878    94.598938  0.050859644   0.05487632            2 
  156000    1.2388838   -5.2458909    95.164244    0.0508356   0.05487497            3 
  157000    1.1856095   -5.2278481    96.031981  0.050972389  0.054877207            1 
  158000     1.232597   -5.2742139     96.53621  0.050915722   0.05487916            2 
  159000     1.209966   -5.2980177    97.155472  0.050920059  0.054879553            2 
  160000    1.2192059     -5.27493    97.837123  0.050956835  0.054879861            2 
  161000      1.24327   -5.2102446    98.800355    0.0511389  0.054877493            1 
  162000    1.2217771   -5.2750434    99.332076  0.051096747  0.054879689            1 
  163000    1.2098192   -5.2548107    100.18868  0.051221205  0.054882996            3 
  164000    1.2244988   -5.2865825     100.5016  0.051067884   0.05488394            2 
  165000    1.2297957   -5.2809691    100.93279  0.050976155  0.054882992            1 
  166000    1.2323519   -5.2924904    101.83235  0.051120658  0.054878194            4 
  167000    1.2151461   -5.2351644    102.51517  0.051155273  0.054877781            2 
  168000     1.214543   -5.2476965     102.6854  0.050935219  0.054875162            7 
  169000     1.245314   -5.2451532    103.48968  0.051030414  0.054864823            4 
  170000    1.2231432   -5.2594141    104.38201  0.051167654  0.054855238            3 
  171000    1.2245003   -5.2786324    104.37907  0.050866994  0.054847149            2 
  172000    1.2473451   -5.2250109    105.35377  0.051043493  0.054834113            3 
  173000    1.2230602   -5.2183678    106.35429   0.05123039  0.054827359            2 
  174000    1.2312065   -5.2301845    107.05209  0.051270159  0.054820937            1 
  175000    1.2093989   -5.2688126    107.73175  0.051300834  0.054817926            3 
  176000    1.2215492   -5.2538156    108.35636  0.051305093  0.054815341            3 
  177000    1.2298194   -5.2642438    108.76135  0.051205906  0.054809926            2 
  178000    1.2028584   -5.2398012    109.48086  0.051255086  0.054804989            1 
  179000     1.232373   -5.2853366    109.33694   0.05090174  0.054793778            3 
  180000    1.2551779   -5.2709436    110.29648  0.051063187  0.054777695            1 
  181000    1.2265131   -5.2438367    110.66911  0.050952626   0.05476052            4 
  182000    1.2435426   -5.2449019    110.97545  0.050812934  0.054735154            1 
  183000    1.2000526   -5.2886922    111.07491  0.050580561  0.054710386            3 
  184000     1.225684   -5.2444536    112.47451  0.050939544  0.054687266            1 
  185000    1.2100738   -5.2797377    113.11427  0.050952373  0.054670023            2 
  186000    1.2182029   -5.2813031    113.35833  0.050787782  0.054654947            1 
  187000    1.2182574   -5.2509241    114.36899  0.050966574  0.054639079            2 
  188000     1.229963   -5.2502041    115.16075  0.051046431  0.054624989            2 
  189000    1.2554548   -5.1493785    116.39105  0.051318804  0.054614357            1 
  190000    1.2164332   -5.2511828     116.5469   0.05111706  0.054602575            2 
  191000    1.2122465   -5.2429231    117.23624  0.051150191  0.054589713            2 
  192000    1.2421449   -5.2832987    117.91503  0.051178399  0.054578117            2 
  193000    1.2302648   -5.2873366    118.71736  0.051259655   0.05457064            2 
  194000    1.2096934   -5.2937193    119.77916  0.051451527  0.054567769            2 
  195000    1.2326347   -5.2716918    120.44521  0.051472314  0.054568241            2 
  196000    1.2257097   -5.2577512    120.88125  0.051395088  0.054568588            3 
  197000    1.2270863    -5.259534     122.4502  0.051797885  0.054570519            2 
  198000    1.1991016   -5.2354062    123.22563  0.051862638  0.054572642            2 
  199000    1.2223636   -5.2482307    123.05157  0.051529134  0.054573685            2 
  200000    1.2148523   -5.2722484    123.84291  0.051601213  0.054576114            1 
  201000    1.2436388    -5.266575     124.4461  0.051594567  0.054573182            2 
  202000    1.2097686   -5.2598795    124.91004  0.051530543  0.054569658            2 
  203000    1.2159897   -5.2851383    125.81496  0.051648176   0.05456797            2 
  204000    1.2175407   -5.2954002    125.93198  0.051442803  0.054565942            3 
  205000    1.2290404    -5.242143    127.10703  0.051669525  0.054562308            2 
  206000    1.1964331   -5.2783391    126.95173  0.051355877  0.054553921            2 
  207000    1.2185055   -5.3013901    127.48172  0.051321145  0.054547665            3 
  208000    1.2313955   -5.2835984      128.579  0.051514023  0.054541393            4 
  209000    1.2158808   -5.2491478    129.27428  0.051544768  0.054538645            3 
  210000    1.2086313   -5.2793349    129.76521  0.051494132  0.054532108            1 
  211000     1.237627   -5.2446334    130.59538  0.051577954  0.054524712            2 
  212000    1.1859011   -5.2679754    130.81177   0.05141972  0.054516763            3 
  213000     1.243497   -5.2898915    131.73507  0.051539542  0.054508256            5 
  214000    1.2502693   -5.2453814    132.62363  0.051644717  0.054502123            3 
  215000    1.2174832   -5.2989832    133.03805  0.051565137  0.054500327            2 
  216000    1.2386888   -5.2546208    134.06478  0.051722525   0.05449546            2 
  217000    1.2151081   -5.2588196     134.6232  0.051698617  0.054492896            2 
  218000    1.2001165   -5.2736812    134.89823  0.051566603  0.054490619            3 
  219000    1.2489527   -5.2584062    135.40451  0.051523788  0.054484521            2 
  220000    1.1948263   -5.2612261    135.97027  0.051503891  0.054477099            7 
  221000    1.1949239   -5.3030518     136.4372  0.051446909   0.05447098            2 
  222000    1.1944018    -5.298438    137.22188  0.051509713  0.054462533            3 
  223000    1.1937429   -5.2905265    137.98466  0.051563774  0.054457755            5 
  224000    1.2003857   -5.2638376     138.9255  0.051683594   0.05445475            1 
  225000     1.212557   -5.2575996    139.46714  0.051654497  0.054448664            2 
  226000    1.2335632   -5.2807553    139.61758   0.05148141  0.054440508            1 
  227000    1.2266625   -5.2628445     140.2217  0.051476394  0.054430369            2 
  228000    1.2092457    -5.274128    141.06603   0.05155922  0.054424814            3 
  229000    1.1940135   -5.2781747    141.70875  0.051567958  0.054414439            3 
  230000    1.1965236   -5.2631087    142.14715  0.051502589  0.054403865            1 
  231000    1.2258318   -5.2544895    142.58771  0.051438569  0.054393618            1 
  232000     1.191362   -5.2730459    142.88409  0.051323309  0.054382291            2 
  233000    1.2185203   -5.2536387     143.7853  0.051425358  0.054367882            2 
  234000    1.2318575   -5.2695245    144.58142  0.051489111  0.054356924            4 
  235000    1.2032753   -5.2825255    144.84584  0.051363774  0.054346049            2 
  236000     1.196439   -5.2444536    145.44006  0.051355952  0.054335284            2 
  237000    1.2169247   -5.2767272    146.60736  0.051549706  0.054324563            1 
  238000    1.2041171   -5.3068767    147.62169  0.051688268  0.054316763            2 
  239000    1.2151716   -5.2880974    147.90733  0.051571592  0.054309338            2 
  240000    1.1877836   -5.3050294    148.50728  0.051565027  0.054301555            2 
  241000    1.2498431    -5.239212    148.90553  0.051488772  0.054293482            3 
  242000    1.1907028   -5.2885247    148.40016  0.051101985  0.054282296            3 
  243000    1.2126444   -5.2568316    150.82695   0.05172392  0.054271045            3 
  244000    1.1971089   -5.2744697    151.24525  0.051654799  0.054260979            2 
  245000     1.229268   -5.2827474     150.8622  0.051313675   0.05425186            2 
  246000    1.2459446   -5.2590848     151.9613  0.051477404  0.054239407            1 
  247000    1.2182826   -5.3123789    152.51485  0.051455752  0.054229136            5 
  248000    1.2105915   -5.2916978     153.8371  0.051692572  0.054218528            3 
  249000    1.2001241   -5.2992135    153.83292  0.051483576  0.054209485            2 
  250000    1.2569498   -5.3158075    154.16566  0.051388554  0.054196638            2 
  251000     1.200351   -5.2611585    154.72711  0.051370221  0.054184524            3 
  252000    1.2217397   -5.2750644    155.83411  0.051532444  0.054172747            3 
  253000    1.1838478    -5.285467    156.39238  0.051512642  0.054162271            4 
  254000    1.2303472   -5.2725121     156.9731  0.051500361  0.054152595            2 
  255000    1.2221963   -5.2915939    157.31615  0.051410508  0.054140105            2 
  256000    1.2057881   -5.3036557    157.91374  0.051404213  0.054128272            3 
  257000    1.2003328   -5.2497026    158.54524  0.051408961  0.054113319            2 
  258000    1.2241183    -5.287455    158.71796  0.051265491  0.054098674            3 
  259000    1.2151889   -5.3113914    159.41405   0.05129152  0.054082201            3 
  260000    1.2011749   -5.3002285    160.00706  0.051284314  0.054065178            4 
  261000     1.234295   -5.2876143    161.06435  0.051425398  0.054049603            2 
  262000    1.1817862   -5.2925737    161.91518  0.051499739  0.054037537            3 
  263000    1.2083071   -5.2543178    162.60216  0.051521596  0.054026858            3 
  264000    1.2142506   -5.2829751    162.89189  0.051417893  0.054015716            3 
  265000    1.2180924   -5.2878424    164.65297  0.051777665  0.054005737            5 
  266000    1.2148118   -5.3371326    163.82142    0.0513225  0.053994754            2 
  267000    1.1960942    -5.305989    164.61229  0.051377119  0.053983083            5 
  268000    1.2003057   -5.2870855    165.97555  0.051609312  0.053970272            5 
  269000    1.1936706   -5.3295728    165.84888  0.051378214   0.05395982            2 
  270000    1.1973743   -5.2316127    168.58388  0.052032061  0.053950613            3 
  271000    1.2158824   -5.2835451    167.66721  0.051558183  0.053943986            5 
  272000    1.2117711   -5.3020689      168.073  0.051492952  0.053934754            3 
  273000    1.2132832   -5.3358492    168.86492  0.051546067  0.053925801            2 
  274000    1.2271976   -5.2970354    169.50908  0.051553855  0.053916064            2 
  275000    1.1900697    -5.266536    170.41182  0.051639944   0.05390748            4 
  276000    1.2087005    -5.284542     170.7188  0.051545532  0.053898104            2 
  277000     1.205969   -5.2582156    171.80663  0.051686711  0.053889627            2 
  278000    1.2052162   -5.3043173    171.82371  0.051505907  0.053879943            3 
  279000    1.1914365   -5.2901523     172.1314  0.051413202  0.053868684            2 
  280000     1.217631   -5.2689946    173.78543  0.051721853  0.053859679            5 
  281000    1.2097834   -5.3099176    173.31877  0.051399397  0.053850858            2 
  282000    1.1963195   -5.2618811    174.93293  0.051694127  0.053843103            2 
  283000     1.221894   -5.2778991    175.73124  0.051746538  0.053835462            2 
  284000    1.2274207   -5.2799871    176.68659  0.051844656  0.053830619            3 
  285000    1.2061348   -5.2975375    176.93133  0.051734306  0.053826948            4 
  286000    1.2055026    -5.276113    177.10848  0.051605036   0.05382148            4 
  287000    1.2030524   -5.2895628      178.092  0.051710802   0.05381748            2 
  288000    1.2135084   -5.2983088    179.13066  0.051831788  0.053815893            1 
  289000    1.2144061   -5.2837573    179.60849  0.051790223  0.053813698            2 
  290000    1.2362026   -5.3128122    179.73294  0.051647396  0.053811942            4 
  291000    1.2204482   -5.3114412    181.52204  0.051982256  0.053810395            2 
  292000    1.2174966    -5.308335    182.03975  0.051951983  0.053809795            1 
  293000    1.1982834    -5.307671    182.82779  0.051998801  0.053808781            2 
  294000    1.2051188   -5.3204052    183.04714  0.051884111  0.053805986            2 
  295000    1.1990706   -5.2948899    183.66377   0.05188242  0.053805388            3 
  296000    1.1889275   -5.2732554     184.7692  0.052018354  0.053805087            2 
  297000    1.1997573   -5.3002337     185.6112  0.052079463  0.053806763            5 
  298000    1.2254247   -5.3263524    185.64611   0.05191446  0.053807151            1 
  299000    1.1990783   -5.2770936    186.86742  0.052081221  0.053804951            1 
  300000    1.2123844   -5.3394568    186.60082  0.051833561  0.053803622            2 
  301000    1.2406843   -5.3292838    187.63379   0.05194734  0.053800738            2 
  302000    1.1685329   -5.3028314    188.19075  0.051929015  0.053799281            4 
  303000    1.2181089   -5.2695704    188.86159  0.051942131  0.053795672            3 
  304000    1.2344155   -5.2914046    189.25655  0.051879537  0.053792843            2 
  305000    1.2026388   -5.2861678    189.61478  0.051807317  0.053789981            6 
  306000    1.1842148   -5.3019695    190.51942  0.051884373  0.053785776            3 
  307000    1.1886098   -5.2899459    191.86313   0.05208011  0.053781797            2 
  308000     1.177568    -5.304174    192.27407  0.052022205  0.053779745            6 
  309000     1.192521   -5.3045034    192.57275  0.051934399   0.05377647            2 
  310000    1.2014875   -5.3056234    193.04748  0.051894484  0.053771849            4 
  311000    1.2024735   -5.3532408    193.66948  0.051894288  0.053768737            2 
  312000    1.2038553   -5.3269168    194.22389   0.05187604  0.053764229            1 
  313000    1.2263268   -5.3212523    195.23835  0.051980391  0.053762031            2 
  314000    1.2083121   -5.3248575    195.88199  0.051985665   0.05375876            3 
  315000    1.2267512   -5.2573683    197.60552  0.052276592  0.053756924            2 
  316000    1.2235278   -5.3025693    198.04281  0.052226479  0.053755904            4 
  317000    1.2266121   -5.3296635    197.66972  0.051963649  0.053752847            2 
  318000    1.2166282    -5.323033    197.63812  0.051791961   0.05374902            2 
  319000    1.2211331   -5.2513903    199.30297  0.052064516  0.053746387            1 
  320000    1.1877894   -5.2693818    199.41344  0.051930584  0.053743107            3 
  321000    1.2178796   -5.2940729    199.11775  0.051692043  0.053737113            2 
  322000     1.183652   -5.3105467    200.54616   0.05190118   0.05373123            3 
  323000    1.1725068   -5.3534712    199.48805  0.051467505  0.053722511            1 
  324000    1.1927699   -5.3046969    200.48937  0.051566195  0.053713764            4 
  325000    1.1956846   -5.3347243    200.67165  0.051454268  0.053706378            4 
  326000    1.2162616   -5.3376675    201.62261  0.051539522   0.05369649            1 
  327000    1.2298752   -5.2928146    204.17845  0.052033243  0.053687281            3 
  328000    1.1992455   -5.2976019    203.99017  0.051826772  0.053680043            4 
  329000    1.1807981   -5.2672185    205.29619  0.052000049  0.053673428            3 
  330000    1.2154865   -5.3122519    205.64037  0.051929386  0.053669877            3 
  331000      1.18752   -5.3455592    205.17103  0.051654337  0.053666223            2 
  332000    1.1805449   -5.3348222    207.03151   0.05196574  0.053660954            4 
  333000    1.2274462   -5.3099736    207.61469  0.051955628  0.053657785            6 
  334000    1.1696009    -5.265357    209.05022  0.052158239  0.053656026            1 
  335000      1.16421   -5.2584845    210.45647  0.052352357  0.053655072            2 
  336000    1.1981923   -5.3495514    209.71065  0.052011569  0.053654669            3 
  337000    1.1874086   -5.2675952     211.6956  0.052348072   0.05365477            3 
  338000    1.1975255   -5.2754133    211.81156  0.052221784  0.053655949            1 
  339000    1.1978348   -5.3078372    212.57648  0.052255772   0.05365816            3 
  340000    1.2118285   -5.2682855    213.59137  0.052350825   0.05365842            3 
  341000    1.1962868   -5.3124097    213.65581  0.052213052  0.053657389            3 
  342000    1.2196024   -5.3296499    213.60758  0.052048629  0.053657005            1 
  343000    1.2071271   -5.3167075    214.41564  0.052093208  0.053655461            3 
  344000    1.2214369   -5.3302958    214.10463  0.051866431  0.053653743            1 
  345000    1.1919404   -5.3115101    215.08513  0.051952929  0.053652032            2 
  346000    1.1867819   -5.2976159    216.90324  0.052240664  0.053649969            4 
  347000    1.1936537   -5.3192576    216.48681  0.051990107  0.053647278            3 
  348000    1.1708352   -5.3035763    218.12878  0.052233904  0.053647067            1 
  349000    1.2022865   -5.3251652    217.61747  0.051962148  0.053644954            1 
  350000    1.2263994   -5.3303298     218.6603  0.052061976  0.053642709            2 
  351000    1.2032614   -5.3357574     219.2959  0.052064553  0.053640307            2 
  352000      1.21246   -5.3584141    218.81993   0.05180396    0.0536375            3 
  353000    1.2144286   -5.3092775    219.16094  0.051737709  0.053632811            2 
  354000    1.2208483   -5.3359489    220.22385  0.051841772  0.053627495            3 
  355000    1.1823771   -5.2903781    220.67408  0.051801427  0.053621668            2 
  356000    1.1737569   -5.3388465    221.63998  0.051882018  0.053615471            2 
  357000    1.2096537   -5.2842474    222.07198  0.051837531  0.053608974            2 
  358000     1.210204   -5.3078646    222.88024  0.051880875  0.053602495            4 
  359000    1.1627798   -5.3206644     223.1385  0.051796309  0.053595959            2 
  360000    1.2090387   -5.3278171    223.56357  0.051750826  0.053588459            1 
  361000    1.1915002   -5.3122061    224.06382  0.051722949  0.053578892            4 
  362000    1.1633014   -5.3152537    224.88901   0.05177003   0.05357097            1 
  363000    1.1921934    -5.309887    225.02385  0.051658368  0.053563419            4 
  364000    1.1899602   -5.3254568    226.79187  0.051921215  0.053557456            1 
  365000    1.1988379   -5.3276397    227.62827  0.051969926   0.05355302            7 
  366000     1.196737   -5.2577079    228.11835  0.051939514  0.053548459            2 
  367000    1.2315091   -5.2958613    228.19501  0.051815398  0.053543539            3 
  368000    1.2174021   -5.3301699    228.57418  0.051760458   0.05353682            3 
  369000    1.1919453   -5.3548937    229.43236  0.051813992  0.053530848            1 
  370000    1.2065906   -5.3422467    230.35111   0.05188088  0.053525265            3 
  371000    1.1646729   -5.3764535    230.00227  0.051662685  0.053517998            3 
  372000    1.2052149   -5.3073122     230.9427  0.051734476  0.053510465            2 
  373000    1.1907285   -5.3201178    232.51214  0.051946412  0.053505143            1 
  374000    1.1796157    -5.291129    233.28746  0.051980271  0.053498104            3 
  375000    1.2101739   -5.3216742    232.91003  0.051757783  0.053492327            2 
  376000    1.1860013   -5.3131239    233.44667  0.051739066  0.053485884            3 
  377000    1.2000134   -5.3278006    234.33319  0.051797788  0.053477568            2 
  378000    1.1737643   -5.2871628    234.57402  0.051713848  0.053469828            5 
  379000    1.1911626   -5.3354923    235.20008  0.051715057  0.053461728            5 
  380000    1.1966901   -5.3459984    235.23999  0.051587716  0.053451364            2 
  381000    1.2051775   -5.3090388     235.8792  0.051592126    0.0534422            3 
  382000    1.1930218    -5.349223     236.2897  0.051546618  0.053433443            2 
  383000    1.2052302   -5.2972736    236.30165  0.051414633    0.0534249            1 
  384000    1.1957113   -5.3321938    237.45045  0.051530045  0.053417097            4 
  385000    1.1738956   -5.3347197    238.66109  0.051658245  0.053407313            2 
  386000    1.1992227   -5.3354475     239.6903  0.051746611  0.053397028            2 
  387000    1.2173015   -5.3036495    239.32514  0.051534268  0.053387648            4 
  388000    1.1700275    -5.357876    238.98798  0.051329034  0.053377313            1 
  389000     1.201676   -5.3263273    240.48892  0.051518619  0.053365373            2 
  390000    1.1852743   -5.3175795    240.67255  0.051425758  0.053353935            1 
  391000    1.1842437   -5.3433233    240.79505  0.051320344  0.053341957            2 
  392000    1.1764575    -5.317556    240.85159  0.051201443  0.053329678            3 
  393000    1.1975482   -5.3454771    241.39412  0.051186201  0.053314763            2 
  394000    1.1741005    -5.328263    242.54974  0.051300707  0.053299553            2 
  395000    1.1954498   -5.3428767    242.96389  0.051258205  0.053284621            5 
  396000     1.159456   -5.3543022    243.15761   0.05116953  0.053268615            4 
  397000    1.2133935   -5.3484324    242.88488  0.050983393  0.053252749            4 
  398000    1.1879679   -5.3510634    242.90348  0.050859188  0.053236057            2 
  399000    1.1749261   -5.3334689    244.81727  0.051131426  0.053219155            4 
  400000     1.181751   -5.2857168    245.63667  0.051174306  0.053203072            5 
  401000    1.1731563   -5.3744647    244.98379  0.050911013  0.053186066            2 
  402000    1.2036427   -5.3221706    245.44178  0.050879308  0.053167751            1 
  403000    1.1721403   -5.3159568    246.35388  0.050941662  0.053149365            2 
  404000    1.2016357    -5.321381    247.34092  0.051019166  0.053130269            3 
  405000    1.2111276   -5.3389387    246.82628  0.050787301  0.053112344            2 
  406000    1.2031066    -5.335017    247.87063  0.050876565  0.053092855            1 
  407000    1.1778835   -5.3429352    248.28145  0.050835677  0.053073976            2 
  408000    1.1799924   -5.3707569    248.13451  0.050681069  0.053055468            4 
  409000    1.1853054   -5.3320461    249.51461  0.050838348   0.05303671            2 
  410000    1.1917158   -5.3278594    250.16744  0.050847041  0.053018253            3 
  411000     1.182998   -5.3337958    250.43602  0.050777782  0.052999064            5 
  412000    1.2041098   -5.3126679    251.71378  0.050912982  0.052981268            1 
  413000    1.1902024   -5.3225191    251.82839  0.050812832  0.052963756            3 
  414000    1.1841858     -5.31923    252.69343  0.050864218  0.052945652            4 
  415000    1.1695835    -5.322465    253.07655  0.050818584  0.052927809            4 
  416000    1.2098339   -5.3143499    254.29324  0.050940153  0.052910427            4 
  417000    1.2087815   -5.2860662    254.08782  0.050776942  0.052893322            1 
  418000    1.1794069     -5.31278    254.79052  0.050795559  0.052877175            4 
  419000    1.2010853   -5.3628285    255.36271  0.050788129  0.052860335            2 
  420000    1.1563985    -5.324706    256.87166  0.050966599  0.052843764            5 
  421000    1.1735052   -5.3037624    256.58583   0.05078896   0.05282632            3 
  422000    1.1923918   -5.3172916    257.21745  0.050793335  0.052811706            2 
  423000    1.1687907   -5.3702457    256.77115  0.050585333  0.052794371            2 
  424000    1.1771151   -5.3655702    257.71512  0.050651556  0.052776501            2 
  425000    1.1942288   -5.3290909     258.9725  0.050778922  0.052759663            4 
  426000    1.1857108   -5.3194219    259.73014  0.050807931  0.052743606            3 
  427000    1.1706511    -5.343157    259.92608  0.050727182  0.052727264            3 
  428000    1.2005541   -5.3240671    259.71169  0.050566918  0.052711966            3 
  429000    1.1843503   -5.3128515    260.74197  0.050649178  0.052696029            4 
  430000    1.1985278   -5.3315977    262.83744  0.050937489  0.052680678            2 
  431000    1.1849082   -5.3279593    262.71014   0.05079469  0.052666633            4 
  432000     1.163641   -5.3140475    263.47574  0.050824796  0.052652223            1 
  433000    1.1819953   -5.3125406    264.79655  0.050961614  0.052637219            3 
  434000    1.1553658   -5.3443849    263.70115  0.050633861   0.05262131            3 
  435000    1.1686943   -5.3328531    264.68694  0.050706311  0.052604991            3 
  436000    1.1874844    -5.380955    264.52588  0.050559227   0.05258825            3 
  437000    1.1948282   -5.3222018    265.64835   0.05065758  0.052571203            3 
  438000     1.200797   -5.3276213    265.80753  0.050572209   0.05255502            2 
  439000    1.1587313   -5.3563577    265.78315  0.050452383  0.052538488            6 
  440000    1.1963307   -5.3591133     266.3995  0.050454452   0.05252072            5 
  441000     1.197435   -5.3398496    267.34468  0.050518647  0.052501891            3 
  442000    1.1915222   -5.3197893    268.87149  0.050692211   0.05248408            2 
  443000    1.1946382   -5.3711777    268.02573  0.050418684  0.052466926            3 
  444000    1.2019461   -5.3559768    268.63488  0.050419459  0.052449398            1 
  445000    1.2005418   -5.3619437    269.12672  0.050398261   0.05243069            2 
  446000    1.1675725   -5.3311164    270.75848  0.050590149  0.052413497            3 
  447000    1.1671784   -5.4026435    269.17539  0.050181841   0.05239665            8 
  448000    1.1743746   -5.3450733    271.38752  0.050481309  0.052378708            3 
  449000    1.1680358   -5.3796771    270.82839  0.050265106  0.052361018            5 
  450000     1.202999   -5.3458423    272.28875  0.050423843  0.052343208            1 
  451000    1.1796096   -5.3670108    272.88017  0.050421317  0.052325302            2 
  452000     1.154595   -5.3734915    273.43017  0.050411167  0.052307471            2 
  453000    1.1827943   -5.3436556    273.81909  0.050371429  0.052289419            1 
  454000    1.1532977   -5.3391878    274.07479  0.050307413  0.052271841            3 
  455000    1.1828305   -5.3897031    273.76928  0.050140894  0.052253396            3 
  456000    1.1865545   -5.3681219    275.42309  0.050333167   0.05223443            3 
  457000    1.1915392   -5.3658321    275.07813  0.050160125  0.052214784            1 
  458000    1.1679694   -5.3529081    275.69184  0.050162272  0.052195568            2 
  459000    1.1908491    -5.344606    275.22758  0.049968696  0.052175547            3 
  460000    1.1752789   -5.3825203    275.42092  0.049895094  0.052154212            3 
  461000    1.1828898   -5.3435352     277.4482  0.050153325  0.052132953            1 
  462000    1.1839523   -5.3636031    276.71167  0.049911917  0.052112289            2 
  463000    1.1701774   -5.3545078    277.55284  0.049955515  0.052092328            2 
  464000    1.1645319   -5.3628496    277.19664  0.049783879  0.052071405            1 
  465000    1.1974513   -5.3664168    279.45729  0.050081952  0.052050673            3 
  466000     1.176279   -5.3422754    279.36356  0.049957719  0.052030393            3 
  467000    1.1793872   -5.3298752    279.46059  0.049868056   0.05201038            2 
  468000    1.1839473   -5.3710434    279.73957  0.049811178  0.051989566            1 
  469000    1.1714953   -5.3876853    280.72658  0.049880345  0.051969849            6 
  470000    1.1767071   -5.2941903    282.48845  0.050086605  0.051950542            1 
  471000    1.2021919   -5.3575752      282.214  0.049931706  0.051931946            4 
  472000    1.1701364   -5.3468632    283.09265  0.049981047  0.051912721            3 
  473000    1.1815171   -5.3846197    282.90632  0.049842551  0.051893905            3 
  474000    1.1800528   -5.3894073    284.72101  0.050056436  0.051874674            5 
  475000    1.1741352   -5.3655596    284.00624  0.049825657    0.0518557            4 
  476000      1.16564   -5.3657606    286.03237  0.050075695  0.051837987            2 
  477000    1.1602716   -5.3156734    287.08734   0.05015502  0.051820978            2 
  478000    1.1718134   -5.3654304    286.56782  0.049959523  0.051803499            4 
  479000    1.1605766    -5.336393    287.16271  0.049958717  0.051785383            7 
  480000    1.1694062   -5.3558647    287.73922  0.049954725  0.051767845            4 
  481000    1.1633561    -5.352621    287.88625  0.049876342  0.051750228            5 
  482000    1.1651317   -5.3549571     289.6357  0.050075329  0.051733154            2 
  483000    1.1915345   -5.3222488    290.20084  0.050069157  0.051717712            2 
  484000    1.1820382   -5.3912511    290.43742  0.050006442  0.051701605            3 
  485000    1.1633578   -5.3721342    291.21631  0.050037167  0.051686209            3 
  486000    1.1726645   -5.3438874    292.36034  0.050130373  0.051671793            5 
  487000    1.1667034   -5.4087409    291.56739  0.049891751  0.051656864            3 
  488000    1.1865976    -5.345586    293.84265  0.050178048   0.05164241            2 
  489000    1.1577968   -5.3541645    293.62149  0.050037745   0.05162713            4 
  490000    1.1911526   -5.3908957    293.90737  0.049984247  0.051612334            2 
  491000    1.1879456   -5.4041256    293.44401  0.049803803  0.051597936            3 
  492000    1.1591297    -5.378105    295.15253   0.04999196   0.05158455            2 
  493000    1.1840976   -5.3829503    297.10986   0.05022141  0.051571321            3 
  494000     1.166826   -5.3521027    297.72278  0.050223142  0.051557885            6 
  495000    1.1557172   -5.3944161    297.26208  0.050044121  0.051545143            3 
  496000    1.1810626   -5.3571462    297.64329  0.050007274  0.051532858            1 
  497000    1.1520664    -5.335957     299.4133  0.050203437  0.051519765            2 
  498000    1.1681763   -5.3707638    298.45555  0.049942361  0.051506742            4 
  499000    1.1630349   -5.3475257    300.35529  0.050159534  0.051494068            3 
  500000    1.1999973    -5.374119    301.31251  0.050218752  0.051482264            3 
  501000    1.1725188   -5.3666383    300.55348  0.049992263  0.051470365            2 
  502000    1.1838593   -5.4107784    301.17516  0.049995876  0.051457406            1 
  503000    1.1723328   -5.3742996    302.81232  0.050167713   0.05144371            2 
  504000    1.1638867   -5.3804515    302.67842  0.050046035  0.051430544            2 
  505000    1.1783235   -5.3905639    302.30676  0.049885604  0.051417815            3 
  506000    1.1715622   -5.4174357     303.0018  0.049901482  0.051403988            2 
  507000    1.1659189   -5.3454428    302.98794  0.049800779  0.051391305            2 
  508000    1.1759906   -5.3479242    304.38328  0.049931641  0.051377358            2 
  509000    1.1547147   -5.3214519    305.87283  0.050077411  0.051363472            1 
  510000    1.1708884   -5.3703311    305.82945  0.049972132  0.051350714            2 
  511000    1.1875957   -5.3790955    305.75532   0.04986225  0.051337821            2 
  512000    1.1954073   -5.3542022    307.25355  0.050008715   0.05132519            4 
  513000    1.1624765   -5.3450085    309.42777  0.050264419  0.051313768            3 
  514000    1.1863679   -5.3525977    307.92533  0.049923043  0.051301925            2 
  515000    1.1714942   -5.3957611     307.3999  0.049741085  0.051289429            1 
  516000    1.1525191   -5.3666389     310.3247  0.050117038  0.051277168            3 
  517000    1.1663176   -5.4046134    310.42846  0.050036825  0.051266044            2 
  518000     1.157305   -5.3649424    312.42852  0.050261988  0.051256017            2 
  519000     1.174618   -5.3744897    312.85264  0.050233243  0.051246483            2 
  520000    1.1645759    -5.362599    311.25486  0.049880587  0.051236364            2 
  521000    1.1631602    -5.412951    312.11766  0.049922851  0.051225975            2 
  522000    1.1793826   -5.3990096    313.79796  0.050095459   0.05121579            2 
  523000    1.1815555   -5.3753702    314.84023  0.050165747   0.05120456            1 
  524000    1.1874409   -5.3805745    313.87637  0.049916726   0.05119422            3 
  525000    1.1701806   -5.3653656    314.92807  0.049988583    0.0511832            1 
  526000    1.1549714   -5.4128155    314.96556  0.049899486  0.051172855            5 
  527000    1.1739277   -5.3870997    315.99469  0.049967535  0.051162166            2 
  528000    1.1701761   -5.3636184    317.99739  0.050188982  0.051152428            3 
  529000    1.1499421   -5.3794287    316.50323  0.049858732   0.05114237            5 
  530000    1.1688426    -5.399448    317.73096  0.049957698  0.051132487            6 
  531000    1.1697628   -5.3972699    318.50018  0.049984335  0.051121547            2 
  532000    1.1816272   -5.4275398    319.72125  0.050081649  0.051112044            2 
  533000    1.1905567   -5.4214326    318.09381  0.049733242  0.051101651            2 
  534000    1.1739021   -5.3774825    321.85894  0.050227675  0.051092341            3 
  535000    1.1882486   -5.3327707    324.60446  0.050561442  0.051084471            2 
  536000    1.1662192   -5.3874609    321.52712  0.049988669   0.05107634            2 
  537000    1.1638129   -5.3775937    324.27847  0.050322544  0.051067585            2 
  538000    1.1449053   -5.3787809    324.04788   0.05019329  0.051059919            2 
  539000    1.1445563   -5.3790876    325.29106  0.050292372  0.051052654            1 
  540000    1.1512703   -5.3441574    326.71377  0.050418792  0.051045095            3 
  541000    1.1509557   -5.3889055     325.2915  0.050106516    0.0510366            1 
  542000    1.1517232   -5.3959996    325.91498  0.050109929  0.051027769            3 
  543000    1.1711846   -5.3941378    326.77969  0.050150351  0.051018798            4 
  544000    1.1810356    -5.367007    327.13351  0.050112364  0.051010488            3 
  545000     1.148616   -5.3730354    327.27888  0.050042642  0.051001863            2 
  546000    1.1636464   -5.3698828    329.58653  0.050303195  0.050994255            4 
  547000    1.1791835   -5.3846593     329.1423  0.050143556  0.050987378            4 
  548000    1.1728851   -5.3908998    329.60848  0.050122945  0.050979347            3 
  549000     1.144222   -5.4191173    329.70742  0.050046664  0.050972011            3 
  550000    1.1358943    -5.395673    331.60762  0.050243578  0.050963277            3 
  551000    1.2002479   -5.3677354     332.0101  0.050213263  0.050954876            6 
  552000    1.1677863    -5.370929    331.86303  0.050100095  0.050946344            2 
  553000    1.1677054   -5.3937015     331.7886  0.049998282  0.050937658            3 
  554000    1.1358566   -5.3718884    332.40211  0.050000317  0.050928655            3 
  555000    1.1726839   -5.4110111    332.71867  0.049957759  0.050920687            3 
  556000    1.1492607   -5.3803008    334.23757  0.050095559  0.050912023            2 
  557000    1.1822939   -5.3897673    334.05073  0.049977667  0.050903955            2 
  558000    1.1579762   -5.3663785    336.40512  0.050239713  0.050895582            4 
  559000    1.1747806   -5.3731686     336.5935  0.050177922  0.050888946            6 
  560000    1.1421668   -5.3559586    337.48866  0.050221527  0.050881139            1 
  561000    1.1654782   -5.4063884    336.29083  0.049954074  0.050873745            3 
  562000     1.157772   -5.3658821    338.90048  0.050252147  0.050865982            3 
  563000    1.1767115   -5.3548995    338.73727  0.050138731  0.050858409            4 
  564000    1.1730797   -5.4168313    337.50686  0.049868034  0.050850089            2 
  565000    1.1537109   -5.3652485    338.90228  0.049985586  0.050842746            4 
  566000    1.1559597   -5.4034611    339.07494  0.049922695  0.050835299            2 
  567000    1.1457534   -5.4027093    340.66547  0.050068412  0.050827551            3 
  568000    1.1777725   -5.3827431     340.7643  0.049994762  0.050820504            3 
  569000    1.1583587    -5.323937    341.93166  0.050077864  0.050813396            2 
  570000    1.1593692    -5.406159    342.64828  0.050094778  0.050805259            3 
  571000    1.1766266   -5.3801071    342.65065  0.050007392  0.050797266            2 
  572000    1.1611302   -5.3811203    343.17428  0.049996252  0.050788751            3 
  573000    1.1444638    -5.407101    343.46554  0.049951358  0.050780319            2 
  574000     1.130711   -5.3502932    345.12445  0.050105176   0.05077243            3 
  575000    1.1622585    -5.368767    344.27134  0.049894397  0.050764032            3 
  576000    1.1549705   -5.3977993    344.66193  0.049864284  0.050755454            4 
  577000    1.1502702   -5.3401577    346.06838   0.04998099  0.050747847            3 
  578000    1.1721406   -5.3917533    346.15987  0.049907709  0.050739769            3 
  579000    1.1738057   -5.4038564    346.68833  0.049897573  0.050731226            3 
  580000    1.1560236    -5.410998    347.18653  0.049883123  0.050722487            3 
  581000    1.1523408   -5.3700137    348.65797  0.050008314  0.050715257            2 
  582000    1.1747665   -5.3920255    347.47327   0.04975276   0.05070694            2 
  583000    1.1732166   -5.3997584    347.89478   0.04972767  0.050698677            2 
  584000    1.1421927   -5.3912998    349.64074  0.049891657  0.050689318            5 
  585000    1.1662764    -5.425417    349.25172  0.049750957  0.050681482            2 
  586000    1.1603772   -5.3585037    350.21017  0.049802357  0.050673318            3 
  587000    1.1772874   -5.3469386    351.64718  0.049921519  0.050666023            2 
  588000    1.1504998   -5.4267677    350.98322   0.04974252  0.050657846            3 
  589000     1.153818   -5.3784117     353.3831  0.049997609  0.050650709            3 
  590000    1.1285114   -5.4053034    353.64487   0.04994984   0.05064334            2 
  591000     1.184851   -5.3753394    354.28864  0.049956097  0.050635339            3 
  592000    1.1510322   -5.4083391    353.83136  0.049807342  0.050627277            2 
  593000    1.1307803   -5.3821691    353.85764  0.049727044   0.05061933            2 
  594000    1.1581824   -5.3922731    354.74104  0.049767261  0.050610663            2 
  595000    1.1715931   -5.3901965    355.97013   0.04985576  0.050602091            2 
  596000    1.1508093   -5.3867028    355.71444  0.049736359  0.050593901            6 
  597000    1.1461582   -5.3661835    357.73458  0.049935034  0.050585032            2 
  598000    1.1577513   -5.3976718    357.04234  0.049755064  0.050575941            1 
  599000    1.1667589   -5.3965555    356.90669  0.049653129  0.050568029            4 
  600000    1.1448321   -5.4010233    357.56873  0.049662324  0.050559098            4 
  601000    1.1717852   -5.4340427    359.05038  0.049785133  0.050549789            1 
  602000    1.1517259   -5.3855647    360.47777  0.049900023  0.050541178            3 
  603000    1.1585936   -5.3737595    359.84236  0.049729458  0.050532812            7 
  604000    1.1661132   -5.3828762    360.10647  0.049683564  0.050524742            2 
  605000     1.158859   -5.3993682    360.64836  0.049676083  0.050516247            2 
  606000    1.1571646   -5.3850201    361.35989  0.049691954   0.05050708            2 
  607000     1.155605   -5.4740189    360.80365  0.049533725  0.050498743            5 
  608000    1.1195806   -5.4200165    361.01241  0.049480868  0.050489634            4 
  609000    1.1546234   -5.4065735    362.90681  0.049658841  0.050481549            2 
  610000     1.164695   -5.4104974    363.54615  0.049664775  0.050473913            5 
  611000    1.1457297   -5.4177445    364.98799  0.049780141  0.050465426            2 
  612000    1.1558017   -5.4061308     364.7059  0.049660389   0.05045701            4 
  613000    1.1582002   -5.4251825    365.37367  0.049670157  0.050448651            4 
  614000    1.1438308   -5.4353412    365.07301  0.049548454  0.050440433            4 
  615000    1.1430941   -5.3934617     365.0887  0.049470014  0.050432237            4 
  616000    1.1742928   -5.3859277    367.38964   0.04970098  0.050423936            2 
  617000    1.1502578   -5.3995537    368.00653  0.049703746  0.050416069            6 
  618000    1.1515571   -5.4131483    368.35113  0.049669785  0.050408835            3 
  619000    1.1361102   -5.3658184     369.7216  0.049774045  0.050401238            2 
  620000     1.166314   -5.3848694    369.38567  0.049648612  0.050393436            2 
  621000    1.1668302   -5.3386523    371.60395  0.049866338  0.050385338            1 
  622000    1.1471226   -5.3804562    370.63872  0.049656849  0.050377254            2 
  623000    1.1691746   -5.3994354    370.05077  0.049498498    0.0503687            2 
  624000    1.1292013    -5.449058    370.12761  0.049429435  0.050359012            1 
  625000    1.1526003   -5.4423506    370.85014  0.049446686  0.050349401            4 
  626000    1.1262925   -5.3857323    372.94112  0.049646049  0.050339764            1 
  627000    1.1673193   -5.4318876    371.48365  0.049373159  0.050330041            3 
  628000    1.1642693   -5.3763629    373.70528  0.049589342  0.050321026            3 
  629000    1.1488732   -5.4049982    373.37463  0.049466697  0.050312285            4 
  630000    1.1653532   -5.4255352    374.52018  0.049539706  0.050303079            4 
  631000    1.1484692   -5.4130909    373.27601  0.049296885  0.050293532            2 
  632000     1.169201   -5.4166011    372.89447  0.049168575  0.050283505            4 
  633000    1.1449174   -5.3872789    376.07563  0.049509694  0.050273482            2 
  634000    1.1320134   -5.4024621    374.80909  0.049265128  0.050263295            4 
  635000    1.1937326   -5.4094022     375.4223  0.049268018   0.05025308           10 
  636000     1.146886   -5.3940641    377.28159  0.049434171  0.050242708            4 
  637000    1.1478352   -5.4287746    376.70884  0.049281638  0.050232905            4 
  638000    1.1830564   -5.3991295    376.95316  0.049236306  0.050221869            7 
  639000    1.1352952   -5.4237973    378.87635  0.049410061  0.050211743            1 
  640000    1.1606056      -5.4014    378.33195  0.049261973  0.050201689            3 
  641000    1.1718246   -5.4172548    377.81529  0.049117952  0.050191399            4 
  642000    1.1197601   -5.4145663    377.51448  0.049002399  0.050180289            2 
  643000    1.1496777    -5.386794    380.46451  0.049308516  0.050168647            4 
  644000    1.1457251   -5.4284397    378.80303  0.049016955  0.050157265            3 
  645000    1.1357722   -5.3965838    380.73263  0.049190262  0.050146575            4 
  646000     1.161703   -5.4118267    381.81202  0.049253356  0.050135588            3 
  647000    1.1673465   -5.3878683    382.70936  0.049292807  0.050125232            2 
  648000    1.1380802   -5.4055862    382.88226  0.049238973  0.050115358            3 
  649000    1.1399166   -5.3988184     383.5292  0.049246174   0.05010499            2 
  650000    1.1249724   -5.4188856    383.18258  0.049125972  0.050095418            3 
  651000    1.1330111   -5.4260615    385.46082  0.049342143  0.050084664            9 
  652000    1.1307563   -5.4148207    385.36942  0.049254783  0.050074074            2 
  653000    1.1619169   -5.4350449    385.66097   0.04921656   0.05006403            5 
  654000    1.1721351   -5.4429649    385.78718  0.049157388  0.050054178            2 
  655000     1.143812   -5.4532877     385.8826  0.049094479  0.050044722            7 
  656000    1.1459211   -5.4231349    386.97565  0.049158492  0.050035122            5 
  657000    1.1572459   -5.4175611    387.07552  0.049096337  0.050025162            2 
  658000    1.1425635   -5.4310931    389.20921  0.049291946  0.050015862            2 
  659000    1.1419676   -5.4017468    389.07203  0.049199801  0.050006207            2 
  660000    1.1506447    -5.438436    389.51653   0.04918138  0.049996987            3 
  661000    1.1365618   -5.4271515    391.01779  0.049296242  0.049988529            3 
  662000    1.1592283   -5.4245319     389.9208  0.049083686  0.049979251            5 
  663000    1.1240529   -5.3658667     392.1298  0.049287305  0.049969979            3 
  664000    1.1743593   -5.3764991    392.56984  0.049268303  0.049961954            1 
  665000     1.149615   -5.4174384    393.13191  0.049264651  0.049952899            3 
  666000    1.1618541   -5.4254243    393.74272  0.049267108   0.04994448            7 
  667000    1.1287347   -5.4317796    393.52386  0.049165899  0.049936362            2 
  668000    1.1458701   -5.3846982    395.03387  0.049280673  0.049928076            2 
  669000    1.1616002    -5.431226    393.78117  0.049050968  0.049919133            2 
  670000    1.1437713   -5.4203684    395.22155   0.04915691  0.049910347            2 
  671000    1.1362823   -5.4089323    396.10815  0.049193759  0.049901824            2 
  672000    1.1751477   -5.4150352    396.80627  0.049207127  0.049893577            5 
  673000    1.1229045   -5.3822134    397.89078  0.049268298  0.049885223            3 
  674000    1.1524527   -5.3919952    397.24248  0.049115045  0.049877059            2 
  675000    1.1425649   -5.4216865     398.8859  0.049245173  0.049868837            3 
  676000    1.1440856    -5.414746    398.81676  0.049163802  0.049860643            3 
  677000      1.14405   -5.3811575      398.963  0.049109183  0.049852041            2 
  678000    1.1296148   -5.4036605    399.82415  0.049142594  0.049844085            2 
  679000    1.1564283   -5.4467648    399.28886  0.049004524  0.049836072            4 
  680000    1.1374139   -5.3979376    401.63963  0.049220543  0.049827438            1 
  681000    1.1411484   -5.4262977    400.79385  0.049044769  0.049819315            4 
  682000     1.139236   -5.4397993     401.7485  0.049089504  0.049810716            3 
  683000    1.1384057   -5.3892644    403.34772  0.049212752  0.049802426            4 
  684000    1.1318596   -5.4054572    404.42191  0.049271675  0.049794379            4 
  685000    1.1410959   -5.4162006    404.03681  0.049152896  0.049786936            2 
  686000    1.1428502   -5.4473725    403.86499  0.049060373  0.049779021            4 
  687000     1.123834   -5.4563846    404.51206   0.04906745  0.049770714            5 
  688000    1.1327955   -5.4387004    404.35121  0.048976648   0.04976269            2 
  689000    1.1396904   -5.4192179    405.76318   0.04907634  0.049754412            3 
  690000    1.1234419   -5.4437459    406.30275   0.04907038  0.049746113            6 
  691000    1.1350234   -5.4195901    407.93909  0.049196706  0.049737588            3 
  692000    1.1640881   -5.4004022    407.90959   0.04912206  0.049729769            5 
  693000    1.1650729   -5.4000264    409.83266  0.049282427  0.049722503            2 
  694000      1.12637   -5.4422627    407.83498  0.048971539  0.049714535            2 
  695000    1.1529976   -5.4083949    409.09119  0.049051702  0.049706647            8 
  696000    1.1430583     -5.44009    409.41393  0.049019867  0.049698451            3 
  697000    1.1262704   -5.4285127    409.69999  0.048983739  0.049689445            2 
  698000     1.120874   -5.4422485    412.06287  0.049195663   0.04968095            2 
  699000    1.1582979   -5.4207384    410.18819  0.048901787  0.049672626            3 
  700000    1.1404586   -5.3698148    413.58714  0.049236564  0.049664902            4 
  701000    1.1521875   -5.3418356    412.59965  0.049048936    0.0496578            3 
  702000    1.1348727   -5.4189562    414.00564  0.049145969  0.049650581            2 
  703000    1.1389476   -5.4392876    415.22097  0.049220125  0.049643661            2 
  704000    1.1609276   -5.4068936    415.99659  0.049242021   0.04963607            4 
  705000    1.1260739   -5.4415888    414.28213  0.048969519   0.04962819            2 
  706000    1.1357401   -5.4382836    414.98002  0.048982534  0.049620082            6 
  707000    1.1665188   -5.3933496    416.08395   0.04904337  0.049611638            1 
  708000    1.1595278   -5.4846414     415.9112  0.048953767  0.049603822            3 
  709000     1.136922   -5.4190542    416.26128  0.048925868   0.04959571            3 
  710000    1.1338525   -5.4427222    418.35811  0.049103064  0.049588175            2 
  711000    1.1415891   -5.4444497    418.08267   0.04900172  0.049581357            2 
  712000    1.1119226   -5.4673991    418.14164  0.048939798   0.04957477            5 
  713000    1.1337851   -5.4456349     420.6401  0.049163172  0.049566625            3 
  714000    1.1319019   -5.4598339    419.05596  0.048909425  0.049559297            2 
  715000    1.1409801   -5.4378193    422.06731  0.049191994  0.049551747            5 
  716000    1.1140623   -5.4250334    421.81008  0.049093352  0.049544432            3 
  717000    1.1466425   -5.4107678    421.28297  0.048963618  0.049537171            4 
  718000      1.12251   -5.4292199    422.62346  0.049051005  0.049529347            5 
  719000    1.1528186   -5.4514272    422.44538  0.048962145  0.049521633            2 
  720000    1.1309749   -5.4222853    423.64983  0.049033545  0.049513794            3 
  721000     1.129308   -5.4443684    423.28239  0.048923068  0.049505945            2 
  722000    1.1042705   -5.3869929    426.34234  0.049208488  0.049498799            3 
  723000    1.1326751   -5.4363003    425.72107  0.049068819  0.049491696            3 
  724000    1.1552241   -5.4085425     424.6121  0.048873401  0.049484503            3 
  725000    1.1278919   -5.4237001    426.13677  0.048981237  0.049476176            4 
  726000    1.1259153   -5.4571613    424.97051  0.048779902  0.049468429            2 
  727000    1.1157662   -5.4593254    426.79486  0.048921923  0.049460329            4 
  728000    1.1334332   -5.4472993    426.93362  0.048870606  0.049452342            4 
  729000    1.1143474   -5.4823555    425.89578  0.048684932   0.04944443            5 
  730000    1.1317218   -5.4001265    429.01073  0.048973827  0.049436677            4 
  731000    1.1335396   -5.4468052     427.7959  0.048768343  0.049429156            5 
  732000    1.1710959    -5.450949    427.89749  0.048713285  0.049421144            6 
  733000    1.1188123   -5.4421925    429.71571  0.048853537  0.049413301            2 
  734000    1.1394691   -5.4297273     429.3537  0.048745878  0.049405322            2 
  735000    1.1291058    -5.401233    429.98484  0.048751115   0.04939688            1 
  736000    1.1414443   -5.3978712    432.20033  0.048935726  0.049388475            2 
  737000    1.1172206    -5.460979    430.46721  0.048673362  0.049380418            4 
  738000    1.1470688   -5.4569531    430.24625  0.048582458  0.049371762            6 
  739000    1.1695901    -5.434175     432.0004  0.048714524  0.049362253            2 
  740000    1.1227785   -5.4337375    433.57832  0.048826387  0.049353089            3 
  741000    1.1480133   -5.4621076    432.04947   0.04858856  0.049344248            2 
  742000    1.1256663   -5.4567054    434.12098  0.048755726  0.049334895            1 
  743000    1.1057574   -5.4614492    433.46743  0.048616805  0.049326203            4 
  744000    1.1289374   -5.4280748    433.93546  0.048603882  0.049317356            2 
  745000    1.1200173   -5.4496558    433.97912  0.048543526  0.049308092            4 
  746000      1.11868   -5.4520183     435.2427  0.048619605  0.049299375            3 
  747000    1.1352173     -5.46426    435.03796  0.048531678  0.049290472            2 
  748000    1.1181305   -5.4918007    435.81783   0.04855368  0.049281602            4 
  749000    1.1126786   -5.4424037    437.07398  0.048628614  0.049271998            5 
  750000    1.1414508   -5.4567023    436.58941  0.048509934  0.049262125            2 
  751000    1.1238127   -5.4742557    436.97866  0.048488533  0.049252751            2 
  752000    1.1195257   -5.4266658    439.48639  0.048701949  0.049244005            3 
  753000    1.1235723   -5.4452609    439.36596  0.048623945  0.049235132            4 
  754000    1.1476063   -5.4424558    440.12003  0.048642798  0.049226082            4 
  755000    1.1486539   -5.4525291    438.74701  0.048426822  0.049217122            1 
  756000    1.1362834   -5.4412718    441.56721  0.048673635  0.049208653            2 
  757000    1.1366492   -5.4190277    440.23257  0.048462414   0.04920012            1 
  758000    1.1260369   -5.4379721    440.55512   0.04843394  0.049191546            3 
  759000     1.135348   -5.4518091    441.38995  0.048461786  0.049182797            2 
  760000     1.134191   -5.4239801    444.20797  0.048707015  0.049174599            3 
  761000    1.1280805   -5.4615549    442.59203  0.048466057  0.049165498            2 
  762000    1.1424136   -5.4458382    444.65848  0.048628443  0.049156462            2 
  763000    1.1143772   -5.4552492    444.44308  0.048541184  0.049147594            3 
  764000    1.1146846   -5.4525193    443.68369  0.048394818  0.049137883            3 
  765000    1.1106381   -5.4722018    445.20428  0.048497198  0.049128316            3 
  766000    1.1360777    -5.432654    445.10216  0.048422777  0.049118484            1 
  767000    1.1375927   -5.4187931    446.42977  0.048503886   0.04910864            4 
  768000    1.1240333   -5.4777286    446.52703  0.048451284  0.049099021            4 
  769000    1.0992385   -5.4761003    445.79454  0.048308901  0.049089893            2 
  770000    1.1014996   -5.4542778    446.81598  0.048356708  0.049080605            9 
  771000    1.1366212   -5.4356401    448.33962   0.04845867  0.049071424            2 
  772000    1.1301747   -5.4077912    450.42089  0.048620563   0.04906285            2 
  773000    1.1353935   -5.4893742    448.13004  0.048310699  0.049054109            1 
  774000    1.1242738    -5.457239     448.8933  0.048330459  0.049045353            5 
  775000    1.1184103   -5.4695892    448.40244  0.048215317  0.049035604            4 
  776000    1.1258497   -5.4895593    448.77727  0.048193436  0.049025507            2 
  777000    1.1301323    -5.475166    448.99496  0.048154758   0.04901491            3 
  778000    1.1151873   -5.4259314    452.41188  0.048458856  0.049005537            2 
  779000    1.1391258    -5.437043    451.45945  0.048294764  0.048995606            2 
  780000    1.1483098   -5.4354867    450.82737  0.048165317  0.048985871            4 
  781000    1.1447153    -5.462436    452.16382  0.048246246   0.04897629            1 
  782000    1.1208933   -5.4751507     451.3429   0.04809707  0.048966238            4 
  783000    1.1097707   -5.4756654    452.70959  0.048181098  0.048955995            3 
  784000    1.1268207   -5.4670768    452.92164  0.048142181  0.048945748            2 
  785000    1.1553476    -5.469191    453.22045  0.048112575  0.048935805            4 
  786000     1.119799   -5.4421118    454.79678  0.048218488  0.048926736            4 
  787000     1.134135   -5.4699978    455.47292  0.048228814  0.048917705            3 
  788000    1.1436869   -5.4657624    454.51921  0.048066752  0.048907933            2 
  789000    1.1386152   -5.4825607    456.12101  0.048175012  0.048898327            3 
  790000    1.1367825    -5.450096    458.44381  0.048359051  0.048889177            3 
  791000    1.1203823   -5.5057258    456.80431  0.048125191  0.048879988            3 
  792000    1.1291553   -5.5095341    458.29645  0.048221428   0.04887057            6 
  793000    1.1097285   -5.4446494    458.95258   0.04822957  0.048861485            4 
  794000    1.1237277   -5.4486322    459.16411  0.048191027  0.048852375            6 
  795000    1.1234127   -5.4590763    460.31568  0.048251119  0.048843478            3 
  796000    1.1076076   -5.4928844    457.61323  0.047907583  0.048834178            2 
  797000    1.1081125   -5.4377368     460.1355  0.048111199  0.048824583            4 
  798000    1.1098973   -5.4442704    461.36271  0.048179063  0.048815423            2 
  799000    1.1286478   -5.4543044    462.48159   0.04823546  0.048806359            3 
  800000    1.1066795    -5.452396    461.09649  0.048030884  0.048797105            5 
  801000    1.1352932   -5.4914618    460.75386  0.047935275  0.048787599            2 
  802000    1.1117391   -5.4788813    462.81204  0.048089365  0.048777847            8 
  803000    1.1147588    -5.481266    463.08684  0.048057995  0.048768247           11 
  804000    1.1245988   -5.4245766    464.60501  0.048155577  0.048758942            3 
  805000    1.1310876   -5.4867373    463.32881  0.047963645   0.04874912            4 
  806000    1.1358533   -5.4605564     464.7213  0.048048108  0.048739587            5 
  807000    1.1184916   -5.4550956    466.12579  0.048133601  0.048730189            5 
  808000     1.119053   -5.4535144    467.72645  0.048239114  0.048720295            3 
  809000    1.1113013     -5.46079    465.61105  0.047961584  0.048710712            3 
  810000    1.1302304   -5.4788118    465.90239  0.047932345  0.048701116            6 
  811000    1.1314229   -5.4715935    465.86749  0.047869656  0.048691156            3 
  812000    1.1029243   -5.4473186    466.49554  0.047875158     0.048681            2 
  813000    1.1238915   -5.4715606    466.42116  0.047808647  0.048670716            1 
  814000    1.1431851   -5.4589347    465.37313  0.047642622  0.048659754            2 
  815000    1.1191873   -5.4365931    470.25043  0.048082866  0.048649512            2 
  816000     1.119038   -5.4631577    469.38144  0.047935196  0.048638802            2 
  817000    1.1155398   -5.4602814    469.68631  0.047907621  0.048628117            1 
  818000    1.1272584    -5.464578    468.68108  0.047746646  0.048617381            3 
  819000    1.1239405   -5.4323909     469.9732  0.047819821  0.048606873            2 
  820000    1.1169166   -5.4701021    472.06396   0.04797398  0.048596739            2 
  821000    1.1236068   -5.4580133    469.84362  0.047690176  0.048586096            1 
  822000    1.1361033   -5.4819846    469.90385  0.047638266  0.048575267            4 
  823000    1.1254107   -5.4811577    470.17884  0.047608226  0.048564099            2 
  824000    1.1257642   -5.4489418    471.31671  0.047665524  0.048552573            2 
  825000    1.1483381   -5.4760932    472.01773  0.047678558  0.048541497            2 
  826000    1.1405625   -5.4824343    472.69605  0.047689271  0.048530407            3 
  827000     1.133365   -5.4978173    472.23474  0.047585121  0.048519321            3 
  828000     1.097989   -5.5044673    472.87269  0.047591857  0.048508448            4 
  829000    1.1309762   -5.4582539    473.85106  0.047632796   0.04849791            3 
  830000    1.1128097   -5.4692584     474.6952  0.047660161  0.048487443            4 
  831000    1.0893995   -5.4648515    476.62689  0.047796519  0.048477664            3 
  832000    1.1306621   -5.4569625    477.22511  0.047798989  0.048467155            3 
  833000     1.114131   -5.5094913    475.54639  0.047573669  0.048456651            3 
  834000    1.1122455   -5.5018818    476.41742  0.047603659   0.04844605            4 
  835000     1.144327   -5.4559773     477.5042   0.04765511  0.048435953            2 
  836000    1.1120291   -5.4573023    478.27154  0.047674595  0.048425433            5 
  837000    1.1037635   -5.4688688    477.43038  0.047533889  0.048415166            8 
  838000    1.1301389   -5.4862339    480.17417  0.047750017  0.048404846            3 
  839000     1.120131   -5.4989054    477.71834   0.04744918  0.048394079            5 
  840000    1.1123053   -5.4833697    479.43587  0.047563082  0.048383469            1 
  841000    1.1353673   -5.4924264    480.70406   0.04763219  0.048373259            4 
  842000    1.1236124   -5.5018428    481.50397  0.047654787  0.048362177            3 
  843000    1.1193324   -5.4686597    481.23895  0.047572059  0.048351327            3 
  844000    1.1105645   -5.4515673    480.35608  0.047428523  0.048340599            1 
  845000    1.1101064   -5.4611693    481.93279  0.047527888  0.048329154            2 
  846000    1.1241731   -5.5316075    479.62716  0.047244598  0.048317486            3 
  847000    1.1205709   -5.4812007    481.94773  0.047417132  0.048306672            6 
  848000    1.0992142   -5.4726439    483.89049  0.047552132  0.048296167            5 
  849000    1.1243397   -5.4970124    483.43625  0.047451536  0.048286186            2 
  850000    1.1228947   -5.4743484    483.45959  0.047397999  0.048275774            5 
  851000    1.1048733    -5.501972    484.57425  0.047451454  0.048264898            2 
  852000    1.1245756   -5.5005092    484.68354   0.04740645  0.048254163            2 
  853000    1.1130436   -5.4693594    484.93398   0.04737534  0.048242898            1 
  854000    1.1065166   -5.5044919    486.28286  0.047451489  0.048232067            3 
  855000    1.1409085   -5.5011427    488.55436  0.047617384  0.048221941            4 
  856000    1.1252503   -5.4430023    488.18129  0.047525437  0.048211748            3 
  857000    1.0849881    -5.502787    487.30655  0.047384923  0.048201188            2 
  858000    1.1299643    -5.454827    487.55439  0.047353768  0.048190651            2 
  859000    1.0830399   -5.4746316    489.54843  0.047492087  0.048180191            7 
  860000    1.1294353   -5.4366959    490.79252  0.047557415   0.04816961           13 
  861000    1.1227283   -5.5011449    489.58249  0.047385065  0.048159154            2 
  862000    1.1334209    -5.489098    490.26731  0.047396298  0.048148505            3 
  863000    1.1347339   -5.4558483    491.49249  0.047459684   0.04813772            3 
  864000    1.1176111   -5.4416285    492.06298  0.047459778  0.048127003            4 
  865000    1.0959542   -5.4719865    492.60082  0.047456727  0.048115966            2 
  866000     1.129008   -5.4837765    491.59281  0.047304928   0.04810521            3 
  867000    1.1172517   -5.5000135    491.85449  0.047275518  0.048094247            2 
  868000    1.1172656   -5.4432404    493.41008  0.047370399   0.04808331            2 
  869000    1.1191213   -5.4946831     493.5146  0.047325911  0.048072933            3 
  870000    1.1078084   -5.4690097    495.56612  0.047468019     0.048063            3 
  871000    1.1308662   -5.4842474    496.16861  0.047471164  0.048053009            5 
  872000    1.1210226   -5.4743135    495.81463  0.047382897  0.048043092            2 
  873000    1.1145937   -5.5422089    495.60852  0.047308947  0.048032955           16 
  874000    1.0916708   -5.4442618    497.28728  0.047414882  0.048023044            4 
  875000    1.1118755   -5.5030007    497.60755  0.047391195  0.048013035            1 
  876000    1.1116362   -5.4994708    495.90973  0.047175583  0.048002967            4 
  877000    1.1030024   -5.4846293    498.67689  0.047384729  0.047993052            4 
  878000    1.1025806   -5.4984407    496.52389  0.047126413  0.047981977            2 
  879000    1.1147808   -5.5331054    496.34106  0.047055466  0.047971661            2 
  880000     1.140101   -5.4819426    499.74181  0.047324035  0.047960852            1 
  881000    1.1106013     -5.48188    498.50651  0.047153473  0.047950225            4 
  882000    1.1351565    -5.508841    501.44344  0.047377498  0.047939954            3 
  883000    1.1066769   -5.5511533    498.08531  0.047006918  0.047929736            3 
  884000    1.1322651   -5.5181122    499.57691  0.047094355  0.047918643            2 
  885000    1.0943377   -5.5057187    501.99026  0.047268386  0.047907637            3 
  886000    1.0931358   -5.5050775    501.12768  0.047133905  0.047897213            3 
  887000    1.1165944   -5.4850696     504.6749  0.047414027  0.047887504            4 
  888000    1.0993062    -5.505625    502.82091  0.047186647  0.047877423            1 
  889000    1.1192051    -5.475546    502.48216  0.047101815  0.047867298            2 
  890000    1.1007506   -5.5088364    504.21041  0.047210712   0.04785686            4 
  891000    1.1265722   -5.4896013    503.84416  0.047123472   0.04784673            1 
  892000    1.0942276   -5.5260016    505.33141  0.047209586  0.047836729            3 
  893000    1.0967244   -5.5267601    504.36543  0.047066576  0.047826483            3 
  894000    1.1188149    -5.474987    506.95111  0.047254951  0.047816545            2 
  895000    1.1205748   -5.5254751    505.84454  0.047099119  0.047806777            1 
  896000    1.1019114   -5.5199909    506.24994  0.047084258  0.047796915            2 
  897000    1.1138634   -5.4801036    508.16622  0.047209794  0.047786921            2 
  898000    1.1025235   -5.5022711    505.82567  0.046940021  0.047777225            1 
  899000    1.1095322   -5.5099613     508.6067  0.047145597  0.047767441            1 
  900000    1.1025461   -5.4965651    508.63583   0.04709591  0.047757306            3 
  901000     1.109277   -5.4855969    509.81881  0.047153053    0.0477473            4 
  902000    1.1027513   -5.4654023    510.78748   0.04719027  0.047737187            5 
  903000    1.1040268   -5.4669449    512.35058  0.047282261  0.047726784            2 
  904000    1.1239977   -5.4840039    509.93515  0.047007296  0.047716948            2 
  905000    1.1095485   -5.5490543    508.96509  0.046866031  0.047706595            3 
  906000     1.102801   -5.5219406    510.43389  0.046949401   0.04769618            2 
  907000    1.1087148   -5.4825191    512.44571  0.047082479  0.047685498            5 
  908000    1.0844989   -5.5317535    512.85005  0.047067736   0.04767549            2 
  909000    1.1453565   -5.5142084    511.84687  0.046923989  0.047665565            2 
  910000    1.0763132   -5.5043093    514.10166  0.047078906  0.047655557            4 
  911000     1.147592   -5.4902449    513.73772  0.046993937   0.04764589            3 
  912000    1.0847578   -5.4739082    514.59677  0.047020904  0.047636026            2 
  913000    1.1274432   -5.4706468    516.34638  0.047129097   0.04762601            9 
  914000    1.1288071   -5.4715036    517.53086  0.047185527  0.047617122            7 
  915000    1.1093774   -5.5035765    515.36427  0.046936637  0.047607693            3 
  916000    1.0927226   -5.4769083    519.43156  0.047255418  0.047598365            3 
  917000    1.1018301   -5.4709503    520.80772  0.047328946  0.047589312            2 
  918000    1.1103111   -5.4804092    518.44879  0.047063252  0.047580377            1 
  919000    1.1068444   -5.4934159    519.04144  0.047065782  0.047571153            2 
  920000    1.0912828   -5.4916467    518.21343  0.046939622  0.047561698            1 
  921000    1.1246624   -5.4773909    521.51177  0.047187095  0.047552877            6 
  922000    1.1106281   -5.4892239    520.80476  0.047072014  0.047543544            4 
  923000    1.1011819   -5.5166875     520.2151  0.046967777  0.047534504            2 
  924000      1.12101   -5.5081175    522.09536  0.047086522  0.047525548            3 
  925000    1.0759836   -5.4983865    521.92334   0.04702012  0.047516574            6 
  926000    1.0983012   -5.5031841    522.78924  0.047047268  0.047507345            3 
  927000    1.0912792   -5.4933239    523.21304  0.047034613   0.04749824            3 
  928000    1.1102112   -5.4784461    523.96829   0.04705175  0.047489437            2 
  929000    1.1061271   -5.5183344    524.01951  0.047005697  0.047480538            4 
  930000    1.0839854   -5.5276838    525.17576   0.04705876  0.047471571            2 
  931000     1.065023   -5.5308621    523.55528  0.046863165  0.047462536            2 
  932000    1.0749004   -5.4889778    525.95755  0.047027678  0.047453609            3 
  933000    1.1079738   -5.5271059      527.909  0.047151572  0.047445114            2 
  934000    1.0902203   -5.5163152    529.35702  0.047230284  0.047436615            3 
  935000    1.1118333   -5.4903478    529.70725  0.047210985  0.047428557            4 
  936000    1.0844985   -5.4996281    529.90415  0.047178076  0.047420067            8 
  937000    1.1016461   -5.5000312    527.80417  0.046940962  0.047411303            3 
  938000    1.0981528    -5.513071    528.94095  0.046991911  0.047402308            1 
  939000    1.1103091   -5.5058476    528.66594   0.04691746  0.047393887            5 
  940000    1.1322473   -5.5136697    530.48543   0.04702885  0.047385126            4 
  941000    1.1213298   -5.4976661    529.81515  0.046919514  0.047376409            4 
  942000    1.1084559   -5.4807746    528.83419  0.046782926  0.047367778            4 
  943000    1.0947654   -5.4981199     530.8447  0.046910985  0.047358836            3 
  944000    1.1026041    -5.494639    530.39641  0.046821717  0.047349988            2 
  945000    1.1065177   -5.5167436    530.90268  0.046816815  0.047341266            4 
  946000    1.1003227   -5.4904641    532.32941  0.046893006  0.047332274            3 
  947000    1.0792659   -5.5202225    532.51945  0.046860212  0.047323878            3 
  948000    1.1083502   -5.5005005    534.39862  0.046975969  0.047315276            3 
  949000    1.0998241   -5.5283002    534.06281   0.04689698  0.047306792            3 
  950000    1.0983749    -5.523837    534.15233  0.046855468   0.04729805            2 
  951000    1.0669584   -5.4883631     536.3251  0.046996592  0.047289528            3 
  952000    1.1038293   -5.4995028    536.30802   0.04694573  0.047280872            5 
  953000    1.1127067   -5.5162495    534.37994  0.046727872  0.047272268            3 
  954000    1.0871937   -5.5376441    535.17597  0.046748425  0.047263329            2 
  955000    1.0850338   -5.5068704    536.76558  0.046838183  0.047254214            2 
  956000    1.0950334   -5.4996441    537.52279  0.046855194  0.047245415            2 
  957000    1.1071071   -5.5074635    536.46151   0.04671382  0.047236316            6 
  958000    1.0993267   -5.5253958    536.74913  0.046690077   0.04722743            6 
  959000    1.1131763   -5.5085381    539.91287  0.046916308  0.047218436            4 
  960000    1.0844745   -5.5224141    540.10124  0.046883788   0.04720926            3 
  961000    1.1113495   -5.5066374    541.13831  0.046924932  0.047200384            3 
  962000    1.0913837   -5.5357605    539.95888  0.046773985  0.047191945            4 
  963000    1.1052879   -5.5020581    542.56359  0.046950812    0.0471836            4 
  964000    1.1132172   -5.5110466    540.71386  0.046742208  0.047175137            3 
  965000    1.0998865   -5.4739845    543.73649  0.046954792  0.047166802            7 
  966000    1.0874594   -5.4953555    543.73512  0.046906067  0.047158828            3 
  967000    1.0978616   -5.5404177    543.88234  0.046870247   0.04715089            4 
  968000    1.1162286   -5.5669524    541.92598  0.046653407   0.04714195            3 
  969000    1.1047946   -5.5069064     544.5649  0.046832206   0.04713334            4 
  970000     1.127558   -5.5393934    544.88396  0.046811337  0.047124686            7 
  971000    1.1039538   -5.4970475    546.07522  0.046865364  0.047116042            2 
  972000    1.1004738   -5.5470605    545.55669  0.046772693  0.047107835            3 
  973000      1.07304   -5.5354229    546.41766  0.046798361  0.047099685            3 
  974000    1.0674086   -5.5425195    544.64973  0.046599053  0.047091297            2 
  975000    1.0709429   -5.5373237    546.79209  0.046734367  0.047083246            3 
  976000    1.1051245   -5.5291151    547.03993  0.046707645  0.047075184            4 
  977000    1.0778234   -5.5315855    548.91367  0.046819658  0.047067167            5 
  978000    1.0900852   -5.5592164    546.37382   0.04655537  0.047059445            2 
  979000    1.0894073   -5.4888406    551.09219  0.046909448  0.047051478            4 
  980000    1.0826688   -5.4863384    550.28865  0.046793253  0.047043722            7 
  981000     1.082357   -5.5381903    550.06263  0.046726353  0.047035724            3 
  982000      1.11675   -5.5227046    551.04676  0.046762285  0.047027627            5 
  983000    1.0943215   -5.5557237    550.07451  0.046632292  0.047019527            2 
  984000    1.0748811   -5.5572124     553.9511  0.046913203  0.047011594            3 
  985000    1.1126955   -5.4964839    552.76883  0.046765553  0.047003425            6 
  986000    1.1214739   -5.5244511    552.73083  0.046714911   0.04699549            2 
  987000    1.0978822    -5.510229    553.38089  0.046722466  0.046987736            4 
  988000    1.0963563   -5.4966284    555.61798  0.046863865  0.046980525            2 
  989000    1.0998748   -5.5350704    552.71836  0.046572157  0.046972801            2 
  990000    1.0966515   -5.5787711    554.95972  0.046713781  0.046964864            3 
  991000    1.1110315   -5.4979967    554.60479  0.046636797  0.046957111            3 
  992000    1.0955683   -5.5134993    553.90347   0.04653087  0.046949279            2 
  993000    1.0853142   -5.5285088    555.16113  0.046589554  0.046941777            4 
  994000    1.1022793   -5.5368712    554.96565  0.046526296  0.046933671            2 
  995000    1.1066492   -5.5354612    556.54605  0.046611897  0.046925549            2 
  996000    1.0903928   -5.5374143    556.54225   0.04656478  0.046917578            5 
  997000    1.0775726   -5.5308841    557.63437  0.046609359  0.046909774            4 
  998000    1.1077332   -5.5278651    557.72849  0.046570515  0.046901497            4 
  999000    1.1010003   -5.5038612     558.4361  0.046582924  0.046893366            4 
 1000000    1.0975978   -5.5184652    560.41783  0.046701486  0.046885311            2 
 1001000    1.0838456   -5.5028935    561.01267  0.046704352  0.046877302            3 
 1002000    1.0905367   -5.5354957    559.12435  0.046500694  0.046868813            2 
 1003000    1.0969667   -5.5354027    558.62178  0.046412577   0.04686058            5 
 1004000    1.0948721   -5.5390238    561.37092  0.046594532  0.046852752            2 
 1005000     1.094469   -5.5046842    560.62968  0.046486707  0.046844253            2 
 1006000    1.1008545   -5.5114666    562.00868  0.046554728  0.046835779            2 
 1007000    1.1138312   -5.5191271    562.33324  0.046535356  0.046827414            6 
 1008000    1.1010479   -5.5228258    563.98485  0.046625732  0.046819698            2 
 1009000    1.1160067   -5.5515558    561.73607  0.046393795  0.046811876            4 
 1010000    1.1024284   -5.4955764     566.5626  0.046746089  0.046804034            5 
 1011000    1.1076067   -5.5641468    565.15403  0.046583748  0.046795963            4 
 1012000    1.0798797    -5.501659    566.42345  0.046642247  0.046788114            3 
 1013000    1.0837779   -5.5562126    564.22555  0.046415396  0.046780301            4 
 1014000    1.0814656   -5.5229051    565.94763  0.046511147  0.046772537           10 
 1015000    1.0863576   -5.5389949    567.06007  0.046556656  0.046764693            5 
 1016000    1.0981004   -5.5175788    568.36373   0.04661776  0.046757123            5 
 1017000    1.0785809   -5.5380077    567.92827  0.046536239  0.046749476            3 
 1018000    1.0905469   -5.5567666     567.4325  0.046449943  0.046740942            3 
 1019000     1.089017   -5.5516149    567.77509  0.046432375  0.046732373            2 
 1020000    1.0711619   -5.5493198    566.97178  0.046321224  0.046723925            5 
 1021000    1.0653856   -5.5303266    569.84461  0.046510334  0.046715634            2 
 1022000      1.09221   -5.5042473    569.97911  0.046475792  0.046707491            3 
 1023000    1.0875749   -5.5204327    568.96125  0.046347446  0.046699495            3 
 1024000    1.1211207   -5.5698623    569.74926  0.046366313  0.046691103            2 
 1025000    1.0770254   -5.5039014    573.31173  0.046610709  0.046683108            2 
 1026000    1.0796154   -5.5222943    570.58388   0.04634372  0.046675363            4 
 1027000    1.0996202   -5.5111279    571.69288  0.046388582  0.046667466            3 
 1028000    1.0489832   -5.5569476    572.08323    0.0463751  0.046659204            3 
 1029000    1.0729427   -5.5438446    572.20935  0.046340246  0.046650845            4 
 1030000    1.0846862   -5.5341469    573.61549   0.04640902  0.046642757            8 
 1031000    1.0949566   -5.5441727    571.65834  0.046205814  0.046634585            3 
 1032000    1.0889062   -5.5213209    572.94529  0.046264962  0.046625963            2 
 1033000    1.0980885   -5.5482639    573.71535  0.046282297   0.04661761            2 
 1034000    1.0700426   -5.5636783    575.25299  0.046361459  0.046609148            3 
 1035000    1.0903336   -5.5593109      574.304  0.046240258  0.046600156            2 
 1036000    1.0764688   -5.5845773    572.95609  0.046087201  0.046591413            1 
 1037000    1.0676148   -5.5449687    575.93087  0.046281812  0.046582461            2 
 1038000    1.1021665   -5.5697325    575.88248   0.04623334  0.046574141            4 
 1039000    1.0838871    -5.537048    575.79068  0.046181479  0.046565704            2 
 1040000    1.0840764   -5.5346811    574.07621  0.045999696  0.046557145            1 
 1041000    1.0955681   -5.5250265    577.73516  0.046248412  0.046548535            1 
 1042000     1.074775   -5.5311122     575.8127   0.04605028  0.046540332            3 
 1043000    1.0805179   -5.5659763     576.6589  0.046073737  0.046531484            2 
 1044000     1.102348   -5.5559969    576.63621  0.046027795  0.046522816            4 
 1045000     1.071221   -5.5535857    577.14727  0.046024503  0.046514006            4 
 1046000    1.0961078   -5.5597362    577.53082  0.046011059  0.046505046            4 
 1047000    1.0887761   -5.5527834    578.31326   0.04602939  0.046496015            8 
 1048000    1.0721117   -5.5093367    581.12221  0.046208827  0.046487183            3 
 1049000    1.0991465   -5.5745545    579.03722  0.045999144  0.046478422            3 
 1050000    1.0845386   -5.5537478    580.44565  0.046067115  0.046469612            2 
 1051000    1.0738832   -5.5343965    580.78627  0.046050291  0.046460761            2 
 1052000    1.1032247   -5.5563156    581.67354  0.046076801  0.046452085            4 
 1053000    1.0813444   -5.5034991     582.9791  0.046136364  0.046442875            6 
 1054000     1.096093   -5.5115462    583.19725   0.04610984  0.046433894            3 
 1055000    1.0783607   -5.5731364    581.57724  0.045938171  0.046425054            4 
 1056000    1.0744151   -5.5463883    581.37533  0.045878735  0.046416121            2 
 1057000    1.0983145   -5.5813187     580.6409  0.045777428  0.046407137            3 
 1058000     1.077451   -5.5485928    583.16669  0.045933104  0.046398058            4 
 1059000    1.0656075    -5.534745    583.84466   0.04594308  0.046388869            3 
 1060000    1.0816229   -5.5430788    582.77319  0.045815502  0.046380111            6 
 1061000    1.0834341   -5.5729763    581.87952   0.04570213  0.046370753            5 
 1062000    1.0762973   -5.5413285    583.97918  0.045823853  0.046360982            2 
 1063000    1.0836427     -5.58785    583.21524  0.045720856   0.04635183            3 
 1064000    1.0992593   -5.5346254    586.42107  0.045928969  0.046342592            3 
 1065000    1.0988612   -5.5625544    586.19439  0.045868106  0.046333504            6 
 1066000    1.0956951   -5.5353682    587.93498  0.045961146  0.046324396            2 
 1067000    1.0729622   -5.5337644    586.24968  0.045786448  0.046315098            2 
 1068000    1.0769782   -5.5972362    583.86128  0.045557216  0.046306151            2 
 1069000    1.0821894   -5.5918074    586.19618  0.045696615   0.04629666            4 
 1070000    1.0841617   -5.5736214    587.53485  0.045758166  0.046286844            3 
 1071000    1.0784818   -5.5651531      588.085  0.045758248  0.046277241            2 
 1072000     1.093387    -5.525774    588.11119  0.045717599  0.046267645            2 
 1073000    1.0620879   -5.5635922    586.56465  0.045554881  0.046257991            2 
 1074000     1.082494   -5.5750224    588.23554  0.045642112   0.04624818            3 
 1075000    1.0678813   -5.5283275    589.83415  0.045723577  0.046238448            4 
 1076000    1.0806805   -5.5691892    588.54011  0.045580863  0.046228582            6 
 1077000    1.0645805   -5.5895786    590.10182   0.04565938  0.046218993            3 
 1078000    1.0585334   -5.5559347    589.39884  0.045562681  0.046208823            6 
 1079000     1.076123   -5.5244164    591.28425  0.045666068  0.046198887            2 
 1080000    1.0706353   -5.6044023    587.73017   0.04534955  0.046188969            3 
 1081000    1.0842042   -5.5578958    590.20293  0.045498222  0.046178996            4 
 1082000    1.0677556   -5.6042573    591.81343  0.045580208  0.046168646            4 
 1083000    1.0751607   -5.5327283     590.5136  0.045438104    0.0461589            7 
 1084000    1.0700958   -5.5474607    593.57602  0.045631612  0.046149235            4 
 1085000    1.0631458   -5.5405327    595.10577  0.045707048   0.04613953            2 
 1086000    1.0638124   -5.5369706     593.6438  0.045552778  0.046129533            3 
 1087000     1.057573   -5.5731662    594.54773   0.04558017  0.046119454            2 
 1088000    1.0723094   -5.5195424    594.30452  0.045519648  0.046109322            4 
 1089000    1.1049938    -5.563201    595.63934  0.045579992  0.046098871            3 
 1090000    1.0692706     -5.57281     591.8546  0.045248822  0.046088963            4 
 1091000     1.086711   -5.6090646    591.79502  0.045202797  0.046078333            5 
 1092000    1.0808513   -5.5439625    595.40998  0.045437269  0.046067837            7 
 1093000     1.088279   -5.5422566    596.31106  0.045464399   0.04605776            3 
 1094000    1.0816667   -5.5298936    595.09889  0.045330506  0.046047202            3 
 1095000    1.0730175   -5.5837908    593.58717  0.045174062  0.046036447            4 
 1096000    1.0713744   -5.5296711    595.57836  0.045284243  0.046025782            3 
 1097000    1.0703571   -5.6115131    595.13725  0.045209454  0.046015121            3 
 1098000    1.0967662   -5.5363287    597.88206  0.045376598   0.04600416            1 
 1099000    1.0769659   -5.5323354     597.8207  0.045330657  0.045994013            2 
 1100000    1.0693887   -5.5927226    598.66918  0.045353726  0.045983495            3 
 1101000    1.0724005   -5.5552296    598.22183  0.045278673  0.045973253            3 
 1102000     1.050889   -5.5640102    597.86078  0.045210283  0.045962569            5 
 1103000    1.0680201   -5.5685308    598.49504  0.045217214  0.045952296            3 
 1104000    1.0818406   -5.5547874    601.20178  0.045380569  0.045942171            2 
 1105000    1.0795471   -5.5555167     601.5508  0.045365822  0.045932111            5 
 1106000    1.0966745   -5.5665923    602.71398  0.045412445  0.045921991            4 
 1107000    1.0540608    -5.529138    603.80404  0.045453481  0.045912013            1 
 1108000    1.0879425    -5.567909     603.1845  0.045365862  0.045902295            2 
 1109000    1.0704485   -5.5613885    603.94411  0.045382034  0.045892633            2 
 1110000    1.0923289   -5.5650924    603.36278  0.045297506  0.045882528            4 
 1111000     1.063417   -5.5622753    604.86246  0.045369222  0.045872381            7 
 1112000    1.0657317   -5.6008852    603.87935  0.045254748  0.045862128            2 
 1113000    1.0566476   -5.5484997    605.21863  0.045314362  0.045852261            2 
 1114000     1.095914   -5.5714696    605.67599  0.045307899  0.045842943           11 
 1115000    1.0638384   -5.5706402    604.99826  0.045216611  0.045833485            3 
 1116000    1.0564771   -5.6044456    604.23584  0.045119163  0.045823849            8 
 1117000    1.0739527   -5.5967413    607.44563  0.045318236  0.045814106            2 
 1118000     1.076999   -5.5901436    607.07558  0.045250118  0.045804591            3 
 1119000    1.0986489   -5.5120542    610.48748  0.045463768  0.045795183            3 
 1120000    1.0845816   -5.5637392    608.25362  0.045256966  0.045786067            4 
 1121000    1.0641898    -5.574772    610.81055  0.045406672  0.045776854            8 
 1122000    1.0575966   -5.5977407    609.80199  0.045291295  0.045767492           15 
 1123000    1.0701981   -5.5536488    612.04741  0.045417588  0.045758611            8 
 1124000     1.079427   -5.5619196    611.10796   0.04530753  0.045749403            4 
 1125000    1.0950532     -5.56197    610.56442  0.045226994  0.045740083            4 
 1126000    1.0513349   -5.5721906    610.00594  0.045145496  0.045730737            5 
 1127000    1.0657245    -5.548759    611.24245  0.045196868  0.045721241            6 
 1128000    1.0437896   -5.5925879    610.70374  0.045117002   0.04571173            4 
 1129000    1.0580244   -5.5599505    613.85624  0.045309732  0.045702022            3 
 1130000    1.0821513   -5.5858873    611.54842  0.045099441  0.045692347            3 
 1131000    1.0597479   -5.5817696     612.0184  0.045094194  0.045682474            3 
 1132000    1.0903044   -5.5563833    615.01039  0.045274616  0.045673133            4 
 1133000    1.0798781   -5.5317702    614.61022  0.045205223   0.04566373            4 
 1134000    1.0457383   -5.5906253    613.59178  0.045090519  0.045654371            3 
 1135000    1.0818895   -5.5673422    614.05058  0.045084477  0.045644692            6 
 1136000    1.0599799   -5.5756942       613.19  0.044981661  0.045634762            2 
 1137000    1.0654735   -5.5330127    616.43166  0.045179688  0.045624952            2 
 1138000    1.0817916   -5.6021526    615.90982  0.045101773  0.045615196            3 
 1139000    1.0875482   -5.5463872    617.25435  0.045160546   0.04560582            5 
 1140000    1.0853726   -5.6275141    613.57677  0.044852103   0.04559546            3 
 1141000    1.0488113   -5.5748308    615.38103  0.044944569  0.045585531            3 
 1142000    1.0402689   -5.5854152    615.24028  0.044894941  0.045575628            3 
 1143000    1.0495741   -5.5612523    617.73252  0.045037367  0.045565319            4 
 1144000    1.0964668   -5.5655218     619.4256  0.045121329  0.045555342            5 
 1145000    1.0915915   -5.5868051     619.0385  0.045053748  0.045545468            5 
 1146000    1.0568133   -5.6167118    619.43062  0.045042948  0.045535601            4 
 1147000    1.0797292   -5.5934796     616.5183  0.044792088  0.045525795            3 
 1148000    1.0717049   -5.6123803    619.84468  0.044994532  0.045515531            2 
 1149000    1.0596203   -5.5830752    619.16618  0.044906163  0.045505217            5 
 1150000    1.0540547   -5.5819246    620.55262  0.044967581  0.045495093            6 
 1151000    1.0636482    -5.579461    620.94518  0.044956934  0.045485145            3 
 1152000    1.0483735   -5.5838103    619.43506   0.04480867  0.045474624            5 
 1153000     1.070947   -5.5967191    620.75502  0.044865208  0.045464452            3 
 1154000    1.0637834   -5.5845033    621.93523  0.044911556  0.045454347            1 
 1155000    1.0659316   -5.6118138    618.96809  0.044658592  0.045444023            4 
 1156000    1.0588715   -5.6203295     621.9156   0.04483244  0.045433915            4 
 1157000    1.0818867   -5.5974846    621.09712   0.04473474   0.04542351            3 
 1158000     1.091847    -5.570704    622.13194  0.044770577  0.045413227            7 
 1159000    1.0598806   -5.5842457    622.18838  0.044736007  0.045402935            4 
 1160000    1.0623328   -5.5764664    623.31787  0.044778582   0.04539254            2 
 1161000    1.0820538   -5.5891429    622.25356  0.044663621  0.045381968            3 
 1162000    1.0823317   -5.6404503    621.29637  0.044556538  0.045371376            3 
 1163000    1.0680569   -5.6012403    623.87257  0.044702821  0.045361397            3 
 1164000    1.0691602   -5.5811631    627.17264  0.044900676  0.045351059            3 
 1165000     1.051998   -5.5787323    625.95354  0.044774931  0.045340959            3 
 1166000    1.0569624   -5.6001139    628.65207  0.044929393  0.045330861            2 
 1167000    1.0631079   -5.5746252    626.42126  0.044731595  0.045320911            4 
 1168000    1.0606205    -5.571848    629.09158  0.044883817  0.045310694            8 
 1169000    1.0481567   -5.5651991    629.64059  0.044884559  0.045300517            3 
 1170000    1.0632172   -5.5646694    627.28718  0.044678574  0.045290981            2 
 1171000    1.0598446   -5.6153746    628.01075  0.044691912  0.045280882            2 
 1172000    1.0603023   -5.6117237    627.19431  0.044595728  0.045271042            5 
 1173000    1.0341424   -5.5936401    631.02901  0.044830137  0.045261376            3 
 1174000    1.0637548   -5.5875738    630.14778    0.0447294  0.045251619            1 
 1175000    1.0640451   -5.5584334    630.66658  0.044728126  0.045241671            2 
 1176000    1.0720277   -5.6048738    629.03563   0.04457452   0.04523177            3 
 1177000    1.0792996   -5.6136627    627.16178  0.044403978  0.045221016            2 
 1178000    1.0717531   -5.6087166    630.38727  0.044594459  0.045210317            4 
 1179000    1.0897795   -5.5951171    629.39222  0.044486303  0.045199712            3 
 1180000    1.0334737   -5.6157047    629.74353  0.044473413  0.045189076            3 
 1181000    1.0430896   -5.6005153    632.67751  0.044642782  0.045178982            8 
 1182000    1.0874153   -5.5749988     633.6082  0.044670629  0.045168974            2 
 1183000    1.0490924   -5.5708858    632.51433  0.044555814   0.04515835            6 
 1184000     1.084559   -5.6000717    631.59307  0.044453341  0.045147847            2 
 1185000    1.0509551   -5.5926557    633.79524  0.044570692  0.045137368            5 
 1186000    1.0277343   -5.5716267    632.77593   0.04446149  0.045127129            4 
 1187000    1.0525293   -5.5898469    632.51707   0.04440586  0.045116959            2 
 1188000    1.0601516   -5.5878951    634.17351  0.044484674  0.045106246            3 
 1189000    1.0712868   -5.6253938    635.71071  0.044554998  0.045095526            6 
 1190000    1.0645668   -5.5644909    636.28452   0.04455774  0.045084989            3 
 1191000     1.040392   -5.6025017    636.21383  0.044515382  0.045074856            2 
 1192000    1.0556178   -5.5678295    638.52537  0.044639637  0.045064576            2 
 1193000    1.0473154   -5.5667857    637.03808  0.044498329  0.045054672            5 
 1194000    1.0736369   -5.5835436    638.13237  0.044537435  0.045044622            2 
 1195000    1.0618788    -5.584745    637.15068  0.044431707  0.045034433            1 
 1196000    1.0317543   -5.6248132      638.967  0.044521112  0.045024087            5 
 1197000    1.0773634   -5.5905493    635.94656   0.04427364  0.045013564            4 
 1198000    1.0579095   -5.5900455    637.32605  0.044332641   0.04500278            2 
 1199000    1.0245904   -5.6125481    636.06769  0.044208207  0.044991988            5 
 1200000    1.0780073   -5.5983294    638.41208  0.044334172  0.044981253            3 
 1201000    1.0632701   -5.6225438    638.17794  0.044281012   0.04497056            5 
 1202000    1.0654928   -5.5948908    636.85624   0.04415254  0.044959623            3 
 1203000    1.0741543   -5.6160937    638.68878  0.044242781  0.044948258            4 
 1204000    1.0559801   -5.6103033    639.09217  0.044233954  0.044937227            5 
 1205000    1.0677429   -5.6023621    640.19569  0.044273561  0.044926262            2 
 1206000    1.0466846   -5.6186406      639.316  0.044176064  0.044915132            2 
 1207000    1.0295472   -5.6052614    638.07433  0.044053737  0.044904024            3 
 1208000    1.0940327   -5.6142153     640.4262  0.044179511  0.044892738            7 
 1209000    1.0506283   -5.6060571    642.01604  0.044252553  0.044881799            3 
 1210000    1.0510216   -5.6425968    639.19569  0.044021742  0.044870716            9 
 1211000    1.0515816   -5.6305543    639.72657  0.044021922  0.044859598            5 
 1212000    1.0562491   -5.6054926    642.64453   0.04418623  0.044848399            3 
 1213000    1.0754523   -5.5345474    642.44193  0.044135884   0.04483732            6 
 1214000    1.0457808   -5.6285153    640.87977  0.043992296   0.04482583            5 
 1215000    1.0537772   -5.5980259    643.06472  0.044105948  0.044814355            3 
 1216000    1.0662685   -5.5831302    642.50192  0.044031108  0.044803027            7 
 1217000    1.0635156    -5.602528    642.20827   0.04397482   0.04479196            7 
 1218000    1.0647791   -5.5777953    642.31267  0.043945859  0.044780622            3 
 1219000    1.0561589   -5.6112878    642.30639  0.043909378  0.044768995            3 
 1220000    1.0388899   -5.6276711    643.22864  0.043936382  0.044757671            2 
 1221000    1.0623638   -5.6126692    642.27857  0.043835557  0.044746393            3 
 1222000    1.0392144   -5.6021852    643.78728   0.04390257  0.044734551            7 
 1223000    1.0636277   -5.6249172    644.81576  0.043936751  0.044722977            5 
 1224000    1.0382052    -5.614837    643.37461  0.043802738  0.044711064            5 
 1225000    1.0644033   -5.6177885       644.86  0.043868027  0.044699545            4 
 1226000    1.0612985   -5.6109459    644.51034  0.043808479  0.044687966            2 
 1227000    1.0274365   -5.6060335    646.80263  0.043928459  0.044676582            4 
 1228000    1.0671049   -5.5916663    644.81808  0.043758013  0.044664962            5 
 1229000    1.0562509   -5.6082873    646.92654  0.043865374  0.044653444            2 
 1230000    1.0803964   -5.5914251     648.4627  0.043933787  0.044641649            4 
 1231000    1.0538651   -5.6033576    646.81793  0.043786754  0.044629819            7 
 1232000    1.0563351   -5.6028234    647.82103  0.043819063  0.044617872            4 
 1233000     1.052969   -5.5984006    648.07735  0.043800848  0.044605987            2 
 1234000    1.0313912   -5.6044139    649.90763  0.043888954  0.044594215            6 
 1235000     1.053771   -5.6110505    649.05347  0.043795781   0.04458251            4 
 1236000    1.0396539   -5.6105492    648.36682  0.043714052  0.044570581            3 
 1237000    1.0796853   -5.5933811    650.39092  0.043815071  0.044559161            3 
 1238000    1.0653113   -5.6074199    649.27203  0.043704364  0.044547362            2 
 1239000    1.0313662   -5.6113996    648.50239  0.043617325  0.044535795            4 
 1240000    1.0560231   -5.6026073     650.9602  0.043747325  0.044524283            4 
 1241000    1.0586507   -5.6452922    650.88655  0.043707128  0.044512977            6 
 1242000    1.0561529   -5.6202468      652.311  0.043767512   0.04450144            1 
 1243000    1.0647479   -5.5858131    650.94981  0.043641044  0.044489849            3 
 1244000    1.0492671   -5.6329232    650.98407  0.043608257   0.04447844            3 
 1245000    1.0552855   -5.6025845    655.00104  0.043842104  0.044467088            3 
 1246000     1.037619   -5.6212602    652.19371  0.043619162  0.044455774            3 
 1247000    1.0480644    -5.586691    651.01326  0.043505297  0.044444068            2 
 1248000    1.0596921   -5.6007864    654.02661  0.043671649  0.044432899            6 
 1249000    1.0352942   -5.6198165    653.15313  0.043578404  0.044421108            5 
 1250000    1.0550729   -5.6076442    654.13586  0.043609057   0.04440926            3 
 1251000    1.0401809   -5.5915847    654.08475  0.043570794  0.044397645            6 
 1252000    1.0472992   -5.5719302    655.72241  0.043644995   0.04438612            3 
 1253000    1.0575654   -5.6231745    653.90126  0.043489043  0.044374221            5 
 1254000    1.0500676    -5.626142    654.44813  0.043490705  0.044362274            4 
 1255000    1.0567916   -5.6311266    654.36539  0.043450557  0.044350192            6 
 1256000    1.0484227   -5.6546935    654.51515  0.043425899  0.044338062            3 
 1257000    1.0557397   -5.6351506    653.76623  0.043341702   0.04432599            5 
 1258000    1.0421866   -5.6100876    654.70277  0.043369288  0.044313885            2 
 1259000    1.0320024   -5.6099586    656.03093  0.043422751  0.044301815            4 
 1260000    1.0746658   -5.5968411    659.59476  0.043623992      0.04429            3 
 1261000    1.0531557    -5.618193    657.90441  0.043477691  0.044278207            5 
 1262000    1.0542304    -5.617262    660.17788  0.043593362   0.04426642            4 
 1263000    1.0778362   -5.6263586    656.97446  0.043347483  0.044254682            3 
 1264000    1.0593929    -5.629791     656.2343  0.043264392   0.04424278            3 
 1265000    1.0473916   -5.6379608    658.74081  0.043395311  0.044230982            4 
 1266000    1.0351255   -5.6334263    659.14496  0.043387636   0.04421963            4 
 1267000    1.0585825   -5.6433376     661.1933  0.043488115  0.044208376            4 
 1268000    1.0551657   -5.5996827    661.03692  0.043443541  0.044197006            3 
 1269000    1.0342646    -5.616383    662.37115  0.043496923   0.04418571           10 
 1270000    1.0433111   -5.6541117    660.43121  0.043335381  0.044174266            6 
 1271000    1.0391518   -5.6082584    663.23069  0.043484834  0.044162898            3 
 1272000    1.0447395   -5.6146613     663.5129  0.043469137  0.044151721            4 
 1273000    1.0684434   -5.6328134    663.57652  0.043439154  0.044140377            2 
 1274000    1.0616657   -5.6131654    666.17925  0.043575304  0.044128913            1 
 1275000    1.0338877   -5.6264322    664.69882  0.043444367  0.044117756            3 
 1276000    1.0448793    -5.628915    663.88377  0.043357091  0.044106203            3 
 1277000    1.0371713   -5.5668091    666.88774  0.043519168  0.044094908            6 
 1278000     1.074083    -5.618794    665.69425  0.043407293  0.044083927            5 
 1279000    1.0614573   -5.6115959    664.72622  0.043310282  0.044072592            4 
 1280000    1.0338731   -5.6422152    664.40233   0.04325536  0.044061165            2 
 1281000    1.0386591   -5.6355265    665.98782  0.043324734  0.044049467            2 
 1282000    1.0560166   -5.6434552    667.39872  0.043382652   0.04403805            5 
 1283000     1.049793   -5.6108433    665.94462  0.043254392  0.044026728            2 
 1284000    1.0375919   -5.6270329    666.52339  0.043258268  0.044015321            4 
 1285000    1.0450991   -5.6026846    667.32123  0.043276344  0.044003717            2 
 1286000    1.0192377   -5.6284885    665.77133  0.043142258   0.04399202            4 
 1287000    1.0491731   -5.6485755      663.301  0.042948783   0.04398021            2 
 1288000     1.059239   -5.6529882    665.67622  0.043069114  0.043968335            5 
 1289000    1.0737422   -5.6795023    664.52815  0.042961479  0.043956448            7 
 1290000    1.0783851   -5.6279811    668.54434  0.043187619  0.043944618            5 
 1291000    1.0434285   -5.5982141    669.76406  0.043232898  0.043932881            7 
 1292000     1.041487   -5.6277491    669.20554  0.043163412  0.043921145            2 
 1293000    1.0438075   -5.6099657     668.9834  0.043115713  0.043909467            3 
 1294000    1.0716664   -5.6271904    667.05186  0.042958003  0.043897823            6 
 1295000    1.0336477   -5.6349033    668.00307  0.042986041  0.043885992            5 
 1296000    1.0208627   -5.6305452    672.81878  0.043262525  0.043874302            4 
 1297000    1.0680563   -5.6329982    668.91073  0.042978073  0.043862617            4 
 1298000    1.0377136   -5.6383971    669.23125   0.04296554  0.043850967            4 
 1299000    1.0373121   -5.6279748    671.61817   0.04308559  0.043839498            2 
 1300000     1.048587   -5.6266304    671.46788  0.043042813   0.04382777            8 
 1301000     1.052331   -5.6317234    672.28449  0.043062035  0.043816033            3 
 1302000    1.0172819   -5.6277465    671.57921   0.04298382  0.043804207            2 
 1303000    1.0457529   -5.6081195    672.25527   0.04299407  0.043792483            3 
 1304000    1.0268025   -5.6607971      671.341  0.042902672  0.043780763            3 
 1305000    1.0343806   -5.6424198    671.39025   0.04287294  0.043768797            5 
 1306000     1.027932   -5.6652076     671.6072  0.042853956  0.043756921            3 
 1307000    1.0502115   -5.6223568    674.31574  0.042993863  0.043745184            6 
 1308000    1.0648404   -5.6204602     673.0682  0.042881511   0.04373349            3 
 1309000    1.0397857   -5.6328137    672.32795  0.042801626  0.043721502            2 
 1310000    1.0434136   -5.6808823    674.20001  0.042888042  0.043709484            9 
 1311000    1.0424406   -5.6369968    672.62176  0.042755007  0.043697671            5 
 1312000    1.0464133   -5.6259231    676.06467  0.042941099  0.043686075            6 
 1313000    1.0405701   -5.6068982    676.80912  0.042955644  0.043674431            4 
 1314000    1.0243251   -5.6161076    677.21162  0.042948479  0.043662607            4 
 1315000    1.0393293   -5.6093724     677.6539  0.042943846  0.043650921            2 
 1316000     1.047305   -5.6397713    676.61832  0.042845639  0.043638909            5 
 1317000    1.0142876   -5.6675189    676.42167  0.042800662  0.043626848            4 
 1318000    1.0505795   -5.6545808    675.04115  0.042680903  0.043614799            5 
 1319000    1.0533399   -5.6465738    677.92262  0.042830592   0.04360276            6 
 1320000    1.0422726   -5.6420604     678.1898  0.042815013  0.043590894            8 
 1321000    1.0653209   -5.6805539     675.1648  0.042591774  0.043578853            2 
 1322000    1.0325035   -5.6465705    678.41596  0.042764496  0.043566716            3 
 1323000    1.0478579   -5.6137823    680.29972  0.042850827  0.043554894            2 
 1324000    1.0253662   -5.6556778    678.00503  0.042674032  0.043542742            4 
 1325000    1.0362003   -5.6522524    677.24383  0.042593951  0.043530554            4 
 1326000    1.0489752   -5.6294158    680.65611  0.042776276  0.043518623            7 
 1327000    1.0453276   -5.6566294    680.18228  0.042714285  0.043506834            5 
 1328000    1.0452952   -5.5977893    680.85224  0.042724162  0.043494973            3 
 1329000     1.054415   -5.6630026    679.73388  0.042621888  0.043483053            4 
 1330000    1.0225647    -5.644171    679.13941  0.042552595   0.04347125            5 
 1331000    1.0406052   -5.6458264    681.96176  0.042697331  0.043459177            4 
 1332000    1.0288869   -5.6570072    682.03725  0.042669998  0.043447185            1 
 1333000    1.0326827     -5.67974     679.3891  0.042472437  0.043435183            3 
 1334000    1.0322367   -5.6515902    681.80204  0.042591332  0.043423267            5 
 1335000    1.0471585   -5.6777758    682.85122   0.04262492  0.043411559            4 
 1336000    1.0492351   -5.6567767    683.43774  0.042629599  0.043399576            5 
 1337000    1.0532792   -5.6593305    682.58393  0.042544498  0.043387824            3 
 1338000    1.0482404   -5.6345997    682.73811  0.042522304  0.043375935            6 
 1339000    1.0526036   -5.6619613    683.95976  0.042566577  0.043364513            4 
 1340000    1.0356467   -5.6350469    684.16887  0.042547815  0.043352748            2 
 1341000    1.0257527   -5.5978143    687.55983   0.04272681  0.043341112            2 
 1342000    1.0268739   -5.6705877    683.52358  0.042444336  0.043329301            2 
 1343000    1.0439119   -5.6712053    686.89716  0.042622062  0.043317448            5 
 1344000    1.0597556   -5.6460169    686.17784  0.042545749   0.04330564            3 
 1345000    1.0547793   -5.6782082    685.03706  0.042443436  0.043293622            5 
 1346000    1.0442536   -5.6801517    686.37297  0.042494612  0.043281456            6 
 1347000    1.0221695   -5.6884133    685.01033  0.042378763  0.043269298            7 
 1348000    1.0443376    -5.649918    686.66303  0.042449495  0.043257392            3 
 1349000    1.0378761   -5.6449304    689.68836  0.042604915  0.043245652            3 
 1350000    1.0265558   -5.6306298    689.51692  0.042562773  0.043233859            7 
 1351000    1.0313071   -5.6495008    688.48946  0.042467892  0.043222312            3 
 1352000    1.0378558   -5.6072806    690.33882   0.04255047  0.043210537            5 
 1353000    1.0502278   -5.6488155    690.57651   0.04253366  0.043198797            2 
 1354000    1.0277353   -5.6501193    688.77027   0.04239108  0.043187231            2 
 1355000    1.0523122   -5.6874466     687.9425  0.042308887  0.043175597            3 
 1356000    1.0327829   -5.6388762    692.37499  0.042550086  0.043163788            2 
 1357000    1.0646628    -5.658755    690.62762  0.042411424  0.043152012            5 
 1358000    1.0250717   -5.6668126    691.01394  0.042403899  0.043140027            4 
 1359000     1.054965    -5.663729    689.67289  0.042290464  0.043128085            4 
 1360000    1.0397696   -5.6706384    689.89392  0.042272912  0.043115966            4 
 1361000    1.0594224   -5.6912496    688.67111  0.042166979  0.043103987            2 
 1362000    1.0263154   -5.6585931    693.86613  0.042453875  0.043092322            3 
 1363000     1.002404   -5.6380311    693.60421  0.042406714  0.043080602            4 
 1364000    1.0535944   -5.6631399     692.8385  0.042328843  0.043069038            2 
 1365000    1.0308762   -5.6118102    693.08358  0.042312795  0.043057447            3 
 1366000    1.0265588   -5.6295373    695.75868  0.042445015  0.043045897            4 
 1367000    1.0159928    -5.631611    693.86594  0.042298582  0.043034383            4 
 1368000    1.0238896   -5.6920554    692.62745  0.042192218  0.043022534            3 
 1369000    1.0533981   -5.6703806    693.32476  0.042203845  0.043010692            2 
 1370000    1.0112454   -5.6658207     694.4767  0.042243108  0.042999147            5 
 1371000     1.021617   -5.6353834    697.06399  0.042369559  0.042987516            3 
 1372000    1.0385931    -5.660764    695.21911  0.042226622  0.042976249            4 
 1373000     1.016722   -5.6697285    694.44719  0.042149016  0.042964683            8 
 1374000    1.0258905   -5.6454082    698.69374  0.042375894  0.042953004            6 
 1375000    1.0549618   -5.6688157    697.83349  0.042292939  0.042941571            4 
 1376000    1.0566069   -5.6664937    696.50626  0.042181823  0.042930147            2 
 1377000    1.0347116    -5.707389    698.10043  0.042247666  0.042918618            2 
 1378000    1.0428698   -5.6769363     697.8375  0.042201107    0.0429072            5 
 1379000    1.0605178   -5.6457985    697.74588  0.042164967  0.042895852            2 
 1380000    1.0310708   -5.6841598    697.42575  0.042115081  0.042884499            6 
 1381000    1.0040864   -5.6896236    697.40001  0.042083032  0.042873027            3 
 1382000    1.0247169   -5.6397151    701.05852  0.042273186  0.042861511            6 
 1383000    1.0193512   -5.6718696    700.34519  0.042199638  0.042849797            4 
 1384000    1.0506361   -5.6829809    698.29099  0.042045459  0.042838473            3 
 1385000    1.0340425   -5.6668767    701.37007  0.042200365   0.04282684            3 
 1386000    1.0129025   -5.6916905    699.18913  0.042038789  0.042815023            2 
 1387000    1.0519623   -5.6833818    698.64417  0.041975737  0.042803351            2 
 1388000    1.0374245   -5.6846535    699.70371  0.042009109  0.042791622            4 
 1389000    1.0137628   -5.7087568    697.90423  0.041870904  0.042779719            3 
 1390000    1.0368046   -5.6721608    700.09816  0.041972312  0.042767631            3 
 1391000    1.0280557   -5.6612044    702.51578  0.042086975  0.042755764            3 
 1392000    1.0371808   -5.6581866    703.53189   0.04211757  0.042743938            2 
 1393000    1.0334155   -5.6639453    699.05411  0.041819461  0.042731952            3 
 1394000    1.0203298   -5.6786514    701.88269  0.041958554  0.042719826            4 
 1395000    1.0169537   -5.7056545    700.91297  0.041870548   0.04270766            3 
 1396000    1.0369649   -5.6358852     704.1076  0.042031256  0.042695792            3 
 1397000    1.0226222   -5.6826271    702.63437  0.041913289  0.042684152            8 
 1398000    1.0465441   -5.6537145    705.30656  0.042042594  0.042672311            7 
 1399000    1.0453139   -5.6316024    706.98406  0.042112465  0.042660458            4 
 1400000    1.0191688   -5.6571008    704.42051  0.041929792   0.04264897            3 
 1401000    1.0474933   -5.6389122    705.84996  0.041984889  0.042637387            3 
 1402000    1.0369449   -5.7016565    703.88012  0.041837858  0.042625628            3 
 1403000    1.0329173   -5.6716297    705.78936   0.04192144  0.042613706           15 
 1404000    1.0249108   -5.6735535    702.96716  0.041724072  0.042601935            5 
 1405000    1.0532566   -5.6421259    708.38406  0.042015662  0.042590063            3 
 1406000    1.0290489   -5.6510946    706.51661  0.041875095  0.042578315            2 
 1407000     1.031553   -5.6900063    707.67076  0.041913691  0.042566605            4 
 1408000    1.0517712   -5.6620726    708.44588  0.041929799  0.042554981            4 
 1409000    1.0226506   -5.6810462    706.25501  0.041770464  0.042543052            4 
 1410000    1.0337423   -5.6652883    708.60421  0.041879681  0.042531207            3 
 1411000    1.0419853   -5.6861946    711.52479  0.042022489  0.042519553            5 
 1412000     1.002048   -5.6589268     708.7792   0.04183069   0.04250791            4 
 1413000    1.0222719   -5.7044658     708.4121  0.041779435  0.042496228            5 
 1414000    1.0140324   -5.6461309    708.65208  0.041764031  0.042484544            3 
 1415000    1.0414982   -5.6809806    710.67733  0.041853789  0.042473068            2 
 1416000    1.0110567   -5.6578092    709.92137  0.041779742  0.042461782            7 
 1417000    1.0260514   -5.6850174    711.16648  0.041823481  0.042450623            2 
 1418000    1.0372344   -5.7043167    711.04784  0.041787015  0.042439264            5 
 1419000    1.0154358   -5.7114094    710.32023  0.041714836  0.042427763            6 
 1420000    1.0189849   -5.6782805    712.84384  0.041833559  0.042416621            2 
 1421000    1.0272452   -5.6908708    714.65493  0.041910329  0.042405295            2 
 1422000    1.0060295   -5.6508394    716.80698  0.042006972  0.042394091            5 
 1423000    1.0160886   -5.7015872    713.48901  0.041783146  0.042382946            3 
 1424000    1.0218532    -5.689149    714.69254  0.041824236  0.042371782            2 
 1425000    1.0142462   -5.6969784    715.14322  0.041821241  0.042360663            5 
 1426000    1.0170763   -5.6868973    715.94769  0.041838925  0.042349415            1 
 1427000    1.0167985   -5.6900815    714.89682  0.041748238  0.042338583            2 
 1428000    1.0115107   -5.6774005    716.55146  0.041815561  0.042327704            4 
 1429000    1.0244631   -5.6639648    716.50209   0.04178342  0.042316739            3 
 1430000    1.0436429   -5.6506422    718.89074  0.041893399  0.042305798            3 
 1431000    1.0176068   -5.6382843    718.64259  0.041849673  0.042295021            3 
 1432000    1.0376741   -5.6965538     715.6697  0.041647445  0.042284156            5 
 1433000    1.0207581   -5.6996509    717.25138  0.041710362  0.042273083            2 
 1434000    1.0009932   -5.6945242    716.87868  0.041659616  0.042261987            7 
 1435000    1.0144831   -5.6931793    716.80947  0.041626566  0.042250935            3 
 1436000    1.0338177   -5.6537413    720.83459  0.041831162  0.042239796            3 
 1437000    1.0363927   -5.6608165    720.71361  0.041795037  0.042228838            4 
 1438000    1.0548097   -5.6905651    718.39516  0.041631616  0.042217925            4 
 1439000    1.0448393   -5.6693207    719.34072  0.041657443  0.042207016            4 
 1440000    1.0212477   -5.7088936    720.00189  0.041666776  0.042195921            9 
 1441000    1.0198368   -5.7114562    719.13618  0.041587797  0.042184868            3 
 1442000    1.0243993   -5.6813017    720.94276  0.041663359   0.04217347            4 
 1443000    1.0237604   -5.6332942    720.30599  0.041597712  0.042162247            4 
 1444000    1.0185566   -5.7060309    720.54347   0.04158261  0.042151212            4 
 1445000    1.0084219   -5.6814548    720.93787  0.041576578   0.04214002            2 
 1446000     1.009912   -5.6947861    718.21322  0.041390803  0.042128631            4 
 1447000    1.0233982   -5.7256314    721.64536  0.041559857  0.042117502            3 
 1448000    1.0187396   -5.6904924    721.82521  0.041541506  0.042106353            3 
 1449000    1.0182621   -5.7107133    719.92478  0.041403542  0.042095066            4 
 1450000    1.0154846   -5.6892422    723.52641  0.041581977  0.042083825            2 
 1451000    1.0115557   -5.7012957    719.76963  0.041337562  0.042072609            4 
 1452000    1.0356733   -5.6845547    722.87226  0.041487159  0.042061438            6 
 1453000    1.0181589   -5.7062805    721.81336  0.041397875  0.042050135            2 
 1454000     1.005613   -5.6662223    724.49216  0.041522934  0.042038859            5 
 1455000    1.0181703   -5.6951134    721.72718  0.041336036   0.04202772            4 
 1456000    1.0342811   -5.7153974    723.19815  0.041391836   0.04201619            3 
 1457000    1.0373457   -5.7486414    721.13418  0.041245377  0.042004815            3 
 1458000    1.0190835   -5.7068163    724.09937  0.041386567  0.041993326            2 
 1459000    1.0074559   -5.6726478     724.7345  0.041394477  0.041981936            8 
 1460000    1.0399796   -5.7020657    724.87284   0.04137402  0.041970698            8 
 1461000    1.0087178   -5.6717272    725.30603   0.04137041  0.041959372            5 
 1462000    1.0060781   -5.6792772    724.10141   0.04127345  0.041948031            2 
 1463000    1.0213644   -5.6708883    724.29477  0.041256253  0.041936554            4 
 1464000    1.0177534   -5.6684102    723.10987  0.041160626  0.041925159            7 
 1465000     1.002394   -5.6701405    723.18394  0.041136743  0.041913785            2 
 1466000    1.0071074   -5.6968285    726.29231  0.041285375   0.04190215           12 
 1467000    1.0225153   -5.6948015    725.77211  0.041227681  0.041890558            4 
 1468000    1.0155414    -5.655476    728.17366  0.041335926  0.041879124            2 
 1469000   0.99272241   -5.6747561    725.54771  0.041158822    0.0418674            3 
 1470000    1.0124889   -5.6866074    726.78614  0.041201028  0.041855619            2 
 1471000   0.99131784   -5.7407998    723.29568  0.040975282  0.041843636            4 
 1472000    1.0141932   -5.6981225    727.21157  0.041169134  0.041831784            3 
 1473000    1.0171397    -5.691031    727.08207  0.041133858  0.041820177            2 
 1474000    1.0060672   -5.6977868    726.85546   0.04109314  0.041808383            6 
 1475000    1.0201652   -5.6969232    727.07377  0.041077614  0.041796508            5 
 1476000    1.0190228   -5.7196716    725.46573  0.040958995   0.04178467            1 
 1477000    1.0155957   -5.7052551    727.00749  0.041018251  0.041772844            5 
 1478000    1.0194023   -5.6853041    728.26403  0.041061346  0.041760863            6 
 1479000    1.0235842   -5.7198101     727.3301  0.040980961  0.041748815            8 
 1480000    1.0077303   -5.6996331    728.51565  0.041020025  0.041736991            3 
 1481000    1.0467972   -5.7142826    728.04344  0.040965758  0.041725105            2 
 1482000    1.0182514   -5.7040405    728.04092  0.040937974    0.0417133            5 
 1483000    1.0323321   -5.6531134    733.02174  0.041190253  0.041701435            2 
 1484000    1.0161132   -5.7170894    727.58742  0.040857335   0.04168945            3 
 1485000    1.0281846   -5.6895984    730.21858  0.040977474  0.041677441            2 
 1486000    1.0044528   -5.6960545    729.03746  0.040883662  0.041665477            4 
 1487000    1.0059805   -5.7271733    728.34536  0.040817382  0.041653507            5 
 1488000    1.0310671   -5.7310952    730.24916   0.04089657  0.041641633            3 
 1489000   0.99752323   -5.7040422    730.19319  0.040865972  0.041629659            7 
 1490000    1.0131743   -5.7158306    732.63739  0.040975246  0.041617699            5 
 1491000    1.0138947   -5.6631672    731.11121  0.040862464  0.041605852            3 
 1492000    1.0212374   -5.6898253     731.4754  0.040855418  0.041594155            5 
 1493000    1.0167228   -5.6938161     732.1301  0.040864596  0.041582311            3 
 1494000    1.0189769    -5.701664    731.07388  0.040778329  0.041570366            5 
 1495000    0.9973956   -5.7164815    731.51154  0.040775448  0.041558361            2 
 1496000     1.019034    -5.675517    734.00312  0.040886983  0.041546329            6 
 1497000   0.99490664   -5.6970161    731.58983   0.04072533  0.041534153            2 
 1498000    1.0233144   -5.6877442    732.54004  0.040751004  0.041522097            4 
 1499000     1.028658   -5.7174483    731.17333  0.040647839  0.041509835            6 
 1500000    0.9985162    -5.724358    732.34122  0.040685623  0.041497564            8 
 1501000    1.0075721   -5.7355445    730.63025  0.040563527  0.041485195            6 
 1502000    1.0031183   -5.7313066    735.08545  0.040783702  0.041472847            4 
 1503000    1.0303908   -5.7133979    732.66102  0.040622146  0.041460632            3 
 1504000    1.0066183   -5.6758452    736.66979  0.040817254  0.041448667            3 
 1505000    1.0060654   -5.6671691    736.72524  0.040793203   0.04143675            2 
 1506000    1.0043262   -5.7120846     737.2621  0.040795822  0.041424713            3 
 1507000   0.98673915   -5.7070656    730.50089  0.040394873  0.041412534            2 
 1508000    1.0133035   -5.7073891    735.95886  0.040669698  0.041400325            4 
 1509000    1.0066295   -5.7174864     736.2049  0.040656334  0.041388187            3 
 1510000    1.0129023   -5.7124911    735.49635  0.040590306  0.041375878            6 
 1511000    1.0357838   -5.6941273    736.14493  0.040599213  0.041363797            4 
 1512000    1.0135323   -5.7181771    737.23063    0.0406322  0.041351741            3 
 1513000    1.0070343   -5.6788271    737.30486  0.040609433  0.041339743            4 
 1514000    0.9814148    -5.708603    737.45152  0.040590682  0.041327839            6 
 1515000       1.0131   -5.7098037    737.21238  0.040550736  0.041315851            2 
 1516000    1.0187855   -5.7726815    735.69436  0.040440543  0.041303751            6 
 1517000    1.0166937    -5.712194    738.83983  0.040586675  0.041291542            4 
 1518000    1.0263792   -5.6843205    741.05168  0.040681361  0.041279319            4 
 1519000   0.99173954   -5.7116698    738.11557  0.040493503  0.041267153            3 
 1520000   0.98598026   -5.7206684    737.12437   0.04041252  0.041254883            5 
 1521000   0.99264489   -5.7325124    737.72493  0.040418855  0.041242546            2 
 1522000    1.0090846   -5.7256766    736.99083  0.040352104  0.041230266            5 
 1523000    1.0222852   -5.7160909    737.51059  0.040354049  0.041217758            3 
 1524000     1.015131   -5.7158345    736.44795  0.040269463  0.041205373            5 
 1525000    1.0150663   -5.6907253    740.29673  0.040453373  0.041193041            7 
 1526000    1.0112644   -5.7002844    738.94996  0.040353318  0.041180595            3 
 1527000   0.99603556   -5.6920414    743.71702  0.040587046  0.041168309            4 
 1528000    1.0164398   -5.7059149    738.62048  0.040282531  0.041155722            2 
 1529000   0.99990345   -5.7464399    739.80309  0.040320639   0.04114338            3 
 1530000   0.99769578    -5.731465    737.42386  0.040164698  0.041130876            5 
 1531000     1.000783   -5.6899154    742.47925  0.040413632  0.041118305            2 
 1532000    1.0136831   -5.7403803    738.50006  0.040170804  0.041105861            4 
 1533000    1.0297127   -5.7122623    740.84151   0.04027188  0.041093316            4 
 1534000    1.0084002   -5.7007445    741.77006   0.04029607  0.041080929            3 
 1535000    1.0029562   -5.7498797    739.94061    0.0401705  0.041068402            5 
 1536000   0.98640311   -5.6930512    742.79292  0.040299095  0.041055872            5 
 1537000    1.0075415   -5.7382723    740.04759  0.040124029  0.041043489            5 
 1538000    1.0035191   -5.7318642    742.55257  0.040233667  0.041030817            2 
 1539000     1.013151   -5.7100107    742.45443  0.040202211   0.04101824            5 
 1540000    1.0082892   -5.7201262    742.67236  0.040187898  0.041005651            4 
 1541000    1.0042976    -5.768635    741.64474  0.040106248  0.040993025            8 
 1542000   0.97682765   -5.7095346    743.32552  0.040171072  0.040980458           10 
 1543000    1.0106496   -5.7410321     743.4643  0.040152533  0.040968175            8 
 1544000    1.0262588   -5.7016256     743.3387  0.040119749  0.040955966            5 
 1545000    1.0189256   -5.7227368    741.90872  0.040016652  0.040943814            5 
 1546000   0.98960599   -5.7087597    746.21488   0.04022288  0.040931512            4 
 1547000   0.99222212   -5.7203493    744.57822  0.040108717   0.04091901            3 
 1548000   0.99957998   -5.6974518    746.70384  0.040197235  0.040906592            5 
 1549000    1.0059994   -5.7055388    746.78377  0.040175585  0.040894171            4 
 1550000    1.0185988   -5.7343788    744.19487  0.040010477  0.040881912            5 
 1551000    1.0070193   -5.7234771    748.63155  0.040223058  0.040869813            3 
 1552000    1.0033751   -5.7483725    746.41788   0.04007828  0.040857752            4 
 1553000    1.0124617   -5.7271222    749.82716  0.040235413   0.04084579            4 
 1554000   0.98896095   -5.6821141    750.38467  0.040239418  0.040833854            2 
 1555000     1.004317   -5.7445584    747.21701  0.040043784  0.040821915            3 
 1556000    1.0015822   -5.7164061    750.63007  0.040200839  0.040809889            5 
 1557000    1.0273473   -5.7359375    748.25887  0.040048109  0.040797983            6 
 1558000    1.0044324   -5.7175524    749.08006  0.040066327  0.040786124            1 
 1559000     1.011087   -5.7477785    749.77721  0.040077892  0.040774271            4 
 1560000    1.0004392   -5.7092241    750.25769  0.040077868  0.040762345            4 
 1561000   0.99892886   -5.7589591    750.58478  0.040069655  0.040750638            2 
 1562000   0.99399551   -5.7167924    751.06594  0.040069673  0.040738856            4 
 1563000    1.0024607   -5.7191717    751.87938  0.040087406  0.040726964            8 
 1564000    1.0052786   -5.7299997    753.21601  0.040132993  0.040715273            3 
 1565000    0.9949633   -5.7429968    753.03332  0.040097621  0.040703575            5 
 1566000    1.0002082   -5.7186474    753.76871  0.040111149   0.04069162            8 
 1567000    1.0172233   -5.7492658    754.19293  0.040108112  0.040679789            6 
 1568000   0.99778987   -5.7244223    752.71423  0.040003945  0.040668218            6 
 1569000    1.0017252   -5.7119038    756.23953  0.040165686  0.040656486            3 
 1570000   0.99785891   -5.7173237    754.04878   0.04002382  0.040644731            5 
 1571000    1.0144952   -5.7402768    754.54681  0.040024762  0.040632909            3 
 1572000   0.99450419   -5.7482607    751.34391  0.039829512  0.040621083            5 
 1573000   0.99180122   -5.7138292    756.19218  0.040061039  0.040609448            4 
 1574000   0.98813286   -5.7269666    752.85281  0.039858789  0.040597651            6 
 1575000    1.0051529   -5.7588414     754.5823   0.03992499  0.040585707            2 
 1576000    0.9847541   -5.7277081    753.21895  0.039827567  0.040573711            3 
 1577000    1.0063767   -5.7134455    756.33667  0.039967061  0.040561733            4 
 1578000    1.0041436   -5.7489211     752.7847  0.039754156  0.040549704            7 
 1579000   0.99495788   -5.7290833    756.25891  0.039912334  0.040537685            3 
 1580000    1.0186595   -5.7069152    755.65302  0.039855117  0.040525927            2 
 1581000    0.9830261   -5.7416887     756.0867  0.039852767  0.040514116            4 
 1582000    1.0069597   -5.7012713    756.03075  0.039824629  0.040502334            7 
 1583000   0.99927587   -5.7196647    757.00817  0.039850925  0.040490388            6 
 1584000   0.98683416   -5.7615637    755.32057  0.039736983  0.040478425            4 
 1585000    1.0175601   -5.7843457    753.60533  0.039621731   0.04046635            3 
 1586000   0.96918583   -5.7289174    757.28704  0.039790198  0.040454478            6 
 1587000   0.98065496   -5.7146161    755.99124  0.039697083  0.040442504            4 
 1588000   0.99484467   -5.7006477    757.70535  0.039762035  0.040430745            5 
 1589000    1.0035897   -5.7300263    755.74664   0.03963429  0.040418757           10 
 1590000    1.0171717   -5.7621149    756.84593  0.039666977  0.040406821            2 
 1591000   0.98254605   -5.7409335    758.14412  0.039710042  0.040395123            3 
 1592000   0.99539891   -5.7471146    758.94443   0.03972699  0.040383175            3 
 1593000   0.98815536   -5.7239253    758.74926  0.039691843  0.040371217            2 
 1594000     1.009297   -5.7325308    761.67511  0.039819903  0.040359386            2 
 1595000   0.98304226   -5.7622367    758.31952   0.03961962  0.040347554            3 
 1596000    1.0155964   -5.7183207     762.3701  0.039806292  0.040335738            2 
 1597000   0.99625919   -5.7489537    758.69399  0.039589543  0.040323729            5 
 1598000    1.0034898   -5.7503424    760.84464  0.039676921  0.040312077            3 
 1599000    0.9820465   -5.7394784    761.26923  0.039674236  0.040300479            4 
 1600000    1.0023144   -5.7719571    758.66607  0.039513858  0.040288622            5 
 1601000   0.98450125    -5.712363    761.04972  0.039613248  0.040276873            4 
 1602000   0.99191482   -5.7399223    761.76449  0.039625702  0.040265204            6 
 1603000    1.0034223   -5.7381486    760.81993  0.039551878  0.040253367            4 
 1604000   0.96958883   -5.7709285    763.41977   0.03966229  0.040241685            3 
 1605000    1.0068924   -5.7478394    762.95948   0.03961368  0.040229965            5 
 1606000   0.98568997   -5.7408606    764.19232  0.039652985  0.040218252            3 
 1607000   0.99829694   -5.7543944    762.62818  0.039547199  0.040206482            5 
 1608000   0.99138441   -5.7444551    767.14765  0.039756823   0.04019475            5 
 1609000    1.0098284   -5.7051969    766.13876  0.039679861  0.040183226            3 
 1610000   0.98401984   -5.7745698    761.97906   0.03943991   0.04017162            2 
 1611000   0.99749436    -5.743536    763.34193  0.039485927  0.040159744            3 
 1612000   0.98008539   -5.7360073    766.09962  0.039603992  0.040147931           13 
 1613000    1.0093621   -5.7500738    764.87696  0.039516272  0.040136081            3 
 1614000   0.99521284   -5.7330877    764.48596  0.039471601  0.040124432            6 
 1615000    1.0260141   -5.7105214     767.9192  0.039624314  0.040112885            3 
 1616000    0.9987173   -5.7578237    766.12966  0.039507511  0.040101172            2 
 1617000    1.0086219    -5.730774    767.03591  0.039529783  0.040089212            4 
 1618000    0.9987839    -5.732132     766.1122  0.039457777  0.040077358            3 
 1619000   0.99198623    -5.742669    766.39598  0.039448012  0.040065541            2 
 1620000   0.99643073   -5.7276104    764.72654  0.039337785   0.04005368            3 
 1621000    0.9999928   -5.7557445    766.80614  0.039420427  0.040041645            5 
 1622000   0.96767592   -5.7692274    766.82384  0.039397033  0.040029756            3 
 1623000   0.98009765   -5.7393698    765.52589  0.039306115  0.040017665            3 
 1624000    1.0035261   -5.7197126     767.8652   0.03940195  0.040005687            4 
 1625000    1.0088203   -5.7736675    765.63871  0.039263523  0.039993826            5 
 1626000   0.99540866   -5.7277554    767.08544  0.039313522  0.039981721            4 
 1627000    0.9996505   -5.7652991    767.09699   0.03928995  0.039969657            6 
 1628000    1.0029126   -5.6982466    769.94871  0.039411789  0.039957633            4 
 1629000    0.9766086   -5.7761099    766.71125  0.039221979   0.03994562            9 
 1630000   0.97364621   -5.7380402    769.22111  0.039326233  0.039933643            2 
 1631000   0.97123273   -5.7104954    769.40061  0.039311292  0.039921673            2 
 1632000   0.97885718   -5.7600629    767.14708  0.039172134  0.039909767            3 
 1633000   0.97760755   -5.7565041    767.05673  0.039143536  0.039897788            3 
 1634000   0.99075328   -5.7606574    768.85376  0.039211228  0.039885795            3 
 1635000   0.98308371   -5.7166721    770.90228  0.039291655  0.039873863            3 
 1636000   0.99158041   -5.7479019    769.00619  0.039171057  0.039861829            7 
 1637000   0.96916925    -5.779741    769.97625   0.03919651   0.03984986            4 
 1638000   0.99996476   -5.7710998     770.1653  0.039182199  0.039837989            2 
 1639000   0.99304071    -5.727224    773.06589   0.03930577  0.039825971            4 
 1640000   0.97894188   -5.7693505    770.68819  0.039160985  0.039813964            6 
 1641000    1.0006711   -5.8150577    769.49123  0.039076337  0.039802008            6 
 1642000   0.99080129   -5.7448698    770.20306  0.039088665  0.039790031           11 
 1643000     1.000357   -5.7547085    770.70264  0.039090213  0.039778359            4 
 1644000   0.99237981   -5.7537124      775.043  0.039286446  0.039766331            7 
 1645000    0.9880417   -5.7611605    773.20865  0.039169638  0.039754507           10 
 1646000     1.015815   -5.7499887    772.40685  0.039105248  0.039742562            7 
 1647000    1.0042862   -5.7790596    770.30374  0.038975093  0.039730627            4 
 1648000   0.96729458   -5.7103098    777.00572  0.039290338  0.039718854            4 
 1649000   0.99441935   -5.7332045    774.88272  0.039159224  0.039707198            3 
 1650000    1.0096188   -5.7481587    775.66258  0.039174878  0.039695604            2 
 1651000   0.99716513   -5.7695743     773.1907  0.039026383  0.039683933            5 
 1652000   0.98448597   -5.7338492    775.20594  0.039104416  0.039672279            4 
 1653000    0.9710418   -5.7736248     772.8143  0.038960189  0.039660507            3 
 1654000   0.97874363   -5.7705953    778.73001  0.039234684  0.039648813            5 
 1655000   0.98609076   -5.7605455    778.21107  0.039184847  0.039637064            8 
 1656000   0.99861299   -5.7449153    775.71209  0.039035431  0.039625147            5 
 1657000   0.99624854   -5.7132118    778.60273  0.039157249  0.039613482            4 
 1658000   0.99841763   -5.7798607    775.56465  0.038980933  0.039602085            4 
 1659000    1.0107809   -5.8033094    775.77048  0.038967776  0.039590449            4 
 1660000   0.98141191   -5.7580594    776.47273  0.038979555  0.039578846            6 
 1661000   0.98726938   -5.7316698    779.16563  0.039091191  0.039567378            2 
 1662000   0.99563761   -5.7477311    776.71397  0.038944744  0.039555819            4 
 1663000   0.98765086   -5.7573902    780.63129  0.039117623  0.039544346            3 
 1664000   0.98176159   -5.7204209    778.55753  0.038990261  0.039532844            2 
 1665000     1.005925   -5.7548793    776.43814  0.038860768  0.039521288            5 
 1666000   0.98556243    -5.792703    777.34292  0.038882699  0.039509649            4 
 1667000   0.99148622    -5.750726    779.89936   0.03898717  0.039497957            3 
 1668000   0.98267466   -5.7413726    779.82233  0.038959949  0.039486404            3 
 1669000   0.97113851   -5.7569735    779.79583  0.038935282  0.039475059            5 
 1670000     0.972666   -5.7660037    779.52786  0.038898596  0.039463585            4 
 1671000   0.96768473   -5.7672579     779.8171  0.038889742  0.039451944            4 
 1672000   0.99990686   -5.7760522    782.30446  0.038990453  0.039440287            5 
 1673000     0.971608   -5.7789552    784.79511  0.039091209  0.039428876            4 
 1674000    1.0033049   -5.7755602    780.50224  0.038854154  0.039417523            8 
 1675000     0.982551   -5.7819932    781.04712  0.038858066  0.039406031            4 
 1676000   0.98708069   -5.7477999    783.83495  0.038973496  0.039394833            4 
 1677000   0.99739932   -5.7891837    780.58178    0.0387886  0.039383392           12 
 1678000    1.0117428   -5.7915729    782.75985  0.038873652  0.039371875            2 
 1679000   0.97687587   -5.7838917    779.96692  0.038711878   0.03936043            5 
 1680000   0.96976829   -5.7677289    782.44808  0.038811909  0.039348899            5 
 1681000   0.97659647   -5.7612664    785.46949  0.038938603  0.039337621            5 
 1682000   0.97201524   -5.7993147    784.67516  0.038876098  0.039326253            9 
 1683000   0.99491188   -5.7914304    783.30645  0.038785227  0.039314783            4 
 1684000   0.97932647   -5.7813275    784.04248  0.038798619  0.039303366            3 
 1685000   0.95690814    -5.760418    783.93359  0.038770207  0.039291892            8 
 1686000     1.001554   -5.7714208    786.60758  0.038879378  0.039280645            7 
 1687000   0.98897996   -5.7861502     787.2176  0.038886465  0.039269474            4 
 1688000    0.9719642   -5.7930653    784.69709  0.038738995  0.039258015            5 
 1689000   0.98942254   -5.8136714    783.92012  0.038677725  0.039246451            6 
 1690000   0.97683836   -5.7712899     784.4193  0.038679453  0.039235024            6 
 1691000    0.9741294   -5.7291719    787.00434  0.038783971  0.039223624            4 
 1692000   0.97475379   -5.7673704    788.38041  0.038828822  0.039212353            4 
 1693000    0.9777786   -5.7852886     784.7747  0.038628406  0.039200938            6 
 1694000   0.97929226   -5.7723609    786.52097  0.038691508  0.039189383            6 
 1695000     1.000056    -5.772527       787.36  0.038709931  0.039178054            7 
 1696000   0.98190798    -5.781919    786.29198   0.03863463  0.039166696            3 
 1697000   0.97596307   -5.7897139    788.98034  0.038743878  0.039155304            6 
 1698000   0.98192322   -5.7737453    787.93233  0.038669628  0.039143837            3 
 1699000   0.98145426   -5.8156987    786.59869  0.038581454  0.039132156            4 
 1700000   0.97905324    -5.789861    788.26062  0.038640227  0.039120545            2 
 1701000   0.98798472   -5.8187045    787.24424  0.038567717  0.039109076            6 
 1702000   0.99964623   -5.8062527    786.24125  0.038495949  0.039097582            2 
 1703000   0.96045574    -5.798069     790.8844  0.038700548   0.03908602            5 
 1704000   0.96786747   -5.7878699    789.09572  0.038590362  0.039074607            4 
 1705000   0.96136111   -5.7828291    788.13698  0.038520869  0.039063336            2 
 1706000   0.95939329   -5.7619326    789.49206  0.038564481  0.039051987            7 
 1707000    0.9752057   -5.7744677    788.80864  0.038508526  0.039040561            4 
 1708000    0.9679034   -5.7318122    792.38386  0.038660415  0.039029348            5 
 1709000   0.99544885   -5.7803242    790.33504   0.03853789  0.039018288            3 
 1710000   0.99477351   -5.7637124    790.75949  0.038536038  0.039006991            5 
 1711000    0.9579951    -5.810448    789.44286  0.038449389  0.038995651            5 
 1712000   0.95846754   -5.7913444    792.83974  0.038592277  0.038984435            5 
 1713000   0.98209716   -5.7653781    793.61345  0.038607387   0.03897329            4 
 1714000   0.98038157   -5.7806538    791.56175   0.03848511  0.038961954            2 
 1715000     0.983244   -5.7802646    792.65433  0.038515759  0.038950776            6 
 1716000   0.99806699   -5.7993124    793.03857  0.038511974  0.038939499            2 
 1717000   0.98435899   -5.7769481    794.61732  0.038566167  0.038928162            4 
 1718000   0.98991328   -5.7843213    793.48307  0.038488702  0.038916828            3 
 1719000    0.9840646   -5.8168966     793.9238  0.038487677  0.038905745            6 
 1720000   0.94618916   -5.7998447    795.41414  0.038537507  0.038894535            2 
 1721000   0.99017298   -5.7826066    794.06524  0.038449799  0.038883533            8 
 1722000    0.9747238   -5.8004811     795.9748   0.03851988  0.038872353            7 
 1723000    0.9873919   -5.8044246    796.64802  0.038530084  0.038861424            5 
 1724000   0.96512729   -5.7777642    795.94673  0.038473836  0.038850344            6 
 1725000    0.9901496   -5.7739911    796.50045  0.038478283  0.038839449            7 
 1726000   0.98456894   -5.7720861     800.0023  0.038625063  0.038828551            4 
 1727000    0.9809041   -5.8005154    798.26869  0.038519045  0.038817687            6 
 1728000   0.97684785    -5.753551    800.05311  0.038582808  0.038806748            3 
 1729000   0.97281343   -5.8017139    795.38356  0.038335433  0.038795711            4 
 1730000   0.96343545   -5.7615145    800.04131  0.038537635  0.038784563            7 
 1731000   0.98655518   -5.7751856    800.53277  0.038539032  0.038773704            3 
 1732000   0.96860366   -5.7766973    799.51972  0.038468039   0.03876272            3 
 1733000   0.97411978   -5.7964829    797.86445  0.038366246  0.038751848            5 
 1734000   0.96865276   -5.7697139    802.45636    0.0385648  0.038740954            3 
 1735000   0.97313216   -5.7596488    801.26909  0.038485547  0.038730194            7 
 1736000    0.9721015   -5.7834094    800.73553  0.038437765  0.038719346            6 
 1737000   0.97228205   -5.8009608     800.1498  0.038387536  0.038708517            4 
 1738000   0.97921375   -5.7830787     799.2906  0.038324252  0.038697591            6 
 1739000   0.98657207   -5.8311591    798.58858  0.038268573   0.03868668            3 
 1740000   0.97384065   -5.7773583    802.55866  0.038436718  0.038675938            3 
 1741000   0.99707036   -5.8182767    800.86561  0.038333602  0.038665255            3 
 1742000   0.97056972   -5.7890325    805.77263  0.038546337  0.038654399            2 
 1743000   0.97735604    -5.797501    804.73354  0.038474543  0.038643715            4 
 1744000   0.97287398   -5.8209982    803.11351  0.038375072  0.038632765            3 
 1745000   0.96646204   -5.7959836    803.17928  0.038356222  0.038622038            6 
 1746000    1.0053222   -5.8269031    804.58442  0.038401318  0.038611098            4 
 1747000   0.99063615   -5.7667508    804.92252  0.038395464  0.038600449            4 
 1748000   0.97818081   -5.7676336     804.7164  0.038363673  0.038589946            4 
 1749000   0.96343082   -5.7826723    803.94197  0.038304839  0.038579543            4 
 1750000    0.9476985   -5.7615279    805.54128  0.038359109   0.03856895            3 
 1751000   0.94968567   -5.8289647    803.11554  0.038221756  0.038558313            2 
 1752000   0.96504399   -5.8170641    802.44928  0.038168249  0.038547512            5 
 1753000   0.97240583   -5.7590044    809.17254  0.038466084  0.038536786            3 
 1754000   0.98331366    -5.780827    805.23472  0.038257066  0.038526054            8 
 1755000   0.97428924   -5.8117151    804.56626  0.038203526  0.038515367            7 
 1756000   0.96448646   -5.8015651    807.04185  0.038299252  0.038504727            8 
 1757000   0.97173659    -5.822192    804.01736  0.038134005  0.038494033            3 
 1758000   0.96744266   -5.8100063    806.54874  0.038232307  0.038483287            2 
 1759000   0.97506837   -5.7747026    808.79236  0.038316864  0.038472761            4 
 1760000   0.98057158   -5.7595943    810.56401  0.038378978  0.038462478           14 
 1761000   0.96127134   -5.7941199    808.78927    0.0382732  0.038451933            7 
 1762000   0.97713757   -5.7896869    811.24996  0.038367856   0.03844153            4 
 1763000     0.958746   -5.7692915    808.99586  0.038239547  0.038431219            2 
 1764000   0.97669719   -5.8106728    809.53864  0.038243511  0.038420959            6 
 1765000   0.94948851    -5.814127    811.39656  0.038309564  0.038410517            4 
 1766000   0.96657978   -5.8121128    807.88659  0.038122244  0.038399954            5 
 1767000   0.98530893   -5.7758526    809.41923   0.03817295  0.038389561            5 
 1768000   0.97949505   -5.7784594    812.56976  0.038299857  0.038379348            3 
 1769000   0.96626159   -5.7838335     810.7311  0.038191591  0.038369094            5 
 1770000   0.96896928   -5.8151007    811.51227  0.038206792  0.038358716            5 
 1771000   0.96231997   -5.8196852    808.76771  0.038056075  0.038348267            4 
 1772000   0.96578714   -5.7835031     813.8297  0.038272653  0.038337833            6 
 1773000   0.96873172   -5.7772624    811.86345  0.038158651  0.038327289            4 
 1774000   0.96189395   -5.8008598    811.00874  0.038096991  0.038316982            7 
 1775000   0.98289676   -5.7636322    813.04982  0.038171353  0.038306868            2 
 1776000   0.95596102    -5.790903    815.90889  0.038284013  0.038296632            8 
 1777000   0.98063031   -5.7947767    814.17849  0.038181321  0.038286567            2 
 1778000   0.95899088   -5.7518878     813.1574  0.038111989  0.038276509            4 
 1779000   0.95451439   -5.8101266     816.7746  0.038260006  0.038266458            4 
 1780000   0.96054903   -5.7955315    815.76608  0.038191296  0.038256313            4 
 1781000   0.95044604   -5.8107953    817.17827  0.038235929   0.03824637            5 
 1782000   0.95477594   -5.8006934    817.11844  0.038211674  0.038236229            3 
 1783000   0.94167679    -5.805983     818.1075  0.038236469  0.038226087            5 
 1784000   0.98762115   -5.8443353    813.79164  0.038013436  0.038215953            4 
 1785000   0.96256311   -5.7944519     817.3806  0.038159692  0.038205786            3 
 1786000   0.97458427   -5.7963306    815.73553  0.038061568  0.038195646            8 
 1787000   0.97449843   -5.8227199    816.88773     0.038094   0.03818567            8 
 1788000   0.97160004   -5.8350152    817.13663  0.038084295  0.038175647            3 
 1789000   0.93910284   -5.7987172    820.27555  0.038209221  0.038165708            7 
 1790000   0.96409084   -5.8049631    819.87695  0.038169318  0.038155819            2 
 1791000   0.96492955    -5.797647    823.02304   0.03829439  0.038145889            4 
 1792000   0.96326427   -5.7910894    820.77052  0.038168272   0.03813589            2 
 1793000   0.96668381   -5.8210779    820.80512  0.038148593  0.038125882            6 
 1794000   0.94831669   -5.7806623    822.91618  0.038225389  0.038116122            3 
 1795000   0.95945377    -5.820777    821.72775  0.038148921  0.038106185            3 
 1796000   0.97480628   -5.8020255    821.84746  0.038133234   0.03809638            4 
 1797000   0.96702614   -5.7912347    823.39235  0.038183655  0.038086494            4 
 1798000    0.9515364   -5.7991012    823.74796    0.0381789   0.03807658            4 
 1799000   0.98041469   -5.8275443    819.07049  0.037941008  0.038066644            4 
 1800000   0.94204088   -5.8193947    823.47505  0.038123845  0.038056809            4 
 1801000   0.96506157   -5.8236778     821.3721  0.038005372  0.038047023            5 
 1802000   0.98004708   -5.7919319    824.78805  0.038142251  0.038037266            4 
 1803000   0.96867402    -5.786583    823.58734  0.038065601  0.038027491            7 
 1804000   0.96410319    -5.821571     822.0157    0.0379719  0.038017575            5 
 1805000   0.94910629   -5.8027216    825.79326  0.038125266  0.038007705            5 
 1806000   0.95772498   -5.8043333     824.5802  0.038048182  0.037997816            6 
 1807000   0.96100307   -5.7801594    827.40799  0.038157535  0.037988166            5 
 1808000   0.98806936   -5.8090282    825.67518  0.038056562  0.037978469            7 
 1809000   0.96299413   -5.8074871    825.68287  0.038035879  0.037968701            5 
 1810000   0.96380997   -5.8260608    825.00567  0.037983686  0.037958997            5 
 1811000   0.96265584   -5.8232612    828.09415  0.038104829  0.037949101            9 
 1812000   0.97974465   -5.8278407     826.6859  0.038019035    0.0379394           12 
 1813000   0.97192153   -5.8126867    826.57985   0.03799319   0.03792958            9 
 1814000   0.93978111   -5.8071546    826.42951   0.03796534  0.037919893            3 
 1815000   0.95495254   -5.8195206    828.05908  0.038019242  0.037910335            1 
 1816000   0.94361954   -5.8381354    827.59796  0.037977146  0.037900716            5 
 1817000   0.96538276   -5.8241052    827.38958  0.037946688  0.037891209            5 
 1818000   0.94268045   -5.8052141    827.97804  0.037952789  0.037881635            6 
 1819000    0.9632595   -5.8223853    827.53101  0.037911444  0.037871897            3 
 1820000   0.93633158   -5.8219593    828.90954  0.037953733  0.037862114            5 
 1821000   0.96310772   -5.8254924    825.89115  0.037794763  0.037852324            7 
 1822000   0.95814107   -5.8241537    830.65489    0.0379919  0.037842713            2 
 1823000   0.95358741   -5.8299178    827.96429  0.037848066   0.03783297            4 
 1824000   0.96711184   -5.8250764    829.37054  0.037891564  0.037823116            5 
 1825000    0.9557531   -5.8228924    827.44037  0.037782665  0.037813406            4 
 1826000   0.94846082   -5.8183109    829.51492   0.03785665  0.037803784            2 
 1827000   0.97691048   -5.8058553    829.54764  0.037837422  0.037794185            6 
 1828000   0.92708263   -5.7913994     829.2942   0.03780517  0.037784477            4 
 1829000   0.95744345   -5.7984168    831.90805  0.037903592  0.037774767            5 
 1830000   0.94591196   -5.8061581    833.16246  0.037940003  0.037765076            4 
 1831000   0.96235474   -5.8223498    831.11293  0.037826003  0.037755504            7 
 1832000   0.97221862   -5.7778103    830.32565  0.037769544  0.037745835            6 
 1833000   0.97020676   -5.8147754    827.39283  0.037615604  0.037736249            6 
 1834000   0.95328692   -5.7961391    830.20662  0.037722947  0.037726652            3 
 1835000   0.94772032   -5.7940317    833.33037  0.037844249   0.03771697            9 
 1836000   0.97131334   -5.8512372    829.89046  0.037667504  0.037707258            3 
 1837000   0.93937776   -5.7957434     835.5783  0.037905022   0.03769758            5 
 1838000   0.95113101    -5.842251    830.19922  0.037640516  0.037687894            4 
 1839000   0.96036774   -5.8274289    832.22753   0.03771196  0.037678345            8 
 1840000   0.97231963   -5.7957428    835.58508  0.037843527  0.037668994            5 
 1841000    0.9687614    -5.800083    837.63632  0.037915821  0.037659713            6 
 1842000   0.94822396   -5.8211414    836.44608   0.03784139  0.037650356            2 
 1843000    0.9535972   -5.8081508    832.17176  0.037627589  0.037640871            3 
 1844000   0.95197392    -5.805359    836.70098  0.037811866  0.037631293            8 
 1845000   0.95994073   -5.8095183     834.2651   0.03768135  0.037621897            3 
 1846000   0.93789917   -5.8172667    834.97196  0.037692848  0.037612331            7 
 1847000   0.95836321   -5.8508647    836.37298  0.037735651  0.037602791            2 
 1848000   0.95859332   -5.8312293    833.67262  0.037593462  0.037593318            4 
 1849000   0.98373593   -5.8383958    836.12776  0.037683782  0.037583722            7 
 1850000   0.93260189   -5.8213489    838.33506   0.03776284  0.037574196            6 
 1851000   0.94045306   -5.8212854    839.10459  0.037777084  0.037564659            6 
 1852000   0.96185362   -5.8438534     837.7468   0.03769559  0.037555019            5 
 1853000   0.95537886   -5.8210661    839.65124  0.037760894  0.037545449            5 
 1854000   0.94867055   -5.8500917    837.17102  0.037629046   0.03753585            9 
 1855000    0.9572409   -5.8566787    834.91431  0.037507381   0.03752631            3 
 1856000   0.95178801   -5.8120199    838.33594  0.037640802  0.037516541            3 
 1857000   0.94663591   -5.8247111    837.90499  0.037601193  0.037507003            3 
 1858000   0.95217033   -5.8195954    838.71411  0.037617245  0.037497414            3 
 1859000   0.96128509    -5.804323    838.78525  0.037600199    0.0374878            4 
 1860000   0.94345148   -5.8199354    838.97436  0.037588457  0.037478272            8 
 1861000   0.96024477   -5.8179584    840.38222  0.037631301  0.037468803            3 
 1862000    0.9654179   -5.8591469     841.1729  0.037646478  0.037459436            6 
 1863000   0.96194782   -5.8244023    842.02366  0.037664326  0.037450174            4 
 1864000   0.93761185   -5.8095255    842.27621   0.03765541   0.03744082            3 
 1865000   0.94216924   -5.8307505     838.6121  0.037471497  0.037431339            9 
 1866000   0.96670157   -5.8581816    839.15445  0.037475636  0.037421886            4 
 1867000   0.94058791   -5.8524582    843.82139  0.037663872  0.037412594            6 
 1868000   0.96178192   -5.8388236    842.57678  0.037588186  0.037403235            6 
 1869000   0.94753056   -5.8450843    841.48981   0.03751961  0.037393756            3 
 1870000   0.93271377    -5.863199    840.12572  0.037438758  0.037384308            5 
 1871000   0.93642879   -5.8352031    842.75414  0.037535816  0.037374935           10 
 1872000   0.96696281   -5.8303604    841.13678  0.037443767  0.037365643            7 
 1873000   0.93640826   -5.8310985    843.87358  0.037545541  0.037356275            2 
 1874000   0.93614122    -5.798685    845.14464  0.037582028  0.037347121            5 
 1875000   0.95822838   -5.8218856     843.4119  0.037484973   0.03733787            4 
 1876000   0.94654204   -5.8539534    844.73564  0.037523794  0.037328619           10 
 1877000   0.93071376   -5.8366105    845.52653  0.037538915   0.03731937            4 
 1878000   0.95070792   -5.8795516    842.06286  0.037365231  0.037310177            6 
 1879000   0.94377307   -5.8690988    841.99615  0.037342387  0.037300721            4 
 1880000   0.94457544    -5.813045    844.80895  0.037447205  0.037291471            4 
 1881000   0.96882104   -5.8584162    844.75763  0.037425024  0.037282299            5 
 1882000   0.93091865    -5.806684    848.78586  0.037583504  0.037273098            4 
 1883000   0.97529729   -5.8444082    846.81234  0.037476205   0.03726409            5 
 1884000   0.93761397   -5.8387544    845.26944  0.037388068  0.037254938            4 
 1885000   0.94115369   -5.8497252    845.67597  0.037386205   0.03724579            4 
 1886000    0.9616062   -5.8216388     846.8287  0.037417316  0.037236534            5 
 1887000   0.94985325   -5.8204435    849.03626  0.037494977  0.037227309            8 
 1888000   0.94937462   -5.8477742     843.5073  0.037231078  0.037217997            3 
 1889000   0.93782551   -5.8657616    845.74906  0.037310264  0.037208688            4 
 1890000   0.96245291   -5.8452148    849.49776   0.03745581  0.037199611            4 
 1891000   0.93337545    -5.865068    845.77254  0.037271838  0.037190459            2 
 1892000    0.9521753   -5.8572143    845.55368  0.037242498  0.037181029            2 
 1893000   0.94405731   -5.8137394    850.87854  0.037457234  0.037171902            4 
 1894000     0.966985   -5.8783504    844.57253  0.037160002  0.037162593            7 
 1895000   0.95238969   -5.8438347    853.16591   0.03751829  0.037153338            3 
 1896000   0.95104537   -5.8170362    851.59932  0.037429646  0.037144082            4 
 1897000   0.94058881   -5.8394666      849.252    0.0373068  0.037135047            7 
 1898000    0.9486654   -5.8661211    848.74463  0.037264868  0.037125703            3 
 1899000   0.96017211   -5.8082646    850.43248  0.037319312  0.037116359            6 
 1900000   0.95684009   -5.8623944    847.12363  0.037154545  0.037107092            3 
 1901000   0.93901191   -5.8062524    849.67476  0.037246833  0.037097686            3 
 1902000   0.96142508    -5.842559     851.3052  0.037298685  0.037088301            3 
 1903000   0.93054615   -5.8661674    849.13483  0.037184044  0.037078986            3 
 1904000   0.95092278   -5.8761101    848.08197  0.037118433  0.037069553            3 
 1905000   0.92453503   -5.8170252     853.6496  0.037342502  0.037060121            5 
 1906000   0.95604005   -5.8711024    852.61017  0.037277464  0.037050818            4 
 1907000   0.94480683   -5.8312421    851.27639  0.037199632  0.037041527            3 
 1908000   0.93659494   -5.8645468    849.31441  0.037094445  0.037032407            2 
 1909000   0.94203661   -5.8457561    851.00771  0.037148931  0.037023059            7 
 1910000   0.94520453   -5.8034829    854.75978  0.037293184  0.037013749            3 
 1911000   0.93593884   -5.8558218    851.68317  0.037139507  0.037004449            3 
 1912000   0.95923139   -5.8652293    849.79525  0.037037799  0.036995011            3 
 1913000    0.9442061   -5.8347312    852.11627  0.037119545  0.036985647            3 
 1914000   0.93499033   -5.8440479    851.60235  0.037077776  0.036976238            2 
 1915000   0.95081358   -5.8229646    854.29802  0.037175719  0.036966846            6 
 1916000   0.94637629   -5.8567919    854.42286  0.037161746  0.036957471            5 
 1917000   0.93009103   -5.8763897    850.71166  0.036981032  0.036947892            7 
 1918000   0.93649776   -5.8666832    853.51041  0.037083351  0.036938406            4 
 1919000   0.96941137   -5.8330392    855.28199  0.037140958  0.036929208            2 
 1920000   0.94266039   -5.8672906    852.25403  0.036990192  0.036919947            2 
 1921000   0.96078075   -5.8750541    853.94658   0.03704436  0.036910549            9 
 1922000    0.9406375   -5.8992667    856.31014  0.037127564   0.03690108            4 
 1923000   0.98616441   -5.8362828    855.60627  0.037077755  0.036891864            3 
 1924000   0.94608868   -5.8806956    852.01981  0.036903145  0.036882458            3 
 1925000   0.93762164   -5.8316702    853.04913  0.036928534  0.036872952            2 
 1926000   0.92756619   -5.8382001     856.7175  0.037068081  0.036863539            2 
 1927000   0.93102467   -5.8984984    853.20008  0.036896734     0.036854            4 
 1928000   0.95157907   -5.8789354    856.36051  0.037014199  0.036844513            6 
 1929000   0.95880949   -5.8384483    855.61411  0.036962766  0.036835116            3 
 1930000   0.93346188    -5.841375    857.12667  0.037008923  0.036825636           10 
 1931000   0.94280075   -5.8759757    857.89681  0.037022994  0.036816175            3 
 1932000   0.94003476   -5.8454962    855.91754  0.036918459   0.03680676            4 
 1933000   0.94856489   -5.9009224    854.50791  0.036838589  0.036797217            4 
 1934000    0.9357161   -5.8426053    856.59835  0.036909615  0.036787711            5 
 1935000   0.94522601   -5.8597304    857.27433  0.036919653  0.036778295            6 
 1936000   0.94830669   -5.8492424    856.90703  0.036884772  0.036768938            4 
 1937000   0.94403036   -5.8678497    855.92508  0.036823485  0.036759364            3 
 1938000   0.95093321   -5.8462294    858.81493  0.036928746   0.03674974            5 
 1939000   0.92393436   -5.8373905    857.56695  0.036856066  0.036740335            9 
 1940000   0.92120987   -5.8684781    857.72403  0.036843816  0.036730899            2 
 1941000   0.95534348   -5.8795046    856.48879  0.036771801  0.036721258            2 
 1942000    0.9479829   -5.8855161    857.14263  0.036780923  0.036711539            6 
 1943000   0.93739001   -5.8489714    856.94086  0.036753339  0.036701995            6 
 1944000   0.93762819   -5.8421542    857.55852   0.03676091  0.036692437            3 
 1945000   0.94296804   -5.8816459    856.63729   0.03670254  0.036682884            3 
 1946000    0.9554249   -5.8605078    857.40326  0.036716481   0.03667344           10 
 1947000   0.93868428   -5.8776958    857.68905  0.036709855  0.036663937            5 
 1948000   0.92998322   -5.8778162    857.21475   0.03667072  0.036654317            2 
 1949000   0.93387903   -5.8688882    861.23267  0.036823699  0.036644786            4 
 1950000   0.93742802   -5.8425998    859.00679  0.036709692   0.03663532            4 
 1951000   0.94285221   -5.8720383    859.23553  0.036700646  0.036625783            4 
 1952000     0.948575   -5.8607248    859.93921  0.036711885   0.03661622           11 
 1953000   0.95287835   -5.8756663    860.08922  0.036699489  0.036606657            2 
 1954000   0.92805725   -5.8694016    857.73819  0.036580441  0.036597058            6 
 1955000   0.91955132   -5.8386471    857.91158  0.036569121  0.036587562            2 
 1956000   0.93103745   -5.8931857    860.63522  0.036666463  0.036578071            5 
 1957000   0.94395521   -5.8980126    859.45214  0.036597349  0.036568543            4 
 1958000   0.94796835   -5.8755312    861.37349  0.036660431  0.036559106            7 
 1959000    0.9234324   -5.8567288     865.7676  0.036828637  0.036549612            3 
 1960000   0.92954437   -5.8386266    863.08414  0.036695754  0.036540346            5 
 1961000   0.92622043   -5.8835712    862.93636  0.036670761  0.036530983            4 
 1962000   0.91981523   -5.8922076    864.40065  0.036714265  0.036521665            4 
 1963000   0.93790556   -5.8410815    865.79554  0.036754777  0.036512385            3 
 1964000   0.93604787   -5.8713339    866.01205   0.03674525  0.036503015            5 
 1965000   0.93309919   -5.8629294    866.94073  0.036765934  0.036493901            4 
 1966000   0.94401628   -5.8902295    864.63846  0.036649646  0.036484826            7 
 1967000    0.9140942   -5.8884717    862.85909   0.03655563   0.03647569            3 
 1968000   0.95427665    -5.869076    865.78524   0.03666096  0.036466422            2 
 1969000   0.93778683   -5.8610577    869.06459  0.036781132  0.036457246            7 
 1970000   0.95137699   -5.8859302    863.93662  0.036545542  0.036447995            3 
 1971000   0.92209205   -5.8643325    867.17526  0.036663929  0.036438819            4 
 1972000   0.94133288   -5.8830757    869.71723  0.036752756  0.036429656            5 
 1973000   0.95018127   -5.9085433    864.62843  0.036519194  0.036420427            5 
 1974000   0.93616286    -5.868607    865.18024  0.036523989  0.036411151            5 
 1975000   0.93967286   -5.8900863    866.38773  0.036556444  0.036402062            3 
 1976000   0.94995692   -5.8717349    867.02083  0.036564644  0.036392748            5 
 1977000   0.91748263   -5.8927981    867.40058  0.036562155  0.036383443            4 
 1978000   0.93010419   -5.8838879    868.39602  0.036585609  0.036374131            8 
 1979000   0.92976805    -5.868673     867.6827  0.036537085  0.036364888            5 
 1980000   0.93260461   -5.8441072    869.21804  0.036583251  0.036355627            4 
 1981000    0.9385448   -5.9001502    867.91039  0.036509776  0.036346516            7 
 1982000   0.92284446   -5.8409858    868.87352   0.03653185  0.036337328            6 
 1983000   0.92127088   -5.8669107    868.42774  0.036494694  0.036328162            2 
 1984000   0.93490329   -5.9108171    867.68531  0.036445116  0.036319015            4 
 1985000   0.93996155   -5.8570393    869.05244  0.036484149  0.036309794            3 
 1986000    0.9416242   -5.8864921    870.84057  0.036540809  0.036300553            3 
 1987000   0.93611762   -5.8908129    870.54485  0.036510017  0.036291269            9 
 1988000   0.93875736   -5.8851357    871.95418  0.036550729  0.036282061            4 
 1989000   0.94280219   -5.8722704    872.85038    0.0365699  0.036272927            4 
 1990000   0.92625337   -5.8884735    871.52047  0.036495832  0.036263745            5 
 1991000   0.92499936   -5.8942199    869.92309  0.036410643  0.036254622            6 
 1992000   0.94373676   -5.8927384    871.25972  0.036448281  0.036245422            5 
 1993000    0.9148584   -5.8434717    874.37877   0.03656041  0.036236412            2 
 1994000   0.91544407   -5.8500346    876.26884  0.036621065  0.036227374            2 
 1995000   0.91059217   -5.8579597    874.18095  0.036515495   0.03621826            3 
 1996000   0.93632232   -5.8715206    874.51249  0.036511043  0.036209196            3 
 1997000   0.93542625   -5.8734363    872.41164  0.036405093  0.036200212            4 
 1998000   0.95701171   -5.8874971     872.7936  0.036402803  0.036190978            4 
 1999000   0.94000579   -5.9232824    869.65344  0.036253687  0.036181683            4 
 2000000   0.90584499    -5.892651    871.95088  0.036331287  0.036172442            3 
 2001000   0.93331519    -5.926648    874.76842  0.036430469  0.036163144            7 
 2002000   0.93677817   -5.8814955    872.34476  0.036311387  0.036153869            5 
 2003000   0.94619626   -5.8711276    872.24856  0.036289256  0.036144783            5 
 2004000   0.94252357   -5.8603027    877.09387  0.036472633  0.036135586            3 
 2005000   0.94040109    -5.855657    875.54852  0.036390213  0.036126512            2 
 2006000   0.92862566   -5.9007032    875.41925  0.036366702  0.036117452            8 
 2007000   0.94042695   -5.8833317    874.02581  0.036290725  0.036108477            7 
 2008000   0.93370536   -5.8743636    875.86436  0.036348953  0.036099378            4 
 2009000   0.92737343   -5.8907288    874.92747  0.036291997  0.036090304            4 
 2010000   0.92923401   -5.8525709    879.71172  0.036472294  0.036081399            5 
 2011000   0.93176314   -5.9102349    877.44591  0.036360265  0.036072512            4 
 2012000   0.93629612   -5.8607655     877.7346   0.03635415   0.03606354            6 
 2013000   0.93687207   -5.9092073    878.81753  0.036380921  0.036054592            6 
 2014000   0.91283301   -5.8999027    878.25217  0.036339464  0.036045609            4 
 2015000   0.93905019   -5.8756599    879.60952  0.036377565  0.036036551           11 
 2016000   0.91969865   -5.8629494    879.73281  0.036364617  0.036027546            4 
 2017000   0.93860377   -5.8645546    877.43091  0.036251484  0.036018392            7 
 2018000   0.93595529   -5.8978485    877.06043  0.036218221   0.03600942           15 
 2019000   0.91944276   -5.8883198    877.73336  0.036228057  0.036000268            3 
 2020000   0.93461452   -5.8839398    878.66133  0.036248405  0.035991147            5 
 2021000   0.93495082   -5.8831981    878.27597  0.036214579  0.035982126            4 
 2022000   0.92947057   -5.8669855    878.00355  0.036185441  0.035973075            6 
 2023000   0.92497992   -5.8504778    881.62414  0.036316697   0.03596405            4 
 2024000   0.91037862   -5.8977242    881.66548  0.036300456  0.035954933            7 
 2025000   0.94221362   -5.8575982    880.52226  0.036235484  0.035946003            4 
 2026000   0.93232453   -5.8698566    880.06907  0.036198958  0.035937047            3 
 2027000   0.93044738   -5.8672359    884.70565  0.036371717  0.035928141            3 
 2028000   0.91069822   -5.9146066    880.07038  0.036163313  0.035919146            4 
 2029000   0.90108488   -5.9082687    880.42652  0.036160117  0.035910081            3 
 2030000   0.91820733   -5.8790062     883.6035  0.036272722  0.035901096            6 
 2031000   0.90446438   -5.9198387    879.37762  0.036081471  0.035892057           11 
 2032000   0.93768646   -5.8693391    882.49897  0.036191723  0.035883151            9 
 2033000   0.92585523   -5.9217387    882.16724  0.036160323  0.035874042            6 
 2034000   0.93196749   -5.9217588    878.83427  0.036005993  0.035864937           11 
 2035000   0.92127615   -5.8999921    882.23269  0.036127465  0.035855946            4 
 2036000   0.92633011   -5.8977866    884.53276  0.036203862  0.035846978            5 
 2037000   0.91649007   -5.8804346    881.63226   0.03606743  0.035837926           12 
 2038000   0.92306335   -5.9038803    882.42633  0.036082202  0.035828903            4 
 2039000   0.92304794   -5.8996955    883.73684  0.036118066  0.035819957            3 
 2040000   0.93717734   -5.8918791    882.01284  0.036029936  0.035810985            6 
 2041000   0.94257557   -5.8981462    882.66419  0.036038877  0.035802028            3 
 2042000   0.92338147   -5.9167055    883.04159   0.03603663  0.035793023            3 
 2043000     0.897628   -5.9019863    883.94305  0.036055762  0.035784057            5 
 2044000   0.92634928   -5.9118146     883.7434  0.036029982  0.035775023            8 
 2045000   0.90731997   -5.9126335    885.44697  0.036081784  0.035765988            5 
 2046000   0.94705533   -5.8946915    886.11063  0.036091179  0.035757091            8 
 2047000   0.92738377   -5.9158498    885.45046  0.036046672  0.035748269            5 
 2048000   0.93516964   -5.8791137    884.37018  0.035985115  0.035739359            6 
 2049000   0.92626588   -5.8916191    887.44933  0.036092782  0.035730504            3 
 2050000   0.90622086   -5.8921358    886.08668  0.036019784  0.035721717            7 
 2051000   0.91646424   -5.8785513     887.0485  0.036041301  0.035712902           10 
 2052000   0.90177032   -5.9040711    884.88894  0.035936035  0.035703916            7 
 2053000   0.92674854   -5.8971974    885.36606  0.035937898  0.035694972            3 
 2054000   0.93629926   -5.9090227    886.85484  0.035980803  0.035686079            4 
 2055000   0.90309576   -5.9084528    886.49941  0.035948881  0.035677239            6 
 2056000   0.93408465   -5.9100778    886.47085  0.035930239  0.035668289            4 
 2057000   0.91490735   -5.8759288    890.23759   0.03606537  0.035659437            2 
 2058000   0.91092972    -5.842376    888.18017  0.035964536  0.035650692            9 
 2059000   0.90932567   -5.9187426    887.69969  0.035927622  0.035641915            3 
 2060000   0.93652575   -5.9039888     889.2137  0.035971428  0.035633041            2 
 2061000   0.92928822   -5.8905243    887.43606  0.035882098  0.035624243            2 
 2062000    0.9012267    -5.915165    888.86843  0.035922585  0.035615524            3 
 2063000   0.93319313   -5.9062901    891.78342   0.03602292  0.035606749            4 
 2064000   0.90305788   -5.8803893    890.38356  0.035948948  0.035598097            6 
 2065000   0.93360835   -5.8951592    890.10888  0.035920455  0.035589246            3 
 2066000    0.9161364   -5.8945473    890.07412  0.035901667  0.035580524            8 
 2067000   0.91406953   -5.8991911    889.20056  0.035849079  0.035571909            4 
 2068000   0.90352048   -5.9241216    887.82229  0.035776205  0.035563186           14 
 2069000   0.91815871    -5.897142    892.95457  0.035965626   0.03555434            3 
 2070000   0.91655031   -5.9010652    889.75673  0.035819514  0.035545518            8 
 2071000   0.90985687   -5.9155669    889.29086  0.035783472  0.035536753            8 
 2072000   0.91307018   -5.8865988    892.48478  0.035894658  0.035528119            5 
 2073000   0.91685078   -5.9597642    890.59553  0.035801396  0.035519366            8 
 2074000   0.92390778   -5.9024716    891.72544  0.035829534  0.035510619            3 
 2075000    0.9115066   -5.8938949    895.37864  0.035958982  0.035501866            3 
 2076000    0.9205943   -5.9410667    888.04138  0.035647133  0.035493052            5 
 2077000   0.91341029   -5.9192925    892.32236  0.035801732  0.035484352            4 
 2078000   0.94153786   -5.9050971    892.93371  0.035809019  0.035475668            5 
 2079000   0.91823049   -5.9215754    894.24334   0.03584429  0.035466874            7 
 2080000   0.93776678   -5.9189772    892.43409  0.035754571  0.035458117            8 
 2081000    0.9422136   -5.9190099    895.89702  0.035876062  0.035449461            2 
 2082000   0.90554593   -5.9103961    894.41068  0.035799339  0.035440784            5 
 2083000   0.91947021   -5.9255363    894.35991  0.035780121  0.035432201            3 
 2084000   0.92597996   -5.9277848    893.14023  0.035714181  0.035423418           10 
 2085000   0.93036621   -5.9458306    895.59535  0.035795178   0.03541465            3 
 2086000    0.9153436    -5.921234    895.62158  0.035779066  0.035405995            2 
 2087000   0.91797037   -5.9622004    893.32421  0.035670189    0.0353973            6 
 2088000   0.93690855   -5.9167749    897.10749  0.035804098  0.035388687            3 
 2089000   0.92615748   -5.8852579    896.77491  0.035773692  0.035380084            6 
 2090000   0.91493218   -5.9044446    897.30381  0.035777664  0.035371485            3 
 2091000   0.90085113   -5.9089707     897.0023  0.035748537  0.035362858            4 
 2092000    0.9332308   -5.9095933    898.25645  0.035781407  0.035354341            2 
 2093000   0.92498962   -5.9199581    898.38585  0.035769464  0.035345596            4 
 2094000   0.93767543   -5.9122817    899.69805  0.035804602  0.035336984            3 
 2095000   0.90730948    -5.913976    897.85285  0.035714115  0.035328295            6 
 2096000   0.89982858   -5.9005865    897.81265  0.035695477  0.035319589            4 
 2097000   0.92274181   -5.9272213    897.16395  0.035652676  0.035310858            5 
 2098000   0.92580194   -5.9004079    900.29955   0.03576023  0.035302283            3 
 2099000   0.92123418   -5.9179019    897.63399  0.035637367   0.03529353            3 
 2100000   0.92998822   -5.9268523    898.73892  0.035664243   0.03528472            2 
 2101000   0.91328675   -5.9340966    898.33351  0.035631188  0.035276008            2 
 2102000   0.90948912   -5.9074171     897.2091   0.03556966  0.035267336            2 
 2103000   0.91935693   -5.9136103    897.98754  0.035583592  0.035258637            9 
 2104000   0.91898817   -5.8905133    901.64705  0.035711623  0.035250109            7 
 2105000    0.8972774   -5.9071176    901.18635  0.035676419  0.035241592            8 
 2106000   0.91789939   -5.9314571    897.81417  0.035526043  0.035232976            6 
 2107000   0.91172867   -5.9367306    900.07767  0.035598706  0.035224354            3 
 2108000   0.91050688   -5.8909287     901.0463   0.03562011  0.035215829            6 
 2109000   0.91377579   -5.9069037    903.07212  0.035683267  0.035207176            4 
 2110000   0.91129911   -5.9330992     898.9481  0.035503479  0.035198573            7 
 2111000   0.91417304   -5.9205165    901.92736   0.03560427   0.03518992            4 
 2112000   0.91251268   -5.9057439    901.80741  0.035582679  0.035181118            5 
 2113000   0.89404124   -5.9594173    901.15184  0.035539984  0.035172289            7 
 2114000   0.90520143   -5.8804387    906.37279  0.035728981  0.035163598            3 
 2115000   0.91249758   -5.9393731    901.44843  0.035518063  0.035155061            8 
 2116000   0.90558162   -5.9148618    901.16689  0.035490189  0.035146436            4 
 2117000   0.92219411    -5.958719    900.12386  0.035432367  0.035137774            6 
 2118000   0.92112062   -5.9363058    902.50657  0.035509386  0.035129093            6 
 2119000   0.91671473   -5.9545419     902.3437  0.035486224  0.035120342            7 
 2120000   0.91976886   -5.9153138    903.62312  0.035519777  0.035111585            9 
 2121000    0.9152358   -5.9285979    902.19513  0.035446925  0.035102941            3 
 2122000   0.91843439   -5.9372175    902.52447  0.035443154  0.035094204            3 
 2123000   0.89102248   -5.9771833    898.86215  0.035282703  0.035085465            3 
 2124000   0.91693811   -5.9554278    900.16935  0.035317379  0.035076685            5 
 2125000   0.92677531   -5.9310154    902.38714  0.035387731  0.035067854            6 
 2126000   0.90659368   -5.9407995    902.31471  0.035368247  0.035058986            6 
 2127000   0.91322204   -5.9630888    899.27507  0.035232529   0.03505015            6 
 2128000   0.91218522   -5.9077812    903.09113  0.035365411  0.035041295           12 
 2129000   0.91336512   -5.9144198    902.49393  0.035325424  0.035032513            6 
 2130000   0.92284117   -5.9278793    901.21861  0.035258944  0.035023725            3 
 2131000   0.90183819   -5.9643962    901.47296  0.035252345   0.03501497            4 
 2132000   0.89680486   -5.9610666    901.14843  0.035223125  0.035006187            4 
 2133000   0.89543234   -5.9795377    903.30512   0.03529087  0.034997353            5 
 2134000   0.92377834    -5.952358     899.9917  0.035144943  0.034988401            6 
 2135000   0.91591392   -5.9620621    901.13844  0.035173241  0.034979479            3 
 2136000   0.90307747   -5.9414682    904.42224  0.035284888  0.034970609            9 
 2137000   0.90001276   -5.9625526    904.97666  0.035289996  0.034961825           13 
 2138000   0.90681375    -5.938078    905.00162  0.035274463  0.034952928            9 
 2139000   0.91013263   -5.9435323    904.99495  0.035257712  0.034944139            4 
 2140000   0.90519839   -5.9148781    905.12144  0.035246162    0.0349355            4 
 2141000   0.90969428   -5.9214662    906.50115  0.035283402  0.034926749            3 
 2142000   0.90757957   -5.9340001    903.21695  0.035139159  0.034917943            4 
 2143000   0.90748584   -5.9084023    908.42853  0.035325421  0.034909219            6 
 2144000   0.90818399   -5.9388355    906.88296  0.035248871  0.034900527            3 
 2145000   0.90178404   -5.9171198    907.93969  0.035273492  0.034891877            4 
 2146000   0.92430337   -5.9269166     908.5035  0.035278949  0.034883271            4 
 2147000   0.91929375   -5.9687955    906.29005  0.035176605  0.034874564            9 
 2148000   0.92122302   -5.9163434    907.20487   0.03519572  0.034865868            5 
 2149000   0.89912812   -5.9607847    906.91777  0.035168209  0.034857248            3 
 2150000   0.92695325   -5.9706626    903.59426  0.035023033  0.034848478            5 
 2151000   0.90363988   -5.9432597    907.30022  0.035150326  0.034839807            4 
 2152000     0.913313   -5.9104483    908.10574  0.035165185  0.034831053            5 
 2153000   0.89701316   -5.9464571    909.56085  0.035205173  0.034822299            4 
 2154000   0.91197424   -5.9472139    908.98685  0.035166622    0.0348136            6 
 2155000   0.91215521   -5.9542926    909.15325  0.035156738  0.034804825            6 
 2156000   0.90238732   -5.9417817    907.20905  0.035065285  0.034796018           11 
 2157000   0.90827923   -5.9345467    909.55776  0.035139768  0.034787167            3 
 2158000   0.90324358   -5.9647528    910.25274  0.035150322   0.03477832            8 
 2159000   0.89091632   -5.9341578    906.19203  0.034977305  0.034769515            4 
 2160000   0.90335511   -5.9395498    908.14386  0.035036414  0.034760684            3 
 2161000   0.91015148   -5.9200567    910.62946  0.035116052  0.034752029            3 
 2162000   0.90663294   -5.9675238    909.53831  0.035057752  0.034743219            4 
 2163000   0.91230937   -5.9696226    909.19708  0.035028397   0.03473444            4 
 2164000   0.91186751   -5.9472597    909.93457  0.035040611  0.034725586            4 
 2165000   0.92127458   -5.9563142    910.25057  0.035036589  0.034716805            8 
 2166000   0.89312147   -5.9250134     910.3154  0.035022907  0.034707936            7 
 2167000   0.90547515   -5.9284329    911.38466  0.035047864  0.034699009           11 
 2168000   0.90509052   -5.9582974     907.7861  0.034893377  0.034690084            4 
 2169000   0.91045495   -5.9290007    908.72783  0.034913471  0.034681261            5 
 2170000    0.8970416    -5.950745    909.78077  0.034937818    0.0346724            5 
 2171000   0.90099987   -5.9424865     909.7062  0.034918862  0.034663495            7 
 2172000   0.92425588   -5.9182237    910.41271  0.034929892   0.03465463            6 
 2173000    0.9011562   -5.9639112    911.18471  0.034943424  0.034645764            8 
 2174000   0.89766096    -5.930078    910.57416  0.034903947  0.034636978            4 
 2175000   0.90890244   -5.9621163    909.71833  0.034855108  0.034628198           10 
 2176000   0.90182518   -5.9334814    913.15558  0.034970725   0.03461948            6 
 2177000   0.89417918   -5.9782133    911.36563  0.034886144  0.034610778            7 
 2178000   0.91143393   -5.9500738    911.94919  0.034892455  0.034602067            4 
 2179000   0.92119815   -5.9300893    913.27168  0.034927018  0.034593317            3 
 2180000   0.90170959   -5.9213823    915.07691  0.034980004  0.034584689            3 
 2181000   0.89534228   -5.9647214     916.2017  0.035006943  0.034575935           20 
 2182000   0.92191585   -5.9584033    913.80525  0.034899376  0.034567102            6 
 2183000   0.89559584   -5.9674409    913.56381  0.034874172  0.034558299            4 
 2184000   0.89809426    -5.962838     913.5029   0.03485588  0.034549539            4 
 2185000   0.89606474   -5.9281868    915.67162   0.03492264  0.034540713            7 
 2186000   0.89102071   -5.9459706    914.77856   0.03487262  0.034531981            5 
 2187000   0.89096629   -5.9545493    912.89516  0.034784909  0.034523144            5 
 2188000   0.91318201   -5.9468176    915.13617  0.034854364  0.034514303            3 
 2189000   0.89816206   -5.9552175    914.06889  0.034797811  0.034505448            8 
 2190000   0.90212065   -5.9755782    911.27029  0.034675429  0.034496589            3 
 2191000   0.90069142   -5.9431209    916.46148  0.034857047  0.034487693            7 
 2192000   0.91264792   -5.9817667    913.51024  0.034728948  0.034478875            9 
 2193000   0.91108538   -5.9879973    913.04364  0.034695381  0.034470073            3 
 2194000   0.87407919   -5.9840661    916.28306  0.034802608  0.034461225            7 
 2195000   0.87392891   -5.9689005     911.5695  0.034607802  0.034452394            5 
 2196000   0.92975195   -5.9437686    918.72607  0.034863618  0.034443677            4 
 2197000   0.91066598    -5.944916     916.7813  0.034773983  0.034434957            5 
 2198000   0.90911993    -5.931474    919.85175  0.034874573  0.034426157            5 
 2199000   0.88350857   -5.9493447    917.51862  0.034770298  0.034417334            5 
 2200000   0.90747031   -5.9611593    915.95837  0.034695393  0.034408518            3 
 2201000   0.90438542   -5.9407554    916.12896  0.034686088  0.034399692            3 
 2202000    0.8861922   -5.9473188    915.65457  0.034652383  0.034390948            4 
 2203000   0.90777333   -5.9613222    915.55122  0.034632744  0.034382043            3 
 2204000   0.88327432   -5.9692954    914.22367  0.034566836  0.034373152            5 
 2205000   0.88990885   -5.9500925    918.61923   0.03471728  0.034364323            4 
 2206000   0.89808054   -5.9768651    916.96677  0.034639119  0.034355565            4 
 2207000   0.89654717   -5.9822016    918.02613  0.034663424  0.034346654            6 
 2208000   0.90696772   -5.9989409    915.63128   0.03455734  0.034337731            3 
 2209000   0.92457978   -5.9685213    917.67107  0.034618646  0.034328828            2 
 2210000   0.90898952   -5.9338568    919.20331  0.034660758  0.034319996            6 
 2211000   0.89221513   -5.9661641    917.82869  0.034593272  0.034311063            4 
 2212000   0.92005721   -5.9800048    914.88645  0.034466789  0.034302139            5 
 2213000   0.90724258   -5.9855202    915.94123  0.034490934  0.034293249            6 
 2214000   0.90862559   -5.9801687    914.25348  0.034411829  0.034284309            6 
 2215000   0.88667519   -5.9387613    918.61225   0.03456028  0.034275344            6 
 2216000    0.9121172   -5.9689051    917.84481  0.034515825  0.034266439            6 
 2217000   0.89320926   -5.9623765    919.13736  0.034548841  0.034257441            4 
 2218000   0.87993837   -5.9459209    919.06469  0.034530534  0.034248607            3 
 2219000    0.8958211   -5.9520933    921.24151  0.034596722   0.03423976            4 
 2220000   0.90013046   -6.0080427    918.17979  0.034466208  0.034230895            6 
 2221000   0.89437411   -5.9500877    920.68693   0.03454476  0.034222011            9 
 2222000   0.89702757   -5.9809668    921.47783  0.034558875  0.034213144            3 
 2223000   0.88917248   -5.9665179    921.71261   0.03455213  0.034204379            5 
 2224000   0.89013694   -5.9690862    920.78558  0.034501858  0.034195616            8 
 2225000   0.90008125   -5.9706249    921.88377  0.034527482  0.034186739            5 
 2226000   0.89583715   -5.9618684    920.59734  0.034463812  0.034177872            4 
 2227000   0.89321463   -5.9593852    921.29225   0.03447434  0.034169027            4 
 2228000   0.89851533   -5.9744346    921.33464  0.034460452  0.034160139            4 
 2229000   0.88907518   -5.9859098    921.18754  0.034439492  0.034151216            6 
 2230000   0.87131852   -5.9951626    922.99027  0.034491415  0.034142233            5 
 2231000   0.89243566   -5.9929924    919.33167  0.034339298  0.034133229            4 
 2232000   0.92354085   -5.9429729    921.25433  0.034395696  0.034124348           11 
 2233000   0.90280611   -5.9911546    920.24209  0.034342517  0.034115479            3 
 2234000   0.88813179   -5.9542788    919.31854  0.034292694  0.034106505            4 
 2235000   0.89297164   -5.9631343     920.5039  0.034321547  0.034097543            6 
 2236000   0.89545308   -5.9960774    921.87482   0.03435729  0.034088559            5 
 2237000   0.89538799   -5.9337903    922.08066    0.0343496  0.034079633            4 
 2238000   0.87817706   -5.9949185    921.65225    0.0343183  0.034070566            3 
 2239000   0.88037503   -5.9703747    920.21873  0.034249618  0.034061581            4 
 2240000   0.89478901   -5.9772027      921.142  0.034268676  0.034052608           16 
 2241000   0.90213248    -5.940111    922.09964  0.034288995  0.034043558            6 
 2242000    0.9293777   -5.9741911    919.82122  0.034189014  0.034034596            4 
 2243000   0.89954154   -5.9718815    920.79265  0.034209862  0.034025559            4 
 2244000   0.90089903   -5.9751555    921.78146  0.034231338  0.034016451            9 
 2245000   0.88827861   -5.9546325    921.73478  0.034214357  0.034007422            3 
 2246000   0.87541942   -5.9876477     922.3939  0.034223579  0.033998359            5 
 2247000   0.87570803   -5.9867071    921.20583  0.034164287  0.033989249            4 
 2248000   0.87192167   -5.9790762    924.14121  0.034257904  0.033980216            4 
 2249000   0.90005577   -5.9754734    922.04862  0.034165133  0.033971255            5 
 2250000   0.89525855   -6.0228212    923.87804  0.034217705   0.03396221            3 
 2251000   0.89385509   -5.9815979    925.16854  0.034250279  0.033953203            4 
 2252000   0.88807708   -5.9630064    924.08313  0.034194906  0.033944331            8 
 2253000   0.89766049   -5.9799773    925.79195  0.034242933  0.033935395            2 
 2254000   0.87184193   -5.9853413    924.38697  0.034175797  0.033926436            9 
 2255000   0.90764359   -6.0076248    925.16387  0.034189352  0.033917436            5 
 2256000   0.90055721   -5.9870323    924.06608  0.034133647  0.033908425           11 
 2257000    0.8989244   -6.0013008    921.43308  0.034021307  0.033899266            7 
 2258000   0.89827751   -5.9822129    924.71658   0.03412742  0.033890129            3 
 2259000   0.89801108   -5.9986084    921.92461  0.034009319  0.033881048           13 
 2260000   0.87897431   -5.9899913    922.28956  0.034007727  0.033871862            3 
 2261000   0.88870186   -5.9704905    922.50386  0.034000585  0.033862764            5 
 2262000   0.88286822   -5.9828896    922.63877  0.033990524  0.033853673            2 
 2263000   0.89195369   -5.9912899     923.6183  0.034011574  0.033844655            3 
 2264000   0.89325197   -5.9760358    924.15863  0.034016439  0.033835592            3 
 2265000   0.89005617   -5.9934552    923.25454  0.033968158  0.033826585           11 
 2266000   0.88523052   -5.9870897    926.58119  0.034075507   0.03381753            7 
 2267000   0.89052619   -5.9866465    925.91134  0.034035853  0.033808468            3 
 2268000   0.90143863   -5.9901222    926.33975  0.034036587  0.033799433            4 
 2269000   0.87758529   -5.9772689    928.46642  0.034099692  0.033790448            7 
 2270000   0.88813366   -6.0021042    923.55935  0.033904528  0.033781505            5 
 2271000   0.88527443   -6.0085742    925.59101   0.03396415  0.033772583            5 
 2272000   0.90277474   -5.9741787    930.38925  0.034125193   0.03376361            4 
 2273000   0.88396587   -6.0489437     924.7646  0.033903967  0.033754733            6 
 2274000   0.89162637   -5.9690794    928.98812  0.034043833  0.033745729            4 
 2275000   0.90510352   -5.9793894     929.4089  0.034044282   0.03373682            6 
 2276000   0.90317757   -5.9666687    930.07056   0.03405355  0.033728016            4 
 2277000   0.89168879   -5.9750588    926.34499  0.033902247  0.033719091            7 
 2278000   0.86999677   -5.9774163    927.24246  0.033920195  0.033710095            4 
 2279000   0.89894781   -5.9862631    930.66484  0.034030453  0.033701092            4 
 2280000   0.89606779   -5.9894059    929.79125  0.033983598  0.033692172           11 
 2281000   0.87034631   -5.9903008    929.97768  0.033975511  0.033683183            5 
 2282000   0.90058932   -6.0145417     926.1915   0.03382236  0.033674073            6 
 2283000   0.88027384   -6.0270776    925.46047  0.033780861  0.033665012            5 
 2284000   0.87875335    -6.006164    926.01576  0.033786331  0.033655985            5 
 2285000   0.86056903   -5.9836141    927.89108  0.033839937  0.033646882            5 
 2286000   0.88944328   -6.0040077     927.5833  0.033813914  0.033637773            7 
 2287000   0.89281852   -6.0042161     927.6662   0.03380215  0.033628786            3 
 2288000   0.87275021   -5.9820851    926.34475  0.033739246   0.03361965            6 
 2289000   0.88783465   -5.9993075    929.09272  0.033824549  0.033610588            5 
 2290000   0.90408098   -5.9645602    930.78045  0.033871196   0.03360154            7 
 2291000   0.86928935   -5.9979697    928.61175  0.033777526  0.033592449            6 
 2292000   0.87300752   -5.9975614    929.44025  0.033792912  0.033583254            4 
 2293000   0.89197313   -5.9696175    929.39734  0.033776615  0.033574217            5 
 2294000   0.89539179   -5.9878667    927.98409  0.033710553  0.033565099            6 
 2295000   0.87335222   -5.9710487    930.96151  0.033803976  0.033556099            3 
 2296000   0.88788626   -5.9835863    932.26143  0.033836434  0.033547103            7 
 2297000   0.88901571   -5.9728376    934.91185  0.033917859  0.033538164            5 
 2298000   0.88400918   -6.0022552    931.30267  0.033772218  0.033529206            4 
 2299000   0.90635821   -5.9853148    932.18758  0.033789603  0.033520271            4 
 2300000   0.89174375   -5.9949648    929.90764  0.033692306  0.033511358            5 
 2301000   0.90166572    -6.019162    931.30351  0.033728216  0.033502452            4 
 2302000   0.87523549    -6.017253    929.51342  0.033648763  0.033493629            3 
 2303000   0.90253317   -5.9946884    933.33343  0.033772378  0.033484887            5 
 2304000    0.8936402   -6.0164026    932.51671   0.03372818  0.033476006            5 
 2305000   0.90301603   -5.9740254    934.24546  0.033776047  0.033467266            4 
 2306000   0.87366663   -6.0097667    933.96205  0.033751158  0.033458465           12 
 2307000    0.8890874   -5.9808478    935.91599  0.033807108  0.033449598            7 
 2308000    0.8675403   -5.9972489     937.0035  0.033831726  0.033440715            6 
 2309000   0.85542865   -6.0105409    933.24167  0.033681308  0.033431812           10 
 2310000   0.88099057   -6.0133659    934.95278  0.033728455  0.033422896            5 
 2311000   0.88936253   -5.9990427    936.16886  0.033757712  0.033414124            7 
 2312000   0.86339857    -6.029745    934.21154  0.033672561  0.033405271           13 
 2313000   0.88061767   -5.9835209    935.68527  0.033711099  0.033396541            4 
 2314000   0.86456822   -6.0153774    933.37844  0.033613456  0.033387667            2 
 2315000   0.88861398   -6.0061576     937.2362  0.033737804  0.033378758            6 
 2316000   0.89198703   -5.9985947    936.06608  0.033681134  0.033369973            3 
 2317000   0.87667932   -6.0137869    936.03973   0.03366565  0.033361231            5 
 2318000   0.90952012    -6.008864    937.52783  0.033704624  0.033352381            8 
 2319000   0.87347679   -5.9906611    936.15139  0.033640628  0.033343562            2 
 2320000   0.88208647   -5.9894672    936.57559  0.033641365  0.033334875           10 
 2321000   0.88445829    -5.993549    937.44443  0.033658065  0.033326106           12 
 2322000   0.88618567   -6.0298136    934.51645  0.033538489  0.033317265            7 
 2323000   0.88008361   -6.0021173    935.95854  0.033575784  0.033308377            7 
 2324000   0.87900488   -6.0568064    931.76885  0.033411103  0.033299469            4 
 2325000   0.88756568   -6.0305432    934.59661  0.033498087  0.033290445            7 
 2326000   0.88320525   -5.9947407    937.68813  0.033594444  0.033281527            4 
 2327000   0.87622539   -6.0258422    937.30401  0.033566252  0.033272641            4 
 2328000   0.86589342   -6.0374176    935.06043  0.033471522  0.033263725            4 
 2329000   0.89398347   -5.9934885    938.52146  0.033580988  0.033254801            6 
 2330000   0.86930299   -6.0182271    938.08891  0.033551105  0.033245953            5 
 2331000   0.89462311   -6.0286637    937.79428  0.033526179   0.03323707            6 
 2332000   0.86232074   -5.9968455    939.80043  0.033583492  0.033228288            6 
 2333000   0.90226984   -6.0201409    940.45818  0.033592591  0.033219508            4 
 2334000   0.89423548   -6.0016404    940.26689  0.033571369  0.033210678            5 
 2335000   0.89420987   -5.9890543    938.94028  0.033509646   0.03320186            4 
 2336000   0.87628173   -5.9689316    940.07329  0.033535719  0.033193109            4 
 2337000   0.88724528   -5.9959862    939.04228  0.033484606  0.033184233            4 
 2338000   0.88599625    -5.985619     938.1021  0.033436773  0.033175459            3 
 2339000   0.86717214   -6.0007572    941.10018  0.033529292  0.033166601            5 
 2340000   0.88055912   -6.0651588    935.48814  0.033315105  0.033157721            5 
 2341000   0.88081006   -6.0273447    936.42843  0.033334345  0.033148832            6 
 2342000   0.88059085   -6.0127332    940.73206  0.033473245  0.033139899            5 
 2343000    0.8951448   -6.0301737    938.71067  0.033387063  0.033131031           13 
 2344000   0.88499068   -6.0242204    940.41538  0.033433425   0.03312216            6 
 2345000   0.87780362   -6.0366062    936.39802  0.033276404  0.033113248            3 
 2346000   0.88392897   -6.0428089    937.84543  0.033313634  0.033104337            7 
 2347000   0.88842505   -6.0264973    938.57541  0.033325359  0.033095374            4 
 2348000    0.8705415   -6.0127188    941.33241  0.033409015  0.033086482            3 
 2349000    0.8757544   -6.0197435     938.8741  0.033307581  0.033077659            8 
 2350000    0.9073438   -6.0196622    940.18922  0.033340043  0.033068751            5 
 2351000   0.87966868   -6.0185173    943.55021  0.033444995  0.033059938            5 
 2352000   0.88734265   -6.0222278    941.65855  0.033363753  0.033051182            8 
 2353000    0.8935658   -6.0027514    942.34197  0.033373777  0.033042345            5 
 2354000   0.85391388   -6.0146406    942.57244  0.033367758  0.033033596            4 
 2355000   0.86978362   -6.0085853    941.40107   0.03331214  0.033024796            3 
 2356000   0.87390993   -6.0361768    941.47947  0.033300774  0.033015909           15 
 2357000   0.88206074   -6.0220695    942.12497  0.033309467  0.033007032            3 
 2358000   0.87620144   -6.0363757    941.70606  0.033280536  0.032998163            6 
 2359000   0.88191808   -6.0135101    943.74987  0.033338628  0.032989372            6 
 2360000   0.89944012   -6.0348892    940.45552  0.033208175  0.032980455            3 
 2361000   0.87851249   -6.0259753    942.85391  0.033278763   0.03297156           10 
 2362000    0.8751478   -6.0406909    940.70291  0.033188785  0.032962683            6 
 2363000   0.88275632   -6.0312385    940.28178  0.033159888  0.032953797            6 
 2364000    0.8788315   -6.0195278    942.17664  0.033212656  0.032944986           10 
 2365000    0.8712806   -6.0302911    944.30157  0.033273487  0.032936077            5 
 2366000   0.89192586   -6.0447331    940.26704  0.033117323   0.03292719            5 
 2367000   0.86550073   -6.0631325    941.24705  0.033137835  0.032918287            8 
 2368000   0.87602531   -6.0442885     940.9096  0.033111965  0.032909359            8 
 2369000   0.87027464    -6.040284    942.03208  0.033137473  0.032900599            8 
 2370000   0.86355558   -5.9862508    944.84696  0.033222467  0.032891813            7 
 2371000   0.87042529   -6.0274861    945.44948  0.033229631  0.032883038            9 
 2372000   0.87663988   -6.0391724    942.05325  0.033096306  0.032874177            6 
 2373000   0.88436923   -6.0649754    940.70158  0.033034892  0.032865182            9 
 2374000   0.86611131   -6.0279925     942.4068  0.033080834  0.032856225            4 
 2375000    0.8569335   -6.0017539     943.7746  0.033114898  0.032847337            4 
 2376000   0.87357234   -6.0211192    942.17021   0.03304469  0.032838442            7 
 2377000   0.85911939   -5.9875396    944.62923  0.033116997   0.03282953            7 
 2378000   0.86941561   -6.0434262    940.82463  0.032969744  0.032820655            8 
 2379000   0.88837868    -6.031879     942.4013  0.033011115  0.032811729            7 
 2380000   0.87570862   -6.0455413    941.35536  0.032960622  0.032802746            6 
 2381000   0.87362307   -6.0275108    943.37049  0.033017307  0.032793734            3 
 2382000   0.86249026   -6.0235655    944.51792  0.033043588  0.032784764            7 
 2383000   0.88592033   -6.0343922    943.28521  0.032986614  0.032775802            7 
 2384000   0.87481051   -6.0078896    945.64646  0.033055315  0.032766768           10 
 2385000    0.8652695    -6.008172    943.77084   0.03297592  0.032757694            8 
 2386000   0.86371854   -6.0241901    945.58376  0.033025418  0.032748664            4 
 2387000   0.85074047   -6.0151636    945.50048  0.033008675  0.032739701            7 
 2388000   0.88343889   -6.0695122    942.36708  0.032885507  0.032730679           12 
 2389000   0.87801597   -6.0300286    945.38803  0.032977118  0.032721686            4 
 2390000   0.86926503   -6.0445273    940.75018   0.03280161  0.032712632            4 
 2391000    0.8538783   -6.0328061    943.57448  0.032886327  0.032703639           15 
 2392000    0.8624349   -6.0262066    942.95118  0.032850863  0.032694661            6 
 2393000   0.86728656   -6.0355593    944.95951  0.032907073  0.032685724            8 
 2394000   0.84567673   -6.0214304    949.27099  0.033043407  0.032676803            4 
 2395000    0.8573925   -6.0648251    943.66209   0.03283445  0.032667844            7 
 2396000   0.87876959   -6.0530176    945.81186  0.032895516   0.03265887            3 
 2397000   0.83911978   -6.0471831    946.04773  0.032889992   0.03264988            9 
 2398000   0.86699053   -6.0068825    945.55672  0.032859213  0.032640949           10 
 2399000   0.84767593   -6.0443414    946.92042  0.032892887  0.032632071            6 
 2400000   0.87000464   -6.0465175    946.98479  0.032881416  0.032623134           11 
 2401000   0.85637986   -6.0534258     945.9897  0.032833184  0.032614223            5 
 2402000   0.86070886   -6.0161539    948.87357  0.032919566  0.032605329            5 
 2403000   0.85414183   -6.0360258    948.23038  0.032883561  0.032596468           11 
 2404000   0.86520678   -6.0370123    948.20304  0.032868935  0.032587581            7 
 2405000   0.87412307   -6.0258338    949.94363   0.03291558   0.03257868            3 
 2406000    0.8472292   -6.0432241    950.68892  0.032927713  0.032569813            4 
 2407000   0.87688528     -6.04858    948.50376   0.03283838  0.032560888            3 
 2408000   0.87559695   -6.0527631     948.9502  0.032840193  0.032551955            6 
 2409000   0.87974492   -6.0705438    946.77326  0.032751254  0.032543078            5 
 2410000    0.8602445   -6.0378743    948.84886  0.032809435  0.032534166            5 
 2411000   0.87664028   -6.0557264    948.09061  0.032769619  0.032525374            8 
 2412000   0.86951882   -6.0517644    948.11428  0.032756851  0.032516518           12 
 2413000   0.87794716   -6.0277722    947.70895  0.032729277  0.032507671            5 
 2414000   0.87739185    -6.042296    951.06448  0.032831555  0.032498786            6 
 2415000   0.85802046   -6.0150569    950.82775  0.032809791  0.032489931            5 
 2416000   0.85558113   -6.0527753    950.02739  0.032768605  0.032481079            6 
 2417000   0.88083506   -6.0623263     948.7639  0.032711485  0.032472188            5 
 2418000   0.87787595   -6.0370407    948.06215  0.032673771  0.032463404            5 
 2419000   0.86147126   -6.0268489    951.22777  0.032769318  0.032454547            6 
 2420000   0.86375126   -6.0198706    948.95978  0.032677678  0.032445584           19 
 2421000   0.85128081   -6.0916591    948.29997  0.032641469  0.032436607            6 
 2422000   0.87717567   -5.9934226    951.60658  0.032741762  0.032427707            7 
 2423000   0.86965466   -6.0607995     947.3994  0.032583553  0.032418859            3 
 2424000   0.88203076   -6.0384031     950.5636  0.032678892  0.032410006           13 
 2425000   0.85409984   -6.0349711    951.30177  0.032690783  0.032401185            3 
 2426000   0.87501812   -6.0614227    949.61191   0.03261926  0.032392427            4 
 2427000   0.87485939   -6.0195351    953.36279   0.03273461  0.032383615            5 
 2428000   0.86005924   -6.0462002    951.69135  0.032663761  0.032374788            4 
 2429000   0.86183044   -6.0491908    951.93094  0.032658534  0.032365971            5 
 2430000   0.86050829   -6.0557411    952.03468  0.032648652  0.032357183            7 
 2431000    0.8561637   -6.0308341     952.8727  0.032663948   0.03234838            4 
 2432000    0.8670345   -6.0704694    951.89721  0.032617092   0.03233958            4 
 2433000   0.86346149   -6.0668585    951.84374  0.032601854  0.032330757           10 
 2434000   0.84608427   -6.0698649     950.6325  0.032546991  0.032321931            4 
 2435000   0.87392931   -6.0753851    950.09875  0.032515357  0.032312999           16 
 2436000   0.85832724   -6.0529313    953.39054  0.032614619   0.03230411            6 
 2437000   0.84903544   -6.0846626    951.96497  0.032552488  0.032295316            5 
 2438000   0.87190876   -6.0533089    953.30201  0.032584838  0.032286588            5 
 2439000   0.85338103   -6.0840184    952.17444  0.032532952  0.032277926            5 
 2440000   0.85778935   -6.0517824    955.50431  0.032633344  0.032269195            4 
 2441000   0.86397206    -6.052507    955.09466   0.03260599  0.032260539            6 
 2442000    0.8648182   -6.0442861    955.27049  0.032598638   0.03225183            9 
 2443000   0.88157005   -6.0838262    954.32365  0.032552997  0.032243143            5 
 2444000   0.85291357   -6.0412542    951.77864    0.0324529  0.032234549            6 
 2445000   0.85767502   -6.0413282    957.23748  0.032625681   0.03222583            2 
 2446000   0.86577716    -6.058027     956.2121  0.032577409  0.032217125            8 
 2447000   0.86435751   -6.0560927     954.9294  0.032520413  0.032208453            4 
 2448000   0.89075936    -6.049553    955.81679  0.032537336  0.032199801            5 
 2449000   0.85586639   -6.0573632    953.85702  0.032457364  0.032191045            6 
 2450000   0.88311925   -6.0932774    956.59856  0.032537366  0.032182304           13 
 2451000   0.86008072   -6.0627981    955.05426  0.032471585  0.032173577            4 
 2452000   0.84729748   -6.0700872    955.97383  0.032489595   0.03216485            7 
 2453000   0.84696712   -6.0530022    958.09247  0.032548324  0.032156072           10 
 2454000   0.85802365   -6.0684613    955.82838  0.032458176  0.032147378           10 
 2455000   0.85692699   -6.0873913    956.73657  0.032475783  0.032138569            6 
 2456000   0.85556395   -6.0717951    954.83089  0.032397899  0.032129847            9 
 2457000   0.87161753   -6.0681431    956.61267  0.032445145  0.032121122           11 
 2458000   0.85403977   -6.0698192    954.41116  0.032357308  0.032112393            8 
 2459000   0.85703662    -6.074173    958.19388  0.032472342  0.032103732            6 
 2460000   0.84558288   -6.0376739    960.20395  0.032527234  0.032094981            7 
 2461000   0.84723854    -6.055977     960.0987  0.032510453  0.032086317           10 
 2462000   0.86189189   -6.0697988    955.31122  0.032335202  0.032077646            3 
 2463000   0.84300287   -6.0494375    960.44509  0.032495774  0.032068988            7 
 2464000   0.84585443   -6.0436195     956.2798  0.032341714   0.03206037            2 
 2465000   0.84406805   -6.0827379    956.14892  0.032324169  0.032051634            4 
 2466000    0.8564672   -6.0535432    955.89489  0.032302477  0.032042901            7 
 2467000   0.85641043   -6.0848986    955.00468  0.032259312  0.032034166            4 
 2468000   0.88130531   -6.0864982    956.38566  0.032292871  0.032025249           10 
 2469000   0.85587068    -6.093781    957.53766  0.032318674  0.032016503            6 
 2470000   0.84395261   -6.0906925    959.52915  0.032372778   0.03200766            7 
 2471000   0.84393851   -6.0995544    955.98784  0.032240248  0.031998813            6 
 2472000    0.8648105   -6.0394649    959.84073   0.03235709  0.031990116            7 
 2473000   0.85451762    -6.072369    960.08863   0.03235236  0.031981448           15 
 2474000   0.84293918    -6.083836    957.20323  0.032242092  0.031972783            5 
 2475000   0.87292587    -6.036338    960.39028  0.032336373  0.031964207            6 
 2476000    0.8613262   -6.0551124    961.55531  0.032362524  0.031955639            9 
 2477000    0.8549518    -6.103602    958.41831  0.032243921  0.031946889            7 
 2478000   0.83072047   -6.0506064    960.64198  0.032305689  0.031938158           10 
 2479000   0.85801819   -6.0797647     961.1276  0.032308982  0.031929543            6 
 2480000   0.84940248   -6.0794233    962.48963  0.032341721  0.031920937            3 
 2481000    0.8424841   -6.0776919    960.53708  0.032263102  0.031912346            5 
 2482000   0.83253571   -6.0658464     960.9125  0.032262708  0.031903702            4 
 2483000   0.83504195   -6.0578419    960.62919  0.032240206  0.031895101            9 
 2484000   0.83094275   -6.0942733    962.21758  0.032280514  0.031886546            7 
 2485000   0.85760127   -6.0955444    962.56579  0.032279201  0.031877992            7 
 2486000   0.86590319   -6.0716485    963.55363  0.032299331    0.0318694           19 
 2487000   0.85253148   -6.0255059     963.9318  0.032299015  0.031860902            8 
 2488000   0.86334899   -6.0531547    964.29223  0.032298105  0.031852495           11 
 2489000   0.86107647   -6.0606348    963.60192  0.032262017  0.031844041            4 
 2490000   0.84627943   -6.0772246    963.26797  0.032237884  0.031835471            4 
 2491000   0.84751055   -6.0755429    964.00654   0.03224965  0.031826882            5 
 2492000   0.84860729   -6.0712714    964.19304  0.032242945  0.031818314            3 
 2493000   0.85011621   -6.0621248    962.54798  0.032175023  0.031809724            3 
 2494000   0.83361108    -6.072511    964.98558   0.03224357  0.031801131            4 
 2495000   0.86980216   -6.0802018    964.92746  0.032228706  0.031792698           13 
 2496000   0.85010376   -6.0916543    963.36514  0.032163633  0.031784184            5 
 2497000   0.85789387   -6.0539667    965.65268  0.032227095   0.03177563           15 
 2498000   0.86028187    -6.102708    962.42724  0.032106593  0.031767094            4 
 2499000   0.83850064   -6.0894595    965.90092  0.032209581  0.031758617            6 
 2500000   0.83888388    -6.075074    964.75916  0.032158639  0.031750134            5 
 2501000   0.86931603   -6.0717162    966.63938  0.032208429  0.031741664            3 
 2502000   0.84924008     -6.07912    966.49433  0.032190725  0.031733126            7 
 2503000   0.85229426   -6.0570216    966.89701  0.032191271  0.031724739            4 
 2504000   0.84741837   -6.0519253    967.14707  0.032186737  0.031716384            6 
 2505000   0.84312715   -6.0811318    967.75305  0.032194047  0.031707894            4 
 2506000   0.84488823   -6.1152989     963.9202  0.032053744  0.031699417           10 
 2507000   0.85967561   -6.0797314    967.44429    0.0321581  0.031690954            7 
 2508000   0.85035144   -6.0332716    969.75727  0.032222131  0.031682561            6 
 2509000   0.85007166    -6.081126    967.12865  0.032121982  0.031674199            4 
 2510000   0.88361503   -6.0755772    967.15772   0.03211015  0.031665737            5 
 2511000   0.84972963   -6.0688338    966.10627  0.032062467  0.031657392            8 
 2512000   0.85105791   -6.0964952    967.30143  0.032089352  0.031648893            5 
 2513000   0.86147221   -6.0784945    965.06124  0.032002296  0.031640471            5 
 2514000   0.84188412   -6.0743842    969.29762  0.032129993  0.031632074            4 
 2515000   0.86103071   -6.0988869    966.28217  0.032017302  0.031623624            4 
 2516000   0.85481112   -6.0946785     965.9648  0.031994065  0.031615121            4 
 2517000   0.84722995   -6.1058408    966.80482  0.032009165  0.031606608           11 
 2518000   0.85384603   -6.1219117    965.02009  0.031937387  0.031598015            8 
 2519000   0.83180248   -6.0927445    964.89761  0.031920657  0.031589394            5 
 2520000   0.86349395   -6.0713064    969.18729  0.032049844  0.031580918            8 
 2521000   0.84012642   -6.0894485    967.16379  0.031970243  0.031572387           15 
 2522000   0.84553083   -6.0720467    968.45188  0.032000128   0.03156385            4 
 2523000   0.83442064   -6.0814451    967.10645  0.031943006  0.031555327            4 
 2524000   0.82960127    -6.080164    967.39405  0.031939846  0.031546769            6 
 2525000   0.84939465   -6.0998005    966.30179  0.031891148  0.031538289            6 
 2526000    0.8627467   -6.0781219     967.4259  0.031915608  0.031529785            5 
 2527000   0.84267339   -6.0694388    968.23442  0.031929641  0.031521254           10 
 2528000   0.84050406   -6.0843654    968.65383  0.031930836  0.031512656            4 
 2529000   0.84207686   -6.1215582    965.39723  0.031810901  0.031504086           15 
 2530000   0.86485356   -6.1014189    967.15892  0.031856355  0.031495579            6 
 2531000   0.84666147    -6.119621    967.30526  0.031848586  0.031487089            6 
 2532000    0.8454205   -6.0823525      968.743  0.031883327  0.031478589            5 
 2533000   0.84593224   -6.0544144      971.212  0.031951968  0.031470099            5 
 2534000    0.8405019   -6.1137007    968.92917  0.031864285  0.031461604            4 
 2535000   0.85725375   -6.0911559    965.61066  0.031742625  0.031453062            4 
 2536000   0.84869194   -6.1226581     966.8077  0.031769443  0.031444547           10 
 2537000    0.8458015   -6.0973674    969.22724  0.031836396  0.031436049            5 
 2538000   0.86113097    -6.127336    968.02763  0.031784464  0.031427564            6 
 2539000   0.82669002   -6.1006222    968.63915  0.031792016  0.031419095            5 
 2540000   0.84780413   -6.0727419    970.59151  0.031843553  0.031410648            6 
 2541000   0.82341454   -6.1056253     970.0309  0.031812636  0.031402162            6 
 2542000   0.82253646   -6.0819947     969.9272  0.031796722  0.031393608            6 
 2543000   0.82510702    -6.083081    970.85569  0.031814645   0.03138504            4 
 2544000   0.83394302   -6.0839152    969.40843  0.031754731  0.031376536            9 
 2545000    0.8488405   -6.0966147    970.13409  0.031766015  0.031367986            5 
 2546000   0.84104156   -6.0936677    966.70093  0.031641167  0.031359433            5 
 2547000   0.83068364   -6.0884305    971.07651  0.031771905  0.031350925            5 
 2548000   0.85536011   -6.0807821    970.72537  0.031747952  0.031342372            8 
 2549000   0.84631559   -6.0741153    969.98783  0.031711384  0.031333791            6 
 2550000   0.83008129   -6.1026285    968.38533  0.031646579  0.031325258            7 
 2551000    0.8384532   -6.0942065    971.85007  0.031747356  0.031316754           11 
 2552000   0.83684165   -6.1058439     969.0468  0.031643378  0.031308199            5 
 2553000   0.84482575   -6.0874113    969.05067   0.03163111  0.031299653            5 
 2554000    0.8612835   -6.0940953    968.42128  0.031598188  0.031291009            8 
 2555000   0.83187115   -6.1223983    970.44036  0.031651675  0.031282441            4 
 2556000    0.8509786   -6.1024114    969.35718  0.031603977  0.031273804            9 
 2557000   0.85634579   -6.1047215     969.4414  0.031594362  0.031265188            8 
 2558000   0.87040077   -6.1013192     967.2742  0.031511409  0.031256576            5 
 2559000   0.83426144   -6.0774409    972.06541  0.031655119  0.031248035            6 
 2560000   0.82540874   -6.1035205     973.1461  0.031677933  0.031239578            9 
 2561000   0.84777525   -6.0824612    973.11844  0.031664664  0.031231016            5 
 2562000   0.84061978   -6.0842688    973.23677  0.031656153  0.031222455           15 
 2563000    0.8466727   -6.1128344    973.69732  0.031658776  0.031213934            5 
 2564000   0.84487478   -6.0963124    973.59917  0.031643239  0.031205449            4 
 2565000    0.8459271   -6.1073127    971.24148  0.031554304  0.031196965           15 
 2566000   0.83676172   -6.1218288    971.45467   0.03154893  0.031188441            9 
 2567000   0.83671613    -6.067285     973.2709  0.031595601  0.031179838           11 
 2568000   0.84200966    -6.121166    971.46782  0.031524786  0.031171309            7 
 2569000   0.85142214   -6.1145894    973.10535  0.031565634  0.031162712            7 
 2570000   0.83636049   -6.1025402    972.93389  0.031547791  0.031154104            7 
 2571000   0.86003994   -6.1087293    969.65249  0.031429162   0.03114551           11 
 2572000   0.84101303   -6.1244778    970.49636  0.031444283  0.031136874            8 
 2573000    0.8393213   -6.1123934    970.42813  0.031429853  0.031128266            4 
 2574000   0.82719539   -6.1285897     971.4734  0.031451483  0.031119664           19 
 2575000   0.84314985   -6.1115653    971.93655  0.031454257  0.031110999            7 
 2576000   0.81831464    -6.106417    975.78295  0.031566477   0.03110241            8 
 2577000   0.85307807   -6.0781299    975.86492  0.031556879  0.031093816            6 
 2578000   0.82493295    -6.086358    976.32622  0.031559549  0.031085287           11 
 2579000   0.85514008   -6.1131825    974.03789  0.031473371  0.031076702            7 
 2580000    0.8416011   -6.1018054    972.80198  0.031421253  0.031068052            5 
 2581000    0.8423365   -6.1203976    971.27033  0.031359626  0.031059426            5 
 2582000   0.83938481   -6.0821082    972.02423  0.031371812  0.031050876           20 
 2583000   0.84898636   -6.0939618    972.91135  0.031388287  0.031042396            4 
 2584000   0.84611544   -6.0848676    973.73886  0.031402827  0.031033864            6 
 2585000   0.84333097   -6.1063041    973.12881  0.031371013  0.031025261            5 
 2586000   0.83649983   -6.0957829    975.76905  0.031443963   0.03101668            7 
 2587000   0.83568509   -6.0940963    975.56748  0.031425315  0.031008091            6 
 2588000   0.84660267   -6.0987237    975.00256  0.031394982  0.030999548           11 
 2589000   0.84896727   -6.1098837    974.86157  0.031378317  0.030990992            5 
 2590000   0.84142392   -6.1024134    974.11869    0.0313423  0.030982432            8 
 2591000   0.84909682   -6.1126804    976.31251  0.031400763  0.030973957            3 
 2592000   0.83402027    -6.119092     973.4608  0.031296965  0.030965463            7 
 2593000    0.8274466   -6.1213678    971.36437   0.03121752  0.030956891            7 
 2594000   0.85896605   -6.1190189    974.88488  0.031318584  0.030948347           12 
 2595000    0.8327694   -6.1045219    975.04865  0.031311774  0.030939794           12 
 2596000    0.8537353   -6.0961948    976.85817  0.031357799  0.030931252            3 
 2597000   0.84230022   -6.1119253    975.15162  0.031290965  0.030922704            4 
 2598000   0.82496158   -6.0960064     976.4786  0.031321484  0.030914194           10 
 2599000   0.83309747   -6.1299279    977.68055  0.031347972  0.030905714            8 
 2600000   0.85698056   -6.1148175    977.30524  0.031323886  0.030897246            6 
 2601000   0.82350869   -6.1146781     976.9257  0.031299683  0.030888758            3 
 2602000   0.83227704   -6.1096029    977.68101  0.031311844  0.030880263           14 
 2603000    0.8223224   -6.1664677    974.82208  0.031208288  0.030871722            9 
 2604000   0.82782301   -6.0840678    979.93556  0.031359945   0.03086318           14 
 2605000   0.83160121   -6.1005497    978.36445  0.031297647  0.030854732            5 
 2606000   0.84832234   -6.1140081    978.50666  0.031290185   0.03084628            5 
 2607000   0.83752208   -6.1049225    977.30255  0.031239693  0.030837834            4 
 2608000   0.83934322   -6.1229183    977.39776  0.031230757  0.030829415           12 
 2609000   0.83449432   -6.0819488    980.93925  0.031331904  0.030820962           10 
 2610000   0.84702044   -6.1296139    977.91099  0.031223212  0.030812532            8 
 2611000   0.84132032   -6.0955902    977.17529  0.031187773  0.030804058           10 
 2612000   0.82635568    -6.123162    980.81492  0.031291951  0.030795679            9 
 2613000    0.8396976   -6.1241271    978.82553   0.03121653  0.030787263            6 
 2614000   0.82272228   -6.1063199    980.93762  0.031271921  0.030778871           14 
 2615000   0.82184912   -6.1216273    978.83747  0.031193036  0.030770471            3 
 2616000   0.85055462    -6.137884    978.24022  0.031162087  0.030762041            7 
 2617000   0.85725258   -6.1247842    980.34706  0.031217267  0.030753578           10 
 2618000   0.84060301   -6.1197454    980.13524  0.031198601  0.030745166            8 
 2619000   0.80834201   -6.1499168    976.11806  0.031058867   0.03073669            5 
 2620000   0.82789763   -6.1289643    981.11142  0.031205834  0.030728298           10 
 2621000   0.82993602   -6.1253737    981.96066  0.031220929  0.030719962            6 
 2622000   0.84345758   -6.1436772     977.9158  0.031080467  0.030711574           11 
 2623000   0.82151203   -6.1140651    979.45084  0.031117386  0.030703274            9 
 2624000    0.8340015   -6.1458285    978.20755  0.031066043  0.030694949            8 
 2625000   0.83551827   -6.1325798    979.21755  0.031086272   0.03068666            2 
 2626000   0.81162138   -6.1415029    980.59206  0.031118052  0.030678317            5 
 2627000    0.8374956   -6.1483718    980.55183  0.031104931  0.030670028           10 
 2628000   0.83680424   -6.1100322    983.62497  0.031190543  0.030661714            8 
 2629000   0.84341299   -6.1029004    986.08525  0.031256665  0.030653466           10 
 2630000   0.84307081   -6.1317121    982.39371  0.031127811   0.03064526           13 
 2631000   0.82187952   -6.1138011    984.53505  0.031183804  0.030637094            7 
 2632000   0.81873394    -6.128257     984.2715  0.031163611  0.030628933            4 
 2633000   0.81607443   -6.1113952    985.19011  0.031180849  0.030620718            6 
 2634000   0.82895053   -6.1365418    981.53061  0.031053234  0.030612475           10 
 2635000   0.82686226   -6.1086118    984.19934  0.031125849  0.030604209            6 
 2636000    0.8368431   -6.1154006    984.39769  0.031120311   0.03059596           13 
 2637000   0.83031633   -6.1305204    985.99654  0.031159036  0.030587685            5 
 2638000   0.82042656   -6.1265043    985.57816  0.031134008  0.030579493            8 
 2639000   0.83602503   -6.1185796    985.22378   0.03111102  0.030571222            8 
 2640000   0.83599952   -6.1454693     983.1081  0.031032453  0.030562933            6 
 2641000   0.82519983   -6.1474096    981.52336  0.030970698  0.030554563            5 
 2642000   0.82454875   -6.1404803    983.92918  0.031034859  0.030546265            4 
 2643000   0.82809976   -6.1068384    986.68128   0.03110989  0.030538104            5 
 2644000   0.83293285   -6.1128075    987.63731  0.031128256  0.030529901            6 
 2645000   0.83546721   -6.1417175    983.94908  0.031000286  0.030521673            9 
 2646000   0.83869266   -6.1228676    985.14151  0.031026125  0.030513367            3 
 2647000   0.85203311   -6.1405454    984.10455  0.030981758  0.030505129            6 
 2648000   0.82890423    -6.159046    986.58434  0.031048097  0.030496886           12 
 2649000   0.83215956   -6.1201379    986.78281   0.03104262  0.030488683           10 
 2650000   0.82088074   -6.1553564     984.4929  0.030958896  0.030480473            6 
 2651000   0.82196208    -6.141757    982.93224  0.030898159  0.030472281            9 
 2652000   0.82618481    -6.105695    987.67907  0.031035667  0.030464072            3 
 2653000   0.83600085    -6.157307    985.26694  0.030948202  0.030455897            4 
 2654000   0.82437297   -6.1307738    984.86959  0.030924064  0.030447661            6 
 2655000    0.8248095   -6.1454724    985.56258  0.030934167  0.030439397            5 
 2656000   0.82084492   -6.1111323    985.93593  0.030934235   0.03043111            6 
 2657000   0.84508767   -6.1123344    985.82827  0.030919216  0.030422846            5 
 2658000   0.82212682    -6.131211    984.58547  0.030868619   0.03041452            7 
 2659000   0.82807269   -6.1370795    985.71336  0.030892358  0.030406201            8 
 2660000   0.81543471   -6.1637568    982.75072   0.03078793  0.030397886            6 
 2661000   0.83815061   -6.1545123    984.46577  0.030830069  0.030389563            8 
 2662000   0.80648523   -6.1176668    988.74629  0.030952488  0.030381251            5 
 2663000   0.81298466   -6.1325531    986.71301  0.030877238  0.030372967            8 
 2664000   0.82903478   -6.1075769    987.06698   0.03087672  0.030364799           10 
 2665000   0.82311626   -6.1293863     987.3803  0.030874931   0.03035658            5 
 2666000   0.82281644    -6.170859    985.72541  0.030811622  0.030348372            5 
 2667000   0.81607047   -6.1221003    986.36927  0.030820187  0.030340158            6 
 2668000   0.82074208   -6.1486019    987.69266  0.030849971  0.030331959            6 
 2669000   0.82936665   -6.1487838    991.09437  0.030944623  0.030323675            7 
 2670000   0.82687686   -6.1650968    984.11619  0.030715237  0.030315393            9 
 2671000   0.81817435   -6.1745015    989.33969  0.030866707   0.03030717            6 
 2672000   0.83229072   -6.1598604     985.8208  0.030745409  0.030298892            5 
 2673000   0.82627182   -6.1424696    986.91212   0.03076793  0.030290611            5 
 2674000   0.81389876   -6.1497297    986.81422  0.030753373  0.030282386            3 
 2675000   0.83426201   -6.1576276    986.74549  0.030739735  0.030274135            7 
 2676000    0.8326488   -6.1319272    988.55271  0.030784526  0.030265843            6 
 2677000   0.84683665   -6.1578368    986.16702  0.030698762  0.030257586           16 
 2678000   0.84164771   -6.2001199    985.66607   0.03067171  0.030249302           11 
 2679000   0.81381053     -6.15823    987.92411    0.0307305  0.030240986            5 
 2680000    0.8331159   -6.1495135    987.39195  0.030702486  0.030232682            4 
 2681000   0.80460563   -6.1398981    990.72853  0.030794745   0.03022447            7 
 2682000   0.81167219   -6.1259912    991.83885  0.030817762  0.030216214            7 
 2683000   0.82869415   -6.1495346    990.10487  0.030752419  0.030207973            6 
 2684000   0.81767638   -6.1226837    986.58699  0.030631737  0.030199726            4 
 2685000   0.80239601   -6.1496249    986.80621  0.030627132  0.030191395            7 
 2686000   0.81819178   -6.1441091    987.99671  0.030652665  0.030183146            7 
 2687000   0.82397705   -6.1251626    988.73548  0.030664169  0.030174862            6 
 2688000   0.81912601    -6.122668    988.71437  0.030652107  0.030166557           11 
 2689000   0.82678451   -6.1610322    990.38494   0.03069248  0.030158243            6 
 2690000   0.83682113   -6.1105301    990.76528  0.030692853  0.030149983           10 
 2691000   0.81432324   -6.1452143    987.97244   0.03059496  0.030141771            8 
 2692000   0.81080264   -6.1591288    986.36659  0.030533884  0.030133454           11 
 2693000   0.80809905   -6.1851002    985.98467  0.030510727  0.030125082           15 
 2694000   0.80351062   -6.1602932    985.56297  0.030486358  0.030116772           14 
 2695000   0.80910494   -6.1251807    990.28138  0.030620946  0.030108479            5 
 2696000   0.83614107   -6.1457058    988.07163  0.030541284  0.030100153            4 
 2697000    0.8230524   -6.1328457    990.39269  0.030601677  0.030091837            7 
 2698000   0.82820428   -6.1161287    991.37978  0.030620824  0.030083613            9 
 2699000   0.81648926    -6.127061    988.35462  0.030516074  0.030075369           13 
 2700000   0.80625266   -6.1268647    990.76413   0.03057914  0.030067081            5 
 2701000   0.81342879    -6.176085    990.67908  0.030565194  0.030058853            9 
 2702000   0.81121053   -6.1538371     991.2589  0.030571765  0.030050608            8 
 2703000   0.81833242     -6.17295    990.82939  0.030547213  0.030042437            4 
 2704000   0.80624292   -6.1479776    989.47908  0.030494301  0.030034223            5 
 2705000   0.81703494   -6.1684903    989.79039  0.030492618  0.030025999           11 
 2706000    0.8179559   -6.1377363    991.01398  0.030519031  0.030017774            6 
 2707000   0.82192428   -6.1502839    991.36709  0.030518627  0.030009633            5 
 2708000   0.80918044   -6.1385294    991.86265  0.030522607  0.030001509            6 
 2709000   0.80029844    -6.130108    991.48388  0.030499689  0.029993294           11 
 2710000   0.79881072   -6.1535402    994.23662  0.030573082  0.029985132            7 
 2711000   0.81360563   -6.1669133    993.72489  0.030546074  0.029976949            7 
 2712000   0.82796119   -6.1518954    993.29501  0.030521602  0.029968831            6 
 2713000   0.80117626   -6.1325322    992.84705  0.030496592  0.029960658            4 
 2714000   0.82923957     -6.16574    994.02397  0.030521493  0.029952497            6 
 2715000   0.81983908   -6.1400244    996.34844  0.030581597   0.02994437            4 
 2716000    0.8195082   -6.1802839    992.04723  0.030438366  0.029936202            8 
 2717000   0.82473756   -6.1231398    996.66921  0.030568924   0.02992805            8 
 2718000   0.81500054    -6.169748    992.02215    0.0304152  0.029919934           10 
 2719000   0.81857845    -6.158678    993.39182  0.030445992  0.029911797            6 
 2720000    0.8100919    -6.170798    994.31152  0.030462976  0.029903639            7 
 2721000   0.81742142   -6.1713604    994.55749  0.030459313   0.02989549            8 
 2722000   0.80119307   -6.2117528    991.19084  0.030345054  0.029887341            7 
 2723000   0.80380534   -6.1758834    992.83883  0.030384344  0.029879162            7 
 2724000   0.82988134   -6.1525173    995.20232  0.030445494  0.029871044            5 
 2725000   0.80005423   -6.1751662    993.02475  0.030367729  0.029863004            8 
 2726000   0.84355659   -6.1772151    995.01966  0.030417573  0.029854958            7 
 2727000   0.81628454   -6.1590903    995.80673  0.030430471  0.029846838            9 
 2728000   0.80567111   -6.1600738    994.33278  0.030374291  0.029838662            3 
 2729000   0.81991723   -6.1743892    994.36427  0.030364122  0.029830515            3 
 2730000   0.83420332   -6.1699886    993.37543  0.030322815  0.029822465            5 
 2731000   0.80725178   -6.1801692    992.38567  0.030281511  0.029814365            7 
 2732000   0.81953206   -6.1805881    994.66377  0.030339915  0.029806215           10 
 2733000   0.81611169   -6.1816377     995.8461  0.030364864   0.02979805            7 
 2734000   0.83297719   -6.1558818    998.29339  0.030428353  0.029789958            4 
 2735000   0.80827946   -6.1995578    992.45277  0.030239268   0.02978185            5 
 2736000   0.82095956   -6.1829946    998.46001  0.030411185  0.029773722            5 
 2737000   0.84466951   -6.1672374    998.81288  0.030410817  0.029765666            8 
 2738000   0.82945641   -6.1466618    994.99974  0.030283654  0.029757657           18 
 2739000   0.82158629   -6.1479759    997.69934  0.030354732  0.029749592            7 
 2740000    0.7972973   -6.1513585    996.22299  0.030298753  0.029741517           10 
 2741000   0.80809684   -6.1726876    997.90353  0.030338792  0.029733443           10 
 2742000   0.82293181   -6.1880228    998.05594  0.030332359  0.029725366           12 
 2743000    0.8084623   -6.1579994    997.69402  0.030310306  0.029717273           21 
 2744000   0.82436848   -6.1784746    994.80838  0.030211625  0.029709196            8 
 2745000   0.81362265   -6.2339611    992.72471  0.030137362  0.029701062            4 
 2746000   0.79022793   -6.1857381    998.15295  0.030291119  0.029692948           10 
 2747000    0.8167697    -6.165797    1000.1235   0.03033987  0.029684948           10 
 2748000   0.81629859   -6.1504164    999.75759  0.030317734  0.029676943            9 
 2749000   0.81998149    -6.160831    999.58335  0.030301423   0.02966896            3 
 2750000   0.81491141   -6.2007952    997.22321  0.030218885  0.029660881            3 
 2751000    0.8031527   -6.1927533    996.13224  0.030174853  0.029652794           14 
 2752000    0.8371691   -6.1716397    996.03006  0.030160794   0.02964471           10 
 2753000   0.81422158   -6.1638617    999.22366  0.030246509   0.02963666            7 
 2754000   0.79985334   -6.1687424    1000.9779  0.030288607  0.029628643            5 
 2755000   0.79924671   -6.1996946    998.41485  0.030200086  0.029620551            8 
 2756000   0.82008742   -6.1921203      996.865  0.030142265  0.029612442           13 
 2757000   0.80989818   -6.1836543     996.7041  0.030126469  0.029604349            7 
 2758000   0.80587772    -6.201327    996.55367     0.030111  0.029596257           11 
 2759000   0.80660344   -6.1735392    999.73898  0.030196296   0.02958811            7 
 2760000   0.82674868   -6.1758647    999.42385  0.030175841  0.029580031            3 
 2761000   0.82252791   -6.1690191    998.18794  0.030127609  0.029572051            5 
 2762000    0.7959938   -6.1706072    1001.4066  0.030213811  0.029564059            8 
 2763000   0.80971237   -6.1760309    1000.5616  0.030177393  0.029556039           11 
 2764000   0.79526861   -6.1987377    997.33623   0.03006923  0.029548049           12 
 2765000   0.81447029   -6.1730105    996.99238  0.030047992  0.029540065           10 
 2766000   0.81234534   -6.1693445    998.75959  0.030090371  0.029532171           14 
 2767000   0.80527737   -6.1749878    1002.4505  0.030190654  0.029524265           11 
 2768000   0.80533671   -6.1631295    1001.3875  0.030147746  0.029516331            5 
 2769000   0.82498331    -6.199013    1001.4787  0.030139603  0.029508357            9 
 2770000   0.82109792   -6.1903582    1001.0866  0.030116924  0.029500291            7 
 2771000   0.80412599   -6.1706925    999.51211  0.030058706  0.029492304            6 
 2772000   0.78179678   -6.1785848    1003.3122  0.030162102  0.029484337            7 
 2773000   0.81427425   -6.1881992    998.37889  0.030002972  0.029476262           13 
 2774000   0.81472257   -6.1670948    999.03875  0.030011979  0.029468296           12 
 2775000   0.82441836   -6.1688923    1002.4733  0.030104303  0.029460327            6 
 2776000   0.80379207   -6.1635514    1000.3003  0.030028226  0.029452317           12 
 2777000   0.79731628   -6.1811102     1001.364  0.030049334  0.029444349           12 
 2778000   0.83132625   -6.1803659    1004.0273   0.03011841  0.029436385           10 
 2779000   0.81598592   -6.1703995    1000.9649   0.03001574  0.029428395           17 
 2780000   0.80143649   -6.2198545    999.67131  0.029966166  0.029420398            5 
 2781000   0.80387775   -6.1740306    1005.0088   0.03011533  0.029412481            8 
 2782000   0.79900457   -6.2159894    1001.3419  0.029994667  0.029404592            7 
 2783000   0.79753411   -6.1765725    1000.9344  0.029971687  0.029396638            7 
 2784000     0.790089   -6.1756198    1002.1275  0.029996633  0.029388715            5 
 2785000    0.8082205   -6.2047599    1002.0784  0.029984391  0.029380765           11 
 2786000   0.82516167   -6.2084955    1001.0355  0.029942434  0.029372765           10 
 2787000    0.7877763   -6.1677193    1003.5075  0.030005606   0.02936473            7 
 2788000   0.82346757   -6.2087833    1000.2187  0.029896541   0.02935672            6 
 2789000   0.79485299   -6.2084464    1001.2307   0.02991606  0.029348689            5 
 2790000   0.80809713    -6.194328     1001.923  0.029926016  0.029340693            9 
 2791000   0.79782126    -6.201783    1000.6189  0.029876357  0.029332649            8 
 2792000   0.82975654   -6.1901351    1001.1733  0.029882203  0.029324584            5 
 2793000    0.8033061   -6.1898977    1003.7293  0.029947766  0.029316583            6 
 2794000   0.80449903   -6.1943283     1002.973  0.029914491  0.029308547            5 
 2795000    0.8153809   -6.2272256     1001.051  0.029846482  0.029300492            7 
 2796000   0.81801142   -6.1845673    1005.0164  0.029953994  0.029292452           13 
 2797000   0.80481088   -6.2001671    1005.0583  0.029944533  0.029284485           10 
 2798000   0.80905097   -6.2139115    1003.2355  0.029879543  0.029276527            5 
 2799000   0.82601877   -6.1961165    1002.9149  0.029859323  0.029268589            5 
 2800000   0.80218063   -6.1876071    1004.0077  0.029881182  0.029260561           15 
 2801000   0.81271856    -6.185611    1003.8856  0.029866882  0.029252582            4 
 2802000    0.8081169    -6.190183    1002.2586  0.029807833  0.029244567           10 
 2803000   0.79331625     -6.17239     1005.149  0.029883132  0.029236526           15 
 2804000   0.78751141   -6.2200399    1003.4141  0.029820912  0.029228492           16 
 2805000   0.80545966    -6.189972    1003.5845  0.029815345  0.029220531            6 
 2806000   0.80211553   -6.1833718    1005.6761  0.029866835  0.029212566            7 
 2807000   0.80158237    -6.175311    1004.4485  0.029819752  0.029204602           14 
 2808000   0.79584904   -6.1812856    1004.4975  0.029810587  0.029196669            5 
 2809000   0.80361593   -6.1810687    1004.6693   0.02980507  0.029188771           14 
 2810000   0.79348544   -6.2014305    1000.9114   0.02968302  0.029180781           10 
 2811000   0.80388046   -6.2094827    1004.8449   0.02978907  0.029172778            9 
 2812000    0.7982148   -6.2151815    1005.0405  0.029784274   0.02916478            7 
 2813000    0.8086176    -6.211663    1004.5472  0.029759072   0.02915674           12 
 2814000   0.79614501   -6.1953696    1004.9896  0.029761597  0.029148777           12 
 2815000   0.80013091   -6.2180675    1001.2456   0.02964019  0.029140805            6 
 2816000   0.80136884   -6.1931974    1008.1443  0.029833815  0.029132774            9 
 2817000   0.80361093   -6.1963244    1005.8361  0.029754942  0.029124758           12 
 2818000   0.79958322   -6.2109059    1003.2493  0.029667889  0.029116761            6 
 2819000   0.79126158   -6.2013398    1004.4724   0.02969352  0.029108788            5 
 2820000   0.79259212   -6.1884963    1007.6383  0.029776546  0.029100858           13 
 2821000   0.79845805   -6.1983298    1004.5166  0.029673773  0.029092832            9 
 2822000   0.79013834   -6.2170573    1005.5637  0.029694179  0.029084804            6 
 2823000   0.80508181    -6.181664    1005.6909  0.029687417  0.029076858           15 
 2824000   0.79534965   -6.1763774    1006.7507  0.029708176  0.029068926            7 
 2825000   0.79429123   -6.2096113    1005.1335  0.029649956  0.029060974            5 
 2826000   0.79190674   -6.2092305    1005.0009  0.029635554  0.029052989            5 
 2827000   0.79085142   -6.2428634    1003.4001  0.029577881  0.029044911           15 
 2828000    0.7764481   -6.2215656    1005.1897  0.029620159  0.029036819           16 
 2829000    0.8011781   -6.2004816    1006.6425  0.029652482  0.029028776            5 
 2830000   0.79544334   -6.2175329    1006.1322  0.029626978  0.029020828            9 
 2831000   0.80000511   -6.2213558    1006.8072  0.029636382  0.029012808            7 
 2832000    0.8006588    -6.179052    1009.1357  0.029694435  0.029004853           10 
 2833000   0.81155506   -6.2084961    1007.5262  0.029636609  0.028996876            5 
 2834000   0.78779492   -6.2244583    1004.2124  0.029528711  0.028988882            5 
 2835000   0.79164827   -6.2001294    1010.9682   0.02971688  0.028980926           10 
 2836000   0.80838975   -6.2104244    1007.6476  0.029608828  0.028972951            9 
 2837000   0.79394263    -6.233733    1006.6917  0.029570311  0.028964964            9 
 2838000   0.79062447   -6.2496221    1005.2703  0.029518155  0.028956943           11 
 2839000   0.80518122   -6.2124785    1005.0133  0.029500214  0.028948938            5 
 2840000   0.77906814    -6.184351    1007.1491  0.029552498   0.02894097           10 
 2841000   0.78221925   -6.2026808    1006.5123  0.029523416   0.02893302            6 
 2842000   0.78801161   -6.2039841    1004.7079  0.029460118  0.028925134            7 
 2843000   0.79325225   -6.2233617    1004.1798  0.029434276  0.028917149            7 
 2844000   0.79843832   -6.2103285    1006.8554  0.029502325  0.028909211            3 
 2845000   0.79206394   -6.1854918    1007.8903  0.029522269  0.028901268           13 
 2846000   0.80431479   -6.1990007    1007.6752  0.029505598  0.028893423            7 
 2847000   0.79471656   -6.2024193    1007.4402  0.029488356  0.028885547            5 
 2848000   0.78969791   -6.2139488    1009.9492  0.029551417  0.028877714            7 
 2849000   0.79128491   -6.2355385    1006.1382  0.029429573  0.028869758           10 
 2850000   0.78139171    -6.198893    1009.0737  0.029505079  0.028861804            6 
 2851000   0.80315934    -6.178833    1009.8539  0.029517534  0.028853878            7 
 2852000   0.77950138   -6.2132426    1010.7504  0.029533381  0.028845946           11 
 2853000   0.78942276   -6.2305879    1007.3715  0.029424335  0.028838016            5 
 2854000   0.80968143   -6.2037366    1010.3732   0.02950167  0.028830093           11 
 2855000   0.79647368   -6.2397129    1007.9198  0.029419725  0.028822252            3 
 2856000   0.79022049   -6.2089758    1008.6972  0.029432109  0.028814468            3 
 2857000   0.80705549   -6.2014553    1010.8054  0.029483299  0.028806648            5 
 2858000   0.78909306   -6.2243087    1008.6891  0.029411276  0.028798835            7 
 2859000   0.79447479   -6.2015952    1013.0852  0.029529125  0.028791038            8 
 2860000   0.78947493   -6.1885683    1009.6766  0.029419481   0.02878325            6 
 2861000   0.78637851   -6.2000436    1013.3442  0.029516026   0.02877548            7 
 2862000   0.78376772   -6.1884078    1011.6186  0.029455469  0.028767673            9 
 2863000   0.79081106   -6.2437917    1007.9127  0.029337312  0.028759797            7 
 2864000   0.80659193   -6.2140084    1011.1632  0.029421649  0.028751847           12 
 2865000   0.80935353   -6.2126627    1010.3608  0.029388041  0.028743956            5 
 2866000   0.79666934   -6.2390813    1011.4901  0.029410623  0.028736117            6 
 2867000   0.80621095    -6.184798    1011.5444   0.02940194  0.028728295            4 
 2868000   0.79671204   -6.2625135    1008.8999  0.029314851  0.028720484            9 
 2869000   0.79546937   -6.2412358    1008.6122  0.029296278  0.028712583            3 
 2870000   0.79171025   -6.2330471    1010.7183  0.029347222  0.028704701            7 
 2871000   0.77219573   -6.2601784    1009.9772  0.029315487  0.028696782           17 
 2872000   0.78598278   -6.2002664    1013.5898  0.029410103  0.028688885           10 
 2873000    0.7774693   -6.2402771    1009.4274  0.029279134   0.02868105            9 
 2874000   0.77851513   -6.2149619    1010.9996  0.029314532  0.028673232            5 
 2875000   0.79441946   -6.2143889    1009.1282  0.029250092  0.028665313            6 
 2876000   0.78605748   -6.2188273    1011.3457  0.029304174  0.028657381           14 
 2877000    0.7814459   -6.2371431    1011.4189   0.02929611  0.028649498           20 
 2878000    0.7870407   -6.1924987    1010.6951  0.029264972  0.028641613            7 
 2879000   0.78943661   -6.2234088    1012.1425  0.029296704  0.028633752           11 
 2880000   0.78022499   -6.2314788    1011.0626  0.029255283  0.028625874            4 
 2881000   0.78120995   -6.2588023    1009.1272  0.029189149  0.028617962            6 
 2882000   0.77031645   -6.2109435    1009.5725  0.029191894  0.028610062            5 
 2883000   0.78985325   -6.2085573    1011.1582  0.029227603  0.028602168            5 
 2884000   0.79200967   -6.2645102    1008.7554   0.02914804  0.028594226           11 
 2885000   0.79211011   -6.2386478    1011.6955  0.029222862  0.028586242            8 
 2886000   0.76976753   -6.2303368    1010.8093  0.029187148   0.02857829            9 
 2887000   0.78292491   -6.2160577    1010.8313  0.029177672  0.028570397            3 
 2888000   0.80903609   -6.2076636    1012.0243  0.029201995  0.028562559           11 
 2889000   0.79577085   -6.2551373    1008.5814  0.029092576  0.028554646            5 
 2890000    0.7929126   -6.2245895    1012.2633  0.029188675  0.028546738            9 
 2891000   0.78228073   -6.2386291    1010.7296  0.029134372  0.028538841           34 
 2892000   0.77458282    -6.214324    1012.6366  0.029179249  0.028530976            9 
 2893000   0.79300056   -6.2254273    1015.5023  0.029251708  0.028523074            3 
 2894000   0.79038742   -6.2239211    1011.2285  0.029118536  0.028515221            6 
 2895000   0.79302701   -6.2248714    1012.4644  0.029144052  0.028507422           13 
 2896000   0.79713454   -6.2593038    1010.4339   0.02907556  0.028499597            8 
 2897000    0.7954938   -6.2279227    1013.6658  0.029158491  0.028491729            7 
 2898000   0.78627564     -6.19837    1015.0742  0.029188928   0.02848392            8 
 2899000   0.78205729   -6.2223651     1014.779  0.029170374  0.028476104            9 
 2900000   0.76636503      -6.2329    1012.3551  0.029090663   0.02846828            9 
 2901000   0.78582221   -6.2511466    1009.3236  0.028993554  0.028460417            8 
 2902000   0.78538813   -6.2677928    1013.1979  0.029094816   0.02845244           10 
 2903000   0.77825169   -6.2387484    1013.9253  0.029105676   0.02844453            5 
 2904000    0.7845767   -6.2590094    1012.4925  0.029054536  0.028436653            9 
 2905000   0.78267655   -6.2747703    1011.3553  0.029011913   0.02842882            4 
 2906000   0.80344524   -6.2509287      1013.64  0.029067447  0.028420929            5 
 2907000   0.76997301    -6.271955    1011.2158  0.028987953  0.028413012           15 
 2908000   0.80293265   -6.2233843    1012.7972  0.029023304  0.028405178            8 
 2909000   0.78880833   -6.2374327    1015.5255  0.029091482  0.028397332            3 
 2910000   0.78384002   -6.2311585    1013.3038  0.029017864   0.02838943           11 
 2911000   0.78880953   -6.1971507    1013.8021   0.02902216  0.028381564           15 
 2912000    0.7978808   -6.2345403    1013.8025  0.029012204  0.028373692            6 
 2913000   0.80328103   -6.2310397    1010.9661  0.028921104  0.028365817           10 
 2914000   0.79197294    -6.216727    1014.5059  0.029012409  0.028357965            7 
 2915000   0.77363309   -6.2208448    1013.9832  0.028987514  0.028350129           11 
 2916000   0.78085869   -6.2406893    1015.6398  0.029024913  0.028342207            7 
 2917000   0.79785586   -6.2488639     1011.515  0.028897125  0.028334283            9 
 2918000   0.78522722   -6.2054013    1016.4407  0.029027894  0.028326523            9 
 2919000     0.786299   -6.2376176    1013.2843  0.028927837  0.028318669            7 
 2920000   0.77811836   -6.2526989    1011.7223  0.028873354  0.028310742           12 
 2921000    0.7832631   -6.2259243    1012.4715  0.028884841  0.028302857           12 
 2922000   0.78130954    -6.232375    1012.3653  0.028871929  0.028295017            5 
 2923000   0.77014291   -6.2428459    1012.9895  0.028879846  0.028287112            4 
 2924000   0.78644869   -6.2546012    1013.2772   0.02887817  0.028279208            7 
 2925000   0.79271696   -6.2506318    1011.3069  0.028812163   0.02827124            8 
 2926000    0.7797708     -6.23852    1012.6626  0.028840926  0.028263229           11 
 2927000   0.77876278     -6.26613    1011.9329  0.028810297  0.028255251            8 
 2928000    0.7788288    -6.282828    1013.0354  0.028831837  0.028247264            4 
 2929000   0.78249718   -6.2496467    1012.1471  0.028796719  0.028239311            9 
 2930000   0.77957342   -6.2338708    1013.6509   0.02882966  0.028231384           13 
 2931000   0.78858452   -6.2846771    1014.2133  0.028835817  0.028223423            6 
 2932000   0.78526495   -6.2570005     1013.752   0.02881287  0.028215414            8 
 2933000   0.80018123   -6.2637565    1011.0467  0.028726181  0.028207495           12 
 2934000   0.79501505   -6.2717914     1012.455  0.028756391  0.028199586           19 
 2935000   0.77974241   -6.2643172    1010.7004  0.028696774  0.028191597           11 
 2936000   0.77623494   -6.2433206    1015.3088  0.028817801   0.02818366            8 
 2937000   0.78781452   -6.2642348     1014.646  0.028789184  0.028175781           13 
 2938000   0.78439672   -6.2839404    1013.5196  0.028747437  0.028167877            6 
 2939000    0.7827079    -6.263634    1013.9499  0.028749856  0.028160005           15 
 2940000   0.78700695   -6.2478047    1014.8832  0.028766532  0.028152058            6 
 2941000   0.76640559   -6.2696259    1015.5381  0.028775307  0.028144179            4 
 2942000   0.79146343   -6.2857586    1013.8573  0.028717915  0.028136293            6 
 2943000   0.77546085   -6.2262782    1017.4683  0.028810406   0.02812843            7 
 2944000   0.78312174   -6.2972255     1014.526  0.028717336   0.02812056           11 
 2945000   0.80558992   -6.2567793    1014.3761  0.028703343   0.02811266            6 
 2946000   0.77039917   -6.2698508    1014.4878  0.028696759  0.028104822            9 
 2947000   0.76624071   -6.2396018    1015.7566    0.0287229  0.028096979            7 
 2948000    0.7742365   -6.2539732    1016.3561  0.028730102  0.028089086           13 
 2949000   0.78778379   -6.2653582    1014.7195  0.028674113  0.028081202            9 
 2950000   0.76791291   -6.2466945    1016.6391  0.028718619   0.02807338           10 
 2951000    0.7785816   -6.2612557    1015.2565  0.028669844  0.028065535           19 
 2952000   0.79214009   -6.2598944    1014.7948  0.028647099  0.028057691           14 
 2953000   0.76839814   -6.2450083    1016.6434  0.028689565  0.028049843            5 
 2954000   0.77517805    -6.252393    1018.2473  0.028725098  0.028042008            6 
 2955000   0.79398108   -6.2734496    1015.7434  0.028644766  0.028034152            5 
 2956000   0.79336825   -6.2873532      1015.32  0.028623138  0.028026268            9 
 2957000   0.78686598   -6.2811403    1017.2012  0.028666475  0.028018341            9 
 2958000   0.79616615   -6.2576035    1016.0524   0.02862442  0.028010479            9 
 2959000   0.79147974   -6.2847763    1014.4808  0.028570487  0.028002571           18 
 2960000   0.78165042   -6.2609789    1015.9985  0.028603563  0.027994634            8 
 2961000   0.76581968   -6.2698373    1015.7315  0.028586386  0.027986676            9 
 2962000   0.77850154    -6.243884    1017.8068  0.028635123  0.027978783            9 
 2963000   0.77611482   -6.2726253    1014.0269   0.02851915  0.027970865            8 
 2964000   0.77378961   -6.2882917    1017.8205  0.028616185  0.027962959            8 
 2965000   0.77457293   -6.2557565     1016.889  0.028580353  0.027955025            7 
 2966000   0.78319077   -6.2430746    1018.7016  0.028621646  0.027947172           10 
 2967000   0.77607907    -6.254466     1017.344  0.028573867  0.027939309            8 
 2968000   0.77148259   -6.2429589    1016.5463  0.028541844  0.027931481           10 
 2969000   0.75652501   -6.2503176     1013.917  0.028458432  0.027923602            6 
 2970000   0.78334792   -6.2605126    1018.9323  0.028589572  0.027915779            8 
 2971000   0.77954952   -6.2609358    1018.5606  0.028569522  0.027907951            5 
 2972000   0.77540191   -6.2764577    1015.3103  0.028468772  0.027900023            5 
 2973000   0.78679691   -6.2623209    1018.8061  0.028557183  0.027892144            7 
 2974000   0.78059066   -6.2788039    1015.3002  0.028449345  0.027884237            7 
 2975000   0.77383792   -6.2790303    1015.0294  0.028432196  0.027876367            7 
 2976000   0.76900022   -6.2815749    1014.3446  0.028403468   0.02786849            6 
 2977000   0.78280376   -6.2755835    1016.9338  0.028466404  0.027860615            6 
 2978000   0.78563897    -6.268994     1016.736   0.02845131  0.027852815            9 
 2979000   0.77782128   -6.2944449    1014.8178  0.028388099  0.027845016            9 
 2980000   0.76796255   -6.2746669    1015.4154  0.028395286  0.027837128           10 
 2981000   0.77484432   -6.2654551    1020.2735  0.028521567  0.027829309            9 
 2982000   0.77849849   -6.2669769    1018.5236    0.0284631  0.027821529           10 
 2983000    0.7715334   -6.2517803    1019.5768  0.028482981  0.027813745            6 
 2984000   0.77295203   -6.2470451    1019.7531  0.028478359  0.027805955            7 
 2985000   0.77437183   -6.2488847    1019.0161  0.028448245  0.027798165           10 
 2986000   0.77601149   -6.2780537    1019.4929  0.028452024  0.027790314            9 
 2987000    0.7695947   -6.2832816    1016.4276  0.028356979  0.027782412            7 
 2988000   0.78520481    -6.260234    1017.8778  0.028387935  0.027774551            4 
 2989000   0.77420161   -6.2605777    1018.5792  0.028397992  0.027766724            8 
 2990000   0.77541047   -6.2649044     1017.409  0.028355879  0.027758805            8 
 2991000   0.78231409   -6.2911985    1017.5047  0.028349068  0.027750893           13 
 2992000   0.76309441   -6.2449424    1017.9264  0.028351337  0.027743025           12 
 2993000   0.77250626   -6.2683344      1018.84  0.028367302  0.027735203           16 
 2994000    0.7672395    -6.279997    1017.2817  0.028314455  0.027727334           16 
 2995000   0.78321208   -6.2613849    1017.1499  0.028301333  0.027719399            9 
 2996000   0.78308411    -6.270021    1017.9335  0.028313681   0.02771156            7 
 2997000   0.78100874    -6.264038    1020.6546  0.028379898  0.027703722           10 
 2998000   0.77182371   -6.2546257    1017.5628   0.02828449  0.027695884            9 
 2999000   0.77446894   -6.2926012    1018.7129  0.028307017   0.02768807           11 
 3000000   0.77583466    -6.294848     1017.797  0.028272138   0.02768018            5 
 3001000   0.75575577   -6.2996529    1017.8884  0.028265256  0.027672301           14 
 3002000   0.77360476   -6.3016468    1014.5242  0.028162453  0.027664327            8 
 3003000    0.7788083   -6.2822675    1018.5751  0.028265486  0.027656435           14 
 3004000   0.77217708   -6.2856793    1018.2421  0.028246839  0.027648608            5 
 3005000   0.77896723   -6.2513944      1019.05  0.028259844  0.027640768           10 
 3006000   0.77284025   -6.2385003    1019.2746  0.028256671  0.027632987            5 
 3007000   0.75481129   -6.2767166    1020.0292  0.028268186  0.027625212           14 
 3008000   0.75899646   -6.2611011      1018.54  0.028217532  0.027617356           12 
 3009000   0.77512862    -6.259265     1017.233  0.028171955  0.027609508            8 
 3010000   0.77291703   -6.2928376    1019.1591  0.028215923  0.027601677            6 
 3011000   0.78748157   -6.2693547    1020.6446  0.028247664  0.027593802           10 
 3012000   0.75350529   -6.2872305    1019.9166  0.028218144  0.027585974            9 
 3013000   0.77332148   -6.2971505    1018.4637  0.028168594  0.027578103            9 
 3014000    0.7789247   -6.2751609    1020.8057  0.028224001  0.027570256            5 
 3015000   0.76475911   -6.2882514     1017.448  0.028121836  0.027562369           23 
 3016000   0.78383063   -6.3036919    1016.8521  0.028096046  0.027554463           12 
 3017000   0.77620693   -6.2694035    1019.7222   0.02816601  0.027546569           14 
 3018000   0.75975463   -6.2681153    1017.4926  0.028095114  0.027538723            9 
 3019000   0.77249642   -6.2920558    1020.6231  0.028172217  0.027530909            9 
 3020000   0.77218876   -6.3169602    1017.4024  0.028074018  0.027523034            6 
 3021000   0.78609512   -6.3150205    1017.2774  0.028061275  0.027515135           12 
 3022000   0.76981488   -6.2792379    1019.1137  0.028102627  0.027507201           24 
 3023000   0.78665728   -6.2951666    1018.4214  0.028074249  0.027499286           10 
 3024000   0.77657629   -6.3133617    1016.7184  0.028018035  0.027491358            7 
 3025000   0.77217862   -6.2985365    1018.9858  0.028071235  0.027483415            6 
 3026000   0.76060368   -6.2989212    1021.4282  0.028129218  0.027475584            7 
 3027000   0.76151554   -6.2768679    1021.2573   0.02811522  0.027467717            8 
 3028000   0.76331345   -6.3059997    1020.3531  0.028081051  0.027459871            9 
 3029000   0.77363945    -6.292688    1021.7054  0.028108986  0.027452025            8 
 3030000   0.76779979   -6.3043666    1020.7251  0.028072747  0.027444212           12 
 3031000   0.76191304    -6.278142    1023.5548  0.028141284  0.027436423           11 
 3032000   0.76030667   -6.2871365    1023.8833  0.028141031  0.027428641           11 
 3033000   0.74660112   -6.2753617    1022.2982  0.028088203  0.027420876            9 
 3034000   0.74228173   -6.2848303    1022.2634  0.028077987  0.027413113           10 
 3035000   0.77020847   -6.3046852    1021.5998  0.028050517  0.027405319           15 
 3036000   0.78036696    -6.290575    1025.9513   0.02816072  0.027397506           10 
 3037000   0.77731981   -6.2669681    1022.7505  0.028063617  0.027389766            6 
 3038000   0.76985459   -6.2694892      1022.72  0.028053544  0.027382012           13 
 3039000   0.77091456   -6.2971826    1024.3907  0.028090125  0.027374241           13 
 3040000   0.75767763   -6.2952451    1022.8491  0.028038627    0.0273665            9 
 3041000   0.77172965    -6.324166    1026.2499    0.0281226   0.02735876            7 
 3042000   0.77356096   -6.3044973    1022.9693  0.028023485  0.027350981           15 
 3043000   0.76922906    -6.309335    1022.0414  0.027988864  0.027343232            8 
 3044000   0.76334544   -6.3019506    1022.0142  0.027978927  0.027335458            9 
 3045000   0.77878786   -6.2765858    1024.1397  0.028027906  0.027327729            6 
 3046000   0.78083334   -6.3216331    1024.3985  0.028025784  0.027319966           14 
 3047000   0.76324164   -6.2813692    1026.2187   0.02806637  0.027312209            7 
 3048000   0.77098915   -6.3225639    1021.8498  0.027937713  0.027304506            8 
 3049000   0.76280512   -6.2780452    1024.3859  0.027997865  0.027296785            9 
 3050000   0.76710939    -6.281084    1025.2123  0.028011265   0.02728911            6 
 3051000   0.76919531   -6.2828597    1025.1861  0.028001367   0.02728145            4 
 3052000   0.74276669   -6.2861445    1024.9887  0.027986803  0.027273807           12 
 3053000   0.75357232   -6.2651678    1023.4215   0.02793486  0.027266171           21 
 3054000   0.75581304   -6.2659911     1025.405  0.027979836  0.027258521           15 
 3055000   0.75484921    -6.282049    1023.2996  0.027913245  0.027250869            9 
 3056000   0.75306359     -6.27032     1027.107  0.028007934  0.027243194            6 
 3057000   0.77156886   -6.3135686    1022.7166  0.027879092  0.027235486            9 
 3058000    0.7570505   -6.2945529    1025.7084  0.027951504  0.027227802            9 
 3059000    0.7753095   -6.3083023    1025.9257  0.027948287  0.027220164           11 
 3060000   0.75743931    -6.316731    1021.6131  0.027821707  0.027212454           15 
 3061000    0.7770887   -6.2826386    1027.6332  0.027976512  0.027204816            6 
 3062000   0.76901657   -6.3009878      1024.76  0.027889178   0.02719724            6 
 3063000   0.76666853   -6.3164539    1025.0302  0.027887425  0.027189637            9 
 3064000   0.75884352   -6.2820204    1026.3627  0.027914564  0.027182034            6 
 3065000   0.75895359   -6.3248424    1024.7837  0.027862526  0.027174406           11 
 3066000   0.76859081   -6.2931641    1026.1418  0.027890351  0.027166744           11 
 3067000   0.77076218   -6.3085764    1025.4224  0.027861711   0.02715908           10 
 3068000   0.75695776   -6.2909254    1024.3608  0.027823793  0.027151477            9 
 3069000   0.76811151   -6.2798466    1026.8961  0.027883568  0.027143831            9 
 3070000   0.78230052   -6.3037177    1026.1679  0.027854722  0.027136224           13 
 3071000   0.75611469   -6.3117107    1025.1607  0.027818319  0.027128597           10 
 3072000   0.76596224   -6.2824954    1025.5157  0.027818894  0.027120942            5 
 3073000   0.75951665   -6.2924663    1028.0683  0.027879062  0.027113334           11 
 3074000   0.76234993   -6.3334067    1022.7114  0.027724773  0.027105744            6 
 3075000   0.76105705   -6.3013215    1026.6018  0.027821186  0.027098113           11 
 3076000   0.75859278   -6.3576195    1025.8815  0.027792629  0.027090463           12 
 3077000   0.76308725   -6.3073447    1025.7394  0.027779747   0.02708282           12 
 3078000   0.76568224   -6.3021537    1027.1616  0.027809226  0.027075174           10 
 3079000   0.75723045    -6.318802    1027.5805  0.027811534  0.027067557            8 
 3080000    0.7759724    -6.306552    1029.2402  0.027847408  0.027059936           10 
 3081000   0.75831279   -6.3291482    1028.4908    0.0278181  0.027052283           15 
 3082000   0.75396153   -6.3172211    1025.3026  0.027722869    0.0270447           46 
 3083000   0.75906732   -6.3091735    1026.2433  0.027739305  0.027037065           14 
 3084000    0.7605073   -6.3147254    1027.3128  0.027759209  0.027029451           19 
 3085000   0.75365513   -6.2872654    1029.4468  0.027807854  0.027021846           20 
 3086000   0.76980905   -6.3087257    1027.8102   0.02775465  0.027014316            7 
 3087000   0.77362735   -6.3001937    1029.5702   0.02779317  0.027006753           15 
 3088000   0.75840955   -6.3396322    1027.9685  0.027740947   0.02699916            5 
 3089000   0.75647105   -6.3477196    1027.4976  0.027719262  0.026991517           20 
 3090000    0.7513775   -6.2946158    1028.7936  0.027745243  0.026983901           12 
 3091000   0.76014337   -6.3273439    1028.9544  0.027740602  0.026976332            4 
 3092000    0.7596345   -6.3308544    1027.0815  0.027681153  0.026968765            6 
 3093000   0.76417008   -6.3150198    1027.9739  0.027696247  0.026961238           11 
 3094000   0.77287098   -6.2896554    1031.2858  0.027776499  0.026953717            7 
 3095000   0.75336725   -6.3182737    1028.3946  0.027689678  0.026946187            3 
 3096000   0.76437757   -6.3386763    1027.2773   0.02765066  0.026938675           20 
 3097000   0.76443234   -6.3230447    1028.2567  0.027668086  0.026931158           12 
 3098000   0.77919455   -6.3036935     1030.166  0.027710512  0.026923662            9 
 3099000   0.75356475    -6.293146    1032.5353  0.027765281  0.026916223            6 
 3100000   0.75893302    -6.304868     1030.597  0.027704219  0.026908733            5 
 3101000   0.75228443   -6.3044642    1030.8774  0.027702821   0.02690123            5 
 3102000   0.76341273   -6.3166301    1029.0059  0.027643615  0.026893737           10 
 3103000   0.75641014   -6.3367506     1029.279  0.027642039  0.026886175            6 
 3104000   0.76168469   -6.3185084    1027.5666  0.027587162  0.026878579           11 
 3105000   0.74088308   -6.3349157    1029.3221  0.027625392  0.026871028            7 
 3106000   0.77711537   -6.3470599    1028.6304  0.027597939  0.026863491            5 
 3107000   0.73040528   -6.3311702    1028.5684  0.027587395  0.026855967            9 
 3108000   0.75791379   -6.3146924    1029.2773  0.027597526  0.026848419            7 
 3109000   0.75722029   -6.3179597    1030.4749  0.027620749   0.02684087            7 
 3110000   0.75778484    -6.313866    1030.6897  0.027617623  0.026833325            8 
 3111000   0.74754245   -6.3160923    1028.3593  0.027546321  0.026825801            9 
 3112000   0.74597697   -6.3143804     1029.661  0.027572328   0.02681826           25 
 3113000   0.74471941   -6.3005089    1031.9926  0.027625885  0.026810799            3 
 3114000   0.74694882   -6.3192225    1031.2209  0.027596363  0.026803361           10 
 3115000   0.76737703   -6.3291451    1032.0516  0.027609728  0.026795847           23 
 3116000   0.75270162   -6.3174013    1032.9641   0.02762527  0.026788378           10 
 3117000   0.75003963   -6.3098634    1028.7554  0.027503888  0.026780921            9 
 3118000   0.75687732   -6.3345072    1032.4464  0.027593713  0.026773423           26 
 3119000   0.75991933   -6.3369054    1027.6447  0.027456576  0.026765894           10 
 3120000   0.75051059   -6.3484851    1031.1236  0.027540694  0.026758374            5 
 3121000   0.78520578    -6.333256    1030.9064  0.027526071  0.026750868           11 
 3122000    0.7553889   -6.3382526    1032.0299  0.027547243  0.026743362           10 
 3123000   0.74264626   -6.3078611    1032.3793  0.027547744  0.026735883            4 
 3124000   0.76024459   -6.3421376    1029.6521  0.027466179  0.026728389            5 
 3125000   0.73492217   -6.3315382    1031.7947  0.027514527  0.026720843            8 
 3126000   0.74580444   -6.3458081    1029.5302  0.027445356  0.026713277           18 
 3127000   0.75555518   -6.3217373    1029.8308   0.02744459  0.026705742           10 
 3128000   0.73461057   -6.3435801    1029.3487  0.027422972  0.026698203            8 
 3129000   0.74966096   -6.3107902    1030.2812  0.027439043  0.026690678           10 
 3130000   0.75739132   -6.3294842    1034.3979  0.027539881   0.02668322           15 
 3131000   0.74463214   -6.3145642    1030.9755  0.027439995  0.026675779           10 
 3132000   0.75540453   -6.3033563    1032.3628  0.027468145  0.026668321           20 
 3133000   0.75645004   -6.3414513    1031.5101  0.027436698  0.026660852           17 
 3134000   0.76304355   -6.3350672    1028.1088  0.027337504  0.026653348           15 
 3135000   0.76726169   -6.3266374    1031.5928  0.027421392  0.026645873           19 
 3136000   0.75152503   -6.3212546    1031.8153  0.027418562  0.026638416            6 
 3137000   0.73281906   -6.3331316    1031.3472  0.027397387  0.026630967           10 
 3138000   0.73592079   -6.3174365    1032.6307  0.027422741   0.02662347            7 
 3139000     0.751522   -6.3322263    1032.7011  0.027415872  0.026615985            6 
 3140000   0.74334161   -6.3371438    1033.1991  0.027420358    0.0266085            8 
 3141000   0.75152129   -6.3287216    1033.7195  0.027425434  0.026601032            6 
 3142000   0.76224195   -6.3460601    1031.9288  0.027369214  0.026593546           10 
 3143000   0.75149172   -6.3371126    1031.0484  0.027337161  0.026586034            9 
 3144000   0.74854069   -6.3465819    1036.1548  0.027463813  0.026578556            8 
 3145000    0.7376315   -6.3496302    1031.6253  0.027335063  0.026571079            8 
 3146000   0.76112933   -6.3594426    1031.1349  0.027313384  0.026563623           16 
 3147000   0.76474603   -6.3419021    1032.7095  0.027346401  0.026556151            9 
 3148000   0.75363611   -6.3684272    1028.7466  0.027232809   0.02654863           11 
 3149000   0.75692207   -6.3400764    1033.0149  0.027337115  0.026541117            8 
 3150000   0.75154796    -6.340172    1032.0813  0.027303739  0.026533615           13 
 3151000   0.74562419   -6.3511904    1033.5525  0.027333982   0.02652614            6 
 3152000   0.74066203   -6.3423192    1034.5402  0.027351423  0.026518685            7 
 3153000   0.75992856   -6.3279512    1034.3839  0.027338618  0.026511265            7 
 3154000   0.76890942   -6.3393749    1035.5504   0.02736077  0.026503876           13 
 3155000   0.73553197   -6.3261166    1033.9324   0.02730936  0.026496478            8 
 3156000   0.76119843   -6.3499532    1035.4272  0.027340177  0.026489072           14 
 3157000   0.75135351   -6.3535384    1034.2671  0.027300895  0.026481672           19 
 3158000   0.74472707   -6.3405892    1033.4696  0.027271205  0.026474246           17 
 3159000   0.73053314   -6.3596012    1033.9336  0.027274812  0.026466843           13 
 3160000   0.73703389   -6.3425797     1033.314  0.027249843  0.026459457            7 
 3161000     0.744412   -6.3148842    1035.6424  0.027302604  0.026452104           12 
 3162000   0.75195834   -6.3232414    1033.9124  0.027248376  0.026444751           24 
 3163000   0.73224002   -6.3512642    1034.4102  0.027252877  0.026437381            7 
 3164000   0.76972307   -6.3421402    1034.0259  0.027234142  0.026430038            9 
 3165000   0.73657724   -6.3382441    1032.5334   0.02718624  0.026422633            5 
 3166000   0.73332531   -6.3484215    1033.0132  0.027190282  0.026415221            6 
 3167000   0.75994428   -6.3303555    1037.4059  0.027297283   0.02640781           23 
 3168000   0.75801445   -6.3507057    1033.3321  0.027181504  0.026400415           13 
 3169000   0.75338024   -6.3477284    1035.1818  0.027221567  0.026393018           11 
 3170000   0.73972428   -6.3521865    1033.5768  0.027170789  0.026385598            8 
 3171000   0.74102926   -6.3675291    1033.4923      0.02716  0.026378185            7 
 3172000   0.74666618   -6.3775955    1034.1333  0.027168277   0.02637072           12 
 3173000   0.74948929   -6.3575449    1033.5888  0.027145416  0.026363263           15 
 3174000   0.74542138   -6.3462692     1034.117  0.027150731  0.026355832           16 
 3175000   0.75037579   -6.3395319     1032.713  0.027105329  0.026348436           12 
 3176000   0.75137422   -6.3552088    1034.0825  0.027132727  0.026340977            9 
 3177000   0.73532909   -6.3522874    1033.6605  0.027113117  0.026333558           12 
 3178000   0.75214762    -6.328895    1034.8258  0.027135142  0.026326194            8 
 3179000   0.74550619   -6.3241401    1035.0602  0.027132751  0.026318855           10 
 3180000   0.75006166   -6.3352981    1038.2434  0.027207635  0.026311519            8 
 3181000   0.74666247   -6.3893573    1034.1238  0.027091161  0.026304143           11 
 3182000   0.75718538   -6.3891839      1032.45  0.027038812  0.026296684           11 
 3183000   0.73304363   -6.3690538    1035.6919  0.027115192  0.026289257           15 
 3184000   0.72393646   -6.3775601    1034.5035  0.027075573  0.026281783           11 
 3185000   0.75866005   -6.3575596    1035.3223  0.027088496  0.026274303            7 
 3186000   0.75654393   -6.3780049    1031.6394  0.026983662   0.02626688           12 
 3187000   0.74401545   -6.3704184    1033.9005   0.02703432  0.026259444            6 
 3188000     0.731963   -6.3553219    1035.5629  0.027069293  0.026252048            7 
 3189000   0.74467288   -6.3124586     1036.818  0.027093603  0.026244715           11 
 3190000    0.7500693   -6.3377533     1038.091  0.027118365   0.02623736           18 
 3191000    0.7444896   -6.3486481    1035.6693  0.027046624  0.026230013           10 
 3192000   0.72843425   -6.3386515    1033.7241  0.026987367  0.026222641           22 
 3193000    0.7401222   -6.3408993    1036.2172  0.027043983  0.026215262            6 
 3194000   0.74872021   -6.3902186    1033.3289  0.026960157   0.02620789           12 
 3195000   0.73156129   -6.3539044    1035.6665   0.02701269  0.026200505           11 
 3196000   0.73433551   -6.3867577    1034.4424   0.02697232  0.026193105           19 
 3197000   0.72271123   -6.3888984    1031.7572  0.026893891  0.026185681           16 
 3198000   0.73450451   -6.3581597    1035.0452  0.026971159   0.02617825           17 
 3199000   0.74470105   -6.3766561    1036.3043  0.026995526  0.026170854            6 
 3200000   0.72228276   -6.3378693    1037.2164  0.027010843  0.026163493           32 
 3201000   0.73109273   -6.3386043    1035.1518  0.026948657  0.026156183            9 
 3202000   0.71461282   -6.3552246     1036.181  0.026967027  0.026148837           11 
 3203000   0.74145053   -6.3556107    1039.6225  0.027048145  0.026141448           10 
 3204000   0.74270163   -6.3438458    1040.7459  0.027068922  0.026134049           10 
 3205000   0.74484155   -6.3416539    1033.9941  0.026884921  0.026126698            8 
 3206000    0.7237363   -6.3561452    1035.8109  0.026923761  0.026119266            6 
 3207000   0.73750835   -6.3638761     1034.584  0.026883483   0.02611185            5 
 3208000   0.74561276   -6.3569262    1035.0664  0.026887635  0.026104438            9 
 3209000   0.74090767   -6.3708403    1036.9737  0.026928786  0.026097021            6 
 3210000    0.7327244   -6.3807549    1037.0071  0.026921265  0.026089638            6 
 3211000   0.72780488   -6.3463659    1037.3302  0.026921264  0.026082249           10 
 3212000   0.75435247   -6.3372874     1037.822  0.026925643  0.026074888           13 
 3213000   0.75442607   -6.3631339    1037.7695  0.026915901   0.02606753           11 
 3214000   0.75302218   -6.3445925    1033.3945   0.02679409  0.026060105           19 
 3215000   0.73734284   -6.3885906    1035.7422  0.026846611  0.026052687           13 
 3216000   0.73084144   -6.3760148    1036.1097  0.026847786  0.026045253           11 
 3217000    0.7399019   -6.3912708    1032.7897  0.026753437  0.026037821           24 
 3218000   0.72907493   -6.4092918     1032.974  0.026749898  0.026030353           18 
 3219000   0.72512939   -6.3631668    1035.7442  0.026813302  0.026022861           10 
 3220000   0.73226344   -6.3768766    1036.2037  0.026816867  0.026015403           16 
 3221000   0.72883438   -6.3811321    1035.7358  0.026796435  0.026007964           12 
 3222000   0.72174975   -6.4169075    1034.8877  0.026766182  0.026000464           19 
 3223000    0.7255572   -6.3613153    1038.6205  0.026854392  0.025992996           10 
 3224000   0.72193934   -6.3528961    1036.8983  0.026801549  0.025985569           22 
 3225000   0.72645254   -6.3610572    1033.7648  0.026712268  0.025978148           11 
 3226000   0.72650817   -6.3643821    1035.7838  0.026756143  0.025970772            9 
 3227000   0.75250719   -6.3786693    1036.1972  0.026758527  0.025963333            7 
 3228000    0.7610044   -6.3576258     1038.456  0.026808549  0.025955922            8 
 3229000   0.73874433   -6.3708961    1035.5574  0.026725442  0.025948463           11 
 3230000   0.73414318   -6.3676107    1034.8861  0.026699847  0.025941006            9 
 3231000   0.73309972   -6.3896405    1036.8569  0.026742414  0.025933579            7 
 3232000   0.73092078   -6.3591254    1036.7182  0.026730565   0.02592615           30 
 3233000   0.73461343   -6.3678945    1035.8749  0.026700559  0.025918685           12 
 3234000   0.74320509   -6.3631217    1036.1984  0.026700638  0.025911238           15 
 3235000   0.72798191   -6.3780959    1034.3924  0.026645862  0.025903795            8 
 3236000   0.73960146   -6.3768692    1035.4589  0.026665092  0.025896361           11 
 3237000   0.75249294   -6.3795307    1034.5994  0.026634729  0.025888926           18 
 3238000    0.7403696    -6.408986    1031.7361  0.026552812  0.025881438            7 
 3239000   0.73108359   -6.3931263    1036.0512  0.026655636  0.025873975            7 
 3240000   0.73909964   -6.3728793    1034.1543  0.026598618   0.02586648            8 
 3241000   0.72162519   -6.3769573    1036.5022  0.026650782  0.025858991           14 
 3242000   0.73697356   -6.3626524    1035.5068  0.026616976   0.02585153           11 
 3243000   0.73961646   -6.3784981    1038.3052  0.026680677   0.02584405            7 
 3244000    0.7315132   -6.3787731    1035.3454   0.02659642  0.025836587            8 
 3245000   0.73626209   -6.3971452     1034.459  0.026565459  0.025829083           16 
 3246000   0.72099413   -6.4140125    1033.7658  0.026539479   0.02582154            9 
 3247000   0.73434043   -6.4030171    1036.0309  0.026589439   0.02581406            6 
 3248000   0.72993737   -6.3728148    1037.2674  0.026612978  0.025806595           12 
 3249000   0.73843282   -6.3783272    1035.7079  0.026564787   0.02579911            9 
 3250000    0.7291073    -6.384541    1036.6763  0.026581443  0.025791652           11 
 3251000   0.73725783   -6.3802949    1038.2397  0.026613342  0.025784215            8 
 3252000   0.72177726    -6.352534    1039.2954  0.026632212  0.025776827            8 
 3253000    0.7350483   -6.3871942    1035.8887  0.026536753    0.0257694            6 
 3254000   0.73163088   -6.3428014    1035.1973  0.026510891  0.025761955            9 
 3255000   0.73631642   -6.3870656    1034.8612  0.026494143  0.025754557           22 
 3256000   0.73325731   -6.3515503    1037.5239  0.026554154  0.025747149           12 
 3257000   0.72861665   -6.3594819    1034.6985  0.026473712  0.025739724           10 
 3258000   0.72161661   -6.3620506    1036.2459  0.026505165  0.025732266           15 
 3259000   0.73474164   -6.3817191    1036.2667  0.026497562  0.025724831            8 
 3260000   0.72159184   -6.3973174    1037.1811  0.026512808  0.025717361           20 
 3261000   0.74647767    -6.368174    1039.4783  0.026563384  0.025709927            6 
 3262000    0.7397127   -6.4017323    1037.6317  0.026508066  0.025702461           14 
 3263000   0.72295031    -6.404789    1034.1982  0.026412254  0.025694955            9 
 3264000   0.72954905   -6.3905765    1036.5616  0.026464502  0.025687498           15 
 3265000   0.72713242   -6.4022377    1037.7454  0.026486611  0.025680063            9 
 3266000    0.7170967   -6.3837245    1033.8646  0.026379479  0.025672646           16 
 3267000    0.7337417   -6.4000701    1035.1907  0.026405231  0.025665232           10 
 3268000   0.72921971   -6.3730094    1035.5457  0.026406205   0.02565777            7 
 3269000   0.72562806   -6.3964032    1037.2857  0.026442483   0.02565037           10 
 3270000   0.73551372   -6.3829105     1038.276  0.026459634  0.025642972           18 
 3271000   0.72511729   -6.3717217    1037.2557  0.026425551  0.025635562            9 
 3272000    0.7348604   -6.4232177    1035.3442  0.026368791  0.025628121           26 
 3273000   0.74337035   -6.3771602    1036.7371  0.026396199   0.02562065           20 
 3274000   0.72573234   -6.3848076    1035.8076  0.026364478  0.025613218           12 
 3275000   0.72489047   -6.3804878    1037.7241  0.026405194  0.025605802           12 
 3276000   0.75684552   -6.3708442    1040.7639  0.026474457  0.025598389           15 
 3277000   0.72546499   -6.3838446    1036.7785  0.026365032  0.025590952            7 
 3278000   0.73598978   -6.3846477    1036.7372  0.026355938   0.02558349           14 
 3279000    0.7140385   -6.3777491     1036.849  0.026350743  0.025576044           13 
 3280000   0.71633001   -6.3975554    1037.1301  0.026349849  0.025568582           10 
 3281000   0.73355106   -6.4151429    1037.7607  0.026357835  0.025561144           14 
 3282000   0.72733541   -6.3780983    1039.0254  0.026381918  0.025553705           10 
 3283000   0.72483349   -6.3700662    1036.2382  0.026303132  0.025546267           11 
 3284000   0.72169993   -6.4391344    1034.9812  0.026263225  0.025538826            7 
 3285000   0.73029975   -6.4032198    1034.0574  0.026231797  0.025531376            7 
 3286000   0.72456975   -6.3894435    1034.5676  0.026236751  0.025523932           13 
 3287000   0.72635793   -6.4106715    1035.1268  0.026242947  0.025516474           12 
 3288000   0.71949863   -6.3894144    1036.2043  0.026262274  0.025509032           10 
 3289000   0.73378159   -6.4062168    1035.8449  0.026245184  0.025501609            5 
 3290000   0.71186446   -6.4058941    1035.7295  0.026234284  0.025494164           21 
 3291000   0.71411911   -6.3974834     1038.845  0.026305201   0.02548674           10 
 3292000   0.72630341   -6.4000847    1038.7905   0.02629583  0.025479295           17 
 3293000   0.72108021    -6.404245    1038.4266  0.026278636  0.025471858           10 
 3294000   0.72923515   -6.4111013    1037.0786  0.026236558  0.025464469           14 
 3295000   0.73139528   -6.3841966    1039.3877  0.026286993  0.025457058           13 
 3296000   0.74285194   -6.4037741    1038.6153  0.026259489   0.02544968           27 
 3297000   0.73077084   -6.3926104    1040.8131  0.026307074   0.02544234            7 
 3298000   0.74333322   -6.3965098    1039.0693  0.026255036   0.02543497           25 
 3299000   0.72510237   -6.4216267    1037.4947  0.026207302  0.025427606            7 
 3300000   0.71782403   -6.4067278    1037.6417  0.026203074  0.025420186            7 
 3301000   0.72056726   -6.3990314    1037.3152  0.026186893  0.025412784            7 
 3302000   0.72169992   -6.4383324    1035.5012  0.026133183  0.025405336           11 
 3303000   0.70416679   -6.4014146    1035.4459  0.026123874  0.025397916           16 
 3304000   0.72268627   -6.4060441    1035.6648  0.026121489  0.025390502           16 
 3305000   0.71792629   -6.4050828    1038.0334  0.026173309  0.025383118            7 
 3306000   0.73562342   -6.4132507    1036.4395  0.026125213  0.025375727           12 
 3307000   0.71502532    -6.428758    1037.4417   0.02614257  0.025368319           13 
 3308000   0.74515596   -6.3893691    1036.9425  0.026122091  0.025360937            5 
 3309000   0.71187897    -6.387944    1037.8225  0.026136358  0.025353575           21 
 3310000   0.72423338   -6.4318992    1037.6966  0.026125292  0.025346175           17 
 3311000    0.7106031   -6.4159557    1037.9084  0.026122733  0.025338769           18 
 3312000   0.73386888   -6.4299586    1036.3591  0.026075864  0.025331313            7 
 3313000   0.73763741   -6.4309274    1034.3073  0.026016382  0.025323828            9 
 3314000   0.72066996   -6.4145747    1035.7693  0.026045295  0.025316367           23 
 3315000   0.71190882   -6.3944479    1038.2591  0.026100029  0.025308942           12 
 3316000   0.69663409   -6.4108217    1040.0234  0.026136494  0.025301526           17 
 3317000   0.71689914    -6.392022    1038.0427  0.026078853  0.025294132           16 
 3318000   0.74041301   -6.4282753    1037.7746   0.02606426  0.025286696           27 
 3319000     0.719895   -6.3874982    1039.7803  0.026106767  0.025279255            9 
 3320000     0.727108   -6.4027506    1034.5462  0.025967524  0.025271825           12 
 3321000   0.71883562   -6.4121148    1035.1382  0.025974562  0.025264432           12 
 3322000   0.70729315   -6.4206317    1036.2258  0.025994025  0.025256994           17 
 3323000   0.72246636   -6.4301917    1038.5198  0.026043731  0.025249562           18 
 3324000   0.72534048   -6.4365982    1035.9461  0.025971373  0.025242101           17 
 3325000   0.73385917    -6.444623    1038.6465  0.026031239  0.025234602           10 
 3326000   0.72696071   -6.4125012     1036.821  0.025977677  0.025227124           11 
 3327000    0.7187266   -6.4052596    1037.1471  0.025978037  0.025219668           34 
 3328000   0.72032076   -6.4347138    1036.4293  0.025952255  0.025212208           10 
 3329000   0.71978835   -6.4034132    1037.6413    0.0259748  0.025204742           14 
 3330000    0.7190431   -6.4037466    1038.3387  0.025984451  0.025197328           24 
 3331000   0.71505609   -6.4342718    1037.4409  0.025954191  0.025189913           19 
 3332000    0.7265204   -6.3959583    1039.2758  0.025992291  0.025182509           15 
 3333000    0.7192012   -6.4014607    1036.3929  0.025912414  0.025175098           16 
 3334000   0.73187532   -6.4223441    1039.0573  0.025971238  0.025167701           22 
 3335000   0.70834767   -6.3954624    1039.4134   0.02597235  0.025160285           14 
 3336000   0.71742069   -6.3973532    1037.8752  0.025926139  0.025152869           19 
 3337000   0.72183596   -6.3843843     1037.824  0.025917092  0.025145453            5 
 3338000   0.71186392   -6.4032986    1036.9403  0.025887265  0.025138022            9 
 3339000    0.7223588   -6.4240262    1036.7623   0.02587507  0.025130628           15 
 3340000    0.7107291   -6.4158537    1037.3608  0.025882256   0.02512319            6 
 3341000   0.70412219   -6.4295007    1041.1471  0.025968948  0.025115749           11 
 3342000   0.71790222   -6.4154905    1037.4661  0.025869392  0.025108285            9 
 3343000   0.71778305   -6.3970768    1038.4931  0.025887255   0.02510088           12 
 3344000   0.71908855   -6.4298739     1037.773  0.025861568  0.025093456           15 
 3345000   0.72273396   -6.4277732    1038.8702   0.02588117  0.025086044            7 
 3346000   0.72783967   -6.4455362    1037.1281  0.025830049  0.025078612           14 
 3347000   0.71181365   -6.4380517    1037.6107  0.025834347  0.025071185            9 
 3348000   0.71828891   -6.4235271    1036.8995  0.025808928  0.025063715           10 
 3349000   0.73859681   -6.4170105    1039.6574  0.025869848  0.025056288           15 
 3350000   0.71187097    -6.433577    1036.7607  0.025790067  0.025048887           10 
 3351000   0.70574591   -6.4271565    1038.7032  0.025830678  0.025041489           19 
 3352000   0.71128875   -6.4262864    1036.0934  0.025758089  0.025034119           11 
 3353000   0.71456373   -6.4144726    1040.6718  0.025864195   0.02502668           12 
 3354000   0.72555416   -6.4199409    1038.3637  0.025799137  0.025019299           26 
 3355000   0.70532057   -6.4496879    1036.5625  0.025746708   0.02501185           27 
 3356000   0.70954521   -6.4330111    1037.3166  0.025757761  0.025004405           14 
 3357000   0.71214803   -6.4218001    1040.1922  0.025821473  0.024996972           10 
 3358000   0.72095101    -6.436743    1037.4399  0.025745481   0.02498951           14 
 3359000   0.71170374   -6.4285955    1036.3338  0.025710374  0.024982056           12 
 3360000    0.7047104   -6.4050391    1039.1407  0.025772338  0.024974626           14 
 3361000   0.70489521   -6.3941534    1039.7754  0.025780409   0.02496725           12 
 3362000   0.71673128   -6.4222049     1037.022  0.025704492  0.024959813           18 
 3363000   0.70887656   -6.4164914    1037.0715  0.025698074   0.02495238            9 
 3364000   0.72738891   -6.4423084    1036.4367   0.02567471  0.024944913           15 
 3365000   0.70233742   -6.4324652    1038.4903  0.025717938   0.02493745            6 
 3366000   0.71478693   -6.4524622      1035.35   0.02563255  0.024929986           12 
 3367000   0.72087249   -6.4244164    1036.1595  0.025644973  0.024922524           11 
 3368000   0.70500805   -6.4333592    1037.1272  0.025661303  0.024915042           15 
 3369000   0.71131282   -6.4264186    1037.8988  0.025672772  0.024907569            9 
 3370000   0.71273688   -6.4085528    1039.2893  0.025699539  0.024900129           19 
 3371000   0.69847394   -6.4530869    1037.9194   0.02565805  0.024892689           14 
 3372000   0.71139393   -6.4573166    1037.0334  0.025628544   0.02488524            5 
 3373000   0.70961197   -6.4308614    1038.7499  0.025663353  0.024877813            5 
 3374000   0.69832752   -6.4160586    1039.2684  0.025668554  0.024870396           28 
 3375000   0.71711945   -6.4429296    1038.5472  0.025643142  0.024862978            7 
 3376000   0.72060417   -6.4591169     1034.861  0.025544556  0.024855528           16 
 3377000   0.69792396   -6.4390773    1036.7442  0.025583461  0.024848073            7 
 3378000   0.70032515   -6.4402788    1036.1018   0.02556004  0.024840637           12 
 3379000   0.69934807   -6.4345323    1036.7031  0.025567306  0.024833211           14 
 3380000   0.73421339   -6.4380729    1036.9379   0.02556553  0.024825774           22 
 3381000   0.71527779   -6.4507256    1037.4183  0.025569809  0.024818319           12 
 3382000    0.7166613   -6.4443771    1036.4312  0.025537927  0.024810861           13 
 3383000   0.70384851   -6.4515344    1035.3637  0.025504083  0.024803403           10 
 3384000   0.72432966   -6.4308594    1037.8925  0.025558818  0.024795976           14 
 3385000   0.69619813   -6.4404085    1037.4159  0.025539535  0.024788503            9 
 3386000   0.71792247   -6.4442091    1037.6247  0.025537131  0.024781074           25 
 3387000   0.70562754   -6.4442971    1036.6643  0.025505962  0.024773624           14 
 3388000   0.71753729   -6.4196042    1038.8695  0.025552675  0.024766236           30 
 3389000   0.71601697   -6.4237757    1035.4297  0.025460551  0.024758857           20 
 3390000    0.7055495   -6.4266788    1039.8737  0.025562284  0.024751492           10 
 3391000   0.70598443   -6.4276574    1041.5207  0.025595219  0.024744122            8 
 3392000   0.72143169   -6.4645537    1037.1508  0.025480316   0.02473678           16 
 3393000   0.71278665   -6.4484885     1035.438   0.02543074  0.024729413           11 
 3394000   0.71337304   -6.4662595    1037.7623  0.025480316  0.024722036           29 
 3395000   0.69507517   -6.4450811    1035.6656  0.025421345   0.02471464           16 
 3396000   0.72104843   -6.4491122    1039.2233   0.02550116   0.02470724           11 
 3397000   0.70902263   -6.4577124    1036.2079  0.025419682  0.024699854           14 
 3398000   0.70723881   -6.4527137    1038.3452  0.025464616  0.024692467           17 
 3399000   0.72000564   -6.4797852    1038.8563  0.025469654  0.024685101           13 
 3400000   0.71384916   -6.4357172    1039.2288  0.025471295  0.024677694            7 
 3401000   0.70496708   -6.4504836    1041.9547  0.025530597  0.024670371           18 
 3402000   0.70293654   -6.4430459    1039.8007   0.02547033  0.024663038           21 
 3403000    0.7224917    -6.443522    1039.7201  0.025460871  0.024655702           16 
 3404000   0.70907857   -6.4189083    1038.9606  0.025434798  0.024648387            8 
 3405000   0.69874376   -6.4295592    1039.2681  0.025434853   0.02464106            6 
 3406000   0.70715098   -6.4415197    1038.8875  0.025418074  0.024633735           11 
 3407000    0.6969095   -6.4494276    1039.1724  0.025417581  0.024626401            8 
 3408000   0.71046231   -6.4367326    1041.0307  0.025455564  0.024619042           10 
 3409000   0.69599503   -6.4116401    1041.8309  0.025467658  0.024611685           19 
 3410000    0.7106025   -6.4368944    1039.6577  0.025407079  0.024604355            8 
 3411000   0.71538915   -6.4625146    1040.7086  0.025425306  0.024596981            9 
 3412000   0.70210685   -6.4654292    1036.7798  0.025321897  0.024589612            8 
 3413000   0.70124185   -6.4473661    1038.3382   0.02535253  0.024582213           11 
 3414000   0.69815582   -6.4680949    1037.8355  0.025332832   0.02457483           11 
 3415000   0.69839645   -6.4337881    1040.5609   0.02539192  0.024567489           19 
 3416000   0.70429337   -6.4734697    1036.9013   0.02529521  0.024560127           10 
 3417000   0.69633581   -6.4357021    1040.6385  0.025378952  0.024552752            7 
 3418000    0.7018739   -6.4372004    1038.8384  0.025327638  0.024545387            8 
 3419000   0.71489858   -6.4560123    1037.6858  0.025292136   0.02453804           10 
 3420000   0.70134309   -6.4490252    1036.5586  0.025257276  0.024530686           10 
 3421000   0.70044028   -6.4363227    1040.1921  0.025338401  0.024523351            6 
 3422000    0.7126119   -6.4162692    1041.8278  0.025370831  0.024516031            9 
 3423000    0.7091003   -6.4442457    1038.6449   0.02528593  0.024508688            7 
 3424000   0.69219228   -6.4683105    1037.2623  0.025244895  0.024501301           13 
 3425000   0.69530535   -6.4896895    1037.5837  0.025245344  0.024493913            6 
 3426000   0.70840255   -6.4646465    1038.4794  0.025259764  0.024486507            5 
 3427000    0.6993588   -6.4267394     1039.757  0.025283459  0.024479162           11 
 3428000   0.69487514   -6.4468346    1040.9861  0.025305963  0.024471859           15 
 3429000    0.6928447   -6.4491607    1039.9597   0.02527364   0.02446451           10 
 3430000   0.71210579   -6.4559999    1041.0112  0.025291817  0.024457154            4 
 3431000   0.71126412   -6.4407173    1037.0909  0.025189227  0.024449792            8 
 3432000    0.7135952   -6.4605792    1038.9856  0.025227894  0.024442465           20 
 3433000   0.70889377   -6.4725446     1038.155  0.025200384  0.024435101           38 
 3434000   0.69693212    -6.456203    1040.2688  0.025244342  0.024427772           30 
 3435000   0.69880093    -6.461104    1041.9428  0.025277603  0.024420458           16 
 3436000   0.71391816   -6.4721085    1040.3849  0.025232462  0.024413126           15 
 3437000   0.69900736   -6.4791544    1038.8192  0.025187159  0.024405809           12 
 3438000   0.70422805   -6.4800384    1036.9497  0.025134519  0.024398509           21 
 3439000   0.70601864   -6.4648062    1038.9065  0.025174626    0.0243912           18 
 3440000   0.70780695   -6.4799531    1039.7542  0.025187845  0.024383892           19 
 3441000   0.69051549   -6.4343869    1041.6069  0.025225392  0.024376618           14 
 3442000   0.69837359    -6.447414     1043.813  0.025271475  0.024369356           17 
 3443000    0.7098515   -6.4714204    1040.7659  0.025190384  0.024362064           22 
 3444000   0.70841303   -6.4668289    1040.0924  0.025166774  0.024354774           27 
 3445000    0.7002451   -6.4477996      1040.17  0.025161346  0.024347457           31 
 3446000   0.69741585   -6.4734619    1039.5527  0.025139116  0.024340135           13 
 3447000   0.70618077   -6.4554908    1040.6916  0.025159355  0.024332861           21 
 3448000   0.69790932   -6.4706252    1040.7582  0.025153668   0.02432555           11 
 3449000   0.69289312   -6.4708396    1038.2148  0.025084923  0.024318276           10 
 3450000   0.71692763   -6.4575553     1039.042  0.025097633  0.024310971           19 
 3451000   0.71061722    -6.503568     1039.053  0.025090626  0.024303654           13 
 3452000   0.70026082   -6.4489602     1041.429  0.025140716  0.024296358           16 
 3453000   0.69210186   -6.4825756    1041.1176  0.025125919  0.024289047           13 
 3454000   0.70378967   -6.4585533    1041.4901  0.025127631  0.024281726           18 
 3455000   0.69540985   -6.4678224    1040.5915  0.025098687   0.02427442            8 
 3456000    0.7226992   -6.4983724    1039.8117   0.02507262  0.024267102           10 
 3457000   0.69406141   -6.4875544    1039.1096  0.025048442  0.024259764           13 
 3458000   0.70407915   -6.4870544    1036.0801  0.024968192  0.024252454           18 
 3459000   0.68942737   -6.4567655    1039.4136  0.025041284  0.024245175           10 
 3460000   0.70795049   -6.4536338    1042.6332   0.02511159  0.024237886           29 
 3461000   0.69563188   -6.4931497    1040.0301  0.025041656  0.024230567            9 
 3462000   0.71009883   -6.4778383    1039.0571  0.025011004   0.02422324           14 
 3463000   0.68714893    -6.468815    1040.0164  0.025026865  0.024215955           13 
 3464000   0.68583557   -6.4660322    1037.7667  0.024965518  0.024208705           16 
 3465000   0.69500729    -6.433674     1043.333  0.025092184  0.024201434           30 
 3466000   0.69002805   -6.4888785    1039.5207  0.024993284  0.024194157           31 
 3467000   0.69940394   -6.4586238    1040.2564  0.025003759  0.024186869            9 
 3468000   0.67942199   -6.4683545     1039.335   0.02497441  0.024179569            4 
 3469000   0.68235378   -6.4693314    1039.4749  0.024970569  0.024172276            7 
 3470000   0.70285893   -6.4711659    1039.2403  0.024957739  0.024164962           16 
 3471000    0.7075424   -6.4580602    1039.3281  0.024952657  0.024157697           19 
 3472000   0.70776255    -6.463871    1043.2212  0.025038911  0.024150403           10 
 3473000   0.71095269   -6.4679454    1039.1231   0.02493337  0.024143112            5 
 3474000   0.69529762   -6.4765163    1039.1746  0.024927427  0.024135782           11 
 3475000   0.69778405   -6.4747507    1039.9298  0.024938364  0.024128477            9 
 3476000   0.69854464   -6.4894188    1038.9322  0.024907274   0.02412117           15 
 3477000   0.69925616    -6.462871    1041.0445  0.024950737  0.024113927           28 
 3478000   0.69233405   -6.4737412    1043.2858  0.024997263  0.024106642            9 
 3479000   0.70165524   -6.4789459    1040.6654   0.02492731  0.024099356            7 
 3480000   0.68811585   -6.4469086    1042.4115  0.024961961  0.024092054           14 
 3481000   0.68470302   -6.4869708    1041.4726  0.024932313  0.024084779           14 
 3482000   0.70622018   -6.4640037    1042.2186  0.024943008  0.024077511            7 
 3483000   0.69866201   -6.4289184     1042.435  0.024941023  0.024070286            9 
 3484000   0.71180077   -6.4513022    1043.3412  0.024955541  0.024063023           11 
 3485000   0.68801811   -6.4495836     1040.789  0.024887351  0.024055791            7 
 3486000   0.70153764   -6.4737351    1040.7733  0.024879835  0.024048561           10 
 3487000    0.7093753   -6.4778054    1042.7944  0.024921002  0.024041308           10 
 3488000     0.704558   -6.5057419     1039.446   0.02483386  0.024034009           10 
 3489000   0.69299394   -6.4796814    1040.4099  0.024849765  0.024026719           55 
 3490000   0.69853825     -6.45856    1041.7136  0.024873772   0.02401947           30 
 3491000   0.69026877   -6.4811098    1040.7627   0.02484395  0.024012236           10 
 3492000   0.69400392    -6.495965    1040.7649  0.024836887  0.024004953           10 
 3493000   0.69484167   -6.4551841    1041.7264  0.024852715  0.023997735           11 
 3494000   0.68945499   -6.4856461    1041.2948  0.024835309  0.023990514            5 
 3495000   0.68832682   -6.4831567    1041.3328  0.024829108  0.023983243           18 
 3496000   0.68076093   -6.4870698    1039.5892  0.024780444  0.023975987           33 
 3497000   0.68658265    -6.515948    1040.4348  0.024793508  0.023968752           12 
 3498000    0.6982005   -6.4868913    1038.1603  0.024732235  0.023961502            7 
 3499000   0.70035255   -6.4825952    1040.1957  0.024773643   0.02395426           11 
 3500000   0.68200567   -6.4990428     1041.994  0.024809381  0.023947019            8 
 3501000   0.69776206   -6.4816555    1040.8699  0.024775538  0.023939778           11 
 3502000   0.68883964   -6.4791325    1039.4526  0.024734737  0.023932521           17 
 3503000    0.6996107   -6.4794738     1040.613   0.02475528   0.02392528           11 
 3504000   0.70117213   -6.5019717    1039.1114  0.024712506  0.023918055            9 
 3505000   0.70417589   -6.4983693    1039.0663  0.024704381  0.023910811           10 
 3506000   0.70083807   -6.4817151    1041.9226  0.024765227   0.02390355            8 
 3507000   0.68432922   -6.4738212    1042.0446  0.024761063  0.023896316            7 
 3508000   0.68550439   -6.4704587    1042.5541  0.024766108  0.023889089           13 
 3509000   0.69299387   -6.4920238     1041.243  0.024727914  0.023881901           22 
 3510000   0.68690151    -6.491601    1040.5397  0.024704171  0.023874691           23 
 3511000   0.69598466   -6.4977859    1041.3217  0.024715696  0.023867483            7 
 3512000   0.69239503   -6.4896625    1039.7721   0.02467189  0.023860258           12 
 3513000   0.69784357   -6.5046652    1041.5229  0.024706399  0.023853022           16 
 3514000   0.69297982   -6.5055867    1041.6107  0.024701448  0.023845814           10 
 3515000   0.68014901    -6.494564    1038.6185  0.024623482  0.023838609           13 
 3516000   0.69268138   -6.4946145    1042.4975  0.024708415  0.023831405           13 
 3517000   0.68503429   -6.4843155    1044.7549   0.02475488  0.023824187           12 
 3518000   0.68847305   -6.5090965    1039.4045  0.024621102  0.023816963           10 
 3519000   0.67897789   -6.4848004    1039.6933  0.024620945  0.023809731           10 
 3520000   0.69252386   -6.4947112    1042.5361  0.024681253  0.023802522           15 
 3521000   0.69876755   -6.5008907    1039.0801  0.024592449  0.023795283           20 
 3522000   0.67975695   -6.5079833    1038.5657  0.024573293   0.02378805           11 
 3523000   0.68249377   -6.5050397    1039.9073  0.024598053  0.023780782           13 
 3524000   0.69417579   -6.5124687    1040.3053  0.024600484   0.02377352           21 
 3525000   0.66689465     -6.50386    1041.0325  0.024610698  0.023766256           27 
 3526000   0.67710479   -6.4997895    1041.1227   0.02460585  0.023759012           14 
 3527000   0.69802869    -6.496264     1040.796  0.024591154  0.023751822            6 
 3528000   0.69032579   -6.4588774    1043.0153  0.024636605  0.023744641            8 
 3529000   0.69441788   -6.4849148    1039.5726  0.024548328  0.023737483           11 
 3530000   0.68785154   -6.4844421    1040.1813  0.024555745  0.023730301           22 
 3531000   0.68896435   -6.4946506    1042.8015  0.024610628   0.02372316            7 
 3532000   0.68345096   -6.4910846    1040.7777  0.024555911  0.023716016            6 
 3533000   0.67367844   -6.4941163    1040.0457  0.024531695  0.023708854           20 
 3534000   0.69354921    -6.481918    1041.7327  0.024564532  0.023701657           15 
 3535000   0.68000539   -6.4991702     1041.332  0.024548137  0.023694452           23 
 3536000   0.68631809   -6.5144402    1041.0602  0.024534789  0.023687251           16 
 3537000   0.69027732   -6.4931787    1042.3842  0.024559048  0.023680043           23 
 3538000    0.6870743    -6.502326    1040.7966  0.024514712  0.023672841           40 
 3539000   0.68439772   -6.5199781    1042.2756   0.02454261  0.023665652           18 
 3540000   0.69204092   -6.5102194    1041.2495  0.024511524  0.023658466           29 
 3541000   0.68216037   -6.5293076    1041.1799  0.024502964  0.023651273           21 
 3542000   0.68203934   -6.5228994    1040.8269  0.024487741   0.02364409           39 
 3543000   0.68992527   -6.5135418    1040.4523  0.024472019    0.0236369           18 
 3544000    0.6809844   -6.4848133    1041.6286  0.024492772   0.02362974           20 
 3545000   0.68719136   -6.4918481    1043.1468  0.024521551  0.023622581           11 
 3546000   0.67675795   -6.4795959    1041.7612  0.024482074  0.023615425           14 
 3547000    0.6880418   -6.5012652    1040.6288  0.024448568   0.02360827           16 
 3548000   0.68096922   -6.4802004    1041.8883  0.024471259  0.023601098           10 
 3549000   0.68880334   -6.4669195    1044.0717   0.02451563  0.023593966            6 
 3550000   0.67114328   -6.5159306     1040.747   0.02443068  0.023586807           12 
 3551000   0.67956381   -6.4934295    1041.0186  0.024430174  0.023579676           19 
 3552000   0.66982833   -6.4974984    1042.6997  0.024462737  0.023572562           11 
 3553000   0.67870234   -6.4876406    1044.0692  0.024487972  0.023565423            6 
 3554000   0.69191523   -6.5108219    1041.7633  0.024427014  0.023558253           11 
 3555000   0.69931809   -6.5257341    1042.3873   0.02443477  0.023551071            7 
 3556000   0.67934558   -6.5175359    1041.0882  0.024397455  0.023543937           49 
 3557000   0.68048968   -6.5134715    1041.4357  0.024398736  0.023536798           14 
 3558000   0.67734073    -6.481903    1043.0016  0.024428556   0.02352969           11 
 3559000   0.66086563   -6.5188203    1043.1571  0.024425333  0.023522538           18 
 3560000    0.6932262   -6.4985804    1043.6903  0.024430953  0.023515414            7 
 3561000   0.67640524   -6.5193128    1040.3337  0.024345543   0.02350828            9 
 3562000   0.67928647   -6.4987243    1042.5566  0.024390712  0.023501139           10 
 3563000   0.68351606   -6.4938254    1042.1671  0.024374757  0.023494019           13 
 3564000   0.67525618   -6.5135858    1040.2576  0.024323271  0.023486896           18 
 3565000   0.68008451   -6.4868715    1044.0153  0.024404286  0.023479795           22 
 3566000   0.68715511   -6.5135303    1046.5089  0.024455713  0.023472667           17 
 3567000    0.6611233   -6.5106452    1042.5407  0.024356151   0.02346556           12 
 3568000   0.68824893   -6.5113616    1042.5275  0.024349016  0.023458453           20 
 3569000   0.68903051   -6.5078439    1042.3226  0.024337409  0.023451352            9 
 3570000   0.67289605   -6.4871098    1043.6613  0.024361841  0.023444221           10 
 3571000   0.66684499   -6.4959873    1044.1694  0.024366877  0.023437106           18 
 3572000   0.68558094   -6.5054311    1043.4561  0.024343415  0.023429999           13 
 3573000   0.67682837   -6.4960033    1045.1173  0.024375346  0.023422906            9 
 3574000   0.68290974   -6.4926762    1043.8346  0.024338616   0.02341583           18 
 3575000   0.68990965   -6.4810991    1042.0673  0.024290613  0.023408753           21 
 3576000   0.67947724   -6.4823828    1043.3128  0.024312844  0.023401682            8 
 3577000   0.67898704   -6.5007367     1044.218  0.024327137  0.023394574           17 
 3578000   0.67208155   -6.5045844     1043.756  0.024309576  0.023387473           10 
 3579000   0.68228547   -6.4814515    1044.8558  0.024328393  0.023380397            7 
 3580000   0.68087969   -6.5109203    1043.2979  0.024285334  0.023373321           22 
 3581000   0.67106519    -6.504808    1043.4407  0.024281875   0.02336623           14 
 3582000   0.67172938   -6.5490454    1040.6982  0.024211291  0.023359101           13 
 3583000   0.67385534   -6.5268422    1042.6949  0.024250975  0.023351989           17 
 3584000   0.68237438   -6.5184089     1040.159  0.024185244  0.023344875           13 
 3585000   0.67564494   -6.4997491    1043.1708  0.024248508  0.023337784           10 
 3586000   0.67032098    -6.537603    1038.8746  0.024141908  0.023330673           10 
 3587000   0.68336681   -6.5121131    1042.2041  0.024212529  0.023323568            9 
 3588000   0.69268059   -6.5208422    1042.1703  0.024204995  0.023316482           19 
 3589000   0.67575586   -6.5001746    1042.9604  0.024216596  0.023309413           11 
 3590000   0.68190563   -6.5208172    1042.2302  0.024192902  0.023302348            9 
 3591000   0.66430322   -6.5230229    1041.6928  0.024173694  0.023295277           16 
 3592000    0.6807722   -6.5438563    1041.7371  0.024167991   0.02328822           15 
 3593000    0.6666254   -6.4999154    1046.4309   0.02427013  0.023281153           18 
 3594000   0.67554367   -6.5292817    1042.9366  0.024182356  0.023274094            7 
 3595000   0.66975452   -6.5293804    1040.2017  0.024112232  0.023267015           30 
 3596000   0.67570942   -6.5066016    1043.1464  0.024173767  0.023259925           12 
 3597000   0.67279907   -6.5303184    1043.6729  0.024179245  0.023252868           14 
 3598000   0.67363587   -6.5362084    1042.0534  0.024135014  0.023245782           11 
 3599000   0.68112127   -6.5311135    1041.6695  0.024119419  0.023238706           11 
 3600000   0.66304723   -6.5253509    1042.4768  0.024131406  0.023231637           28 
 3601000   0.66672281   -6.5294633    1044.3181  0.024167317   0.02322458           29 
 3602000   0.68574678   -6.5380888    1042.8802  0.024127341  0.023217524            9 
 3603000   0.66957596     -6.53568    1042.8833  0.024120717  0.023210517           10 
 3604000   0.67484477   -6.5312747    1044.4218  0.024149599  0.023203486           19 
 3605000   0.66249789    -6.536121    1043.5986  0.024123869  0.023196434           12 
 3606000   0.66825296   -6.5359547    1043.6274  0.024117846  0.023189392           15 
 3607000   0.67849927   -6.5339879    1043.5137  0.024108531  0.023182342           14 
 3608000   0.67315036   -6.5124738    1044.8292  0.024132234  0.023175277           15 
 3609000   0.68647364   -6.5358701    1043.1902  0.024087702  0.023168224           18 
 3610000   0.67906589   -6.5433038    1043.9937  0.024099579  0.023161159           18 
 3611000   0.66993623   -6.5370149    1044.5035  0.024104668  0.023154107           77 
 3612000   0.67720842   -6.5699556    1044.3856  0.024095276  0.023147047           37 
 3613000   0.66493117   -6.5225703     1046.033  0.024126602  0.023140033           15 
 3614000   0.67350108   -6.5316757    1043.5767  0.024063288  0.023133019           16 
 3615000    0.6737315   -6.5300709    1042.6019  0.024034161  0.023126019           10 
 3616000   0.67288719   -6.5246296    1044.5499  0.024072409   0.02311902           15 
 3617000   0.68265649    -6.523218    1042.0432  0.024007999  0.023111998           17 
 3618000    0.6662246   -6.5427115    1044.5961  0.024060163  0.023104992           21 
 3619000   0.66494011   -6.5721091    1040.0319  0.023948418   0.02309799           33 
 3620000   0.66528625    -6.559442    1042.6176  0.024001325  0.023090967           26 
 3621000   0.67568211   -6.5669686    1043.2177  0.024008509  0.023083927           41 
 3622000   0.66999573   -6.5424039    1042.8091  0.023992478  0.023076881           13 
 3623000   0.67322426   -6.5150483     1045.107  0.024038711  0.023069856            9 
 3624000   0.67600737   -6.5124964    1046.2833  0.024059127  0.023062861           12 
 3625000   0.67969938    -6.523035    1044.2466  0.024005669  0.023055884           11 
 3626000   0.66158695   -6.5388028     1043.258  0.023976328  0.023048892            9 
 3627000   0.67452181   -6.5532821    1043.3026  0.023970742  0.023041843           13 
 3628000   0.65897534   -6.5508494    1041.8188  0.023930053  0.023034845            6 
 3629000   0.66752968   -6.5323102    1046.7305  0.024036248  0.023027864           14 
 3630000   0.66373235   -6.5279303    1044.2957   0.02397373  0.023020903           23 
 3631000   0.67149837   -6.5308603    1045.0056   0.02398342  0.023013948           10 
 3632000   0.66430308   -6.5224392    1045.9174  0.023997738  0.023006985           16 
 3633000    0.6563921   -6.5232902    1042.9769  0.023923683  0.023000033           22 
 3634000   0.67588855   -6.5476944    1046.0699  0.023988028  0.022993086           16 
 3635000   0.66307421   -6.5441945    1046.1159  0.023982483   0.02298613           28 
 3636000   0.66241257   -6.5435662    1046.1543  0.023976766  0.022979185           17 
 3637000   0.66657321   -6.5182723    1046.1811  0.023970789  0.022972219           15 
 3638000   0.67830602   -6.5474484    1043.2028  0.023895978  0.022965234           20 
 3639000   0.67091129    -6.551462    1043.8273  0.023903711  0.022958262           11 
 3640000   0.67347644   -6.5265319    1046.7042  0.023963008  0.022951309           10 
 3641000   0.65957224   -6.5409262    1045.3914  0.023926381  0.022944359           24 
 3642000   0.67649327    -6.541656    1047.1344  0.023959692  0.022937418           13 
 3643000   0.68788003   -6.5220881    1047.6475  0.023964852   0.02293051            8 
 3644000   0.67463988   -6.5756869     1044.798  0.023893112  0.022923568           19 
 3645000    0.6696063   -6.5543216    1047.9859  0.023959439  0.022916642           30 
 3646000   0.66468368    -6.564502    1044.9299   0.02388302  0.022909718           11 
 3647000   0.65289988   -6.5495204    1044.9384  0.023876665  0.022902799           37 
 3648000    0.6728442   -6.5259881    1047.0232  0.023917745  0.022895885           27 
 3649000   0.67624594   -6.5487925    1045.7293  0.023881641   0.02288898           18 
 3650000   0.66469694   -6.5716281    1044.9119  0.023856436  0.022882062           25 
 3651000   0.66208987   -6.5728412     1047.421  0.023907172  0.022875122           18 
 3652000   0.66497966   -6.5635225      1045.06   0.02384675  0.022868217           19 
 3653000   0.66891691   -6.5619143    1045.5421   0.02385122  0.022861341           33 
 3654000   0.66359383   -6.5517124    1045.4431  0.023842435  0.022854447           33 
 3655000   0.65472842   -6.5390792    1047.6083  0.023885277  0.022847553           32 
 3656000   0.66750571   -6.5471404    1048.4465   0.02389785  0.022840651           12 
 3657000   0.66187196   -6.5528112    1045.4955   0.02382407  0.022833746           28 
 3658000   0.67487968   -6.5454667      1046.82   0.02384773  0.022826836           31 
 3659000   0.64994105   -6.5603387    1045.9528  0.023821463  0.022819911           19 
 3660000   0.69136935   -6.5843693    1043.7093  0.023763873  0.022812989           38 
 3661000   0.67787116   -6.5623463    1045.3673  0.023795123  0.022806092           64 
 3662000    0.6601249    -6.515244    1050.5937  0.023907556  0.022799214           29 
 3663000   0.65245237   -6.5713748    1045.7521  0.023790884  0.022792365           46 
 3664000    0.6510949   -6.5674116    1045.1344  0.023770342  0.022785441           16 
 3665000    0.6611381   -6.5796359    1045.0943  0.023762945  0.022778495           19 
 3666000   0.66237152   -6.5436665    1048.0098  0.023822735  0.022771604           18 
 3667000   0.66910871   -6.5836716    1045.8267  0.023766627   0.02276473           28 
 3668000   0.68253437   -6.5522633    1045.7818  0.023759127   0.02275782           28 
 3669000    0.6733501    -6.574103    1045.1066  0.023737318   0.02275092           21 
 3670000   0.66318233   -6.5816331    1047.7062  0.023789877  0.022744009           13 
 3671000   0.66701045   -6.5391676    1047.3213   0.02377466  0.022737133           21 
 3672000   0.67790806   -6.5778196    1044.0008  0.023692828  0.022730224           16 
 3673000    0.6515426   -6.5463698    1046.1628  0.023735431  0.022723317           32 
 3674000   0.66498965   -6.5609592     1046.138  0.023728408  0.022716415           12 
 3675000    0.6649328   -6.5698444     1047.321  0.023748775  0.022709529           19 
 3676000   0.65162266   -6.5638178    1045.5854   0.02370297  0.022702632           14 
 3677000    0.6525578   -6.6093335     1043.735  0.023654588  0.022695719           16 
 3678000   0.66522726   -6.5479026    1043.4902   0.02364261   0.02268882           22 
 3679000   0.66444739   -6.5961884    1043.6289  0.023639325   0.02268189           18 
 3680000   0.65538041   -6.5671677    1046.7153  0.023702792  0.022674967           18 
 3681000   0.65419019   -6.5495368     1046.081  0.023681992  0.022668077           13 
 3682000   0.65172954   -6.5718738    1044.6246  0.023642599  0.022661179           13 
 3683000   0.65985147   -6.5442865    1048.5405  0.023724782  0.022654282           22 
 3684000   0.65188675   -6.5406166    1045.9311  0.023659317  0.022647415           17 
 3685000   0.66927359   -6.5693939    1045.1383  0.023634968  0.022640536           11 
 3686000   0.64730468   -6.5437688    1047.9161  0.023691357  0.022633679           20 
 3687000   0.66233511   -6.5729624    1045.7038   0.02363493  0.022626836           12 
 3688000   0.65710087   -6.5739835    1044.3567  0.023598081  0.022619986           14 
 3689000   0.66283154   -6.5554474    1046.1531  0.023632265   0.02261311           13 
 3690000   0.64336779   -6.5844669    1042.4823  0.023542961  0.022606242           29 
 3691000   0.66662221   -6.5895457    1046.4059  0.023625166  0.022599379           25 
 3692000   0.66822941   -6.5630082    1044.9916  0.023586846  0.022592534           11 
 3693000   0.66862899    -6.570808    1046.0298  0.023603885  0.022585645           19 
 3694000   0.65987631   -6.5637187    1047.2602  0.023625253  0.022578777           13 
 3695000   0.66882375   -6.5841546    1045.5723  0.023580791  0.022571894            9 
 3696000   0.67751523   -6.5666491    1044.6997  0.023554736  0.022565018           14 
 3697000     0.658922   -6.5721182    1046.7693  0.023595017   0.02255815           45 
 3698000   0.67346787   -6.5676877    1048.4016  0.023625419   0.02255127           13 
 3699000   0.66202489   -6.5603089    1046.4722  0.023575565  0.022544412           19 
 3700000   0.65535688   -6.5812539    1045.3159   0.02354315  0.022537541           26 
 3701000    0.6653466   -6.5463763    1047.3343  0.023582237  0.022530667           62 
 3702000   0.64433268   -6.5950783    1045.5375   0.02353542  0.022523788           43 
 3703000   0.65190758   -6.5750276    1046.0224  0.023539976  0.022516914           22 
 3704000   0.65527033   -6.6061888    1045.1005   0.02351288  0.022510043           28 
 3705000   0.65332887   -6.6097099    1045.1888  0.023508519  0.022503167           28 
 3706000    0.6639805   -6.6121486    1042.9027  0.023450771  0.022496296           16 
 3707000   0.65186857   -6.6068547    1044.9854  0.023491264  0.022489409           21 
 3708000   0.66783061   -6.5779484     1046.439  0.023517597  0.022482556           39 
 3709000   0.66271292   -6.5961339    1046.7488  0.023518216  0.022475724           24 
 3710000   0.65074799   -6.5854154    1046.7282  0.023511414   0.02246889           20 
 3711000   0.67253746   -6.6183998    1045.3966  0.023475177  0.022462053           26 
 3712000   0.65750682   -6.6109509    1046.0516  0.023483557  0.022455219           33 
 3713000   0.66220317   -6.5694407    1047.6044  0.023512084   0.02244837           36 
 3714000   0.67131121   -6.5940617    1046.3086  0.023476679  0.022441532           17 
 3715000   0.64962241   -6.6098324    1044.7539  0.023435485  0.022434705           18 
 3716000   0.66752734   -6.5974205    1044.2077  0.023416929  0.022427859           11 
 3717000   0.65599769   -6.5782555    1046.6131  0.023464557  0.022421022           13 
 3718000   0.64696071   -6.5799696    1046.6229  0.023458465  0.022414223           27 
 3719000   0.64291029   -6.5901262    1045.0744  0.023417461  0.022407433           20 
 3720000   0.64705329   -6.6122283    1046.3406   0.02343953  0.022400642           24 
 3721000   0.65796067    -6.600306    1047.7865  0.023465611  0.022393835           31 
 3722000   0.66689916   -6.6123705     1046.745  0.023435988  0.022387003           62 
 3723000   0.65473697   -6.6067576    1045.1919  0.023394931  0.022380187           26 
 3724000   0.66947925   -6.5790697    1047.5519  0.023441459  0.022373383           15 
 3725000   0.64629635   -6.5943413    1047.1947  0.023427174  0.022366576           15 
 3726000   0.65637841   -6.5963542    1046.8495  0.023413167  0.022359777           15 
 3727000   0.65497586   -6.5942022    1047.6084  0.023423852  0.022352987           14 
 3728000   0.65935265   -6.5934861    1046.9433  0.023402703  0.022346186           15 
 3729000   0.64402587   -6.5949065    1045.7572   0.02336992  0.022339417           15 
 3730000    0.6561572   -6.5753687    1048.6118  0.023427431  0.022332628           40 
 3731000   0.65726493   -6.5915848    1048.4703  0.023417991  0.022325868           10 
 3732000   0.66517432   -6.5807613    1047.0075  0.023379052  0.022319088           21 
 3733000   0.65266176   -6.5837009    1045.5258  0.023339713  0.022312349           20 
 3734000   0.64097312   -6.5823768     1046.193  0.023348353  0.022305582            8 
 3735000   0.65713683   -6.5716833    1047.0737  0.023361752  0.022298823           20 
 3736000   0.66104665   -6.5425718    1050.2577  0.023426518  0.022292103           37 
 3737000   0.65757273   -6.5824722    1047.1993  0.023352049   0.02228539           30 
 3738000   0.66764355   -6.5748997    1048.7595  0.023380584  0.022278656           24 
 3739000   0.66616027   -6.5829693    1048.0437  0.023358377  0.022271908           16 
 3740000   0.66069514   -6.5681087    1048.2233  0.023356134  0.022265169           12 
 3741000   0.65897079   -6.5811835    1045.1173  0.023280703  0.022258406           18 
 3742000   0.65514289   -6.5918776    1046.6315  0.023308202  0.022251639           14 
 3743000   0.64455576   -6.5951192    1048.9417  0.023353408  0.022244882            9 
 3744000    0.6517592   -6.5600654    1047.6762  0.023319005  0.022238143           14 
 3745000   0.66082611    -6.599064    1048.0577  0.023321265  0.022231373           28 
 3746000   0.65701352    -6.598598    1046.5781  0.023282126  0.022224585           11 
 3747000   0.65048523   -6.6122157    1046.3197  0.023270164  0.022217788           15 
 3748000    0.6494957    -6.576598    1045.1991  0.023239041  0.022211046           19 
 3749000   0.65513112    -6.584932     1047.817  0.023291034  0.022204288           11 
 3750000   0.67086844   -6.5753192    1046.6573  0.023259051  0.022197541            7 
 3751000   0.64747709     -6.59506     1047.809  0.023278437  0.022190803           17 
 3752000   0.66126494   -6.5842939      1045.29  0.023216284  0.022184063           22 
 3753000   0.65158339   -6.6039435     1045.061  0.023205013   0.02217729           12 
 3754000   0.63894028   -6.5881879    1046.3105  0.023226569  0.022170514           35 
 3755000   0.64261615   -6.5993494    1045.9558  0.023212513  0.022163726           34 
 3756000   0.65117405   -6.5928771    1046.2795  0.023213515   0.02215697           20 
 3757000   0.64520776   -6.5987983    1046.5111  0.023212472   0.02215024           14 
 3758000   0.64535425    -6.578612    1047.2429  0.023222522  0.022143484           11 
 3759000   0.63809241   -6.5854142    1044.8397  0.023163069  0.022136736           21 
 3760000   0.65040281   -6.5702565    1046.5621  0.023195083  0.022129969           23 
 3761000   0.65395667   -6.5813001    1045.8908  0.023174042  0.022123222            9 
 3762000   0.66147903    -6.588798    1046.8277  0.023188634  0.022116471           10 
 3763000   0.65812446   -6.5873208    1046.6205  0.023177882  0.022109717           12 
 3764000   0.62853389    -6.581367    1047.2873  0.023186489  0.022102976           37 
 3765000   0.66161609   -6.6056645    1048.0864  0.023198016  0.022096248           23 
 3766000   0.64408087    -6.603429    1045.9008  0.023143495  0.022089499           29 
 3767000   0.63426926   -6.5930395    1044.9095   0.02311542  0.022082753           18 
 3768000   0.63669385   -6.6054622    1047.0836   0.02315737  0.022075995           20 
 3769000   0.64095797   -6.6490164    1044.9423   0.02310388  0.022069225           33 
 3770000   0.65327498   -6.5971399    1047.4844  0.023153944  0.022062444           14 
 3771000   0.65711768   -6.5970659    1049.5727  0.023193952  0.022055688           35 
 3772000   0.64163484   -6.5956183    1047.9205  0.023151301  0.022048939           19 
 3773000   0.66091467   -6.6155432    1047.4511  0.023134798  0.022042189           22 
 3774000   0.66015118   -6.5833857    1047.6166  0.023132322  0.022035435           18 
 3775000   0.65412653   -6.6371169    1045.0034  0.023068508  0.022028686           30 
 3776000   0.63938812   -6.6112246      1044.69  0.023055482  0.022021894           20 
 3777000   0.63939223   -6.6217928    1047.8787  0.023119732  0.022015103           43 
 3778000   0.63414021   -6.6293598    1044.1671  0.023031743  0.022008307           24 
 3779000   0.65250723   -6.6362065      1045.64  0.023058129  0.022001503           44 
 3780000   0.64190611   -6.6399263    1045.5766   0.02305063  0.021994728           54 
 3781000   0.64308942   -6.5833459      1047.25  0.023081415  0.021987976           33 
 3782000    0.6384969   -6.5987563    1047.0938   0.02307187  0.021981243           28 
 3783000   0.64646137   -6.6155076    1045.8608  0.023038611  0.021974525           51 
 3784000   0.64028483   -6.6224476    1046.6848   0.02305067  0.021967775           30 
 3785000   0.63305808   -6.5733365    1047.1979  0.023055875  0.021961032           13 
 3786000   0.64903806   -6.5765352    1047.7874  0.023062763  0.021954327           22 
 3787000   0.63114272   -6.5942149    1046.6172  0.023030922  0.021947636           20 
 3788000   0.62125976   -6.6153319    1047.3307  0.023040538  0.021940941           73 
 3789000   0.64333339   -6.6051486    1047.7416  0.023043494   0.02193422           39 
 3790000   0.65608332   -6.6098208    1047.5634  0.023033497  0.021927492           34 
 3791000   0.64196918   -6.5844098     1047.681  0.023030005  0.021920787           29 
 3792000   0.63025947   -6.6016225    1046.3802  0.022995346  0.021914074           22 
 3793000   0.63991463   -6.6094342    1046.8503  0.022999612  0.021907351           16 
 3794000   0.66113368   -6.6145975    1047.3852  0.023005298  0.021900646           21 
 3795000   0.64295632   -6.6164848    1046.1015  0.022971047  0.021893936           23 
 3796000   0.64779663   -6.6257045    1048.3475  0.023014302  0.021887246           11 
 3797000   0.63779541   -6.6185459    1046.7268  0.022972671  0.021880536           14 
 3798000   0.64486524   -6.6185406    1045.8862  0.022948178  0.021873834           29 
 3799000   0.63741427   -6.5894018     1045.687   0.02293777  0.021867104           40 
 3800000   0.64813746   -6.6251557    1045.7211   0.02293248  0.021860384           19 
 3801000   0.64888693   -6.6336202    1045.4351  0.022920176   0.02185366           21 
 3802000   0.65645367   -6.6295309    1044.3625   0.02289064  0.021846948           27 
 3803000   0.64359406    -6.632171    1046.1399  0.022923567  0.021840256           26 
 3804000   0.63350746   -6.6053818     1047.865  0.022955332  0.021833548           21 
 3805000    0.6392379   -6.5914819    1043.9543   0.02286365  0.021826857           31 
 3806000   0.65667787   -6.6107634    1046.2364  0.022907611  0.021820174           12 
 3807000   0.63429625    -6.604859    1048.1129  0.022942669  0.021813478           13 
 3808000    0.6468025    -6.614943    1049.2269  0.022961022  0.021806812           22 
 3809000   0.64031916   -6.6076157    1047.6269   0.02291999  0.021800125           18 
 3810000   0.64530657   -6.6138413    1048.7749  0.022939083  0.021793446           19 
 3811000   0.63866229   -6.5969489    1046.4067  0.022881279   0.02178674           24 
 3812000   0.65081909   -6.6060943    1047.0141  0.022888555  0.021780075           24 
 3813000   0.65233897   -6.6101919    1046.9699  0.022881587    0.0217734           15 
 3814000   0.64464562   -6.6240229    1045.3588  0.022840386  0.021766719           26 
 3815000    0.6562331   -6.6312474    1045.4133   0.02283559  0.021760028           35 
 3816000   0.63729707   -6.6146793    1046.1706  0.022846142  0.021753323           29 
 3817000   0.63664875   -6.5977955    1047.4857   0.02286887  0.021746634           14 
 3818000    0.6389282   -6.6133155    1048.0416  0.022875014  0.021739949           17 
 3819000   0.63978597   -6.6477575    1046.8877  0.022843844  0.021733231           21 
 3820000   0.65130888   -6.6326089    1043.8217  0.022770979  0.021726503           27 
 3821000   0.63794656   -6.6415218    1046.7103  0.022828018  0.021719785           21 
 3822000   0.63840541   -6.6101455    1048.2828  0.022856332  0.021713096           20 
 3823000   0.63593995   -6.6193021     1045.999  0.022800572  0.021706383           11 
 3824000   0.64114499   -6.6136205    1046.0084  0.022794813  0.021699707           32 
 3825000   0.63920815   -6.6237798    1043.3233  0.022730355  0.021692999           24 
 3826000   0.64406786   -6.6143989     1046.316  0.022789597  0.021686302           25 
 3827000   0.65681659   -6.6134508    1046.5092  0.022787849  0.021679617           41 
 3828000    0.6451966   -6.6046731    1044.5075  0.022738321  0.021672924           28 
 3829000   0.63596811   -6.6398109     1046.694  0.022779968  0.021666214           36 
 3830000   0.64235528   -6.6124734    1045.5612  0.022749373  0.021659508           25 
 3831000   0.64522338   -6.6297777    1047.2486   0.02278014  0.021652834           57 
 3832000   0.65038607   -6.6048437    1045.8699  0.022744213  0.021646133           20 
 3833000   0.63770983     -6.62888    1044.0073  0.022697784   0.02163944           48 
 3834000   0.62434453   -6.6277172    1044.2142  0.022696362  0.021632752           34 
 3835000    0.6402067   -6.6746977    1042.4296  0.022651664  0.021626042           45 
 3836000   0.63879738   -6.6276182    1048.3008  0.022773305  0.021619337           51 
 3837000    0.6358001   -6.6229264     1043.932  0.022672488  0.021612649           21 
 3838000   0.64409629   -6.6276719     1043.345  0.022653835   0.02160594           32 
 3839000   0.63142471   -6.6219641    1047.7068  0.022742615  0.021599258           31 
 3840000   0.63919803   -6.6202474    1046.0936  0.022701684  0.021592567           36 
 3841000   0.64184591   -6.6268713    1046.6271  0.022707348   0.02158589           28 
 3842000   0.65288706   -6.5921301    1046.0445  0.022688801  0.021579225           32 
 3843000   0.63650392   -6.6259879    1043.8712   0.02263577  0.021572537           58 
 3844000   0.63348281   -6.6415103    1044.8497  0.022651095  0.021565857           18 
 3845000    0.6385351   -6.6409409    1043.8013  0.022622481  0.021559152           42 
 3846000    0.6408124   -6.6159186    1044.8726  0.022639812   0.02155247           58 
 3847000   0.62202417    -6.647943    1044.5912  0.022627831  0.021545767           37 
 3848000   0.63136558   -6.6464687    1043.1595  0.022590946  0.021539055           18 
 3849000   0.63651149   -6.6314394    1042.7625   0.02257648  0.021532333           30 
 3850000   0.62290362    -6.631531    1045.0441  0.022620003  0.021525628           12 
 3851000   0.64314388   -6.6417536    1044.3118  0.022598281  0.021518927           24 
 3852000   0.63237412   -6.6529052    1043.9236  0.022584016  0.021512237           24 
 3853000   0.62919991   -6.6545326    1043.3471  0.022565688  0.021505512           24 
 3854000   0.63159074    -6.628209    1046.1045  0.022619454  0.021498818           22 
 3855000   0.63752921    -6.637914    1045.7212    0.0226053  0.021492116           34 
 3856000   0.63420438   -6.6597952    1041.9616  0.022518187    0.0214854           38 
 3857000   0.64726951   -6.6533984     1044.685  0.022571192  0.021478691           25 
 3858000   0.63992294   -6.6429047    1042.8797  0.022526345  0.021471975           33 
 3859000   0.62666832   -6.6443448    1043.2176  0.022527804  0.021465281           95 
 3860000   0.63723061   -6.6339584    1044.5171  0.022550023  0.021458569           42 
 3861000   0.61978276   -6.6615454    1042.9306   0.02250994  0.021451873           63 
 3862000   0.64203004   -6.6503925    1044.6221  0.022540612  0.021445183           49 
 3863000   0.62698623   -6.6331265    1045.2518   0.02254836  0.021438484           38 
 3864000   0.63346531   -6.6193024    1045.3799  0.022545288  0.021431827           17 
 3865000   0.62092478   -6.6365146    1046.3872  0.022561173   0.02142517           31 
 3866000   0.64465497   -6.6171883    1044.7244  0.022519495  0.021418512           33 
 3867000   0.64604104   -6.6380121    1045.1698  0.022523269  0.021411875           30 
 3868000   0.63750627   -6.6357623    1042.8139  0.022466689  0.021405237           30 
 3869000   0.62756935   -6.6246339    1045.1562  0.022511333  0.021398575           27 
 3870000   0.63288372    -6.642231    1044.5348  0.022492137  0.021391896           22 
 3871000   0.62232961   -6.6099274    1045.1359  0.022499265   0.02138525           46 
 3872000   0.61889691   -6.6243493    1043.1348  0.022450387  0.021378596           77 
 3873000   0.61851645   -6.6290458    1041.3809  0.022406853  0.021371959           23 
 3874000    0.6344434   -6.6209245    1047.8004  0.022539158  0.021365311           45 
 3875000    0.6362707   -6.6216781    1045.5793  0.022485576  0.021358664           34 
 3876000   0.63805189   -6.6256797    1044.5752  0.022458188  0.021352042           14 
 3877000   0.63206665   -6.6517912    1040.7452  0.022370071  0.021345424           46 
 3878000   0.63658056   -6.6305844    1044.7791  0.022450986  0.021338761           49 
 3879000     0.634585   -6.6405452    1042.2473  0.022390807  0.021332101           42 
 3880000   0.62561968   -6.6443351      1044.48   0.02243299  0.021325453           48 
 3881000   0.62909243   -6.6311807    1044.4618  0.022426818  0.021318806           24 
 3882000   0.62327028   -6.6422731    1046.0017  0.022454097  0.021312144           55 
 3883000   0.61799854   -6.6445239    1045.4993  0.022437534  0.021305494           47 
 3884000   0.64993009   -6.6482373    1045.2613  0.022426649  0.021298815           61 
 3885000   0.63754949   -6.6648125    1041.9623  0.022350114  0.021292147           24 
 3886000   0.63615869   -6.6543182    1042.6739  0.022359622  0.021285479           41 
 3887000   0.62943137   -6.6694333    1042.5026  0.022350198    0.0212788           23 
 3888000   0.62160055    -6.636291    1045.2356  0.022403026  0.021272133           56 
 3889000   0.63823304   -6.6494173     1044.691  0.022385597   0.02126548          114 
 3890000   0.64333437   -6.6579092    1043.0345  0.022344354  0.021258799           89 
 3891000   0.63421296   -6.6655754    1043.7811  0.022354601  0.021252118           52 
 3892000   0.63641061   -6.6633151    1045.2169  0.022379602  0.021245448           31 
 3893000   0.61330123    -6.656058    1044.6155  0.022360979  0.021238774           18 
 3894000    0.6331806   -6.6693188    1044.9592  0.022362593  0.021232109           39 
 3895000   0.62746944   -6.6419267    1042.3431  0.022300879  0.021225438           45 
 3896000   0.63677533   -6.6510698    1042.4661  0.022297786  0.021218775           83 
 3897000   0.62925157   -6.6711825    1043.2028  0.022307818  0.021212121           97 
 3898000   0.62565405   -6.6555329    1044.2332  0.022324124  0.021205453           71 
 3899000   0.62749309   -6.6673677    1043.7304  0.022307652  0.021198772           48 
 3900000   0.62755604   -6.6551572    1041.8318  0.022261363  0.021192102           68 
 3901000   0.62146591   -6.6876467    1043.0761  0.022282237  0.021185437           42 
 3902000   0.63951983   -6.6795395     1041.205  0.022236567  0.021178756           38 
 3903000   0.63136835   -6.6839134    1042.2988  0.022254223  0.021172075           41 
 3904000   0.63884791   -6.6849532    1042.2871  0.022248274   0.02116538           46 
 3905000   0.63349265   -6.6971549    1041.5211   0.02222623  0.021158708           42 
 3906000   0.62985426   -6.6609116    1043.6059  0.022265018  0.021152045           45 
 3907000   0.63055932   -6.6694256    1041.9478  0.022223952  0.021145403           41 
 3908000   0.62818462   -6.6677415    1041.4184  0.022206978  0.021138756           26 
 3909000   0.61512574   -6.6340888    1041.7011  0.022207323  0.021132111           44 
 3910000   0.63378493   -6.6390895    1044.0843  0.022252436  0.021125493           78 
 3911000   0.62586452   -6.6784301     1044.131  0.022247741  0.021118861           58 
 3912000   0.63496056   -6.6914189    1042.3433  0.022203972  0.021112225           48 
 3913000   0.63079442   -6.6701839    1044.0576  0.022234807  0.021105595           46 
 3914000   0.62783605   -6.6735641     1043.835  0.022224386  0.021098975           37 
 3915000   0.62249553   -6.6916459    1042.1332  0.022182486  0.021092325           56 
 3916000   0.63585273   -6.6775321     1042.586  0.022186456   0.02108571           49 
 3917000   0.63122516   -6.6715667    1043.0779  0.022191257  0.021079076           51 
 3918000   0.63017471   -6.6642756    1043.4217  0.022192907   0.02107245           42 
 3919000    0.6271501   -6.6556059    1042.7569  0.022173108  0.021065848           40 
 3920000   0.61851936   -6.6818932    1040.5782  0.022121135  0.021059222           47 
 3921000   0.63411639    -6.648958    1046.3303  0.022237743  0.021052611           48 
 3922000   0.63460341   -6.6707003    1043.2706  0.022167061  0.021046036           73 
 3923000   0.62604607   -6.6730348    1042.3577  0.022142019  0.021039429           23 
 3924000   0.64268628   -6.6896958     1043.052  0.022151122  0.021032805           15 
 3925000   0.63224543   -6.6552413    1045.6977   0.02220165    0.0210262           19 
 3926000   0.61986072   -6.6791601    1039.7635  0.022070036    0.0210196           43 
 3927000   0.62372341   -6.6864456    1044.5787  0.022166596  0.021013014           16 
 3928000   0.63554058   -6.6742979    1041.2605  0.022090556  0.021006439           26 
 3929000   0.62274865   -6.6620888    1041.5703  0.022091506  0.020999848           38 
 3930000   0.62944556   -6.6870006    1042.0705  0.022096491  0.020993251           51 
 3931000   0.61649189   -6.6834043    1043.3316  0.022117605  0.020986612           76 
 3932000   0.61553721   -6.6865373    1043.0319  0.022105627  0.020979999           35 
 3933000   0.61017331   -6.6833416    1044.4207  0.022129433  0.020973396           48 
 3934000   0.63812142    -6.689983    1042.3562  0.022080076  0.020966795           25 
 3935000    0.6428898   -6.6616513    1044.1801  0.022113089  0.020960202           19 
 3936000   0.62018205   -6.6796624    1042.8149  0.022078567  0.020953631           23 
 3937000   0.61124634   -6.6738684    1043.8694  0.022095279  0.020947058           69 
 3938000   0.60321964   -6.6625326    1044.8648  0.022110733  0.020940488           58 
 3939000   0.62557133   -6.6784662    1045.3546  0.022115481  0.020933908           68 
 3940000   0.61578329   -6.6807104    1044.9922  0.022102205  0.020927325           38 
 3941000   0.61744254   -6.6906438    1044.1098  0.022077938  0.020920757           33 
 3942000   0.62346205   -6.6933066     1043.613  0.022061834  0.020914193           50 
 3943000   0.62119337   -6.6757687    1045.2645  0.022091143  0.020907636           80 
 3944000   0.61989715   -6.6842352    1041.7696  0.022011698  0.020901068           48 
 3945000   0.62494531   -6.6834439    1042.4605  0.022020712  0.020894488           16 
 3946000   0.60839627   -6.6582848    1044.2734  0.022053418  0.020887919           31 
 3947000   0.61356417    -6.669027    1041.4037  0.021987242  0.020881336           55 
 3948000   0.59837485   -6.6918645    1043.0304  0.022016008  0.020874759           42 
 3949000   0.61631529   -6.6633623    1045.5151  0.022062865  0.020868195           38 
 3950000   0.61502746     -6.68932    1042.6815    0.0219975  0.020861648           55 
 3951000   0.62050485   -6.6982409    1042.0394  0.021978389  0.020855083           81 
 3952000   0.61878523   -6.6758487    1042.5383  0.021983349  0.020848506           24 
 3953000   0.61759554    -6.691485    1044.0897  0.022010493  0.020841954           29 
 3954000   0.61917172   -6.6744697     1043.743  0.021997619  0.020835396           33 
 3955000   0.62379313   -6.6600578    1042.3091  0.021961843   0.02082886           33 
 3956000   0.62297756   -6.6792764    1042.3688   0.02195755  0.020822324           19 
 3957000   0.61836424   -6.6795454    1042.8751  0.021962662  0.020815785          101 
 3958000   0.61760118   -6.6979642    1042.2914  0.021944825  0.020809244           64 
 3959000   0.62156283   -6.6755467    1046.1547  0.022020601  0.020802706           80 
 3960000   0.60718269   -6.6840061    1045.1361  0.021993604  0.020796177           94 
 3961000   0.61293629   -6.7036283    1043.3051  0.021949532  0.020789632           32 
 3962000    0.6354452   -6.6813751    1043.6367  0.021950965  0.020783086           74 
 3963000   0.61549619   -6.6843318    1043.1048  0.021934242  0.020776547           36 
 3964000    0.6154108   -6.6752925    1039.5001  0.021852928  0.020769989           52 
 3965000   0.62252771   -6.6949403    1041.3148  0.021885557  0.020763432           32 
 3966000   0.62240902   -6.7069058    1040.4329  0.021861509  0.020756889           26 
 3967000   0.60814799   -6.6932605    1040.5792   0.02185907  0.020750355           48 
 3968000   0.62131287   -6.6934548    1041.7595   0.02187835  0.020743822           29 
 3969000   0.62398726   -6.6750938    1044.0835  0.021921632  0.020737278           30 
 3970000   0.62081119   -6.6779272    1042.1187  0.021874868  0.020730759           58 
 3971000   0.61773497   -6.6866086     1043.823  0.021905125  0.020724232           33 
 3972000   0.61515757   -6.6979188    1041.8375  0.021857954  0.020717711           34 
 3973000   0.61899417   -6.6781079    1041.7608  0.021850844  0.020711198           76 
 3974000   0.63355981   -6.6806813    1042.7968   0.02186707  0.020704699           25 
 3975000   0.59667472   -6.6951665    1041.8652  0.021842039  0.020698185           44 
 3976000   0.61501594   -6.6716233    1042.6155  0.021852271  0.020691665           80 
 3977000   0.60896349   -6.6875182    1042.9869  0.021854557  0.020685142           34 
 3978000   0.63876176    -6.671197    1044.2928  0.021876421  0.020678629           23 
 3979000   0.61377004   -6.6935704    1043.2782  0.021849674  0.020672125           34 
 3980000    0.6105238   -6.6701504    1044.8837    0.0218778  0.020665636           73 
 3981000   0.61601759    -6.688265    1044.7477  0.021869457   0.02065915           32 
 3982000   0.62530832   -6.6811036    1043.8947  0.021846113  0.020652667           23 
 3983000   0.61215053   -6.7008494    1042.4947  0.021811339  0.020646188           17 
 3984000   0.62818049   -6.6830362    1042.5478  0.021806974  0.020639701           27 
 3985000   0.61993931   -6.6880988    1042.5875  0.021802331  0.020633226           74 
 3986000   0.61517807   -6.6762237    1045.0549  0.021848447  0.020626752           55 
 3987000   0.61193797    -6.684052    1044.9557  0.021840894  0.020620279           36 
 3988000   0.61102826   -6.6842309     1045.141  0.021839289  0.020613815           36 
 3989000   0.61599379   -6.6708833     1041.944  0.021767026  0.020607362           28 
 3990000   0.62141298    -6.686996    1044.3277  0.021811356  0.020600919           24 
 3991000   0.60225123   -6.6758748    1045.2987  0.021826165   0.02059446           23 
 3992000   0.61697569   -6.7009402    1044.8247  0.021810804  0.020587992           23 
 3993000   0.62015065   -6.6771788    1042.9314  0.021765827  0.020581514           34 
 3994000   0.62101676   -6.6651774    1043.8975  0.021780536  0.020575054           19 
 3995000    0.6139789   -6.6563895      1043.09   0.02175824  0.020568626           16 
 3996000   0.61405536     -6.68234    1043.9653  0.021771049  0.020562177           20 
 3997000   0.61819617    -6.701983    1043.6915  0.021759894  0.020555713           17 
 3998000   0.61047578   -6.6793172    1042.9778  0.021739575  0.020549274           20 
 3999000   0.61274795    -6.650653    1042.4046  0.021722194  0.020542851            8 
 4000000   0.61766079   -6.6601966    1045.5145  0.021781553   0.02053644           32 
 4001000   0.60839919   -6.6708337      1044.83  0.021761851  0.020530011           22 
 4002000   0.61751045   -6.6853684    1043.7109   0.02173311  0.020523605           12 
 4003000   0.62164434   -6.6718926     1045.968  0.021774668  0.020517192           24 
 4004000   0.61056365    -6.677214    1045.3634  0.021756648  0.020510766           20 
 4005000   0.60560985   -6.6749984    1044.4469  0.021732146  0.020504358           14 
 4006000   0.61458652   -6.6904913    1041.4951  0.021665316  0.020497933           54 
 4007000   0.59731986   -6.6743951    1043.4714   0.02170101  0.020491512           43 
 4008000   0.60985981   -6.6830644    1040.9842  0.021643883  0.020485092           26 
 4009000   0.61142544   -6.6957647    1043.8173  0.021697375  0.020478667           23 
 4010000   0.61303706   -6.7088028    1044.0751  0.021697322  0.020472228           11 
 4011000   0.60669931   -6.6809968     1044.916  0.021709382  0.020465798           30 
 4012000   0.60163873   -6.7106514     1042.359   0.02165086  0.020459362           60 
 4013000   0.62490215   -6.6924949    1043.9547    0.0216786  0.020452941           91 
 4014000   0.60477714   -6.6782614     1042.031  0.021633264  0.020446495          138 
 4015000     0.609959   -6.6957328    1044.2756  0.021674462  0.020440074           73 
 4016000   0.61549351   -6.6958422    1041.4691   0.02161083  0.020433637           27 
 4017000   0.62327315   -6.6698717    1046.2127  0.021703857  0.020427216           32 
 4018000    0.6103559   -6.6965035    1043.1083   0.02163407  0.020420804           81 
 4019000   0.60944649   -6.7090652    1043.0844  0.021628192  0.020414376           86 
 4020000   0.62305752    -6.682529    1042.0087  0.021600513  0.020407933           78 
 4021000   0.61814525   -6.6946418     1041.657  0.021587851  0.020401475           61 
 4022000   0.61948965   -6.6990827    1039.1685  0.021530924  0.020395007           38 
 4023000   0.60880334   -6.7014554    1040.5742  0.021554691   0.02038854           54 
 4024000   0.60545883   -6.6763172    1040.8456  0.021554954  0.020382088           31 
 4025000    0.6147008   -6.7050278    1042.0098  0.021573702  0.020375644           68 
 4026000   0.60894731   -6.7021086    1042.2903  0.021574149  0.020369192           79 
 4027000   0.61291728   -6.7096844    1041.8316  0.021559299  0.020362736           43 
 4028000   0.61313048   -6.7274796     1043.286  0.021584037  0.020356279           66 
 4029000    0.6026244   -6.6963516    1042.2436   0.02155712  0.020349824           77 
 4030000   0.59650455   -6.7163918    1043.0263  0.021567955  0.020343379           59 
 4031000   0.61231425   -6.7094693    1040.0797   0.02150169  0.020336932           37 
 4032000   0.60930347   -6.7344196    1041.2076  0.021519667   0.02033048           75 
 4033000   0.61458441   -6.7378086    1042.3749  0.021538452  0.020324017           98 
 4034000   0.59087458   -6.7104649    1042.0163  0.021525704  0.020317572           23 
 4035000   0.61336148   -6.7109138    1043.0941  0.021542629  0.020311141           33 
 4036000   0.60511777   -6.7102492    1039.6081  0.021465315  0.020304705           93 
 4037000   0.60189177   -6.6962694    1042.5793  0.021521329  0.020298275           32 
 4038000   0.60379107    -6.725852    1041.1014  0.021485501  0.020291855           67 
 4039000   0.61013167   -6.7101011     1042.257  0.021504022   0.02028542           58 
 4040000   0.61139359   -6.7297832    1042.6937  0.021507708  0.020279004           75 
 4041000   0.59615503   -6.7208263    1042.8058  0.021504699  0.020272586           71 
 4042000   0.60082725   -6.7341788    1040.1228  0.021444062  0.020266148          214 
 4043000   0.61897296   -6.7274241    1040.3924  0.021444315  0.020259718           28 
 4044000   0.61339941   -6.7257594    1040.7604  0.021446596  0.020253284           67 
 4045000   0.61731776   -6.7091272    1043.1951  0.021491452  0.020246847           67 
 4046000   0.59762748   -6.7268328    1040.4692  0.021429996  0.020240408           82 
 4047000   0.60023749   -6.7219614    1040.8536  0.021432616  0.020233968           78 
 4048000   0.60973585   -6.7125654    1042.0784  0.021452537  0.020227554           86 
 4049000    0.6155118   -6.7195837    1039.7121  0.021398536  0.020221135           98 
 4050000   0.61732591   -6.7400975    1041.1084  0.021421984  0.020214696           78 
 4051000   0.59239691   -6.7365385    1040.4849  0.021403869  0.020208275           59 
 4052000   0.60633009   -6.7335462    1041.7163  0.021423912   0.02020185           43 
 4053000   0.59707767   -6.7291033    1038.8168  0.021359011  0.020195433           53 
 4054000   0.60796416   -6.7327136    1042.2828  0.021424988  0.020189013           96 
 4055000   0.60595861   -6.7171871    1041.0483  0.021394334   0.02018259           86 
 4056000   0.61955592   -6.7269929    1041.6663  0.021401756  0.020176192           84 
 4057000   0.60395048   -6.6916196     1042.141  0.021406232  0.020169815           86 
 4058000   0.60410619   -6.7292061    1042.4322  0.021406937  0.020163423          133 
 4059000   0.60214068    -6.717338    1042.1797  0.021396479  0.020157036           46 
 4060000   0.60385371   -6.7255277    1042.3779  0.021395278  0.020150669           64 
 4061000   0.59373946   -6.7217291    1044.3909  0.021431317  0.020144294           84 
 4062000   0.59846555    -6.754233     1040.035  0.021336678  0.020137905           66 
 4063000   0.59050536    -6.728287    1041.8128  0.021367888  0.020131523           62 
 4064000   0.59001101    -6.729015    1041.0891  0.021347792  0.020125154           43 
 4065000   0.60365016   -6.7265365    1040.5474  0.021331434  0.020118768           39 
 4066000     0.609257   -6.7294773    1041.5004   0.02134572  0.020112398           45 
 4067000   0.60094283   -6.7368205    1040.6733  0.021323525  0.020106025           57 
 4068000   0.58929243   -6.7247899    1040.9122  0.021323177  0.020099649           76 
 4069000   0.61059483   -6.7237015    1040.1724  0.021302785  0.020093282           62 
 4070000   0.60364275   -6.7228228    1040.1781  0.021297669  0.020086928           79 
 4071000   0.59791458   -6.7099709    1042.1808  0.021333432  0.020080581           96 
 4072000   0.61327712   -6.7347493    1041.4734  0.021313716  0.020074222           83 
 4073000   0.61672262   -6.7225387    1041.5051  0.021309132  0.020067845           97 
 4074000   0.59308786   -6.7496986    1041.1022  0.021295658   0.02006147          133 
 4075000   0.60956592   -6.7243538    1039.8062   0.02126393  0.020055101           75 
 4076000    0.6007021   -6.7304199     1041.162  0.021286433  0.020048738           65 
 4077000   0.60926196   -6.7577144    1040.1605  0.021260741  0.020042367           91 
 4078000   0.59381146   -6.7353251    1041.1406  0.021275556     0.020036           47 
 4079000   0.58043904   -6.7279332    1042.3375  0.021294792  0.020029649           86 
 4080000   0.59417644   -6.7154155    1040.9537  0.021261309  0.020023312           82 
 4081000   0.59462991   -6.7352045    1040.5104  0.021247046   0.02001698          126 
 4082000   0.58742661   -6.7210231    1041.3122  0.021258211  0.020010644          118 
 4083000   0.60452855   -6.7228969    1041.9786  0.021266606  0.020004308          108 
 4084000   0.59340253   -6.7342739    1041.6069  0.021253815  0.019997964          105 
 4085000   0.58837367    -6.727083    1040.9039  0.021234269  0.019991618           57 
 4086000   0.59507624   -6.7288691    1040.8084  0.021227126  0.019985266           44 
 4087000   0.59389679   -6.7222978    1040.8191   0.02122215  0.019978929           43 
 4088000   0.59122018   -6.7326512    1041.3198  0.021227165  0.019972588           42 
 4089000   0.59992696   -6.7193543    1041.9393  0.021234599  0.019966236           70 
 4090000   0.57459376   -6.7250477    1041.6764   0.02122405  0.019959914           57 
 4091000    0.5988952   -6.7472135    1040.0135  0.021184989  0.019953594           57 
 4092000   0.59157555   -6.7334742    1042.3371  0.021227133  0.019947298           79 
 4093000   0.61148604   -6.7137591    1041.4228   0.02120333  0.019940988           27 
 4094000   0.60762843   -6.7244261    1041.9767  0.021209426  0.019934684           98 
 4095000   0.59259694   -6.7185874    1041.3553  0.021191602  0.019928358          108 
 4096000   0.60888303   -6.7381757    1042.9022  0.021217899  0.019922035          104 
 4097000   0.59809097    -6.739079    1040.9887    0.0211738  0.019915692           75 
 4098000   0.59201007    -6.706965    1040.0301   0.02114914  0.019909355          113 
 4099000   0.58851234   -6.7292222     1040.695  0.021157497  0.019903057          119 
 4100000   0.59769582   -6.7287212    1041.8201  0.021175204  0.019896749           87 
 4101000   0.61189164   -6.7506535    1038.4467  0.021101494  0.019890431          247 
 4102000   0.60886774   -6.7315616    1041.2458  0.021153215  0.019884117          102 
 4103000   0.60041376   -6.7420838    1040.4511  0.021131918  0.019877791           73 
 4104000   0.59730895   -6.7365889    1041.7622   0.02115339   0.01987147           74 
 4105000   0.59952038   -6.7462623    1041.8086   0.02114918  0.019865143           67 
 4106000   0.59127153   -6.7651034    1041.5127  0.021138024   0.01985881          130 
 4107000   0.57975468   -6.7451963    1039.9665  0.021101504  0.019852482          179 
 4108000    0.5920825   -6.7585194    1039.6175  0.021089287  0.019846149          147 
 4109000   0.58778819   -6.7506596    1038.2972  0.021057378  0.019839818           98 
 4110000    0.6018459   -6.7491638    1040.7111  0.021101199  0.019833466           99 
 4111000    0.5917723   -6.7421474    1042.2776   0.02112782  0.019827138          120 
 4112000   0.59350111   -6.7475542    1039.7761  0.021071985  0.019820806          148 
 4113000   0.59455182   -6.7522173    1039.4115  0.021059477  0.019814482          149 
 4114000   0.60433957   -6.7490825    1040.5946  0.021078321   0.01980815          166 
 4115000   0.59125347   -6.7586178    1039.1223  0.021043384  0.019801815          139 
 4116000   0.58269447   -6.7731896    1039.1004  0.021037828  0.019795476          136 
 4117000   0.58679041   -6.7453693    1040.0171  0.021051272   0.01978914          199 
 4118000   0.58504367   -6.7552019    1037.9853  0.021005044  0.019782812          136 
 4119000   0.60682602   -6.7549506    1038.5148  0.021010658  0.019776475          134 
 4120000   0.58798348   -6.7545596    1037.5851  0.020986754  0.019770146          129 
 4121000   0.58726784   -6.7547607    1041.1598  0.021053948  0.019763828          141 
 4122000   0.59357795   -6.7718763    1040.1466  0.021028356  0.019757503          186 
 4123000   0.59095391   -6.7444955    1040.2904  0.021026163  0.019751175          133 
 4124000   0.59719174   -6.7573722    1039.2415  0.020999869  0.019744872          155 
 4125000   0.59363568   -6.7590856    1039.4349  0.020998684  0.019738565          121 
 4126000   0.59323476   -6.7513832    1039.0002  0.020984816  0.019732255          117 
 4127000   0.59108193   -6.7559133    1038.2787  0.020965162  0.019725946          159 
 4128000   0.59556853   -6.7544026     1040.917  0.021013343  0.019719651          172 
 4129000    0.6033767   -6.7432509    1040.7733  0.021005355  0.019713361          158 
 4130000   0.59333698   -6.7626438    1039.3454  0.020971457  0.019707078          135 
 4131000   0.57583353   -6.7408794    1040.2393  0.020984412  0.019700793          228 
 4132000   0.59750476   -6.7758719     1039.676  0.020967973    0.0196945          121 
 4133000   0.59297857   -6.7621512    1037.1657  0.020912286  0.019688195          196 
 4134000   0.58785876    -6.751778    1043.7298  0.021039545  0.019681904          233 
 4135000   0.58119742   -6.7564504    1039.7482  0.020954217  0.019675609          259 
 4136000   0.58839149   -6.7730703    1038.9833  0.020933739  0.019669321          179 
 4137000    0.5855098   -6.7734554    1040.1955  0.020953097   0.01966302          149 
 4138000   0.58321593   -6.7685303    1037.7197  0.020898172  0.019656737          216 
 4139000   0.59100441   -6.7825835    1038.5656  0.020910156  0.019650453          165 
 4140000   0.58485137   -6.7719535    1040.4587   0.02094321  0.019644168          199 
 4141000   0.58274433   -6.7583696    1040.5167   0.02093932  0.019637887          219 
 4142000   0.58979553   -6.7754207    1040.4097  0.020932111  0.019631624          254 
 4143000   0.58895622   -6.7767853      1038.32  0.020885026  0.019625344          183 
 4144000   0.58721299   -6.7929735    1037.9202  0.020871947  0.019619049          329 
 4145000   0.58475358   -6.7841942    1037.3933  0.020856319  0.019612758          171 
 4146000   0.59414927   -6.7876235    1037.0513  0.020844415  0.019606453          192 
 4147000   0.59189142   -6.7811999    1037.8974   0.02085639  0.019600161          252 
 4148000   0.58883078   -6.7715965    1038.1448  0.020856332  0.019593873          345 
 4149000   0.58723518   -6.8047959    1037.6381  0.020841129  0.019587595          328 
 4150000   0.58241712   -6.7908628    1039.2443  0.020868359  0.019581313          236 
 4151000   0.57613405   -6.7971489    1039.2562  0.020863571  0.019575023          214 
 4152000   0.59128118   -6.8068139    1035.9875  0.020792942  0.019568726          342 
 4153000   0.57758389   -6.7903793    1037.8137  0.020824578  0.019562448          219 
 4154000   0.58983943    -6.790336    1037.7721  0.020818731  0.019556163          197 
 4155000   0.58856784   -6.7892804    1038.4268  0.020826851  0.019549872          356 
 4156000   0.59012584   -6.8014272    1037.9366  0.020812011  0.019543568          322 
 4157000   0.57862412   -6.8062782    1038.8952   0.02082622  0.019537265          291 
 4158000   0.58423728   -6.7787644    1039.1736  0.020826792  0.019530977          389 
 4159000   0.58439522   -6.7913663     1039.997  0.020838282  0.019524684          245 
 4160000   0.59958172   -6.7862505     1037.356  0.020780368  0.019518391          225 
 4161000   0.58325174   -6.7866904    1037.9509  0.020787289  0.019512096          214 
 4162000   0.59139935   -6.8088598    1034.9814  0.020722837  0.019505819          223 
 4163000   0.57410358   -6.7937795    1036.9258  0.020756783  0.019499521          367 
 4164000   0.58496321   -6.8058772    1037.3967  0.020761222  0.019493239          441 
 4165000   0.57696814   -6.7882528    1037.9663  0.020767634   0.01948695          194 
 4166000   0.58025115   -6.7579491    1038.9224  0.020781774  0.019480683          334 
 4167000   0.57299543   -6.7896646    1037.2055   0.02074245  0.019474412          344 
 4168000   0.57427135   -6.7819346    1037.2458  0.020738279  0.019468145          205 
 4169000    0.5757976   -6.7743128    1038.4024  0.020756425  0.019461888          202 
 4170000   0.59594785   -6.7959425    1036.8837  0.020721098  0.019455632          236 
 4171000   0.58811637   -6.7791507     1036.977  0.020717993  0.019449372          182 
 4172000   0.59164146   -6.7747516    1041.4356  0.020802085   0.01944313          194 
 4173000   0.58283044   -6.8026133    1037.5751  0.020720008  0.019436881          240 
 4174000   0.58495786   -6.7723833    1036.9381  0.020702325  0.019430633          243 
 4175000   0.59133963   -6.7879677      1037.66  0.020711777  0.019424377          256 
 4176000   0.58573667   -6.7823209     1038.332  0.020720227   0.01941813          226 
 4177000   0.59446769   -6.7938794    1037.5676  0.020700017  0.019411885          218 
 4178000   0.57778619   -6.7797445    1038.0257  0.020704198   0.01940565          157 
 4179000   0.58701893   -6.7867257    1038.1092  0.020700909  0.019399428          161 
 4180000   0.57289917   -6.7718305    1038.1926  0.020697619  0.019393213          183 
 4181000   0.57834157   -6.7571799    1038.6311  0.020701409  0.019386987          208 
 4182000   0.58660468   -6.7843074    1034.6776  0.020617678  0.019380762          171 
 4183000    0.5746128   -6.7770958    1038.0568   0.02068007  0.019374523          157 
 4184000   0.58820107   -6.7931027    1037.5999  0.020666028  0.019368287          170 
 4185000   0.59574511   -6.7884976    1037.5842  0.020660776  0.019362052          179 
 4186000   0.57998076   -6.7830402    1037.2953  0.020650089  0.019355824          193 
 4187000   0.58409645   -6.7967043    1036.5439  0.020630202  0.019349598          163 
 4188000    0.5772919   -6.7690217    1039.3159  0.020680435  0.019343393          164 
 4189000    0.5756114   -6.7866425    1037.2663  0.020634723  0.019337188          196 
 4190000   0.58720683   -6.7787962    1038.8432  0.020661161  0.019330981          133 
 4191000   0.58049382   -6.7930083    1036.5364  0.020610363   0.01932479          211 
 4192000   0.57902245   -6.7879266     1037.434   0.02062329  0.019318596          284 
 4193000   0.58068555   -6.7891175    1037.0792  0.020611321   0.01931241          215 
 4194000    0.5902896   -6.7707563    1039.1209  0.020646973  0.019306217          228 
 4195000   0.58881291   -6.7934539    1037.3076  0.020606032  0.019300021          440 
 4196000   0.56934927   -6.7906652    1036.2406  0.020579929  0.019293809          237 
 4197000   0.58052142   -6.7953386    1038.7263  0.020624381  0.019287591          383 
 4198000   0.59195142   -6.8146345    1035.9189  0.020563738   0.01928139          160 
 4199000   0.57843419   -6.8068308    1036.6232  0.020572818  0.019275195          179 
 4200000   0.57363703   -6.7989222    1037.7681  0.020590637  0.019269006          292 
 4201000   0.58047257   -6.7941757    1038.7959  0.020606123  0.019262807          321 
 4202000   0.57673194   -6.8263948    1035.8227  0.020542256  0.019256608          350 
 4203000   0.57289423   -6.8127724    1038.5457  0.020591358  0.019250396          453 
 4204000   0.57059613   -6.7898615    1038.1971  0.020579549  0.019244187          215 
 4205000   0.58301276   -6.7845476    1037.4536  0.020559921  0.019237995          294 
 4206000   0.58185051   -6.8091289    1037.6353  0.020558632  0.019231816          291 
 4207000   0.58316308   -6.7814557    1037.3562  0.020548217  0.019225654          189 
 4208000   0.57060551   -6.8151118    1038.4508  0.020565011  0.019219483          290 
 4209000   0.57851155   -6.8049001    1039.2205  0.020575364  0.019213314          238 
 4210000   0.57997144   -6.8202047    1037.9862  0.020546046  0.019207134          224 
 4211000   0.57060663   -6.8378959    1036.5019  0.020511793  0.019200948          257 
 4212000   0.57975458   -6.7967875    1036.7688  0.020512203  0.019194762          198 
 4213000    0.5735803   -6.8154562    1037.8811  0.020529335  0.019188586          310 
 4214000   0.59273635    -6.810157    1036.5614  0.020498367  0.019182402          257 
 4215000   0.57027338   -6.8266159    1037.5926  0.020513892   0.01917623          284 
 4216000   0.59040882   -6.8304893    1036.9425  0.020496175   0.01917003          271 
 4217000   0.59027061   -6.7732305    1039.4081  0.020540039  0.019163855          183 
 4218000   0.57617361   -6.8095361    1034.2037  0.020432347  0.019157701          248 
 4219000   0.58096297   -6.8175157    1036.9382  0.020481517  0.019151522          198 
 4220000   0.58339633   -6.8313326    1038.0747  0.020499105  0.019145341          377 
 4221000   0.56445425   -6.8041243    1037.2115  0.020477208   0.01913917          221 
 4222000   0.57979403   -6.8212117    1035.6645  0.020441822  0.019133005          230 
 4223000   0.58120764   -6.8132285    1038.4372  0.020491695  0.019126843          274 
 4224000   0.58515946   -6.8159031    1038.4213  0.020486532  0.019120686          390 
 4225000   0.57882327   -6.7999273    1039.0089  0.020493272  0.019114559          271 
 4226000   0.58297453   -6.8158795    1036.7815  0.020444501  0.019108427          263 
 4227000   0.58764851   -6.8225169     1035.809  0.020420492  0.019102298          205 
 4228000   0.56840445   -6.8162264    1036.9652  0.020438449  0.019096178          381 
 4229000   0.57466601   -6.8169024    1037.9245  0.020452521  0.019090048          279 
 4230000   0.57529958   -6.8140317    1038.8974  0.020466851  0.019083925          247 
 4231000    0.5805028   -6.8220742    1036.9705  0.020424063  0.019077799          170 
 4232000   0.55973131    -6.815805    1037.2435  0.020424611  0.019071673          318 
 4233000   0.57005102   -6.8187278    1038.0884  0.020436421  0.019065551          225 
 4234000   0.56907007   -6.8234288    1039.1737  0.020452955  0.019059428          247 
 4235000   0.56704233   -6.8247941    1038.4929  0.020434728  0.019053303          285 
 4236000   0.55741166   -6.8235118     1036.044  0.020381728  0.019047164          270 
 4237000    0.5751634   -6.8308113    1037.0934  0.020397557  0.019041026          286 
 4238000   0.57973373   -6.8144619    1037.7423  0.020405503   0.01903489          255 
 4239000    0.5640896   -6.8058626    1036.0617  0.020367651  0.019028753          279 
 4240000   0.56594927   -6.8394592    1035.6576  0.020354907   0.01902263          287 
 4241000    0.5837555   -6.8320025    1036.7163  0.020370908  0.019016509          262 
 4242000   0.57022367   -6.8259678    1036.8779  0.020369281  0.019010394          264 
 4243000    0.5641604   -6.8248229    1038.2128  0.020390698  0.019004286          143 
 4244000   0.56938314    -6.809491    1038.2688  0.020386993   0.01899817          208 
 4245000   0.56152524   -6.8144584    1037.7818   0.02037263  0.018992052          327 
 4246000   0.57774562   -6.8292881    1034.7679   0.02030868  0.018985935          358 
 4247000   0.57729747   -6.8069144    1038.9661  0.020386274  0.018979824          235 
 4248000   0.56689197   -6.8184769    1036.4872  0.020332847  0.018973723          308 
 4249000   0.57693593    -6.830055    1037.4245  0.020346445  0.018967618          335 
 4250000   0.55873229   -6.8232198    1037.7016   0.02034709  0.018961515          389 
 4251000   0.56503518   -6.8225884    1037.1671  0.020331826   0.01895541          377 
 4252000   0.57492883   -6.8011603    1035.5707  0.020295758  0.018949311          396 
 4253000   0.57529685   -6.8219798    1038.1827  0.020342163  0.018943209          461 
 4254000    0.5742806   -6.8216798    1038.1134  0.020336026  0.018937117          449 
 4255000   0.56928481   -6.8355078    1036.8577  0.020306654  0.018931027          393 
 4256000   0.56310674   -6.8416117    1036.1064  0.020287171  0.018924919          476 
 4257000   0.57238322   -6.8337207    1036.9885  0.020299674  0.018918829          421 
 4258000   0.56935831   -6.8361528    1037.5736  0.020306356  0.018912734          327 
 4259000   0.55968437   -6.8373193    1034.5944  0.020243296  0.018906633          496 
 4260000   0.56515041   -6.8355869    1036.7916  0.020281527  0.018900539          546 
 4261000   0.57921164   -6.8192371    1036.6601  0.020274194  0.018894441          540 
 4262000   0.56777095   -6.8397643    1035.2727   0.02024231  0.018888354          572 
 4263000   0.57414385   -6.8326646    1036.9887  0.020271105   0.01888228          513 
 4264000   0.57633165   -6.8245566    1036.7295  0.020261287  0.018876206          448 
 4265000   0.58354897   -6.8149442    1038.1434  0.020284162  0.018870138          563 
 4266000   0.56377132   -6.8330685    1036.9186   0.02025548   0.01886407          649 
 4267000   0.58138769   -6.8503222     1035.673  0.020226408  0.018857992          540 
 4268000   0.57555061   -6.8247576     1038.016  0.020267416  0.018851907          600 
 4269000   0.56245203   -6.8415761    1036.3094  0.020229356  0.018845834          514 
 4270000   0.56686714   -6.8124841    1038.6637  0.020270563  0.018839757          531 
 4271000   0.56742855   -6.8242037    1037.2594  0.020238418  0.018833692          487 
 4272000   0.56008135   -6.8326342    1036.2269  0.020213539  0.018827632          402 
 4273000   0.58352889   -6.8180023    1036.9605  0.020223116  0.018821576          401 
 4274000   0.56513496   -6.8188009    1037.1568  0.020222212  0.018815525          417 
 4275000   0.56566409   -6.8403106    1036.2069  0.020198965  0.018809467          508 
 4276000    0.5803944   -6.8175813    1035.9047  0.020188352  0.018803407          555 
 4277000   0.56757989   -6.8244335    1036.2876  0.020191093   0.01879736          567 
 4278000   0.57221883    -6.850151    1036.1395  0.020183488  0.018791298          387 
 4279000   0.57097268    -6.830489    1034.3462  0.020143846  0.018785244          309 
 4280000   0.56395228   -6.8404321    1034.4455  0.020141073  0.018779192          390 
 4281000   0.56770219   -6.8223713    1034.4959  0.020137349  0.018773148          362 
 4282000   0.55985907   -6.8528074    1037.7533   0.02019604  0.018767082          486 
 4283000   0.57602476   -6.8344992    1035.8783  0.020154842  0.018761026          439 
 4284000    0.5679049   -6.8411778    1038.9693  0.020210266  0.018754974          340 
 4285000     0.562239   -6.8378927    1035.5272  0.020138607  0.018748932          317 
 4286000   0.56176529   -6.8525822    1036.7289  0.020157274  0.018742905          464 
 4287000   0.57435845   -6.8243456     1036.807  0.020154091  0.018736871          379 
 4288000    0.5728421   -6.8424463    1035.4856   0.02012371  0.018730839          397 
 4289000   0.56339001   -6.8453034     1037.452  0.020157224  0.018724809          462 
 4290000   0.56480323   -6.8333356    1037.1109  0.020145899  0.018718771          385 
 4291000   0.55548556   -6.8342221    1035.8679  0.020117065  0.018712731          373 
 4292000   0.55870181   -6.8501597    1033.9439  0.020075021  0.018706687          414 
 4293000   0.56342136   -6.8526045    1035.3476  0.020097594  0.018700635          454 
 4294000   0.57305986   -6.8601314    1033.7638  0.020062176  0.018694586          357 
 4295000   0.56118639   -6.8612493    1035.2143  0.020085648   0.01868854          456 
 4296000   0.55703031   -6.8686599    1033.9675  0.020056787  0.018682489          442 
 4297000   0.57647081   -6.8529833    1034.9179  0.020070552  0.018676441          325 
 4298000   0.56979078   -6.8772794    1034.2974  0.020053851  0.018670392          496 
 4299000   0.57509955   -6.8539283    1035.1408  0.020065535  0.018664347          460 
 4300000   0.57678316   -6.8615431       1034.1  0.020040697  0.018658307          429 
 4301000   0.56650749   -6.8585805    1037.2258  0.020096601   0.01865227          499 
 4302000   0.56250408   -6.8727279    1033.8139  0.020025839  0.018646237          472 
 4303000   0.55474945   -6.8656079    1033.0493  0.020006376    0.0186402          490 
 4304000    0.5634032   -6.8504154    1034.6387  0.020032503  0.018634161          579 
 4305000   0.56096671   -6.8735975    1036.8031  0.020069746  0.018628138          538 
 4306000   0.56360029   -6.8540068    1033.8593  0.020008114  0.018622107          381 
 4307000   0.56202206   -6.8600323    1034.3954  0.020013841   0.01861608          498 
 4308000   0.57045623   -6.8498687     1035.301  0.020026714  0.018610055          633 
 4309000   0.56153397   -6.8507363    1034.4312  0.020005244  0.018604033          565 
 4310000   0.56619785   -6.8657906    1035.2267  0.020015985  0.018598009          518 
 4311000   0.56732135   -6.8653338    1036.0057  0.020026399  0.018592002          556 
 4312000   0.54436273   -6.8543165    1034.6672  0.019995887   0.01858599          395 
 4313000   0.56468612    -6.835709    1034.5203  0.019988413  0.018579973          387 
 4314000   0.56391055   -6.8573934    1034.6984  0.019987219  0.018573969          532 
 4315000   0.57416662   -6.8472262    1036.4716  0.020016833  0.018567968          384 
 4316000   0.55613441   -6.8394629      1034.89  0.019981658  0.018561976          350 
 4317000   0.57416584    -6.865916    1035.4388  0.019987623  0.018555977          492 
 4318000   0.56543501   -6.8520453    1034.0585  0.019956354  0.018549987          463 
 4319000   0.56812467   -6.8487222    1034.4543  0.019959371  0.018543993          596 
 4320000    0.5566231   -6.8384554    1036.6863  0.019997806  0.018538011          494 
 4321000   0.56345592   -6.8532553    1037.3818  0.020006592  0.018532038          451 
 4322000   0.55348818   -6.8348805    1036.2148  0.019979463  0.018526067          597 
 4323000   0.55449154   -6.8685186    1034.6208  0.019944113  0.018520085          547 
 4324000   0.55315518   -6.8673059     1035.409  0.019954691  0.018514102          528 
 4325000   0.55072768   -6.8520651    1035.0879  0.019943889  0.018508127          503 
 4326000    0.5571539   -6.8612979    1035.9347  0.019955592  0.018502143          462 
 4327000   0.55010167   -6.8464094      1035.61  0.019944727  0.018496172          534 
 4328000    0.5595702     -6.87586    1034.9049  0.019926542  0.018490188          524 
 4329000   0.56311345   -6.8864626    1034.6047   0.01991616  0.018484205          527 
 4330000   0.56473071   -6.8620112    1033.8592  0.019897213  0.018478239          477 
 4331000   0.56174021   -6.8688287    1035.8416  0.019930763  0.018472272          484 
 4332000   0.56084562   -6.8680744    1033.4829  0.019880789  0.018466304          467 
 4333000   0.55059201   -6.8738647    1035.7782  0.019920345  0.018460328          712 
 4334000   0.56025557   -6.8541421    1035.8142  0.019916439  0.018454367          703 
 4335000   0.56893104   -6.8715603    1034.7043   0.01989051  0.018448401          696 
 4336000   0.55841891    -6.868641    1034.4727  0.019881471  0.018442433          548 
 4337000   0.55748569   -6.8702693    1033.4939   0.01985808   0.01843646          763 
 4338000   0.56205492   -6.8842656    1034.8316    0.0198792  0.018430489          729 
 4339000   0.55468753   -6.8599663    1034.5398  0.019869014  0.018424521          686 
 4340000   0.55248266   -6.8865353    1034.1399  0.019856758  0.018418555          733 
 4341000   0.55047728   -6.8869237    1033.1579  0.019833331  0.018412591          681 
 4342000    0.5655199   -6.8547882     1034.284  0.019850377  0.018406633          647 
 4343000   0.54659915   -6.8725894    1034.0734  0.019841765  0.018400679          719 
 4344000   0.54955468   -6.8764714    1033.4198  0.019824659  0.018394722          693 
 4345000   0.55873668    -6.881855    1032.8648  0.019809452  0.018388752          712 
 4346000   0.56612153   -6.8877006    1033.9438  0.019825583    0.0183828          721 
 4347000   0.56140003   -6.8854047    1034.2864   0.01982759  0.018376838          714 
 4348000   0.56287605   -6.8822881    1033.5319  0.019808569  0.018370875          789 
 4349000   0.55400422   -6.8762511    1032.9342  0.019792562  0.018364931          671 
 4350000   0.54938995   -6.8801079    1034.9879  0.019827355  0.018358979          740 
 4351000    0.5599892   -6.8846067    1033.6992  0.019798114  0.018353027          664 
 4352000      0.54985    -6.886037    1034.9532  0.019817579  0.018347083          754 
 4353000   0.54979932   -6.8692873    1035.3701  0.019821007  0.018341132          577 
 4354000   0.55052526   -6.8926916    1032.5679  0.019762822  0.018335197          804 
 4355000   0.55601761   -6.9027492    1029.0706  0.019691362  0.018329255          748 
 4356000   0.54715732   -6.8909056    1034.5985  0.019792594  0.018323327          791 
 4357000   0.55877569   -6.8960885    1035.0315  0.019796334    0.0183174          806 
 4358000   0.56299698   -6.8803689    1033.6187  0.019764776  0.018311472          756 
 4359000   0.54506195   -6.8852702    1034.3877  0.019774943  0.018305544          780 
 4360000   0.56574052   -6.8793479    1032.8722  0.019741441  0.018299614          734 
 4361000   0.55980942   -6.8822126    1034.9314  0.019776262   0.01829368          860 
 4362000    0.5527567   -6.8742801     1033.063  0.019736035  0.018287751          785 
 4363000   0.55753042   -6.8922287    1031.3327  0.019698463  0.018281826          734 
 4364000   0.55485003   -6.8949298    1032.8053  0.019722068  0.018275912          743 
 4365000   0.55120842   -6.8812085    1035.3299  0.019765748  0.018270004          583 
 4366000   0.55170916   -6.8939851    1034.8806  0.019752645    0.0182641          691 
 4367000   0.55178778   -6.8674369    1032.7075  0.019706654  0.018258194          522 
 4368000   0.55592918   -6.8764808    1032.9357  0.019706496  0.018252289          771 
 4369000   0.56273394   -6.8838127    1033.2011  0.019707049  0.018246388          741 
 4370000   0.56898934   -6.8821325    1032.4946  0.019689066  0.018240488          654 
 4371000   0.55032393    -6.896944    1033.3169  0.019700237  0.018234586          766 
 4372000   0.55780181   -6.8754373    1032.5042  0.019680241  0.018228695          681 
 4373000   0.55332566    -6.872756    1035.1992  0.019727099   0.01822281          575 
 4374000   0.55671657   -6.8984178    1032.3633  0.019668558  0.018216907          725 
 4375000   0.55823932   -6.8906004    1032.4565  0.019665837  0.018211012          709 
 4376000   0.55352884   -6.8757716    1034.8124  0.019706208  0.018205118          716 
 4377000   0.55479567     -6.88849    1033.9429  0.019685152  0.018199234          779 
 4378000   0.54003786   -6.8981786    1033.0832  0.019664292  0.018193332          691 
 4379000   0.54944129   -6.8899522    1033.1327  0.019660743  0.018187439          737 
 4380000   0.55494329   -6.8686062    1033.4479  0.019662251  0.018181547          617 
 4381000   0.55453888   -6.8886303    1034.0371   0.01966897  0.018175678          770 
 4382000   0.54432667   -6.8830529    1035.6046  0.019694292  0.018169791          698 
 4383000   0.54434036   -6.8958636    1031.9433  0.019620186  0.018163912          839 
 4384000    0.5450604   -6.8911022    1032.0988  0.019618667  0.018158028          729 
 4385000   0.53800848   -6.8874353     1033.672  0.019644089  0.018152156          708 
 4386000    0.5449999   -6.9076557    1031.7207  0.019602536  0.018146277          656 
 4387000   0.54871371   -6.8978496    1032.1282  0.019605809  0.018140402          799 
 4388000    0.5479848   -6.9057408    1033.9612  0.019636152  0.018134524          776 
 4389000   0.54355636   -6.8996343    1033.2303  0.019617799  0.018128653          786 
 4390000   0.54923072   -6.9090594    1032.0912  0.019591709  0.018122763          828 
 4391000   0.55491763   -6.8906987    1032.0381  0.019586238  0.018116885          779 
 4392000   0.55369556    -6.910712    1033.4468  0.019608508  0.018111018          792 
 4393000    0.5431367   -6.9130673    1031.7831  0.019572485  0.018105149          752 
 4394000   0.54839271   -6.9059463    1031.9913  0.019571978  0.018099278          843 
 4395000   0.55184417    -6.907637    1032.7812  0.019582502  0.018093413          754 
 4396000   0.55354213    -6.907645    1032.8612  0.019579564  0.018087554          803 
 4397000   0.54040437   -6.9068507    1032.5545  0.019569299  0.018081689          772 
 4398000   0.55564649   -6.8959274    1034.9878  0.019610956  0.018075829          785 
 4399000   0.54013467   -6.9021026    1032.7536  0.019564174  0.018069978          780 
 4400000   0.54264876   -6.8913855    1031.9374  0.019544268  0.018064113          760 
 4401000   0.55851044    -6.920051    1030.5875  0.019514268  0.018058261          700 
 4402000    0.5501645   -6.8941856    1032.8431  0.019552534  0.018052406          670 
 4403000   0.53910261   -6.9099387    1033.0003  0.019551069  0.018046557          774 
 4404000   0.55044437   -6.8987461    1032.8678  0.019544122  0.018040703          793 
 4405000   0.53960961   -6.9014932    1031.6676  0.019516981  0.018034849          872 
 4406000   0.53968707   -6.8953244    1033.0363  0.019538438  0.018029008          802 
 4407000   0.54736974   -6.9068112    1034.5231   0.01956212  0.018023162          719 
 4408000   0.54827815   -6.8831892     1033.314  0.019534823   0.01801733          762 
 4409000   0.53849296   -6.8987048    1032.0842  0.019507148  0.018011487          740 
 4410000   0.53314679   -6.9198502    1033.1965  0.019523744   0.01800565          816 
 4411000   0.55305102   -6.9205287    1033.5679  0.019526333  0.017999822          843 
 4412000   0.53871484   -6.9148428    1032.8676  0.019508682  0.017993996          737 
 4413000   0.54380158    -6.898623    1033.8218  0.019522278  0.017988166          789 
 4414000   0.54296913   -6.9105772    1033.9588  0.019520443  0.017982347          802 
 4415000    0.5464965   -6.9043989    1032.9982  0.019497889  0.017976526          840 
 4416000   0.54989248   -6.9218551    1030.8636  0.019453193  0.017970708          785 
 4417000    0.5462864   -6.8964059    1032.9775  0.019488671  0.017964893          773 
 4418000   0.53813966   -6.9127747     1032.479  0.019474857   0.01795908          801 
 4419000   0.55179921   -6.9089213    1032.5206  0.019471234  0.017953269          766 
 4420000   0.54349506    -6.919673    1030.4186  0.019427198  0.017947448          836 
 4421000   0.53797445   -6.9270294    1031.4738  0.019442693  0.017941632          814 
 4422000   0.54051172   -6.9177698    1033.7668  0.019481509  0.017935817          902 
 4423000   0.54252969   -6.8941626    1033.1092  0.019464714  0.017930008          811 
 4424000   0.54698457   -6.9212623    1032.9328  0.019456991  0.017924194          888 
 4425000   0.53997058   -6.9127749    1031.0527  0.019417189  0.017918394          842 
 4426000   0.55838833   -6.9112645     1032.665  0.019443157  0.017912588          734 
 4427000   0.53813254   -6.9030952    1033.6312  0.019456953  0.017906787          760 
 4428000   0.54809085    -6.913066    1031.8157  0.019418392  0.017900992          913 
 4429000   0.54637717   -6.9114393    1033.6212   0.01944798  0.017895191          810 
 4430000   0.55692919   -6.9073982    1033.3548  0.019438578  0.017889388          790 
 4431000   0.55861366   -6.9048171    1032.1353  0.019411256  0.017883585          899 
 4432000    0.5565584   -6.9216702    1030.5733  0.019377507  0.017877795          761 
 4433000   0.53813267   -6.9166001    1033.3101  0.019424582  0.017872009          808 
 4434000   0.55429716   -6.8948178    1033.4867  0.019423522  0.017866223          778 
 4435000    0.5466086   -6.9131935    1034.3436  0.019435242  0.017860439          773 
 4436000   0.54012772   -6.9119795    1031.1557  0.019370974  0.017854654          773 
 4437000   0.53325042   -6.9191678    1031.0143  0.019363953  0.017848873          817 
 4438000   0.54766649   -6.9283724    1032.4427  0.019386411  0.017843076          818 
 4439000    0.5319435   -6.9221563    1032.2619  0.019378649  0.017837289          772 
 4440000   0.54724405   -6.8985821      1032.38  0.019376501  0.017831504          777 
 4441000   0.53024769   -6.9097003    1032.3235  0.019371079  0.017825729          779 
 4442000   0.54239803   -6.9143171    1032.8814  0.019377185  0.017819953          786 
 4443000   0.53227014   -6.9075288    1031.0589  0.019338639  0.017814179          816 
 4444000    0.5441239    -6.913253    1032.4209  0.019359828    0.0178084          854 
 4445000   0.53254429   -6.9256904    1033.5238  0.019376149  0.017802634          799 
 4446000   0.54285056   -6.9151676    1031.0007  0.019324499  0.017796875          722 
 4447000   0.53400214   -6.9025977     1030.568  0.019312046  0.017791112          849 
 4448000   0.53616416   -6.9071296    1032.2416  0.019339058  0.017785352          814 
 4449000   0.54879225    -6.913723    1031.9879   0.01932996  0.017779585          707 
 4450000   0.53669891   -6.9268827    1033.0839  0.019346141  0.017773838          762 
 4451000    0.5368254   -6.9177213    1032.5128  0.019331102   0.01776808          887 
 4452000   0.52513806   -6.9175679    1032.4513  0.019325608  0.017762322          897 
 4453000   0.53404666   -6.9307061    1031.2156  0.019298143  0.017756558         1008 
 4454000   0.53845091   -6.9067202    1031.2562   0.01929457  0.017750802          906 
 4455000   0.54384078   -6.9436433    1030.3622  0.019273517   0.01774504          989 
 4456000   0.54869367   -6.9364472    1031.1724  0.019284343  0.017739283          990 
 4457000   0.53920034   -6.9347269    1030.9605  0.019276055  0.017733522          941 
 4458000   0.54183937   -6.9246503    1030.5465  0.019263993   0.01772776          864 
 4459000   0.54126443   -6.9405844    1031.4157  0.019275916  0.017722008          923 
 4460000   0.55262675   -6.9174854    1028.2594   0.01921262  0.017716253          859 
 4461000   0.52974371   -6.9084358    1029.4506  0.019230566  0.017710493          984 
 4462000   0.53544434    -6.927095    1029.7563  0.019231965  0.017704744          859 
 4463000   0.53165251   -6.9268455    1029.0412  0.019214303  0.017698993          950 
 4464000   0.53629128   -6.9201118    1032.7476  0.019279188   0.01769324          951 
 4465000   0.52984486   -6.9308466    1029.8478   0.01922075   0.01768749          955 
 4466000   0.54361975   -6.9241954    1031.0347  0.019238593  0.017681738          993 
 4467000   0.54384908   -6.9367186    1032.3462  0.019258753     0.017676          917 
 4468000   0.54154783    -6.915095    1031.1607  0.019232331  0.017670266          945 
 4469000    0.5502347   -6.9197766     1029.715   0.01920107  0.017664538          881 
 4470000   0.52461259   -6.9192214    1031.2577  0.019225536  0.017658806          969 
 4471000   0.53352746   -6.9334746    1031.9188  0.019233557  0.017653071          958 
 4472000   0.54559626   -6.9311792    1031.6691  0.019224603  0.017647335          923 
 4473000    0.5409352   -6.9306988    1031.3439  0.019214246  0.017641603          930 
 4474000   0.53387102   -6.9131421    1030.3171  0.019190826  0.017635863          969 
 4475000   0.53676207   -6.9389366    1031.1156  0.019201409  0.017630125          989 
 4476000    0.5360313    -6.942055    1029.9019  0.019174522  0.017624388          952 
 4477000   0.53402561   -6.9269196    1029.9434  0.019171011  0.017618657          961 
 4478000   0.52819866   -6.9108201    1031.2554  0.019191145  0.017612936         1035 
 4479000   0.53274127   -6.9225945    1031.8031  0.019197052  0.017607218          971 
 4480000   0.54807411   -6.9299304    1029.9929  0.019159095  0.017601496          876 
 4481000   0.52365621   -6.9226918    1032.0233  0.019192577  0.017595786          975 
 4482000   0.53613072   -6.9382546    1030.9354  0.019168069  0.017590073          976 
 4483000   0.53931922   -6.9272665    1030.6529  0.019158542  0.017584358          958 
 4484000   0.53206957   -6.9230708    1030.1009   0.01914401  0.017578647         1002 
 4485000   0.53849489     -6.92629    1030.9763  0.019156008   0.01757294         1089 
 4486000   0.53477533    -6.930206    1031.4985  0.019161438  0.017567238          976 
 4487000   0.52793089   -6.9291876    1031.8541  0.019163772  0.017561548          971 
 4488000   0.53414974   -6.9402903     1030.901  0.019141804  0.017555833          997 
 4489000   0.52396131   -6.9259003    1030.5227  0.019130518  0.017550138          956 
 4490000   0.53708982    -6.927813     1032.604  0.019164884  0.017544435         1119 
 4491000   0.52519814   -6.9213173    1030.9133  0.019129246  0.017538744          984 
 4492000    0.5377228   -6.9234668    1031.8987  0.019143268  0.017533065          986 
 4493000   0.53178678   -6.9047956    1033.1701  0.019162589   0.01752738         1074 
 4494000   0.52613848   -6.9371448    1032.4981  0.019145864  0.017521692         1043 
 4495000   0.52964523   -6.9449605    1029.1702  0.019079908  0.017516001         1006 
 4496000   0.53880997   -6.9302031    1032.1915  0.019131663  0.017510311          993 
 4497000   0.54793111    -6.938654    1031.2808  0.019110533  0.017504616         1011 
 4498000   0.53833836   -6.9318765     1033.492   0.01914725  0.017498928          849 
 4499000   0.53007517   -6.9229173    1031.2456  0.019101385  0.017493248          999 
 4500000   0.54001015    -6.924993    1032.0148  0.019111385  0.017487572          950 
 4501000   0.53082606   -6.9213752    1031.2882  0.019093686  0.017481897          895 
 4502000   0.52400419   -6.9346564    1031.1771  0.019087388  0.017476228         1026 
 4503000   0.51189901   -6.9149165     1032.305  0.019104023  0.017470557         1021 
 4504000   0.53054793    -6.942722     1028.843  0.019035728  0.017464876          969 
 4505000    0.5303543   -6.9381665    1029.2541  0.019039106  0.017459206         1082 
 4506000   0.53645175   -6.9378363    1030.5114  0.019058133  0.017453543         1135 
 4507000   0.52583293   -6.9267661    1031.0215  0.019063337  0.017447874         1021 
 4508000   0.53080779   -6.9382762    1031.3777  0.019065692  0.017442211         1057 
 4509000   0.52938423   -6.9360448     1031.589   0.01906537   0.01743655         1088 
 4510000   0.54010244   -6.9508151    1030.6049  0.019042959  0.017430889         1131 
 4511000   0.53013156   -6.9202837    1030.5638  0.019037977  0.017425228         1076 
 4512000   0.52629365    -6.930134     1031.033  0.019042424  0.017419578         1025 
 4513000   0.53225538   -6.9171668    1029.8058  0.019015544  0.017413923         1077 
 4514000   0.52628453   -6.9286751    1028.4687  0.018986647  0.017408278         1062 
 4515000   0.53177867   -6.9230116    1031.9419  0.019046547  0.017402633         1042 
 4516000   0.53543866    -6.933134    1028.5219   0.01897922   0.01739699         1082 
 4517000   0.53545045   -6.9393413    1028.7181  0.018978639   0.01739135         1100 
 4518000   0.53488668   -6.9427208     1028.811  0.018976151    0.0173857         1147 
 4519000   0.52154398   -6.9409577    1029.2004  0.018979133  0.017380052         1029 
 4520000   0.52908853    -6.929833    1031.9486  0.019025602  0.017374405         1049 
 4521000   0.52602179   -6.9178989    1030.5946  0.018996435  0.017368762          978 
 4522000   0.53893837   -6.9476126    1027.4328  0.018933968  0.017363124         1083 
 4523000   0.52998717   -6.9356626    1030.2218  0.018981167  0.017357487          978 
 4524000   0.52826456   -6.9411063    1031.3167   0.01899714  0.017351861         1038 
 4525000   0.52150315   -6.9296028    1031.2469  0.018991655  0.017346238          985 
 4526000   0.53248515   -6.9334665    1032.5691  0.019011803  0.017340621          904 
 4527000   0.53070547   -6.9434775    1030.6553  0.018972376     0.017335         1105 
 4528000   0.53554032   -6.9242129    1030.0362  0.018956792   0.01732939          998 
 4529000   0.53648617   -6.9344446    1030.3367  0.018958135   0.01732378         1067 
 4530000   0.53819117   -6.9223546    1029.8254  0.018944544  0.017318175         1010 
 4531000   0.54410912   -6.9443545    1029.7332  0.018938667  0.017312562         1036 
 4532000   0.52553612   -6.9409148    1030.9882  0.018957565  0.017306946          997 
 4533000   0.52495048   -6.9450438    1030.5261  0.018944887  0.017301323         1116 
 4534000   0.52422043   -6.9453802    1030.4775  0.018939816  0.017295716         1081 
 4535000   0.52294593   -6.9395039    1030.2037  0.018930608  0.017290099         1169 
 4536000   0.52007923   -6.9352556    1028.6214  0.018897366  0.017284485         1170 
 4537000   0.52602874   -6.9589417    1027.8607  0.018879229  0.017278865         1200 
 4538000   0.53086899   -6.9468654    1029.4717  0.018904652  0.017273248         1187 
 4539000   0.52909714   -6.9637238    1028.4443  0.018881624  0.017267628         1186 
 4540000   0.51892273   -6.9562887    1027.6974  0.018863756  0.017262006         1237 
 4541000   0.52937824   -6.9447561    1028.4201  0.018872863  0.017256384         1113 
 4542000   0.52518541   -6.9700291    1028.9151  0.018877791  0.017250777         1143 
 4543000   0.52276645   -6.9473136    1030.1274  0.018895873  0.017245169         1094 
 4544000   0.51322471   -6.9582816     1028.899  0.018869187  0.017239557         1106 
 4545000   0.53082175   -6.9755029    1028.7496  0.018862296  0.017233946         1137 
 4546000   0.52701001   -6.9466901    1028.3086  0.018850062  0.017228344         1214 
 4547000   0.53040576   -6.9274507    1029.6633  0.018870745  0.017222743         1101 
 4548000   0.51520627   -6.9674027    1028.0797  0.018837579  0.017217141         1250 
 4549000    0.5310737   -6.9568571    1030.0743  0.018869976   0.01721154         1078 
 4550000   0.52844937   -6.9628165    1028.4817  0.018836661   0.01720594         1172 
 4551000   0.52552689   -6.9578207    1030.5829  0.018870998   0.01720034         1174 
 4552000   0.52328748   -6.9682445    1027.7848  0.018815627  0.017194733         1291 
 4553000   0.52109343   -6.9694626    1028.4931  0.018824458  0.017189142         1202 
 4554000   0.51796369   -6.9539919     1027.692  0.018805665  0.017183555         1144 
 4555000    0.5230239   -6.9676652    1026.0202  0.018770952  0.017177959         1240 
 4556000   0.51907158   -6.9808816    1028.3264  0.018809013  0.017172355         1221 
 4557000   0.52217202   -6.9632701    1029.8828  0.018833349   0.01716676         1248 
 4558000   0.52273927   -6.9746773     1027.644  0.018788284  0.017161163         1294 
 4559000   0.52162484   -6.9743101    1027.7167  0.018785492  0.017155568         1285 
 4560000   0.51190612   -6.9808197    1028.3934  0.018793739  0.017149966         1214 
 4561000   0.52672547   -6.9822067    1026.6647  0.018758034   0.01714437         1336 
 4562000   0.52488838   -6.9791216    1025.9537  0.018740933  0.017138773         1347 
 4563000   0.51591004    -6.978334    1026.2949  0.018743058  0.017133173         1206 
 4564000   0.52892238   -6.9893062    1027.3947  0.018759033  0.017127575         1305 
 4565000   0.51465134   -6.9664132    1027.9529  0.018765114  0.017121982         1216 
 4566000   0.52195352   -6.9619881    1029.0079  0.018780259  0.017116408         1054 
 4567000   0.52672199   -6.9865187    1026.0299  0.018721806   0.01711083         1227 
 4568000   0.52793122   -6.9763599    1027.2758  0.018740437  0.017105253         1214 
 4569000   0.51122507     -6.97133    1027.7732  0.018745407  0.017099675         1233 
 4570000   0.51350399   -6.9669737    1027.8068  0.018741919  0.017094098         1307 
 4571000   0.52058319   -6.9596221    1026.8178  0.018719788  0.017088524         1281 
 4572000    0.5115479   -6.9665645    1026.7618  0.018714672  0.017082951         1207 
 4573000   0.52580351   -6.9587747     1028.974  0.018750893  0.017077385         1293 
 4574000    0.5224015   -6.9900968    1028.1529  0.018731835   0.01707181         1327 
 4575000   0.51428426   -6.9756684    1028.2817  0.018730085  0.017066249         1236 
 4576000   0.52207972   -6.9591966    1027.8737  0.018718562  0.017060696         1245 
 4577000   0.53012929    -6.974552    1027.0602  0.018699661  0.017055145         1225 
 4578000   0.50540937   -6.9763548     1028.495  0.018721695  0.017049586         1278 
 4579000   0.51465209   -6.9858596     1027.667  0.018702538  0.017044037         1332 
 4580000   0.51441447   -6.9760543    1026.7292   0.01868139  0.017038487         1302 
 4581000   0.51271397   -6.9694381    1026.8543  0.018679588  0.017032947         1348 
 4582000   0.52716353   -6.9709717    1028.0348   0.01869698  0.017027399         1331 
 4583000   0.52047764   -6.9775969    1027.5113  0.018683382  0.017021861         1269 
 4584000   0.51852454   -6.9526161    1026.7009  0.018664574  0.017016314         1321 
 4585000   0.52150193   -6.9852903    1028.3386  0.018690269  0.017010776         1414 
 4586000   0.52072558   -6.9744167    1026.1986  0.018647306  0.017005241         1359 
 4587000   0.52508421   -6.9776672    1026.9632  0.018657132  0.016999706         1301 
 4588000   0.51626609    -6.974822    1027.7036  0.018666514  0.016994163         1323 
 4589000   0.51867206   -6.9874925    1027.6904  0.018662207  0.016988629         1331 
 4590000   0.51340706   -6.9855875    1026.6199  0.018638705  0.016983091         1413 
 4591000   0.51812669   -6.9831226    1026.7148  0.018636368  0.016977559         1424 
 4592000   0.51198642    -6.997583    1027.5787  0.018647987  0.016972032         1312 
 4593000   0.52124027   -6.9833228    1026.7227  0.018628396  0.016966509         1268 
 4594000   0.52153513    -6.959738    1027.8057  0.018643987  0.016960993         1293 
 4595000   0.52458968    -6.974614    1028.2565  0.018648104   0.01695548         1267 
 4596000   0.50151928   -6.9860231    1025.3657  0.018591633  0.016949961         1244 
 4597000   0.51096938   -6.9597451    1027.4148  0.018624733  0.016944439         1279 
 4598000      0.52269   -6.9959622    1027.2776  0.018618196  0.016938927         1292 
 4599000   0.52415768   -6.9765285    1027.8742  0.018624959  0.016933407         1231 
 4600000   0.51642614   -6.9765904    1027.4337   0.01861293  0.016927895         1185 
 4601000   0.50938194    -6.979293     1025.201  0.018568446  0.016922388         1221 
 4602000   0.52093924   -6.9673853    1028.0374  0.018615773  0.016916883         1189 
 4603000   0.52554933   -6.9781451    1028.2203   0.01861504  0.016911385         1288 
 4604000   0.51233039   -6.9596576    1028.9012   0.01862332  0.016905887         1162 
 4605000   0.52085618   -6.9738234    1025.5126  0.018557955  0.016900396         1290 
 4606000   0.52313757   -6.9810608     1025.961  0.018562039  0.016894894         1247 
 4607000    0.5244246   -6.9835528    1029.1554   0.01861579  0.016889406         1214 
 4608000   0.51208882   -6.9747473    1027.5118  0.018582027  0.016883917         1243 
 4609000   0.50978389   -6.9700153    1028.7161  0.018599771  0.016878429         1137 
 4610000   0.50936427   -6.9816335    1027.9668  0.018582191  0.016872945         1200 
 4611000   0.50740753   -6.9870088    1027.1371  0.018563167  0.016867455         1195 
 4612000   0.52393573    -6.983399     1025.663  0.018532507  0.016861975         1186 
 4613000   0.51971558   -6.9780074    1027.7378  0.018565969  0.016856496         1195 
 4614000   0.51109989   -6.9844682    1029.7372  0.018598057  0.016851014         1255 
 4615000   0.50736867   -6.9907699    1029.7078  0.018593497  0.016845536         1274 
 4616000   0.51367243   -6.9805384    1029.1201  0.018578858  0.016840059         1148 
 4617000   0.50544991   -7.0108284    1027.2645  0.018541342  0.016834587         1222 
 4618000    0.5165259   -6.9732288    1028.4645  0.018558982  0.016829109         1264 
 4619000   0.51835482   -6.9750409    1028.1955   0.01855011  0.016823631         1298 
 4620000   0.51066991   -6.9787107    1026.8853  0.018522461  0.016818165         1270 
 4621000   0.52037791     -7.00083    1025.8197  0.018499236  0.016812695         1307 
 4622000   0.50648014   -7.0042141    1026.0233  0.018498906  0.016807231         1343 
 4623000   0.51002407   -6.9836512    1029.3758  0.018555335  0.016801774         1236 
 4624000    0.5228682   -6.9909974    1026.6809  0.018502756   0.01679631         1296 
 4625000   0.51827877   -6.9961489    1026.7993  0.018500888  0.016790846         1307 
 4626000   0.50895102   -6.9926569     1026.984  0.018500216  0.016785391         1352 
 4627000   0.51156973   -6.9981954    1026.3698  0.018485156  0.016779934         1443 
 4628000   0.51509124   -6.9917762    1026.4365  0.018482362  0.016774479         1400 
 4629000   0.51489105   -6.9719786    1028.7515  0.018520046  0.016769026         1308 
 4630000    0.5026553   -6.9905452    1026.6085  0.018477475  0.016763573         1367 
 4631000   0.51148519   -6.9932097    1026.9616  0.018479839  0.016758131         1366 
 4632000   0.51377529   -6.9741484    1027.5148  0.018485801  0.016752685         1360 
 4633000   0.49980625   -7.0012838    1027.9663  0.018489933   0.01674724         1382 
 4634000    0.5132534    -6.974397    1028.8661  0.018502124    0.0167418         1419 
 4635000   0.51304331   -6.9766461     1028.075  0.018483908  0.016736364         1449 
 4636000   0.50674728   -6.9876526    1026.1501   0.01844532  0.016730929         1421 
 4637000   0.51231876   -6.9928133    1028.2917  0.018479831  0.016725497         1478 
 4638000   0.51304791   -7.0031785    1026.1722  0.018437763   0.01672007         1388 
 4639000   0.51843181   -6.9845981    1025.6936  0.018425192  0.016714643         1409 
 4640000   0.51116141   -7.0050958    1027.7462  0.018458086  0.016709208         1425 
 4641000   0.50673694   -6.9878322    1027.8062  0.018455186   0.01670378         1410 
 4642000   0.51443311   -6.9901625    1027.8926  0.018452762  0.016698351         1369 
 4643000   0.51333362   -7.0023792    1025.9274  0.018413515  0.016692927         1343 
 4644000     0.510484   -6.9857977    1028.9014  0.018462916  0.016687506         1443 
 4645000   0.51205794    -6.970821    1026.2197  0.018410831  0.016682087         1335 
 4646000   0.50793994   -6.9985694    1026.4254  0.018410557  0.016676676         1438 
 4647000   0.51013656   -6.9922818    1027.1293  0.018419219  0.016671265         1325 
 4648000    0.5080727   -7.0129155    1027.2094  0.018416692  0.016665853         1442 
 4649000   0.50521685   -6.9864915    1026.1522   0.01839378   0.01666044         1317 
 4650000   0.52486529   -6.9979206    1027.3043  0.018410471  0.016655032         1397 
 4651000   0.51950917   -6.9734945    1026.0527  0.018384088  0.016649624         1448 
 4652000   0.51449283   -7.0021713    1025.7151  0.018374088  0.016644219         1369 
 4653000   0.50664746   -7.0073949    1026.8893  0.018391169  0.016638814         1310 
 4654000   0.49083495   -6.9789525    1027.5318  0.018398721  0.016633411         1306 
 4655000   0.50357725   -6.9859276    1026.3477  0.018373571  0.016628016         1379 
 4656000   0.50116856   -6.9848042    1026.4183  0.018370888  0.016622627         1387 
 4657000   0.49887717   -6.9973197     1026.703  0.018372039  0.016617237         1355 
 4658000   0.51099065   -6.9870952    1024.9592  0.018336896  0.016611844         1405 
 4659000   0.50124595   -6.9918919    1026.2381  0.018355836  0.016606453         1499 
 4660000   0.51846035   -6.9797885     1028.346  0.018389592  0.016601062         1470 
 4661000   0.51450617   -6.9946663    1026.2354  0.018347912  0.016595678         1449 
 4662000    0.4982929   -6.9910853    1023.3675  0.018292713  0.016590287         1523 
 4663000   0.50175737   -6.9907318    1024.3826   0.01830693  0.016584903         1473 
 4664000   0.49579764   -7.0030613    1025.5586  0.018324018   0.01657952         1547 
 4665000    0.5185932   -7.0040046    1025.9923  0.018327837  0.016574144         1471 
 4666000    0.5127201   -7.0021976    1026.9094  0.018340288   0.01656877         1450 
 4667000   0.50411275   -6.9945566    1027.8367  0.018352917  0.016563397         1471 
 4668000   0.49774006   -6.9977209    1027.7417  0.018347288  0.016558026         1432 
 4669000   0.50109811   -7.0051434     1028.069    0.0183492  0.016552651         1457 
 4670000   0.50361527   -7.0017709    1026.1173  0.018310444   0.01654728         1472 
 4671000    0.4994062   -7.0172451    1026.0728   0.01830573  0.016541916         1550 
 4672000   0.50410004   -6.9964356    1025.1308  0.018285011  0.016536547         1452 
 4673000   0.50208376   -6.9947227    1025.9129  0.018295044  0.016531186         1472 
 4674000   0.51699648   -6.9866823    1025.9844  0.018292404  0.016525825         1502 
 4675000   0.50273945   -7.0030762     1026.362  0.018295222  0.016520462         1534 
 4676000   0.50089357   -7.0045476    1026.5092  0.018293934  0.016515093         1640 
 4677000   0.50644661   -6.9962713    1026.6327  0.018292222   0.01650974         1547 
 4678000   0.50406967   -7.0205019    1026.0211  0.018277417  0.016504378         1539 
 4679000   0.51201547   -7.0201207    1025.9892  0.018272943  0.016499024         1550 
 4680000    0.5022311   -7.0168624    1025.9129   0.01826768  0.016493675         1513 
 4681000   0.50862571   -6.9963418    1026.9743  0.018282674  0.016488323         1505 
 4682000   0.49732207   -7.0224979    1026.8741  0.018276985  0.016482967         1503 
 4683000   0.50927404   -7.0124943     1026.431  0.018265197  0.016477613         1530 
 4684000   0.50347831   -6.9958181    1027.4451   0.01827934   0.01647227         1524 
 4685000   0.49980257   -7.0174058    1024.8846  0.018229893  0.016466915         1532 
 4686000   0.49526508   -6.9840096    1024.9381  0.018226954  0.016461577         1544 
 4687000   0.50278073    -7.002022    1025.8239  0.018238814  0.016456238         1468 
 4688000   0.49625712   -7.0249939    1024.1965  0.018205996  0.016450896         1559 
 4689000   0.50649092   -7.0288523    1026.4641  0.018242412  0.016445554         1510 
 4690000   0.50627441   -6.9966389    1024.6105  0.018205588  0.016440218         1515 
 4691000   0.50277489    -7.007443    1027.3752  0.018250821  0.016434892         1479 
 4692000   0.49094005   -7.0032949    1025.6437  0.018216179  0.016429553         1466 
 4693000   0.50385074    -7.010243    1025.3813  0.018207637   0.01642422         1482 
 4694000   0.49640748   -7.0077488    1025.8769  0.018212557  0.016418888         1468 
 4695000   0.49594469   -7.0124135    1026.1172  0.018212943  0.016413564         1517 
 4696000   0.49380769   -7.0163914    1025.9799  0.018206627  0.016408235         1481 
 4697000   0.50608041   -7.0223331    1024.0198  0.018167975  0.016402905         1438 
 4698000   0.49295566   -7.0168576    1024.7803  0.018177598  0.016397579         1527 
 4699000   0.50349125   -7.0190036    1025.9735  0.018194891  0.016392263         1569 
 4700000   0.49783473    -7.010421      1024.59   0.01816649  0.016386939         1508 
 4701000   0.50878809    -7.014211    1025.3405  0.018175929  0.016381618         1531 
 4702000   0.50132601   -7.0115328     1026.737  0.018196813  0.016376303         1505 
 4703000   0.49531061    -7.010108    1025.3361  0.018168122  0.016370985         1460 
 4704000   0.51044702   -7.0166692     1025.523   0.01816757  0.016365669         1468 
 4705000   0.50267823   -7.0142968    1024.9311  0.018153225   0.01636036         1472 
 4706000   0.49966194   -7.0338908     1024.574  0.018143045  0.016355044         1492 
 4707000   0.48541911    -7.024995     1027.375   0.01818878  0.016349738         1402 
 4708000   0.50615265   -7.0145303    1026.6607  0.018172273  0.016344428         1561 
 4709000   0.49973829    -7.021597    1024.9305  0.018137795  0.016339124         1467 
 4710000   0.49398391   -7.0212569    1025.8897  0.018150915  0.016333821         1509 
 4711000   0.48250094   -7.0047141    1024.9115  0.018129758  0.016328518         1537 
 4712000   0.50162394    -7.009651    1024.1649  0.018112707  0.016323215         1521 
 4713000   0.49071614   -7.0185689    1026.2755  0.018146183  0.016317917         1484 
 4714000   0.49415849   -7.0289065    1024.3461  0.018108226  0.016312619         1458 
 4715000    0.4972885   -7.0116704    1025.6743  0.018127859  0.016307334         1596 
 4716000   0.48498501   -7.0208286    1024.4921  0.018103125  0.016302047         1482 
 4717000   0.51507494   -7.0314817    1025.1324    0.0181106  0.016296755         1568 
 4718000   0.49351662     -7.01737    1026.9553  0.018138959  0.016291462         1528 
 4719000   0.49676611   -7.0263384     1024.371  0.018089479  0.016286178         1546 
 4720000   0.48176545   -6.9980651    1026.3878  0.018121253    0.0162809         1468 
 4721000   0.50220595   -7.0175848    1025.6847  0.018105004  0.016275622         1437 
 4722000   0.49327221   -7.0127226    1025.5843  0.018099398  0.016270345         1528 
 4723000   0.49412383   -7.0011034    1027.7659  0.018134059  0.016265065         1445 
 4724000   0.49845069   -7.0247266    1025.3301  0.018087251  0.016259784         1550 
 4725000    0.4971292   -7.0324214    1025.0417  0.018078337  0.016254509         1582 
 4726000   0.48655605   -7.0309763    1023.5712  0.018048582   0.01624924         1567 
 4727000   0.49823136   -7.0299097    1024.3738  0.018058914  0.016243966         1513 
 4728000   0.48788086   -7.0047097    1025.8605  0.018081297  0.016238705         1406 
 4729000   0.49831774   -7.0123175    1026.6414  0.018091235  0.016233442         1516 
 4730000   0.49895123   -7.0177403    1024.4283  0.018048419  0.016228178         1437 
 4731000   0.50488135   -7.0289119    1024.6055  0.018047726  0.016222916         1454 
 4732000   0.49472753   -7.0316418    1024.7314   0.01804613  0.016217656         1485 
 4733000   0.48881353   -7.0130839    1025.5535  0.018056791  0.016212399         1521 
 4734000   0.49466635   -7.0383738    1024.0876  0.018027171  0.016207142         1486 
 4735000   0.49570258   -7.0094614    1026.2201  0.018060895  0.016201885         1479 
 4736000   0.49345729   -7.0244142    1023.8839  0.018015975  0.016196637         1456 
 4737000   0.48950204   -7.0402807    1024.6783  0.018026147  0.016191386         1580 
 4738000   0.51040238    -7.025746    1025.4695  0.018036258  0.016186138         1521 
 4739000   0.49320681   -7.0289713      1026.05   0.01804266  0.016180898         1608 
 4740000   0.50551395   -7.0348209    1024.0718  0.018004075  0.016175647         1584 
 4741000   0.48020585   -7.0230191    1025.8729  0.018031936  0.016170403         1535 
 4742000   0.48954903   -7.0241713    1024.3674  0.018001676  0.016165167         1494 
 4743000   0.49351865   -7.0355943    1022.8899  0.017971922  0.016159925         1601 
 4744000   0.48744115   -7.0397498    1024.7187  0.018000258  0.016154687         1609 
 4745000   0.50588124   -7.0403982    1022.3668  0.017955159  0.016149451         1636 
 4746000   0.49121066   -7.0311411    1023.7687  0.017975992  0.016144212         1530 
 4747000   0.49035598   -7.0427412      1024.18  0.017979426  0.016138975         1550 
 4748000   0.48395335   -7.0384757    1024.7402  0.017985472   0.01613374         1531 
 4749000   0.49380291   -7.0202034    1024.0449  0.017969484  0.016128505         1503 
 4750000   0.48708506   -7.0230124    1024.1291  0.017967178  0.016123265         1604 
 4751000   0.48341159   -7.0213587    1023.8329    0.0179582  0.016118039         1574 
 4752000   0.49185976   -7.0293006    1021.8752  0.017920089  0.016112808         1612 
 4753000   0.48486518   -7.0429391    1025.0197  0.017971451  0.016107582         1590 
 4754000   0.49258917   -7.0414972    1024.3457  0.017955857  0.016102353         1549 
 4755000   0.49021959   -7.0148192    1022.9797  0.017928141  0.016097129         1546 
 4756000   0.47629927   -7.0400322    1024.3252  0.017947947  0.016091906         1584 
 4757000   0.50277003   -7.0349901    1023.5448  0.017930502  0.016086687         1497 
 4758000   0.49707885   -7.0559138    1025.4077  0.017959361  0.016081463         1568 
 4759000   0.49502935   -7.0333243    1025.2817  0.017953382  0.016076249         1487 
 4760000   0.48276705   -7.0303793    1024.7056  0.017939524  0.016071036         1575 
 4761000   0.48150468   -7.0402641    1025.5015  0.017949686  0.016065827         1520 
 4762000    0.4863599   -7.0453174    1024.5412  0.017929112  0.016060617         1550 
 4763000   0.49198204   -7.0185144    1025.3706   0.01793986  0.016055407         1516 
 4764000   0.47220101   -7.0404587    1022.9462  0.017893685  0.016050208         1575 
 4765000    0.4863705   -7.0273177    1026.1166  0.017945376  0.016045006         1516 
 4766000   0.49038527   -7.0038933    1025.2598   0.01792663  0.016039813         1470 
 4767000   0.48437484   -7.0296041    1023.6018  0.017893885  0.016034623         1495 
 4768000    0.4829437   -7.0333685    1024.5253  0.017906273  0.016029432         1534 
 4769000   0.48696672   -7.0436828    1026.2817   0.01793321  0.016024238         1677 
 4770000    0.4896947   -7.0291779     1023.451  0.017879996  0.016019046         1537 
 4771000   0.49069072   -7.0336278    1024.9923   0.01790317  0.016013863         1468 
 4772000   0.48195044   -7.0525698    1024.7703  0.017895542  0.016008677         1603 
 4773000    0.4911884   -7.0209087    1023.1414  0.017863352  0.016003488         1566 
 4774000    0.4847239   -7.0483689    1024.9556   0.01789128  0.015998302         1587 
 4775000   0.47599261   -7.0522645    1022.2452  0.017840231  0.015993115         1646 
 4776000    0.4844167   -7.0496238    1023.8862  0.017865128  0.015987923         1620 
 4777000   0.49131445   -7.0338962    1022.9413  0.017844904   0.01598274         1619 
 4778000   0.49104192   -7.0270024    1024.4401  0.017867311  0.015977558         1620 
 4779000   0.47276805   -7.0521665    1024.5898  0.017866182  0.015972382         1645 
 4780000   0.49422293   -7.0355938    1022.8835  0.017832697  0.015967209         1636 
 4781000    0.4949055   -7.0352854    1025.2007  0.017869356  0.015962038         1643 
 4782000   0.48435704   -7.0554428    1025.8111  0.017876256  0.015956862         1555 
 4783000   0.48164108   -7.0534355    1023.1872  0.017826804  0.015951687         1603 
 4784000   0.48339682   -7.0471369    1022.3021  0.017807659  0.015946513         1634 
 4785000    0.4809635   -7.0340108     1023.241  0.017820289  0.015941343         1631 
 4786000    0.4709128   -7.0457515    1024.7537  0.017842904  0.015936171         1654 
 4787000   0.48399582   -7.0242266    1023.5559  0.017818325  0.015931008         1604 
 4788000   0.47882272   -7.0587218    1024.5906  0.017832612  0.015925844         1648 
 4789000   0.47890126   -7.0440842     1022.264  0.017788404  0.015920683         1581 
 4790000   0.48693081   -7.0532751     1022.755  0.017793233  0.015915527         1624 
 4791000   0.48079873   -7.0486927    1024.3316  0.017816942  0.015910374         1620 
 4792000   0.48776538   -7.0734533    1023.3431  0.017796034  0.015905219         1614 
 4793000   0.49289288   -7.0593043    1023.1676  0.017789269  0.015900068         1622 
 4794000   0.48925583   -7.0381271    1022.6984  0.017777403  0.015894915         1627 
 4795000   0.47031373   -7.0480019    1024.4829  0.017804707  0.015889767         1558 
 4796000   0.48787695   -7.0571424    1024.9296  0.017808757  0.015884621         1576 
 4797000     0.489772   -7.0476317    1021.8702  0.017751897  0.015879477         1563 
 4798000   0.48526834   -7.0321214     1022.107  0.017752309  0.015874331         1562 
 4799000   0.47943094   -7.0458219     1025.062  0.017799923  0.015869196         1584 
 4800000   0.48320757   -7.0486113     1022.498  0.017751702  0.015864064         1655 
 4801000   0.48170933   -7.0464547    1024.5326  0.017783319  0.015858928         1662 
 4802000   0.48410411   -7.0444224    1023.7364    0.0177658  0.015853795         1671 
 4803000   0.47588075   -7.0652505    1024.2774  0.017771487  0.015848664         1620 
 4804000   0.48384355   -7.0380189    1022.5982  0.017738659  0.015843531         1599 
 4805000   0.48805825   -7.0418161    1021.5156  0.017716192  0.015838409         1586 
 4806000   0.48466925   -7.0505827    1024.4076  0.017762651  0.015833284         1641 
 4807000   0.47741014   -7.0486512    1023.3874  0.017741269  0.015828163         1589 
 4808000   0.48768025   -7.0530469    1023.8299  0.017745249  0.015823044         1597 
 4809000   0.48050172   -7.0426332    1024.1601  0.017747281  0.015817928         1587 
 4810000   0.48148541   -7.0488169    1024.6298  0.017751729  0.015812813         1625 
 4811000   0.48378078   -7.0494911    1021.7069   0.01769741  0.015807699         1525 
 4812000   0.48810869   -7.0411317    1023.1658  0.017718998  0.015802586         1635 
 4813000   0.48127342    -7.074987    1021.8828  0.017693102  0.015797476         1603 
 4814000   0.48833314     -7.04161    1024.3747  0.017732564  0.015792367         1664 
 4815000    0.4859117   -7.0542084    1024.3792  0.017728958  0.015787261         1610 
 4816000   0.47411663   -7.0809634    1024.0482  0.017719549  0.015782154         1561 
 4817000   0.47563286   -7.0579583     1023.495  0.017706301  0.015777054         1622 
 4818000   0.48581795    -7.051689    1025.7296  0.017741275  0.015771963         1618 
 4819000   0.49150778   -7.0449852    1025.5573  0.017734616  0.015766873         1590 
 4820000   0.48181472   -7.0244578    1022.1437  0.017671917  0.015761781         1570 
 4821000   0.48052916   -7.0406845    1023.4125  0.017690184  0.015756692         1630 
 4822000   0.48804368    -7.047348    1022.9659  0.017678796  0.015751598         1628 
 4823000   0.48732174    -7.035796    1022.2299  0.017662414  0.015746507         1643 
 4824000   0.47749953   -7.0552785    1024.6866  0.017701192  0.015741415         1658 
 4825000   0.48229158   -7.0660461    1022.0377  0.017651773  0.015736319         1693 
 4826000   0.47855263   -7.0458899    1022.7035  0.017659612  0.015731229         1638 
 4827000   0.47286765   -7.0445239    1022.4195  0.017651052  0.015726146         1592 
 4828000   0.47767556   -7.0532958    1023.1785  0.017660496  0.015721062         1644 
 4829000   0.48538835   -7.0496786    1023.3217  0.017659309  0.015715982         1628 
 4830000   0.48049789   -7.0457945    1023.4966  0.017658671  0.015710912         1558 
 4831000   0.47950579   -7.0443187    1021.5733  0.017621839  0.015705832         1664 
 4832000   0.47600733   -7.0486113    1023.5365   0.01765205  0.015700757         1683 
 4833000   0.46816966   -7.0462357    1021.0142  0.017604908  0.015695679         1606 
 4834000   0.47020835   -7.0573367    1021.9389  0.017617206  0.015690603         1628 
 4835000   0.47545346   -7.0560637    1023.3004  0.017637029  0.015685526         1658 
 4836000   0.48902432    -7.054801    1022.1603  0.017613736  0.015680458         1661 
 4837000   0.47783738   -7.0670889     1021.489  0.017598529  0.015675387         1583 
 4838000   0.47997097   -7.0618484    1023.5439  0.017630287  0.015670318         1650 
 4839000   0.48973861   -7.0552464    1021.1819  0.017585966  0.015665252         1666 
 4840000   0.47493277   -7.0525964    1020.8726  0.017577008  0.015660189         1744 
 4841000    0.4811023   -7.0677962    1022.8502  0.017607419  0.015655126         1647 
 4842000   0.47784088   -7.0641469    1021.9016  0.017587457   0.01565007         1665 
 4843000   0.48461048   -7.0491109     1020.912  0.017566797  0.015645008         1698 
 4844000   0.47361255   -7.0568653    1022.8489  0.017596492  0.015639943         1640 
 4845000   0.48720821   -7.0600628     1021.953  0.017577451  0.015634888         1688 
 4846000   0.47081358   -7.0647081    1022.9172  0.017590404  0.015629835         1730 
 4847000   0.48903604   -7.0534596    1020.9235  0.017552498  0.015624781         1725 
 4848000   0.48077654   -7.0604275    1021.0107  0.017550377  0.015619729         1767 
 4849000   0.47327121   -7.0604253     1022.172  0.017566714  0.015614679         1705 
 4850000   0.48133918   -7.0615984    1022.9535   0.01757652  0.015609632         1609 
 4851000   0.46524205   -7.0632981    1020.6076  0.017532598  0.015604587         1707 
 4852000    0.4668911   -7.0679182    1024.4094   0.01759428  0.015599547         1676 
 4853000   0.47815689    -7.071615    1022.0971  0.017550949  0.015594508         1666 
 4854000    0.4744634   -7.0792846    1022.5375  0.017554895  0.015589465         1796 
 4855000   0.48401391   -7.0618392    1021.3501  0.017530897  0.015584425         1665 
 4856000   0.46868083   -7.0533833    1023.3104  0.017560928  0.015579392         1624 
 4857000   0.46667447   -7.0548753    1022.8468  0.017549358  0.015574353         1763 
 4858000   0.47482441   -7.0728564    1021.9651  0.017530622  0.015569321         1643 
 4859000   0.47326965   -7.0510607    1023.7325  0.017557325  0.015564284         1674 
 4860000   0.47655198   -7.0661159    1022.2197  0.017527773  0.015559258         1678 
 4861000   0.47648683    -7.061428     1023.042  0.017538264  0.015554235         1734 
 4862000   0.48251431   -7.0580513    1022.2061  0.017520329  0.015549208         1684 
 4863000   0.47260969    -7.053417    1020.5777  0.017488822  0.015544184         1656 
 4864000   0.47895221   -7.0683106    1020.2445  0.017479518  0.015539161         1682 
 4865000   0.48524989   -7.0714589    1021.9592  0.017505296  0.015534144         1704 
 4866000    0.4749515   -7.0726565    1021.0686  0.017486447  0.015529124         1690 
 4867000   0.47133232    -7.078442     1021.186  0.017484865  0.015524109         1682 
 4868000   0.45115387   -7.0706836    1021.9812  0.017494885  0.015519093         1702 
 4869000   0.46865271   -7.0780238    1022.4751  0.017499745  0.015514073         1641 
 4870000   0.47041918   -7.0538892    1020.8256  0.017467926  0.015509058         1759 
 4871000   0.47304093   -7.0713164    1022.4093  0.017491434  0.015504052         1637 
 4872000   0.46952244   -7.0696722    1022.2349   0.01748486  0.015499046         1647 
 4873000   0.46512694   -7.0671516    1021.8137   0.01747407   0.01549404         1759 
 4874000   0.47657655   -7.0754466     1020.629   0.01745023  0.015489039         1674 
 4875000   0.46599618   -7.0712671    1022.5765  0.017479939  0.015484042         1645 
 4876000   0.46504357   -7.0844492    1021.5835  0.017459384  0.015479038         1747 
 4877000   0.46592969   -7.0625526    1022.1316   0.01746517  0.015474046         1618 
 4878000   0.45807241   -7.0740784     1023.064  0.017477518  0.015469051         1768 
 4879000   0.47375553    -7.059343    1021.7826   0.01745205  0.015464055         1654 
 4880000   0.46911752   -7.0741408     1021.305  0.017440317  0.015459067         1728 
 4881000   0.47531528   -7.0726422    1023.8641  0.017480437  0.015454076         1630 
 4882000   0.47077982   -7.0717226    1022.6232  0.017455674  0.015449094         1652 
 4883000   0.47093509   -7.0632984    1022.2591  0.017445885  0.015444109         1759 
 4884000    0.4701211   -7.0821827     1022.451  0.017445588  0.015439125         1732 
 4885000   0.47845086   -7.0679823    1021.8042  0.017430983  0.015434154         1630 
 4886000   0.46422814   -7.0645235    1021.0031  0.017413752  0.015429176         1621 
 4887000   0.46925187   -7.0830606    1022.2352  0.017431198  0.015424197         1651 
 4888000   0.46916796   -7.0844145    1021.6227  0.017417191  0.015419214         1693 
 4889000   0.47448258   -7.0780739     1021.319  0.017408452  0.015414239         1740 
 4890000   0.46209209   -7.0530022    1021.4129   0.01740649  0.015409265         1679 
 4891000   0.47435143   -7.0851026       1021.1  0.017397602  0.015404295         1675 
 4892000   0.47124314   -7.0719208    1021.2495  0.017396592  0.015399328         1716 
 4893000   0.46380965   -7.0914917    1020.4468  0.017379365  0.015394359         1792 
 4894000   0.47661922   -7.0747932    1020.0011  0.017368225  0.015389387         1709 
 4895000   0.46938084   -7.0706057     1022.601  0.017408938  0.015384425         1657 
 4896000   0.47331925   -7.0678484    1021.1264  0.017380284  0.015379456         1688 
 4897000   0.45885317    -7.077061    1022.0014  0.017391624  0.015374496         1664 
 4898000    0.4635535   -7.0805618    1021.0107  0.017371219  0.015369538         1723 
 4899000   0.47375519   -7.0753105    1022.5098  0.017393172  0.015364581         1714 
 4900000   0.46263433   -7.0547838    1022.1682  0.017383812  0.015359629         1657 
 4901000   0.46999222   -7.0754662      1021.32  0.017365844  0.015354682         1702 
 4902000   0.46425694   -7.0707453    1022.1561  0.017376514   0.01534973         1641 
 4903000     0.471952   -7.0821438    1020.2128  0.017339941   0.01534478         1719 
 4904000   0.45848678   -7.0775878    1020.5459  0.017342066  0.015339832         1698 
 4905000   0.46453802   -7.0696671    1020.6278  0.017339923  0.015334888         1803 
 4906000   0.45970774   -7.0596536    1021.0067  0.017342823  0.015329944         1751 
 4907000   0.45885666   -7.0679313    1021.2315  0.017343108  0.015325004         1747 
 4908000   0.45493135   -7.0804158    1020.5325  0.017327705  0.015320064         1836 
 4909000   0.46669492   -7.0822637    1020.5944  0.017325227  0.015315125         1757 
 4910000    0.4733193   -7.0728145    1021.1625  0.017331339  0.015310192         1734 
 4911000   0.48178118   -7.0781877    1021.5359  0.017334146  0.015305259         1669 
 4912000     0.464034   -7.0820383     1020.078  0.017305884  0.015300325         1717 
 4913000   0.46764966   -7.0739146    1020.5245  0.017309935  0.015295394         1672 
 4914000   0.46840121   -7.0820364    1023.0368  0.017349016  0.015290466         1640 
 4915000   0.47030973   -7.0895302    1022.5687   0.01733755   0.01528554         1619 
 4916000   0.46288769   -7.0907852    1021.4779  0.017315533  0.015280616         1747 
 4917000   0.46721611   -7.0819232     1021.588  0.017313877  0.015275691         1754 
 4918000    0.4702537   -7.0940979    1021.1152  0.017302345  0.015270767         1689 
 4919000    0.4618331   -7.0848498    1021.0896  0.017298395  0.015265842         1771 
 4920000   0.45942552   -7.0839448    1021.1469  0.017295848   0.01526092         1718 
 4921000   0.47240464   -7.0785665    1020.7936  0.017286351  0.015256004         1730 
 4922000   0.46553317    -7.072601    1021.2661  0.017290838  0.015251085         1645 
 4923000   0.47097552   -7.0871057    1020.0708  0.017267094  0.015246168         1681 
 4924000   0.46519994   -7.0809522     1021.322  0.017284762  0.015241261         1682 
 4925000   0.47317428   -7.0787293    1022.1197  0.017294749  0.015236356         1682 
 4926000   0.46337645   -7.1056041    1020.8146   0.01726916  0.015231445         1749 
 4927000   0.46713264   -7.0826812    1020.2754  0.017256535  0.015226539         1737 
 4928000   0.46814177   -7.0907261     1021.051  0.017266149  0.015221639         1735 
 4929000   0.46304463   -7.0801987    1022.3303  0.017284275  0.015216735         1724 
 4930000   0.46694563   -7.0776201    1021.1765  0.017261267  0.015211833         1692 
 4931000   0.46641974   -7.0900553    1022.1265  0.017273821  0.015206931         1702 
 4932000   0.46066382    -7.104511    1020.9888  0.017251095  0.015202034         1720 
 4933000   0.46187242   -7.0969328    1021.5882  0.017257724   0.01519714         1699 
 4934000   0.46719011   -7.0853415    1020.4391  0.017234819  0.015192252         1760 
 4935000   0.46027724   -7.0985627    1021.4152  0.017247809  0.015187358         1710 
 4936000   0.45198991   -7.0806412    1019.7212  0.017215714   0.01518247         1740 
 4937000   0.46002324   -7.0978745    1018.9414  0.017199065  0.015177583         1767 
 4938000   0.45117263   -7.0928278    1019.9853  0.017213198  0.015172695         1765 
 4939000   0.45053197   -7.1027499    1021.1247  0.017228938  0.015167808         1800 
 4940000   0.45897708   -7.0882119    1020.0138  0.017206711  0.015162918         1715 
 4941000   0.46017835   -7.0993902    1020.1516  0.017205552  0.015158036         1788 
 4942000   0.46819449   -7.0843932     1021.862  0.017230913  0.015153158         1742 
 4943000   0.45502519   -7.0894071    1020.7396  0.017208503  0.015148281         1748 
 4944000    0.4476777    -7.091281    1021.2836  0.017214192  0.015143406         1779 
 4945000   0.45931603   -7.0831461    1020.6975  0.017200835  0.015138531         1684 
 4946000   0.47325182    -7.100555      1020.74  0.017198072  0.015133657         1712 
 4947000   0.46808122   -7.0948779    1020.4592  0.017189866  0.015128784         1722 
 4948000    0.4688762   -7.0781996    1022.4001   0.01721908  0.015123918         1735 
 4949000   0.45981667   -7.1021033    1019.1111   0.01716022  0.015119052         1714 
 4950000   0.46347427   -7.0742646    1020.1246  0.017173815  0.015114186         1739 
 4951000   0.45834413   -7.0993155    1019.3034  0.017156524   0.01510932         1715 
 4952000   0.46482413   -7.0956382       1023.1  0.017216949  0.015104456         1795 
 4953000   0.46884614   -7.0890721    1021.9668  0.017194408  0.015099596         1708 
 4954000   0.45798733   -7.0989039    1021.1687  0.017177512  0.015094743         1773 
 4955000   0.46531395   -7.0947181    1018.7577  0.017133496  0.015089887         1750 
 4956000   0.45645451     -7.10115    1019.5183  0.017142828  0.015085032         1709 
 4957000   0.45422303   -7.1065029    1019.6535  0.017141643  0.015080182         1831 
 4958000    0.4663498   -7.1085004    1021.2311  0.017164701  0.015075328         1726 
 4959000   0.44960857   -7.0872874    1018.5642  0.017116425  0.015070476         1775 
 4960000   0.46345885   -7.0969362    1019.8493  0.017134565  0.015065631         1824 
 4961000   0.45579859   -7.0839702    1020.9714   0.01714996  0.015060785         1693 
 4962000   0.45922016    -7.097448      1020.12  0.017132205  0.015055945         1776 
 4963000   0.45462344   -7.0883409    1018.7955  0.017106513    0.0150511         1792 
 4964000   0.46352917   -7.0951285    1021.1998  0.017143429  0.015046259         1730 
 4965000   0.46756515    -7.099563    1020.4083  0.017126691   0.01504142         1750 
 4966000   0.46663904   -7.1031378    1020.0032  0.017116446  0.015036585         1738 
 4967000   0.45392333   -7.0887874    1021.7155  0.017141726  0.015031752         1720 
 4968000   0.45349955   -7.0821558    1019.7645  0.017105551  0.015026916         1820 
 4969000   0.45135516   -7.0914727    1021.3077  0.017127988  0.015022084         1766 
 4970000   0.45871691    -7.100765    1019.1811  0.017088886  0.015017254         1777 
 4971000    0.4580123   -7.0847204     1021.164  0.017118688  0.015012428         1796 
 4972000   0.45371791   -7.0753668    1020.9464  0.017111599  0.015007606         1744 
 4973000   0.45590845   -7.1172019    1020.3311  0.017097846  0.015002779         1827 
 4974000   0.46076518   -7.1188157    1019.2601  0.017076466  0.014997955         1822 
 4975000   0.45869462   -7.0955673    1021.3272  0.017107659  0.014993129         1745 
 4976000    0.4569843   -7.0963071     1020.677  0.017093331  0.014988312         1714 
 4977000   0.45982889   -7.0938127    1019.8271  0.017075667  0.014983495         1782 
 4978000   0.45500186   -7.1004734    1019.1518  0.017060931  0.014978684         1763 
 4979000   0.45776202   -7.0913547    1019.5531  0.017064222  0.014973868         1733 
 4980000    0.4570278   -7.0996114    1021.0483  0.017085815  0.014969058         1774 
 4981000   0.45604246   -7.1052962    1021.4132   0.01708849  0.014964254         1771 
 4982000   0.45632867   -7.0976872    1018.6199  0.017038336  0.014959449         1788 
 4983000   0.45989482   -7.1036984    1020.0376  0.017058627  0.014954642         1764 
 4984000   0.45747645   -7.0969156     1019.872  0.017052434  0.014949838         1729 
 4985000   0.45167592   -7.0966655    1019.2812  0.017039138  0.014945038         1799 
 4986000   0.46234751    -7.100978    1018.4255  0.017021419   0.01494024         1804 
 4987000   0.46433226   -7.1004598    1019.9732  0.017043867  0.014935441         1738 
 4988000    0.4648406   -7.1073173    1019.9248  0.017039641  0.014930646         1786 
 4989000   0.46684949    -7.096414    1018.5143  0.017012667  0.014925848         1809 
 4990000   0.46291011   -7.1049087    1020.4382  0.017041387  0.014921059         1793 
 4991000   0.45240001   -7.0887404    1019.3582   0.01701994  0.014916268         1690 
 4992000   0.45354569   -7.0971627    1019.3331  0.017016111  0.014911482         1771 
 4993000   0.45522903   -7.0945195    1019.9072  0.017022285  0.014906693         1754 
 4994000   0.45403407   -7.0844805    1020.3632  0.017026486  0.014901905         1788 
 4995000   0.45658969   -7.0956061    1019.6236  0.017010738  0.014897126         1757 
 4996000   0.46107548   -7.1118316    1020.2197  0.017017275  0.014892347         1659 
 4997000   0.44281694    -7.098265     1018.114  0.016978753  0.014887562         1745 
 4998000   0.44772906   -7.0860364    1020.9599  0.017022808  0.014882786         1741 
 4999000   0.44466774   -7.0983828    1020.2565  0.017007676   0.01487801         1777 
 5000000   0.44587974   -7.0945847    1018.8191  0.016980319  0.014873241         1736 
 5001000    0.4576005   -7.1078738    1018.4866  0.016971382  0.014868469         1728 
 5002000   0.45479374   -7.1041101    1018.7617  0.016972572  0.014863698         1672 
 5003000   0.45463004   -7.1067329      1020.15  0.016992304   0.01485893         1771 
 5004000    0.4510555   -7.1194281    1019.6381  0.016980385  0.014854164         1765 
 5005000   0.45319957   -7.1065862    1019.1337  0.016968593    0.0148494         1762 
 5006000   0.44854495   -7.1059992    1021.1157  0.016998197  0.014844639         1849 
 5007000   0.44918514   -7.1104523    1019.3326  0.016965125  0.014839878         1757 
 5008000   0.45465394   -7.0916093    1020.1618  0.016975537  0.014835121         1743 
 5009000    0.4551877   -7.1017639    1020.3076  0.016974573  0.014830369         1769 
 5010000    0.4467943   -7.1181843    1020.0534  0.016966955  0.014825617         1725 
 5011000   0.45194483   -7.1089703    1019.3941  0.016952605  0.014820861         1774 
 5012000   0.46015095   -7.0950812    1019.2081  0.016946131  0.014816113         1849 
Loop time of 13258.3 on 48 procs for 5000000 steps with 4000 atoms

Performance: 65166.723 tau/day, 377.122 timesteps/s
99.4% CPU use with 48 MPI tasks x no OpenMP threads

MPI task timing breakdown:
Section |  min time  |  avg time  |  max time  |%varavg| %total
---------------------------------------------------------------
Pair    | 979.75     | 1052.5     | 1137.7     | 125.7 |  7.94
Neigh   | 90         | 93.807     | 98.426     |  23.4 |  0.71
Comm    | 823.15     | 921.27     | 987.19     | 137.4 |  6.95
Output  | 15.897     | 15.902     | 16.014     |   0.4 |  0.12
Modify  | 11014      | 11048      | 11097      |  20.9 | 83.33
Other   |            | 126.9      |            |       |  0.96

Nlocal:        83.3333 ave          88 max          79 min
Histogram: 2 4 3 7 13 7 2 6 0 4
Nghost:        2403.48 ave        2421 max        2385 min
Histogram: 4 3 5 4 5 10 5 3 5 4
Neighs:        16656.0 ave       18871 max       14524 min
Histogram: 2 6 8 4 3 5 6 8 3 3
FullNghs:      33312.1 ave       35397 max       31452 min
Histogram: 2 5 4 7 12 6 3 5 0 4

Total # of neighbors = 1598979
Ave neighs/atom = 399.74475
Neighbor list builds = 267768
Dangerous builds = 1

#clear
#
#next RN
#
#jump SELF
Total wall time: 3:41:01
