
units lj                  # Use reduced LJ style units
atom_style atomic         # Uncharged point particles
atom_modify map hash      # Needed for indexing of clusters etc
                          # Used to be able to find where atoms are in relation to each other.

lattice fcc 1.0 spacing 1 1 1
Lattice spacing in x,y,z = 1.5874011 1.5874011 1.5874011
region box block 0 10 0 10 0 10 units lattice
create_box 2 box
Created orthogonal box = (0.0000000 0.0000000 0.0000000) to (15.874011 15.874011 15.874011)
  3 by 4 by 4 MPI processor grid
create_atoms 1 box
Created 4000 atoms
  using lattice units in orthogonal box = (0.0000000 0.0000000 0.0000000) to (15.874011 15.874011 15.874011)
  create_atoms CPU = 0.003 seconds
set type 1 type/fraction 2 0.28 78393
Setting atom values ...
  1153 settings made for type/fraction
mass 1 1.0
mass 2 1.0
pair_style lj/cut  3.5
pair_modify tail  yes
pair_coeff 1  1  1.0  1.0   # Intearaction between 1 and 1 set with epsilon = 1 and sigma = 1
pair_coeff 1  2  1.5  0.8
pair_coeff 2  2  0.5  0.88

write_data data.0
System init for write_data ...
Neighbor list info ...
  update every 1 steps, delay 10 steps, check yes
  max neighbors/atom: 2000, page size: 100000
  master list distance cutoff = 3.8
  ghost atom cutoff = 3.8
  binsize = 1.9, bins = 9 9 9
  1 neighbor lists, perpetual/occasional/extra = 1 0 0
  (1) pair lj/cut, perpetual
      attributes: half, newton on
      pair build: half/bin/atomonly/newton
      stencil: half/bin/3d
      bin: standard
WARNING: Not all mixed pair coeffs generated from mixing. Use write_data with 'pair ij' option to store all pair coeffs. (../write_data.cpp:312)


#############################
#   M E L T   S Y S T E M   #
#############################

velocity all create 2.4 8172548 mom yes dist gaussian # Assign velocities
                                                    # Temperature 2.4, random number seed, zero linear momentum
                                                                                # Gaussian distribution

timestep 0.002   # simulation timestep
thermo 1000       # output thermodynamic data every 1000 steps bf 100

# Define a fix  in this case with index 1 applied to all
# particles in the simulation. This fix is for simulations
# in the anisotropic NPT ensemble. Note that we use the MTK
# correction.
fix 1 all npt temp 2.4 2.4 0.1 iso 5.68 5.68 0.5 mtk yes tchain 5 pchain 5 # Use NPT ensemble
                                                                         # Set temperature and pressure and damping
                                                                         # Numbers of thermostats in chain and in barostat
run 10000          # run for 10000 steps
Per MPI rank memory allocation (min/avg/max) = 3.642 | 3.644 | 3.648 Mbytes
Step Temp E_pair E_mol TotEng Press Volume 
       0          2.4   -6.5468678            0   -2.9477678   -3.9245899         4000 
    1000      2.42247   -5.0702127            0   -1.4374162    5.2814909    4187.6476 
    2000    2.3928101   -4.9559294            0   -1.3676115    5.5102118    4239.3992 
    3000    2.4125961   -4.9505536            0   -1.3325642    5.7300401    4209.7591 
    4000    2.4063927   -4.9365936            0   -1.3279069    5.5792515    4241.8495 
    5000    2.3961579   -4.8761575            0   -1.2828193    5.7429118    4249.4476 
    6000    2.3812374   -4.9068474            0   -1.3358843    5.4733038    4263.8892 
    7000    2.4182331   -4.9809688            0   -1.3545259    6.0374628    4175.3573 
    8000    2.3872671    -4.936231            0   -1.3562255    5.8290851     4213.573 
    9000    2.4142193   -4.9749322            0   -1.3545086    5.3662378    4233.9564 
   10000    2.4434143   -4.9434038            0   -1.2791987    5.5664553    4237.6176 
Loop time of 2.40636 on 48 procs for 10000 steps with 4000 atoms

Performance: 718096.251 tau/day, 4155.650 timesteps/s
99.6% CPU use with 48 MPI tasks x no OpenMP threads

MPI task timing breakdown:
Section |  min time  |  avg time  |  max time  |%varavg| %total
---------------------------------------------------------------
Pair    | 1.0165     | 1.105      | 1.2055     |   3.6 | 45.92
Neigh   | 0.20374    | 0.21166    | 0.22505    |   1.0 |  8.80
Comm    | 0.74501    | 0.82884    | 0.91026    |   4.6 | 34.44
Output  | 0.00026385 | 0.00026912 | 0.00036729 |   0.0 |  0.01
Modify  | 0.21051    | 0.24531    | 0.27639    |   3.4 | 10.19
Other   |            | 0.01525    |            |       |  0.63

Nlocal:        83.3333 ave          95 max          74 min
Histogram: 5 4 10 1 6 9 6 0 6 1
Nghost:        1576.79 ave        1609 max        1539 min
Histogram: 2 1 4 7 2 11 11 6 2 2
Neighs:        8999.98 ave       10296 max        7421 min
Histogram: 1 4 3 7 8 4 6 5 5 5

Total # of neighbors = 431999
Ave neighs/atom = 107.99975
Neighbor list builds = 907
Dangerous builds = 203

# Equilibrate just above the melting temperature to avoid step fn in T

fix 1 all npt temp 1.25 1.25 0.1 iso 5.68 5.68 0.5 mtk yes tchain 5 pchain 5
run 2000
Per MPI rank memory allocation (min/avg/max) = 3.643 | 3.645 | 3.649 Mbytes
Step Temp E_pair E_mol TotEng Press Volume 
   10000    2.4434143   -4.9434038            0   -1.2791987    5.5664553    4237.6176 
   11000    1.2170808   -6.7659647            0   -4.9407999     5.832881    3398.2856 
   12000    1.2285833    -6.860637            0   -5.0182227    5.4771308    3389.4987 
Loop time of 0.574277 on 48 procs for 2000 steps with 4000 atoms

Performance: 601799.655 tau/day, 3482.637 timesteps/s
99.6% CPU use with 48 MPI tasks x no OpenMP threads

MPI task timing breakdown:
Section |  min time  |  avg time  |  max time  |%varavg| %total
---------------------------------------------------------------
Pair    | 0.25171    | 0.27146    | 0.29776    |   2.0 | 47.27
Neigh   | 0.037846   | 0.040042   | 0.044021   |   0.6 |  6.97
Comm    | 0.17818    | 0.21107    | 0.23424    |   2.6 | 36.75
Output  | 5.1927e-05 | 5.3752e-05 | 7.0455e-05 |   0.0 |  0.01
Modify  | 0.043281   | 0.046914   | 0.050914   |   1.0 |  8.17
Other   |            | 0.004735   |            |       |  0.82

Nlocal:        83.3333 ave          90 max          76 min
Histogram: 4 1 6 2 6 9 4 12 1 3
Nghost:        1834.21 ave        1860 max        1810 min
Histogram: 3 1 6 8 7 8 7 2 3 3
Neighs:        11269.1 ave       12512 max       10155 min
Histogram: 2 2 10 9 7 4 4 3 3 4

Total # of neighbors = 540917
Ave neighs/atom = 135.22925
Neighbor list builds = 144
Dangerous builds = 10

#############################
# L I N E A R  Q U E N C H  #
#############################

# Define solid atoms. This closely follows ten Wolde  Ruiz-Montero and Frenkel  Faraday Discuss  1996  104  93-110
# Compute components of the per-atom q6 vector
compute q6 all orientorder/atom degrees 1 6 components 6 nnn NULL cutoff 1.3 # compute the Q6 parameter.
                                                                             # Use all neighbours within 1.3 unit cell.

# get number of connections
compute coord_number all coord/atom orientorder q6 0.5

# An atom is solid if it has 8 or more connections (of a possible 14)
variable is_solid atom c_coord_number>=8
group solid dynamic all var is_solid    # Must be dynamic to update
dynamic group solid defined

# do clustering
compute cluster solid cluster/atom 1.3 # Create a cluster where all atoms within are solid and max 1.3 units from another member

# define chunks one chunk per cluster
compute clus_chunks solid chunk/atom c_cluster nchunk every compress yes  # Says which atoms are in which chunk

# count the size of each chunk
compute size_chunks solid property/chunk clus_chunks count


# Find the maximum entry in the vector of chunk sizes
variable max_n equal max(c_size_chunks)


# Thermo style which includes this variable
# thermo_style custom step temp pe vol v_max_n

thermo ${N}  # Print the thermo information every 100 steps
thermo 1000  

# Reset the npt fix at a lower temperature (below freezing)
fix 1  all npt temp  ${temp} ${temp}  0.1  iso  5.68  5.68  0.5  mtk yes tchain  5  pchain  5
fix 1  all npt temp  0.45 ${temp}  0.1  iso  5.68  5.68  0.5  mtk yes tchain  5  pchain  5
fix 1  all npt temp  0.45 0.45  0.1  iso  5.68  5.68  0.5  mtk yes tchain  5  pchain  5

dump dmp2 all dcd ${N} traj.dcd
dump dmp2 all dcd 1000 traj.dcd


compute msd all msd com yes
variable twopoint equal c_msd[4]/6/(step*dt+1.0e-6)
fix 9 all vector 10 c_msd[4]
variable fit equal slope(f_9)/6/(10*dt)
thermo_style custom step temp pe c_msd[4] v_twopoint v_fit v_max_n

fix 1 all npt temp 1.25 ${temp} 0.1 iso 5.68 5.68 0.5 mtk yes tchain 5 pchain 5
fix 1 all npt temp 1.25 0.45 0.1 iso 5.68 5.68 0.5 mtk yes tchain 5 pchain 5
run 5000000 # 5000000  # Run for this many steps
Neighbor list info ...
  update every 1 steps, delay 10 steps, check yes
  max neighbors/atom: 2000, page size: 100000
  master list distance cutoff = 3.8
  ghost atom cutoff = 3.8
  binsize = 1.9, bins = 8 8 8
  4 neighbor lists, perpetual/occasional/extra = 1 3 0
  (1) pair lj/cut, perpetual
      attributes: half, newton on
      pair build: half/bin/atomonly/newton
      stencil: half/bin/3d
      bin: standard
  (2) compute orientorder/atom, occasional
      attributes: full, newton on
      pair build: full/bin/atomonly
      stencil: full/bin/3d
      bin: standard
  (3) compute coord/atom, occasional
      attributes: full, newton on
      pair build: full/bin/atomonly
      stencil: full/bin/3d
      bin: standard
  (4) compute cluster/atom, occasional
      attributes: full, newton on
      pair build: full/bin/atomonly
      stencil: full/bin/3d
      bin: standard
Per MPI rank memory allocation (min/avg/max) = 9.805 | 9.812 | 9.816 Mbytes
Step Temp PotEng c_msd[4] v_twopoint v_fit v_max_n 
   12000    1.2285833    -6.860637 2.1788338e-30 1.513079e-32 8.3333333e+20            2 
   13000    1.2266197   -6.8540357   0.51038939 0.0032717267  0.042400174            1 
   14000    1.2377701    -6.820528   0.97757141 0.0058188772    0.0395016            2 
   15000     1.224088   -6.8191222     1.441329 0.0080073833  0.039023331            1 
   16000    1.2440516   -6.8367894    1.9106244 0.0099511683    0.0391327            1 
   17000    1.2429582   -6.8367649    2.4272348  0.011898209   0.03937283            1 
   18000    1.2254978   -6.7725135    2.9036228  0.013442698  0.039792309            1 
   19000     1.232316    -6.853158    3.3640589  0.014754644  0.039794288            2 
   20000    1.2518928   -6.8219401     3.811255  0.015880229  0.039648236            1 
   21000    1.2471903   -6.8428476    4.3597127  0.017300447  0.039750244            2 
   22000     1.239439   -6.8036288    4.8360786  0.018318479  0.039910812            2 
   23000     1.245201   -6.8247217    5.3619318  0.019427289  0.040184077            1 
   24000    1.2638179   -6.8407734    5.8168754  0.020197484  0.040278443            3 
   25000    1.2595435   -6.8064315    6.2160013  0.020720004  0.040201925            1 
   26000    1.2304293   -6.8531334    6.7862569  0.021750823  0.040202221            2 
   27000     1.250188   -6.8348664    7.2202384  0.022284686  0.040257022            1 
   28000    1.2401558   -6.7872658    7.6858767  0.022874633  0.040187205            2 
   29000     1.267583   -6.8460009    8.1034653  0.023285819  0.040064212       -1e+20 
   30000    1.2390478   -6.8251666    8.5038599  0.023621833  0.039914702            2 
   31000    1.2633375    -6.836365     8.961348  0.024089645  0.039730139            3 
   32000    1.2355112   -6.8622449    9.3736336  0.024410504   0.03951279            2 
   33000    1.2364023   -6.8171656    9.8741362  0.024934687  0.039332472            2 
   34000    1.2391702   -6.8589839    10.332789  0.025325464   0.03921209            1 
   35000    1.2348672   -6.8416989    10.778025  0.025661964   0.03911442            2 
   36000    1.2594304   -6.8187548    11.245243  0.026030655  0.039007415            2 
   37000    1.2338111   -6.8280184    11.653855  0.026247421  0.038916689            4 
   38000    1.2204628   -6.8477378    12.191905  0.026736634  0.038844572            1 
   39000    1.2606312   -6.8228579    12.649235   0.02702828  0.038809234            3 
   40000    1.2228094   -6.8173601    13.212771  0.027526607  0.038827697            1 
   41000    1.2391861   -6.8784757    13.680065   0.02780501  0.038834901            2 
   42000    1.2374811   -6.8211045     14.12055  0.028016963  0.038865755            3 
   43000     1.262775   -6.8110979    14.537963  0.028174347  0.038858869            2 
   44000    1.2319835    -6.852201    15.161954  0.028715822   0.03888682            3 
   45000    1.2602014   -6.8389689    15.534456  0.028767512   0.03891634            2 
   46000    1.2580352   -6.8269426    16.077004  0.029125007  0.038943976            2 
   47000     1.238346   -6.8525378    16.534895   0.02931719  0.038973104            1 
   48000    1.2421242   -6.8428887    17.042397  0.029587495  0.039011056            3 
   49000     1.237783   -6.8288296     17.45629  0.029687568  0.039036677            1 
   50000    1.2522843   -6.7979243    17.967086  0.029945143  0.039048591            1 
   51000    1.2482686   -6.8603138    18.442847  0.030135371  0.039063086            1 
   52000    1.2325081   -6.8483447    19.015354  0.030473323  0.039107729            1 
   53000    1.1960341     -6.83081       19.535  0.030715408  0.039154291            2 
   54000    1.2348259   -6.8147623    20.046764  0.030936365  0.039213039            3 
   55000    1.2565679   -6.8535416    20.389074  0.030892536  0.039261225            1 
   56000    1.2613643    -6.828404    21.032409  0.031298228   0.03931177            2 
   57000    1.1875882   -6.8067348    21.486878  0.031413564  0.039355159            2 
   58000    1.2320974   -6.8889926    21.850069  0.031393778  0.039396751            4 
   59000    1.2498911   -6.8672733    22.190134  0.031341997  0.039412966            5 
   60000    1.2333601   -6.8524777    22.631218  0.031432246  0.039402438            1 
   61000    1.2525696   -6.8551176    23.055958   0.03149721  0.039387782            3 
   62000    1.2432439   -6.8332278    23.484366  0.031565008  0.039353168            1 
   63000    1.2659084   -6.8378371    23.843382  0.031538865  0.039332793            2 
   64000    1.2442018   -6.8321306    24.165651  0.031465692  0.039272591            1 
   65000    1.2103655   -6.8698263    24.654829  0.031608754  0.039201541            1 
   66000    1.2298714    -6.826354    25.157648  0.031764707  0.039150935            1 
   67000    1.2655359    -6.881951    25.463195   0.03167064  0.039100687            1 
   68000    1.2579582   -6.8703634    26.008556   0.03187323  0.039056085            1 
   69000    1.2196107   -6.8460102    26.772106  0.032333462  0.039037346            2 
   70000    1.2413619   -6.8065193    27.345852  0.032554585   0.03905308            2 
   71000    1.2352895   -6.8380957    27.913738  0.032762604  0.039073948            1 
   72000    1.2206425    -6.835918    28.275185  0.032725908  0.039082293            2 
   73000    1.2624764   -6.8186387    28.792397  0.032868033  0.039091969            1 
   74000    1.2054357     -6.83498    29.285894  0.032979611  0.039107249            1 
   75000    1.2439308    -6.853404    29.720588  0.033022875   0.03911644       -1e+20 
   76000    1.2398831   -6.8279213    30.307348  0.033231741   0.03912291            1 
   77000    1.2548036   -6.8225096    30.747043  0.033276021  0.039143422            1 
   78000    1.2528727   -6.7729473     31.41235  0.033560202  0.039174443            2 
   79000    1.2680127   -6.8504444    31.856195  0.033603581  0.039205662            2 
   80000    1.2094833     -6.84466    32.477003  0.033830211  0.039238774            1 
   81000    1.2289588   -6.8902103    32.758312  0.033701967  0.039270551            2 
   82000    1.2693819   -6.8526228    33.374331  0.033917003  0.039298038            1 
   83000    1.2430035   -6.8790423    33.862529  0.033998523   0.03933114            1 
   84000    1.2081302   -6.8394458    34.372003  0.034099209  0.039364902            1 
   85000    1.2253962   -6.8450569    34.858364  0.034174866  0.039406576            1 
   86000    1.2212294   -6.8281329    35.549704  0.034447387  0.039451692            1 
   87000    1.2481109    -6.859234    35.899878  0.034386856  0.039483869            1 
   88000    1.2468795   -6.8522751    36.209884  0.034289662  0.039507903            2 
   89000    1.2731699   -6.8672017    36.803865  0.034460547  0.039532438            4 
   90000    1.2484255    -6.857893    37.098599  0.034350555  0.039552857            1 
   91000    1.2475207   -6.8153651    37.620658  0.034451152   0.03956544            1 
   92000    1.2394472   -6.8355458    37.910481  0.034339204    0.0395709            1 
   93000    1.2487312   -6.8410527    38.297252  0.034316534  0.039569373            3 
   94000    1.2435579   -6.8248278     38.95119  0.034531197  0.039564322            1 
   95000    1.2165246   -6.8355903    39.306873  0.034479713  0.039556343            3 
   96000     1.283497   -6.8146269    39.824623  0.034569985  0.039551232            2 
   97000    1.2554624    -6.806111    40.304369  0.034625747  0.039546742            2 
   98000    1.2324021   -6.8097922    40.856491  0.034741914  0.039546422            1 
   99000    1.2443878   -6.8677469      41.4605  0.034899411  0.039554486            2 
  100000    1.2411824   -6.8473217    42.113547  0.035094623  0.039569531            1 
  101000    1.2638232   -6.8355704    42.731978  0.035257407  0.039597177            1 
  102000    1.2459505   -6.8520325    43.309789  0.035383815   0.03962969            1 
  103000    1.2141491   -6.8859121    43.385438  0.035101487  0.039654129            3 
  104000    1.2638466   -6.8473724    43.696571  0.035013278  0.039663469            1 
  105000    1.2514913   -6.8572117    44.260798  0.035127618  0.039674529            1 
  106000     1.241083   -6.8550366    44.670132  0.035118028  0.039679284            1 
  107000    1.2385254   -6.8204962     45.25543  0.035245662  0.039679739            1 
  108000    1.2159205    -6.884815    45.726647  0.035282906  0.039682887            2 
  109000    1.2559162   -6.8725803    46.221269  0.035337361  0.039688044            3 
  110000    1.2459351   -6.8449909    46.691019  0.035371984  0.039687564            2 
  111000     1.223686   -6.8772004    46.864205  0.035183337  0.039688926            1 
  112000    1.2511086   -6.8441978    47.504855  0.035345874  0.039682737            2 
  113000     1.257526   -6.8711257    47.666205  0.035152069  0.039669024            2 
  114000    1.2383586   -6.8381666    48.055258  0.035128113  0.039650246            2 
  115000    1.2236818   -6.8827233    48.737523  0.035317046  0.039639396            2 
  116000    1.2167895   -6.8492464     49.47619   0.03554324  0.039635016            1 
  117000     1.226798   -6.8815334    49.868882  0.035519146  0.039634764            1 
  118000    1.2281589   -6.8633687    50.342577  0.035552667  0.039633089            2 
  119000    1.2192503   -6.8487904    50.523565  0.035380648  0.039626654            1 
  120000     1.231349   -6.8648068    51.135711  0.035510911  0.039622112            3 
  121000    1.2320093    -6.848815     51.65202  0.035573016  0.039616212            1 
  122000    1.2341314   -6.8176072    52.161895  0.035629709  0.039613018            2 
  123000    1.2453955   -6.8673062    52.706629  0.035709098  0.039611512            1 
  124000    1.2385906   -6.8887699    53.160424  0.035726091   0.03961246            2 
  125000    1.2249614   -6.8906908    53.610702  0.035740468   0.03960561            1 
  126000    1.2310835   -6.8736187    54.123931  0.035796251  0.039597704            1 
  127000    1.2325627   -6.8389614     54.46524  0.035738346   0.03959345            3 
  128000     1.266939   -6.8611742    54.915541  0.035752305  0.039591319            2 
  129000    1.2348761    -6.847426    55.371965  0.035770003  0.039584789            1 
  130000     1.232536   -6.8232481    55.856587  0.035805504  0.039578159            1 
  131000    1.2429915   -6.8463782    56.248558  0.035781525   0.03956692            2 
  132000    1.2186301   -6.8516454    56.690007  0.035789146  0.039556883            1 
  133000    1.2063875   -6.8164146    57.333657  0.035923344  0.039544145            2 
  134000    1.2204364   -6.8305132    57.537706  0.035782156  0.039530534            2 
  135000    1.2568273   -6.8425217    58.164942  0.035904285  0.039525071            2 
  136000    1.2463027   -6.8389045    58.731696  0.035987559  0.039521799            1 
  137000    1.2398946   -6.8645849    59.234641  0.036030803   0.03952097            4 
  138000    1.2080444   -6.8693416    59.519944  0.035941995  0.039517589            2 
  139000    1.2290943    -6.824417    60.208206  0.036096046  0.039512912            1 
  140000    1.2378923   -6.8701644    60.494778  0.036008796  0.039507629            2 
  141000    1.2236967   -6.8503002    60.945308  0.036019685  0.039502814            3 
  142000    1.2363668   -6.8859465    61.081723  0.035846081  0.039492025            1 
  143000     1.212959   -6.8806652    61.459045  0.035815294  0.039479295            1 
  144000    1.2181924   -6.8510213     61.75874  0.035740012  0.039460909            1 
  145000    1.2214778   -6.8900528    62.364015  0.035841388  0.039443652            2 
  146000    1.2364733   -6.8446171    62.754606  0.035818839  0.039426597            2 
  147000    1.2304711   -6.8091872    63.345281  0.035910023    0.0394121            1 
  148000    1.2397885    -6.888979    63.943759  0.036004369  0.039401764            1 
  149000    1.2262188   -6.8831662    64.089629  0.035844312  0.039390928            2 
  150000    1.2323844   -6.8384676    64.701544  0.035945302  0.039377021            1 
  151000    1.2440575   -6.9187918    64.887123   0.03580967  0.039359884            1 
  152000    1.2027659   -6.8827375    65.535518   0.03592956  0.039343748            1 
  153000    1.2433365   -6.8650062     65.86341  0.035873317  0.039325456            1 
  154000    1.1847205   -6.8740703    66.524333  0.035998016  0.039307694            2 
  155000     1.226296   -6.8893567    66.615814  0.035814954  0.039291803            2 
  156000    1.2347182   -6.8833226    67.032671  0.035808051  0.039273681            3 
  157000    1.2090874   -6.8629203    67.694897  0.035931474  0.039253601            1 
  158000    1.2249173   -6.8508104    68.475217  0.036115621  0.039242457            1 
  159000    1.2342908   -6.8980504    68.724998  0.036019391  0.039231038            3 
  160000    1.2619644     -6.81882    69.274701  0.036080573  0.039217357            2 
  161000    1.2412991   -6.8409837    69.649442  0.036050436    0.0392023            1 
  162000    1.2188923   -6.9011823    70.411555  0.036219936  0.039191901            4 
  163000    1.2498846   -6.8876985    70.667549  0.036128604  0.039180772            1 
  164000    1.2380058   -6.9372576    71.119827  0.036138124  0.039170441            2 
  165000    1.2490981   -6.9212921    71.842651  0.036284167  0.039162838            2 
  166000    1.2455574    -6.894055     72.28648  0.036288394   0.03915851            2 
  167000    1.2167809    -6.871009    72.516647  0.036185951  0.039152064            1 
  168000    1.2423446   -6.8405549    73.294746  0.036356521  0.039142964            3 
  169000    1.2284131   -6.8882734    73.600644  0.036292231  0.039137958            2 
  170000    1.2391575   -6.8610033    74.447836  0.036494037   0.03913507            2 
  171000    1.1994086   -6.8888989    74.844402   0.03647388  0.039134406            3 
  172000    1.2161564    -6.862007    75.155422   0.03641251  0.039132295            2 
  173000     1.236527    -6.861377    75.573381  0.036403363  0.039127384            1 
  174000    1.2224996   -6.9121736    75.637013  0.036224623  0.039120565            1 
  175000    1.2243009   -6.8609156    76.337572  0.036351225  0.039111871            1 
  176000    1.2061978   -6.8821775    76.696227  0.036314501  0.039105072            1 
  177000    1.2289337   -6.8655887    76.977619  0.036241817  0.039095387            1 
  178000    1.2256915   -6.8808647     77.33218  0.036204204  0.039084119            2 
  179000    1.2350103   -6.8915891    77.960017  0.036294235  0.039074072            1 
  180000    1.1957157    -6.887507    78.448308  0.036318661  0.039065314            1 
  181000    1.2047869   -6.8954847    78.951208  0.036349543  0.039056967            1 
  182000    1.2324041   -6.8835129    79.154084  0.036242712  0.039045142            1 
  183000    1.2146781   -6.9093307    80.028095  0.036442666  0.039035198            1 
  184000    1.2234881   -6.8677292    80.876448  0.036628826   0.03902745            1 
  185000    1.2422961   -6.8845366    80.960695  0.036468781  0.039024032            3 
  186000    1.2242319   -6.8788175    81.321286  0.036434268  0.039017105            1 
  187000     1.232462    -6.874003     81.63978  0.036381363  0.039010597            2 
  188000    1.2254245   -6.8829989    82.265206  0.036465073  0.039002987            2 
  189000     1.197345   -6.9048024    82.531902  0.036389727  0.038994456            2 
  190000    1.2225374   -6.9500564    82.768936  0.036302165  0.038985477            1 
  191000    1.2044483   -6.8979247    83.232649  0.036314419  0.038978024            2 
  192000    1.2298805   -6.8753365     84.07109  0.036489188  0.038970364            2 
  193000    1.2135124   -6.8772633    84.723032   0.03658162  0.038966523            4 
  194000    1.2188328    -6.885762    85.100296   0.03655511  0.038963546            1 
  195000    1.2120704   -6.8591689     86.07235  0.036783056   0.03896091            2 
  196000     1.232199   -6.8781804    85.779208  0.036470752  0.038955306            1 
  197000     1.201448   -6.8457722    86.207599  0.036466836  0.038947297            2 
  198000    1.2224871   -6.8872912    86.745954   0.03650924  0.038938178            1 
  199000    1.2262201   -6.9050646    87.211587  0.036520765  0.038929008            2 
  200000    1.2279397   -6.9321789    87.509132  0.036462138   0.03892266            1 
  201000     1.256352   -6.9058054    88.331119  0.036621525  0.038917321            1 
  202000    1.2229173   -6.8874738    88.645326  0.036569854  0.038913058            1 
  203000    1.2429707   -6.8975748    89.304182  0.036660173  0.038907469            3 
  204000    1.2179074   -6.9181179    89.534877  0.036574705  0.038902074            1 
  205000    1.2114316     -6.87589    90.072439  0.036614813  0.038897641            4 
  206000    1.2368595   -6.9017917    90.622902   0.03665975  0.038891168            1 
  207000    1.2091071    -6.857184    90.857532  0.036577106  0.038886559            2 
  208000    1.2407728   -6.8635466     91.56434  0.036684431  0.038881312            2 
  209000    1.2345783   -6.8972184    91.525255  0.036493323  0.038874863            1 
  210000    1.2406377   -6.8468893    92.404145  0.036668312  0.038868267            4 
  211000    1.2281857   -6.9089575    92.305142  0.036455427  0.038860213            2 
  212000    1.2177223    -6.872772    93.199767  0.036635129  0.038853204            1 
  213000    1.2085252   -6.8424693    93.797391  0.036696945  0.038849281            1 
  214000    1.2142913   -6.8852318    94.284713  0.036715231  0.038844841            1 
  215000    1.2057935   -6.8848006       94.288  0.036545736  0.038839407            2 
  216000    1.2463077   -6.8593158     95.20529  0.036730436  0.038834067            1 
  217000     1.206056   -6.8896154    95.606675  0.036715313  0.038827394            1 
  218000    1.2320473    -6.847717       96.005  0.036699159  0.038819831            2 
  219000    1.2179366   -6.8798876    96.501444  0.036720489  0.038812359            2 
  220000    1.2237099   -6.8910911    96.994287   0.03674026  0.038807847            1 
  221000    1.2168354   -6.8965749    97.354365  0.036709791  0.038804115            3 
  222000    1.2067247   -6.9102166    97.515671  0.036604981  0.038800057            2 
  223000     1.199523   -6.9261427    98.208293  0.036699661  0.038797201            2 
  224000    1.2064033   -6.9311521    98.924988  0.036802451  0.038795192            2 
  225000    1.2122606   -6.8648463    99.636319   0.03690234   0.03879353            2 
  226000    1.2119762   -6.9407306    99.370953  0.036641207  0.038790239            1 
  227000    1.2507998   -6.8560612    100.02968  0.036721616  0.038785901            1 
  228000    1.2101149   -6.8761162    100.70845  0.036808644  0.038780797            1 
  229000    1.1909116   -6.8885887    100.74722  0.036662016   0.03877531            2 
  230000    1.2144994   -6.9192358    101.22021  0.036673989   0.03876984            2 
  231000    1.2183668   -6.9073804    101.82331  0.036732797    0.0387637            1 
  232000    1.1944107   -6.8967582    102.37444   0.03677243  0.038756935            1 
  233000    1.2021226   -6.8989213    102.71621  0.036736841  0.038749643            2 
  234000    1.1973729   -6.8862247     103.2308  0.036763107  0.038744603            1 
  235000    1.2432739   -6.9204137    103.81351  0.036813302  0.038738367            3 
  236000    1.2254379   -6.8575193    103.94488    0.0367037  0.038731651            2 
  237000    1.2177122   -6.9009332    104.33757  0.036686911  0.038724024            2 
  238000    1.2152848   -6.9548524    104.40658  0.036556925  0.038716138            4 
  239000    1.1861673   -6.8679257    105.02899  0.036620987  0.038707109            1 
  240000    1.2118477   -6.9594954    105.23277  0.036539156  0.038698528            1 
  241000    1.2002211   -6.8931847    106.24627  0.036737991  0.038689209            1 
  242000    1.1870626   -6.9217415    106.31421  0.036609576  0.038680425            6 
  243000    1.2108012   -6.8956193    106.61421  0.036561802  0.038670296            1 
  244000    1.2222266   -6.8779863    107.36586  0.036668668  0.038662233            3 
  245000    1.2216531   -6.9116355    107.40524  0.036532396  0.038654077            1 
  246000    1.2395816   -6.9002679    108.05513  0.036604042  0.038644839            1 
  247000    1.2036628   -6.9256855    108.41821  0.036578342  0.038635975            2 
  248000    1.2370983   -6.9140667     109.1153  0.036665088  0.038628209            2 
  249000    1.2234889   -6.9066148    109.55549  0.036665156  0.038620668            2 
  250000     1.210658    -6.885612    109.93928  0.036646426  0.038613323            2 
  251000    1.2049052   -6.8972343    110.68247  0.036747167  0.038606702            4 
  252000    1.2044672   -6.8507205    111.16292  0.036760224  0.038599048            2 
  253000    1.2298981     -6.88403    111.22187  0.036634344  0.038590656            2 
  254000    1.2023376   -6.9047751    111.49575  0.036579971  0.038578956            1 
  255000    1.2411861   -6.9130593    111.63716  0.036482731  0.038567513            2 
  256000    1.2108428   -6.8585394    112.48954  0.036617689  0.038558594            2 
  257000    1.1999279   -6.9171412    112.57415  0.036502643  0.038548881            3 
  258000    1.2049334   -6.9050283    113.66478   0.03671343   0.03853977            1 
  259000    1.2170851   -6.8796367    113.59821  0.036550261  0.038530715            1 
  260000    1.2209025   -6.9106974    114.14055  0.036583509  0.038518762            1 
  261000    1.1963455   -6.9141088    114.71917  0.036628088  0.038508729            1 
  262000    1.1873956   -6.9100454    114.94424  0.036559873  0.038498713            2 
  263000    1.2018986   -6.9028603    115.76845  0.036682017  0.038489129            1 
  264000    1.2089398   -6.9055987    116.66416  0.036825809    0.0384826            2 
  265000     1.197312   -6.9236072    116.97275  0.036783884  0.038476854            3 
  266000    1.2130393   -6.9017251    117.88975  0.036932879   0.03847399            2 
  267000    1.2066145   -6.8976421    118.18038  0.036885261   0.03847091            2 
  268000    1.2176746   -6.9181366    118.55337   0.03686361  0.038468521            1 
  269000     1.224883   -6.8944424    119.27175  0.036949116  0.038466662            2 
  270000    1.2034724   -6.9428314     119.4539  0.036868488  0.038465015            1 
  271000    1.2055171   -6.8893519    120.44335    0.0370367  0.038464987            4 
  272000    1.2096318   -6.8874183    120.96923  0.037061651  0.038466204            2 
  273000    1.2144656   -6.9191022    121.44371   0.03707073  0.038467776            1 
  274000    1.2098113   -6.9422929    121.76317  0.037032593  0.038468624            1 
  275000     1.216495   -6.9214862    122.30522  0.037062188  0.038468513            1 
  276000    1.1872445   -6.9053665    122.55242  0.037002543  0.038466203            2 
  277000    1.1975382   -6.8909659    123.06446  0.037023001  0.038464014            2 
  278000    1.2050203   -6.8768396    123.06082  0.036888735  0.038461534            1 
  279000    1.2265274   -6.9145921    123.70705  0.036949536  0.038460079            1 
  280000     1.203547   -6.9226104    124.41916   0.03702951  0.038459169            1 
  281000    1.2225399   -6.9241733    124.68852  0.036977616  0.038458386            2 
  282000    1.2076532   -6.8590311    125.45065  0.037071705  0.038456795            1 
  283000    1.2128951   -6.9074499    126.00615  0.037104286  0.038457504            2 
  284000    1.2167708   -6.8973792     126.2841  0.037055193  0.038457986            1 
  285000    1.2060827   -6.8496785    126.98253  0.037129395  0.038457996            1 
  286000    1.2219757   -6.9342029    127.56505  0.037169303  0.038457477            2 
  287000    1.1962029   -6.9036572    127.86094  0.037125707  0.038458499            3 
  288000    1.2010859    -6.899134    128.30019  0.037123897  0.038460155            2 
  289000    1.2475347   -6.9581473    128.78595  0.037135512  0.038462688            2 
  290000    1.2186406   -6.9322332    129.21637   0.03713114  0.038462735            2 
  291000      1.21747   -6.9207399    129.76646  0.037161071  0.038462823            1 
  292000    1.2502053   -6.9155077    130.05189  0.037115266  0.038463789            3 
  293000    1.1823082    -6.899051    130.43595  0.037097824  0.038465527            1 
  294000     1.189019   -6.9474196    130.99667  0.037130575  0.038466983            1 
  295000     1.214395   -6.9080918    131.63841  0.037185992  0.038468466            2 
  296000    1.2103278   -6.9240776    132.24231  0.037230379  0.038468449            1 
  297000    1.1956848   -6.8888528    132.19388  0.037091436  0.038468135            3 
  298000    1.1835275   -6.8923533    132.51599  0.037057045  0.038467413            1 
  299000    1.2055712   -6.9450147    133.01393  0.037071886  0.038465763            1 
  300000    1.2239628   -6.9037561    133.59596  0.037109989  0.038465378            1 
  301000    1.2034738   -6.9366258    133.89029  0.037068187  0.038463531            1 
  302000    1.2036049   -6.9412527    134.39305  0.037084174  0.038461328            2 
  303000    1.1968376    -6.874326    134.25322  0.036923328    0.0384574            4 
  304000      1.20882   -6.9597514    134.37099  0.036834154  0.038452848            2 
  305000    1.2238791   -6.8900618    135.49309  0.037019971  0.038448826            3 
  306000    1.2261963   -6.9312645    135.19093  0.036816702  0.038444196            1 
  307000    1.2139403   -6.9170727    136.19537  0.036969428  0.038439339            2 
  308000    1.1970553   -6.9226991    136.53823  0.036942161  0.038435451            1 
  309000    1.2074061   -6.9397286    137.23715  0.037011098  0.038430603            2 
  310000    1.2016458   -6.9654248    137.32651  0.036915729  0.038426856            1 
  311000    1.1997998   -6.9240289    137.84087  0.036934852  0.038421178            3 
  312000    1.1583389   -6.9181386    137.60352  0.036753076  0.038415033            1 
  313000    1.1757182    -6.933413    138.40817  0.036849884  0.038408619            2 
  314000    1.2021454   -6.9035929    139.20499  0.036943999  0.038402481            2 
  315000    1.2057013   -6.9203726     139.5616  0.036921057  0.038398335       -1e+20 
  316000     1.211694   -6.9172877    139.99577  0.036918715  0.038393894            2 
  317000    1.1917501    -6.940374    140.78761  0.037010412  0.038388806            2 
  318000    1.1945977    -6.920604    140.88774  0.036920266  0.038384554            1 
  319000    1.1854689   -6.9084242    141.47889  0.036958957   0.03838042            1 
  320000    1.1937054   -6.9659654    141.43997  0.036833325  0.038375306            1 
  321000    1.1990783   -6.8909097    142.38208  0.036963157  0.038371156            1 
  322000    1.1887784   -6.9818739    142.29447  0.036825692  0.038366009            2 
  323000    1.2133048   -6.9464056    142.78306  0.036837735  0.038360228            1 
  324000    1.1893993   -6.8752617    143.71247  0.036963084  0.038354551            1 
  325000     1.201011   -6.9235226    143.97965   0.03691786  0.038349033            3 
  326000    1.2125531    -6.940153    143.50292  0.036682751  0.038342813            1 
  327000    1.1975639   -6.9404447    144.55488  0.036838655  0.038336984            7 
  328000    1.1919445   -6.9348949     145.6837  0.037013135  0.038331318            4 
  329000    1.1945018   -6.8883244    146.49989  0.037107369  0.038326845            1 
  330000    1.2150808   -6.9170937    146.18343  0.036915008  0.038323193            3 
  331000    1.1817095   -6.8905274    146.71257  0.036936698  0.038317694            2 
  332000    1.2066343   -6.9715787    146.89501  0.036871238  0.038312462            2 
  333000    1.1985821   -6.9437408    147.48743  0.036908765  0.038308099            3 
  334000    1.1873699   -6.9690837     147.4995  0.036801271  0.038302997            2 
  335000    1.1883061   -6.9453097    148.16248  0.036856338  0.038297849            1 
  336000    1.1855442   -6.9458821    148.78922  0.036902088  0.038292852            2 
  337000    1.1916651   -6.9783506    149.24687  0.036905753  0.038287926            3 
  338000    1.1950236   -6.9083581    149.58334  0.036879522  0.038282751            2 
  339000    1.2052659   -6.9486736     149.8167  0.036828096  0.038276901            1 
  340000    1.1804419   -6.9107166    150.42626  0.036869181  0.038270373            1 
  341000    1.1960056   -6.9274159    150.93543   0.03688549  0.038264231            3 
  342000    1.1855213   -6.9460332    151.63158  0.036947266   0.03825845            4 
  343000    1.1863599   -6.8926494    151.70398  0.036857137  0.038253433            1 
  344000    1.1612681   -6.9601122      152.245  0.036881057  0.038247862            1 
  345000    1.1910522   -6.9415769     152.4272  0.036818164  0.038243193            1 
  346000    1.1797315   -6.9175485    152.52518  0.036735352  0.038237143            1 
  347000    1.1930978   -6.9515368     152.9669  0.036735568  0.038229824            1 
  348000    1.1997285   -6.9038907    153.99705  0.036876688  0.038223819            2 
  349000    1.1969464     -6.91277    154.11506  0.036799202  0.038216818            1 
  350000    1.1846007   -6.9749801    154.08642  0.036687242   0.03820945            1 
  351000    1.2211972   -6.9525874    154.88971  0.036773437  0.038202157            1 
  352000    1.2154722   -6.9067277    155.61125  0.036839783  0.038195924            1 
  353000    1.2134742   -6.9281348    155.71535  0.036759998  0.038189321            1 
  354000    1.2166874   -6.9836812     155.7432  0.036662712  0.038181032            2 
  355000    1.2069688   -6.9162504    156.38823  0.036710853  0.038172896            1 
  356000    1.1842239   -6.9469357    157.00335  0.036751722  0.038164337            1 
  357000    1.2171601    -6.897533    157.16376  0.036686218  0.038155913            1 
  358000      1.19211   -6.9311202    157.33314  0.036623171  0.038147071            1 
  359000    1.2260535   -6.8879824     158.3299  0.036752529  0.038138549            2 
  360000     1.193729   -6.9206233    158.66798  0.036728699  0.038129957            3 
  361000    1.1753921   -6.9606798    158.86299  0.036671974  0.038122148            1 
  362000    1.2115006   -6.9258491    159.18792  0.036645469  0.038114436            1 
  363000     1.189946   -6.9243389    159.49391  0.036614763  0.038106862            1 
  364000    1.1880754   -6.9540936    160.76962  0.036806232  0.038099843            1 
  365000    1.1914881   -6.8850224    161.34005  0.036835628  0.038093106            1 
  366000    1.1899052     -6.91823    161.38687  0.036745645  0.038087224            1 
  367000    1.2048576   -6.9122758    161.88372  0.036758338  0.038080421            1 
  368000    1.1966881   -6.9614249    161.84726  0.036650194   0.03807355            2 
  369000    1.1874665   -6.9057989    162.68322  0.036739661  0.038065839            2 
  370000    1.1889279   -6.8940422     163.3443  0.036789256  0.038058686            2 
  371000    1.1684689   -6.9094187    163.52766  0.036731281  0.038051639            1 
  372000    1.2006921   -6.9634095    163.55033  0.036637618  0.038044505            3 
  373000    1.1844527   -6.9156871     164.0533  0.036651765   0.03803827            2 
  374000    1.1971401   -6.9560036    164.28151  0.036604614   0.03803031            1 
  375000     1.217239   -6.9633445    164.43071  0.036540158  0.038023369            3 
  376000    1.2010167   -6.9297298    165.91845  0.036772706  0.038015842            2 
  377000    1.1838824   -6.9539489    166.27193    0.0367533  0.038009609            2 
  378000    1.1885787   -6.9081616    166.47466  0.036700762  0.038001328            1 
  379000    1.1834094   -6.9214598     166.5408  0.036618469  0.037993402            1 
  380000    1.1752754   -6.9217434    167.01742  0.036626627  0.037985223            2 
  381000     1.183421   -6.9083803    167.13163  0.036555474  0.037976741            3 
  382000    1.1913865     -6.93189    167.18867  0.036472223  0.037968112            1 
  383000    1.1908917   -6.9392192    167.47293  0.036438844  0.037958469            1 
  384000    1.1983094   -6.9768719    167.57306  0.036365681   0.03794842            2 
  385000    1.1729025   -6.9832243    168.58775  0.036490855  0.037938302            1 
  386000    1.2133572   -6.9656978    169.18912  0.036526148  0.037927855            1 
  387000    1.1808306   -6.9618514    169.36164  0.036468914  0.037918384            2 
  388000    1.1853859   -6.9476834    169.39652  0.036382414  0.037908378            2 
  389000     1.202586    -6.930597    170.10169   0.03643995   0.03789781            2 
  390000    1.1616995   -6.9687946    170.12885  0.036352318  0.037887217            4 
  391000     1.187351   -6.9503121    170.99268  0.036443452  0.037876076            2 
  392000    1.1869363   -6.9921956    170.92464   0.03633602  0.037865171            4 
  393000      1.18406   -6.9354484    171.71224  0.036410568   0.03785481            2 
  394000    1.2002701   -6.9665972    171.97804  0.036374374  0.037844358            2 
  395000    1.1847133   -6.9166132     173.1074  0.036520548  0.037834301            1 
  396000    1.1882101   -6.9467645    172.64846  0.036331747  0.037824697            1 
  397000    1.1700943   -6.9547384    173.25027  0.036366556  0.037814038            1 
  398000    1.1707771    -6.953938    173.97904  0.036427772  0.037804327            2 
  399000    1.1876531   -7.0188127    174.07814  0.036357172  0.037793429            3 
  400000    1.1831728   -6.9243653     174.3973   0.03633277   0.03778206            2 
  401000    1.2032159   -6.9463386     174.2198  0.036205278  0.037770473            2 
  402000    1.1930755   -6.9671594    174.74219  0.036223506  0.037759027            1 
  403000    1.1867039    -6.942591    175.85911   0.03636458  0.037747546            1 
  404000    1.1878151   -6.9739839    175.48417  0.036197229  0.037736673            1 
  405000     1.199605   -6.9476531    176.22063  0.036259389  0.037725544            2 
  406000    1.1895713    -6.959948    176.91974  0.036313575  0.037714423            3 
  407000    1.1848844   -6.9597904    176.97852  0.036236388  0.037704403            1 
  408000    1.1953182   -6.9447213    177.48193  0.036250394  0.037693323            2 
  409000    1.1967837   -6.9483614    178.26786  0.036321894  0.037681862            2 
  410000    1.1846681   -6.9712475    178.12888  0.036205058  0.037671432            1 
  411000    1.2206254   -6.9490772    179.06314  0.036306395  0.037661338            2 
  412000    1.1997526   -6.9254646    179.68566  0.036344187  0.037652098            3 
  413000    1.1957041   -6.9428488    180.32218   0.03638462  0.037643966            1 
  414000    1.2153552   -6.9563362    180.60921  0.036354511  0.037635024            2 
  415000    1.1847298   -6.9436449    180.59887  0.036264833  0.037626295            2 
  416000    1.2281227   -6.9464893    181.20539  0.036299156  0.037616728            2 
  417000    1.1738248   -6.9725361    181.39187  0.036249375  0.037606784            3 
  418000    1.1798565   -6.9285405    182.56899  0.036397327  0.037597142            2 
  419000    1.1892922    -6.935161    182.45264  0.036287319  0.037587717            2 
  420000    1.1943014   -6.9785217    182.61583    0.0362333  0.037578273            1 
  421000    1.1788781   -6.9506133    182.91332   0.03620612  0.037569256            1 
  422000    1.1710667   -6.9330472    184.28065  0.036390334   0.03756133            1 
  423000    1.1810104   -7.0036706    183.77754  0.036205189   0.03755295            1 
  424000     1.159901   -6.9656634    184.91203  0.036342774  0.037543476            2 
  425000    1.1696379    -6.963267    185.22503  0.036318633  0.037533791            1 
  426000    1.1838645   -6.9786302    185.21239  0.036230905  0.037525012            2 
  427000    1.1814171   -6.9343899    186.05265  0.036310041  0.037516117            1 
  428000    1.1634249   -6.9127101    187.36808  0.036481324  0.037507555            1 
  429000    1.1900022   -6.9744631    186.59416  0.036245952  0.037499129            1 
  430000    1.1807849   -6.9587964    187.55566  0.036347996  0.037490626            1 
  431000    1.1859934   -6.9576057    187.86491  0.036323455  0.037482105            1 
  432000    1.1955351   -6.9408232    188.32387  0.036327908   0.03747452            2 
  433000     1.180624   -6.9088395    189.28002  0.036428026  0.037466966            2 
  434000    1.1842237   -6.9148751    189.01524  0.036293249   0.03745987            3 
  435000    1.1908168   -6.9380391    190.89509  0.036569942  0.037452456            1 
  436000    1.2105929   -6.9623403    189.95201  0.036305813  0.037445203            1 
  437000     1.184617   -6.9481372    190.28441  0.036286119  0.037436875            3 
  438000    1.1975767   -6.9604116    191.06644  0.036352063  0.037428845            1 
  439000     1.187221   -6.9728505    191.86543  0.036420925  0.037421174            3 
  440000    1.1458222   -6.9403993    192.08022   0.03637883  0.037413776            2 
  441000    1.1927733   -6.9501592    191.69324  0.036223212  0.037405957            7 
  442000    1.1682188   -6.9440248    192.13843  0.036225195  0.037398311            1 
  443000    1.1848042    -6.957975    193.08095   0.03632072   0.03739088            1 
  444000      1.19823   -6.9200951    193.65797  0.036347217    0.0373839            1 
  445000    1.2002029   -6.9533257    193.64836  0.036263737  0.037377069            1 
  446000     1.193598   -7.0027319    194.52553  0.036346325  0.037370123            1 
  447000    1.1557424   -7.0033899    194.10262  0.036186172  0.037362704            4 
  448000    1.1872415   -6.9398518    195.17721  0.036305284   0.03735551            1 
  449000    1.2089392   -6.9660531     195.9157  0.036361488    0.0373483            3 
  450000    1.1640151   -6.9840698     195.4871  0.036201314  0.037341277            1 
  451000    1.1949069   -6.9337202    196.94969  0.036391296  0.037334757            1 
  452000    1.1488399   -6.9592355      196.992  0.036318583  0.037328114            1 
  453000    1.1907617   -6.9296079    197.47434  0.036327142  0.037320821            2 
  454000    1.1789402   -6.9738348     197.1577  0.036189005  0.037313886            2 
  455000    1.1961909    -6.987666    197.92192  0.036249436  0.037306333            1 
  456000    1.1747949   -6.9356995    198.45368   0.03626712  0.037299334            3 
  457000    1.2018356   -6.9483475    199.49317  0.036377311  0.037293055            1 
  458000    1.1918586   -6.9407619    200.04064  0.036397496  0.037287345       -1e+20 
  459000    1.1657532   -6.9945935    200.40834  0.036384957  0.037281306            1 
  460000    1.1509687   -6.9706231    200.47698  0.036318293  0.037274999            2 
  461000    1.2089441   -6.9679167    201.39269  0.036405041  0.037268965            2 
  462000    1.1548152   -6.9618015    201.25628  0.036301638  0.037263164            2 
  463000    1.1559134   -6.9726047    201.19512  0.036212225  0.037256501            1 
  464000    1.1690904   -6.9179746    201.51874  0.036192303  0.037249447            1 
  465000    1.1843895   -6.9670547    202.27737  0.036250424  0.037242145            2 
  466000    1.1893435   -6.9825284    202.59249  0.036228986  0.037234564            2 
  467000    1.1881725   -6.9266169    202.89323  0.036205073   0.03722619            1 
  468000    1.1866792   -6.9874642     202.7051  0.036094213   0.03721775            3 
  469000    1.1937361   -6.9414213    203.99643  0.036246701  0.037209986            2 
  470000    1.1632062   -6.9937403    204.55049  0.036267817  0.037202251            2 
  471000    1.1526899   -6.9583159    204.02424  0.036097708  0.037193866            1 
  472000    1.2023044   -6.9443886    204.99042  0.036191811  0.037186066            1 
  473000    1.1967615   -6.9790429    204.14229  0.035965871  0.037178377            2 
  474000    1.1953427   -6.9684085    205.77097  0.036176331  0.037170379            1 
  475000     1.187742   -7.0064555    205.81245  0.036107448  0.037162234            2 
  476000    1.1513051   -6.9767566    206.31447   0.03611948  0.037153946            1 
  477000    1.1753674   -7.0075028    206.83627  0.036134918  0.037145886            3 
  478000    1.1513733   -6.9881601    206.70306  0.036036098  0.037137943            1 
  479000    1.1759938   -7.0032491    207.19225  0.036045972  0.037130266            1 
  480000    1.1420987   -7.0208208    207.50815   0.03602572  0.037122721            3 
  481000    1.1608734   -6.9649627    208.46749  0.036117028  0.037115696            1 
  482000    1.1849264   -7.0143129    209.34221  0.036193329  0.037108124            1 
  483000    1.1801542   -6.9831762    209.29754  0.036110687  0.037101436            2 
  484000    1.1647154   -6.9758098    210.09207  0.036172878  0.037094526            2 
  485000    1.1501235   -6.9301669    210.68806  0.036200698  0.037087606            3 
  486000    1.1636295   -6.9945642     210.3103  0.036061437  0.037080099            1 
  487000    1.1620746   -6.9485914     211.3535  0.036165897  0.037073195            1 
  488000    1.1828135   -7.0040696    211.04789  0.036039599  0.037066834            3 
  489000    1.1628502   -6.9523959    211.83666  0.036100317  0.037060137            2 
  490000    1.1751961   -7.0257702    211.22196  0.035922102   0.03705301            2 
  491000    1.1601003   -6.9742858    212.88671  0.036131485  0.037045794            1 
  492000    1.1676453   -6.9508897    212.88448   0.03605767  0.037038708            2 
  493000    1.1773493   -6.9397451    213.84593  0.036147046  0.037032397            2 
  494000    1.1362739   -6.9543558     213.7257  0.036053593  0.037025379            1 
  495000    1.1595509   -6.9744393    214.79056  0.036160027  0.037018371            1 
  496000    1.1853566   -6.9260512    215.18804  0.036153905  0.037011182            3 
  497000    1.1737272   -6.9610127    214.50117  0.035965991  0.037003584            2 
  498000    1.1715446   -6.9692389    214.87108  0.035955669  0.036995515            3 
  499000     1.179397   -6.9594322    215.82148  0.036042332   0.03698778            1 
  500000    1.1430244   -7.0043741    216.37035  0.036061724  0.036979455            2 
  501000     1.141632   -7.0121493      215.698   0.03587791   0.03697154            3 
  502000    1.1650545   -7.0071061     216.4999  0.035939559  0.036963293            3 
  503000    1.1708862   -6.9931639    217.09328  0.035966414  0.036954963            2 
  504000    1.1517168   -6.9757037    217.79993  0.036011894  0.036946659            1 
  505000    1.1811323   -6.9795116    217.96447  0.035967734  0.036938301            2 
  506000    1.1783297   -7.0327951     218.0793  0.035915563  0.036929108            1 
  507000     1.152997    -6.971705    218.46139  0.035907527  0.036919564            2 
  508000    1.2087917   -7.0081522    218.11519  0.035780051   0.03691027            3 
  509000    1.2002675   -6.9766848    218.73315  0.035810929   0.03690075            2 
  510000    1.1689739   -6.9604078    218.77949  0.035748282  0.036891231            2 
  511000    1.1791029   -6.9902177      218.554  0.035641553  0.036881148            1 
  512000     1.165609   -6.9893134    219.38796  0.035707676   0.03687069            1 
  513000    1.1694248   -7.0016824    219.34796  0.035631573  0.036860012            2 
  514000    1.1683051   -6.9758328    219.93503  0.035657431  0.036849782            1 
  515000    1.1485972   -6.9716928    220.59691  0.035695292  0.036839765            2 
  516000    1.1526101   -6.9698252    220.60585   0.03562756  0.036829502            2 
  517000    1.1829283   -7.0209649    220.79753  0.035589543  0.036819436            1 
  518000    1.2009397   -6.9643238    222.33314  0.035767879  0.036808798            3 
  519000    1.1934981    -7.013406    222.49515  0.035724976  0.036798877            2 
  520000    1.1604254   -7.0176137    222.26551  0.035619473    0.0367888            1 
  521000    1.1974396   -6.9974382    223.14745  0.035692171  0.036779204            2 
  522000    1.1744253   -7.0043172    223.20785  0.035633438  0.036769418            1 
  523000    1.1790531   -6.9988387    223.87802  0.035672088   0.03675954            1 
  524000    1.1455432   -7.0175794     223.6297   0.03556452   0.03674888            2 
  525000    1.1606945   -6.9932863    224.01366  0.035557724  0.036738127            2 
  526000    1.1896003   -6.9818323    224.34059  0.035541919  0.036727207            4 
  527000    1.1959512   -6.9497491    225.30057  0.035626275  0.036716552            1 
  528000    1.1935589   -6.9669866    225.46153  0.035584207  0.036705627            1 
  529000    1.1616462   -6.9459047    226.86721  0.035738375  0.036694963            1 
  530000    1.1757644   -6.9657853    225.69294  0.035486311  0.036684488            1 
  531000    1.1687702    -6.998698      226.159  0.035492624  0.036673866            1 
  532000    1.1546537   -7.0032516    226.79798  0.035525999  0.036662564            1 
  533000    1.1676123   -7.0366046    226.78111  0.035456708  0.036651148            4 
  534000    1.2060456    -7.036144     226.9112  0.035410612  0.036640176            2 
  535000    1.1610391   -7.0046323    227.80975  0.035484385  0.036629651            1 
  536000    1.1774614   -7.0236877    228.13006  0.035467982   0.03661874            1 
  537000    1.1707076   -6.9729669     229.6908  0.035644134  0.036608753            2 
  538000    1.1717621    -6.982237    229.51738  0.035551019  0.036599079            2 
  539000    1.1627233   -6.9961433    229.95533  0.035552772  0.036590234            3 
  540000    1.1489655   -7.0273441    230.23232  0.035529679  0.036581063            1 
  541000    1.1638181   -7.0101959    230.65035  0.035528396  0.036572183            1 
  542000    1.1791681   -7.0003435    231.03684   0.03552227  0.036562824            2 
  543000    1.1502517   -6.9866056    231.63668  0.035548907  0.036553965            1 
  544000    1.2014603   -7.0081538    231.54841  0.035470039  0.036545385            2 
  545000     1.177407   -6.9958164    231.94782  0.035466028  0.036535693            1 
  546000     1.179136   -6.9750904     233.1794  0.035589041  0.036526774            1 
  547000    1.1655639   -6.9701353    234.20166  0.035679717  0.036518281            1 
  548000    1.1583914   -6.9366903    234.69467  0.035689579  0.036509916            2 
  549000     1.150996   -7.0018991    234.28346  0.035562153  0.036501073            1 
  550000    1.1626958   -7.0100477    234.25816   0.03549366  0.036491871            2 
  551000    1.1704189   -6.9849427    234.57187   0.03547669  0.036482305            2 
  552000    1.1532439   -7.0212357    235.43777  0.035543141  0.036473002            1 
  553000    1.1751455   -6.9998331    235.83221  0.035538307  0.036463678            1 
  554000    1.1409227   -7.0043819    235.53953  0.035430134  0.036454322            1 
  555000    1.1770511    -7.011026    235.60068  0.035375478  0.036445163            1 
  556000    1.1412569   -6.9983613    236.27955  0.035413602  0.036436193            3 
  557000     1.164479   -6.9758001    237.37054  0.035513246  0.036427647            1 
  558000    1.1789138   -7.0022911    237.54952  0.035476332  0.036419069            1 
  559000    1.1607818   -6.9945509    238.47009  0.035550103  0.036410291            2 
  560000    1.1359556     -6.98034    238.02641  0.035420596   0.03640124            1 
  561000     1.174943    -7.012784    238.02372  0.035357058  0.036392277            1 
  562000    1.1625658   -7.0088377    238.68496  0.035392194  0.036383481            1 
  563000    1.1570617   -7.0195676    239.65422  0.035472798  0.036374663            2 
  564000    1.1380093   -6.9751645    240.15476  0.035483859  0.036366024            3 
  565000    1.1550912   -7.0050303    239.85426  0.035376734   0.03635764            1 
  566000    1.1689549   -7.0072479    240.92604  0.035472032  0.036348771            2 
  567000    1.1597065   -7.0388739    240.03498  0.035278509  0.036339738            2 
  568000    1.1429233   -7.0301958    241.74651  0.035467504  0.036330725            1 
  569000    1.1542725    -7.026286    242.18758  0.035469768  0.036321531            3 
  570000    1.1647194   -7.0243031    242.72252  0.035485748  0.036311997            2 
  571000    1.1547223   -6.9800943    242.67254  0.035416307  0.036303425            1 
  572000    1.1527274   -7.0183565    243.63826  0.035495084  0.036294953            1 
  573000    1.1735266   -7.0015557    244.27636   0.03552594   0.03628723            1 
  574000    1.1689159   -6.9973076     243.5786  0.035362747  0.036278853            1 
  575000    1.1661895   -7.0421361    244.27278  0.035401852  0.036270256            2 
  576000    1.1734693   -7.0047105    243.87621  0.035283017  0.036262017            2 
  577000    1.1673644   -7.0173536    244.65296   0.03533405  0.036253648            1 
  578000    1.1729491   -7.0117287    245.37588  0.035377145  0.036244438            2 
  579000    1.1526314   -6.9916095    245.44244  0.035325625  0.036235348            1 
  580000    1.1668257    -6.982557    245.96123  0.035339257  0.036226564            1 
  581000    1.1572734   -6.9590406     246.0716  0.035294262  0.036217026            3 
  582000    1.1443514   -7.0419874    245.60209  0.035166393  0.036207664            3 
  583000    1.1720749   -6.9800539    247.17391  0.035330748  0.036198604            1 
  584000    1.1574946   -6.9869685    246.80866  0.035218131  0.036189561            2 
  585000    1.1570328   -7.0275953    247.71593  0.035287169  0.036181084            1 
  586000    1.1582316   -7.0321427    248.83219  0.035385692  0.036172343            3 
  587000     1.166602    -7.056911    248.66853  0.035302177  0.036163923            1 
  588000    1.1545734   -6.9710496    249.48458  0.035357792  0.036155111            1 
  589000    1.1330347   -7.0221882    248.66703  0.035182093  0.036146695            2 
  590000    1.1502853   -7.0008732    250.85284  0.035431193   0.03613869            1 
  591000    1.1561431   -7.0053203    249.91639  0.035239197  0.036130101            1 
  592000      1.15418    -7.014361     250.7843  0.035301844  0.036121667            1 
  593000    1.1641151   -7.0488061    251.57225  0.035353043  0.036113493            2 
  594000    1.1508762   -7.0093524    250.93255  0.035203781  0.036105267            2 
  595000    1.1780375   -6.9987864     251.9653  0.035289258   0.03609681            1 
  596000    1.1690097    -6.999863    252.51008  0.035306219  0.036088552            1 
  597000    1.1631662   -7.0306269    252.22341  0.035207064  0.036080231            2 
  598000    1.1795411   -7.0404587    252.26397  0.035153842  0.036071526            1 
  599000    1.1612113   -7.0152241    252.59758  0.035141567  0.036062387            1 
  600000    1.1192019   -7.0556015    252.72391  0.035100543  0.036053644            2 
  601000    1.1762107    -7.030902     253.4426  0.035141791  0.036044857            1 
  602000    1.1659581   -6.9567482    254.57004  0.035239485  0.036036102            1 
  603000    1.1569997   -7.0623471     255.1228  0.035257434  0.036027569            1 
  604000    1.1411902    -7.010953    255.29613  0.035222976  0.036018831            2 
  605000    1.1458342   -7.0199983    255.08138  0.035135176  0.036010341            1 
  606000    1.1507653   -7.0224339    255.01398   0.03506793  0.036001505            2 
  607000     1.143923   -7.0300055    255.60114  0.035090766  0.035992327            2 
  608000    1.1554786   -7.0701933    255.43983  0.035010942  0.035982646            1 
  609000    1.1984342   -7.0391351    256.54906  0.035105235  0.035973024            1 
  610000    1.1474309   -7.0412719    255.54971  0.034911162  0.035963527            3 
  611000    1.1581422   -6.9944121    256.89014  0.035036843  0.035953791            1 
  612000    1.1596395   -6.9744083    257.49676  0.035062195  0.035944141            1 
  613000    1.1451216   -7.0461853     256.6993  0.034896587  0.035934562            1 
  614000    1.1472112   -7.0575945    256.73569  0.034844691  0.035924739            1 
  615000    1.1618941   -7.0362011    257.70145  0.034918895  0.035914534            3 
  616000    1.1451508   -7.0204525    258.42285  0.034959801  0.035904664            2 
  617000     1.129332   -7.0112057    258.52843  0.034917401   0.03589474            2 
  618000    1.1212152   -7.0365129    258.81821  0.034899975  0.035884994            2 
  619000     1.161169   -7.0025976    259.98813  0.035001095  0.035874984            1 
  620000    1.1550383   -7.0477412    259.92086    0.0349356  0.035865245            1 
  621000     1.155863   -6.9827574    261.28717  0.035062691  0.035855372            1 
  622000    1.1590642   -6.9905831    260.96048  0.034962551  0.035845942            3 
  623000    1.1527245   -6.9977282    261.43487  0.034969886  0.035836446            1 
  624000    1.1521275   -6.9995658    261.45612  0.034916682  0.035826723            1 
  625000    1.1410091   -7.0092669    261.98409  0.034931212  0.035817216            2 
  626000    1.1220682   -7.0231594    262.93686  0.035002244  0.035807262            4 
  627000    1.1534719   -7.0261575    262.79933   0.03492814    0.0357975            1 
  628000    1.1418821   -7.0214947     262.5769  0.034843006  0.035787244            2 
  629000    1.1281868   -7.0052968    262.39821  0.034763939  0.035777147            2 
  630000    1.1669394   -7.0347329    263.43123  0.034845401  0.035767278            4 
  631000    1.1651482   -6.9929456    263.75472    0.0348329  0.035757284            1 
  632000    1.1429831   -7.0081835    264.04175  0.034815632  0.035747689            1 
  633000    1.1263597   -6.9883941    264.74682  0.034853451  0.035737494            1 
  634000     1.160852   -7.0080234    264.55941  0.034773844  0.035727402            1 
  635000    1.1577675   -7.0356869     263.9948  0.034644987  0.035716804            1 
  636000    1.1404406   -7.0577232    264.32898    0.0346343  0.035706169            2 
  637000    1.1559419   -7.0095567    266.37848  0.034848049  0.035695527            2 
  638000    1.1781987   -7.0408648    265.35732  0.034660047  0.035685228            3 
  639000    1.1431102    -7.016763    266.65386   0.03477489  0.035675088            4 
  640000    1.1418949   -7.0029427    267.33743  0.034809562  0.035665199            2 
  641000    1.1582295   -7.0256091    267.37891  0.034760648  0.035655424            2 
  642000    1.1714529   -6.9897424    267.70236  0.034748488  0.035645165            3 
  643000    1.1421323   -7.0385514     267.3325  0.034646514   0.03563519            2 
  644000     1.150749   -7.0581057     268.4053  0.034731534  0.035625302            1 
  645000    1.1733876   -6.9958195    269.63235   0.03483622  0.035616272            3 
  646000    1.1697128    -7.015862    270.29029  0.034867168  0.035606939            1 
  647000    1.1437324   -7.0160893    270.75597  0.034873257  0.035597756            3 
  648000    1.1545636   -6.9974778    270.55465   0.03479355  0.035588785            1 
  649000    1.1510181    -7.034481    270.90273  0.034784634  0.035579589            1 
  650000    1.1683834   -7.0732096    269.99574  0.034614838  0.035569946            2 
  651000    1.1532549   -7.0088251    271.73239  0.034783972  0.035560592            5 
  652000    1.1428652   -7.0643376    271.21132  0.034664023  0.035550604            3 
  653000    1.1346395   -7.0141701    271.58814  0.034659028  0.035540687            2 
  654000    1.1251531   -7.0107483    272.03957  0.034663553  0.035530668            2 
  655000     1.133544    -7.080728    272.78418  0.034705366  0.035520854            1 
  656000    1.1580436   -7.0586844    273.00135   0.03468005  0.035510741            4 
  657000    1.1441135   -7.0770564     272.2161  0.034527664  0.035500649            2 
  658000    1.1606262    -7.025539    273.62386  0.034653478  0.035490702            2 
  659000    1.1435172   -7.0568452    273.56848  0.034593889  0.035480932            1 
  660000    1.1469394   -7.0212263    274.74013  0.034689411  0.035470883            2 
  661000    1.1563978   -7.0135019    274.52758  0.034610134   0.03546108            1 
  662000      1.14326   -7.0634839    275.34574  0.034660844  0.035451634            3 
  663000     1.150636    -7.064269    275.61644  0.034642589  0.035442266            2 
  664000     1.146745   -7.0236037     276.3262  0.034679494  0.035432353            4 
  665000    1.1557345   -7.0294209     276.7253  0.034677355  0.035423108            2 
  666000    1.1452929   -7.0261434    276.97278  0.034656254  0.035414142            1 
  667000    1.1262099   -7.0597766    276.48968  0.034543938   0.03540481            3 
  668000    1.1499404   -7.0668596    275.90697  0.034419532  0.035395293            1 
  669000    1.1532445   -6.9970181    278.61842  0.034705832  0.035386115            3 
  670000     1.151385   -7.0318365    278.74019  0.034669177  0.035377251            3 
  671000    1.1574607   -7.0053264    279.65004  0.034730507  0.035368347            5 
  672000     1.146822   -7.0575008    279.40289  0.034648176  0.035359466            1 
  673000    1.1549086   -7.1004042    278.30601  0.034460873  0.035350643            4 
  674000    1.1571399   -6.9990506    280.76064  0.034713234  0.035342045            2 
  675000    1.1450112   -7.0275115     279.8947  0.034554901  0.035333185            2 
  676000    1.1412572   -7.0512058    279.86748  0.034500429  0.035323979            1 
  677000    1.1327212   -7.0239546     280.5682  0.034535721  0.035314865            2 
  678000    1.1488944   -7.0555091    281.60301  0.034611973  0.035305424            2 
  679000    1.1489649   -7.0078413    281.29159  0.034522777  0.035295976            2 
  680000    1.1394898   -7.0500354    281.99089  0.034557707  0.035287388            2 
  681000    1.1338234   -7.0912723    282.99001  0.034629223  0.035278775            2 
  682000    1.1625102   -7.0381561     282.5604  0.034525953  0.035270069            3 
  683000    1.1395207   -7.0635789    282.79705  0.034504276  0.035261335            2 
  684000    1.1501328   -7.0635052    283.22246   0.03450566  0.035252403            1 
  685000    1.1362554   -7.0490888    284.10547  0.034562709  0.035243663            2 
  686000     1.158227    -7.005876    284.29784  0.034535694  0.035234949            1 
  687000    1.1486611   -7.0581138     283.8726  0.034433842   0.03522635            2 
  688000    1.1510588   -7.0460404    283.52144   0.03434126  0.035217364            1 
  689000    1.1564598   -7.0563402    285.37133  0.034515158  0.035208234            3 
  690000    1.1221454   -7.0204599    285.11962  0.034434737  0.035199152            1 
  691000    1.1364373   -7.0378323    285.23048  0.034398273  0.035189725            1 
  692000    1.1405821    -7.056722    284.93348  0.034312799  0.035179882            2 
  693000    1.1651323   -7.0884576    285.00074  0.034271373  0.035169925            1 
  694000    1.1374829   -7.0426032     286.8221  0.034440694  0.035160128            1 
  695000    1.1470453   -7.0711511    286.61048  0.034365766  0.035150681            1 
  696000    1.1609898   -7.0403443    287.65097  0.034440969  0.035141039            2 
  697000    1.1359383   -7.0449638    287.39134  0.034360514  0.035131254            1 
  698000    1.1544035   -7.0125865    287.53107   0.03432797  0.035121506            3 
  699000    1.1556964    -7.070547    287.10355  0.034227891  0.035111539            2 
  700000    1.1056168   -7.0409233    287.42342  0.034217074  0.035101495            2 
  701000    1.1267139   -7.0597655    288.00789  0.034237742  0.035091599            2 
  702000    1.1240924   -7.0418501    288.37457  0.034232499  0.035081403            2 
  703000    1.1445197   -7.0766402    288.20959  0.034164247  0.035070967            1 
  704000    1.1411604   -7.0653656    289.09679  0.034220737  0.035060427            1 
  705000    1.1465503   -7.0599885    289.22451  0.034187295  0.035050166            2 
  706000    1.1250539   -7.0318037    289.40012  0.034159599  0.035039318            2 
  707000     1.139983   -7.0714619    288.95371  0.034058665  0.035028777            3 
  708000    1.1504142   -7.0190836    290.75296  0.034222336  0.035018103            2 
  709000     1.129638   -7.0659759    290.69135  0.034166825  0.035007622            2 
  710000    1.1356535   -7.0566868    290.63467   0.03411205  0.034997343            2 
  711000    1.1423335   -7.0845168    291.67165  0.034185613  0.034987307            1 
  712000    1.1705805   -7.0585424    291.37888  0.034103333  0.034977066            1 
  713000    1.1465399    -7.077652    292.47641  0.034183778  0.034966993            1 
  714000    1.1023968   -7.0671519    291.57592  0.034030803   0.03495645            2 
  715000    1.1123505    -7.060994    292.46341  0.034086645   0.03494564            2 
  716000    1.1483558   -7.0906532    292.93131  0.034093495  0.034935381            3 
  717000    1.1255935   -7.0461232    292.92879  0.034045653  0.034924981            4 
  718000    1.1533034   -7.0126652    294.97071  0.034235226  0.034914961            1 
  719000    1.1322869   -7.0425055    294.03732   0.03407943  0.034904914            2 
  720000    1.1518969   -7.0724005    294.70836  0.034109763  0.034894415            1 
  721000    1.1417675   -7.0674459    294.96608  0.034092242  0.034883845            3 
  722000    1.1255152   -7.0618251    294.87097  0.034034045  0.034873404            1 
  723000    1.1787914   -7.0335425    295.95731  0.034112185  0.034863156            1 
  724000    1.1469332   -7.0729432    294.23292  0.033866589  0.034852867            2 
  725000    1.1449688   -7.0848291     295.7929  0.033999184  0.034842512            2 
  726000    1.1393935   -7.0877153    295.30864  0.033896767  0.034832353            2 
  727000    1.1094861   -7.0578025    296.61586  0.033999984  0.034822105            1 
  728000    1.1300409   -7.0531647    296.82674   0.03397742  0.034811494            3 
  729000    1.1293564   -7.0430603    297.25873  0.033980193  0.034801204            1 
  730000    1.1446151   -7.0897933    297.16599  0.033923058  0.034791055            1 
  731000    1.1403234   -7.0632475    297.45503  0.033909602  0.034780689            2 
  732000    1.1363916   -7.0838773    297.33368  0.033849463  0.034770051            2 
  733000    1.1371305   -7.0969093    296.90585  0.033754645   0.03475933            4 
  734000     1.139351   -7.0350373    298.88263  0.033933087  0.034749047            4 
  735000    1.1183773   -7.0592352    299.53814   0.03396124   0.03473902            2 
  736000    1.1357361   -7.0495284    300.65434  0.034041478  0.034728838            1 
  737000    1.1613982   -7.0268453    301.98231  0.034145445  0.034719389            1 
  738000    1.1351488   -7.0857704    301.47138  0.034041484    0.0347102            1 
  739000     1.133944   -7.0484353    301.95435  0.034049882  0.034701136            2 
  740000    1.1212845   -7.0423591    302.43022  0.034057458   0.03469198            1 
  741000    1.1247374      -7.0972    301.37603  0.033892941  0.034682422            1 
  742000    1.1267558   -7.0899232    300.98255  0.033803072  0.034672035            2 
  743000    1.1475609   -7.0689533    301.01429  0.033761136  0.034662111            1 
  744000    1.1218163   -7.0595799    302.78974  0.033914621  0.034651995            2 
  745000    1.1370048   -7.0664064    302.10638   0.03379266  0.034641987            1 
  746000    1.1284139   -7.0646917    302.30787  0.033769869  0.034631858            2 
  747000    1.1208238   -7.0592686    302.88835  0.033789419  0.034621258            2 
  748000    1.1360959   -7.0934368    302.65802  0.033718585  0.034610855            2 
  749000    1.1104798   -7.0976696    303.00055  0.033711676  0.034600249            2 
  750000    1.1185158   -7.0921778    303.95191  0.033772435  0.034589847            1 
  751000    1.1322075    -7.096928    304.03587   0.03373678  0.034579469            2 
  752000    1.1387305   -7.0993869    304.46526  0.033739501  0.034569361            1 
  753000     1.113495   -7.0661573    305.23857  0.033780275  0.034558874            3 
  754000    1.1347042   -7.0588411    306.19688  0.033841388  0.034548846            1 
  755000    1.1461196   -7.0455256    306.13965  0.033790249  0.034538517            4 
  756000    1.1059513   -7.0891591    305.81889  0.033710195  0.034528254            1 
  757000    1.1422389   -7.0879555    306.49902  0.033740535  0.034517897            3 
  758000    1.1278405   -7.0587862    307.95118   0.03385567  0.034508125            2 
  759000    1.1255123   -7.0664116    307.54393  0.033766352  0.034498093            2 
  760000    1.1320918   -7.1017183    308.03171  0.033775407  0.034488085            2 
  761000     1.150221   -7.1105831    307.03586  0.033621974  0.034477937            1 
  762000    1.1391146   -7.0851134    308.17143  0.033702037  0.034467954            2 
  763000    1.1369352   -7.1035221    309.01888  0.033750424  0.034458031            2 
  764000     1.136376   -7.0806105    309.52879  0.033761866  0.034448139            2 
  765000    1.0951115    -7.101732      310.007  0.033769826  0.034438239            3 
  766000    1.1203511   -7.0540643    310.31844  0.033759621  0.034428188            2 
  767000    1.1159669   -7.0479649    310.24493  0.033707619  0.034418045            1 
  768000     1.101174   -7.0740374    310.45589   0.03368662  0.034408118            3 
  769000    1.1508718   -7.0559533    310.33592  0.033629814  0.034397937            2 
  770000    1.1051194   -7.1087848     311.4498  0.033706689  0.034388063            2 
  771000     1.140749   -7.0789414     311.7107   0.03369117  0.034378301            3 
  772000    1.1290974   -7.0821829    312.23427  0.033704045  0.034368365            4 
  773000    1.1166066   -7.0815421    311.94443  0.033629197  0.034358655            2 
  774000    1.1242349   -7.0655102    312.59579  0.033655878  0.034348908            2 
  775000    1.1288585   -7.1021672    312.82901  0.033637528  0.034339137            2 
  776000    1.1510119   -7.0641857    312.35436  0.033543209  0.034329327            1 
  777000    1.1287967   -7.0729229    312.90465  0.033559058  0.034319413            2 
  778000    1.1107554   -7.0963388    314.04018  0.033637551  0.034309663            2 
  779000    1.1350579   -7.1009643    314.00458  0.033590563  0.034299999            1 
  780000    1.1122581   -7.0623524     315.2097   0.03367625   0.03429037            2 
  781000    1.1268967   -7.1207446    314.16669  0.033521841  0.034280749            2 
  782000     1.116252   -7.0899686    314.11943  0.033473937  0.034270823            2 
  783000    1.1252448   -7.0690468     314.9885  0.033523681   0.03426053            1 
  784000    1.1251566   -7.1060641    315.03051  0.033485386  0.034250307            3 
  785000    1.1367304     -7.08472    315.53169  0.033495933  0.034240183            1 
  786000    1.1397095   -7.0728241    316.18167   0.03352223  0.034230067            2 
  787000    1.1250668    -7.059922    317.09919  0.033576789  0.034220112            3 
  788000    1.1289873   -7.0585072    316.51671  0.033472579  0.034210076            1 
  789000    1.1088989   -7.1125343    316.58364  0.033437225  0.034200277            1 
  790000    1.1241584   -7.0578047    317.87667  0.033531294   0.03419042            1 
  791000    1.1452747    -7.057823    317.77212  0.033477889  0.034180846            1 
  792000    1.1203376   -7.0561946    318.80149  0.033543928   0.03417097            4 
  793000    1.1399912   -7.1062817    317.99922  0.033417321  0.034161135            2 
  794000    1.1440372   -7.0614705    319.09375  0.033490108  0.034151241            2 
  795000    1.1349934   -7.0689412    319.26783  0.033466229  0.034141619            2 
  796000    1.1396683   -7.1070258    320.25149  0.033527166  0.034132022            3 
  797000    1.1054064   -7.0562126    320.59509  0.033521025  0.034122534            1 
  798000    1.1144126   -7.0735092    321.01401  0.033522766  0.034113582            1 
  799000    1.1365127   -7.0671318    321.68328  0.033550614  0.034104705            2 
  800000    1.1299939   -7.0864532    321.38893  0.033478014  0.034095693            2 
  801000    1.0784218   -7.0675464     322.0978  0.033509967  0.034086315            1 
  802000    1.1373202   -7.0608855    322.16555  0.033475223  0.034077345            1 
  803000    1.1232343   -7.0943352     322.6434  0.033483125  0.034068262            1 
  804000    1.1123628   -7.1263089    322.25592  0.033401318  0.034059261            2 
  805000    1.1097731   -7.0879217    323.36059  0.033474181  0.034050217            2 
  806000    1.1262954    -7.046123    325.13993  0.033616618  0.034041186            1 
  807000     1.126346   -7.1027722    324.39346  0.033497878  0.034032463            1 
  808000    1.1316872   -7.0902191    324.83489  0.033501949  0.034023559            2 
  809000    1.1396503   -7.0723861      325.442  0.033523074  0.034014565            1 
  810000    1.0995154   -7.0332824    325.83905  0.033522536  0.034006156            1 
  811000     1.132879   -7.1069451    325.90628  0.033488109  0.033997203            2 
  812000    1.1491403   -7.1031081    326.48309  0.033506064  0.033988541            2 
  813000    1.1019246   -7.0983501    327.00487  0.033518335  0.033980279            1 
  814000    1.1264954   -7.1090692    327.75701  0.033554157  0.033971926            2 
  815000    1.1021589   -7.1061123    326.58735   0.03339339   0.03396357            1 
  816000    1.0977173   -7.0849354    328.87372   0.03358596  0.033955109            1 
  817000      1.11785   -7.0881766    327.73786  0.033428994  0.033946912            1 
  818000    1.1180788    -7.075336    329.35402  0.033552773  0.033938505            5 
  819000    1.1367755   -7.0772098    329.42334  0.033518859  0.033930468            3 
  820000    1.1320522   -7.0591313    329.14637  0.033449835  0.033922177            1 
  821000    1.1280647   -7.0824194    330.40644  0.033536992  0.033914045            1 
  822000    1.1275371   -7.0799896    330.55524  0.033511277  0.033905858            2 
  823000     1.133891   -7.1096175     330.3285    0.0334476  0.033897538            2 
  824000    1.1226723   -7.0874634    330.57929  0.033432372  0.033889512            3 
  825000    1.1048636   -7.0839407    330.16917  0.033350421  0.033881415            2 
  826000    1.1058217   -7.0861049    331.58753  0.033453141  0.033873133            2 
  827000    1.1079881   -7.1207215    331.48879   0.03340274  0.033865236            2 
  828000    1.1288622   -7.1349435    331.89075  0.033402854  0.033857151            2 
  829000    1.1321886   -7.0745989    331.96633  0.033370158  0.033849089            2 
  830000    1.1070234   -7.1112319    331.74841  0.033308074   0.03384094            1 
  831000    1.1213435   -7.1276953    332.49877  0.033343238  0.033832677            3 
  832000    1.1468607   -7.0813969    333.04669  0.033358042  0.033824653            5 
  833000     1.122404   -7.0963931    333.99232  0.033412597   0.03381638            2 
  834000    1.1349587   -7.0964365    334.08108  0.033381402  0.033808107            1 
  835000    1.0960032    -7.104465    334.27284  0.033360563  0.033799772            2 
  836000    1.1222645   -7.1000716    334.99419  0.033392563  0.033791571            1 
  837000    1.1165755   -7.1034046    336.20406  0.033473124  0.033783652            2 
  838000    1.1086284   -7.1196424     335.7295  0.033385988  0.033775678            2 
  839000    1.1311695   -7.1071952    335.34646  0.033308151  0.033767356            2 
  840000    1.1135832   -7.1458973    335.30922  0.033264804  0.033759345            1 
  841000    1.1015771    -7.090729    335.94033  0.033287786  0.033751507            2 
  842000    1.1002081   -7.0667753    336.32657  0.033286477  0.033743321            1 
  843000    1.1143526   -7.0829514    336.74886  0.033288737  0.033734955            2 
  844000    1.1377035    -7.094524    336.58451  0.033233068  0.033726724            2 
  845000    1.0976993   -7.1231967    336.63263  0.033198484  0.033718467            2 
  846000    1.1131337    -7.077846    336.48659  0.033144857  0.033709725            1 
  847000    1.1406671   -7.0655146    337.91797  0.033246553  0.033701118            1 
  848000     1.114062   -7.0585272    338.63616  0.033277924  0.033692541            1 
  849000    1.0978639   -7.1100226     337.5234  0.033129506  0.033684165            1 
  850000    1.1122859    -7.096758    338.79048  0.033214753  0.033675353            1 
  851000    1.1340073   -7.1112383    339.46375  0.033241652  0.033666554            3 
  852000    1.1422075   -7.1029734    339.91199  0.033246478  0.033658054            3 
  853000    1.1086422   -7.1298235    338.83654  0.033102436   0.03364969            1 
  854000    1.0979204   -7.0863547    340.67856   0.03324342  0.033641696            2 
  855000    1.1178359   -7.0721692     341.4171   0.03327652  0.033633997            1 
  856000    1.1147893   -7.1065833    341.25092  0.033221469  0.033625986            4 
  857000     1.115621   -7.1107239    341.93879   0.03324959  0.033618109            3 
  858000    1.1119957    -7.134117    342.00167  0.033216945  0.033610307            3 
  859000    1.0844289   -7.1276752    342.59001  0.033235352  0.033602218            4 
  860000    1.1166753   -7.0804731    343.57383  0.033292038  0.033594597            3 
  861000    1.1093907   -7.1151558    343.07794  0.033205376   0.03358685            3 
  862000    1.1317306   -7.0726173    344.17639  0.033273047  0.033579102            3 
  863000    1.0997108   -7.1056937    342.78481  0.033100117  0.033571194            1 
  864000    1.1130371   -7.1130718     343.6026  0.033140683  0.033562879            1 
  865000    1.0883582    -7.103406    343.90017  0.033131037   0.03355459            1 
  866000    1.1199566   -7.1302933    344.43224   0.03314398  0.033546563            2 
  867000    1.1179849   -7.0947664    344.12032  0.033075771  0.033538284            3 
  868000     1.109485   -7.1249646    344.82864  0.033105668  0.033530474            3 
  869000    1.1137803   -7.1044392    345.70815  0.033151913  0.033522482            1 
  870000    1.0792237   -7.0865553    346.43694  0.033183615  0.033515066            1 
  871000    1.0879892   -7.1217188    345.70383  0.033075376  0.033507483            3 
  872000    1.1196383   -7.1025708    347.14163   0.03317485  0.033500159            2 
  873000    1.1223566   -7.1052616    347.54702  0.033175546  0.033492694            3 
  874000    1.1145629   -7.1013789    348.63695   0.03324151  0.033485497            1 
  875000    1.1308125   -7.1059323    347.54274  0.033099308  0.033478043            2 
  876000    1.1382633   -7.1484274    346.88242  0.032998708  0.033470611            2 
  877000    1.0858414   -7.1492137    347.91832  0.033059513  0.033463107            3 
  878000    1.1038236   -7.1112085     348.8539  0.033110658  0.033455533            1 
  879000     1.124694   -7.1179275     349.4839  0.033132717   0.03344817            2 
  880000    1.1173831   -7.1019369    350.07654  0.033151187  0.033440532            2 
  881000    1.1067222   -7.1022068     349.4682  0.033056016   0.03343298            2 
  882000    1.1228947   -7.1293128    350.91029  0.033154789  0.033425365            1 
  883000    1.1295516   -7.0994542    350.76521  0.033103549  0.033418061            1 
  884000    1.0972852   -7.0946104    352.21327  0.033202609  0.033411016            1 
  885000    1.1111808   -7.1504274    351.47836  0.033095891  0.033404014            6 
  886000    1.0795639   -7.0646287    351.97018  0.033104795  0.033396781            1 
  887000     1.112995   -7.0870336     353.3615  0.033198187  0.033389574            2 
  888000    1.1171164   -7.1394959    352.18451  0.033050348  0.033382331            2 
  889000    1.0901621   -7.0967687    352.37435  0.033030966  0.033374844            2 
  890000     1.079895   -7.1148311    353.11782  0.033063467  0.033367414            2 
  891000    1.1069391   -7.1137187    352.36659  0.032956097  0.033359906            2 
  892000    1.1248451   -7.0930975    352.89456  0.032968476  0.033352634            1 
  893000    1.1107317   -7.1239302    353.97813  0.033032673  0.033345045            1 
  894000    1.1126147   -7.1213691    354.38649  0.033033789  0.033337754            1 
  895000    1.0958586   -7.1031619    354.41867  0.032999876  0.033330274            1 
  896000    1.1308565   -7.1104208    355.21942  0.033037521  0.033323019            1 
  897000    1.1132683   -7.1574888     355.3586  0.033013619  0.033315638            3 
  898000    1.0820436   -7.1380301    355.61493  0.033000643  0.033308385            1 
  899000    1.1070193   -7.1309967    357.00444  0.033092736  0.033301143            1 
  900000    1.1169918     -7.08659    358.12795  0.033159995  0.033294182            1 
  901000    1.1256534    -7.084724    357.46821  0.033062173  0.033287427            2 
  902000    1.0855302    -7.114437     357.6879  0.033045815  0.033280691            2 
  903000    1.1147903   -7.0930939    358.54221   0.03308806  0.033274083            2 
  904000     1.107909   -7.1316744     358.5684  0.033053871  0.033267557            1 
  905000    1.1145246   -7.1590867    358.47719  0.033008949  0.033260787            5 
  906000    1.1031264   -7.1040315    360.10057  0.033121833  0.033254172            2 
  907000    1.0941008   -7.1183591    358.75148  0.032961364  0.033247304            3 
  908000    1.1008655   -7.1174512    361.23853  0.033153316  0.033240517            2 
  909000    1.1061192   -7.1219965    359.89189  0.032993389  0.033233729            1 
  910000    1.0995538   -7.1362629    360.37435  0.033001314  0.033226747            2 
  911000    1.0918832   -7.0724283    361.05925   0.03302774   0.03321973            1 
  912000    1.1109112   -7.1427415    360.38506  0.032929921  0.033212671            2 
  913000     1.090374   -7.1017364    361.49347  0.032995023  0.033205563            1 
  914000    1.0701781   -7.1243789    361.52433  0.032961737  0.033198727            1 
  915000      1.09415   -7.0828287    363.42747  0.033099041  0.033191906            1 
  916000    1.1117431   -7.1116856    361.57134  0.032894045  0.033184974            3 
  917000    1.1211877   -7.1079182    362.52368  0.032944718  0.033178024            1 
  918000    1.1116444   -7.1077204    363.08075    0.0329594  0.033170916            3 
  919000    1.1174319   -7.1136895    362.53009  0.032873603  0.033163846            1 
  920000    1.0622708    -7.155937    362.63844  0.032847684  0.033156693            3 
  921000    1.0815662   -7.1381445    362.51508  0.032800858  0.033149612            2 
  922000    1.0965178   -7.1250837    363.89615  0.032890108  0.033142623            2 
  923000    1.1144104   -7.1334162     362.1623  0.032697932  0.033135323            2 
  924000    1.1087661   -7.1437434    364.03927  0.032831825  0.033128247            2 
  925000    1.0949038   -7.1127438    364.68976  0.032854933  0.033120993            2 
  926000    1.1169811   -7.1255159    365.32157  0.032876311   0.03311355            1 
  927000    1.1023228   -7.1554619    365.07486  0.032818668  0.033105986            2 
  928000    1.0830628    -7.140021    364.88349  0.032766118  0.033098201            1 
  929000      1.09921   -7.1267806    364.74867  0.032718754  0.033090531            2 
  930000    1.0719451   -7.1528408    364.47583  0.032659125  0.033082409            1 
  931000    1.1096672   -7.1042229    364.45742  0.032622397  0.033074466            1 
  932000    1.0936987   -7.0955476    365.78717  0.032706292  0.033066344            1 
  933000    1.1177971   -7.1233105    366.87086  0.032768029   0.03305846            1 
  934000    1.0840758   -7.1262819    365.02143  0.032567936  0.033050306            2 
  935000    1.0885415   -7.1425917    366.88406  0.032699114  0.033041701            3 
  936000    1.0958042   -7.1415088    366.10588  0.032594896  0.033033435            2 
  937000    1.1035622   -7.1681405    366.03345  0.032553669  0.033025286            4 
  938000    1.1303041   -7.1264252    367.19106  0.032621807  0.033017149            3 
  939000    1.0938999   -7.1382902    367.51117  0.032615475  0.033009053            2 
  940000    1.0935055   -7.1081425    368.31445   0.03265199  0.033001113            1 
  941000    1.0828219   -7.1208625    367.94741  0.032584787  0.032993386            1 
  942000    1.1069633   -7.1505079    367.49992  0.032510609  0.032985335            1 
  943000    1.0953875   -7.1833428    368.49833  0.032564363  0.032977288            1 
  944000    1.0934313   -7.1505096    370.43846  0.032701135  0.032969085            2 
  945000     1.113318   -7.1562618    369.19729   0.03255708  0.032960915            2 
  946000     1.113055   -7.1182215     370.3767  0.032626559   0.03295265            2 
  947000    1.1075201   -7.0967206    369.99692  0.032558687  0.032944691            1 
  948000    1.1085054   -7.1381542    370.16307  0.032538947  0.032936859            3 
  949000    1.1094889   -7.1323472     369.2566  0.032425062  0.032928785            2 
  950000    1.0935662   -7.1670705    370.00127  0.032456251  0.032920622            1 
  951000    1.1325503   -7.1255595    370.72562  0.032485595  0.032912366            3 
  952000    1.1170446   -7.1229154    371.53841   0.03252262  0.032904208            2 
  953000    1.0876832   -7.1049969    373.86226  0.032691698  0.032896197            2 
  954000    1.0858384    -7.087991    373.56206  0.032631208  0.032888155            5 
  955000    1.1139483   -7.1565357    371.89657  0.032451707  0.032880105            2 
  956000    1.1279876   -7.1087731    372.25371  0.032448894  0.032871824            1 
  957000    1.1111002   -7.1249986      372.131  0.032404301  0.032863702            2 
  958000    1.0938393   -7.1110964     373.0603  0.032451313  0.032855493            1 
  959000    1.0966464   -7.1092558    373.78605   0.03248054  0.032847478            2 
  960000    1.0693832   -7.1487834    373.89908  0.032456518  0.032839186            1 
  961000    1.1177519   -7.0723585    374.32945  0.032460063  0.032830883            3 
  962000    1.1221138   -7.1550775    373.97354   0.03239549  0.032822444            3 
  963000    1.1023339   -7.1304373    374.56663  0.032413173   0.03281394            2 
  964000    1.0947716   -7.1239655    376.14549  0.032516035  0.032805864            2 
  965000    1.1250246   -7.1423004    375.55934  0.032431722  0.032797843            2 
  966000    1.0941828   -7.0949071    376.05523  0.032440928  0.032789739            2 
  967000     1.081644   -7.1537523     376.4036  0.032437401  0.032781865            1 
  968000    1.0807075   -7.1546818    376.84776  0.032442128  0.032773934            1 
  969000    1.1167472   -7.0932642     377.3769  0.032454153  0.032765927            4 
  970000    1.1054432   -7.1420692    376.93625  0.032382839  0.032757905            1 
  971000     1.106749   -7.1241456    377.12646  0.032365813  0.032749875            3 
  972000    1.1063773   -7.1225738    378.23862  0.032427865  0.032741757            1 
  973000    1.1446388   -7.1744216    377.85351  0.032361554  0.032733515            1 
  974000     1.102639    -7.140346    377.60259  0.032306861  0.032725429            2 
  975000    1.0881355   -7.1239154    378.53895  0.032353756  0.032717297            1 
  976000    1.0624426   -7.1378527    378.29053  0.032299396  0.032709043            3 
  977000    1.0859381   -7.1314981    379.03258   0.03232963  0.032700813            3 
  978000    1.1071584   -7.1358467    378.42415   0.03224473  0.032692554            2 
  979000    1.0955551   -7.1388461    377.96548  0.032172751  0.032684146            1 
  980000    1.0870214   -7.1758809    379.13741  0.032239576  0.032675843            1 
  981000    1.0961239   -7.1611284    378.62281  0.032162997  0.032667564            3 
  982000    1.0681273   -7.1405463    380.53307  0.032292351  0.032659197            4 
  983000    1.0793897   -7.1921006    380.05225   0.03221874  0.032650918            1 
  984000    1.0830437   -7.1754542    380.31941  0.032208622  0.032642713            1 
  985000    1.0853379   -7.1631406    381.46921  0.032273199  0.032634692            1 
  986000    1.1147841   -7.1593345    382.14923   0.03229794  0.032626817            2 
  987000    1.0951182   -7.1660954    382.35753  0.032282804  0.032618986            2 
  988000    1.1234163   -7.1442296    381.98738  0.032218908  0.032611108            5 
  989000    1.1191054   -7.1883284    382.59547  0.032237569  0.032603332            2 
  990000    1.0953656   -7.1568274    383.50732  0.032281761  0.032595548            5 
  991000    1.1004072    -7.115096    384.53017  0.032335198  0.032587901            3 
  992000    1.1299048   -7.1869816    383.81331  0.032242382  0.032580385            1 
  993000     1.067514   -7.1281627    384.46358  0.032264483  0.032572828            1 
  994000    1.0949698   -7.1548481    385.72927  0.032338135  0.032565378            1 
  995000     1.079925   -7.1769279    385.22464   0.03226337  0.032557997            2 
  996000     1.096741   -7.1204762    386.12204  0.032306061  0.032550709            5 
  997000    1.0934395   -7.1303753    386.63877  0.032316848  0.032543555            2 
  998000    1.0984675    -7.172836    385.58791  0.032196719   0.03253626            1 
  999000    1.1219725   -7.1496155    387.64703  0.032336255  0.032528935            3 
 1000000    1.0798133   -7.1673039    387.55552  0.032296294  0.032521913            1 
 1001000    1.0838512   -7.1818584    386.36547  0.032164958  0.032514588            2 
 1002000    1.0748814   -7.1668635    387.04362  0.032189256  0.032507203            1 
 1003000    1.0917731   -7.1751565    387.44634  0.032190623  0.032499972            1 
 1004000    1.0985608   -7.1691703    388.42579  0.032239857   0.03249266            2 
 1005000    1.0966667   -7.1448899    388.87264  0.032244829  0.032485669            2 
 1006000    1.1148594   -7.1548075    390.61989  0.032357512  0.032478558            2 
 1007000    1.0887992   -7.1337955    390.03918  0.032277323  0.032471261            1 
 1008000    1.0770742   -7.1677928    389.38407  0.032191143  0.032464147            2 
 1009000    1.0783834   -7.1606045    390.46045  0.032248138  0.032456964            5 
 1010000    1.0813305   -7.1369608    390.90423  0.032252824  0.032449607            3 
 1011000    1.1095087     -7.13648    391.23165   0.03224791   0.03244229            3 
 1012000    1.0928626   -7.1506968    390.92858  0.032191089  0.032435192            2 
 1013000    1.0745171   -7.1555406    391.57014  0.032212088  0.032427917            3 
 1014000    1.1070088   -7.1389347     392.1408  0.032227219  0.032420938            2 
 1015000    1.0824752   -7.1495067    391.50912  0.032143606   0.03241369            3 
 1016000    1.0703171   -7.1838752    390.90864  0.032062717  0.032406234            1 
 1017000    1.1004894   -7.1668378     392.4658  0.032158784  0.032398969            1 
 1018000    1.0926263   -7.1417416    391.83436  0.032075504  0.032391736            2 
 1019000    1.0756003   -7.1778638    392.65484  0.032111126  0.032384266            2 
 1020000    1.0998434   -7.1593967    393.92604    0.0321835  0.032376803            1 
 1021000    1.0877921   -7.1441417    393.17816  0.032090937  0.032369522            3 
 1022000    1.0575645   -7.1558731    394.45121   0.03216334  0.032362441            2 
 1023000    1.0841397   -7.1921135    394.63089  0.032146537  0.032355276            2 
 1024000    1.0777871   -7.1634866    394.70989  0.032121573  0.032347859            2 
 1025000    1.0954885   -7.1705311    393.83821  0.032019367  0.032340409            1 
 1026000    1.1068681   -7.1911201     395.0734  0.032088482  0.032332995            1 
 1027000    1.0912524   -7.1643882    395.49824   0.03209171  0.032325742            2 
 1028000    1.1000755   -7.1577014    396.86543  0.032171322  0.032318475            2 
 1029000    1.0966131    -7.192938    395.48549  0.032028303  0.032310878            1 
 1030000    1.0652348   -7.1811382    394.45197   0.03191359  0.032303265            2 
 1031000    1.0732626    -7.176012    395.03923  0.031930103  0.032295479            6 
 1032000     1.078408   -7.1251495     395.9241  0.031970616  0.032287783            1 
 1033000    1.0820074   -7.1891857    395.90939  0.031938479  0.032280168            2 
 1034000    1.0956947   -7.1937264    396.03748  0.031917914  0.032272549            1 
 1035000    1.0609896   -7.1834559    396.22179  0.031901915  0.032264907            1 
 1036000    1.0759618   -7.1715351     397.7824  0.031996654  0.032257318            2 
 1037000    1.0925187   -7.1357088    398.88095  0.032054078      0.03225            1 
 1038000    1.0908749   -7.1753068    398.00122  0.031952571  0.032242731            5 
 1039000    1.0920517    -7.165994    398.68231  0.031976445  0.032235355            3 
 1040000    1.0853022   -7.1387428    398.73263   0.03194973  0.032228248            2 
 1041000    1.0834677   -7.1551175    400.03072  0.032022952  0.032220974            1 
 1042000    1.0714164   -7.1866805    399.56846  0.031955251   0.03221359            2 
 1043000    1.0847906   -7.1579872    399.59427  0.031926676  0.032206133            2 
 1044000    1.0820773   -7.1669802    399.88195  0.031919057  0.032198497            2 
 1045000    1.0785387    -7.172997    400.08833  0.031904971  0.032190971            2 
 1046000    1.0919003   -7.1722086    399.76973  0.031849086  0.032183206            1 
 1047000    1.0943193   -7.1481819    400.46962  0.031874373  0.032175313            1 
 1048000    1.1019788    -7.145496    400.47288  0.031844217  0.032167541            3 
 1049000    1.0808744   -7.1605865    401.04512   0.03185932  0.032159821            2 
 1050000    1.0617819    -7.134614    402.25844  0.031925273  0.032152262            3 
 1051000    1.0966972   -7.1379649    403.79553  0.032016772  0.032144907            2 
 1052000    1.0829153   -7.1777418    401.28014  0.031787084  0.032137285            1 
 1053000    1.0864484   -7.1969651    402.54367  0.031856891  0.032129809            3 
 1054000    1.0832572   -7.1790829    402.91496  0.031856022  0.032122286            3 
 1055000    1.0726212    -7.162447    402.68182  0.031807411  0.032114755            2 
 1056000    1.0967822    -7.146972    404.27658  0.031903139  0.032107201            5 
 1057000    1.0714918    -7.167991    403.77954   0.03183377  0.032099754            2 
 1058000    1.0701948   -7.1534158    404.94507  0.031895485   0.03209245            3 
 1059000    1.0730768   -7.1674122    404.67416  0.031844048  0.032084935            2 
 1060000    1.0973817   -7.1896407    404.76553  0.031821189   0.03207741            1 
 1061000    1.0751646   -7.1844779    406.04012  0.031891307  0.032069994            2 
 1062000    1.0551647   -7.1440043    406.34972  0.031885572  0.032062728            2 
 1063000    1.1018956    -7.174618    406.37774  0.031857772  0.032055401            2 
 1064000    1.0883925   -7.1871328    406.37838  0.031827881  0.032048042            1 
 1065000    1.0913296   -7.1976119    405.36453  0.031718664  0.032040571            2 
 1066000    1.0588287    -7.185014    405.57427  0.031705306  0.032032861            2 
 1067000    1.0782909   -7.1874569    406.25205  0.031728526   0.03202523            2 
 1068000    1.1102512   -7.1934103    408.03216  0.031837715  0.032017838            2 
 1069000    1.0575864   -7.2028096    406.97034  0.031725159  0.032010452            1 
 1070000    1.0827443   -7.1870323    406.78761  0.031681278  0.032002975            3 
 1071000    1.0732768   -7.2082757    409.15371  0.031835801  0.031995823            1 
 1072000      1.06236   -7.1741861     409.6429  0.031844131  0.031988305            4 
 1073000     1.106988   -7.1956195    408.62267  0.031735218  0.031980887            1 
 1074000     1.086947   -7.1510195    409.58394  0.031780256  0.031973506            1 
 1075000    1.0686902    -7.170361    410.56335  0.031826616  0.031966316            2 
 1076000    1.0811603   -7.1444349    410.74833  0.031811364  0.031959154            1 
 1077000    1.0780756   -7.1961164    409.83181  0.031710911  0.031951964            1 
 1078000    1.0849763   -7.1661091     410.2229  0.031711727  0.031944569            1 
 1079000    1.0607911   -7.1616918    411.51773  0.031782339  0.031937416            2 
 1080000    1.1019308   -7.1895303    411.93418  0.031785045    0.0319303            1 
 1081000    1.1002315   -7.2138696    411.66097   0.03173458  0.031923012            2 
 1082000    1.0778849   -7.1942268    411.34844   0.03168118  0.031915749            1 
 1083000    1.0491615   -7.1779868    412.18179   0.03171605  0.031908433            1 
 1084000    1.0619438    -7.173473    412.80173   0.03173445   0.03190114            2 
 1085000    1.0663883   -7.1990607    412.30203  0.031666823  0.031893815            1 
 1086000    1.1072253   -7.1852036    412.72621  0.031670213  0.031886577            1 
 1087000    1.0626548   -7.1944684     413.1913  0.031676733  0.031879562            3 
 1088000    1.0963146   -7.1354149    414.64422  0.031758902    0.0318726            2 
 1089000    1.0830607   -7.1774103    415.09357  0.031764124  0.031865422            2 
 1090000    1.1082231   -7.1869328    414.41426  0.031683047  0.031858446            1 
 1091000    1.0784982   -7.1909923    414.33698  0.031648105  0.031851352            2 
 1092000     1.076575   -7.1936812    415.64398  0.031718863  0.031844321            2 
 1093000    1.0721548   -7.1912575    416.01346  0.031718013  0.031837459            1 
 1094000    1.0694144   -7.1779698    415.57267  0.031655444  0.031830577            2 
 1095000    1.0895918   -7.1937509    416.40058  0.031689542  0.031823702            1 
 1096000    1.0598865    -7.173242    416.80756  0.031691573  0.031816858            3 
 1097000    1.0705891   -7.1859805    417.48374  0.031714049  0.031810082            3 
 1098000    1.0845561   -7.1876538     416.2107  0.031588547  0.031803283            3 
 1099000    1.0668935   -7.1486845    418.41406  0.031726877  0.031796406            4 
 1100000    1.0828138   -7.1719554    416.71902  0.031569623  0.031789511            3 
 1101000    1.0826867   -7.1608508    417.83107  0.031625119   0.03178264            6 
 1102000    1.0720571   -7.1756574    418.84537  0.031673122  0.031775407            4 
 1103000     1.069325   -7.2040045    416.51589  0.031468411  0.031768223            1 
 1104000    1.0740968   -7.1930889    419.73352  0.031682783  0.031761341            1 
 1105000    1.0864702   -7.1850996    418.99018  0.031598053  0.031754293            1 
 1106000    1.0812118   -7.1622877    418.83841  0.031558048  0.031747203            2 
 1107000    1.0639616   -7.1875563    418.12614  0.031475921  0.031740051            3 
 1108000    1.0797221   -7.2045622    418.43857  0.031471012  0.031732811            1 
 1109000    1.0674777   -7.1945472     419.7756  0.031543102  0.031725222            3 
 1110000    1.0709628   -7.2211387    419.61027  0.031502272  0.031717813            2 
 1111000    1.0605961   -7.2082959     420.3651  0.031530535  0.031710459            1 
 1112000    1.0892311   -7.1867725    420.89815  0.031542128  0.031703335            1 
 1113000    1.0752692   -7.1514877    421.89924  0.031588742  0.031696252            3 
 1114000    1.0885449   -7.1716399    422.74659  0.031623773  0.031689163            3 
 1115000    1.0785715   -7.1583174    421.00251  0.031465061  0.031682058            3 
 1116000    1.0703016   -7.1891877    421.95077  0.031507674    0.0316746            1 
 1117000    1.0837239   -7.1916929    421.59398  0.031452848  0.031667289            1 
 1118000    1.0692853   -7.1838121    422.70886  0.031507816  0.031659967            1 
 1119000    1.0620341   -7.1875741    423.04427  0.031504637  0.031652894            3 
 1120000    1.0522201   -7.1914839     421.7115  0.031377344  0.031645452            2 
 1121000    1.0644263   -7.1667842    422.92595  0.031439634  0.031637776            2 
 1122000    1.0553745    -7.190518    422.04462  0.031346154  0.031630302            5 
 1123000     1.047233   -7.2289113    421.27969  0.031261479  0.031622664            2 
 1124000    1.0742075   -7.2325183     422.4269   0.03131872   0.03161502            1 
 1125000    1.0525573   -7.1932492     423.6657  0.031382645  0.031607165            1 
 1126000    1.0716465   -7.1586528    422.22524  0.031248167  0.031599266            2 
 1127000    1.0729818   -7.1900212    423.54454  0.031317993  0.031591428            2 
 1128000    1.0660647   -7.1976902    424.04548  0.031327237  0.031583547            4 
 1129000    1.0523542    -7.191659    423.01272  0.031223259   0.03157559            3 
 1130000     1.061015   -7.1765475    423.31479  0.031217905  0.031567635            2 
 1131000    1.0498962   -7.2318151    424.30984  0.031263619  0.031559566            1 
 1132000    1.0826273   -7.2281262    424.07769  0.031218911  0.031551505            2 
 1133000    1.0828281   -7.1932952    424.88119  0.031250455  0.031543567            1 
 1134000    1.0686414   -7.2409235     423.1597  0.031096391  0.031535444            2 
 1135000    1.0788332    -7.156144    424.13923  0.031140913  0.031527409            3 
 1136000    1.0921442   -7.2108407    425.10768  0.031184542  0.031519358            2 
 1137000    1.0843195   -7.1752447    425.74329    0.0312037  0.031511252            1 
 1138000    1.0711705   -7.1997707    424.60675  0.031093054  0.031503008            1 
 1139000    1.0682759   -7.1538404    425.51438  0.031132162  0.031494699            4 
 1140000    1.0651633   -7.1798567    424.79055  0.031051941  0.031486424            2 
 1141000    1.0646611   -7.2148083    426.74272  0.031167304  0.031478313            1 
 1142000    1.0838848   -7.1842714    426.49943  0.031122258  0.031470474            2 
 1143000    1.0668597   -7.2201355    426.93984  0.031127139  0.031462375            1 
 1144000    1.0785556   -7.2105541    426.63671  0.031077849  0.031454212            1 
 1145000    1.0931424   -7.2182414    428.29954  0.031171728   0.03144637            1 
 1146000    1.0719176   -7.1928066    428.02815  0.031124793  0.031438468            1 
 1147000    1.0680943   -7.2044957    429.60958  0.031212553  0.031430691            2 
 1148000    1.0797363   -7.2046258    429.85052  0.031202854   0.03142301            1 
 1149000    1.0571667   -7.2229695    428.17756  0.031054363  0.031415085            2 
 1150000    1.0679377   -7.2314726    428.44969  0.031047079  0.031407297            1 
 1151000    1.0608985   -7.2047126    429.60136  0.031103487  0.031399392            1 
 1152000    1.0913934   -7.2185315    430.29004  0.031126305  0.031391524            2 
 1153000    1.0637933   -7.1888464     430.0455  0.031081635  0.031383764            1 
 1154000    1.0782451   -7.2194636     429.8599  0.031041298  0.031375948            4 
 1155000    1.0499684   -7.2308121    429.60495  0.030996028  0.031368059            1 
 1156000    1.0753353   -7.2343803    430.95454  0.031066504  0.031360109            4 
 1157000    1.0572983   -7.2001526    432.08901  0.031121363  0.031352217            3 
 1158000    1.0613328   -7.2261474    430.67751  0.030992912   0.03134417            2 
 1159000    1.0497983   -7.2395211    430.88722   0.03098125  0.031336042            2 
 1160000    1.0611381     -7.22726    431.58869  0.031004934  0.031328126            1 
 1161000    1.0465227   -7.2421459    431.87837  0.030999022  0.031320203            1 
 1162000    1.0578931   -7.2122345    432.20837  0.030996011  0.031312377            1 
 1163000     1.054361   -7.2096819    432.17099   0.03096668  0.031304678            2 
 1164000    1.0668187   -7.1849472    431.89901  0.030920605  0.031296753            5 
 1165000    1.0454081    -7.184735    433.25308  0.030990921   0.03128886            2 
 1166000    1.0710444   -7.1811085    434.89753   0.03108187  0.031281083            1 
 1167000    1.0480542   -7.2325193    433.78919  0.030976092  0.031273416            3 
 1168000    1.0387379   -7.2154537    434.25617  0.030982889  0.031265493            2 
 1169000    1.0470013    -7.225507    434.39226  0.030966086  0.031257733            1 
 1170000    1.0782351   -7.2117442    433.61835  0.030884498  0.031249781            2 
 1171000    1.0451138    -7.201284    434.20352  0.030899767  0.031241944            1 
 1172000    1.0616704   -7.1891898    436.56114  0.031041037  0.031234296            1 
 1173000    1.0568205   -7.1675465    435.63287  0.030948627   0.03122658            3 
 1174000    1.0655988   -7.2218789    435.09911  0.030884378  0.031218539            1 
 1175000    1.0820328    -7.223084    436.18096   0.03093482   0.03121049            1 
 1176000    1.0730697     -7.19793    436.56568  0.030935777  0.031202536            1 
 1177000    1.0621428   -7.2404023    436.85143  0.030929725  0.031194772            1 
 1178000    1.0702754   -7.1744378    436.63819  0.030888384  0.031187063            2 
 1179000    1.0790689   -7.2199545    436.42839  0.030847356  0.031179127            2 
 1180000    1.0723586   -7.2179462    436.10592  0.030798441  0.031171008            1 
 1181000    1.0514882   -7.2203237     436.3553  0.030789959  0.031162778            2 
 1182000     1.047167   -7.2127357    438.57206  0.030920196   0.03115455            2 
 1183000    1.0681753   -7.2209631    437.47192  0.030816563  0.031146338            2 
 1184000    1.0602858   -7.2297406     437.5199  0.030793912  0.031138193            2 
 1185000    1.0646221    -7.213291     437.4368  0.030762081   0.03113006            2 
 1186000    1.0864746   -7.1987891    438.16736  0.030787476  0.031121828            1 
 1187000    1.0749567   -7.2521521     437.4688  0.030712496    0.0311137            4 
 1188000    1.0714764   -7.1844396    438.37596  0.030750278  0.031105545            2 
 1189000    1.0462566   -7.2692828    438.64074  0.030742973  0.031097366            2 
 1190000    1.0636695   -7.2358943    441.67486  0.030929612  0.031089305            1 
 1191000    1.0563211   -7.2253007    440.95682  0.030853402  0.031081264            2 
 1192000    1.0743622   -7.2681363    439.41966  0.030720054  0.031073348            3 
 1193000    1.0659143   -7.2577242    439.66413  0.030711381  0.031065274            2 
 1194000    1.0853221   -7.1990858    440.07995  0.030714681  0.031057222            5 
 1195000    1.0597689   -7.2254103    440.95611  0.030750077  0.031049193            1 
 1196000    1.0566558   -7.2347644    440.48696  0.030691678  0.031041065            1 
 1197000    1.0535954   -7.2168435     441.0018   0.03070188  0.031033131            7 
 1198000    1.0708809   -7.2476796    441.63263  0.030720133  0.031025136            1 
 1199000     1.098691   -7.2354387    441.86921  0.030710954  0.031017267            3 
 1200000    1.0891886   -7.2381092     442.8433  0.030753007  0.031009631            3 
 1201000     1.030576   -7.2538196    441.70342  0.030648308  0.031001745            1 
 1202000    1.0556396   -7.2548357    442.16277  0.030654657  0.030993694            2 
 1203000    1.0491013   -7.2382925    441.76783  0.030601817  0.030985768            2 
 1204000    1.0571402    -7.185598    445.33599  0.030823366  0.030977992            3 
 1205000    1.0647854   -7.1969953    444.78996  0.030760025  0.030970201            1 
 1206000    1.0556797   -7.2052299      444.118  0.030688087  0.030962507            2 
 1207000    1.0570482   -7.2261786    444.34354  0.030678234  0.030954672            2 
 1208000    1.0416863   -7.1681872    446.07662  0.030772394  0.030946932            2 
 1209000     1.063141   -7.2300153    444.98202  0.030671493  0.030939287            2 
 1210000    1.0260135   -7.2526645    445.13485   0.03065667  0.030931464            2 
 1211000    1.0527936   -7.2640225    445.00142  0.030622173  0.030923633            1 
 1212000    1.0643341   -7.2759437    444.39088  0.030554928  0.030915599            3 
 1213000    1.0414703    -7.249089    446.94646  0.030705308  0.030907752            3 
 1214000    1.0625151   -7.2192616    445.87662  0.030606577  0.030899901            1 
 1215000    1.0632515   -7.2255917    446.89915  0.030651519   0.03089196            5 
 1216000    1.0576999   -7.2388879    447.08687  0.030639177  0.030884098            3 
 1217000    1.0791772   -7.2471208    445.82865  0.030527845  0.030876152            2 
 1218000    1.0839425   -7.1899806    448.21546  0.030666082  0.030868235            1 
 1219000     1.075964   -7.2240621    446.95018  0.030554429  0.030860269            4 
 1220000    1.0577519   -7.2587765    446.53077  0.030500736  0.030852109            4 
 1221000    1.0410802   -7.2053942    447.89644  0.030568963  0.030844028            2 
 1222000     1.064707   -7.2615229    449.04596  0.030622338  0.030836102            1 
 1223000    1.0599767   -7.2468699    448.95863  0.030591348  0.030827988            2 
 1224000    1.0576947   -7.2296074    447.38249  0.030459048  0.030819953            5 
 1225000    1.0595641   -7.2679568    448.32686  0.030498426  0.030811872            1 
 1226000    1.0530694   -7.2573044    449.87733  0.030578938  0.030804015            1 
 1227000    1.0408877   -7.1959796    449.01568  0.030495496  0.030796183            1 
 1228000    1.0646334   -7.2303492    449.59616  0.030510054  0.030788356            2 
 1229000    1.0717556   -7.2322008    449.39944   0.03047189  0.030780444            2 
 1230000    1.0647097   -7.2375692    450.05582  0.030491587  0.030772358            3 
 1231000    1.0441916   -7.2203245    450.17996  0.030475221  0.030764371            2 
 1232000    1.0770702   -7.2281635    451.09033  0.030512063  0.030756319            1 
 1233000     1.060938   -7.2333342    449.54878  0.030383129  0.030748177            9 
 1234000    1.0677174   -7.2495749    450.63945  0.030432162  0.030740016            2 
 1235000    1.0775559   -7.2237079    451.05914  0.030435839  0.030732041            3 
 1236000    1.0396172   -7.1661812    451.66356  0.030451966  0.030724186            2 
 1237000    1.0536652   -7.2195304    451.85736  0.030440404  0.030716236            1 
 1238000    1.0430823   -7.2478708    452.76045  0.030476605  0.030708273            1 
 1239000    1.0710292   -7.1988164    451.13773  0.030342866   0.03070032            4 
 1240000    1.0420523   -7.2335392     451.9641  0.030373932  0.030692289            1 
 1241000    1.0556255   -7.1998384     453.2178  0.030433642  0.030684088            2 
 1242000    1.0559788   -7.2517949    452.58803  0.030366883  0.030675962            6 
 1243000    1.0488249   -7.2758015    450.25376  0.030185959  0.030667564            3 
 1244000    1.0629381   -7.2066359    452.40507  0.030305806   0.03065916            3 
 1245000    1.0527738   -7.2529273     451.8052  0.030241312   0.03065069            2 
 1246000     1.052805   -7.2291315    452.08524   0.03023577  0.030642237            1 
 1247000    1.0620208   -7.2091652    452.54612  0.030242323  0.030633779            1 
 1248000    1.0775523   -7.1959814    454.32494  0.030336868  0.030625327            3 
 1249000    1.0421978   -7.2793422    451.56158  0.030128208   0.03061675            3 
 1250000    1.0572171   -7.2415335    454.20668  0.030280445  0.030608244            3 
 1251000    1.0426586   -7.2687781    452.81957   0.03016384  0.030599941            3 
 1252000    1.0359006   -7.2305802    455.65504  0.030328477   0.03059159            2 
 1253000    1.0426845   -7.2448662    455.19805   0.03027388  0.030583429            1 
 1254000    1.0463945   -7.2447668    454.27268  0.030188243   0.03057532            1 
 1255000     1.069542   -7.2370524    456.65648  0.030322476  0.030567195            3 
 1256000    1.0576731   -7.2290179     456.5699  0.030292589  0.030559104            1 
 1257000    1.0577511   -7.2179545    456.62059   0.03027185  0.030551164            2 
 1258000    1.0646144   -7.2132947    457.82292  0.030327433  0.030543229            3 
 1259000    1.0437882   -7.2176141    459.03846    0.0303838  0.030535263            3 
 1260000    1.0269554    -7.274739     456.8968  0.030218043  0.030527168            1 
 1261000     1.037303   -7.2776275    456.45276  0.030164734  0.030519032            2 
 1262000    1.0299851   -7.2243375    457.94268  0.030239215  0.030510917            1 
 1263000    1.0497468    -7.247901    457.67924  0.030197891  0.030502682            1 
 1264000    1.0426936   -7.2291593    456.74847  0.030112636  0.030494582            2 
 1265000    1.0381132    -7.274824      458.039  0.030173847  0.030486239            2 
 1266000    1.0331175   -7.2271858    458.59671  0.030186724  0.030477957            3 
 1267000    1.0382455    -7.278162    456.53126  0.030027049  0.030469601            3 
 1268000    1.0462025   -7.2745007    458.11223   0.03010727  0.030461154            2 
 1269000     1.064174   -7.2577709    458.30654  0.030096306  0.030452757            2 
 1270000    1.0736996   -7.2579778    457.35657  0.030010274  0.030444416            5 
 1271000    1.0328926    -7.261405    457.86772  0.030020176  0.030436121            1 
 1272000    1.0541841   -7.2251675    459.60452  0.030110359  0.030427871            3 
 1273000    1.0587869   -7.2496123    460.09168  0.030118596   0.03041969            1 
 1274000    1.0519098   -7.2663901    459.25464  0.030040204  0.030411566            2 
 1275000    1.0422478   -7.2631652    460.67368  0.030109391  0.030403519            3 
 1276000      1.04118   -7.2477317    460.61533  0.030081984  0.030395498            1 
 1277000      1.06102   -7.2671253    460.40237  0.030044529  0.030387272            3 
 1278000    1.0589071   -7.2563916     460.7621  0.030044477  0.030378892            1 
 1279000     1.049622   -7.2445481    462.15809  0.030111942  0.030370717            1 
 1280000    1.0466134   -7.2714894    460.39392  0.029973562  0.030362583            2 
 1281000    1.0548998   -7.2397007    460.36073  0.029948005  0.030354501            1 
 1282000    1.0652677   -7.3008133    460.74622  0.029949702  0.030346411            3 
 1283000    1.0549118   -7.2505306    463.90249  0.030131364  0.030338346            2 
 1284000    1.0251622   -7.2449669     462.6939  0.030029459  0.030330453            4 
 1285000    1.0563134   -7.2568916    461.63684  0.029937538  0.030322497            1 
 1286000     1.067661   -7.2680515    463.04824  0.030005718   0.03031461            1 
 1287000    1.0101293   -7.2717919    463.11549  0.029986758  0.030306727            2 
 1288000    1.0426516   -7.2425445    463.41819  0.029983061  0.030298878            1 
 1289000    1.0448331   -7.2815415    464.91643  0.030056661  0.030290962            4 
 1290000    1.0205582   -7.2545962    464.66792  0.030017308  0.030283056            1 
 1291000    1.0290143   -7.2669431    464.26045  0.029967754   0.03027499            4 
 1292000    1.0204004   -7.2478121    466.37471  0.030080928  0.030267066            1 
 1293000    1.0568446   -7.2517915    465.24372  0.029984772  0.030259238            2 
 1294000     1.028512   -7.2718537    466.55514  0.030046055  0.030251342            1 
 1295000    1.0747268   -7.2321411    465.42046  0.029949837  0.030243456            2 
 1296000    1.0617605    -7.282115    465.96368  0.029961656  0.030235449            2 
 1297000    1.0400564   -7.2631411    467.32187   0.03002582  0.030227494            4 
 1298000    1.0335011    -7.227388    467.26841  0.029999256  0.030219769            2 
 1299000    1.0427613    -7.275475    467.55251  0.029994388   0.03021196            3 
 1300000    1.0246105   -7.3016562    466.63506  0.029912504  0.030204008            2 
 1301000     1.049829   -7.1983798    469.02987  0.030042907  0.030196221            3 
 1302000    1.0413285    -7.251809    467.87212  0.029945732  0.030188311            1 
 1303000    1.0490119   -7.2650451    468.29662  0.029949899  0.030180322            2 
 1304000    1.0613023   -7.2512621    468.42553  0.029935169  0.030172254            2 
 1305000    1.0250954    -7.286637      465.632  0.029733844  0.030164064            3 
 1306000    1.0445282   -7.2980111    466.95215  0.029795313  0.030155816            2 
 1307000    1.0237332   -7.3173661    467.14424  0.029784764  0.030147447            2 
 1308000    1.0343364   -7.2878121    466.94445  0.029749264  0.030139148            1 
 1309000    1.0598849   -7.2887476    467.43307  0.029757644  0.030130881            1 
 1310000    1.0288136   -7.2615096     468.0935   0.02977694  0.030122702            1 
 1311000    1.0225127   -7.2571937    468.18544  0.029760071  0.030114392            3 
 1312000    1.0316441   -7.2572884    469.58753  0.029826444  0.030106256            2 
 1313000    1.0468549   -7.2587313    469.47952  0.029796872  0.030098177            2 
 1314000    1.0350399   -7.2609693    470.06011  0.029811017  0.030090141            2 
 1315000    1.0575382   -7.2784408    470.02989  0.029786431  0.030082003            1 
 1316000     1.042002   -7.2256007    470.99208  0.029824727  0.030073981            1 
 1317000    1.0476853   -7.2552162    471.67147  0.029845069  0.030065981            2 
 1318000    1.0371822    -7.239813    471.70092  0.029824286  0.030057959            3 
 1319000    1.0584587   -7.3029123    471.40574  0.029783027   0.03005005            3 
 1320000    1.0494187    -7.256119    472.45806  0.029826898  0.030042118            1 
 1321000    1.0407365   -7.2596352     472.5661  0.029811134  0.030034204            2 
 1322000    1.0252658   -7.2708698    471.09565  0.029695893  0.030026281            1 
 1323000    1.0492654    -7.298553    471.20444    0.0296803  0.030018367            2 
 1324000    1.0421542   -7.3011161    471.91127  0.029702371   0.03001025            2 
 1325000    1.0360548    -7.286443    472.25955  0.029701858  0.030002236            4 
 1326000    1.0417637   -7.2740698    472.41867  0.029689459  0.029994169            2 
 1327000    1.0468033   -7.2625731    474.09405  0.029772296  0.029986061            1 
 1328000    1.0231261   -7.2745186     471.1993  0.029568229  0.029977889            2 
 1329000    1.0367661   -7.2281554    473.69353  0.029702378   0.02996975            2 
 1330000    1.0393035   -7.2952043    473.46481  0.029665715  0.029961617            1 
 1331000    1.0384822   -7.2434662    473.20881  0.029627398  0.029953299            2 
 1332000    1.0176774   -7.2865207    474.52734  0.029687646  0.029945185            3 
 1333000    1.0210491   -7.3022176    473.93218  0.029628168  0.029936878            2 
 1334000     1.061976   -7.2291237    475.50082   0.02970395  0.029928796            3 
 1335000    1.0499873   -7.2608432    474.21326  0.029601327  0.029920761            2 
 1336000    1.0295156   -7.2888697    473.49685  0.029534484  0.029912576            3 
 1337000    1.0547816   -7.3074476    473.56637  0.029516727  0.029904297            1 
 1338000    1.0659459   -7.2846677    474.26816  0.029538375  0.029896082            2 
 1339000    1.0343441   -7.2853105     474.7923  0.029548936  0.029887844            1 
 1340000    1.0168483   -7.2639791    477.36287  0.029686745  0.029879619            1 
 1341000    1.0290374   -7.2511864     476.0154  0.029580872  0.029871611            2 
 1342000    1.0450975   -7.2804799    475.87563  0.029550151  0.029863512            2 
 1343000    1.0385089    -7.255581    477.39436  0.029622385  0.029855233            2 
 1344000    1.0145905   -7.2661241    477.73982  0.029621765    0.0298471            1 
 1345000    1.0402974   -7.2815726    477.34687  0.029575395  0.029838871            2 
 1346000    1.0439951   -7.2372963    477.60756  0.029569561  0.029830793            2 
 1347000    1.0448201   -7.2625775    477.66339  0.029551064  0.029822722            1 
 1348000    1.0628829   -7.2797413    477.51718  0.029520103  0.029814544            2 
 1349000    1.0408301   -7.2831353    478.51277  0.029559721  0.029806415            3 
 1350000    1.0475132   -7.2849035    478.51922  0.029538224  0.029798156            2 
 1351000    1.0348395    -7.276939    477.69765  0.029465683  0.029789876            1 
 1352000    1.0322313   -7.2447537    478.80726  0.029512282  0.029781891            2 
 1353000    1.0066605   -7.2804933    478.66576  0.029481754  0.029773794            1 
 1354000    1.0703342   -7.3162424    478.02705   0.02942067  0.029765708            2 
 1355000    1.0444079   -7.2799969    480.00485  0.029520594  0.029757668            2 
 1356000    1.0260857   -7.2666805    479.80424  0.029486494  0.029749617            2 
 1357000    1.0217146   -7.2923148     480.0214  0.029478101  0.029741569            2 
 1358000    1.0396834   -7.2992093    479.38887  0.029417579  0.029733416            1 
 1359000    1.0291728   -7.2642818    480.29388  0.029451428  0.029725381            1 
 1360000    1.0315125   -7.2886858    479.23372  0.029364811  0.029717321            1 
 1361000    1.0516867   -7.2562558    480.23794  0.029404723  0.029709192            2 
 1362000    1.0317911   -7.2662682    481.05379  0.029433052  0.029701171            2 
 1363000    1.0421036   -7.2955222    481.37648  0.029431186    0.0296932            1 
 1364000    1.0291168   -7.2444347    482.44523  0.029474904  0.029685161            1 
 1365000    1.0229263   -7.2571405    480.50361  0.029334775  0.029677122            3 
 1366000    1.0316887   -7.3075117     481.1985  0.029355691  0.029669003            3 
 1367000    1.0562931   -7.2720911     482.7856  0.029430968  0.029660879            1 
 1368000    1.0073512   -7.3105285     483.5321  0.029454928  0.029652617            1 
 1369000    1.0430558    -7.298024    482.04585  0.029342942  0.029644332            2 
 1370000    1.0213356   -7.2769632    482.48535  0.029348257  0.029636099            2 
 1371000    1.0438508   -7.2603872    482.53721  0.029330003  0.029627853            2 
 1372000    1.0333232   -7.2743642    481.81601  0.029264821  0.029619551            1 
 1373000    1.0341836   -7.3323571    481.48755  0.029223571  0.029611189            2 
 1374000    1.0228032   -7.2685327    482.15157  0.029242574  0.029602615            2 
 1375000    1.0224486   -7.2711212    483.15375  0.029282045  0.029594209            2 
 1376000    1.0212413   -7.3086763    483.28659   0.02926881  0.029585932            1 
 1377000    1.0210025   -7.2628193    482.99293  0.029229782  0.029577521            2 
 1378000    1.0237738   -7.2944853    484.12425  0.029276987  0.029569173            5 
 1379000    1.0161551   -7.2642295    483.36435  0.029209835  0.029560852            1 
 1380000     1.041424   -7.2626536     483.5759  0.029201443  0.029552532            3 
 1381000     1.051745   -7.3381088     483.9954  0.029205612  0.029544112            2 
 1382000    1.0283981    -7.285199    485.69719  0.029287095  0.029535624            1 
 1383000    1.0427945   -7.2660734    485.64799  0.029262954  0.029527301            2 
 1384000    1.0121987    -7.321172    483.62328  0.029119899  0.029519037            2 
 1385000    1.0248709   -7.3049136    486.57568  0.029276515  0.029510716            3 
 1386000    1.0116324   -7.2848186    485.10342  0.029166872  0.029502258            1 
 1387000    1.0396182   -7.3054066    484.89791  0.029133496  0.029493735            2 
 1388000     1.026948   -7.3337376    484.24761  0.029073463  0.029485269            1 
 1389000     1.005359   -7.2537944    486.95576  0.029215008  0.029476845            2 
 1390000    1.0233433   -7.2487417    486.77154  0.029182946  0.029468685            1 
 1391000    1.0197354   -7.2658037    486.88759  0.029168919  0.029460551            1 
 1392000    1.0398184   -7.3167291    484.96886  0.029033098  0.029452111            3 
 1393000    1.0379808   -7.2664236    486.75276  0.029118973  0.029443678            1 
 1394000     1.017644   -7.2954499    486.44898  0.029079925  0.029435197            2 
 1395000    1.0120943   -7.2807626    486.39923  0.029056107  0.029426726            1 
 1396000    1.0330347   -7.2920224    486.93073   0.02906702  0.029418278            2 
 1397000    1.0435098   -7.2759171    486.30867  0.029009107  0.029409757            2 
 1398000    1.0236482   -7.3284512    487.29802  0.029047331  0.029401197            1 
 1399000     1.012115   -7.3068854    487.37656  0.029031246   0.02939252            2 
 1400000    1.0477068   -7.3278969    486.72543  0.028971752  0.029384015            2 
 1401000     1.023851   -7.2983735    487.77423  0.029013457   0.02937553            3 
 1402000    1.0243657   -7.2848085    487.48437  0.028975533  0.029367024            3 
 1403000    1.0379509    -7.277808    489.49827  0.029074499  0.029358487            2 
 1404000    1.0280273   -7.2740649    489.90404  0.029077875  0.029350054            1 
 1405000    1.0215589   -7.2850915    489.13502  0.029011567  0.029341503            2 
 1406000    1.0330493   -7.2829457    489.53094  0.029014399  0.029333078            1 
 1407000    1.0234536   -7.3133215    488.39629  0.028926575   0.02932459            3 
 1408000    1.0348904   -7.3086289    489.45425  0.028968647  0.029316136            1 
 1409000    1.0449873   -7.3036293    489.46169  0.028948527  0.029307488            2 
 1410000      1.03895   -7.2795765    489.77457  0.028946487  0.029299003            2 
 1411000    1.0203398    -7.266154    490.56558  0.028972689  0.029290519            2 
 1412000    1.0246994   -7.2611772    490.22169  0.028931875   0.02928221            1 
 1413000    1.0169343   -7.3066703    490.03394  0.028900327  0.029273701            1 
 1414000    1.0187867   -7.2671814    491.72032  0.028979274  0.029265147            2 
 1415000    1.0256855   -7.2848042    490.73395  0.028900704  0.029256676            1 
 1416000    1.0344666   -7.3197717    491.37283  0.028917893  0.029248158            1 
 1417000    1.0154921   -7.2969498    491.24849  0.028890172  0.029239686            4 
 1418000    1.0167505   -7.2964804    492.43395  0.028939466  0.029231318            2 
 1419000    1.0073615   -7.2948029    492.65018   0.02893177  0.029222986            1 
 1420000    1.0063476   -7.2847698    493.97003  0.028988851  0.029214749            2 
 1421000    1.0295399   -7.2860841    493.92205  0.028965637  0.029206455            2 
 1422000    1.0155216   -7.3101446    493.00646  0.028891612  0.029198279            3 
 1423000    1.0181446   -7.2911331    494.64978  0.028967544  0.029190081            2 
 1424000    1.0368328   -7.3289466    495.69501  0.029008369  0.029181883            2 
 1425000    1.0323902   -7.3193192    494.41602  0.028913218  0.029173747            2 
 1426000    1.0379628   -7.2995189    495.24177  0.028941197  0.029165625            2 
 1427000     1.008459    -7.285703    494.88632  0.028900159  0.029157479            1 
 1428000    1.0097482   -7.3150513    494.63128  0.028865037   0.02914935            2 
 1429000   0.99072211   -7.2747662    495.49923  0.028895453  0.029141335            3 
 1430000    1.0355439   -7.3044222    495.16522  0.028855782  0.029133305            3 
 1431000    1.0349695   -7.2914494    496.34572  0.028904363  0.029125213            1 
 1432000    1.0005007   -7.3067117    497.28647  0.028938924  0.029117039            1 
 1433000    1.0148078    -7.316531    496.09281  0.028849314  0.029108905            2 
 1434000    1.0281111   -7.3133032    496.17364  0.028833894  0.029100803            1 
 1435000    1.0162764   -7.2929655    497.12662  0.028869142  0.029092672            1 
 1436000    1.0128072   -7.2882227    496.36879   0.02880506  0.029084483            2 
 1437000    1.0404259   -7.3262027     497.1761  0.028831831  0.029076409            4 
 1438000    1.0285831   -7.2983617    496.46144  0.028770366  0.029068303            1 
 1439000     1.007338   -7.3091671    497.44677  0.028807434  0.029060155            3 
 1440000    1.0401685   -7.3046105    497.45101  0.028787674  0.029051913            3 
 1441000    1.0358883    -7.333626    496.16028  0.028693054  0.029043765            1 
 1442000    1.0272909   -7.3216955    497.70131  0.028762211  0.029035578            2 
 1443000    1.0120464   -7.3206408    497.45739  0.028728193  0.029027503            3 
 1444000    1.0306646   -7.2912986    497.87855  0.028732603  0.029019319            1 
 1445000    1.0413368   -7.2963284    498.76317  0.028763735  0.029011184            1 
 1446000    1.0076134   -7.3033756    498.08504  0.028704762  0.029003105            1 
 1447000    1.0091247   -7.2863329    499.40277  0.028760814   0.02899498            2 
 1448000    1.0149984   -7.3461619    498.69241   0.02870007  0.028986818            1 
 1449000   0.99982653   -7.2925434    499.70331  0.028738401  0.028978635            2 
 1450000    1.0444398   -7.3187372    500.93383    0.0287893  0.028970607            2 
 1451000    1.0292658   -7.3362639    501.50553  0.028802293  0.028962483            2 
 1452000    1.0206327   -7.2925023    500.72342   0.02873757  0.028954452            2 
 1453000    1.0363261   -7.2768069    501.02472  0.028735073  0.028946408            3 
 1454000    1.0373617   -7.2687737    500.88139  0.028707095  0.028938445            2 
 1455000    1.0106677   -7.2837227    501.83328  0.028741883  0.028930508            2 
 1456000    1.0125556   -7.3187398    502.27938  0.028747675  0.028922451            1 
 1457000    1.0462043   -7.3553966     500.7686  0.028641535  0.028914469            2 
 1458000    1.0042741   -7.2838757    502.33395   0.02871136  0.028906588            4 
 1459000   0.99630371    -7.299054    502.67606  0.028711221  0.028898802            3 
 1460000    1.0086004   -7.3203798    503.35773  0.028730464  0.028891024            1 
 1461000    1.0173013    -7.309914     502.7611  0.028676768  0.028883235            1 
 1462000    1.0170698   -7.3012168    505.44127  0.028809922  0.028875439            2 
 1463000     1.025002   -7.3226324    502.43878  0.028619206  0.028867695            1 
 1464000     1.037507   -7.3309606    504.42279  0.028712591  0.028859844            1 
 1465000    1.0102979   -7.3237379    505.46144  0.028752073  0.028852054            4 
 1466000    1.0370636   -7.3329281    503.19959  0.028603888  0.028844277            4 
 1467000   0.99889532   -7.3293695    505.18544  0.028697196  0.028836539            3 
 1468000    1.0054744   -7.3475772    504.99379  0.028666768  0.028828912            2 
 1469000    1.0146069   -7.3170789    504.77131  0.028634633  0.028821255            1 
 1470000    1.0125726    -7.335554    504.98366  0.028627192  0.028813509            3 
 1471000    1.0167345   -7.3255253     507.5038  0.028750499  0.028805803            2 
 1472000    1.0160203   -7.3228749    505.04341  0.028591678  0.028798133            3 
 1473000    1.0186373   -7.3264028     506.3692  0.028647273  0.028790361            4 
 1474000    1.0133193   -7.3188557    507.18118  0.028673744  0.028782674            1 
 1475000    1.0164176   -7.2941538    507.69321  0.028683232  0.028775003            4 
 1476000    1.0102702   -7.2984084    507.10653  0.028630676  0.028767346            1 
 1477000    1.0111145   -7.3615665    504.97475  0.028491015   0.02875942            4 
 1478000    1.0009842   -7.3533834    506.53329  0.028559613  0.028751634            1 
 1479000    1.0290251   -7.3279001    508.50988  0.028651672  0.028744006            2 
 1480000   0.99905677   -7.3431396    508.88879  0.028653648  0.028736371            2 
 1481000    1.0227277   -7.2989699    508.75213  0.028626611   0.02872887            2 
 1482000    1.0352878    -7.337555    508.50088  0.028593167  0.028721216            3 
 1483000    1.0166924    -7.347656    508.97706  0.028600644  0.028713617            4 
 1484000    1.0445581   -7.3313134    507.32995  0.028488879  0.028705776            2 
 1485000    1.0221606   -7.3471633    509.58799  0.028596408   0.02869796            2 
 1486000   0.99850129   -7.3050146    510.58994  0.028633352  0.028690239            1 
 1487000    1.0187699   -7.3465708    508.79441  0.028513473  0.028682593            2 
 1488000     1.020753   -7.3245376    510.19367  0.028572674  0.028674879            1 
 1489000    1.0087601   -7.3431061    508.60863  0.028464777  0.028667107            2 
 1490000    1.0064525   -7.2914618    507.63686  0.028391323  0.028659342            4 
 1491000    1.0011271   -7.3064579    508.08746  0.028397466  0.028651584            2 
 1492000    1.0049206   -7.3237448    510.68922   0.02852375  0.028643684            2 
 1493000    1.0169403   -7.3160357     509.9583  0.028463848  0.028635838            2 
 1494000    1.0225396   -7.3512346    510.05155  0.028449997  0.028628062            2 
 1495000     1.029906   -7.3179988    509.50432  0.028400464  0.028620299            5 
 1496000   0.97951432   -7.3329988    509.80094  0.028398003  0.028612345            2 
 1497000   0.97972137    -7.347895    509.92893  0.028386157  0.028604446            1 
 1498000    1.0167689   -7.3425976    511.35238  0.028446394  0.028596602            2 
 1499000    1.0208785   -7.3026355    512.15781  0.028472193  0.028588821            1 
 1500000    1.0186553   -7.3229356    511.86056  0.028436698  0.028581059            1 
 1501000    1.0058792   -7.3230189    510.56905   0.02834605  0.028573235            2 
 1502000    1.0024055    -7.313243    510.88638  0.028344783   0.02856537            2 
 1503000   0.96951411   -7.2871634    511.76638  0.028374716  0.028557453            1 
 1504000    1.0206598   -7.3565004     511.5934  0.028346266  0.028549406            3 
 1505000    1.0145669   -7.3583717    510.96297  0.028292523  0.028541357            1 
 1506000   0.98745055   -7.3623293    510.15212  0.028228869  0.028533255            2 
 1507000    1.0207198    -7.298789    510.79758  0.028245829  0.028525147            1 
 1508000    1.0231442   -7.3561626    509.91913  0.028178555   0.02851691            1 
 1509000    1.0128381    -7.343902    511.47142  0.028245605  0.028508706            2 
 1510000   0.98979513   -7.3377635    513.13185  0.028318535  0.028500473            2 
 1511000    1.0206344   -7.3100592    511.53266  0.028211596  0.028492296            2 
 1512000    1.0278374   -7.3338115    511.57738  0.028195402  0.028484018            1 
 1513000    1.0134174    -7.335587    512.86377  0.028247619  0.028475683            2 
 1514000    1.0215506   -7.3511215    510.31274  0.028088548  0.028467348            1 
 1515000    1.0042295    -7.322941     512.2865  0.028178576  0.028458886            1 
 1516000    1.0071949   -7.3485429     512.6052  0.028177507  0.028450592            1 
 1517000   0.99635335   -7.3194276    514.46462  0.028261075  0.028442156            1 
 1518000   0.97964718   -7.3304114    513.24111  0.028175291  0.028433727            3 
 1519000    1.0204275   -7.3451028    512.68356  0.028126155  0.028425417            2 
 1520000    1.0072959   -7.3557803    513.55732  0.028155555  0.028416991            3 
 1521000    1.0204412   -7.3696893    511.62837  0.028031359  0.028408622            3 
 1522000    1.0197295   -7.3155649    513.86182  0.028135229  0.028400153            1 
 1523000   0.99407979   -7.3253176     512.9717  0.028068051    0.0283918            1 
 1524000    1.0414061   -7.3386139    513.93592  0.028102358  0.028383494            1 
 1525000    1.0055828   -7.3365479    513.14589  0.028040759  0.028375068            1 
 1526000    1.0106045   -7.3514615    513.70404  0.028052864  0.028366648            1 
 1527000    1.0059431    -7.322382    514.87536  0.028098415  0.028358283            2 
 1528000   0.97468001   -7.3230104    515.68338  0.028124093  0.028349968            2 
 1529000     1.018817   -7.3741823    515.10037  0.028073924  0.028341763            2 
 1530000   0.97613671   -7.3647707    516.95527  0.028156605  0.028333731            3 
 1531000    1.0091633   -7.3515105    517.76649  0.028182369   0.02832567            1 
 1532000    1.0036453   -7.3349965    516.24524  0.028081225  0.028317638            1 
 1533000    1.0082753   -7.3293358     517.4077  0.028126098  0.028309608            1 
 1534000   0.99845245   -7.3370868     519.3856  0.028215211  0.028301663            2 
 1535000    1.0066077   -7.3281017    518.61195  0.028154829  0.028293788            4 
 1536000   0.99725235   -7.3373956    516.71024  0.028033325  0.028285848            1 
 1537000    1.0086556   -7.3621324     516.2744  0.027991455   0.02827776            1 
 1538000   0.98305419   -7.3526616    517.35409  0.028031756  0.028269684            2 
 1539000    1.0183356   -7.3433134     516.2688  0.027954776  0.028261613            2 
 1540000    1.0082587   -7.3319594    517.77195  0.028017962  0.028253554            3 
 1541000   0.99922875   -7.3609368    517.72943  0.027997482  0.028245505            1 
 1542000    1.0074078   -7.3624075    517.71249  0.027978409  0.028237421            2 
 1543000     1.001593    -7.377668     519.3329  0.028047791  0.028229462            2 
 1544000   0.98978874   -7.3214138    519.23585  0.028024387  0.028221547            1 
 1545000     0.997195   -7.3363081    517.19727  0.027896293  0.028213486            4 
 1546000    1.0280674   -7.3200581    518.34578  0.027940156  0.028205506            2 
 1547000    1.0043262   -7.3615755    519.94332  0.028008151  0.028197464            2 
 1548000    1.0167537   -7.3129435    520.51521  0.028020845  0.028189333            2 
 1549000    1.0180866   -7.3575242    519.53013  0.027949759  0.028181095            1 
 1550000    1.0083167   -7.3160671    519.58473  0.027934663  0.028172899            1 
 1551000     1.021986   -7.3688442    518.68458  0.027868288   0.02816473            3 
 1552000   0.99751036   -7.3446981    519.53998  0.027896262  0.028156665            2 
 1553000    1.0085864    -7.342656    520.32972  0.027920676   0.02814857            3 
 1554000    1.0037374   -7.3591981    519.20846  0.027842582  0.028140325            2 
 1555000    1.0037812   -7.3576399    519.91942  0.027862777  0.028132047            2 
 1556000    1.0114374   -7.3512295    521.20652  0.027913802  0.028123799            1 
 1557000    1.0186647   -7.3502816    521.03325  0.027886601   0.02811563            1 
 1558000     1.014707    -7.346652    521.81482  0.027910506  0.028107457            1 
 1559000   0.98823082    -7.336446    522.61736  0.027935501  0.028099328            3 
 1560000    1.0112418   -7.3445472    522.63037  0.027918289  0.028091175            3 
 1561000   0.98342875   -7.3191479    521.07453  0.027817346  0.028083081            3 
 1562000    1.0009011   -7.3788274    520.78489  0.027784085  0.028074824            2 
 1563000     1.000875   -7.3483504    521.85578  0.027823405  0.028066539            1 
 1564000   0.98098197   -7.3488537    522.20054  0.027823985  0.028058236            3 
 1565000   0.99966772   -7.3769266     520.9905  0.027741773  0.028050056            6 
 1566000   0.97797767   -7.3888502    521.51912  0.027752188  0.028041823            2 
 1567000    1.0055463   -7.3560022     522.7235  0.027798527  0.028033553            6 
 1568000    1.0160843     -7.33362    522.41089  0.027764184   0.02802523            1 
 1569000   0.97268497   -7.3564207    521.40425  0.027693024  0.028016864            6 
 1570000    1.0145208   -7.3699675    521.26765  0.027668134   0.02800846            2 
 1571000   0.99545093   -7.3519333    523.63791  0.027776252  0.028000265            1 
 1572000   0.97842739   -7.3399548    524.22825  0.027789877  0.027992112            4 
 1573000   0.99100575   -7.3775309    522.81257  0.027697212  0.027984057            2 
 1574000   0.99070656   -7.3482127    525.64275  0.027829455  0.027975981            2 
 1575000    1.0285267   -7.4141537    524.00651  0.027725212  0.027967868            1 
 1576000   0.99174142   -7.3947647    523.39826  0.027675458  0.027959647            1 
 1577000    1.0006396   -7.3107927    525.33047  0.027760012  0.027951553            1 
 1578000    1.0032483   -7.3467836    525.17226  0.027734065  0.027943491            3 
 1579000     1.013703   -7.3941946    524.66009  0.027689471  0.027935385            1 
 1580000   0.97951245   -7.3399592    525.82191  0.027733223  0.027927183            1 
 1581000   0.99425926   -7.3778253    524.68984  0.027656011  0.027919066            3 
 1582000   0.99531423   -7.3618774    524.77211  0.027642863  0.027910991            2 
 1583000    0.9849704    -7.346361    526.44536  0.027713485  0.027902968            3 
 1584000   0.99754055   -7.3677981    527.30785  0.027741364  0.027894889            2 
 1585000    1.0036749   -7.3262507    526.15316  0.027663152  0.027886866            1 
 1586000    1.0191256   -7.3875328    525.92492  0.027633718   0.02787887            2 
 1587000   0.98393061   -7.3207379    526.34909  0.027638579  0.027870766            1 
 1588000     0.987264   -7.3720611    527.09097  0.027660105  0.027862772            1 
 1589000   0.99046423   -7.3418432    526.76564  0.027625636  0.027854835            2 
 1590000   0.99729448   -7.3623255     528.1537  0.027681012  0.027846708            3 
 1591000    1.0089012   -7.3761973    527.59696  0.027634452  0.027838619            1 
 1592000     0.986523   -7.3838529    527.18982  0.027595782  0.027830466            1 
 1593000     1.001424   -7.3741144    527.38898  0.027588877  0.027822268            1 
 1594000     0.983818   -7.3391897    528.82359   0.02764657  0.027814066            3 
 1595000    1.0234859   -7.3490494    528.85582   0.02763092  0.027806012            1 
 1596000    1.0016151    -7.345885    529.34315  0.027639053   0.02779794            1 
 1597000     1.004313   -7.3276405    529.25809  0.027617308  0.027789909            3 
 1598000    1.0194822   -7.3530523    530.02762  0.027640155  0.027781891            2 
 1599000   0.98141263    -7.322298    529.32894  0.027586457  0.027773988            3 
 1600000    1.0091943   -7.3602534    529.80856  0.027594196  0.027765965            1 
 1601000   0.98857644   -7.3576385    530.65883  0.027621218  0.027757882            1 
 1602000   0.98606073   -7.3362628    530.07002  0.027573347  0.027749905            2 
 1603000    1.0059719   -7.3865232    528.81258  0.027490777  0.027741747            2 
 1604000   0.99365948   -7.3928448    528.69953  0.027467764  0.027733619            3 
 1605000   0.99198769   -7.3836862    529.15103  0.027474093   0.02772541            2 
 1606000   0.99583957   -7.3544787    531.60109  0.027584116   0.02771728            2 
 1607000    1.0205498   -7.3940709    530.52833  0.027511322  0.027709189            1 
 1608000   0.97942077   -7.4143838    531.44614  0.027541778  0.027701072            2 
 1609000   0.98523474   -7.3858411    531.64768  0.027535098  0.027693073            1 
 1610000     1.001266   -7.3752504    530.97919  0.027483395  0.027685009            2 
 1611000    1.0095354   -7.3960432    532.46631   0.02754326  0.027676942            1 
 1612000    1.0028415   -7.3656259    532.16727  0.027510715  0.027668975            2 
 1613000   0.99056111   -7.3335243    531.81178  0.027475294  0.027661026            3 
 1614000   0.99601762   -7.4006524    531.78655  0.027456967   0.02765306            3 
 1615000   0.99321769   -7.4083475    531.74487  0.027437816  0.027645075            2 
 1616000   0.99279687   -7.4056931    532.46927  0.027458193  0.027637139            2 
 1617000   0.98960763   -7.3745641    531.97215  0.027415592  0.027628992            1 
 1618000   0.99983478   -7.3802896    532.06797  0.027403583  0.027620856            3 
 1619000   0.98417247   -7.3380867    533.18821  0.027444318  0.027612827            2 
 1620000    1.0103679   -7.3747759    533.80575  0.027459144  0.027604851            3 
 1621000   0.99107716    -7.423761    532.02956  0.027350893  0.027596883            2 
 1622000   0.98057328   -7.3817203    532.51613  0.027359028  0.027588865            5 
 1623000   0.99614434    -7.397297    534.91556  0.027465371  0.027581012            3 
 1624000   0.99983251   -7.3984286    533.88276  0.027395462  0.027573146            3 
 1625000   0.98967354   -7.3829761    534.75546  0.027423357  0.027565282            1 
 1626000    0.9884249   -7.4029142    534.69507  0.027403396   0.02755742            1 
 1627000    1.0109438   -7.4029083    534.92887  0.027398529  0.027549588            2 
 1628000    1.0056077   -7.3375371    536.78036  0.027476472  0.027541886            1 
 1629000    1.0009273   -7.3998377    536.22785  0.027431341  0.027534181            3 
 1630000   0.98683248   -7.3853913    534.90055  0.027346654  0.027526436            1 
 1631000   0.97615645   -7.3705465    537.55974  0.027465754  0.027518709            4 
 1632000   0.97432494   -7.3673182    538.03885  0.027473389  0.027510965            3 
 1633000   0.99537336   -7.3783931    536.44766  0.027375365  0.027503167            2 
 1634000   0.98490828   -7.3811743    536.43499  0.027357966  0.027495361            4 
 1635000    1.0012408   -7.3351267    537.92237  0.027417042  0.027487606            2 
 1636000   0.98289573   -7.3867423    536.05675  0.027305254  0.027479848            2 
 1637000    0.9888058   -7.4259876    535.30955  0.027250537  0.027471952            2 
 1638000   0.98386751   -7.3524313     536.3589  0.027287286  0.027464049            2 
 1639000   0.96423255   -7.3790125    538.42965  0.027375923  0.027456295            2 
 1640000    1.0109104   -7.3413905    538.89094   0.02738267  0.027448466            1 
 1641000   0.98570857    -7.386575    539.14674  0.027378973  0.027440603            3 
 1642000   0.99831421   -7.3519544    539.40301  0.027375305  0.027432839            2 
 1643000   0.96199174   -7.4090819    539.51577  0.027364362  0.027425087            2 
 1644000   0.99456843   -7.3604297    539.36915  0.027340285  0.027417325            2 
 1645000   0.99720751   -7.4001516    538.52905  0.027281107  0.027409601            1 
 1646000   0.98456434   -7.3580191    539.23948    0.0273005  0.027401864            5 
 1647000   0.99820829   -7.3444974    539.82032  0.027313313  0.027394167            1 
 1648000   0.98499092   -7.3925013    538.71606  0.027240901  0.027386439            2 
 1649000   0.97996196   -7.4261434    538.97702  0.027237569  0.027378715            2 
 1650000   0.98351428   -7.3971179    539.78198  0.027261716  0.027370998            5 
 1651000   0.98583668   -7.3854139    539.59679  0.027235857  0.027363299            1 
 1652000    1.0044158    -7.365262    540.48204  0.027264025  0.027355593            2 
 1653000   0.98329421   -7.3907064    540.59497  0.027253225  0.027347937            2 
 1654000   0.99652388   -7.4183068    538.93654  0.027153191  0.027340217            1 
 1655000   0.99277375   -7.3853033    541.05428  0.027243418  0.027332423            2 
 1656000   0.97908731   -7.4207822    540.15315   0.02718162  0.027324544            2 
 1657000    1.0025034   -7.4019254    540.46316  0.027180807  0.027316736            1 
 1658000   0.99007748   -7.3931163    542.62636  0.027273138  0.027309007            1 
 1659000   0.99828831   -7.3791863    541.48468  0.027199351  0.027301345            2 
 1660000   0.97879265     -7.39381    540.88472  0.027152847  0.027293569            2 
 1661000   0.98795577    -7.412276    541.10079   0.02714734  0.027285825            2 
 1662000   0.97511323    -7.403224    540.41096  0.027096418   0.02727806            2 
 1663000   0.99075246   -7.4078034    541.89333  0.027154406  0.027270281            3 
 1664000    1.0026897   -7.3648221    544.21824  0.027254519  0.027262643            5 
 1665000   0.95837432     -7.34396    545.37763  0.027296178  0.027255073            2 
 1666000   0.96446324    -7.379243    544.69326  0.027245561  0.027247466            2 
 1667000    1.0157886   -7.3915742    542.76515  0.027132831  0.027239776            4 
 1668000   0.98876223   -7.3533191     542.9773  0.027127163  0.027232168            3 
 1669000   0.97670976   -7.3964344    543.08759  0.027116416  0.027224378            5 
 1670000   0.96793394    -7.407521    540.89802  0.026990919  0.027216626            1 
 1671000   0.96666414   -7.3575196    543.42768  0.027100922  0.027208893            2 
 1672000   0.96712688   -7.3897367     543.3539  0.027081036   0.02720117            1 
 1673000   0.98564084   -7.3841963    543.85031  0.027089575  0.027193376            1 
 1674000   0.97973099   -7.4090958      544.334  0.027097471  0.027185576            2 
 1675000    1.0119155   -7.3850402    544.56668   0.02709287  0.027177735            1 
 1676000   0.96330502   -7.3974165    543.96359  0.027046718  0.027169912            1 
 1677000   0.96932056    -7.378557    543.89015   0.02702694  0.027162172            1 
 1678000   0.98665023   -7.3523548    545.66945  0.027099198  0.027154502            2 
 1679000    1.0041932   -7.3985908    544.27558  0.027013876   0.02714681            1 
 1680000   0.99164548   -7.3560397    544.04715  0.026986466   0.02713902            3 
 1681000   0.97715517   -7.4037853    543.62185  0.026949328  0.027131321            1 
 1682000   0.96564194   -7.4006233    545.76519  0.027039496   0.02712351            3 
 1683000   0.98834082   -7.3911698    545.00373  0.026985727  0.027115777            2 
 1684000   0.98918391   -7.3668485    546.21356   0.02702957  0.027108053            2 
 1685000   0.98532137   -7.3865009    546.08495  0.027007168  0.027100456            2 
 1686000   0.99415888   -7.3864533    547.50668  0.027061421  0.027092868            3 
 1687000   0.97797523   -7.3724109    544.97575  0.026920359  0.027085274            3 
 1688000   0.99174316   -7.3443019    547.05441   0.02700703  0.027077714            2 
 1689000   0.96164358   -7.3858583    547.13424  0.026994979  0.027070044            2 
 1690000   0.98089107   -7.3415632    546.98238  0.026971518  0.027062363            3 
 1691000   0.97330945   -7.4187724     548.1336    0.0270123  0.027054774            2 
 1692000     0.983853   -7.3617304    547.74119  0.026977009  0.027047239            2 
 1693000   0.97490167   -7.3803381    548.40339   0.02699367   0.02703957            2 
 1694000    1.0015165    -7.364659    548.02461  0.026959101    0.0270319            4 
 1695000   0.97657566   -7.3851593    548.83396  0.026982987  0.027024224            5 
 1696000   0.98737122    -7.408638    547.22395  0.026887969  0.027016455            1 
 1697000    1.0191909   -7.4237182    546.74776  0.026848741  0.027008617            1 
 1698000   0.98465562    -7.419485    548.28669  0.026908455  0.027000832            3 
 1699000   0.96850377   -7.4105505    547.55824  0.026856889  0.026993068            2 
 1700000   0.97461366   -7.3699779    548.23368    0.0268742  0.026985362            2 
 1701000   0.99369578   -7.3956631    549.76178  0.026933264  0.026977737            3 
 1702000    0.9814046    -7.438812    547.63392  0.026813255  0.026970134            1 
 1703000   0.97295987   -7.4045666    549.34859  0.026881415  0.026962471            2 
 1704000   0.98442409   -7.4204095    549.27529  0.026862054   0.02695471            2 
 1705000   0.98562535   -7.4067838    548.23566  0.026795487  0.026946913            5 
 1706000   0.97044017   -7.4307347    549.44012  0.026838615  0.026939135            1 
 1707000    0.9735433   -7.4049982    549.33127  0.026817578  0.026931391            1 
 1708000   0.99068863   -7.3826516    550.43146  0.026855555  0.026923623            3 
 1709000   0.95729903   -7.4427303     547.6486  0.026704145  0.026915772            3 
 1710000   0.97852292   -7.3708978     549.6437  0.026785755   0.02690794            4 
 1711000   0.96534287   -7.4510767    549.52789   0.02676446  0.026900246       -1e+20 
 1712000   0.98178118   -7.3957123    550.57471  0.026799782  0.026892501            2 
 1713000   0.98880667   -7.4440783    549.85058  0.026748909   0.02688474            3 
 1714000   0.97856947   -7.3923613    551.10472  0.026794278  0.026876933            2 
 1715000   0.98576056   -7.3873643    551.47651  0.026796721   0.02686925            2 
 1716000   0.99006085   -7.4070297    552.32464  0.026822292  0.026861704            2 
 1717000   0.98881916   -7.3928671    551.83351  0.026782834  0.026854082            1 
 1718000   0.95651417   -7.4143026    551.31878  0.026742277  0.026846523            1 
 1719000   0.98589388    -7.427453    550.79956  0.026701549  0.026838863            2 
 1720000    0.9806446    -7.393982    553.50768  0.026817233  0.026831362            2 
 1721000   0.97626657   -7.3988385    552.30353  0.026743343  0.026823812            1 
 1722000   0.98834457   -7.3922189      553.933  0.026806669  0.026816321            2 
 1723000   0.94566214   -7.4211254    551.01752  0.026650102  0.026808852            2 
 1724000   0.98478695   -7.4124382     554.9548  0.026824961  0.026801268            1 
 1725000   0.98777611   -7.3818215    554.90633  0.026807069  0.026793802            4 
 1726000   0.96555359    -7.413622    554.15953  0.026755481  0.026786362            4 
 1727000   0.98292156   -7.4255581    554.20207  0.026742042  0.026778848            4 
 1728000    0.9874427   -7.4184537    554.03866  0.026718686  0.026771386            5 
 1729000    0.9694212   -7.3778064    555.81386  0.026788792  0.026764035            1 
 1730000   0.97467736   -7.3971307    554.77298  0.026723169  0.026756657            2 
 1731000   0.97276648   -7.4321431    555.36222  0.026736098  0.026749378            2 
 1732000   0.99398969   -7.4142256    556.38322  0.026769785  0.026742022            2 
 1733000   0.97119558   -7.4151349    555.71113   0.02672202  0.026734647            1 
 1734000   0.97540687   -7.3804478    556.82137  0.026759966  0.026727322            2 
 1735000   0.96249734   -7.3839291    556.54668  0.026731349   0.02672011            4 
 1736000   0.98034241   -7.4091624    557.46998  0.026760272  0.026712761            3 
 1737000   0.97737125   -7.4091806    557.39449  0.026741244  0.026705394            1 
 1738000   0.97134697   -7.3685221    558.35925  0.026772116  0.026698076            3 
 1739000   0.96196205    -7.434595    556.05648  0.026646371  0.026690659            4 
 1740000   0.96416503   -7.4007414    556.57994  0.026656128  0.026683187            1 
 1741000   0.97496827   -7.4288257    555.88321  0.026607468  0.026675798            4 
 1742000    0.9488614   -7.4442625    556.57499  0.026625286  0.026668454            2 
 1743000   0.99045733   -7.4045793    557.57946  0.026658035  0.026661025            2 
 1744000   0.96894309   -7.3917373    558.06184  0.026665799  0.026653674            3 
 1745000   0.98381424   -7.4163853    557.71335  0.026633875  0.026646254            1 
 1746000   0.95812682   -7.4083768    558.13353  0.026638675  0.026638755            2 
 1747000   0.98431205   -7.4289858    558.33038  0.026632817  0.026631231            2 
 1748000   0.98079456   -7.3920031    558.18345  0.026610576  0.026623726            3 
 1749000   0.98061695   -7.4196997    557.97347  0.026585357  0.026616248            1 
 1750000   0.97088024   -7.4225398    557.61721    0.0265532  0.026608758            1 
 1751000   0.96790516   -7.4555438    557.54421  0.026534562  0.026601262            3 
 1752000   0.97375999   -7.4384292    557.88696  0.026535719  0.026593769            2 
 1753000   0.93519261   -7.3947553    559.76115  0.026609676  0.026586342            1 
 1754000    0.9750387   -7.4014521    559.78537  0.026595656  0.026578935            1 
 1755000   0.96310278   -7.4576936    558.42639  0.026515973  0.026571419            2 
 1756000    0.9431501    -7.399037    559.72294  0.026562402  0.026563889            1 
 1757000   0.97655396   -7.4118333    558.27397  0.026478561  0.026556352            1 
 1758000   0.96099178   -7.4463624    560.67339  0.026577237  0.026548909            2 
 1759000   0.97138421   -7.4130775    560.52426  0.026555063  0.026541494            2 
 1760000   0.99072297   -7.4359906     559.8978  0.026510312  0.026534003            3 
 1761000   0.97187739   -7.4092463    560.20599  0.026509842  0.026526434            1 
 1762000   0.97632949   -7.4559084    559.75167   0.02647331  0.026518977            2 
 1763000   0.96019175   -7.4492424    560.80792  0.026508221  0.026511505            3 
 1764000   0.93658426     -7.44236    559.45973  0.026429504  0.026503957            3 
 1765000    0.9821898   -7.4189104    560.08878   0.02644423  0.026496479            1 
 1766000   0.96292553   -7.3873176    561.86545  0.026513092  0.026489019            3 
 1767000   0.97847578   -7.4370097    559.95453  0.026407967  0.026481494            2 
 1768000   0.95466286   -7.4277882     560.5031  0.026418886  0.026473847            2 
 1769000   0.98264276   -7.4137948    560.12735  0.026386252  0.026466299            1 
 1770000   0.94523158   -7.4704903    561.77623  0.026448975  0.026458778            1 
 1771000    0.9697486   -7.4316602    562.20312  0.026454127  0.026451238            2 
 1772000   0.96500408   -7.4235314    563.68843   0.02650905  0.026443804            1 
 1773000   0.95204845    -7.421752    560.48208  0.026343395  0.026436395            3 
 1774000   0.95999464   -7.4078627    562.86838  0.026440642  0.026428871            2 
 1775000   0.98044788   -7.4746094    561.40368   0.02635698  0.026421364            3 
 1776000    0.9804819   -7.4341485    560.83481  0.026315447  0.026413854            4 
 1777000   0.98482842   -7.4255247    562.48494  0.026378022  0.026406389            2 
 1778000   0.96981706   -7.4115102    563.35938   0.02640417  0.026398954            1 
 1779000   0.97467609   -7.3830061    563.03182  0.026373984  0.026391513            3 
 1780000   0.98084365   -7.4462924    562.30871  0.026325314  0.026384038            3 
 1781000   0.95824735   -7.4555536    562.82516  0.026334698  0.026376494            1 
 1782000   0.96641005    -7.401415    562.53664  0.026306427  0.026369012            2 
 1783000   0.98474331    -7.448487    562.09336  0.026270955  0.026361478            2 
 1784000   0.96618122   -7.4056239    562.74502   0.02628667  0.026353997            2 
 1785000    0.9484101   -7.4221339     562.8288  0.026275854  0.026346439            2 
 1786000   0.96142919   -7.4386974    563.88232  0.026310299  0.026338919            3 
 1787000    0.9680991   -7.4216907    562.87712    0.0262487  0.026331358            1 
 1788000   0.98027029   -7.4133416    564.19658  0.026295516  0.026323827            2 
 1789000   0.96256348    -7.427469    564.01471  0.026272345  0.026316308            2 
 1790000   0.97905467    -7.389791    564.22845  0.026267619  0.026308706            3 
 1791000   0.95709355   -7.4269243    562.84846  0.026188743  0.026301109            2 
 1792000   0.97402376   -7.4440222    564.43632  0.026247969   0.02629345            2 
 1793000   0.96348203   -7.4218804     563.9307   0.02620983  0.026285769            2 
 1794000   0.95660682   -7.4561393    563.96419  0.026196776  0.026278159            2 
 1795000   0.95366262   -7.3991374    564.15243  0.026190921  0.026270551            5 
 1796000   0.97823984   -7.4347599    564.05502  0.026171818  0.026262889            4 
 1797000   0.96795477   -7.4082742    566.04537  0.026249554  0.026255205            2 
 1798000   0.97434863   -7.4245023     564.0986  0.026144726  0.026247611            3 
 1799000   0.96335359   -7.4425058    564.14982  0.026132565  0.026240003            1 
 1800000   0.97439588    -7.443093    564.65475  0.026141424  0.026232353            1 
 1801000   0.95914504   -7.4047922    566.09563  0.026193579  0.026224657            1 
 1802000    0.9563298   -7.4596723    565.88846  0.026169463     0.026217            2 
 1803000    0.9764506    -7.436375    565.78188  0.026150022  0.026209279            2 
 1804000   0.97019903   -7.4127473    565.32938  0.026114624  0.026201611            2 
 1805000   0.97574603   -7.4651898    565.70591   0.02611754  0.026193903            1 
 1806000   0.97848112   -7.4274419     566.0537  0.026119126  0.026186178            2 
 1807000   0.98432923   -7.4366828    564.46978  0.026031626  0.026178432            2 
 1808000   0.96893636   -7.4511793    566.61107  0.026115923  0.026170758            2 
 1809000   0.95716523   -7.4172527    566.49699  0.026096231  0.026163182            1 
 1810000   0.97086054   -7.4324508    567.77288  0.026140556  0.026155556            1 
 1811000   0.97583552   -7.3850433    567.77238  0.026126099  0.026148028            1 
 1812000   0.95669035   -7.4503407    565.73512  0.026017987  0.026140429            1 
 1813000   0.97096272   -7.4327437    567.25445  0.026073472  0.026132788            2 
 1814000   0.93433177   -7.4647803    566.64014  0.026030877  0.026125078            2 
 1815000   0.95689067    -7.435683    565.58396  0.025968042   0.02611741            2 
 1816000   0.94856637   -7.4414583    567.43041  0.026038473  0.026109771            3 
 1817000   0.97692416   -7.4362813    568.26849   0.02606258  0.026102121            3 
 1818000   0.95776001   -7.4374011    568.50055  0.026058881  0.026094495            2 
 1819000   0.95121473   -7.4403973    567.47824   0.02599772   0.02608693            1 
 1820000   0.97087083   -7.4398534    568.56532  0.026033211  0.026079214            3 
 1821000   0.95519804   -7.4713379    566.99021  0.025946834  0.026071621            2 
 1822000   0.97309162   -7.4308583    568.45098  0.025999404  0.026064021            1 
 1823000   0.94325684   -7.4793143    568.33494  0.025979838  0.026056387            2 
 1824000   0.94232281   -7.4604719    568.91257  0.025991985  0.026048826            5 
 1825000   0.95355629   -7.4585548    569.81047  0.026018743  0.026041259            2 
 1826000   0.94841146   -7.4486598    568.73381  0.025955358  0.026033668            1 
 1827000   0.94871448   -7.4358753    570.86239  0.026038241  0.026026108            2 
 1828000   0.98122007   -7.4105605    570.60725  0.026012366   0.02601858            3 
 1829000   0.95419282   -7.4273144    570.48896  0.025992754  0.026011085            3 
 1830000   0.97728503   -7.4450692    570.99237  0.026001474  0.026003546            4 
 1831000   0.96241752   -7.4429227    570.41321  0.025960914  0.025996095            2 
 1832000   0.96494528   -7.4511131    570.47406  0.025949511  0.025988627            1 
 1833000   0.97036229    -7.457117    570.88012  0.025953815  0.025981149            3 
 1834000   0.95538439   -7.4351593    571.92751  0.025987255  0.025973628            2 
 1835000   0.95447646   -7.4359436    572.09977  0.025980916  0.025966154            2 
 1836000    0.9533475   -7.4432643    571.18885   0.02592542  0.025958661            1 
 1837000   0.95570026   -7.4523413    571.73802  0.025936219  0.025951224            1 
 1838000   0.95194527   -7.4706758    571.73535  0.025921987  0.025943704            2 
 1839000   0.95639945   -7.4593102     572.7686  0.025954713  0.025936206            2 
 1840000   0.95476372    -7.468917    570.22611  0.025825458  0.025928688            1 
 1841000   0.95159331   -7.4554433    572.00646  0.025892018  0.025921197            1 
 1842000   0.93356791   -7.4598434    572.69206  0.025908978  0.025913702            3 
 1843000   0.96148599    -7.432236    573.25133  0.025920208  0.025906204            4 
 1844000   0.94732114   -7.4544082     571.8768  0.025844035  0.025898671            5 
 1845000   0.95454065   -7.4330097    573.64415  0.025909853  0.025891168            3 
 1846000   0.96394927   -7.4286895    572.18055  0.025829747  0.025883655            1 
 1847000    0.9548375   -7.5086091    574.13434  0.025903914  0.025876136            2 
 1848000   0.96216842    -7.435228    574.30631  0.025897651   0.02586863            1 
 1849000   0.94747345   -7.4470307    573.82595  0.025861995  0.025861141            2 
 1850000   0.97112369   -7.4318533    573.11588  0.025816031  0.025853654            2 
 1851000   0.93311791   -7.4266496    575.04662  0.025889007  0.025846213            1 
 1852000   0.96935883   -7.4748534    573.62566   0.02581109  0.025838692            2 
 1853000   0.96227813   -7.4515797    572.75221  0.025757879  0.025831103            2 
 1854000   0.93929465   -7.4977442    572.74352  0.025743596  0.025823483            3 
 1855000   0.95425806   -7.4210324    572.89117  0.025736351  0.025815823            3 
 1856000   0.94863061   -7.4661011    573.27086  0.025739532  0.025808178            2 
 1857000   0.93248292   -7.4729705    573.29823    0.0257269  0.025800533            2 
 1858000   0.94120503   -7.4575804    573.84766  0.025737696  0.025792907            1 
 1859000    0.9462324   -7.4125054     576.1656  0.025827757  0.025785358            3 
 1860000   0.95110361   -7.4847681    574.29951  0.025730265   0.02577791            1 
 1861000   0.92952177   -7.4357092    576.16553  0.025799997  0.025770423            1 
 1862000   0.94207688    -7.467557    576.43106  0.025798025  0.025762963            1 
 1863000   0.95418996   -7.4703537    575.93738  0.025762094  0.025755533            2 
 1864000   0.93594703   -7.4498964    577.03389  0.025797295   0.02574807            2 
 1865000   0.94350226   -7.4496269    576.20074  0.025746235  0.025740692            5 
 1866000   0.94639659   -7.4748948     576.8111  0.025759695  0.025733139            4 
 1867000   0.96604074   -7.4736838    576.58093  0.025735624  0.025725601            2 
 1868000   0.93074297   -7.4758519    575.69077  0.025682137  0.025718127            2 
 1869000   0.95635845   -7.4427665    578.01176  0.025771881  0.025710739            2 
 1870000   0.97429491   -7.4710669    575.64034  0.025652421  0.025703326            7 
 1871000   0.94796149   -7.4516767     575.6726  0.025640148  0.025695766            3 
 1872000   0.93647795   -7.4991371    575.56152  0.025621506  0.025688223            3 
 1873000   0.91725002   -7.4502134    576.22509   0.02563735   0.02568071            2 
 1874000   0.94475865   -7.4319377    576.47709  0.025634876  0.025673222            2 
 1875000   0.94060711   -7.4755251    577.81705  0.025680758  0.025665725            2 
 1876000   0.93827296   -7.4628196    575.72961  0.025574343  0.025658167            2 
 1877000   0.94675484   -7.4895844     576.1768  0.025580572  0.025650581            1 
 1878000   0.94782397   -7.4302663    579.86319  0.025730529  0.025643063            2 
 1879000   0.96211658   -7.4464983     577.8664  0.025628277  0.025635474            5 
 1880000   0.95136142    -7.429019    577.36138   0.02559226  0.025627925            1 
 1881000   0.94658389   -7.4857465    576.93173   0.02555962   0.02562031            2 
 1882000   0.96055617   -7.4912523    577.89329  0.025588615  0.025612775            1 
 1883000   0.94577463   -7.4618513    577.07555  0.025538837  0.025605257            4 
 1884000   0.94050324   -7.4715655    577.72899  0.025554184  0.025597672            2 
 1885000   0.95677569   -7.4843355    577.67136   0.02553808  0.025590062            3 
 1886000   0.94216494   -7.4921388    577.00465   0.02549508  0.025582506            4 
 1887000   0.93011857   -7.4360166    578.77739  0.025559856  0.025574878            2 
 1888000   0.96245459   -7.4723368    577.44517  0.025487517  0.025567251            2 
 1889000   0.93902359   -7.4497295    577.61933  0.025481707  0.025559621            4 
 1890000    0.9563139   -7.4535038    578.57329  0.025510286  0.025552022            1 
 1891000   0.95827612   -7.4705144    579.89337   0.02555497  0.025544517            2 
 1892000   0.94684234   -7.4496782    580.41535  0.025564453  0.025537105            1 
 1893000    0.9455511   -7.4858097    578.74749  0.025477527  0.025529561            3 
 1894000   0.92322478   -7.5002813    578.29936  0.025444358  0.025521927            2 
 1895000     0.959962   -7.5022012    579.04073  0.025463533   0.02551436            3 
 1896000   0.95152377   -7.4798745    579.01184  0.025448833  0.025506855            3 
 1897000   0.94394805   -7.4639725    580.42694  0.025497581  0.025499297            2 
 1898000   0.95549758   -7.5093693    577.19604  0.025342292  0.025491593            3 
 1899000   0.94110396   -7.4258858    580.08634  0.025455781  0.025484033            2 
 1900000   0.95342976   -7.4848172    582.46662  0.025546782   0.02547656            3 
 1901000   0.93845905   -7.4783414    578.37037  0.025353777  0.025468987            1 
 1902000    0.9289932   -7.5001152    579.59732  0.025394204  0.025461437            3 
 1903000   0.94369189   -7.4636244    580.85532  0.025435949  0.025453865            2 
 1904000   0.94391575   -7.4282741    580.81291  0.025420733  0.025446389            2 
 1905000   0.94576077   -7.4237813    581.41226  0.025433607   0.02543885            2 
 1906000   0.95778314   -7.4655382    580.10494  0.025363105   0.02543123            2 
 1907000   0.94050371    -7.451342    581.06385  0.025391708  0.025423653            2 
 1908000   0.93768299   -7.4750826    580.87672  0.025370227   0.02541605            1 
 1909000   0.93159882   -7.4781966    581.11638  0.025367399  0.025408511            2 
 1910000   0.94501947   -7.4552154    582.89722  0.025431816  0.025400891            4 
 1911000   0.95078057   -7.4909015     581.7939  0.025370395  0.025393285            3 
 1912000   0.94996435   -7.4924083    580.78291  0.025313063  0.025385709            3 
 1913000   0.95437268   -7.5005207    581.63888  0.025337118  0.025378148            2 
 1914000   0.95704342   -7.4999885    581.72635  0.025327688  0.025370601            1 
 1915000   0.94779054   -7.4885221    582.34612  0.025341433   0.02536305            2 
 1916000   0.94548199   -7.4843706     582.1836  0.025321138  0.025355581            3 
 1917000   0.95338315   -7.4959415    581.08729  0.025260272  0.025347995            5 
 1918000   0.91825853   -7.4556524    583.68707  0.025360057  0.025340519            2 
 1919000    0.9366435    -7.468709    584.25996   0.02537172  0.025333031            3 
 1920000   0.94553727   -7.4920285    581.87346  0.025254925  0.025325534            1 
 1921000   0.94738023   -7.4665549    582.68973  0.025277188   0.02531806            4 
 1922000   0.94542625   -7.4605079    583.80381   0.02531234  0.025310572            1 
 1923000   0.93699227   -7.4895258      580.774   0.02516788  0.025303047            2 
 1924000   0.95092712   -7.5090406    580.32338  0.025135282   0.02529541            1 
 1925000   0.94597752   -7.5066747    582.33615  0.025209357  0.025287803            2 
 1926000   0.95060777    -7.487933    582.33104  0.025196047  0.025280217            2 
 1927000   0.94799054   -7.4984149    584.03919  0.025256841  0.025272595            3 
 1928000   0.94836316   -7.4724166    583.85889  0.025235948  0.025264897            2 
 1929000   0.96222641   -7.4705013    583.85236  0.025222583  0.025257269            2 
 1930000   0.94232926   -7.4673286    582.11367  0.025134442  0.025249648            3 
 1931000   0.94474292   -7.4830967    582.15441  0.025123184  0.025241962            1 
 1932000   0.92538378   -7.4862391    581.05196  0.025062628  0.025234223            2 
 1933000   0.94466532   -7.4891337    583.42149  0.025151814  0.025226458            1 
 1934000   0.93459465   -7.4891521    582.77052   0.02511076  0.025218727            2 
 1935000   0.92024151   -7.4924283    582.60024   0.02509045  0.025211014            1 
 1936000   0.95120515   -7.4808396    582.63587  0.025079023  0.025203259            1 
 1937000   0.94366151   -7.4736575    584.02397  0.025125794  0.025195433            2 
 1938000   0.94109499   -7.4948013    583.10869  0.025073473  0.025187649            2 
 1939000   0.92684491   -7.4796892    582.48718  0.025033831  0.025179857            2 
 1940000   0.94237492   -7.5056688    582.52713  0.025022643  0.025172097            1 
 1941000   0.95326782   -7.5143844    583.93554  0.025070219  0.025164327            3 
 1942000    0.9345145   -7.4852337    584.54248  0.025083354  0.025156588            2 
 1943000   0.94019758   -7.5146188    583.81178  0.025039105  0.025148882            1 
 1944000   0.95478566    -7.507898    583.32549  0.025005379  0.025141073            1 
 1945000   0.93382436    -7.493435    585.19199  0.025072493   0.02513327            1 
 1946000   0.94455742   -7.4943786    583.01577  0.024966417  0.025125531            2 
 1947000   0.94250151   -7.5065281    585.30423  0.025051542  0.025117818            1 
 1948000   0.95612812   -7.4946101    585.41397  0.025043376  0.025110224            1 
 1949000   0.96816504   -7.4851764    586.97873  0.025097432  0.025102642            2 
 1950000    0.9335088   -7.4999716    586.18696  0.025050725  0.025095024            1 
 1951000   0.93586678   -7.4794294    586.67403  0.025058689  0.025087341            2 
 1952000   0.94593822   -7.4869376    587.13069  0.025065347  0.025079658            2 
 1953000   0.93613536   -7.4899066    584.53683  0.024941834  0.025072021            3 
 1954000   0.93033391   -7.4762128    586.80714  0.025025893  0.025064337            1 
 1955000   0.94191631   -7.5207725    585.83412  0.024971616  0.025056649            1 
 1956000   0.94744417   -7.4958577    586.83891  0.025001658  0.025049031            2 
 1957000   0.94611491   -7.4792321    585.57522  0.024935071  0.025041435            4 
 1958000   0.92665485   -7.5059705    585.95558  0.024938525  0.025033723            2 
 1959000   0.94263786   -7.5379928    585.73416  0.024916376  0.025026003            1 
 1960000   0.96933565   -7.4882852    585.16667  0.024879535  0.025018247            1 
 1961000   0.92174407   -7.5307588    584.82262  0.024852227  0.025010451            2 
 1962000   0.93487682   -7.5075438    586.11922  0.024894632  0.025002674            2 
 1963000   0.94470247   -7.4886187    586.26068  0.024887956   0.02499502            2 
 1964000   0.95227135   -7.5049148    585.48245  0.024842263  0.024987367            1 
 1965000   0.93002092   -7.4914751    587.93583  0.024933666  0.024979718            5 
 1966000    0.9468935   -7.4905198      588.498  0.024944812  0.024972041            1 
 1967000   0.96335141   -7.4856721     586.9927  0.024868357  0.024964353            3 
 1968000   0.94267299   -7.4954997    588.82777  0.024933425  0.024956727            5 
 1969000   0.92319793   -7.5293882     588.1218  0.024890884   0.02494909            2 
 1970000   0.92072801   -7.5113444     589.2673  0.024926705  0.024941525            3 
 1971000   0.92752132   -7.4904722    589.21693  0.024911928  0.024933956            1 
 1972000   0.94351697   -7.5311853    589.09384  0.024894094  0.024926444            2 
 1973000   0.93310979   -7.5174546    589.59928  0.024902825  0.024918936            2 
 1974000   0.93793174   -7.4986674    591.63783  0.024976268  0.024911469            2 
 1975000   0.92650544   -7.4945606    591.67964  0.024965386  0.024904067            2 
 1976000   0.90976081   -7.5018344    589.60098  0.024865088  0.024896557            1 
 1977000   0.90888069   -7.4970613    589.41251  0.024844567  0.024889035            2 
 1978000   0.92149237   -7.4734816    590.67464   0.02488518  0.024881575            1 
 1979000   0.92959371   -7.5110201    590.34841  0.024858868  0.024874107            2 
 1980000   0.93735646   -7.4785466     591.3408  0.024888081  0.024866649            1 
 1981000   0.93951077   -7.5280421    590.78215  0.024852017  0.024859197            2 
 1982000   0.91603272   -7.5102108     590.2793  0.024818336  0.024851655            2 
 1983000   0.91950374   -7.4915869    591.03538  0.024837594  0.024844233            2 
 1984000   0.93491144   -7.5058997    591.87974   0.02486054  0.024836845            2 
 1985000   0.93441366   -7.5418926    590.98226  0.024810338  0.024829366            2 
 1986000   0.93797034   -7.4921704     592.5892  0.024865273  0.024821944            2 
 1987000   0.94428671   -7.4997237    592.34271  0.024842422  0.024814527            5 
 1988000   0.93740613   -7.4868691    591.20216  0.024782116  0.024807023            2 
 1989000   0.94339895   -7.5084263    591.05905   0.02476366  0.024799572            1 
 1990000   0.92833439   -7.5209496    591.25709  0.024759509  0.024792088            2 
 1991000   0.93924089   -7.5599303    590.52064   0.02471625  0.024784488            1 
 1992000     0.933547   -7.5031496     593.0788   0.02481086  0.024776947            2 
 1993000   0.95847114   -7.5493781    591.46653  0.024730997  0.024769495            3 
 1994000    0.9485287   -7.5050714    592.77321  0.024773204  0.024762078            3 
 1995000   0.93863091   -7.5406104    592.07551  0.024731642  0.024754582            3 
 1996000   0.95348808    -7.516612    591.44405  0.024692888  0.024747065            2 
 1997000   0.93973893   -7.4979991    593.49914   0.02476628  0.024739617            1 
 1998000   0.94938162   -7.5192445    594.88469  0.024811674  0.024732155            1 
 1999000   0.92817878   -7.4991974    594.33003  0.024776139  0.024724745            1 
 2000000   0.95322479    -7.509404     593.0016    0.0247084   0.02471732            2 
 2001000   0.91986705   -7.5099369    593.05019  0.024698075  0.024709834            3 
 2002000   0.91181941   -7.5044214    594.64188  0.024751993   0.02470242            2 
 2003000   0.93273609   -7.4971997    593.44108  0.024689677  0.024694915            2 
 2004000    0.9520082    -7.519138    593.95063  0.024698546  0.024687512            3 
 2005000   0.94293505   -7.4811135    593.70942  0.024676202  0.024680129            3 
 2006000   0.92257316   -7.4861061     594.4628  0.024695198   0.02467267            4 
 2007000   0.95609813   -7.4942277    595.36816  0.024720485  0.024665283            2 
 2008000   0.91884161    -7.500754      594.933  0.024690114  0.024657925            1 
 2009000   0.94076455   -7.5386706    595.11808  0.024685502  0.024650521            2 
 2010000   0.92019888   -7.5106159      597.096  0.024755224  0.024643145            2 
 2011000   0.94168159   -7.5120147    596.54933  0.024720261  0.024635863            5 
 2012000   0.92955808   -7.5246089    595.72151  0.024673687  0.024628572            2 
 2013000   0.92927229   -7.5260747    595.43829  0.024649706  0.024621143            1 
 2014000   0.91266635   -7.5193625    596.21407  0.024669566  0.024613732            3 
 2015000    0.9196707   -7.5449559    594.23817  0.024575607  0.024606287            2 
 2016000   0.94959335   -7.5298319    593.82645  0.024546398  0.024598811            4 
 2017000   0.96879521   -7.5297784    596.88884  0.024660752  0.024591367            2 
 2018000   0.92023095   -7.4993079    595.28343  0.024582236  0.024583935            2 
 2019000   0.92502465   -7.5064398    594.37465  0.024532551   0.02457642            1 
 2020000    0.9541209    -7.538955    595.48265  0.024566116  0.024568904            2 
 2021000   0.90579819   -7.5232005    595.95524  0.024573447  0.024561448            1 
 2022000   0.94215905   -7.5136337    596.61061  0.024588304  0.024554107            2 
 2023000   0.95309931   -7.4682498    597.95627  0.024631581  0.024546768            2 
 2024000   0.94944013   -7.4957702     596.6576  0.024565942  0.024539479            3 
 2025000   0.92541223   -7.5544269    596.09067   0.02453048  0.024532161            1 
 2026000   0.92566223   -7.5158047     595.1438  0.024479426  0.024524857            4 
 2027000    0.9408108    -7.538644    594.88092  0.024456541  0.024517475            5 
 2028000    0.9155928   -7.5205195    597.48715  0.024551576  0.024510061            1 
 2029000   0.93196687   -7.5082852    597.04936  0.024521495  0.024502754            1 
 2030000    0.9237339   -7.5128978    598.29543  0.024560568  0.024495375            1 
 2031000   0.93784566   -7.5329259    597.84492   0.02452999  0.024488059            2 
 2032000   0.95453508   -7.5189165    597.96484  0.024522836  0.024480693            1 
 2033000   0.91485762   -7.5185195    596.45429  0.024448856  0.024473386            4 
 2034000    0.9252387   -7.5410737    598.08361   0.02450359   0.02446607            4 
 2035000   0.92113533   -7.5648472    597.34075  0.024461128  0.024458788            3 
 2036000   0.91216763   -7.5269452    597.76823   0.02446661  0.024451454            3 
 2037000   0.91797122   -7.5205124    598.88189  0.024500159  0.024444136            1 
 2038000   0.93071724    -7.515528    600.35495  0.024548371  0.024436799            3 
 2039000   0.91838248   -7.5196496    598.72367  0.024469661  0.024429438            1 
 2040000   0.92051887    -7.551154    598.83517  0.024462221  0.024422115            2 
 2041000    0.9182449   -7.5268359    600.66814  0.024525075  0.024414845            1 
 2042000   0.92038946   -7.4921589    600.30042  0.024498058  0.024407534            2 
 2043000   0.92259931   -7.5487893    599.11109  0.024437555  0.024400234            1 
 2044000   0.91008616   -7.5393273    599.62123  0.024446397  0.024392976            3 
 2045000   0.92443788    -7.524466     603.3316   0.02458564  0.024385753            3 
 2046000   0.91993607   -7.5279053    601.42289  0.024495882  0.024378583            2 
 2047000   0.90893394   -7.5275607    600.42417  0.024443257  0.024371447            2 
 2048000   0.91148654   -7.5253528    602.23432  0.024504977  0.024364276            3 
 2049000   0.92708364   -7.5126408    601.40335  0.024459222  0.024357202            1 
 2050000   0.90857634   -7.5363812    601.82773  0.024464542  0.024350089            1 
 2051000   0.93963289   -7.4967191    603.39232  0.024516184  0.024343021            4 
 2052000   0.91221881   -7.5353338    602.42924  0.024465125  0.024335951            3 
 2053000   0.92017888   -7.5728586    601.52748  0.024416605  0.024328871            4 
 2054000   0.89993783   -7.5486568    601.41432  0.024400127  0.024321759            2 
 2055000   0.92386196   -7.5260839    602.68736  0.024439877  0.024314598            3 
 2056000   0.92282909   -7.5380782     603.8233  0.024474031  0.024307574            5 
 2057000   0.91685338   -7.5173795    603.03619  0.024430246  0.024300557            4 
 2058000   0.92825705   -7.5392036    600.97703  0.024334995  0.024293428            3 
 2059000    0.9355062   -7.5176301    603.84272  0.024439158  0.024286367            2 
 2060000   0.92523829   -7.5686857    602.95305  0.024391305  0.024279342            4 
 2061000   0.93883852   -7.5159917    603.67112  0.024408504  0.024272222            2 
 2062000   0.90399421   -7.5197124    604.42229  0.024427024  0.024265106            2 
 2063000   0.94094624   -7.5791153    602.57026  0.024340373  0.024257955            1 
 2064000   0.91421279   -7.5560349    603.38108  0.024361316   0.02425081            3 
 2065000    0.9251743   -7.5601426    603.55615  0.024356584  0.024243697            2 
 2066000   0.93527468    -7.530353    604.25289  0.024372898  0.024236608            2 
 2067000   0.94301116   -7.5427587    602.66328   0.02429702  0.024229531            2 
 2068000    0.9112356   -7.5075812    604.37976  0.024354439   0.02422247            4 
 2069000   0.90792318   -7.5525533    604.62741  0.024352643  0.024215398            3 
 2070000   0.92426049   -7.5593508    604.49498  0.024335547  0.024208317            1 
 2071000   0.90658109   -7.5603202    605.04634  0.024345982  0.024201252            2 
 2072000    0.9136301   -7.5254424    606.92194  0.024409666  0.024194267            3 
 2073000   0.92001993   -7.5476315    604.38041  0.024295723   0.02418725            1 
 2074000   0.90036172   -7.5435159    606.45638  0.024367421  0.024180279            2 
 2075000   0.91776111   -7.5394168    605.86514  0.024331933  0.024173348            2 
 2076000   0.92737552   -7.5527019    606.18541  0.024333069  0.024166449            2 
 2077000   0.91441942   -7.5231304    607.91253  0.024390649  0.024159467            2 
 2078000   0.92887252   -7.5152935    606.60814  0.024326602  0.024152564            2 
 2079000   0.91387258   -7.5429683    606.32583  0.024303585   0.02414564            2 
 2080000   0.91905925   -7.5749665    607.66065  0.024345379  0.024138676            2 
 2081000    0.9159211   -7.5833044     604.1795  0.024194277  0.024131655            3 
 2082000   0.91253787    -7.542354    607.72331    0.0243245  0.024124723            2 
 2083000   0.93361178   -7.5016916    607.54116  0.024305535  0.024117841            5 
 2084000   0.92330244   -7.5086418    607.65127  0.024298275  0.024110999            2 
 2085000   0.89618244   -7.5707946    607.71912  0.024289333  0.024104101            2 
 2086000   0.91282254    -7.539515    609.04184  0.024330531  0.024097243            2 
 2087000    0.9198561   -7.5636295    609.13258  0.024322496  0.024090436            1 
 2088000   0.90985475   -7.5532598    608.19756   0.02427353  0.024083636            3 
 2089000   0.91420743   -7.5233831    608.69974  0.024281943  0.024076847            3 
 2090000     0.923914   -7.5158962    610.16442  0.024328725  0.024070108            2 
 2091000   0.93242335   -7.5290584    610.86808  0.024345133  0.024063425            2 
 2092000   0.92908727    -7.535243    610.05477  0.024301098  0.024056595            2 
 2093000   0.92654228   -7.5185577    610.46213  0.024305707  0.024049819            4 
 2094000   0.91475137   -7.5343729    611.05666  0.024317759  0.024043067            2 
 2095000    0.9195623   -7.5483262    609.22299  0.024233214  0.024036256            2 
 2096000   0.91433863   -7.5487975    610.56702  0.024275088  0.024029466            4 
 2097000   0.90828871   -7.5453974    611.90699  0.024316762  0.024022704            3 
 2098000    0.9444253   -7.5332434    610.18295  0.024236692  0.024015957            2 
 2099000   0.93820179   -7.5442128    612.48398  0.024316499  0.024009212            3 
 2100000   0.89000182   -7.5238752    610.90902  0.024242421  0.024002551            3 
 2101000   0.91953107   -7.5142569    614.07431   0.02435643  0.023995911            2 
 2102000   0.90944962   -7.5393238    610.96619  0.024221622  0.023989236            3 
 2103000    0.9068231    -7.544838    612.04628  0.024252904  0.023982526            2 
 2104000   0.90795845   -7.5639024    611.66762  0.024226379  0.023975867            2 
 2105000   0.90352016   -7.5713368    611.97565  0.024227064  0.023969098            2 
 2106000    0.9198674   -7.5599638    612.44242  0.024234031  0.023962371            1 
 2107000   0.91458029   -7.5585769    611.13394  0.024170777  0.023955643            2 
 2108000   0.90468809    -7.507812    611.24511  0.024163706   0.02394896            3 
 2109000   0.90814681   -7.5486095    612.06336   0.02418458  0.023942315            2 
 2110000   0.90185795   -7.5146349    613.59513  0.024233615  0.023935623            3 
 2111000    0.9131131   -7.5362433     612.5117  0.024179366  0.023928877            1 
 2112000    0.9035027   -7.5488285    612.79406  0.024179058  0.023922143            4 
 2113000   0.91503731   -7.5039452    613.47852  0.024194609  0.023915418            4 
 2114000   0.92295622   -7.5538623     611.6203  0.024109914  0.023908664            2 
 2115000   0.91946873    -7.537459    612.22504  0.024122342   0.02390187            2 
 2116000   0.89664551   -7.5861052     611.3559  0.024076713  0.023895034            1 
 2117000   0.92894977     -7.54308     611.1411  0.024056885  0.023888237            1 
 2118000   0.88975625   -7.5630244    613.76214  0.024148652  0.023881409            2 
 2119000   0.90529706   -7.5696334    612.11062  0.024072307  0.023874619            1 
 2120000   0.90670102   -7.5362335    613.86838  0.024130046  0.023867847            2 
 2121000   0.90570797   -7.5587568    613.08667  0.024087957  0.023861098            4 
 2122000   0.90135521   -7.5597174    612.90277  0.024069383   0.02385433            2 
 2123000   0.93706978   -7.5634321    613.40752  0.024077858  0.023847527            3 
 2124000   0.91968463   -7.5123721    616.16297   0.02417463  0.023840762            2 
 2125000   0.91596731   -7.5419553     613.5372  0.024060282  0.023834018            2 
 2126000   0.92380188   -7.5519853    613.93219  0.024064448  0.023827201            1 
 2127000   0.92019529   -7.5511132    613.97038   0.02405463  0.023820403            2 
 2128000   0.90624717   -7.5495602    615.89846   0.02411883  0.023813634            3 
 2129000   0.90974542   -7.5529305    614.88939  0.024068005  0.023806813            2 
 2130000   0.91624456   -7.5756184     612.9114  0.023979319  0.023800025            1 
 2131000   0.91592967   -7.5744514    614.51502  0.024030777  0.023793248            2 
 2132000   0.92652565   -7.5699496    615.77593   0.02406879  0.023786498            3 
 2133000   0.93206251   -7.5595114    615.93439  0.024063697   0.02377978            1 
 2134000   0.93546341   -7.5674017    614.65868  0.024002604   0.02377301            2 
 2135000   0.90678083    -7.583642    615.54726  0.024026044  0.023766265            2 
 2136000   0.90849466   -7.5627774    615.71929  0.024021508   0.02375947            1 
 2137000   0.90014633   -7.5749868    613.88534  0.023938751   0.02375272            2 
 2138000   0.91167091   -7.5819427     615.1804  0.023978032  0.023745951            5 
 2139000    0.9218079   -7.5776367    617.17416  0.024044498  0.023739164            5 
 2140000   0.90225599    -7.585279    614.65213  0.023935052  0.023732388            2 
 2141000   0.91221628   -7.5583366    617.33022  0.024028111  0.023725646            1 
 2142000   0.89636423   -7.5397736    617.46527  0.024022147  0.023718984            1 
 2143000   0.92178066   -7.5565618     615.8441  0.023947896   0.02371228            2 
 2144000   0.88316782   -7.5403115    616.39895  0.023958293  0.023705557            1 
 2145000   0.91401226   -7.5722104    615.55866  0.023914478  0.023698782            2 
 2146000   0.91704017   -7.5337859    616.32704  0.023933172  0.023692052            3 
 2147000   0.90682384   -7.5606529    616.47398  0.023927728  0.023685355            2 
 2148000   0.91329208   -7.5688926    616.43414  0.023915043   0.02367866            1 
 2149000   0.91657134    -7.566909    617.03802  0.023927331  0.023671948            1 
 2150000   0.91139165   -7.5547491     615.8604  0.023870558  0.023665128            2 
 2151000   0.91614414    -7.583685    614.95471  0.023824373  0.023658252            2 
 2152000   0.91157568   -7.5707515    615.36902  0.023829345  0.023651336            2 
 2153000    0.9117053   -7.5544886    617.46815  0.023899526  0.023644487            3 
 2154000   0.91180353   -7.5889544    616.26698   0.02384196   0.02363767            3 
 2155000    0.9097197   -7.6102001    615.36728  0.023796105  0.023630833            4 
 2156000   0.91931566   -7.5574727    617.52422  0.023868438  0.023624078            2 
 2157000   0.91152102   -7.5674924    617.90398  0.023872044  0.023617382            2 
 2158000   0.91091481   -7.5834231    616.86498   0.02382086  0.023610727            1 
 2159000    0.8999249   -7.5757524    618.00354  0.023853773   0.02360397            3 
 2160000   0.91823135   -7.5755689    616.97402   0.02380301  0.023597235            8 
 2161000   0.90333235   -7.6080991    615.71593   0.02374348  0.023590507            1 
 2162000   0.90043834   -7.6037749    617.30758  0.023793847   0.02358375            2 
 2163000   0.93406113   -7.5898709    617.24523  0.023780445  0.023576953            3 
 2164000   0.91569996   -7.6179748    616.10416  0.023725514  0.023570149            2 
 2165000   0.91426867   -7.5902086    617.19385  0.023756499  0.023563315            2 
 2166000    0.8928804   -7.5951179    617.60785  0.023761459  0.023556542            1 
 2167000   0.90618818   -7.5961742    617.03988  0.023728652  0.023549785            4 
 2168000   0.89533175   -7.5486909    620.72596  0.023859393   0.02354308            2 
 2169000   0.91808894   -7.5550161    619.65447  0.023807226  0.023536475            1 
 2170000    0.9108016   -7.5746349    619.11469  0.023775526  0.023529773            1 
 2171000    0.8936546   -7.5901746    617.85071  0.023716057  0.023523098            3 
 2172000   0.91673041    -7.582527    618.70434  0.023737889  0.023516354            3 
 2173000   0.90653271   -7.5547381    620.00575  0.023776873  0.023509653            1 
 2174000   0.89089293   -7.5800048    618.59212  0.023711749  0.023502935            2 
 2175000   0.90349918   -7.5658085    619.67319  0.023742268   0.02349625            4 
 2176000   0.88150657   -7.5734699    620.28806  0.023754904  0.023489556            4 
 2177000   0.90542946   -7.5282996     618.7265  0.023684217  0.023482883            2 
 2178000   0.88685423   -7.5645875     620.6357  0.023746392  0.023476244            2 
 2179000   0.90206432   -7.5582909    620.54376  0.023731978  0.023469586            2 
 2180000   0.88355615   -7.5794029    619.99813  0.023700234  0.023462913            2 
 2181000   0.90189869   -7.5710889    622.68721  0.023792114  0.023456276            2 
 2182000    0.9110828   -7.5431901    619.08536  0.023643651  0.023449525            3 
 2183000   0.89483427   -7.5678914    621.96898  0.023742899  0.023442838            2 
 2184000   0.90722196   -7.5780383    620.13048  0.023661877  0.023436163            3 
 2185000   0.89260437   -7.5950782    619.96404    0.0236447  0.023429439            3 
 2186000   0.89515028   -7.5970788     620.2015  0.023642936  0.023422647            1 
 2187000   0.91022767   -7.5926422    622.34732   0.02371389  0.023415894            1 
 2188000   0.89660081   -7.5973534    621.02517  0.023652695  0.023409122            2 
 2189000   0.93260093   -7.5515468    622.63024  0.023702994  0.023402513            4 
 2190000   0.90776108    -7.573392    623.59315  0.023728811  0.023395927            5 
 2191000   0.92068434   -7.5769271    622.39722  0.023672494  0.023389268            2 
 2192000   0.88247131   -7.5541593    622.42298  0.023662674  0.023382592            2 
 2193000   0.90630363   -7.5661216    622.04197  0.023637406  0.023375905            1 
 2194000   0.89899945   -7.5783144    620.86438  0.023581904  0.023369244            5 
 2195000   0.89031268   -7.6023228    620.44761  0.023555338  0.023362471            1 
 2196000    0.9007361   -7.5738889     621.6865  0.023591625  0.023355748            2 
 2197000   0.89754087   -7.5853637    622.65869  0.023617763  0.023349058            3 
 2198000   0.90428089   -7.5764795    623.20304  0.023627656  0.023342384            2 
 2199000   0.91615588   -7.5896402    621.56786  0.023554944  0.023335661            2 
 2200000     0.910571   -7.5889237    622.41354   0.02357627  0.023329032            2 
 2201000   0.88247368   -7.6277845    621.65855  0.023536974  0.023322301            2 
 2202000    0.9051521   -7.6011972    621.89248  0.023535138  0.023315564            2 
 2203000   0.89906645   -7.6420772    622.64549  0.023552939  0.023308863            4 
 2204000   0.90416321   -7.5965764    622.41865  0.023533676  0.023302175            2 
 2205000   0.90569664   -7.6310015    622.20389  0.023514886  0.023295431            1 
 2206000   0.89951907   -7.6112762    623.08226  0.023537408  0.023288693            1 
 2207000   0.89768197   -7.5686582    623.67009  0.023548938  0.023282032            1 
 2208000   0.90105082   -7.5892287    624.75783  0.023579326  0.023275349            1 
 2209000   0.89504113    -7.619439    624.26246  0.023549965  0.023268696            1 
 2210000   0.92504308   -7.6050394    622.84081  0.023485702  0.023262036            2 
 2211000   0.90109849   -7.6092819    624.14227  0.023524132   0.02325537            5 
 2212000   0.89558015   -7.6062091    622.99637  0.023470327  0.023248673            2 
 2213000   0.86853925   -7.5871699    626.45344  0.023589902   0.02324201            2 
 2214000    0.9074776   -7.5775227    624.47394   0.02350474  0.023235396            3 
 2215000   0.88697499   -7.6073144    623.98839  0.023475861  0.023228755            2 
 2216000    0.9045594   -7.5723064    625.05489  0.023505373  0.023222174            2 
 2217000   0.89119108   -7.5751958    624.08471  0.023458304  0.023215487            2 
 2218000   0.90028762    -7.577678    624.14325  0.023449927  0.023208812            3 
 2219000   0.91060683    -7.598435    622.56544  0.023380105  0.023202115            3 
 2220000   0.89575828   -7.5992141    623.17116  0.023392311  0.023195438            2 
 2221000     0.894113   -7.6003591    625.03626  0.023451758  0.023188701            3 
 2222000    0.9156568   -7.5774181    625.35328  0.023453093  0.023181983            2 
 2223000   0.91069546   -7.5600727    624.75763  0.023420214  0.023175295            1 
 2224000   0.92150259   -7.6175099    624.26662  0.023391285  0.023168603            2 
 2225000   0.88789982    -7.607176    624.27639  0.023381138  0.023161861            1 
 2226000    0.8875261   -7.6016726     624.8033   0.02339036  0.023155112            1 
 2227000   0.89577257   -7.5650586    626.50147  0.023443402  0.023148432            3 
 2228000   0.90246902   -7.5812996    625.07481  0.023379519  0.023141791            1 
 2229000   0.88143987   -7.6070526    624.46675  0.023346297  0.023135104            2 
 2230000   0.88698439   -7.6062453    625.38535  0.023370155   0.02312839            2 
 2231000   0.88364314   -7.5653255    624.61276  0.023330822  0.023121657            2 
 2232000   0.89586479   -7.6367614     623.1219  0.023264707  0.023114952            2 
 2233000   0.90550783   -7.5955971    625.81954  0.023354961  0.023108227            4 
 2234000   0.89418468   -7.6044007    626.43274   0.02336738  0.023101479            4 
 2235000   0.87807661   -7.6002508    625.36895  0.023317261  0.023094747            1 
 2236000   0.87793152   -7.5877364    625.56817  0.023314258   0.02308799            2 
 2237000   0.90925176   -7.5864581    625.95622  0.023318291  0.023081316            4 
 2238000   0.87058422   -7.5821833    625.69792  0.023298254  0.023074625            2 
 2239000   0.89474082   -7.5853595    628.07128  0.023376183  0.023067986            2 
 2240000   0.92065665   -7.6040494      625.831  0.023282403  0.023061296            2 
 2241000   0.88452524    -7.595188    625.28394  0.023251671   0.02305462            3 
 2242000   0.88920603   -7.6248783    625.38951  0.023245224  0.023047909            3 
 2243000   0.88204321   -7.5990743    627.25161  0.023304043  0.023041118            3 
 2244000   0.90670861   -7.5840652    626.31792  0.023258984  0.023034349            4 
 2245000   0.89954023   -7.6116779    624.99926  0.023199676  0.023027525            3 
 2246000   0.91305806   -7.5898897    626.30593  0.023237828  0.023020709            4 
 2247000   0.89596643   -7.5668601    625.84726  0.023210476  0.023013911            2 
 2248000   0.88807972   -7.6165202    625.97321  0.023204819  0.023007205            1 
 2249000    0.8938536   -7.6362755     627.3708  0.023246287  0.023000447            3 
 2250000   0.89198675   -7.6275601    625.37152  0.023161908  0.022993664            3 
 2251000   0.89273763    -7.583511    627.47339  0.023229431  0.022986854            2 
 2252000   0.88836261   -7.6145039    625.47276  0.023145084  0.022980095            1 
 2253000   0.88617972    -7.598901    627.64891  0.023215302  0.022973347            3 
 2254000   0.89432048   -7.5968104    627.59017  0.023202831  0.022966576            3 
 2255000   0.86807268   -7.5892065    627.93998  0.023205469  0.022959847            1 
 2256000   0.90096205   -7.6303648    627.48373  0.023178329   0.02295314            4 
 2257000   0.87709688   -7.5716084    627.86926  0.023182294  0.022946359            1 
 2258000   0.89054008   -7.5930042    626.17565  0.023109524  0.022939545            1 
 2259000   0.88554463   -7.5937667    628.68623  0.023191907  0.022932819            3 
 2260000   0.87448881   -7.6129025     628.0873  0.023159561  0.022926011            3 
 2261000   0.87611758   -7.6070356     628.1074  0.023150059  0.022919264            1 
 2262000   0.89236982   -7.6396076    628.20627  0.023143467  0.022912557            3 
 2263000   0.88914165   -7.6104382    630.08067  0.023202263  0.022905895            6 
 2264000    0.8721548   -7.6007056    628.55857   0.02313599  0.022899175            2 
 2265000     0.877695   -7.5802877    628.47926  0.023122857  0.022892431            1 
 2266000    0.8845312   -7.6026663     629.0087  0.023132123  0.022885698            3 
 2267000   0.89371522   -7.6029462    628.84351  0.023115847  0.022878949            2 
 2268000   0.89504654   -7.5968283     629.8642  0.023143158  0.022872199            3 
 2269000   0.86716623   -7.6505689    627.20191  0.023035181  0.022865432            1 
 2270000   0.89779559   -7.6221659    628.26319  0.023063994  0.022858625            3 
 2271000   0.88984974   -7.6122907    628.66484  0.023068576  0.022851841            2 
 2272000   0.87679222   -7.6235937    628.95204  0.023068957  0.022845103            2 
 2273000   0.87966102   -7.6119921     628.6139  0.023046411  0.022838362            3 
 2274000   0.87880507   -7.5873076     628.6669  0.023038218   0.02283159            2 
 2275000   0.87792852   -7.6528965     627.5272  0.022986344  0.022824791            2 
 2276000   0.85929746   -7.6233983    627.00375  0.022957079  0.022817935            2 
 2277000   0.91097137   -7.6108749    628.56701  0.023004209  0.022811075            2 
 2278000   0.89305387   -7.6574703    627.47666  0.022954224  0.022804269            1 
 2279000   0.88272178   -7.6027919    628.12765  0.022967955  0.022797436            2 
 2280000   0.89226863   -7.6491383    628.70668  0.022979045  0.022790557            2 
 2281000   0.87081987   -7.6185615    630.21355  0.023024023  0.022783727            4 
 2282000   0.88563243   -7.6402266    629.08294  0.022972646  0.022776938            2 
 2283000   0.89849788   -7.6456237    629.08254  0.022962569  0.022770147            2 
 2284000   0.87675718   -7.6358925    629.89986  0.022982336  0.022763379            3 
 2285000   0.87972912   -7.5844339     630.2645  0.022985576  0.022756625            1 
 2286000   0.88427343   -7.6269589    628.51234  0.022911648  0.022749913            2 
 2287000   0.87433737   -7.6086164    632.56137  0.023049168  0.022743185            3 
 2288000   0.86694777   -7.6125511    629.22494  0.022917575  0.022736446            2 
 2289000     0.875348   -7.5972169    630.25388  0.022945022  0.022729661            3 
 2290000   0.87704678   -7.6204287    630.62148   0.02294838  0.022722904            1 
 2291000   0.89146411   -7.6261104    629.09975  0.022883012  0.022716112            2 
 2292000   0.88206833   -7.6009482    630.50498  0.022924119  0.022709295            2 
 2293000   0.87625029   -7.6266056    630.44638  0.022911992   0.02270251            3 
 2294000   0.89361913   -7.6418486    630.66732  0.022910031  0.022695692            6 
 2295000   0.89917542   -7.6454035    629.70932  0.022865262   0.02268883            2 
 2296000    0.8700533   -7.6496769    629.99738  0.022865758  0.022682013            2 
 2297000   0.88920948   -7.6276221    628.91715  0.022816614  0.022675222            2 
 2298000   0.87841478   -7.6351445    632.05259  0.022920387   0.02266844            2 
 2299000   0.88428671   -7.5985822    631.06281   0.02287454  0.022661625            2 
 2300000   0.87285728     -7.57931    632.32475  0.022910317   0.02265482            2 
 2301000   0.89637764   -7.6117494     630.4511  0.022832504  0.022648044            5 
 2302000   0.87626018   -7.6462011    631.01625  0.022843044  0.022641166            3 
 2303000   0.85293763   -7.5995652     631.1329  0.022837346  0.022634358            2 
 2304000    0.8532532   -7.6119622    630.06947  0.022788971  0.022627533            2 
 2305000   0.89509255    -7.600142    631.60245  0.022834506  0.022620731            3 
 2306000   0.89826213   -7.6489414    631.01858  0.022803505  0.022613942            2 
 2307000   0.87749717   -7.6529749    631.71796  0.022818883  0.022607115            2 
 2308000   0.87618737   -7.6645626    631.54754  0.022802843  0.022600286            2 
 2309000   0.86290748   -7.6063488    631.55549  0.022793254  0.022593474            2 
 2310000   0.88987565    -7.633464     631.3457  0.022775819  0.022586699            3 
 2311000   0.89818333   -7.6168253    630.49666  0.022735348  0.022579934            1 
 2312000   0.88073769   -7.6383561    629.79626  0.022700269  0.022573137            4 
 2313000   0.86951051   -7.6223039    631.58692  0.022754969  0.022566286            2 
 2314000   0.89452602   -7.6280668    633.40247  0.022810518  0.022559473            3 
 2315000   0.87189607   -7.6211049    632.61966  0.022772486  0.022552684            1 
 2316000   0.85971696   -7.6618301    633.25655  0.022785569  0.022545858            2 
 2317000   0.87623492   -7.6475658    633.16565  0.022772466  0.022539066            2 
 2318000   0.89671186   -7.6121884    632.75401  0.022747843  0.022532272            3 
 2319000   0.88386816   -7.6358536    633.59682   0.02276832  0.022525491            5 
 2320000   0.88020215    -7.636621    633.03114  0.022738187  0.022518702            2 
 2321000   0.87745471   -7.6299831     631.4126  0.022670279  0.022511933            1 
 2322000   0.87614816   -7.6300757    633.20107  0.022724701  0.022505119            3 
 2323000   0.88699423   -7.6538655    630.03464  0.022601329  0.022498292            2 
 2324000    0.8757167   -7.6657798    632.24823  0.022670978  0.022491421            3 
 2325000   0.86445241   -7.6537002    631.89432  0.022648542  0.022484548            2 
 2326000   0.89660878   -7.5841789    634.42901  0.022729615  0.022477761            1 
 2327000   0.88637896   -7.6106785     633.4637  0.022685278  0.022470984            1 
 2328000   0.87699927   -7.6516712    633.70172  0.022684054  0.022464168            2 
 2329000   0.86400403   -7.6466952    632.78355  0.022641461  0.022457312            1 
 2330000    0.8762952    -7.640264    632.53404   0.02262282  0.022450454            3 
 2331000   0.88819016   -7.6627855    632.48523   0.02261137  0.022443572            3 
 2332000   0.90643164   -7.6117521    634.30749  0.022666791  0.022436759            2 
 2333000   0.88019589   -7.6363565    635.65998  0.022705386  0.022430003            4 
 2334000   0.88994641   -7.6307738    633.99381  0.022636169  0.022423221            2 
 2335000    0.8892447   -7.6764211    633.19715  0.022598043  0.022416391            1 
 2336000    0.8808663   -7.6416678    634.68067  0.022641291  0.022409546            4 
 2337000    0.8717928    -7.646095    632.94672  0.022569773  0.022402731            3 
 2338000   0.87340639   -7.6282564    635.53263  0.022652289  0.022395947            3 
 2339000   0.90213235   -7.6040216    633.93325  0.022585623  0.022389263            2 
 2340000   0.87066761   -7.6539855    632.97452  0.022541827  0.022382488            3 
 2341000   0.86805925   -7.6280529    634.53091  0.022587602  0.022375733            1 
 2342000   0.87553851    -7.651245    633.63544  0.022546095  0.022368988            1 
 2343000   0.88550614   -7.6421136    635.63031  0.022607423  0.022362217            4 
 2344000   0.89491642   -7.6291147    633.99222  0.022539541  0.022355443            3 
 2345000   0.88324043   -7.6470394    634.19195  0.022537027   0.02234866            2 
 2346000   0.87304777   -7.6195183     636.4275  0.022606831  0.022341909            4 
 2347000   0.86089822   -7.6152959    635.62645  0.022568756  0.022335216            4 
 2348000   0.86643328   -7.6774137    632.91563  0.022462934  0.022328402            3 
 2349000   0.85632773   -7.6615213    635.80001  0.022555698  0.022321643            6 
 2350000   0.87351909   -7.6369219    637.50603  0.022606597  0.022314904            3 
 2351000    0.8769392   -7.6498058     636.0589  0.022545686  0.022308192            2 
 2352000    0.8624516   -7.6179036    635.65744  0.022521877  0.022301522            1 
 2353000   0.88457544   -7.6355232    637.14506   0.02256499  0.022294848            3 
 2354000   0.86935573   -7.6540158    636.88768  0.022546293  0.022288119            4 
 2355000   0.87500562   -7.6680756    635.01731  0.022470535   0.02228138            1 
 2356000   0.88010746   -7.6625033    637.15661  0.022536666  0.022274684            4 
 2357000    0.8894468   -7.6689411     636.4226  0.022501153   0.02226796            6 
 2358000   0.89264777   -7.6494365    637.16641  0.022517897  0.022261261            1 
 2359000   0.88337893    -7.646428    635.45731  0.022447976  0.022254562            2 
 2360000   0.86366283   -7.6798307    636.16023  0.022463285  0.022247797            3 
 2361000   0.87558778   -7.6498118    637.68878  0.022507722  0.022241067            2 
 2362000   0.88160032   -7.6213484    637.40592  0.022488213  0.022234415            4 
 2363000   0.88890309   -7.6562502    637.29133  0.022474655  0.022227767            3 
 2364000   0.86875771   -7.6752032    637.75594  0.022481526  0.022221135            2 
 2365000   0.86654787   -7.6502283    637.45913  0.022461562  0.022214457            3 
 2366000   0.88111658   -7.6305205    640.01881  0.022542224  0.022207805            2 
 2367000   0.87335993   -7.6584696    639.17645  0.022503044  0.022201188            4 
 2368000    0.8846575    -7.671779    638.29736  0.022462604  0.022194535            1 
 2369000   0.84662214   -7.6877156    637.54678  0.022426719  0.022187848            4 
 2370000    0.8787284   -7.6794556    639.41509   0.02248295  0.022181215            1 
 2371000   0.87018722   -7.6546383    638.02284  0.022424534  0.022174577            2 
 2372000   0.87643674   -7.6648419    638.59424  0.022435155  0.022167958            2 
 2373000   0.88595526   -7.6706256    638.85055  0.022434701  0.022161385            2 
 2374000   0.87021683   -7.6401254    638.12438  0.022399761  0.022154787            2 
 2375000   0.88146313   -7.7003193     638.5371  0.022404811  0.022148225            4 
 2376000   0.86938452   -7.6596022    639.20247  0.022418717  0.022141686            2 
 2377000   0.86750104   -7.6612506    639.53139  0.022420817  0.022135147            2 
 2378000   0.87562517   -7.6891976    640.62737  0.022449796  0.022128578            4 
 2379000   0.86097742   -7.6496249    639.03218  0.022384482  0.022122001            1 
 2380000   0.86445082   -7.6620444    639.02825  0.022374939  0.022115422            3 
 2381000   0.86667809   -7.6962931    639.57642  0.022384727  0.022108848            2 
 2382000   0.87189448   -7.6500305    640.72283  0.022415436  0.022102319            1 
 2383000   0.86807219   -7.6890758    638.96249  0.022344471  0.022095795            1 
 2384000   0.89047458   -7.6429219     641.5189  0.022424458  0.022089274            2 
 2385000   0.85858324    -7.687402    641.83561  0.022426122   0.02208275            2 
 2386000   0.85429881    -7.688124    641.71719  0.022412587  0.022076233            2 
 2387000   0.85770648   -7.6697841    640.46718  0.022359558  0.022069693            2 
 2388000   0.88072897   -7.6577427    640.81249  0.022362245   0.02206319            4 
 2389000   0.85799795   -7.6687846    640.43012  0.022339546  0.022056649            4 
 2390000    0.8856668   -7.6539276    641.46204   0.02236618  0.022050119            2 
 2391000   0.86215683   -7.6791299    641.06378  0.022342945  0.022043591            4 
 2392000   0.86974074   -7.7072481    641.27542  0.022340978  0.022037057            3 
 2393000   0.86441167   -7.6500068    642.40326  0.022370917  0.022030542            2 
 2394000   0.88213288   -7.6132667    643.90387  0.022413808  0.022024144            3 
 2395000    0.8954706   -7.6540727     642.7457  0.022364151  0.022017739            3 
 2396000   0.86731536   -7.6477621    641.48233  0.022310877   0.02201127            2 
 2397000   0.87175036   -7.6705156    641.36891  0.022297626  0.022004791            2 
 2398000   0.86446961   -7.6703122    642.20734  0.022317464  0.021998278            3 
 2399000   0.87774958   -7.6339391    643.03995  0.022337083   0.02199176            2 
 2400000   0.87079343    -7.622991    642.91488  0.022323433  0.021985259            1 
 2401000   0.87063307   -7.7015157    642.41331  0.022296727  0.021978781            2 
 2402000   0.86861656   -7.6431195    641.78702  0.022265717  0.021972298            2 
 2403000   0.87621153   -7.6629695    641.80594  0.022257107  0.021965766            3 
 2404000   0.84527379   -7.6452494    641.29591  0.022230169  0.021959247            2 
 2405000   0.87263516   -7.6772996    640.65382  0.022198677  0.021952714            5 
 2406000    0.8609129   -7.6910669     642.2025   0.02224309  0.021946181            1 
 2407000   0.85480238   -7.6649994     643.6181  0.022282859  0.021939693            3 
 2408000   0.84861092   -7.6625082    643.39856  0.022266008  0.021933196            2 
 2409000   0.85407434   -7.6525571     644.4372  0.022292694  0.021926711            2 
 2410000    0.8458567   -7.6576587    644.09702  0.022271681  0.021920195            3 
 2411000   0.87878676   -7.7030643    643.22942  0.022232456  0.021913719            2 
 2412000   0.86722074   -7.6917373    642.54657  0.022199647  0.021907207            1 
 2413000   0.86001157   -7.6718826    643.30377  0.022216597  0.021900707            4 
 2414000   0.84902212   -7.6586417    644.19704   0.02223823   0.02189418            2 
 2415000   0.86186384   -7.6749425    641.57324  0.022138483  0.021887663            2 
 2416000    0.8546657    -7.714324    643.10515  0.022182159  0.021881132            3 
 2417000   0.84849568   -7.6975426    644.02927  0.022204843  0.021874582            2 
 2418000    0.8615071    -7.699672    642.63254  0.022147523  0.021868083            3 
 2419000   0.86813835   -7.7024738    642.83443  0.022145323  0.021861572            2 
 2420000   0.86324332   -7.6844945    643.87502  0.022172005  0.021855037            4 
 2421000   0.85697274   -7.6662584    643.44139  0.022147921  0.021848468            5 
 2422000   0.87888035   -7.7060013    643.38969  0.022136997   0.02184189            2 
 2423000   0.86672848   -7.6901257    642.75176  0.022105921  0.021835301            1 
 2424000   0.87552908   -7.6624305     644.2617  0.022148711  0.021828729            3 
 2425000   0.84468546   -7.6866144    642.65814  0.022084472  0.021822209            5 
 2426000   0.87636924   -7.6678541    644.15738  0.022126868  0.021815692            2 
 2427000    0.8677297   -7.6591787    643.04877  0.022079686  0.021809205            2 
 2428000   0.86152332   -7.6640555    644.20234  0.022110185  0.021802744            1 
 2429000   0.86559854   -7.7060629    644.72998  0.022119184  0.021796259            2 
 2430000   0.86873865   -7.6872404    644.74702  0.022110666  0.021789764            2 
 2431000   0.84918942   -7.6946681    644.34763   0.02208788  0.021783227            6 
 2432000   0.87094223    -7.647838    645.67729  0.022124359  0.021776706            2 
 2433000   0.84861141   -7.6432695    644.19987  0.022064662  0.021770225            2 
 2434000   0.85822671   -7.6366468    645.72276  0.022107736  0.021763743            2 
 2435000   0.85362649   -7.6757771    646.08257  0.022110971  0.021757289            3 
 2436000   0.85616954   -7.6392928    646.37709  0.022111969  0.021750842            1 
 2437000   0.85831071   -7.6914351    645.15219   0.02206101  0.021744369            3 
 2438000   0.87111102   -7.7182372      644.225  0.022020269  0.021737827            2 
 2439000   0.83608005   -7.6667335    644.76864  0.022029816  0.021731316            3 
 2440000   0.85874772   -7.7034109    646.18219  0.022069064  0.021724799            4 
 2441000   0.87539236   -7.7245449    643.78034  0.021978026  0.021718253            3 
 2442000   0.84797948   -7.6869084    643.86654  0.021971968  0.021711646            3 
 2443000   0.85193345   -7.6767553    645.48481  0.022018175  0.021705127            2 
 2444000   0.85338703   -7.6957883    645.09271  0.021995796   0.02169857            2 
 2445000   0.86057152    -7.663461    645.31569    0.0219944  0.021692011            1 
 2446000   0.87968099   -7.6862925    645.53388  0.021992842  0.021685483            2 
 2447000   0.88547068   -7.6892885    643.93665   0.02192946  0.021678938            4 
 2448000   0.84950677   -7.6906043    644.41246  0.021936699  0.021672356            5 
 2449000   0.88187769   -7.6677555    646.32459  0.021992806  0.021665865            2 
 2450000   0.87105207    -7.732152    645.00967  0.021939105  0.021659331            2 
 2451000   0.86714315     -7.69597    644.60318  0.021916333  0.021652781            1 
 2452000   0.85584115   -7.6952918    647.04864  0.021990506  0.021646221            2 
 2453000   0.86535808   -7.6961941    646.05654  0.021947837  0.021639695            2 
 2454000   0.87683119   -7.6805436    647.37694  0.021983732    0.0216332            3 
 2455000    0.8670506   -7.6460118    647.13129  0.021966439  0.021626721            6 
 2456000   0.86499983   -7.6896263    646.61777  0.021940071  0.021620244            2 
 2457000   0.86923989    -7.678402    646.09649  0.021913461  0.021613718            2 
 2458000   0.86102594   -7.6876131    646.90025  0.021931796  0.021607207            3 
 2459000   0.85641605   -7.6809624    646.13617  0.021896983  0.021600644            2 
 2460000   0.84717664   -7.7016677    646.88735  0.021913528  0.021594132            2 
 2461000   0.85741805   -7.6874062    646.64395  0.021896382  0.021587643            3 
 2462000   0.85621161   -7.6809671    646.77511  0.021891928  0.021581164            3 
 2463000   0.84635148   -7.6807547    647.53162  0.021908635  0.021574706            1 
 2464000   0.86640957   -7.7075775     647.1658  0.021887372  0.021568238            2 
 2465000   0.85274515   -7.6749001    646.93161  0.021870575  0.021561789            2 
 2466000   0.85291677   -7.7283684    646.01042  0.021830577  0.021555304            2 
 2467000   0.85053061   -7.7363782    647.11943  0.021859189  0.021548807            2 
 2468000   0.85605444   -7.6969648    647.46197  0.021861898  0.021542339            2 
 2469000   0.86042147   -7.6759665    647.43124  0.021852006  0.021535883            3 
 2470000   0.85111765   -7.6810415    648.24467  0.021870603  0.021529416            2 
 2471000   0.86384596   -7.7024536    647.31941  0.021830548  0.021522943            2 
 2472000   0.85098464   -7.6996735     646.2603  0.021786013  0.021516439            2 
 2473000   0.86125032   -7.6664111    646.60126  0.021788693  0.021509927            3 
 2474000   0.84527471   -7.6944397    647.87298  0.021822722  0.021503452            2 
 2475000    0.8625809   -7.6943103    647.96058  0.021816855  0.021496932            3 
 2476000   0.83497238   -7.6651794    647.94662  0.021807573  0.021490461            2 
 2477000   0.85556532    -7.687364    647.03422  0.021768074  0.021484003            3 
 2478000   0.87025858   -7.6681871    647.86857  0.021787347  0.021477509            2 
 2479000   0.85997042   -7.6819564    647.03046  0.021750385  0.021471024            2 
 2480000   0.85366602   -7.7014444    648.49486  0.021790822  0.021464467            3 
 2481000    0.8591319   -7.6776822    648.99661  0.021798892  0.021457925            2 
 2482000    0.8502392    -7.684834    648.04407  0.021758128  0.021451393            2 
 2483000   0.83516419   -7.6949407    647.82844  0.021742128  0.021444924            4 
 2484000   0.86848677   -7.7276981    647.66991  0.021728057  0.021438428            2 
 2485000   0.86805724   -7.7343583    648.17213  0.021736154   0.02143191            3 
 2486000   0.86588773   -7.6594873    649.76827  0.021780915  0.021425412            2 
 2487000   0.86342674   -7.6566355    648.19815  0.021719546   0.02141897            4 
 2488000   0.84214381   -7.6870638    648.77843  0.021730253  0.021412499            1 
 2489000   0.85776311   -7.6756179     649.2709  0.021738011  0.021406073            2 
 2490000   0.85043175   -7.7084365    649.45095  0.021735306  0.021399602            6 
 2491000   0.83186931   -7.6847625    650.14448  0.021749782  0.021393111            4 
 2492000   0.87057593   -7.7140627    649.18513  0.021708973  0.021386605            2 
 2493000   0.85619384   -7.6987097    648.71003  0.021684384   0.02138007            2 
 2494000   0.84641582   -7.7116861    649.57485  0.021704586  0.021373551            2 
 2495000   0.85577967   -7.6633042    648.88364    0.0216728   0.02136704            2 
 2496000   0.84711408   -7.6914958    647.60628   0.02162147  0.021360602            2 
 2497000   0.87603029   -7.6999322    650.86218  0.021721472  0.021354208            2 
 2498000   0.85625788   -7.6911504    648.85042  0.021645664  0.021347827            2 
 2499000   0.87275624   -7.7002754     649.4294  0.021656309   0.02134143            2 
 2500000   0.85466704   -7.7011821    649.42686  0.021647562  0.021334987            5 
 2501000   0.84037859    -7.695102    650.24725  0.021666242  0.021328514            3 
 2502000   0.84499879   -7.7017843    649.75594  0.021641218  0.021322046            6 
 2503000   0.83568993   -7.7113331    653.05599  0.021742442  0.021315568            4 
 2504000   0.85017615   -7.7323555    649.61343   0.02161919   0.02130909            2 
 2505000    0.8492816   -7.7077384    647.32715  0.021534503  0.021302607            2 
 2506000    0.8439543    -7.714291    648.84863  0.021576504  0.021296133            4 
 2507000   0.85185373   -7.6957412    650.48428  0.021622267  0.021289687            2 
 2508000   0.86114481   -7.7010533    649.65597  0.021586124  0.021283219            2 
 2509000   0.84014594   -7.6979632    651.10317  0.021625587  0.021276784            4 
 2510000   0.84884782   -7.7001601    650.00008  0.021580348  0.021270343            1 
 2511000   0.85516579   -7.7137499    650.42088  0.021585719    0.0212639            4 
 2512000    0.8521043   -7.7159358    651.41036  0.021609951  0.021257488            3 
 2513000   0.86802772   -7.7160342    651.69429  0.021610767  0.021251061            5 
 2514000   0.85656404   -7.7261132    650.41435  0.021559744  0.021244662            2 
 2515000   0.84932653   -7.7478616    649.39283  0.021517324  0.021238264            2 
 2516000   0.85088051    -7.719816    653.02346  0.021629023  0.021231883            1 
 2517000   0.84749412   -7.7140106    653.82419  0.021646941  0.021225524            2 
 2518000   0.85798366   -7.6981122    651.74915   0.02156967  0.021219186            1 
 2519000   0.84014511   -7.6951035    651.69772  0.021559406  0.021212864            2 
 2520000   0.81587087   -7.7129256    653.16351  0.021599322  0.021206559            2 
 2521000   0.86078906    -7.706605    652.78086  0.021578106  0.021200219            1 
 2522000   0.87615741   -7.7081238    652.92398  0.021574279  0.021193865            2 
 2523000   0.86733041    -7.728612    651.74361  0.021526741  0.021187486            1 
 2524000   0.86228161   -7.7030639    653.48744  0.021575787  0.021181101            2 
 2525000   0.82422841   -7.7094726    652.44192  0.021532737  0.021174722            4 
 2526000   0.84884534   -7.7065456    650.37537  0.021456036   0.02116835            2 
 2527000   0.86429787   -7.6960395    652.85195  0.021529216  0.021161977            5 
 2528000   0.83690123   -7.7293886      650.803  0.021453158  0.021155611            2 
 2529000   0.84889752   -7.6756188    653.27264  0.021526052  0.021149219            3 
 2530000   0.82325031   -7.6983922    652.39408  0.021488606  0.021142867            2 
 2531000   0.85297661    -7.697987    652.84259  0.021494883  0.021136525            4 
 2532000   0.84265055   -7.6958368    654.14269  0.021529183  0.021130179            2 
 2533000   0.82692882   -7.7169997    652.28395  0.021459532   0.02112381            3 
 2534000   0.84929837   -7.6901759    652.94343  0.021472752   0.02111747            1 
 2535000   0.85547892   -7.7006636    653.54624  0.021484097  0.021111099            3 
 2536000   0.85495541    -7.741652     652.4809  0.021440618  0.021104708            2 
 2537000   0.84663548   -7.7052489    653.26981  0.021458081  0.021098313            2 
 2538000   0.83664655   -7.6902112    653.83131  0.021468062  0.021091946            2 
 2539000   0.84091022    -7.724829    652.38789  0.021412232  0.021085532            3 
 2540000   0.85865846   -7.6976186    652.97996  0.021423227  0.021079128            1 
 2541000   0.84436595    -7.703177    654.58265  0.021467357  0.021072763            4 
 2542000   0.83951016   -7.6917497    654.33629  0.021450836  0.021066425            1 
 2543000   0.84885418   -7.7145806    653.32471  0.021409251  0.021060078            2 
 2544000   0.84119313   -7.7272624    651.82363  0.021351665  0.021053661            2 
 2545000   0.84424534   -7.7125252    653.83365  0.021409091   0.02104726            2 
 2546000   0.85739625   -7.7338943    652.18583  0.021346748   0.02104089            2 
 2547000   0.84782299   -7.7014362    654.73919  0.021421908  0.021034513            1 
 2548000   0.85508891    -7.734858    653.28359  0.021365895   0.02102809            4 
 2549000   0.85101055   -7.6848536    652.51903  0.021332517   0.02102168            4 
 2550000   0.83912609   -7.7115448      652.549  0.021325131  0.021015249            4 
 2551000    0.8471369   -7.7230908    652.29736  0.021308551  0.021008841            1 
 2552000    0.8646582   -7.7313465    652.70956  0.021313661  0.021002399            2 
 2553000   0.87412153   -7.7148623    652.61609  0.021302262  0.020996003            3 
 2554000    0.8449717   -7.6855865    654.20048  0.021345617  0.020989624            1 
 2555000   0.82112841   -7.7327806    652.64141  0.021286413  0.020983231            2 
 2556000   0.84488792   -7.7296589    654.33154  0.021333188   0.02097681            5 
 2557000   0.84356939   -7.7154968    655.06546  0.021348764  0.020970426            2 
 2558000   0.85278891   -7.7403414    654.15977  0.021310912  0.020964034            3 
 2559000   0.83522868   -7.7239562    653.03699  0.021266022  0.020957616            2 
 2560000    0.8411821   -7.7196725     653.8829  0.021285251  0.020951224            2 
 2561000   0.85644228   -7.7348132    653.28662  0.021257537  0.020944815            2 
 2562000   0.83783595   -7.7539208     653.0548  0.021241699  0.020938438            3 
 2563000    0.8649777   -7.7096951    654.04242  0.021265523   0.02093204            1 
 2564000   0.84927988   -7.7281212    652.44157  0.021205199  0.020925639            2 
 2565000    0.8146644   -7.7541875    652.69288  0.021205097  0.020919242            4 
 2566000   0.84664973   -7.7459321    654.06168  0.021241286  0.020912782            3 
 2567000   0.83579724   -7.7592235    653.44065  0.021212851  0.020906323            4 
 2568000   0.83727593   -7.7308669    654.25291  0.021230948  0.020899861            2 
 2569000   0.83794894   -7.7315151    654.40642  0.021227664  0.020893402            2 
 2570000   0.85209765   -7.7192674    653.58373  0.021192728   0.02088692            6 
 2571000   0.84147513   -7.7580691     653.0845  0.021168304  0.020880427            4 
 2572000   0.82979012    -7.766149    651.53399  0.021109836  0.020873887            1 
 2573000   0.84630335   -7.7214554    653.31612  0.021159351  0.020867352            1 
 2574000   0.86766432   -7.7487519    653.80955  0.021167105  0.020860867            1 
 2575000   0.82473066   -7.7506142    653.42568  0.021146462  0.020854403            1 
 2576000   0.83456275   -7.7560632    654.30117  0.021166575  0.020847905            2 
 2577000   0.81942321    -7.736134    653.40546  0.021129396  0.020841404            2 
 2578000   0.83814102   -7.7628439    653.46093  0.021122994  0.020834923            7 
 2579000   0.82788724   -7.7032226    655.50552  0.021180869   0.02082846            4 
 2580000   0.83348977   -7.7468141    653.73151  0.021115359   0.02082198            3 
 2581000   0.84314382   -7.7460277    653.83777  0.021110609  0.020815547            2 
 2582000   0.84151547    -7.731329    654.84409  0.021134911  0.020809064            4 
 2583000   0.84596712   -7.7544145    656.10728  0.021167482   0.02080256            2 
 2584000   0.84112717   -7.7340707     656.3087  0.021165786  0.020796122            1 
 2585000   0.85336717   -7.7351599    654.29919  0.021092817  0.020789663            2 
 2586000   0.84400096   -7.7475733    653.49492  0.021058743  0.020783181            2 
 2587000   0.83150021   -7.7499696    654.37889  0.021079078  0.020776696            1 
 2588000   0.83558849   -7.7306775    656.10287  0.021126445  0.020770248            1 
 2589000   0.84851445   -7.7521822    655.84037  0.021109835  0.020763824            3 
 2590000   0.83907737   -7.7246824    657.05189  0.021140666  0.020757395            3 
 2591000   0.81182662    -7.762732    654.46729  0.021049379  0.020751005            5 
 2592000   0.83143464   -7.7673228     655.2394  0.021066082  0.020744601            4 
 2593000   0.84283558   -7.7566024    654.91498  0.021047531  0.020738189            2 
 2594000   0.83029212   -7.7361546    655.52479  0.021059008  0.020731775            5 
 2595000   0.82035133   -7.7611028    655.60969  0.021053619  0.020725374            2 
 2596000   0.82430483   -7.7015838    655.70796  0.021048663  0.020718958            3 
 2597000   0.82895555   -7.7170216    656.95746  0.021080653  0.020712561            3 
 2598000   0.82677357   -7.7203891    656.59172  0.021060807  0.020706168            2 
 2599000   0.84329883   -7.7690944    656.57564  0.021052188  0.020699766            2 
 2600000    0.8308544   -7.7574024    656.20068  0.021032073  0.020693345            2 
 2601000     0.853892   -7.7215049    656.64974  0.021038374  0.020686908            2 
 2602000   0.82140806   -7.7486248    656.30255   0.02101917  0.020680507            2 
 2603000   0.83521671   -7.7357988    656.79671  0.021026915  0.020674046            2 
 2604000   0.84387523   -7.7547298     655.9097  0.020990454  0.020667645            3 
 2605000   0.82953908   -7.7159418    656.48672  0.021000855  0.020661246            3 
 2606000     0.855941   -7.7649192    656.09217   0.02098018  0.020654852            2 
 2607000     0.841158   -7.7404892    655.94142  0.020967313  0.020648436            4 
 2608000    0.8342256   -7.7513663    654.97735  0.020928469  0.020641991            3 
 2609000    0.8328023   -7.7662933    654.93789  0.020919187   0.02063557            3 
 2610000   0.83946786   -7.7626236    656.57673  0.020963497  0.020629167            3 
 2611000   0.85563041   -7.7656452    656.28309  0.020946096  0.020622765            2 
 2612000   0.83277067   -7.7618835    655.29909  0.020906683  0.020616351            2 
 2613000   0.82485979   -7.7342263    658.00874  0.020985098  0.020609974            2 
 2614000   0.83019452   -7.7497295    655.35366  0.020892427  0.020603614            3 
 2615000   0.83802272   -7.7139228    656.58499  0.020923677  0.020597245            2 
 2616000   0.83447433   -7.7176361    657.79659  0.020954275  0.020590889            1 
 2617000   0.84967567   -7.7348437    657.26412  0.020929312  0.020584498            2 
 2618000     0.823977   -7.7410969    656.84143  0.020907863  0.020578099            3 
 2619000   0.82857682   -7.7188087    657.40993  0.020917969  0.020571711            3 
 2620000   0.81068341   -7.7347049     657.5607  0.020914781  0.020565334            2 
 2621000   0.84010378   -7.7317369    655.65785  0.020846301  0.020558905            2 
 2622000   0.83663003   -7.7889365    656.10664  0.020852614  0.020552478            3 
 2623000   0.84807913   -7.7389522    657.42572  0.020886571  0.020546152            2 
 2624000   0.81901158   -7.6977811    658.92444  0.020926208  0.020539803            3 
 2625000   0.81815031    -7.736797    657.32597  0.020867491   0.02053346            2 
 2626000   0.83286063   -7.7298933    656.99203  0.020848947  0.020527068            2 
 2627000   0.83870007   -7.7659468    657.39531  0.020853804  0.020520701            2 
 2628000   0.83413866    -7.738483    657.86182  0.020860662  0.020514331            4 
 2629000   0.83324494   -7.7349143    658.17075  0.020862519  0.020507956            3 
 2630000   0.83540547   -7.7868632    656.88034  0.020813699  0.020501555            3 
 2631000   0.83661504   -7.7447584    656.42497  0.020791365  0.020495142            3 
 2632000   0.83804574   -7.7507672    656.83875  0.020796566  0.020488737            3 
 2633000   0.84083924   -7.7408386    659.81289  0.020882798  0.020482315            1 
 2634000   0.82445195   -7.7465038    656.84187  0.020780874  0.020475906            1 
 2635000   0.82907665   -7.7683084    658.03592   0.02081075  0.020469513            3 
 2636000   0.82701419   -7.7776616    658.08827   0.02080451  0.020463107            3 
 2637000   0.83087955   -7.7600106    658.00002  0.020793832  0.020456725            3 
 2638000   0.83176732   -7.7469447    658.18285  0.020791725  0.020450358            2 
 2639000   0.82448002   -7.7538636    657.50153  0.020762332     0.020444            2 
 2640000   0.83262647   -7.7664799    657.69203  0.020760481  0.020437636            1 
 2641000   0.83085055   -7.7739476    658.47914  0.020777456  0.020431227            2 
 2642000   0.83625908   -7.7635572    657.57991  0.020741229  0.020424854            1 
 2643000   0.81514659   -7.7640625    659.50145  0.020793967  0.020418482            7 
 2644000   0.83196577   -7.7703322    658.42712  0.020752242  0.020412089            3 
 2645000   0.82782944   -7.7526771    660.16523  0.020799156  0.020405742            4 
 2646000   0.82856903    -7.745586     659.5664  0.020772437  0.020399391            1 
 2647000   0.83060808   -7.7648317    659.75733    0.0207706  0.020393051            2 
 2648000   0.82396879   -7.7324829    659.85414  0.020765802  0.020386715            3 
 2649000   0.79998823   -7.7339537    658.89837  0.020727896  0.020380396            2 
 2650000   0.83740062   -7.7503269    657.87121  0.020687774  0.020374044            4 
 2651000    0.8320693   -7.7391271    659.22717  0.020722594  0.020367664            3 
 2652000   0.82121055   -7.7309039    658.05728  0.020678019   0.02036127            2 
 2653000   0.81699873   -7.7330897     658.9033  0.020696799  0.020354893            3 
 2654000   0.81604725   -7.7606493    657.46962  0.020643984  0.020348526            6 
 2655000   0.82605905   -7.7659177    658.19787  0.020659067  0.020342156            2 
 2656000   0.82890391     -7.78014    657.69047  0.020635369  0.020335784            4 
 2657000   0.82008421   -7.7598485    659.96424  0.020698916  0.020329407            2 
 2658000   0.82371952   -7.7876924    659.13451  0.020665115   0.02032305            3 
 2659000   0.83784288   -7.7718279    658.11737  0.020625466  0.020316656            1 
 2660000   0.81547297   -7.7272124    658.63297  0.020633865  0.020310275            2 
 2661000   0.81141397   -7.7467931    658.48032   0.02062133  0.020303912            3 
 2662000   0.82187186   -7.7612483    658.98706  0.020629447  0.020297525            3 
 2663000   0.81894026   -7.7850307    659.21212  0.020628743  0.020291147            3 
 2664000   0.82089855   -7.7957039    658.26726  0.020591443  0.020284739            1 
 2665000   0.83054216   -7.7792389    658.62838  0.020595009  0.020278345            1 
 2666000   0.83169474   -7.8110618     659.1739  0.020604336  0.020271947            2 
 2667000   0.82439282    -7.779395    657.31283  0.020538459  0.020265513            2 
 2668000   0.82989139   -7.7775487     659.5851  0.020601733  0.020259112            3 
 2669000   0.82801671   -7.7434618    660.65736  0.020627494  0.020252742            3 
 2670000   0.81935273   -7.7872824    659.83933  0.020594236  0.020246379            3 
 2671000    0.8240454   -7.7813991    658.80219  0.020554168  0.020239971            2 
 2672000   0.80910272   -7.7801376      658.863  0.020548372  0.020233583            1 
 2673000    0.8289444   -7.7791128    658.68073  0.020535002  0.020227154            4 
 2674000   0.82064754    -7.794097    658.17866  0.020511676  0.020220712            3 
 2675000   0.81020921   -7.7782334    659.74979  0.020552953  0.020214298            2 
 2676000   0.82294174    -7.778236    658.58483  0.020508994  0.020207858            1 
 2677000   0.81059904   -7.7776424    659.34444  0.020524979  0.020201401            1 
 2678000   0.81792299    -7.747217    660.04694  0.020539175  0.020194993            2 
 2679000   0.82168071   -7.7319995    660.61413  0.020549152  0.020188587            1 
 2680000   0.82014234    -7.803797    659.05721  0.020493072  0.020182149            2 
 2681000    0.8247152   -7.8278546    658.50686  0.020468322  0.020175674            7 
 2682000    0.8372308   -7.7721805     660.7246  0.020529599  0.020169195            2 
 2683000   0.79859841   -7.7775917    659.64013  0.020488264  0.020162761            1 
 2684000   0.81572286   -7.7686862    659.78571   0.02048515  0.020156346            3 
 2685000   0.81463225   -7.7839641    659.45402  0.020467226  0.020149916            3 
 2686000   0.83752308   -7.7896782    659.29013  0.020454521  0.020143478            2 
 2687000   0.81602728   -7.7824098    659.51114  0.020453763  0.020137043            2 
 2688000   0.80977782   -7.8136176    657.64213  0.020388211  0.020130595            2 
 2689000   0.82865123   -7.8120646    659.16976  0.020427971  0.020124125            6 
 2690000   0.81314921   -7.7813097    660.12391  0.020449935  0.020117679            8 
 2691000   0.82496935   -7.7787499    660.14379  0.020442952  0.020111227            1 
 2692000   0.83202495   -7.7905919     658.6515  0.020389162  0.020104804            3 
 2693000   0.81436311   -7.7817614    660.28298  0.020432076  0.020098364            2 
 2694000   0.81084591     -7.76336    661.58456  0.020464754   0.02009199            1 
 2695000   0.80278129   -7.7526223    660.00158  0.020408212  0.020085602            1 
 2696000   0.81608267   -7.7575505    661.86141   0.02045813  0.020079219            1 
 2697000    0.8250658   -7.7867484    659.46807  0.020376594  0.020072817            3 
 2698000   0.80774652   -7.7629739    660.63332  0.020405032  0.020066436            2 
 2699000   0.82394773   -7.7851976    659.88011  0.020374216  0.020060026            5 
 2700000   0.80125388   -7.7683401    660.79808  0.020395003  0.020053628            9 
 2701000   0.80787135   -7.7801754     661.3536  0.020404591  0.020047229            2 
 2702000   0.81610306   -7.7489249    660.84083  0.020381225  0.020040849            1 
 2703000   0.83159264   -7.7873379    659.01116  0.020317276  0.020034443            7 
 2704000   0.82510775     -7.78562    660.48167  0.020355081   0.02002806            2 
 2705000   0.80055857   -7.7966936    660.04291  0.020334039  0.020021685            6 
 2706000   0.81181025   -7.7727971    662.80387  0.020411551  0.020015333            1 
 2707000   0.82118566   -7.7986465    660.41335   0.02033042  0.020008979            2 
 2708000   0.80976287   -7.7729469    660.43837  0.020323682   0.02000259            2 
 2709000   0.81751482   -7.7955076    659.67837  0.020292801  0.019996215            2 
 2710000   0.81795788   -7.7784269    661.03472  0.020327021  0.019989851            3 
 2711000    0.8203487   -7.7795898    662.01368  0.020349615   0.01998347            1 
 2712000   0.81458084   -7.8015688    660.99978  0.020310957  0.019977083            3 
 2713000   0.80936564   -7.8023229    658.85979  0.020237738  0.019970715            2 
 2714000   0.80297826   -7.7833647    660.11056  0.020268686  0.019964316            1 
 2715000   0.81952469   -7.8004228    660.93983  0.020286674  0.019957922            3 
 2716000   0.83686279   -7.7880756    662.17392  0.020317069  0.019951601            2 
 2717000   0.79011013   -7.7625335    662.79993  0.020328792   0.01994526            1 
 2718000   0.79292273   -7.7898401    661.63774   0.02028568  0.019938912            3 
 2719000   0.81262371   -7.8138901     661.6865  0.020279714  0.019932567            3 
 2720000   0.81589361   -7.7661549    660.77394    0.0202443  0.019926219            1 
 2721000   0.80627962   -7.7784845    662.35092  0.020285156  0.019919904            2 
 2722000   0.80618566   -7.7836067    661.72574  0.020258564  0.019913583            3 
 2723000   0.80935434   -7.8012607    661.42069  0.020241789  0.019907263            2 
 2724000   0.82757363   -7.7798645    663.49764  0.020297896  0.019900951            2 
 2725000   0.82261225   -7.7730691    663.21967  0.020281947  0.019894653            2 
 2726000   0.80336774   -7.7934827    662.81284   0.02026207  0.019888371            2 
 2727000   0.80686922   -7.7869743    662.20213  0.020235977  0.019882105            4 
 2728000   0.81387106   -7.7628015    663.98142  0.020282912  0.019875864            4 
 2729000   0.81164653   -7.8022384     663.8551  0.020271623  0.019869589            3 
 2730000   0.80168669   -7.7921806    663.45861  0.020252094  0.019863362            3 
 2731000   0.81123504   -7.8123133    664.26238  0.020269205  0.019857086            2 
 2732000   0.80322899   -7.7896741    665.30319  0.020293533   0.01985083            2 
 2733000   0.82483753   -7.7903495     662.9775  0.020215194  0.019844547            4 
 2734000   0.80206268   -7.7781799    664.34837  0.020249585  0.019838272            2 
 2735000   0.81126916   -7.7706665     664.2048  0.020237806  0.019832046            4 
 2736000   0.80920357   -7.7852592    663.51178  0.020209301  0.019825777            3 
 2737000   0.80876068   -7.8133891    662.37191  0.020167212  0.019819485            3 
 2738000   0.79089135   -7.7857792    662.30163  0.020157707  0.019813195            4 
 2739000    0.8203408     -7.82941    664.34399  0.020212486  0.019806897            3 
 2740000   0.82011979   -7.8047455    664.04049  0.020195879  0.019800599            2 
 2741000   0.81118883   -7.7961091    664.18935  0.020193036  0.019794303            1 
 2742000   0.80733967   -7.8065603    663.98303  0.020179402  0.019788005            2 
 2743000   0.81812732   -7.8343969    664.31536  0.020182141  0.019781728            2 
 2744000     0.805261   -7.7897639    662.96278  0.020133709  0.019775451            2 
 2745000   0.79218788   -7.8098742    663.41979  0.020140249  0.019769168            3 
 2746000   0.82082547   -7.7790867    663.59055  0.020138096  0.019762882            2 
 2747000   0.80661192   -7.7699308     663.7279  0.020134932  0.019756644            3 
 2748000   0.80892417   -7.8050368    663.96499  0.020134795    0.0197504            2 
 2749000   0.81686935   -7.7889155    664.30288  0.020137713  0.019744167            1 
 2750000   0.82603184   -7.8079757    662.70122  0.020081855   0.01973792            3 
 2751000    0.8044326    -7.804493    663.19857  0.020089621  0.019731686            3 
 2752000   0.81108202   -7.8271094    662.63262  0.020065184  0.019725432            4 
 2753000   0.82340191   -7.7796507    664.29034  0.020108074  0.019719152            2 
 2754000   0.80974385   -7.8066785    663.16764  0.020066801  0.019712839            2 
 2755000   0.82508231   -7.8009188    664.29422  0.020093594  0.019706533            2 
 2756000   0.81140765   -7.7993183    664.19508  0.020083305  0.019700281            3 
 2757000   0.79796663   -7.8022949    663.29748   0.02004889  0.019694018            2 
 2758000   0.82354408   -7.8328113    664.29971  0.020071903  0.019687748            2 
 2759000   0.79769788   -7.8209581    662.99636  0.020025262  0.019681462            2 
 2760000   0.82579296   -7.8069783    663.94028  0.020046506  0.019675222            1 
 2761000    0.8266837   -7.7878581    665.88566  0.020097961  0.019668971            1 
 2762000   0.81072437   -7.8109111    663.66779  0.020023769  0.019662753            2 
 2763000    0.8279021   -7.8185386    665.77523  0.020080083  0.019656509            2 
 2764000   0.81445929   -7.8215722    663.50399  0.020004341  0.019650237            2 
 2765000   0.80758826   -7.7876582    664.45446  0.020025752  0.019643993            1 
 2766000   0.80214735   -7.8233011    663.93299  0.020002802  0.019637752            2 
 2767000   0.83980584   -7.8103231    662.87555  0.019963726  0.019631474            2 
 2768000   0.80958627   -7.8374105    662.25923  0.019937958  0.019625179            3 
 2769000    0.7988262   -7.8019034    664.21202  0.019989528  0.019618902            4 
 2770000    0.8073857   -7.8023586    665.29138  0.020014783  0.019612681            2 
 2771000   0.79508762   -7.8304013    663.74502  0.019961056  0.019606418            3 
 2772000   0.81192544   -7.8029282    663.99277  0.019961303  0.019600141            3 
 2773000   0.79967617    -7.803409    665.16582  0.019989356  0.019593886            2 
 2774000   0.81646218   -7.8171715    664.45159  0.019960694  0.019587652            2 
 2775000   0.79772368   -7.7822213      664.556  0.019956637  0.019581386            3 
 2776000   0.80563011   -7.8382311    665.69316  0.019983584  0.019575114            2 
 2777000   0.80772409   -7.8133013     664.3958  0.019937457  0.019568816            1 
 2778000   0.83729698   -7.8350505    664.37641  0.019929698  0.019562524            2 
 2779000   0.80694776   -7.8392359    664.60784  0.019929466  0.019556221            5 
 2780000   0.81159543   -7.8106544    664.41972  0.019916658  0.019549935            1 
 2781000    0.8134521   -7.8435314    665.16446  0.019931813   0.01954368            3 
 2782000   0.80552687   -7.8192571    665.40429  0.019931832  0.019537402            2 
 2783000   0.81416925   -7.8241058    663.44281  0.019865936    0.0195311            2 
 2784000   0.80853027   -7.8327707    663.96689  0.019874488  0.019524801            2 
 2785000   0.82230935    -7.824802    665.25844  0.019905998  0.019518545            2 
 2786000   0.78971509   -7.8400701    665.81726  0.019915568  0.019512293            6 
 2787000   0.78816066   -7.8340333    664.96292  0.019882876  0.019506028            2 
 2788000   0.78396029   -7.8181108    666.70811  0.019927908  0.019499775            2 
 2789000   0.79106578   -7.8184438    665.26006  0.019877497  0.019493511            2 
 2790000   0.79839407     -7.80787    665.68244  0.019882988   0.01948727            2 
 2791000   0.80838171   -7.8275742    665.73641  0.019877476  0.019481032            2 
 2792000   0.79944291    -7.826745    665.48064  0.019862722  0.019474796            2 
 2793000   0.81225572   -7.7961426    667.43227   0.01991384  0.019468558            2 
 2794000   0.80904455   -7.8329279    666.29787  0.019872879  0.019462352            5 
 2795000   0.80455237   -7.8399307    664.97443   0.01982631  0.019456128            3 
 2796000   0.82610336   -7.8371082    665.75541  0.019842495  0.019449882            2 
 2797000   0.80208575   -7.8209663    664.96544  0.019811865  0.019443631            2 
 2798000   0.80712543   -7.8375899    666.00164  0.019835646  0.019437381            2 
 2799000   0.81466293    -7.812684    666.13298  0.019832469  0.019431148            8 
 2800000   0.81754774   -7.8264007    666.09018  0.019824113  0.019424928            2 
 2801000   0.79239219   -7.8510123    666.87126  0.019840273  0.019418681            1 
 2802000   0.80134679   -7.8576873    665.97633  0.019806577  0.019412454            2 
 2803000   0.80550033   -7.8259391    664.82201  0.019765192  0.019406231            7 
 2804000   0.80141051   -7.8160319    666.75326  0.019815539  0.019400035            4 
 2805000   0.80862353   -7.8367074    665.21019  0.019762632  0.019393829            3 
 2806000   0.78474392   -7.8433011     665.6908  0.019769862  0.019387607            1 
 2807000   0.81615698    -7.865389    665.48189  0.019756617    0.0193814            3 
 2808000     0.793888   -7.8165136    666.12874  0.019768778  0.019375162            2 
 2809000   0.80064364   -7.8364345    667.24905  0.019794976  0.019368946            3 
 2810000   0.79448519   -7.8292596    667.13889  0.019784665  0.019362785            2 
 2811000   0.78874132   -7.8113394    666.74783  0.019766033  0.019356605            3 
 2812000   0.78211562   -7.8178489    667.92641  0.019793931  0.019350423            2 
 2813000   0.81272228   -7.7691932    667.28688  0.019767949  0.019344253            2 
 2814000   0.80470119   -7.8234548    666.27227  0.019730878  0.019338089            3 
 2815000   0.81078295    -7.841832    666.91954   0.01974303  0.019331938            1 
 2816000   0.79664713   -7.8166469    667.91523  0.019765484  0.019325747            2 
 2817000   0.78202968   -7.8202983    669.09032  0.019793229   0.01931959            1 
 2818000     0.810117    -7.852009    666.66236  0.019714406  0.019313399            4 
 2819000    0.8208049   -7.8296712    668.42731  0.019759587  0.019307265            2 
 2820000   0.80573886   -7.8276946    668.00763  0.019740178  0.019301122            4 
 2821000   0.78699914   -7.8264865    667.11578  0.019706835  0.019294938            3 
 2822000   0.82476184   -7.8688678    666.94061  0.019694679  0.019288768            3 
 2823000   0.80363281   -7.7884333      667.348  0.019699729  0.019282558            3 
 2824000   0.79632993   -7.8372159    667.00386  0.019682597  0.019276349            6 
 2825000   0.79855229   -7.8403082    666.80793   0.01966985  0.019270144            2 
 2826000   0.82217293   -7.8052118    666.83981   0.01966383  0.019263961            1 
 2827000   0.80982818   -7.8577328    667.40561  0.019673553  0.019257762            3 
 2828000    0.8144568   -7.8325364    666.91655  0.019652185  0.019251578            2 
 2829000   0.79200419   -7.8327261    667.53608  0.019663488  0.019245389            2 
 2830000    0.7956341   -7.8458862    668.15494  0.019674763  0.019239194            3 
 2831000   0.77793317    -7.834852    667.22396  0.019640409  0.019233039            2 
 2832000   0.79807492   -7.8551694    666.34743  0.019607681   0.01922682            3 
 2833000   0.79312021   -7.8460793    667.90009  0.019646432  0.019220646            3 
 2834000   0.81217645   -7.8237883    668.40778  0.019654428  0.019214454            2 
 2835000   0.80197177    -7.822761    667.67834  0.019626054  0.019208274            1 
 2836000   0.79301051   -7.8323605     666.9246  0.019596985  0.019202113            2 
 2837000   0.80691076   -7.8290113     668.6659  0.019641226   0.01919595            2 
 2838000   0.80934967   -7.8368558     667.7272  0.019606742  0.019189792            5 
 2839000   0.80253305   -7.8294204    667.70223  0.019599103  0.019183613            2 
 2840000   0.80465095   -7.8427668    666.98958   0.01957129  0.019177413            3 
 2841000   0.80293592   -7.8203037    667.19574  0.019570449  0.019171228            2 
 2842000   0.80090945   -7.8042365    667.40255  0.019569627  0.019165058            2 
 2843000   0.79761231   -7.8260792    667.79622  0.019574282   0.01915892            2 
 2844000   0.80011199     -7.84266    669.69435  0.019623018  0.019152806            3 
 2845000   0.79908057   -7.7944745    669.05324  0.019597341  0.019146695            4 
 2846000   0.77593623   -7.8196515     669.3937  0.019600424  0.019140558            3 
 2847000   0.79748893   -7.8550583    666.73074  0.019515594  0.019134397            1 
 2848000   0.79592355   -7.8458651    667.96078  0.019544733  0.019128211            3 
 2849000   0.80553146   -7.8514648     668.6097  0.019556853  0.019122052            2 
 2850000   0.80207235   -7.8818003    668.33918  0.019542081  0.019115896            3 
 2851000   0.79344291   -7.8523631    666.55168  0.019482979  0.019109737            2 
 2852000   0.79316702   -7.8697823     667.3871  0.019500558  0.019103589            3 
 2853000     0.784879   -7.8489698    666.70357  0.019473758  0.019097415            1 
 2854000   0.77306118    -7.833518    669.00349  0.019534089  0.019091275            2 
 2855000   0.78146359   -7.8510951    668.99781  0.019527082  0.019085142            3 
 2856000   0.79042857   -7.8656268    669.40549   0.01953214  0.019078995            2 
 2857000    0.7910777   -7.8235811    667.58193  0.019472113  0.019072868            1 
 2858000   0.79941159   -7.8174033    669.46738  0.019520276  0.019066753            2 
 2859000   0.78237855   -7.8046986    670.94694  0.019556574  0.019060653            6 
 2860000   0.79030064   -7.8194043    670.31034  0.019531187  0.019054543            3 
 2861000   0.79047246   -7.8287924    669.93666  0.019513476  0.019048452            2 
 2862000   0.79330832   -7.8558304    669.03884  0.019480516  0.019042336            3 
 2863000   0.78201421   -7.8580836    668.57769  0.019460289  0.019036175            2 
 2864000   0.80211627   -7.8513248    667.46641   0.01942116  0.019030015            1 
 2865000   0.79337662   -7.8411891    668.73499  0.019451279  0.019023868            4 
 2866000   0.77923227   -7.8618362       668.71  0.019443766  0.019017745            2 
 2867000   0.79183753   -7.8495449    670.02707  0.019475266  0.019011631            2 
 2868000   0.79382925   -7.8556744    668.82113  0.019433436  0.019005515            2 
 2869000   0.77202272    -7.859101    668.10594  0.019405889  0.018999381            2 
 2870000   0.81604155   -7.8668835    668.44367  0.019408933  0.018993266            2 
 2871000   0.78985763    -7.849668    669.73162  0.019439557  0.018987146            1 
 2872000   0.76778974   -7.8504573    668.99772  0.019411494  0.018981045            4 
 2873000   0.79194472   -7.8531436    670.28129  0.019441968  0.018974947            1 
 2874000   0.80776172   -7.9148717    669.42326  0.019410324  0.018968853            1 
 2875000   0.78800174   -7.8547215    670.17392  0.019425331  0.018962736            2 
 2876000   0.79101319   -7.8623633    670.90319  0.019439708  0.018956676            9 
 2877000   0.79618585   -7.8521523    671.50355   0.01945034  0.018950593            6 
 2878000   0.79626112   -7.8395116    669.02805  0.019371903  0.018944508            4 
 2879000   0.78312003   -7.8291991     672.0429   0.01945244  0.018938461            2 
 2880000   0.78526334   -7.8829122     670.6204  0.019404526  0.018932384            2 
 2881000   0.79105991   -7.8556286    670.27609  0.019387831  0.018926303            4 
 2882000   0.78183317   -7.8468955    670.89548  0.019399013  0.018920218            2 
 2883000   0.79018505   -7.8623909    669.44344  0.019350313  0.018914134            2 
 2884000   0.76598195   -7.8504236     668.9409  0.019329083  0.018908072            2 
 2885000   0.79348611   -7.8928752     668.0781  0.019297461  0.018902018            5 
 2886000   0.76731672   -7.8737749    670.78306   0.01936888  0.018895924            2 
 2887000   0.77323833   -7.8619172    669.95241  0.019338195  0.018889851            5 
 2888000   0.79311727   -7.8420359    671.01755  0.019362233  0.018883796            1 
 2889000   0.79746905   -7.8526924    669.83359   0.01932138  0.018877749            4 
 2890000   0.79999358   -7.8641415     669.4446  0.019303477  0.018871702            8 
 2891000   0.79268722   -7.8530532    670.63738  0.019331182  0.018865654            2 
 2892000   0.78693178   -7.8938556    671.65097  0.019353705   0.01885962            2 
 2893000    0.7812533   -7.8656911    669.67442   0.01929008  0.018853596            2 
 2894000   0.79909799   -7.8407912    672.41126  0.019362222   0.01884758            2 
 2895000   0.78782433   -7.8758649    670.47949  0.019299928  0.018841567            4 
 2896000   0.79091807   -7.8701555    668.93641  0.019248861  0.018835549            2 
 2897000   0.78645572   -7.8744926    672.08279  0.019332723  0.018829536            5 
 2898000   0.78040832    -7.879164    671.15715  0.019299435  0.018823504            3 
 2899000   0.79595592   -7.8625826    670.90893  0.019285642  0.018817485            2 
 2900000   0.79773278   -7.8499609    672.79163  0.019333093  0.018811467            2 
 2901000   0.77423757   -7.8660473    671.27839   0.01928296   0.01880546            2 
 2902000   0.78103975   -7.8564215    672.04271  0.019298263  0.018799443            3 
 2903000   0.78604148   -7.8821417     671.8224  0.019285291  0.018793427            3 
 2904000   0.80885879   -7.8441173    673.66494  0.019331524  0.018787429            1 
 2905000   0.77009756   -7.8772028    669.73805  0.019212222  0.018781426            3 
 2906000   0.80877704   -7.8594981     672.3123   0.01927943  0.018775422            4 
 2907000   0.79490855   -7.8823147    671.76176  0.019257016  0.018769428            4 
 2908000    0.8011426   -7.8575704     674.2325  0.019321197  0.018763456            2 
 2909000   0.77352837   -7.8569224     672.7535  0.019272187  0.018757469            3 
 2910000   0.79344202   -7.8697807    671.35543  0.019225528  0.018751496            3 
 2911000   0.81294332   -7.8855963    670.62833  0.019198109  0.018745506            2 
 2912000   0.77838031   -7.8544831    672.13747  0.019234703  0.018739506            3 
 2913000   0.77292923   -7.8747217    671.24653  0.019202613  0.018733501            2 
 2914000   0.77829335   -7.8459113    671.82037  0.019212433  0.018727494            2 
 2915000   0.78799375   -7.8627041    670.97016  0.019181537  0.018721475            4 
 2916000    0.7853702   -7.8654036    672.14982  0.019208671  0.018715462            3 
 2917000   0.77215211   -7.9049831    670.66797  0.019159752  0.018709465            4 
 2918000   0.79382552    -7.871424    670.96067  0.019161545  0.018703431            3 
 2919000   0.78459531   -7.8569979    672.41322  0.019196449   0.01869743            4 
 2920000   0.77925503   -7.8691278    670.54944  0.019136685  0.018691424            3 
 2921000   0.78177055   -7.8865244    670.05969  0.019116161  0.018685421            2 
 2922000   0.77104346   -7.8483843    672.86203   0.01918954  0.018679413            3 
 2923000   0.77599833   -7.8721335    671.64804  0.019148365  0.018673435            2 
 2924000   0.77635607   -7.8522044    671.69943  0.019143281  0.018667454            2 
 2925000   0.78282848    -7.868094    671.74472  0.019138026  0.018661478            4 
 2926000   0.78966433   -7.8584112    671.67708  0.019129559  0.018655495            3 
 2927000   0.80480154   -7.8770238    673.56925  0.019176895  0.018649522            3 
 2928000   0.78523404   -7.8545821    673.85858   0.01917858  0.018643591            4 
 2929000   0.78672799    -7.895659    672.91228  0.019145109  0.018637608            2 
 2930000    0.7695553   -7.8767218    671.71515  0.019104526  0.018631649            5 
 2931000   0.79876336   -7.8845057     673.6176  0.019152098  0.018625703            2 
 2932000    0.8062874   -7.8770946    671.53902  0.019086489  0.018619761            5 
 2933000   0.78097035    -7.892609    672.00739  0.019093289  0.018613789            4 
 2934000   0.78463038   -7.9146887    670.60332  0.019046902  0.018607818            2 
 2935000    0.7897821   -7.8926793     672.9655  0.019107482  0.018601838            2 
 2936000    0.7703441   -7.8731385     671.3463  0.019055015  0.018595884            2 
 2937000   0.79524904   -7.8983572    672.46439  0.019080252  0.018589909            2 
 2938000   0.79043215   -7.9074546    672.98708  0.019088583  0.018583937            2 
 2939000   0.77985358   -7.8777723    672.92919  0.019080447  0.018577964            4 
 2940000   0.77610339   -7.8796253    672.90938  0.019073395  0.018571983            3 
 2941000   0.76875318   -7.9104939    670.58232  0.019000972  0.018565985            1 
 2942000   0.77917006   -7.8908571    672.14163  0.019038682  0.018559949            1 
 2943000   0.77614848   -7.9277013     672.2036  0.019033968  0.018553924            2 
 2944000   0.78969139   -7.9170014    672.86642  0.019046264  0.018547912            2 
 2945000   0.77609326   -7.8788884    672.47864  0.019028824  0.018541899            2 
 2946000    0.7751606   -7.8719642    673.11711  0.019040425  0.018535919            4 
 2947000   0.79129614   -7.8799627    672.65216  0.019020817  0.018529951            2 
 2948000   0.76225167   -7.8640239    672.83729  0.019019598  0.018523975            3 
 2949000   0.77055454    -7.867967     672.4187   0.01900132  0.018518022            3 
 2950000    0.7636509   -7.8685925    671.90889  0.018980477  0.018512033            2 
 2951000   0.77854799   -7.8897287    672.40045  0.018987926  0.018506024            4 
 2952000    0.7649257   -7.8780129    671.74734  0.018963057  0.018500061            3 
 2953000   0.77380692   -7.8844228    673.09183  0.018994577   0.01849411            2 
 2954000   0.77377397   -7.8832287    673.37145  0.018996035  0.018488114            3 
 2955000   0.77962672   -7.8648214    673.37156   0.01898961  0.018482159            2 
 2956000   0.76875621   -7.8568644    673.25528  0.018979908  0.018476216            5 
 2957000   0.77460675   -7.8467621    674.32257  0.019003567  0.018470273            2 
 2958000   0.76707173   -7.8893075    672.20408   0.01893746  0.018464344            3 
 2959000   0.76858975   -7.8797633    673.68045  0.018972638  0.018458393            2 
 2960000   0.77356244   -7.8686962    674.11166  0.018978369  0.018452441            1 
 2961000    0.7737696   -7.8929498    674.15336  0.018973133  0.018446488            2 
 2962000   0.78816533   -7.8999596    672.67245  0.018925063  0.018440502            1 
 2963000   0.78263289   -7.8869691    673.71144  0.018947897  0.018434527            2 
 2964000   0.78041407   -7.9136264    671.79428  0.018887603  0.018428549            2 
 2965000   0.77527452   -7.8980416    673.07509  0.018917231    0.0184226            3 
 2966000   0.77646574   -7.8548468    673.09191  0.018911326  0.018416677            6 
 2967000    0.7617831   -7.8965525    673.37317  0.018912852  0.018410759            2 
 2968000   0.77332887   -7.9054958    673.69288  0.018915456  0.018404847            1 
 2969000   0.77644155   -7.8951424    674.65628  0.018936125  0.018398917            1 
 2970000    0.7834456   -7.9275159    673.65689  0.018901709  0.018392955            4 
 2971000   0.76297818   -7.9174789    673.33761  0.018886391  0.018386971            2 
 2972000   0.77872727   -7.9084671    672.52353   0.01885721  0.018380989            5 
 2973000   0.77501583   -7.8872537    673.67139  0.018883042  0.018375034            3 
 2974000   0.77235528   -7.9126659    675.41141  0.018925449  0.018369095            2 
 2975000   0.79555334    -7.899399    673.97409  0.018878826  0.018363186            4 
 2976000   0.77014199   -7.8644892    674.29741  0.018881536  0.018357257            2 
 2977000   0.76152176    -7.906065    673.37683  0.018849424  0.018351341            1 
 2978000   0.76646945   -7.9286293    673.80648  0.018855118  0.018345396            2 
 2979000   0.79239092   -7.8952217     675.6107  0.018899259  0.018339474            3 
 2980000    0.7766067   -7.8813029    674.96746  0.018874929  0.018333576            3 
 2981000   0.77184787   -7.9051548    672.13359  0.018789377  0.018327654            2 
 2982000   0.76411687     -7.91345    673.09834  0.018810036  0.018321721            1 
 2983000   0.75705035     -7.87713    674.43941  0.018841195  0.018315805            4 
 2984000   0.76380839   -7.8992092    674.22029  0.018828761  0.018309898            1 
 2985000   0.76642043   -7.8998724    674.47156  0.018829469  0.018303964           11 
 2986000    0.7753746   -7.9053041    672.76742  0.018775603  0.018298046            4 
 2987000   0.77115537   -7.9020418    673.62299  0.018793187   0.01829212            4 
 2988000   0.76476935    -7.900785    675.07264  0.018827327  0.018286212            1 
 2989000   0.78832497   -7.8908877    675.07871  0.018821198  0.018280339            2 
 2990000   0.78139167   -7.8677038    675.07335  0.018814753  0.018274477            2 
 2991000   0.77058137   -7.8803426    675.73823  0.018826987  0.018268606            2 
 2992000   0.77467801   -7.8892839    675.98296  0.018827511  0.018262704            2 
 2993000   0.76292366   -7.9040779    674.48021   0.01877938  0.018256824            5 
 2994000   0.76660307   -7.8936565    674.70954  0.018779491  0.018250908            1 
 2995000   0.77034629   -7.8879024     674.8975   0.01877845  0.018245019            2 
 2996000    0.7841573   -7.9062451    675.21687  0.018781066   0.01823915            6 
 2997000   0.77813486   -7.8991063    675.04953  0.018770146  0.018233284            2 
 2998000   0.77415281    -7.914004    676.39715  0.018801344  0.018227421            3 
 2999000   0.75523579   -7.8942773    675.19096  0.018761558  0.018221581            5 
 3000000   0.77595094   -7.8822153    676.14231  0.018781731  0.018215754            3 
 3001000   0.77499595   -7.9333128    673.44821  0.018700661  0.018209893            2 
 3002000   0.78109341   -7.9045857    674.33106  0.018718939  0.018204004            2 
 3003000   0.75911421   -7.8928951    674.45248  0.018716075  0.018198118            6 
 3004000   0.78556918   -7.9073719     673.3629  0.018679619  0.018192214            4 
 3005000   0.77497385   -7.9135275    674.16205  0.018695564  0.018186293            2 
 3006000   0.76422648   -7.8875236    675.28573  0.018720496  0.018180381            1 
 3007000   0.80194779   -7.9138327    674.61126  0.018695579  0.018174486            2 
 3008000   0.77448904   -7.9141011     673.4013  0.018655843  0.018168595            1 
 3009000   0.76708607   -7.9121529    675.62833   0.01871132  0.018162701            1 
 3010000   0.78296143   -7.9103688    675.49269  0.018701348  0.018156813            2 
 3011000    0.7708736   -7.9222369    674.77713  0.018675333  0.018150926            4 
 3012000    0.7812311   -7.8937143    674.59002  0.018663956  0.018145048            2 
 3013000    0.7540302   -7.9067073    673.20297  0.018619398  0.018139154            2 
 3014000   0.76844572   -7.9235481    674.72334  0.018655257  0.018133264            5 
 3015000   0.76301175    -7.912237    673.99341  0.018628895  0.018127347            4 
 3016000   0.77016504   -7.9165443    675.40906  0.018661833  0.018121446            2 
 3017000   0.74218698   -7.9051651    673.94414  0.018615185  0.018115567            3 
 3018000   0.78021422   -7.9149312    675.09392  0.018640764  0.018109657            4 
 3019000   0.77206778    -7.947859    673.80309  0.018598959  0.018103739            2 
 3020000   0.75799169   -7.9247871    673.77668  0.018592072  0.018097827            2 
 3021000   0.75698256   -7.9579159    672.93741  0.018562766  0.018091898            3 
 3022000   0.75425853   -7.9007367    674.80459  0.018608112  0.018085979            2 
 3023000   0.76342382   -7.9282125    674.43423  0.018591748  0.018080063            3 
 3024000   0.78815864    -7.933634    675.17164   0.01860592  0.018074155            2 
 3025000   0.77498172   -7.9012082    675.46891  0.018607959  0.018068273            2 
 3026000   0.75328788   -7.9074516    675.33689  0.018598174  0.018062393            2 
 3027000   0.76610026   -7.8947024    675.17829  0.018587664  0.018056538            2 
 3028000   0.77674919   -7.9183036    674.81927  0.018571644   0.01805067            2 
 3029000   0.76267516   -7.9123166    674.03404   0.01854391  0.018044796            2 
 3030000   0.77248242   -7.9124021    675.31217  0.018572942  0.018038928            1 
 3031000    0.7648325   -7.8680675    675.88162  0.018582471  0.018033066            2 
 3032000   0.77867061   -7.8971879    677.47137  0.018620035  0.018027223            2 
 3033000   0.76647249   -7.9038213      674.711  0.018538054   0.01802136            3 
 3034000   0.76131161   -7.9103849    674.99873  0.018539847  0.018015459            2 
 3035000   0.76205045   -7.8941128    675.52505  0.018548189  0.018009588            2 
 3036000   0.78385328    -7.920366    676.10043  0.018557873  0.018003743            2 
 3037000   0.76772946   -7.8956583    674.86386  0.018517832  0.017997893            2 
 3038000   0.74816077   -7.9499964    673.75535   0.01848133  0.017992026            3 
 3039000   0.75786061   -7.9366313    674.02136  0.018482543  0.017986157            3 
 3040000   0.76568053   -7.9233807    675.62527  0.018520429  0.017980295            1 
 3041000   0.76252944   -7.9306459    677.22504  0.018558178  0.017974442            3 
 3042000   0.76578746   -7.9115414    675.15561  0.018495387  0.017968588            2 
 3043000   0.76760898   -7.9376971    674.57004  0.018473273  0.017962746            2 
 3044000   0.76698825   -7.9358931    675.95601  0.018505147  0.017956902            2 
 3045000   0.76844995   -7.9076766    674.83548  0.018468404  0.017951061            2 
 3046000   0.75262645   -7.9198256    675.05965  0.018468474  0.017945214            5 
 3047000   0.75228597   -7.9464391    676.12982  0.018491681  0.017939391            3 
 3048000   0.76624769    -7.907126    675.17003  0.018459373  0.017933576            1 
 3049000   0.75156926   -7.9317581    677.41424  0.018514656  0.017927743            7 
 3050000   0.77681034   -7.9277611    676.24789  0.018476718  0.017921927            2 
 3051000     0.759965   -7.9108874    675.76302  0.018457419  0.017916095            5 
 3052000   0.75967617   -7.9280615    676.96964  0.018484317  0.017910277            2 
 3053000   0.79283828    -7.908463    676.06764  0.018453642  0.017904471            2 
 3054000   0.75015296   -7.9277705    675.95129  0.018444425  0.017898653            3 
 3055000   0.76120049   -7.9132844    676.87172  0.018463495   0.01789285            2 
 3056000   0.76567815    -7.900194    677.06155   0.01846263  0.017887081            3 
 3057000   0.74830542    -7.935033    676.76038   0.01844838  0.017881294            1 
 3058000   0.75619232   -7.9430677    676.02123  0.018422205  0.017875466            2 
 3059000   0.76021036   -7.9378291    676.38239  0.018426021  0.017869661            2 
 3060000   0.77215845   -7.9215745    676.26239  0.018416732  0.017863844            2 
 3061000   0.75407517   -7.9109502    676.35332  0.018413191  0.017858043            3 
 3062000   0.76479887   -7.9572954    676.60788  0.018414105  0.017852218            1 
 3063000    0.7522576   -7.9275853    676.76186  0.018412283  0.017846371            2 
 3064000   0.77335661   -7.9305742     676.1491  0.018389608  0.017840514            1 
 3065000   0.77353046   -7.9467735    675.66953  0.018370569  0.017834663            2 
 3066000   0.76774071   -7.9281652    676.58261  0.018389395  0.017828834            2 
 3067000   0.75960885   -7.9290946    675.87939  0.018364292  0.017822996            2 
 3068000   0.75580573    -7.945129    677.77858  0.018409892  0.017817147            3 
 3069000   0.75770015   -7.9305364    676.62009  0.018372436  0.017811318            2 
 3070000   0.76391381   -7.9459336     677.4031  0.018387706  0.017805479            2 
 3071000   0.76603907   -7.9600297    677.54794  0.018385649   0.01779964            2 
 3072000   0.75406229   -7.9150351    676.80085  0.018359398  0.017793818            2 
 3073000   0.75923699   -7.9226807    676.26277  0.018338832  0.017788007            2 
 3074000    0.7599595   -7.9223942    678.58282  0.018395761   0.01778222            2 
 3075000   0.76539201   -7.9190738    677.66485  0.018364901  0.017776418            1 
 3076000   0.75535022    -7.904559    677.36382  0.018350775  0.017770631            2 
 3077000   0.75815771   -7.9246393    677.87812   0.01835874  0.017764822            1 
 3078000   0.75540835   -7.9567268    677.53066  0.018343369  0.017759014            5 
 3079000   0.75858328   -7.9303449     677.8097  0.018344963    0.0177532            1 
 3080000   0.74880799   -7.9365539    675.94859  0.018288652  0.017747411            2 
 3081000   0.77295861   -7.9582128    676.87115  0.018307669  0.017741617            2 
 3082000   0.76342798   -7.9328434    677.79524  0.018326715  0.017735818            3 
 3083000   0.76330096   -7.9069059     677.4013  0.018310123  0.017730028            4 
 3084000   0.75286315   -7.9391036    676.61654  0.018282981  0.017724241            2 
 3085000    0.7467113   -7.9131035    677.51658  0.018301366  0.017718458            3 
 3086000    0.7630556   -7.9215739     677.1282  0.018284948  0.017712674            6 
 3087000   0.76423179   -7.9429459    676.46373  0.018261087  0.017706899            5 
 3088000   0.74753966   -7.9369874    677.80808  0.018291453  0.017701155            3 
 3089000   0.75796814   -7.9417484    677.44822  0.018275823  0.017695408            2 
 3090000   0.74806235   -7.9338082    677.85592  0.018280904  0.017689648            3 
 3091000   0.76250303   -7.9316934    677.44588  0.018263935  0.017683883            3 
 3092000   0.76427709   -7.9207269    677.53466  0.018260421  0.017678141            2 
 3093000   0.76851068   -7.9427871    676.81542  0.018235139  0.017672389            6 
 3094000   0.75045831   -7.9591957    676.35624  0.018216878  0.017666611            2 
 3095000   0.75195762   -7.9524606    676.86477  0.018224684   0.01766083            4 
 3096000   0.75594678   -7.9381806    676.25097  0.018202276   0.01765505            5 
 3097000   0.75992847   -7.9577141    677.35606  0.018226134  0.017649258            1 
 3098000   0.74950138   -7.9438107    676.30461  0.018191968  0.017643469            3 
 3099000   0.76645294   -7.9242908    678.25192  0.018238462  0.017637683            4 
 3100000   0.74965956   -7.9666436    676.23527  0.018178368  0.017631884            4 
 3101000   0.76751737   -7.9418194    676.63521  0.018183253    0.0176261            3 
 3102000   0.74612857   -7.9545451    675.83818   0.01815598  0.017620334            3 
 3103000   0.75621715   -7.9571623    676.57526  0.018169923  0.017614538            3 
 3104000   0.74875476   -7.9356438    679.35012  0.018238566  0.017608772            4 
 3105000    0.7438418   -7.9591918    677.25232  0.018176391  0.017603016            3 
 3106000   0.75729417   -7.9308165    676.48815  0.018150036  0.017597252            3 
 3107000   0.75973337   -7.9794998    676.68409   0.01814945  0.017591467            2 
 3108000   0.73624079   -7.9663445     676.8555  0.018148206  0.017585696            4 
 3109000   0.77358805   -7.9629184    676.38103  0.018129651  0.017579912            3 
 3110000   0.76264562    -7.970234    676.04256  0.018114752   0.01757412            5 
 3111000   0.74708698   -7.9700468    676.46616  0.018120276  0.017568342            4 
 3112000   0.76624532   -7.9461839    676.93086  0.018126898  0.017562572            3 
 3113000    0.7395278   -7.9527505    678.46369  0.018162108   0.01755678            4 
 3114000   0.73060235   -7.9514863    678.95319  0.018169375  0.017551028            2 
 3115000   0.74711836   -7.9293673     678.5299  0.018152218  0.017545279            2 
 3116000   0.74505255   -7.9600266    678.79771  0.018153555  0.017539521            2 
 3117000   0.74359462   -7.9389582    678.53029  0.018140581  0.017533786            2 
 3118000   0.75314506   -7.9538824    677.11082  0.018096825  0.017528042            8 
 3119000   0.75494497   -7.9385408    678.47651  0.018127512    0.0175223            2 
 3120000   0.74222992   -7.9660078    678.00566  0.018109126   0.01751655            2 
 3121000   0.78496355    -7.956924    677.67038  0.018094371  0.017510786            2 
 3122000   0.76299659   -7.9644947    678.33334  0.018106271  0.017505026            2 
 3123000   0.74673643    -7.944229    677.03959  0.018065951  0.017499285            2 
 3124000   0.76030695   -7.9434282    677.90427  0.018083234  0.017493561            4 
 3125000   0.73375938   -7.9475759    678.51349  0.018093693   0.01748783            2 
 3126000   0.75167873   -7.9233649    678.92184  0.018098791  0.017482106            2 
 3127000   0.75453742   -7.9417871    677.28943    0.0180495  0.017476387            2 
 3128000     0.755506   -7.9545024    677.20543  0.018041492  0.017470648            4 
 3129000   0.75560501   -7.9398602    678.47304  0.018069485  0.017464938            3 
 3130000    0.7486547   -7.9190142    678.17035  0.018055654  0.017459214            3 
 3131000   0.73737567   -7.9475306    678.36667  0.018055112  0.017453507            2 
 3132000   0.75243174   -7.9709935    677.11997  0.018016176  0.017447775            3 
 3133000   0.75426549   -7.9659046    678.92389  0.018058407  0.017442042            3 
 3134000   0.75238612   -7.9434819    677.88738  0.018025084  0.017436297            4 
 3135000   0.73865791   -7.9522202    678.16519  0.018026719  0.017430578            3 
 3136000   0.75057212   -7.9491032    678.04325  0.018017731  0.017424848            2 
 3137000   0.75133496   -7.9299026    677.44582  0.017996117  0.017419133            2 
 3138000   0.76030017   -7.9251097    678.24851  0.018011698  0.017413418            4 
 3139000   0.74340111   -7.9457865    678.36273  0.018008993  0.017407667            5 
 3140000    0.7522194    -7.945737    677.10702  0.017969932  0.017401938            2 
 3141000   0.73833878   -7.9405871    678.59838  0.018003778  0.017396223            3 
 3142000   0.74590664   -7.9367919    679.24279  0.018015139  0.017390504            2 
 3143000   0.75070083   -7.9601833    678.96588  0.018002065  0.017384784            2 
 3144000   0.74765136   -7.9320491    678.63497  0.017987568   0.01737907            1 
 3145000   0.74721465   -7.9385346    680.01634  0.018018451  0.017373339            2 
 3146000   0.75299384   -7.9623203    677.47421  0.017945386  0.017367602            3 
 3147000   0.73705493   -7.9712854    678.32505  0.017962214  0.017361875            2 
 3148000   0.75541196   -7.9815914    678.35829  0.017957388   0.01735614            2 
 3149000   0.74849434   -7.9729208    677.67263  0.017933541  0.017350402            3 
 3150000   0.74735675   -8.0039939    676.55393  0.017898252  0.017344656            5 
 3151000   0.74136614   -7.9740519    676.88832  0.017901415  0.017338931            2 
 3152000   0.74413523   -7.9693006    677.43135  0.017910093  0.017333214            1 
 3153000   0.74165609   -7.9657538    678.47803  0.017932076  0.017327488            1 
 3154000   0.76580066   -7.9713779    678.32668  0.017922392  0.017321754            3 
 3155000   0.74614986   -7.9919034    678.54491  0.017922475  0.017316021            3 
 3156000   0.75820846    -7.972159    676.98208   0.01787553  0.017310259            3 
 3157000   0.72906654   -7.9464153    678.27197  0.017903917  0.017304521            3 
 3158000   0.75574641   -7.9509861    677.45038  0.017876567  0.017298796            2 
 3159000   0.73847089   -7.9985139    675.95812  0.017831543  0.017293047            2 
 3160000   0.73392731   -7.9734426    677.64352  0.017870346  0.017287318            1 
 3161000   0.74452793   -7.9831725    677.57562  0.017862903   0.01728159            3 
 3162000   0.75353009   -8.0011179    678.02413  0.017869074  0.017275846            2 
 3163000   0.73261402   -7.9719129    678.31507  0.017871089   0.01727013            3 
 3164000   0.73740267   -7.9734698    678.51609  0.017870736  0.017264434            1 
 3165000   0.74445435   -7.9944625    678.77345  0.017871866  0.017258743            3 
 3166000   0.74596794   -7.9628375    677.32104  0.017827991  0.017253038            2 
 3167000   0.73115169   -7.9964416    677.96449  0.017839293  0.017247342            1 
 3168000   0.75830066   -7.9608156    678.85513   0.01785709   0.01724163            2 
 3169000   0.74279635   -7.9772079    678.31218  0.017837177  0.017235934            3 
 3170000   0.75001217   -7.9702206    677.87569  0.017820076  0.017230234            3 
 3171000    0.7489724   -8.0017037     677.2521  0.017798068  0.017224536            2 
 3172000   0.75371933   -7.9844153    677.96618  0.017811217  0.017218839            4 
 3173000   0.73990255   -7.9964273      677.415  0.017791128  0.017213124            3 
 3174000   0.74335517   -7.9651562    677.17602  0.017779249  0.017207415            4 
 3175000   0.73130808   -7.9805825    677.43372  0.017780413  0.017201743            3 
 3176000   0.73546565   -7.9824611    677.83934  0.017785457  0.017196066            2 
 3177000   0.75436843   -7.9690788    677.46339  0.017769998  0.017190377            3 
 3178000   0.74397741   -8.0071782     678.9683  0.017803868  0.017184695            3 
 3179000   0.74321097   -7.9957738    679.24489  0.017805518  0.017178999            2 
 3180000   0.73503913   -7.9892738    676.81451  0.017736229  0.017173302            1 
 3181000   0.73860127   -7.9569646    678.26564  0.017768669  0.017167589            3 
 3182000   0.74137168   -7.9605866    679.36431  0.017791858  0.017161897            1 
 3183000   0.75224672   -7.9586255    678.19439  0.017755639  0.017156215            3 
 3184000    0.7398569   -7.9896121    677.58747  0.017734178  0.017150535            2 
 3185000   0.74010485   -8.0027979    678.76692  0.017759469   0.01714486            3 
 3186000   0.75628082   -8.0168228    677.16289   0.01771194   0.01713915            3 
 3187000   0.73668307   -8.0125664    678.46198  0.017740351  0.017133443            5 
 3188000   0.71621493   -7.9711833    677.66584  0.017713975  0.017127769            5 
 3189000    0.7413962   -7.9839175     678.9587  0.017742205  0.017122097            3 
 3190000   0.74893155   -7.9820093    677.14916  0.017689372  0.017116424            7 
 3191000   0.73057815   -7.9924154    677.61491  0.017695991   0.01711075            3 
 3192000    0.7248822   -8.0253122    678.70634  0.017718942  0.017105077            3 
 3193000   0.73950605   -7.9698105    677.77773  0.017689157  0.017099395            2 
 3194000   0.74154875   -7.9930211    678.70902  0.017707917  0.017093703            2 
 3195000   0.75228648   -7.9868216    678.88669  0.017707008  0.017088016            3 
 3196000   0.74105816   -8.0166341    678.22648  0.017684253  0.017082311            2 
 3197000   0.74291915   -7.9705591    677.11965  0.017649871  0.017076625            2 
 3198000   0.73661056   -7.9915363     678.5835  0.017682497   0.01707093            2 
 3199000   0.74391083   -8.0005009    677.05726  0.017637211  0.017065235            3 
 3200000   0.73744204   -7.9717077    678.01585  0.017656663  0.017059562            6 
 3201000   0.74548292    -7.995177    677.95784  0.017649637  0.017053875            2 
 3202000   0.74828816   -7.9621748    679.57772  0.017686283  0.017048179            1 
 3203000   0.74924261   -7.9844935    679.26412  0.017672602  0.017042498            2 
 3204000   0.75186067   -7.9789638    678.88336  0.017657183  0.017036815            2 
 3205000   0.74660386   -7.9838473    677.72902  0.017621659  0.017031127            3 
 3206000   0.75430148   -7.9825744    679.47019  0.017661421  0.017025454            2 
 3207000   0.72386673   -7.9704044    677.71443  0.017610291   0.01701977            4 
 3208000   0.73780184    -8.007493    677.53508  0.017600142  0.017014078            4 
 3209000   0.72912352     -7.98034    678.30659  0.017614693  0.017008385            7 
 3210000    0.7514202   -7.9938716    676.96838  0.017574465  0.017002676            3 
 3211000    0.7413328     -7.98345    677.50576  0.017582938  0.016996973            2 
 3212000   0.72598959    -7.988633    677.80244  0.017585161  0.016991263            1 
 3213000    0.7304296   -7.9993253    678.77604  0.017604939  0.016985562            3 
 3214000   0.73611854   -7.9830061    676.50884  0.017540677  0.016979875            5 
 3215000   0.72744872   -7.9896994     678.8356  0.017595531  0.016974175            2 
 3216000   0.74002029   -8.0198358    677.87069  0.017565057  0.016968474            2 
 3217000    0.7230935   -7.9703307    678.59896  0.017578462  0.016962791            2 
 3218000   0.73241756   -7.9827135    678.48006  0.017569921  0.016957101            1 
 3219000   0.74025488   -8.0130063    677.69266  0.017544078  0.016951408            2 
 3220000   0.73205791   -8.0086778    677.29302  0.017528287    0.0169457            2 
 3221000   0.73482207   -7.9886713    678.06683  0.017542865  0.016940003            3 
 3222000   0.74305003   -7.9838082    678.28812  0.017543144  0.016934322            6 
 3223000    0.7383427    -7.975728    677.28149  0.017511674  0.016928619            2 
 3224000   0.75102534   -7.9972352    678.14506  0.017528563  0.016922924            2 
 3225000   0.73634997   -8.0019759    678.41563   0.01753012  0.016917233            2 
 3226000   0.73808308   -7.9842515    678.34302   0.01752281  0.016911539            2 
 3227000   0.73528556   -8.0083094    676.73033  0.017475734  0.016905851            4 
 3228000   0.72781483   -8.0087141    678.30123  0.017510874  0.016900183            2 
 3229000   0.74137005   -7.9995874    677.02758  0.017472581  0.016894522            1 
 3230000   0.72902709   -8.0434079    676.60413  0.017456247   0.01688886            9 
 3231000   0.72438318   -7.9979068    678.56109  0.017501318  0.016883197            2 
 3232000   0.73500655   -8.0092977    679.22258  0.017512959  0.016877568            5 
 3233000   0.74056921   -8.0162408    680.30353  0.017535404  0.016871937            2 
 3234000   0.73078299   -7.9580814     679.6686  0.017513621  0.016866313            3 
 3235000   0.74374859   -7.9762254    679.59765  0.017506379  0.016860696            2 
 3236000   0.71786209   -7.9995852    679.12149  0.017488707  0.016855082            3 
 3237000   0.73978365   -7.9799059    679.65891   0.01749714  0.016849472            5 
 3238000   0.73647116   -7.9708769     678.2078  0.017454391  0.016843867            3 
 3239000   0.73797944   -7.9812159    679.59513  0.017484695  0.016838274            3 
 3240000   0.73843476   -7.9738536    678.37645  0.017447954  0.016832667            4 
 3241000   0.73209053   -8.0005722    679.56897  0.017473233  0.016827066            4 
 3242000   0.72824313   -8.0018162    680.98258  0.017504179  0.016821466            2 
 3243000   0.72162327   -7.9798862    679.39455  0.017457975   0.01681588            2 
 3244000   0.74208445    -8.007012    679.26436  0.017449249  0.016810306            2 
 3245000    0.7295876   -7.9987996    679.69945  0.017455045  0.016804704            1 
 3246000   0.73119504   -7.9997579    678.31128  0.017414029  0.016799113            2 
 3247000   0.73733617   -8.0062526    678.71545  0.017419039  0.016793511            1 
 3248000   0.73196675    -8.011005    678.56321   0.01740977  0.016787899            1 
 3249000   0.73080986   -7.9775205    679.19972  0.017420738  0.016782292            2 
 3250000   0.72392419   -8.0203591    678.71015  0.017402824  0.016776675            1 
 3251000   0.73848358   -8.0209344     679.1675  0.017409195  0.016771083            2 
 3252000   0.72967688   -8.0002812    680.25984  0.017431833  0.016765465            2 
 3253000   0.73315056   -7.9958585    679.52768  0.017407718  0.016759862            2 
 3254000   0.72296078   -7.9930518    679.97827  0.017413908  0.016754259            3 
 3255000   0.73464034   -8.0074413    677.71436  0.017350598  0.016748665            2 
 3256000   0.73287698   -8.0479025    678.61068  0.017368209  0.016743051            2 
 3257000   0.72452311   -8.0111016    678.34325  0.017356034  0.016737435            3 
 3258000    0.7301014    -8.002029     679.3448  0.017376325  0.016731826            3 
 3259000   0.74007973   -8.0207701    677.19352  0.017315984  0.016726213            2 
 3260000   0.73097897   -8.0310628    678.51292    0.0173444   0.01672059            2 
 3261000   0.74282789   -8.0153831    678.93439  0.017349852  0.016714989            2 
 3262000   0.72576747   -8.0199829     678.0189  0.017321145  0.016709399            2 
 3263000   0.72865301   -8.0164465    679.65109  0.017357521  0.016703804            5 
 3264000   0.74359001   -8.0201726    679.67534  0.017352822  0.016698209            3 
 3265000   0.73753317   -8.0061622     680.3597  0.017364974  0.016692621            4 
 3266000   0.70825061   -8.0392053    679.38117   0.01733469  0.016687051            3 
 3267000    0.7278763   -7.9953034    679.55447  0.017333804  0.016681452            3 
 3268000   0.72995661   -8.0027919    679.31343  0.017322354   0.01667587            2 
 3269000   0.72810552   -8.0114632    678.69928  0.017301399  0.016670276            2 
 3270000   0.71241626   -7.9996838    679.30449  0.017311531  0.016664693            2 
 3271000   0.73911216   -8.0185731    679.15217  0.017302358  0.016659132            3 
 3272000   0.73258726   -8.0065645     679.1015   0.01729578   0.01665355            5 
 3273000   0.72406746   -7.9953777    679.37849  0.017297548  0.016647982            2 
 3274000   0.73675032   -7.9853914    679.41408   0.01729317  0.016642411            2 
 3275000   0.73750695   -8.0103387    679.68475  0.017294777  0.016636857            3 
 3276000   0.71897712   -8.0313903    680.38193  0.017307233  0.016631286            3 
 3277000   0.72929506   -8.0075875    680.05541  0.017293648   0.01662573            2 
 3278000   0.73563099   -7.9772865    679.35259  0.017270505   0.01662019            5 
 3279000     0.723282   -8.0061427     679.5556  0.017270397  0.016614654            2 
 3280000   0.72901076   -7.9708652    680.18077  0.017281015  0.016609117            2 
 3281000   0.72242205   -7.9886065    680.59809  0.017286348  0.016603587            2 
 3282000   0.73230613   -8.0014224    681.12539   0.01729447  0.016598074            2 
 3283000   0.70775511   -7.9986746    679.77785  0.017254997  0.016592559            2 
 3284000   0.72345613   -8.0054178    678.91358  0.017227811  0.016587037            1 
 3285000   0.72731781   -7.9862382    681.14415  0.017279151  0.016581519            2 
 3286000   0.73247446    -8.016911    680.22948  0.017250697  0.016576001            2 
 3287000   0.73734549    -8.002625    680.01374  0.017239979  0.016570478            3 
 3288000   0.72386442   -8.0358057    679.29352  0.017216482  0.016564959            2 
 3289000   0.73089695   -8.0254482    679.25743  0.017210333  0.016559449            2 
 3290000   0.71914662   -8.0082396    680.27767  0.017230944  0.016553927            2 
 3291000   0.72769457   -8.0229955    680.87894  0.017240933  0.016548422            2 
 3292000   0.72850349   -8.0184408    679.10433  0.017190774  0.016542894            3 
 3293000   0.71202896   -8.0309953     678.9144  0.017180747  0.016537357            5 
 3294000   0.71851949   -8.0450372    678.74755   0.01717131  0.016531813            2 
 3295000   0.72801176   -8.0169894     679.1157   0.01717541  0.016526254            4 
 3296000   0.71725611   -8.0553052    678.77366  0.017161551  0.016520702            3 
 3297000   0.74274839   -8.0399826     679.9994  0.017187327  0.016515143            4 
 3298000   0.71332944    -8.038741    678.90844  0.017154549  0.016509603            2 
 3299000   0.73679779   -8.0445058    680.90174    0.0171997   0.01650408            2 
 3300000   0.71085027   -8.0117702    680.18295  0.017176337  0.016498566            4 
 3301000    0.7291619   -8.0349232    679.81044   0.01716173  0.016493028            4 
 3302000   0.72165034   -8.0504813     680.3805  0.017170919  0.016487504            3 
 3303000   0.71713334   -8.0551899    678.79579  0.017125739  0.016481977            4 
 3304000   0.71715735   -8.0408894    679.35918  0.017134766  0.016476445            2 
 3305000   0.73379608   -8.0225748    680.05198  0.017147049  0.016470935            3 
 3306000   0.72014904    -8.049131    678.90289  0.017112898  0.016465432            2 
 3307000   0.73503192   -8.0294139    679.79513  0.017130207  0.016459926            2 
 3308000   0.72474614   -8.0339991    681.24846   0.01716164  0.016454429            3 
 3309000   0.72311228   -8.0397419    681.29318   0.01715758  0.016448949            1 
 3310000   0.72476822   -8.0522167    680.77672  0.017139394  0.016443461            2 
 3311000   0.70884502   -8.0611623    680.77123  0.017134079  0.016437965            3 
 3312000   0.72075886   -8.0714123    679.63986  0.017100439  0.016432485            3 
 3313000   0.70011115   -8.0351209    681.26012  0.017136033  0.016427006            1 
 3314000   0.71240942   -8.0212258    681.33041  0.017132629  0.016421553            4 
 3315000   0.72618862    -8.024569    680.03519  0.017094902  0.016416104            2 
 3316000   0.73257837   -8.0356624    680.17091  0.017093157   0.01641065            5 
 3317000   0.71721054   -8.0266262    680.34138  0.017092287  0.016405199            2 
 3318000   0.69908319    -7.986147    682.38161  0.017138377  0.016399764            3 
 3319000   0.71771757   -8.0347445    681.81602  0.017119012  0.016394343            1 
 3320000   0.72544364   -8.0315541    681.47003  0.017105171  0.016388896            3 
 3321000   0.72449784   -8.0377802    680.65747  0.017079631  0.016383441            2 
 3322000   0.71686228   -8.0324799    680.45836  0.017069495  0.016377982            2 
 3323000    0.7169209   -8.0173591    681.57756  0.017092426  0.016372535            2 
 3324000   0.72386036   -8.0343409    681.31288  0.017080648  0.016367084            3 
 3325000   0.72702361   -8.0444432    680.79178  0.017062451  0.016361624            3 
 3326000   0.70634815   -8.0449488    681.39065  0.017072325   0.01635617            5 
 3327000   0.71297735   -8.0410139    680.38345  0.017041966  0.016350709            7 
 3328000   0.70824252   -8.0435846    679.80058   0.01702225  0.016345261            2 
 3329000   0.72287648   -8.0394101    680.30005   0.01702964  0.016339796            2 
 3330000   0.71248058   -7.9990742    681.55171  0.017055849  0.016334347            2 
 3331000   0.71613896   -8.0475216    680.69383  0.017029266  0.016328899            2 
 3332000   0.71612996   -8.0329884    680.79613  0.017026714  0.016323431            3 
 3333000   0.72048988   -8.0550929    680.59117  0.017016481  0.016317973            3 
 3334000   0.70824796   -8.0240109    680.55129   0.01701038   0.01631252            2 
 3335000   0.70411912   -8.0126977    681.98027  0.017040986  0.016307098            2 
 3336000   0.70934145   -8.0275985    681.06725  0.017013071  0.016301669            7 
 3337000   0.72326004   -8.0406762    680.23234  0.016987123  0.016296231            4 
 3338000   0.71997752    -8.063797    679.01936  0.016951752  0.016290792            5 
 3339000   0.71202804   -8.0377669    681.51781   0.01700903  0.016285367            8 
 3340000   0.73624672   -8.0337068    682.48792  0.017028142  0.016279937            5 
 3341000     0.719157   -8.0284814    681.94078  0.017009398  0.016274521            3 
 3342000   0.71977658   -8.0471696    681.39909  0.016990801  0.016269109            2 
 3343000   0.71058919    -8.027053    680.68152  0.016967831  0.016263696            2 
 3344000   0.70579103   -8.0155864    679.92324  0.016943861  0.016258275            2 
 3345000   0.70049567   -8.0476262    680.78945  0.016960375  0.016252887            3 
 3346000    0.7171101   -8.0266183    680.46599   0.01694725  0.016247482            1 
 3347000   0.70696538   -8.0413472    681.43814  0.016966391  0.016242074            2 
 3348000   0.70664214   -8.0445702    681.33446  0.016958743  0.016236666            3 
 3349000   0.72424209   -8.0438974    681.28867   0.01695254  0.016231263            2 
 3350000   0.69576899   -8.0411945     681.3429  0.016948828  0.016225872            2 
 3351000   0.70105032   -8.0171553    680.41276  0.016920639  0.016220484            3 
 3352000   0.71098397   -8.0092865    681.57588  0.016944508  0.016215113            3 
 3353000   0.70678939   -8.0151712    680.47439  0.016912079  0.016209737            6 
 3354000   0.71885282   -8.0532398    682.53476  0.016958228   0.01620435            2 
 3355000   0.72128311   -8.0431205    682.07363   0.01694172  0.016198969            3 
 3356000   0.71012117   -8.0271443    680.44268  0.016896173    0.0161936            5 
 3357000   0.70417787   -8.0204398    681.60581  0.016920013  0.016188235            2 
 3358000   0.71243808   -8.0191217     681.7499   0.01691855  0.016182859            2 
 3359000   0.69970125    -8.016962    681.80041  0.016914767  0.016177471            3 
 3360000   0.70963018    -8.037691    681.29601  0.016897223  0.016172079            2 
 3361000   0.73653766    -8.043164    681.38522  0.016894407    0.0161667            1 
 3362000   0.71693374   -8.0222621    681.12721  0.016882987  0.016161314            1 
 3363000    0.7214127   -8.0526251    680.67054   0.01686665  0.016155908            2 
 3364000   0.71832657   -8.0402304    682.05671  0.016895975  0.016150506            2 
 3365000   0.71937152   -8.0461589     680.5935  0.016854718  0.016145108            1 
 3366000   0.71725168   -8.0617357    680.72999  0.016853089  0.016139705            3 
 3367000   0.72412468   -8.0938606    680.88208  0.016851848  0.016134284            2 
 3368000    0.7131284   -8.0528874    682.00661  0.016874669  0.016128879            3 
 3369000   0.72445832   -8.0621056    680.81265  0.016840127  0.016123498            3 
 3370000    0.7174216   -8.0881525     680.7329  0.016833158  0.016118099            2 
 3371000   0.72349495   -8.0805705    682.40531  0.016869507  0.016112709            2 
 3372000   0.71012343   -8.0412308      681.108  0.016832444  0.016107341            2 
 3373000   0.71781354   -8.0599277     681.0054  0.016824918  0.016101962            1 
 3374000   0.70766261   -8.0350992    682.77391  0.016863612  0.016096587            2 
 3375000   0.70842782   -8.0551238     683.1989  0.016869109  0.016091214            2 
 3376000   0.71486079   -8.0430163    681.61833  0.016825097  0.016085849            1 
 3377000    0.7017821   -8.0325278     680.2209  0.016785631  0.016080483            1 
 3378000   0.72711743   -8.0662761      681.734  0.016817989  0.016075123            7 
 3379000   0.70263744   -8.0660017    683.07155  0.016845999  0.016069745            3 
 3380000   0.72094634    -8.074629     680.8559  0.016786388  0.016064362            2 
 3381000   0.70592756   -8.0551759    682.04154  0.016810646   0.01605898            2 
 3382000   0.70312068   -8.0759137    682.35888  0.016813495  0.016053591            1 
 3383000   0.73065234    -8.076483    681.81663  0.016795168  0.016048209            2 
 3384000   0.71228738   -8.0796773    680.80842  0.016765377  0.016042814            1 
 3385000   0.71593448   -8.0777322    680.63102  0.016756057  0.016037426            1 
 3386000   0.71989014   -8.0669556    681.25278   0.01676641  0.016032058            5 
 3387000   0.71181647   -8.0728261    682.02309  0.016780413  0.016026687            2 
 3388000   0.70604875   -8.0606381    680.50446  0.016738107  0.016021309            1 
 3389000   0.71175455   -8.0908229    681.29225  0.016752539  0.016015947            1 
 3390000   0.70495434   -8.0715331    680.90961  0.016738191   0.01601058            2 
 3391000   0.70790024   -8.0524882    680.22743   0.01671649  0.016005201            2 
 3392000   0.70766706   -8.0850492    680.66356  0.016722277  0.015999832            4 
 3393000   0.69684882    -8.054431    682.16089  0.016754124  0.015994466           11 
 3394000   0.70049643   -8.0858386    680.18364  0.016700639  0.015989111            3 
 3395000   0.69791002   -8.0801016    681.51674  0.016728442  0.015983747            2 
 3396000   0.70732137    -8.082235    682.67304   0.01675189  0.015978393            4 
 3397000   0.71725488   -8.0703657    680.28037  0.016688263   0.01597303            5 
 3398000   0.70549594   -8.0560941    681.28589  0.016708012  0.015967685            3 
 3399000   0.70391617    -8.037896    680.89445  0.016693499  0.015962337            2 
 3400000   0.69780953   -8.0861114    681.45194  0.016702253  0.015957006            2 
 3401000   0.70463444   -8.0607293    682.05305  0.016712071  0.015951665            2 
 3402000   0.71207538   -8.0737134    680.76947  0.016675717  0.015946333            1 
 3403000   0.70794678   -8.0405032    683.50052  0.016737695   0.01594101            3 
 3404000   0.71796132   -8.0590762     682.4586  0.016707271  0.015935685            2 
 3405000   0.70536866   -8.0486989    682.14852  0.016694775  0.015930362            5 
 3406000   0.69126979    -8.046058    682.13613  0.016689571  0.015925037            3 
 3407000   0.70719281   -8.0561302    681.35588  0.016665587  0.015919709            5 
 3408000   0.71316039     -8.08161    681.03253  0.016652791   0.01591438            3 
 3409000   0.70949497   -8.0753865    682.98683  0.016695679  0.015909046            2 
 3410000    0.7031594   -8.0683206    681.69208  0.016659142  0.015903714            4 
 3411000   0.72482658   -8.0752281     682.0216  0.016662308  0.015898384            2 
 3412000   0.70339026   -8.0711379    680.71031  0.016625398  0.015893061            2 
 3413000   0.70386193   -8.0815656    681.50476  0.016639925  0.015887731            2 
 3414000   0.70953861   -8.0706516    682.07175  0.016648891   0.01588239            2 
 3415000   0.70506983   -8.0881463    680.89771  0.016615366   0.01587705            3 
 3416000   0.70592288   -8.0612653     681.2041  0.016617977  0.015871726            2 
 3417000   0.71266896    -8.076484    681.61863  0.016623223  0.015866411            2 
 3418000   0.70686877   -8.0778009    680.73158  0.016596733  0.015861072            1 
 3419000   0.71606148   -8.1001725    681.38859  0.016607892  0.015855743            2 
 3420000    0.7146953   -8.0987632    681.85653  0.016614438  0.015850422            6 
 3421000   0.69581905   -8.1033131    680.37449   0.01657348  0.015845091            4 
 3422000   0.69722367   -8.0759602    681.69798  0.016600866  0.015839771            3 
 3423000   0.70604711   -8.0734764    681.39222  0.016588573   0.01583447            1 
 3424000   0.69789715   -8.0792257    682.90581  0.016620566  0.015829156            3 
 3425000   0.70140263   -8.0962126    682.04954  0.016594879  0.015823846            4 
 3426000   0.70286626   -8.0743352    681.71137   0.01658181  0.015818532            3 
 3427000   0.69418186   -8.1025795    681.86717   0.01658076  0.015813225            2 
 3428000   0.69783967   -8.1111651    680.93937  0.016553369  0.015807921            3 
 3429000   0.70611519   -8.0962719    682.10563  0.016576884  0.015802624            2 
 3430000    0.6957596    -8.071626    682.30179  0.016576817  0.015797319            3 
 3431000   0.69154677   -8.1049725    680.63537  0.016531511  0.015792022            2 
 3432000   0.69893424   -8.1002468    681.21774  0.016540835  0.015786719            2 
 3433000   0.70279715   -8.1145445    682.11155  0.016557713  0.015781407            8 
 3434000   0.70139458   -8.0857505    681.14027  0.016529321  0.015776086            1 
 3435000   0.69227492   -8.0968031    680.26643   0.01650331  0.015770772            2 
 3436000   0.71295465   -8.1087905    680.99353  0.016516141  0.015765462            5 
 3437000   0.70048874   -8.0768555    680.86085  0.016508119  0.015760152            2 
 3438000   0.70469054   -8.0908427    681.19814  0.016511493  0.015754853            2 
 3439000   0.70208926    -8.072598    681.51109  0.016514275  0.015749548            2 
 3440000   0.70177607   -8.0742691    681.54298  0.016510247  0.015744256            2 
 3441000   0.71460991   -8.0959407    680.63578  0.016483478  0.015738961            2 
 3442000    0.6989817   -8.1137203    682.18908  0.016516296   0.01573367            1 
 3443000   0.70535824   -8.0904522    680.80246  0.016477937  0.015728379            3 
 3444000   0.70126854     -8.11103    678.68787  0.016421987  0.015723101            2 
 3445000    0.6941832   -8.1093946    679.84095  0.016445112  0.015717798            3 
 3446000   0.67100411   -8.1053358    681.44304  0.016479083  0.015712508            4 
 3447000   0.68630636   -8.0830366    681.47741  0.016475133  0.015707222            2 
 3448000   0.70631326   -8.1241039    681.54359  0.016471954  0.015701936            2 
 3449000   0.70096401   -8.0771342    681.85715  0.016474755  0.015696651            4 
 3450000   0.70783815   -8.0986939    681.51592  0.016461737  0.015691362            2 
 3451000   0.70410664   -8.0873571    681.40996  0.016454408  0.015686072            2 
 3452000   0.70315712    -8.111293    682.47554  0.016475365  0.015680782            3 
 3453000   0.69392111   -8.0930091    681.19981  0.016439806  0.015675496            3 
 3454000   0.70949972   -8.0959204    681.29145  0.016437257  0.015670198            2 
 3455000   0.70959773   -8.0891165    681.47239  0.016436864  0.015664911            3 
 3456000   0.70742262   -8.1182646    680.25894  0.016402849  0.015659616            3 
 3457000   0.69723455    -8.105227    681.58723  0.016430123  0.015654319            2 
 3458000   0.69925193   -8.1004337    681.04175  0.016412227  0.015649037            5 
 3459000   0.68817215   -8.1129137    681.81905  0.016426208  0.015643746            7 
 3460000   0.68924349   -8.1124663    681.34118  0.016409951  0.015638456            2 
 3461000   0.68612087   -8.0989307    680.97935  0.016396498  0.015633178            2 
 3462000   0.69478412   -8.1106962    680.57472  0.016382022  0.015627906            7 
 3463000   0.69545292   -8.1261325    681.73086  0.016405113  0.015622623            5 
 3464000   0.66609597   -8.1048542     682.0259  0.016407475  0.015617348            5 
 3465000   0.68738192   -8.1058318    682.01791  0.016402547   0.01561209            2 
 3466000   0.68243887   -8.1057144    680.94944  0.016372125  0.015606817            3 
 3467000    0.7027364   -8.1011965    681.89985  0.016390247  0.015601554            4 
 3468000   0.71421078   -8.1088978    682.29654  0.016395053  0.015596298            3 
 3469000   0.70752548   -8.1065372     682.0522  0.016384458  0.015591043            5 
 3470000   0.69299773   -8.0800138    681.31599  0.016362055  0.015585805            4 
 3471000   0.68875346   -8.0974294    682.20855  0.016378771  0.015580554            4 
 3472000   0.70750706    -8.121104    682.12098  0.016371951  0.015575285            3 
 3473000    0.6931733    -8.131206    680.64775  0.016331888  0.015570021            8 
 3474000   0.71478972   -8.1096658    682.61651  0.016374413  0.015564756            3 
 3475000   0.70392702   -8.1041326    681.94218   0.01635353  0.015559485            4 
 3476000   0.69006156     -8.11253    680.65328  0.016317925  0.015554211            5 
 3477000    0.6847023   -8.1053265    681.58134  0.016335474  0.015548938            3 
 3478000   0.68474065   -8.1169968    681.24533  0.016322727  0.015543674            3 
 3479000   0.69192849   -8.0904308    682.13032  0.016339234  0.015538415            3 
 3480000   0.70164871    -8.102175    682.66164  0.016347262  0.015533161            3 
 3481000   0.70422378   -8.1077865    680.68456  0.016295235  0.015527914            4 
 3482000   0.69399115   -8.1080231    681.22989  0.016303606  0.015522662            4 
 3483000   0.70251545   -8.1061242     680.9639  0.016292561  0.015517409            3 
 3484000   0.68640896   -8.1012951    680.96805  0.016287984  0.015512165            2 
 3485000   0.70083866   -8.1261781    681.50439  0.016296136  0.015506933            4 
 3486000   0.68756468   -8.1132323    680.85024  0.016275823   0.01550168            1 
 3487000   0.67864136   -8.1152233     681.2197  0.016279985  0.015496432            3 
 3488000   0.70246861   -8.1100493    680.51154  0.016258399  0.015491182            4 
 3489000   0.68954143   -8.1294849    681.06151  0.016266875   0.01548593            1 
 3490000   0.70258551   -8.1200789    681.17937  0.016265028  0.015480665            2 
 3491000   0.69211551   -8.1262639    681.02406  0.016256661  0.015475397            3 
 3492000   0.70060355    -8.116068    681.49925  0.016263346  0.015470152            2 
 3493000   0.69038691   -8.1178356    680.20618  0.016227841  0.015464895            2 
 3494000   0.67797206   -8.1035544    681.08125  0.016244067  0.015459644            3 
 3495000   0.69146411   -8.1170097    681.94742  0.016260072  0.015454401            2 
 3496000   0.69330641     -8.12076    680.99435  0.016232703  0.015449171            3 
 3497000   0.70249893   -8.1216032     681.4574  0.016239095  0.015443939            4 
 3498000   0.70423153   -8.1137873    681.82932  0.016243313  0.015438711            3 
 3499000   0.69989885   -8.1106557    681.77982  0.016237492  0.015433474            3 
 3500000   0.68054488   -8.1221886    682.29347  0.016245083  0.015428232            6 
 3501000   0.70029078   -8.1121219    680.50365   0.01619784     0.015423            1 
 3502000   0.68166367   -8.1211216    681.19113  0.016209574   0.01541777            3 
 3503000   0.68379019   -8.1413641    681.75543  0.016218371  0.015412541            4 
 3504000   0.68354217   -8.1163292    680.93351  0.016194195  0.015407303            5 
 3505000   0.69955637   -8.0874523    681.44217  0.016201668  0.015402081            3 
 3506000   0.68801826   -8.1112125     681.8337  0.016206353   0.01539687            3 
 3507000   0.69252455   -8.0927824    682.70506  0.016222438  0.015391663            2 
 3508000   0.68569627   -8.1058582    679.89685  0.016151104  0.015386468            5 
 3509000   0.69268549   -8.0964537    682.09205  0.016198633  0.015381272            4 
 3510000   0.69138909   -8.0963307    681.30297  0.016175284  0.015376073            5 
 3511000   0.68448191    -8.111097    682.35638   0.01619568  0.015370872            3 
 3512000   0.69628668   -8.1124447    681.20562  0.016163763  0.015365661            3 
 3513000    0.6930733   -8.1079046    681.51603  0.016166525  0.015360456            2 
 3514000   0.69378112   -8.1227205    680.59789  0.016140151   0.01535525            1 
 3515000   0.65804853   -8.1247882    681.17289  0.016149191  0.015350036            3 
 3516000   0.67624451   -8.0978972    682.88944  0.016185283  0.015344834            2 
 3517000    0.6844183   -8.1162126    681.62551  0.016150732  0.015339617            3 
 3518000   0.70716394   -8.1074783    680.54201  0.016120476  0.015334407            2 
 3519000   0.69284982   -8.1307209    680.66737  0.016118864  0.015329188            2 
 3520000   0.68607778   -8.1156613    681.27373  0.016128639  0.015323979            4 
 3521000   0.68468462   -8.1129993    681.29679  0.016124604   0.01531876            2 
 3522000   0.68199061   -8.1032832    680.95344  0.016111902  0.015313551            1 
 3523000   0.69289648   -8.1206597    680.92682  0.016106699  0.015308341            3 
 3524000   0.69045858   -8.1244024    681.73119   0.01612115  0.015303133            5 
 3525000   0.68150355   -8.1182898     682.0013  0.016122962  0.015297929            2 
 3526000   0.69366651   -8.1252477    681.83465  0.016114451   0.01529272            3 
 3527000   0.70046311   -8.1325331    680.54753  0.016079471  0.015287509            2 
 3528000    0.6671738   -8.1343132    682.22046  0.016114429  0.015282322            4 
 3529000   0.69650041   -8.1076483    682.26291  0.016110865  0.015277121            4 
 3530000   0.68977955   -8.1054853    681.82794  0.016096033   0.01527192            3 
 3531000   0.68814365   -8.1243386    680.74744  0.016065974  0.015266729            3 
 3532000   0.70062725   -8.1232988    680.79817  0.016062622   0.01526154            3 
 3533000   0.68945556    -8.135978     681.0573  0.016064188  0.015256335            2 
 3534000    0.6971368   -8.1689946    681.01924  0.016058745  0.015251131            3 
 3535000   0.66254907   -8.1454286      681.739  0.016071169  0.015245934            2 
 3536000    0.6923591   -8.1193357    680.55379  0.016038692  0.015240734            3 
 3537000   0.69696027   -8.1532767    679.54178  0.016010314  0.015235532            2 
 3538000   0.68391796   -8.1489785    680.65796  0.016032079  0.015230338            4 
 3539000   0.68084077   -8.1284993     681.8667  0.016056012  0.015225151            2 
 3540000   0.67666885   -8.1368586    681.06816  0.016032678  0.015219965            1 
 3541000   0.67910398   -8.1555394    680.55757  0.016016134   0.01521477            5 
 3542000   0.68480646   -8.1593119     681.0913  0.016024169  0.015209593            2 
 3543000   0.68955062   -8.1296622    681.48516  0.016028911  0.015204413            1 
 3544000   0.68207795   -8.1533842    679.98842  0.015989193  0.015199253            3 
 3545000   0.69137091   -8.1308662    681.70714  0.016025086  0.015194082            1 
 3546000   0.70015339   -8.1173549    681.19459  0.016008521  0.015188915            2 
 3547000   0.67552498   -8.1161552    680.63091  0.015990765  0.015183764            2 
 3548000   0.69550855    -8.156075    681.01388  0.015995253  0.015178592            2 
 3549000   0.68874228   -8.1474118     681.4763  0.016001604  0.015173421            1 
 3550000   0.69073136   -8.1235156    681.51003  0.015997888  0.015168251            3 
 3551000   0.69077493    -8.154213    681.28611  0.015988128  0.015163101            5 
 3552000   0.68242184   -8.1484613    681.10473  0.015979371  0.015157952            2 
 3553000    0.7003693   -8.1447616    681.33635  0.015980307  0.015152799            2 
 3554000   0.68572991   -8.1547888    680.81117  0.015963496  0.015147637            5 
 3555000   0.67561481    -8.152659    681.34665  0.015971558  0.015142469            3 
 3556000   0.66779003   -8.1489517    681.84113  0.015978654  0.015137314            1 
 3557000    0.6780488   -8.1232495    681.25587   0.01596045   0.01513216            2 
 3558000   0.68569674     -8.14216    681.54403  0.015962714  0.015127005            3 
 3559000   0.67624748   -8.1508157    682.13974  0.015972177  0.015121846            2 
 3560000   0.67923275    -8.160185    679.74983  0.015911747  0.015116684            2 
 3561000   0.68665066    -8.145887    681.21433   0.01594155  0.015111517            2 
 3562000   0.66734558   -8.1443047    681.36796  0.015940669  0.015106361            3 
 3563000   0.67128011   -8.1296853    681.50394  0.015939376  0.015101212            1 
 3564000   0.69057342   -8.1311941    681.27396  0.015929526  0.015096075            3 
 3565000   0.66068443    -8.120792    679.48323  0.015883199  0.015090942            4 
 3566000    0.6871593   -8.1340744    681.12884    0.0159172   0.01508581            1 
 3567000   0.68506252   -8.1341038    681.62244   0.01592427  0.015080674            5 
 3568000   0.69114337   -8.1371115    680.95469  0.015904211  0.015075539            5 
 3569000   0.67860778   -8.0977462    683.07602  0.015949286  0.015070403            1 
 3570000   0.68687326   -8.1357932    681.98364  0.015919319  0.015065272            2 
 3571000   0.68803884   -8.1089202    681.33215  0.015899658  0.015060147            1 
 3572000   0.69517093   -8.1337051    682.28584  0.015917456  0.015055029            3 
 3573000   0.69533297   -8.1164807    681.86046   0.01590308  0.015049909            4 
 3574000    0.6837749   -8.1449054    680.55101  0.015868098   0.01504479            4 
 3575000   0.67407227   -8.1300622    680.13747   0.01585402  0.015039674            4 
 3576000   0.67195876   -8.1285377    680.06296   0.01584785  0.015034545            1 
 3577000   0.68603599   -8.1419561    681.09439  0.015867449  0.015029426            3 
 3578000   0.67563845   -8.1492545    681.87977  0.015881306  0.015024296            5 
 3579000   0.68301345   -8.1562381    681.61553  0.015870716  0.015019161            2 
 3580000   0.68974384   -8.1306439    680.76215  0.015846419  0.015014028            3 
 3581000   0.68625642   -8.1255136    680.68555  0.015840211  0.015008912            2 
 3582000   0.68165718   -8.1334391    681.58248  0.015856655  0.015003787            4 
 3583000   0.68963222   -8.1492954    682.00463  0.015862048  0.014998664            2 
 3584000   0.69299751    -8.138544    681.75731  0.015851872  0.014993547            1 
 3585000   0.66820061   -8.1388618    681.12533   0.01583276  0.014988434            3 
 3586000   0.70361231   -8.1249262    680.85095  0.015821969  0.014983333            4 
 3587000   0.69103303   -8.1610832    680.93181  0.015819436  0.014978216            4 
 3588000   0.68372795   -8.1410317    679.96285  0.015792523  0.014973101            3 
 3589000   0.66685336   -8.1373576    680.91754  0.015810289  0.014968009            2 
 3590000    0.6756757   -8.1362145    680.62061  0.015798993  0.014962904            5 
 3591000   0.68750511     -8.14664    680.21743  0.015785237  0.014957804            4 
 3592000   0.66676098   -8.1586848    682.35946  0.015830537    0.0149527            1 
 3593000   0.68695428   -8.1309446    682.91481  0.015839011  0.014947597            4 
 3594000   0.68142545   -8.1515642    680.79113  0.015785363  0.014942502            4 
 3595000   0.67678568   -8.1442505    681.35802  0.015794113  0.014937397            4 
 3596000   0.67976231   -8.1307428    683.15752  0.015831422  0.014932292            4 
 3597000   0.67464019   -8.1543815    681.40506  0.015786421  0.014927183            2 
 3598000   0.68073027    -8.160417    679.81263  0.015745151  0.014922073            1 
 3599000    0.6686116   -8.1542372    680.37114  0.015753708  0.014916961            3 
 3600000   0.68435746   -8.1433797    680.97968  0.015763419  0.014911858            3 
 3601000   0.69292248   -8.1642148    679.78235  0.015731333   0.01490675            3 
 3602000   0.66628666   -8.1941076    680.41775  0.015741665  0.014901632            5 
 3603000   0.68111258    -8.151035    680.75407  0.015745075  0.014896522            3 
 3604000   0.67393954    -8.150149    680.74517  0.015740501  0.014891421            4 
 3605000   0.66903302    -8.147115    680.82059  0.015737878  0.014886338            1 
 3606000   0.68784658   -8.1641918    680.86383  0.015734513  0.014881245            2 
 3607000   0.69613514   -8.1534674    681.86619  0.015753308  0.014876169            5 
 3608000   0.68171887    -8.170491    681.12741  0.015731879  0.014871085            1 
 3609000   0.67839546   -8.1678846    683.11104  0.015773322  0.014866006            4 
 3610000   0.67212738   -8.1596528    681.96972  0.015742607  0.014860928            3 
 3611000   0.67978448   -8.1770194    681.20328   0.01572056  0.014855856            2 
 3612000   0.67214489   -8.1511115    680.90219  0.015709261  0.014850782            3 
 3613000   0.67189539   -8.1704339    681.22979  0.015712469    0.0148457            3 
 3614000   0.67869341   -8.1620435    680.94268  0.015701501  0.014840622            2 
 3615000   0.67598815   -8.1738345    682.00769  0.015721708  0.014835562            2 
 3616000   0.68227289    -8.157779    681.25827  0.015700089  0.014830484            5 
 3617000   0.66292682    -8.151664    681.93847   0.01571142   0.01482543            4 
 3618000   0.68564676    -8.138427    681.82873   0.01570455  0.014820395            2 
 3619000   0.66070662   -8.1583873    682.52323  0.015716202  0.014815352            1 
 3620000   0.68054845   -8.1569957    682.66716  0.015715174  0.014810313            2 
 3621000   0.67800397   -8.1607746    681.24295  0.015678057  0.014805282            4 
 3622000   0.66394334   -8.1689988    681.26731  0.015674289  0.014800252            1 
 3623000   0.67847622   -8.1710221    682.85766  0.015706543  0.014795225            3 
 3624000   0.67686894   -8.1566319    680.96042  0.015658582  0.014790196            4 
 3625000    0.6660877   -8.1723147    681.53929   0.01566757  0.014785168            5 
 3626000   0.68520819   -8.1514588    682.32778   0.01568137  0.014780143            5 
 3627000   0.66662227   -8.1493112    680.66959  0.015638948  0.014775112            2 
 3628000    0.6560586   -8.1658955    681.37515  0.015650844  0.014770068            3 
 3629000   0.67516003   -8.1538167    681.71603  0.015654359   0.01476504            2 
 3630000   0.66740094   -8.1759053    682.10147  0.015658895  0.014759999            2 
 3631000    0.6614535   -8.1511517     682.4468  0.015662508  0.014754968            3 
 3632000   0.68137958   -8.1692549    682.46882  0.015658701  0.014749939            3 
 3633000   0.67553324   -8.1766563    678.91174  0.015572799  0.014744906            7 
 3634000    0.6708737   -8.1487304     680.9853  0.015616064   0.01473988            4 
 3635000   0.66849827   -8.1636087    682.09737  0.015637262  0.014734856            3 
 3636000   0.67034238   -8.1824495    680.64614  0.015599701  0.014729839            2 
 3637000   0.66815103   -8.1613898    680.95766  0.015602549  0.014724827            2 
 3638000   0.67902334   -8.1543193    682.20895  0.015626923  0.014719804            1 
 3639000   0.68315744   -8.1695197    681.63098  0.015609393  0.014714783            4 
 3640000   0.67385779   -8.1840808    681.61268  0.015604686  0.014709755            2 
 3641000   0.65397364   -8.1718237    682.08964  0.015611317  0.014704726            2 
 3642000   0.66290789   -8.1834932    681.32941  0.015589635  0.014699702            2 
 3643000   0.67702225   -8.1645021    681.78248   0.01559572  0.014694675            1 
 3644000   0.67266224    -8.155311    681.60491  0.015587379  0.014689658            2 
 3645000   0.67321496   -8.1838223    681.27553  0.015575572  0.014684637            3 
 3646000    0.6528555   -8.1690742    679.17685  0.015523333  0.014679619            2 
 3647000   0.67018631   -8.1796749    682.36356  0.015591892  0.014674601            4 
 3648000   0.66607097   -8.1825033    680.30168  0.015540517  0.014669581            2 
 3649000   0.66560058   -8.1820701    681.60256  0.015565967  0.014664567            2 
 3650000   0.68597604   -8.1823516    681.16041  0.015551608  0.014659558            2 
 3651000   0.65166974   -8.1680524    680.41223  0.015530271  0.014654538            1 
 3652000   0.66992548   -8.2053991    681.67583  0.015554852  0.014649533            2 
 3653000   0.67320772   -8.1683355    681.96299  0.015557145  0.014644533            2 
 3654000   0.68892778   -8.1835995     681.1486  0.015534314  0.014639535            5 
 3655000   0.67224335   -8.1772672    680.47084  0.015514611  0.014634531            3 
 3656000   0.66236415   -8.1796223     680.3408  0.015507403  0.014629538            2 
 3657000   0.67277735   -8.1657762    681.81051  0.015536654   0.01462454            3 
 3658000   0.66526382   -8.1655349    681.68928  0.015529645  0.014619562            1 
 3659000   0.64868388   -8.1761403    681.62445  0.015523924  0.014614571            2 
 3660000   0.66297962   -8.2074475    681.02939  0.015506134  0.014609588            3 
 3661000   0.65955459   -8.1958871    680.21688  0.015483403  0.014604604            2 
 3662000    0.6758522   -8.1838914    680.22945  0.015479461  0.014599624            3 
 3663000   0.67568551     -8.17504    682.07785  0.015517287  0.014594648            1 
 3664000    0.6662232   -8.1810905    679.32065  0.015450342  0.014589671            2 
 3665000   0.66095364   -8.1936814    679.43165   0.01544865  0.014584686            5 
 3666000   0.67913596   -8.2062337    680.86326  0.015476979  0.014579711            3 
 3667000   0.66652083    -8.167476    681.58569  0.015489176   0.01457474            5 
 3668000    0.6645835   -8.1758863    682.07256  0.015496014  0.014569766            2 
 3669000   0.64949441   -8.1894722    680.76329  0.015462054  0.014564791            2 
 3670000    0.6565361   -8.1813002    680.50942  0.015452076  0.014559808            3 
 3671000   0.66336796   -8.1985954    681.80876  0.015477362  0.014554833            4 
 3672000     0.667667   -8.2019071    680.98475  0.015454447  0.014549864            2 
 3673000   0.67949527   -8.1848475    681.35807  0.015458709  0.014544896            2 
 3674000   0.66072846   -8.2012799    680.82595  0.015442432  0.014539929            1 
 3675000   0.67081502   -8.2001235    680.91502   0.01544025  0.014534958            2 
 3676000   0.65658909   -8.2199062    680.98468  0.015437629  0.014529978            2 
 3677000   0.64695244   -8.1851832    681.44465  0.015443855   0.01452501            2 
 3678000   0.65341796   -8.1772533    681.56873  0.015442467  0.014520051            2 
 3679000   0.65260763   -8.2110538    680.49878  0.015414034  0.014515086            3 
 3680000   0.67268819   -8.2104727    681.17156  0.015425081  0.014510125            2 
 3681000   0.66320183   -8.1941394    681.01397  0.015417323  0.014505166            3 
 3682000   0.66477475   -8.1930719    680.68306  0.015405646    0.0145002            2 
 3683000   0.65897892   -8.2028263    681.03592  0.015409447  0.014495236            5 
 3684000   0.67292544    -8.211942    681.81693  0.015422931  0.014490281            3 
 3685000   0.67386603   -8.2082141    681.10383  0.015402619  0.014485325            3 
 3686000   0.66652924   -8.1954201    679.92364  0.015371759  0.014480376            4 
 3687000   0.67471706   -8.1919185     681.5993  0.015405463  0.014475423            1 
 3688000   0.65610475   -8.2002149    681.75076  0.015404708  0.014470475            2 
 3689000   0.65781263   -8.1970978    681.28051  0.015389909  0.014465544            4 
 3690000   0.64556635   -8.2001432    681.78847   0.01539721  0.014460604            2 
 3691000   0.66618214   -8.1867739    681.93504  0.015396348  0.014455661            4 
 3692000   0.66048868   -8.2078276    679.87633   0.01534571  0.014450718            2 
 3693000   0.65703563   -8.2180113    681.69248  0.015382536  0.014445764            2 
 3694000   0.66412188   -8.1988547    681.39174  0.015371588  0.014440817            3 
 3695000   0.66610683   -8.1795068    680.94062  0.015357254  0.014435867            1 
 3696000   0.64098714   -8.1832178    680.39533  0.015340804  0.014430917            2 
 3697000   0.65448782    -8.211887    679.54161  0.015317411  0.014425969            2 
 3698000   0.65522349    -8.204335    680.09053  0.015325638  0.014421015            1 
 3699000   0.65617463   -8.2094214    679.74866  0.015313793  0.014416058            2 
 3700000   0.65219302   -8.1997009    679.86323  0.015312235  0.014411094            4 
 3701000   0.65411441    -8.211966    679.67553  0.015303871  0.014406127            2 
 3702000   0.65861046   -8.2161534    679.65358  0.015299243  0.014401165            2 
 3703000   0.66412233   -8.2285327    679.22269  0.015285415   0.01439621            4 
 3704000   0.66815248   -8.2046079    680.22939  0.015303937  0.014391247            3 
 3705000    0.6579492   -8.2054692    680.57879  0.015307665  0.014386281            5 
 3706000   0.65683869   -8.2300668    678.86219  0.015264935   0.01438132            1 
 3707000   0.63603368   -8.2154064    681.25576  0.015314625  0.014376373            2 
 3708000   0.66328137   -8.1801596    682.11165   0.01532973  0.014371438            3 
 3709000   0.65555837   -8.2085115    679.01043  0.015255919  0.014366494            2 
 3710000   0.66715808   -8.1961027    681.80509   0.01531458  0.014361552            3 
 3711000   0.66312761   -8.1873982    680.46013  0.015280251  0.014356614            3 
 3712000   0.65454676   -8.2003948    680.28036  0.015272099  0.014351681            2 
 3713000   0.65432153   -8.1903364    680.98166  0.015283725  0.014346753            2 
 3714000   0.64789817   -8.1924538    681.26757  0.015286025  0.014341816            2 
 3715000   0.66446033   -8.2120004    679.88759  0.015250955  0.014336876            3 
 3716000   0.67108907   -8.2165102    680.74157  0.015266002  0.014331924            4 
 3717000    0.6498081    -8.224411    680.27944  0.015251534  0.014326979            3 
 3718000   0.64728351   -8.2315965    679.80483  0.015236795   0.01432203            4 
 3719000   0.67000134   -8.2468675    680.30667  0.015243943  0.014317087            2 
 3720000   0.65598745   -8.2064199    679.99472  0.015232857  0.014312145            2 
 3721000    0.6514567   -8.2189624    679.30661  0.015213352  0.014307204            3 
 3722000   0.65724359    -8.208702    680.22578  0.015229845  0.014302269            3 
 3723000    0.6477825   -8.2014418    680.77572  0.015238063   0.01429733            1 
 3724000   0.65584636    -8.242068    678.42884  0.015181454  0.014292391            2 
 3725000   0.67089821   -8.2164549    680.11367  0.015215071  0.014287457            1 
 3726000   0.66578667   -8.2124731    680.42956  0.015218052  0.014282537            2 
 3727000   0.65950854   -8.2209692     680.4805  0.015215108  0.014277608            5 
 3728000   0.65396842   -8.2062099     678.9155  0.015176044  0.014272689            1 
 3729000   0.66349218   -8.2061685    679.48795  0.015184767  0.014267773            2 
 3730000   0.64044817   -8.2022409    680.59212  0.015205365  0.014262852            2 
 3731000   0.65576143   -8.2162597    680.90216  0.015208214  0.014257941            2 
 3732000   0.66393817   -8.2163459    680.09427  0.015186099  0.014253028            4 
 3733000   0.65939849    -8.190716    681.43012  0.015211852  0.014248113            4 
 3734000   0.65268677   -8.2179532    680.60559  0.015189377  0.014243203            2 
 3735000   0.65394089   -8.2101845    679.68838  0.015164846  0.014238286            2 
 3736000   0.65305767   -8.2047219    680.32059  0.015174888  0.014233371            1 
 3737000   0.64699659     -8.21756    680.31753  0.015170759   0.01422847            1 
 3738000   0.65370124   -8.2264632    678.96804  0.015136616   0.01422357            1 
 3739000   0.63672007   -8.2198337    680.82341  0.015173919  0.014218664            4 
 3740000   0.65691258    -8.227549    680.58208  0.015164485  0.014213763            3 
 3741000   0.63822296   -8.2188813    681.11302  0.015172258  0.014208871            7 
 3742000   0.64311869   -8.2147905    679.95565  0.015142429  0.014203974            3 
 3743000    0.6500916   -8.1969299    680.50346   0.01515058  0.014199094            3 
 3744000   0.65339313   -8.2388798    681.36032  0.015165605  0.014194199            3 
 3745000   0.65906029    -8.244745    680.67201   0.01514624  0.014189303            3 
 3746000   0.64567298   -8.2393293    678.97168  0.015104371  0.014184408            5 
 3747000   0.65405171    -8.233723    680.22975  0.015128319  0.014179506            1 
 3748000   0.63939138   -8.2550779    679.61994  0.015110724  0.014174605            1 
 3749000   0.65957543   -8.2026836    680.20292  0.015119652  0.014169727            5 
 3750000     0.638563   -8.2352554    679.48524  0.015099672  0.014164839            7 
 3751000   0.65603978   -8.2485871    678.99998  0.015084866  0.014159955            3 
 3752000    0.6664015   -8.2392945    680.39824  0.015111901  0.014155074            2 
 3753000   0.65374159   -8.2218683    681.16297  0.015124855  0.014150198            8 
 3754000    0.6523826   -8.2209003    680.30811  0.015101849  0.014145329            3 
 3755000   0.66172224     -8.24243    681.38942  0.015121825  0.014140464            1 
 3756000    0.6634294   -8.2334247    679.93318   0.01508549    0.0141356            2 
 3757000    0.6502317   -8.2249761    680.56239   0.01509543  0.014130727            3 
 3758000   0.66414177   -8.2253131    680.38482  0.015087476  0.014125868            2 
 3759000   0.63842794   -8.2230914    681.20019  0.015101538  0.014121016            3 
 3760000   0.64855545   -8.2250704    680.83097  0.015089339  0.014116161            3 
 3761000   0.63666534   -8.2015337    680.72637  0.015083009  0.014111308            2 
 3762000   0.65559186    -8.217216    681.43632  0.015094726  0.014106458            1 
 3763000    0.6433175   -8.2154559    681.42688  0.015090506  0.014101609            4 
 3764000   0.66629384   -8.2279038    680.68809   0.01507014  0.014096763            6 
 3765000   0.64146618    -8.202331     680.8753  0.015070281   0.01409191            6 
 3766000   0.64835928   -8.2330326    679.82474  0.015043033  0.014087063            4 
 3767000   0.65248594   -8.2187733    680.87725  0.015062323  0.014082232            4 
 3768000   0.64292161   -8.2195053     681.6954   0.01507642  0.014077393            2 
 3769000   0.62423521   -8.2036837    681.71177  0.015072782  0.014072555            3 
 3770000   0.66424492   -8.2293371    680.89578  0.015050747  0.014067724            2 
 3771000   0.63165793   -8.2230532     680.4976  0.015037956  0.014062896            4 
 3772000   0.65335447   -8.2242405    680.62546  0.015036794  0.014058071            2 
 3773000    0.6446762   -8.2516062    679.20258  0.015001382  0.014053235            4 
 3774000   0.63591491    -8.206038    681.27196  0.015043101  0.014048407            2 
 3775000   0.64529904   -8.2184122    679.61881  0.015002623  0.014043578            2 
 3776000   0.65857794   -8.1979694    681.20179  0.015033585  0.014038746            2 
 3777000   0.66491148   -8.2341544    680.66635  0.015017791  0.014033926            6 
 3778000   0.65620214   -8.2458751    682.04695  0.015044268    0.0140291            1 
 3779000   0.64900084   -8.2311255    679.90083  0.014992962  0.014024288            1 
 3780000   0.66001174   -8.2188676    681.29838  0.015019806  0.014019468            3 
 3781000   0.64703778   -8.2230723    680.63576  0.015001229  0.014014658            1 
 3782000   0.64224234   -8.2315006    680.81138  0.015001132   0.01400985            2 
 3783000   0.63315007   -8.2080134     681.9301   0.01502181  0.014005043            2 
 3784000    0.6322592   -8.2199508    679.99173  0.014975153  0.014000246            3 
 3785000   0.63383504   -8.2026062    681.46545  0.015003643  0.013995448            5 
 3786000   0.63897257   -8.2187972    681.17033  0.014993184  0.013990651            2 
 3787000   0.64932742    -8.226736    680.89959  0.014983267  0.013985843            2 
 3788000    0.6499766   -8.2171797    681.15811  0.014984999  0.013981053            5 
 3789000   0.62899828   -8.2404886    680.44067  0.014965265  0.013976251            1 
 3790000    0.6401154   -8.2322193    680.24802   0.01495708  0.013971448            2 
 3791000   0.64859392   -8.2186939    679.94659  0.014946509  0.013966635            4 
 3792000   0.63936235   -8.2475848    680.08512  0.014945612  0.013961821            2 
 3793000   0.65330148   -8.2359027    679.93873  0.014938455  0.013957015            2 
 3794000   0.64213686    -8.238843    679.82288  0.014931973  0.013952201            1 
 3795000   0.64262698    -8.240653    680.48165  0.014942504  0.013947401            3 
 3796000   0.62885399   -8.2351923    681.33987  0.014957408  0.013942611            3 
 3797000   0.63472242   -8.2346684     681.0998    0.0149482  0.013937825            1 
 3798000   0.65239802   -8.2338289    679.79044  0.014915535  0.013933035            2 
 3799000   0.64075502    -8.239131    680.82844  0.014934378  0.013928245            2 
 3800000   0.64539114   -8.2500342    679.79919  0.014907877  0.013923465            4 
 3801000   0.64841957   -8.2263472    681.64936  0.014944518  0.013918678            1 
 3802000   0.66271289   -8.2617352    679.32652  0.014889675  0.013913893            2 
 3803000   0.61923182   -8.2094041    680.74147  0.014916765  0.013909117            4 
 3804000   0.63824058   -8.2253287    679.76101  0.014891365  0.013904357            2 
 3805000   0.62703709   -8.2140025    680.70974  0.014908229  0.013899589            3 
 3806000   0.63093768   -8.2340426    680.58166  0.014901508  0.013894829            4 
 3807000   0.63629556   -8.2272606    680.43211   0.01489432  0.013890072            2 
 3808000   0.64444699   -8.2530615    680.66677  0.014895544  0.013885303            1 
 3809000   0.63881882   -8.2369681    679.43856  0.014864762  0.013880529            2 
 3810000    0.6282752   -8.2514622    679.49996  0.014862204  0.013875754            5 
 3811000   0.63941572   -8.2569652     679.2231   0.01485225  0.013870976            1 
 3812000    0.6347568    -8.264522    679.52359  0.014854923  0.013866195            3 
 3813000   0.63711682   -8.2592549    681.02836  0.014883914  0.013861423            3 
 3814000   0.63761337   -8.2236624    681.07114  0.014880946  0.013856654            2 
 3815000   0.64234113   -8.2459892    680.52276  0.014865067  0.013851895            2 
 3816000   0.64033929   -8.2453865    680.39257  0.014858328  0.013847142            3 
 3817000    0.6377748   -8.2584383     680.8831  0.014865145  0.013842389            2 
 3818000   0.64673679   -8.2632483    680.09158  0.014843976   0.01383763            2 
 3819000     0.638576   -8.2638734    679.34646   0.01482383  0.013832865            2 
 3820000   0.64885264   -8.2395692    679.94513  0.014833009  0.013828101            3 
 3821000    0.6388546    -8.245326    679.72049  0.014824228  0.013823346            2 
 3822000   0.63517489   -8.2450006    679.84428  0.014823048  0.013818582            2 
 3823000    0.6465295   -8.2556609    679.94789  0.014821429  0.013813829            2 
 3824000   0.63087151   -8.2378138    680.74894   0.01483501  0.013809089            1 
 3825000   0.63715683   -8.2531106    680.24701  0.014820196  0.013804343            3 
 3826000   0.64814461   -8.2278141    681.03363  0.014833456  0.013799587            2 
 3827000   0.62827549   -8.2517022      680.241   0.01481232  0.013794843            2 
 3828000   0.62635739   -8.2568831    679.63425  0.014795242   0.01379009            2 
 3829000    0.6380165   -8.2491581    681.16575  0.014824709  0.013785344            2 
 3830000   0.64591594   -8.2588783    679.79976  0.014791117  0.013780602            3 
 3831000   0.64689815   -8.2485121    679.72238  0.014785573  0.013775851            2 
 3832000   0.63182428   -8.2392616    678.71977  0.014759911  0.013771105            1 
 3833000   0.63610935   -8.2518385    679.19908  0.014766481  0.013766367            2 
 3834000   0.64766336   -8.2685266    678.68993  0.014751563  0.013761634            2 
 3835000   0.64491537   -8.2706337    680.22233  0.014781015  0.013756898            3 
 3836000   0.61958041   -8.2596382     680.6167   0.01478573  0.013752163            2 
 3837000   0.63196053    -8.246783    680.93423  0.014788772  0.013747435            2 
 3838000    0.6403242   -8.2366317    679.18692   0.01474698  0.013742712            2 
 3839000   0.64104841   -8.2616097    680.43912   0.01477032  0.013737985            4 
 3840000   0.64526485   -8.2519083    679.83158   0.01475329  0.013733266            5 
 3841000   0.62470377   -8.2462231     681.1299  0.014777617  0.013728556            3 
 3842000    0.6203664   -8.2705227    680.46238  0.014759292  0.013723841            5 
 3843000   0.63491878   -8.2563166    680.27279   0.01475134  0.013719129            6 
 3844000    0.6331908    -8.239265    680.00711  0.014741743  0.013714428            4 
 3845000   0.64357567    -8.273532    680.35886  0.014745532  0.013709721            4 
 3846000   0.63043481   -8.2369344    679.43202  0.014721616  0.013705012            2 
 3847000   0.64698498   -8.2595299    680.14573  0.014733249   0.01370031            3 
 3848000   0.65239046   -8.2433188    681.68948  0.014762853  0.013695611            2 
 3849000   0.64391153   -8.2658698    679.88979  0.014720053  0.013690911            3 
 3850000   0.62833179   -8.2380934    680.28342  0.014724749  0.013686215            2 
 3851000   0.65281524   -8.2622648    679.34055  0.014700523  0.013681524            2 
 3852000   0.64815704   -8.2515145     679.8012  0.014706672  0.013676829            2 
 3853000   0.63390234   -8.2286537    681.12925  0.014731578  0.013672132            4 
 3854000   0.64117394   -8.2820887    679.76786  0.014698319  0.013667438            4 
 3855000   0.64541351   -8.2550871    680.46285   0.01470953  0.013662749            2 
 3856000   0.64318689   -8.2633773    679.89448  0.014693432  0.013658062            3 
 3857000   0.64855112   -8.2689957    680.07324  0.014693485  0.013653367            5 
 3858000   0.63737125   -8.2737148     678.5458  0.014656683   0.01364867            3 
 3859000   0.63400739   -8.2520836     680.1514  0.014687557  0.013643974            3 
 3860000   0.62913637   -8.2440224    680.73722  0.014696399  0.013639283            5 
 3861000    0.6348187     -8.28589    679.26339  0.014660783   0.01363459            3 
 3862000   0.62852108   -8.2529107    680.31612  0.014679702  0.013629908            4 
 3863000   0.62818378   -8.2612076    680.22041  0.014673837  0.013625226            3 
 3864000   0.64715388   -8.2733265    680.55495  0.014677255   0.01362054            7 
 3865000   0.64260339   -8.2532256    679.43254  0.014649257   0.01361586            5 
 3866000   0.64024261    -8.244883    681.43752  0.014688686  0.013611185            3 
 3867000   0.62741954   -8.2670494    681.29938  0.014681911  0.013606518            2 
 3868000    0.6315415   -8.2688071    681.11909  0.014674231  0.013601846            3 
 3869000   0.63940558    -8.277405     680.2364  0.014651426   0.01359717            3 
 3870000   0.64760362   -8.2759073    679.57417   0.01463338  0.013592503            4 
 3871000   0.63479475   -8.2809837    679.32775  0.014624295  0.013587835            6 
 3872000   0.65458449   -8.2506652    681.22115  0.014661268  0.013583169            2 
 3873000   0.64682754   -8.2775705    679.51078  0.014620681  0.013578501            3 
 3874000   0.64034489   -8.2802734    679.48211   0.01461629   0.01357384            4 
 3875000    0.6396649   -8.2609767    679.55923  0.014614177  0.013569168            3 
 3876000   0.64469121   -8.2547435    678.86379  0.014595455  0.013564499            4 
 3877000   0.63760882     -8.26684    678.21183  0.014577677  0.013559835            3 
 3878000   0.63001833    -8.264888    679.72402  0.014606413  0.013555167            3 
 3879000   0.63635194   -8.2441171    679.74405  0.014603077  0.013550512            3 
 3880000   0.63364507    -8.254204    681.14553  0.014629414   0.01354586            2 
 3881000   0.63493634   -8.2426968    680.65374  0.014615085  0.013541211            3 
 3882000   0.63099134   -8.2524257    680.54616  0.014609011  0.013536565            2 
 3883000   0.63238814   -8.2679297     680.2771  0.014599474  0.013531925            2 
 3884000   0.63526408   -8.2691786    680.67207   0.01460419   0.01352728            2 
 3885000   0.60884041   -8.2679087     680.4654  0.014595997  0.013522633            1 
 3886000   0.62650217   -8.2635183    680.66112  0.014596439  0.013517993            2 
 3887000   0.63647184   -8.2489828    679.93527  0.014577122  0.013513345            2 
 3888000      0.62705   -8.2568675    680.04773  0.014575783  0.013508702            2 
 3889000   0.61286942   -8.2785893    679.77759  0.014566246   0.01350407            4 
 3890000   0.63184211   -8.2666977    680.03431  0.014568002  0.013499425            2 
 3891000   0.63083549   -8.2629695    678.86908  0.014539302  0.013494781            2 
 3892000   0.61847983   -8.2844023    679.34891   0.01454584  0.013490138            2 
 3893000   0.62674399   -8.2883028    679.93257  0.014554597  0.013485493            2 
 3894000   0.62891999   -8.2590004    679.93807  0.014550977  0.013480849            4 
 3895000   0.64616559   -8.2787719    679.93017  0.014547072  0.013476205            5 
 3896000   0.63064228   -8.2407107    680.42944  0.014554018  0.013471555            2 
 3897000   0.62683301   -8.2715283    679.03765  0.014520521  0.013466918            3 
 3898000    0.6374098   -8.2796694    681.04821  0.014559779  0.013462295            3 
 3899000   0.61567254    -8.270288    678.75846  0.014507106  0.013457665            4 
 3900000   0.63043819   -8.2865393    679.71418  0.014523807   0.01345304            1 
 3901000   0.63713129   -8.2601701    680.62598  0.014539562  0.013448413            7 
 3902000   0.63007672   -8.2741631    680.25675   0.01452795  0.013443779            1 
 3903000   0.62154898   -8.2751779     679.8005  0.014514487  0.013439159            1 
 3904000    0.6274088   -8.2708159    678.99571   0.01449359  0.013434535            1 
 3905000   0.62559401   -8.2685823    678.67649  0.014483066   0.01342992            2 
 3906000   0.62584197   -8.2618082     679.6704  0.014500563  0.013425302            3 
 3907000   0.61890157   -8.2752128    679.48035  0.014492798  0.013420677            2 
 3908000   0.62661738   -8.2729301    678.61906  0.014470724  0.013416059            4 
 3909000   0.62583003   -8.2922741    679.89032  0.014494123  0.013411448            3 
 3910000   0.62645435   -8.2714965    679.73173  0.014487036  0.013406842            1 
 3911000   0.64635408   -8.2670352    679.46272    0.0144776  0.013402228            6 
 3912000   0.62811393   -8.2803192    679.40635  0.014472698  0.013397623            3 
 3913000   0.64272809   -8.2750864    679.81076  0.014477612   0.01339301            6 
 3914000   0.61722935   -8.2788392    679.37916  0.014464724  0.013388396            1 
 3915000   0.63191057   -8.2868756    680.33059  0.014481281   0.01338379            3 
 3916000   0.62404483   -8.2970254    680.77363  0.014487011  0.013379185            2 
 3917000   0.61701049   -8.3081651    679.53149  0.014456887   0.01337458            4 
 3918000   0.62713233   -8.2835539    679.99166  0.014462984  0.013369969            5 
 3919000   0.61741164   -8.2690974    680.33983  0.014466697  0.013365369            3 
 3920000   0.62702035   -8.2846135     678.6819  0.014427761  0.013360772            5 
 3921000    0.6213505     -8.28488    680.13748  0.014455017  0.013356177            2 
 3922000   0.61786403   -8.2685499    678.80402  0.014422999  0.013351583            4 
 3923000    0.6308284   -8.2965425    679.84978  0.014441537  0.013346993            5 
 3924000   0.62857502   -8.2854131    680.24571  0.014446265  0.013342405            3 
 3925000    0.6075069   -8.2688032    681.77101  0.014474968  0.013337823            3 
 3926000   0.62917533   -8.2776159    680.12642  0.014436373   0.01333324            2 
 3927000   0.61674862   -8.2875366    677.71643  0.014381556  0.013328655            2 
 3928000   0.61865216   -8.2623596    679.52253  0.014416211  0.013324071            2 
 3929000   0.63050117   -8.2842659    678.60159  0.014393009   0.01331949            3 
 3930000   0.61968794    -8.270955    678.52612  0.014387746  0.013314925            4 
 3931000   0.62600922   -8.2833714     680.2478  0.014420584  0.013310356            3 
 3932000   0.61970837   -8.2924999    680.13118  0.014414445  0.013305794            3 
 3933000   0.61884192   -8.2896809    680.82766  0.014425537  0.013301224            1 
 3934000   0.61716666   -8.2895111    680.21597  0.014408913  0.013296659            2 
 3935000   0.62549911   -8.2658672    678.52901  0.014369526  0.013292109            2 
 3936000   0.62002942   -8.2719482    679.07297  0.014377392  0.013287555            4 
 3937000   0.62226989   -8.2957451    680.91127  0.014412651  0.013282998            6 
 3938000   0.62771536   -8.2801024     679.6139  0.014381537  0.013278439            1 
 3939000   0.62221319   -8.2847917    678.78385  0.014360325  0.013273877            1 
 3940000   0.63441645   -8.2766693    680.26758  0.014388062  0.013269321            2 
 3941000    0.6325219   -8.2537376    679.54607  0.014369155  0.013264771            2 
 3942000   0.61433492   -8.2705561    680.44536  0.014384521  0.013260221            3 
 3943000    0.6230348   -8.2938025    679.86667  0.014368642  0.013255681            3 
 3944000   0.60936938   -8.2882428    680.60301  0.014380557  0.013251137            2 
 3945000   0.60271759   -8.2767037    679.99471  0.014364062  0.013246592            4 
 3946000   0.62399563   -8.2956161    680.38715   0.01436871  0.013242055            3 
 3947000   0.62516584   -8.2722785    680.58716  0.014369292  0.013237509            3 
 3948000   0.60822456   -8.2772928    680.47741  0.014363336   0.01323297            2 
 3949000   0.62650976   -8.2943007    680.25705  0.014355049  0.013228428            6 
 3950000   0.62611862   -8.2916281    680.44482  0.014355376  0.013223886            3 
 3951000   0.60773541   -8.2737189    678.73354  0.014315649  0.013219341            2 
 3952000   0.62074126   -8.2804677    679.92457  0.014337141  0.013214804            2 
 3953000   0.63560354   -8.2819284     679.8982  0.014332958  0.013210266            5 
 3954000   0.61556773   -8.2941479     679.6335  0.014323755  0.013205739            2 
 3955000     0.610701   -8.2775347    678.05725   0.01428692  0.013201208            2 
 3956000   0.62042643   -8.2851802    680.07816   0.01432588  0.013196676            1 
 3957000    0.6227805   -8.2837848     679.8928  0.014318356  0.013192143            2 
 3958000   0.62343181    -8.304033    679.39261  0.014304207  0.013187616            2 
 3959000   0.62038068   -8.2703965    679.98105   0.01431298  0.013183083            2 
 3960000   0.62862923   -8.2881219    679.60814  0.014301518   0.01317856            3 
 3961000   0.61655148   -8.2671943    680.19517  0.014310258  0.013174029            3 
 3962000   0.62522633   -8.2876993    679.99714  0.014302481  0.013169494            2 
 3963000   0.61721126   -8.2831222    679.13216  0.014280683  0.013164967            2 
 3964000   0.60839782   -8.3057218     679.6465  0.014287893  0.013160439            2 
 3965000   0.62237957   -8.3005994    677.26627  0.014234264  0.013155906            3 
 3966000   0.61910387   -8.2933869    679.50968  0.014277813  0.013151384            4 
 3967000   0.60270244   -8.3057989    678.11265  0.014244867  0.013146856            3 
 3968000   0.60900635    -8.301624    679.44991  0.014269361  0.013142323            6 
 3969000   0.63076055   -8.2961064    680.12531  0.014279947  0.013137799            4 
 3970000   0.61499609   -8.3023535    679.50283  0.014263284  0.013133274            4 
 3971000   0.62560023   -8.2957918    680.04543  0.014271078  0.013128747            2 
 3972000   0.61627058    -8.307219    679.64467  0.014259078  0.013124223            6 
 3973000   0.60461125    -8.303535    679.39623  0.014250277    0.0131197            2 
 3974000   0.61332585   -8.3110086    677.40988  0.014205039   0.01311518            2 
 3975000   0.61504345   -8.3071035    677.92505  0.014212265  0.013110663            2 
 3976000   0.62490444   -8.3108255    678.38123  0.014218252  0.013106141            2 
 3977000   0.61857905   -8.3207317    679.24609  0.014232799  0.013101624            5 
 3978000   0.59968655   -8.3005386    678.93324  0.014222667  0.013097099            3 
 3979000   0.61227417   -8.3288019    678.16507  0.014203005  0.013092584            6 
 3980000    0.6139031   -8.3140325    677.35904  0.014182559  0.013088063            5 
 3981000   0.60772895   -8.3231875    678.22853  0.014197198  0.013083538            1 
 3982000   0.62490602   -8.3000777    679.52339  0.014220731  0.013079019            2 
 3983000    0.6365664   -8.2686743    678.19697  0.014189409  0.013074508            2 
 3984000   0.63267452    -8.298231    677.87129  0.014179035  0.013069997            3 
 3985000   0.61858031   -8.3143497    677.60311  0.014169869  0.013065488            4 
 3986000   0.61933918   -8.3070045    678.35842  0.014182104  0.013060986            3 
 3987000   0.62127309    -8.329906    678.14796  0.014174148  0.013056481            4 
 3988000    0.6083009   -8.3253588    677.18442   0.01415046  0.013051971            2 
 3989000   0.61331833   -8.3173615    680.19313  0.014209767  0.013047469            3 
 3990000   0.60715941   -8.2968311    679.15767   0.01418458  0.013042965            2 
 3991000   0.61760939   -8.3088753     678.5874  0.014169118  0.013038473            4 
 3992000   0.61295181   -8.3127665    679.33011  0.014181073  0.013033975            3 
 3993000   0.61569125   -8.3059835    679.01824  0.014171013  0.013029481            4 
 3994000   0.61058205   -8.3272932    678.07446  0.014147773  0.013024992            1 
 3995000   0.61476144   -8.3194469    677.93725   0.01414137  0.013020499            2 
 3996000   0.62040896   -8.2977173     678.5097  0.014149769     0.013016            2 
 3997000   0.61595888   -8.3155157    677.11129  0.014117073  0.013011513            3 
 3998000   0.61685241   -8.2802687    679.46373  0.014162576  0.013007021            1 
 3999000   0.61387775   -8.3215066    677.68911  0.014122054  0.013002527            2 
 4000000   0.62889736   -8.3319062    677.98941  0.014124779  0.012998045            2 
 4001000   0.61874067   -8.3196405     678.3103  0.014127933  0.012993563            3 
 4002000   0.61178813   -8.3228309    677.53121  0.014108179  0.012989078            6 
 4003000   0.60504895   -8.2972814    678.80362  0.014131144  0.012984605            5 
 4004000   0.61153283   -8.3128061    678.01217  0.014111142  0.012980124            2 
 4005000   0.61620247   -8.3160802    678.31733  0.014113969  0.012975647            4 
 4006000   0.61506866   -8.3203776    678.84251   0.01412137  0.012971168            3 
 4007000   0.62281488   -8.3072258      678.094  0.014102279  0.012966701            2 
 4008000   0.61326374   -8.3243965    677.69038  0.014090369  0.012962233            4 
 4009000   0.60727269   -8.3144704    677.30802  0.014078906  0.012957767            6 
 4010000   0.60656256   -8.3150572    678.28841  0.014095769  0.012953306            5 
 4011000   0.60936978   -8.3236995    677.77385  0.014081564  0.012948841            5 
 4012000   0.61029014   -8.3068822    679.61183  0.014116231  0.012944375            3 
 4013000   0.61405292   -8.3311848    678.15599  0.014082482  0.012939911            5 
 4014000   0.59851609   -8.3088317    677.91808  0.014074034  0.012935447            6 
 4015000   0.61585575   -8.3013827    679.40929   0.01410148  0.012930989            5 
 4016000   0.61450021   -8.3187888    677.99278  0.014068575  0.012926531            3 
 4017000   0.60847182   -8.3221888    677.80179  0.014061111  0.012922071            5 
 4018000   0.60975746   -8.3058512    677.88656   0.01405937  0.012917612            4 
 4019000   0.60147443   -8.2955748     678.7904  0.014074612  0.012913155            4 
 4020000   0.59668184   -8.3215621    677.46446  0.014043625  0.012908702            7 
 4021000   0.61605574   -8.3272686    678.72058  0.014066165  0.012904253            6 
 4022000   0.63190443   -8.3127922    679.38365  0.014076406  0.012899806            8 
 4023000   0.59263511    -8.303641    679.16535  0.014068385  0.012895358            7 
 4024000   0.60263363   -8.3120864     677.6726  0.014033975  0.012890908            4 
 4025000   0.60547713   -8.3409176    679.02271  0.014058441  0.012886464            2 
 4026000   0.62318669   -8.3215092    679.28859  0.014060453  0.012882015            6 
 4027000   0.61465358   -8.3283372    677.56013  0.014021193  0.012877576            6 
 4028000   0.61550246   -8.3050027    678.98683  0.014047228  0.012873136            6 
 4029000   0.59818494   -8.3012432    678.30785  0.014029698  0.012868701            3 
 4030000   0.60261353   -8.3114989    678.29167  0.014025882  0.012864272            2 
 4031000   0.60382733   -8.2942866    678.63768  0.014029556  0.012859849            4 
 4032000   0.60328622   -8.3072802    678.36151  0.014020368  0.012855417            3 
 4033000   0.60331165   -8.3049474    678.61299  0.014022088  0.012850987            4 
 4034000   0.59789091   -8.3294254      678.287  0.014011878  0.012846562           10 
 4035000   0.60364937   -8.3159562    678.71545  0.014017254  0.012842129            3 
 4036000   0.58677503   -8.3228723    679.09078  0.014021531  0.012837706            4 
 4037000    0.6186026   -8.3110089    677.87525  0.013992966  0.012833283            4 
 4038000   0.62072768   -8.3336039    677.93047   0.01399064  0.012828862            4 
 4039000   0.60919525   -8.3299145    678.77497    0.0140046  0.012824443            3 
 4040000   0.60729504   -8.3328623    678.01917  0.013985544  0.012820015            3 
 4041000   0.60813173   -8.3197675    678.08712  0.013983484  0.012815593            5 
 4042000   0.60269816   -8.3229413    677.46557   0.01396721   0.01281117            4 
 4043000     0.612645   -8.3234352    677.47378  0.013963925   0.01280675            7 
 4044000   0.60276035    -8.327343    677.39005  0.013958747  0.012802327            6 
 4045000   0.60222769   -8.3244848    677.72268  0.013962148  0.012797905            5 
 4046000   0.61235389   -8.3527801    678.03224  0.013965073  0.012793478            3 
 4047000   0.59741335   -8.3186863    677.83905  0.013957645   0.01278906            3 
 4048000   0.61050644   -8.3381338    677.97141  0.013956921  0.012784643            3 
 4049000   0.60459684   -8.3168543    677.62876  0.013946422   0.01278023            4 
 4050000   0.60928699   -8.3451329    678.01886  0.013951005  0.012775811            5 
 4051000   0.60764174    -8.324133    678.51984  0.013957867  0.012771394            5 
 4052000   0.59915152   -8.3261743    678.31803  0.013950272  0.012766984            5 
 4053000   0.58313476   -8.3595046    676.81903  0.013916009  0.012762565            3 
 4054000     0.605358   -8.3488715    676.97765  0.013915837  0.012758153            4 
 4055000   0.61868077   -8.3256773    677.54606  0.013924087  0.012753739            5 
 4056000   0.60900023    -8.330768    678.29594  0.013936061  0.012749329            4 
 4057000   0.59732822    -8.334234    678.58041  0.013938469  0.012744927            3 
 4058000   0.61578936   -8.3289822    678.33057  0.013929903  0.012740522            5 
 4059000   0.59973619   -8.3334388    677.58071  0.013911076  0.012736121            2 
 4060000   0.61053342   -8.3421761    678.72792  0.013931197  0.012731723            3 
 4061000   0.58904329   -8.3613144    676.92554  0.013890781  0.012727325            3 
 4062000   0.60560213   -8.3332662    678.43992  0.013918429   0.01272293            7 
 4063000   0.60286863   -8.3284031    676.25935  0.013870279  0.012718534            5 
 4064000   0.59460532   -8.3638144    677.89017  0.013900307  0.012714142            3 
 4065000   0.60847067   -8.3395635    677.48759  0.013888635  0.012709745            4 
 4066000   0.61002817   -8.3423969    677.43318  0.013884104  0.012705348            8 
 4067000   0.59524245   -8.3345342    677.38006  0.013879601  0.012700964            7 
 4068000   0.60073187   -8.3405247     677.3426  0.013875422  0.012696576            6 
 4069000   0.60669453   -8.3423115    676.74423  0.013859757   0.01269219            3 
 4070000   0.59160608   -8.3373426    678.50703  0.013892445    0.0126878            3 
 4071000   0.60474208   -8.3489142    676.40934  0.013846093  0.012683409            5 
 4072000   0.60459461   -8.3462077    676.56686  0.013845916  0.012679019            5 
 4073000   0.58463949   -8.3376149    677.73395  0.013866396  0.012674634            4 
 4074000   0.60065231   -8.3353779    677.09815  0.013849987  0.012670253            5 
 4075000   0.60051416   -8.3247614     677.1659  0.013847973  0.012665869            3 
 4076000   0.60370595   -8.3365371    677.09301  0.013843086  0.012661494            8 
 4077000   0.59734928   -8.3659722    676.57643  0.013829132  0.012657118            3 
 4078000   0.60217805   -8.3321968    676.05661  0.013815118  0.012652742            4 
 4079000    0.5921281   -8.3551337    676.70485  0.013824975  0.012648367            3 
 4080000   0.60788515   -8.3470277    677.98255  0.013847683  0.012643995            5 
 4081000   0.60653491   -8.3516678    677.17308   0.01382776  0.012639626            8 
 4082000   0.59632803   -8.3354778    676.56379  0.013811934  0.012635257            4 
 4083000    0.5967359   -8.3482873    677.33954  0.013824385  0.012630894            4 
 4084000   0.58612563   -8.3398403    677.89311  0.013832295  0.012626537           11 
 4085000   0.58990029   -8.3371568    677.72421  0.013825463  0.012622187            7 
 4086000   0.59270493   -8.3534365    678.79309  0.013843879   0.01261784            7 
 4087000   0.60031162   -8.3374942    677.45709  0.013813251  0.012613481            7 
 4088000    0.6065602   -8.3482079    677.93176  0.013819548  0.012609133            3 
 4089000   0.60072768   -8.3538815    676.55497   0.01378811   0.01260478            8 
 4090000   0.60977085   -8.3337915    676.50993  0.013783821  0.012600428           10 
 4091000   0.60103868   -8.3438387    677.94284   0.01380964  0.012596074            7 
 4092000   0.58998694   -8.3626321     678.1112  0.013809694  0.012591719            5 
 4093000    0.6055788   -8.3496486    678.67907  0.013817882  0.012587368            7 
 4094000   0.60189659   -8.3494858    677.48043  0.013790108  0.012583023            9 
 4095000   0.59796719   -8.3346741     676.5187  0.013767169  0.012578673            8 
 4096000   0.59453548   -8.3437291    676.59853  0.013765432  0.012574325            5 
 4097000   0.60879112   -8.3642421    676.88903  0.013767981  0.012569979            5 
 4098000   0.60171234   -8.3629164    676.28868  0.013752413  0.012565636            2 
 4099000   0.61558737   -8.3605991    677.38623  0.013771372  0.012561292            6 
 4100000   0.60880313   -8.3468991     677.4265  0.013768831  0.012556945            4 
 4101000   0.60491216   -8.3629847    676.18515  0.013740249  0.012552611            8 
 4102000    0.5864472   -8.3490296    675.83561  0.013729799   0.01254827            3 
 4103000    0.5911682    -8.358875    676.68675  0.013743739  0.012543934            2 
 4104000    0.5937733   -8.3602395    676.75822  0.013741842  0.012539598            4 
 4105000   0.59546894   -8.3538922    677.80935  0.013759833  0.012535269            2 
 4106000   0.59525267   -8.3349077    676.74584  0.013734897  0.012530938            2 
 4107000   0.61018741   -8.3743433    676.51479  0.013726864  0.012526607            4 
 4108000   0.58058372    -8.337903     677.2202  0.013737833  0.012522285            2 
 4109000   0.60688029   -8.3268298    677.69605   0.01374414  0.012517966            3 
 4110000   0.59604884   -8.3465048    678.24251  0.013751876   0.01251365            2 
 4111000   0.60278878   -8.3317249    676.27501  0.013708648  0.012509327            2 
 4112000   0.59593544   -8.3498498    678.00843  0.013740443  0.012505016            2 
 4113000    0.5943482   -8.3579928    676.28774   0.01370224  0.012500702            2 
 4114000   0.59634475   -8.3538204    676.41399  0.013701466  0.012496388            2 
 4115000   0.59599184   -8.3541362    676.60183  0.013701941  0.012492075            2 
 4116000   0.57574458    -8.366939    677.32481  0.013713249  0.012487762            2 
 4117000   0.59638815   -8.3488641    678.09397  0.013725487  0.012483453            2 
 4118000   0.59811417   -8.3365831    677.87482  0.013717719  0.012479148            4 
 4119000   0.60335826   -8.3584262    676.46095  0.013685784  0.012474848            1 
 4120000   0.59835059   -8.3584223    677.29665  0.013699366  0.012470544            3 
 4121000   0.59302953   -8.3396037     677.3776  0.013697678  0.012466247            3 
 4122000   0.60048416   -8.3549839    678.26397  0.013712275   0.01246195            2 
 4123000   0.59163105   -8.3380822    676.48448  0.013672982  0.012457651            3 
 4124000   0.57702889   -8.3268189    676.77987  0.013675636  0.012453358            3 
 4125000   0.59018701   -8.3459676    677.86046  0.013694151  0.012449066            4 
 4126000   0.58609965   -8.3623493     676.6663  0.013666713   0.01244477            2 
 4127000   0.59451558   -8.3488053    677.42095   0.01367864  0.012440473            1 
 4128000   0.58821477    -8.370062    677.14954  0.013669847  0.012436176            2 
 4129000   0.58715045   -8.3394165    676.83723  0.013660233  0.012431886            7 
 4130000    0.5947983   -8.3330613    677.30596  0.013666383  0.012427596            3 
 4131000   0.60364681    -8.360163    676.93901  0.013655673  0.012423313            5 
 4132000   0.59187437   -8.3691939    677.01867  0.013653975  0.012419028            3 
 4133000   0.57826626   -8.3620809    677.88467  0.013668132  0.012414744            4 
 4134000   0.58213539   -8.3581164    676.80294   0.01364302   0.01241046            5 
 4135000    0.5806743   -8.3664959     676.3473  0.013630538  0.012406174            3 
 4136000   0.58719386   -8.3534491     676.5938  0.013632209   0.01240189            5 
 4137000   0.59598136   -8.3546426      677.321  0.013643562   0.01239761            4 
 4138000   0.58575733    -8.365561    677.04559  0.013634719  0.012393334            3 
 4139000   0.58499928   -8.3667675    675.34417  0.013597169  0.012389058            4 
 4140000   0.59424582   -8.3409158    677.20083  0.013631257  0.012384781            3 
 4141000   0.58541285   -8.3676004    676.41521  0.013612155  0.012380503            2 
 4142000     0.593779   -8.3588216    677.51751  0.013631046   0.01237623            2 
 4143000   0.58573111   -8.3718578    674.41209  0.013565293  0.012371952            5 
 4144000   0.58959372   -8.3705241    677.02449  0.013614553  0.012367674           10 
 4145000   0.58207364   -8.3731789    675.84142  0.013587483  0.012363397            6 
 4146000   0.58831979   -8.3557497    675.09109  0.013569125  0.012359121            7 
 4147000   0.58871917   -8.3840963    676.33773  0.013590904  0.012354848            6 
 4148000   0.59746264   -8.3682203     675.6062  0.013572931  0.012350579            2 
 4149000   0.60099624   -8.3458994    676.53206  0.013588255  0.012346317            2 
 4150000   0.57902235   -8.3761052    676.46778   0.01358369  0.012342056           10 
 4151000   0.57542187   -8.3897603    675.59578  0.013562912  0.012337791            5 
 4152000   0.57845974   -8.3686619    678.16229  0.013611157  0.012333519            6 
 4153000   0.59386763   -8.4000833    675.50097  0.013554478   0.01232925            6 
 4154000    0.5892076   -8.3719613    675.52647  0.013551727   0.01232499            7 
 4155000   0.58124302   -8.3808533    676.81089  0.013574226  0.012320727            4 
 4156000   0.58346784   -8.3706704    677.12181  0.013577194  0.012316471            5 
 4157000   0.57472961   -8.3743635    675.15257  0.013534451  0.012312217            4 
 4158000   0.59273196   -8.3684938    675.76726  0.013543516  0.012307964            9 
 4159000   0.59055152   -8.3695048    676.68593  0.013558667   0.01230371            7 
 4160000   0.58486421   -8.3716655    677.36123  0.013568935  0.012299458           11 
 4161000   0.59414341   -8.3724353     677.3608  0.013565665  0.012295207           12 
 4162000   0.59165543   -8.3789282    675.66862  0.013528524  0.012290953            3 
 4163000   0.58256002   -8.3850626    676.66788  0.013545277    0.0122867            4 
 4164000   0.57771762   -8.3661232    676.82416  0.013545152  0.012282452           14 
 4165000   0.58766446   -8.3594117    676.31429  0.013531698  0.012278209            5 
 4166000   0.58460777   -8.3782063    676.20134  0.013526191  0.012273973            4 
 4167000    0.5881333   -8.3564378    676.60153  0.013530948  0.012269736            8 
 4168000   0.58696693   -8.3545571    676.42742  0.013524221  0.012265506            5 
 4169000   0.59326264    -8.364334    676.14494   0.01351533  0.012261274            3 
 4170000   0.58231576    -8.363458    676.11533  0.013511497  0.012257043           11 
 4171000   0.58094181   -8.3714436    676.83752  0.013522687  0.012252811            5 
 4172000   0.58252256    -8.377284    677.02738  0.013523238  0.012248584            5 
 4173000   0.57978541    -8.370728    676.29085  0.013505289  0.012244359            7 
 4174000   0.57115862   -8.3665635    675.10539  0.013478386  0.012240135            2 
 4175000    0.5779728   -8.3672567    675.97707  0.013492556  0.012235908            5 
 4176000   0.57824622   -8.3746892    676.57491  0.013501255  0.012231683           12 
 4177000   0.57094336   -8.4040631    675.02963  0.013467194  0.012227457            3 
 4178000    0.5956944   -8.3873611    675.70447  0.013477431  0.012223238            3 
 4179000   0.57594586   -8.3860859    677.14608  0.013502953  0.012219023            8 
 4180000   0.57655288    -8.374755    675.89137  0.013474708   0.01221481            4 
 4181000   0.58800898   -8.3856369    676.41759  0.013481974  0.012210597           12 
 4182000   0.58386861   -8.3865583    676.29835  0.013476374  0.012206382            7 
 4183000   0.57880985   -8.3817744    676.42568  0.013475689  0.012202171            9 
 4184000   0.59165823   -8.3837614    676.69281  0.013477789   0.01219796           10 
 4185000   0.59717483   -8.3793552    675.76497  0.013456093   0.01219375            7 
 4186000   0.58243938   -8.3930688    675.29387    0.0134435  0.012189539            9 
 4187000    0.5761549   -8.3910745    676.43656  0.013463032  0.012185333            6 
 4188000   0.58225575   -8.3850959    677.15397  0.013474092   0.01218113            5 
 4189000   0.57666455   -8.3823593    676.53407  0.013458544  0.012176935            2 
 4190000   0.59507057   -8.3840524    676.66319    0.0134579  0.012172734            6 
 4191000   0.58240088   -8.3958556    676.92768  0.013459947  0.012168533           12 
 4192000   0.58226349   -8.3780699    676.58828   0.01344999  0.012164337           11 
 4193000   0.59260197   -8.3849706    676.13567  0.013437787  0.012160147            7 
 4194000   0.57764902    -8.372047    676.27434  0.013437338  0.012155957           14 
 4195000   0.57842606   -8.3936141    675.99069    0.0134285  0.012151772           10 
 4196000   0.57619526   -8.3883195    676.17026  0.013428866  0.012147584            9 
 4197000   0.58267249   -8.3978547    677.62189  0.013454489  0.012143401           12 
 4198000   0.59235056   -8.3975885    675.98144   0.01341872  0.012139214            6 
 4199000    0.5838405   -8.3775219    677.08977   0.01343752  0.012135026            6 
 4200000   0.58408923   -8.3715082    674.89245  0.013390723  0.012130842            5 
 4201000   0.56911901   -8.3967641    676.19909  0.013413455  0.012126657            3 
 4202000   0.58135949   -8.3958905    675.95864  0.013405494  0.012122474            9 
 4203000   0.58608272   -8.3780348    676.58091  0.013414643  0.012118288            9 
 4204000   0.58843824    -8.389217    675.87204    0.0133974  0.012114105            9 
 4205000   0.56650798   -8.3857816    675.78614  0.013392512  0.012109919            7 
 4206000   0.58119058    -8.396195     676.1628   0.01339679  0.012105741            5 
 4207000   0.57480486   -8.3926574    675.24088  0.013375344  0.012101568           13 
 4208000   0.57861837   -8.3969225    675.57054  0.013378694  0.012097395            2 
 4209000   0.58886452   -8.4098274    676.80488  0.013399954  0.012093226           19 
 4210000   0.58007847   -8.3958557    675.98571  0.013380556  0.012089057            5 
 4211000   0.57948829   -8.3969501    675.73672  0.013372451  0.012084884           10 
 4212000   0.58209743   -8.4079789    676.26325  0.013379694  0.012080722            6 
 4213000   0.58028342   -8.3854602     676.4705  0.013380618  0.012076557            9 
 4214000   0.57802258   -8.3946185     676.2272  0.013372631  0.012072389            8 
 4215000   0.57866553   -8.3736304    677.58816  0.013396365  0.012068229            7 
 4216000   0.57012024   -8.3932413    675.93131  0.013360439  0.012064066           12 
 4217000   0.58817159   -8.4027305    675.93865  0.013357415  0.012059906           11 
 4218000   0.56076143   -8.3811465    675.34461  0.013342512  0.012055744           10 
 4219000   0.57039202    -8.406464    675.34756  0.013339408  0.012051587            7 
 4220000   0.58165235    -8.408553    677.17245  0.013372284  0.012047436            5 
 4221000     0.567492   -8.4092532     675.5527  0.013337138  0.012043281            4 
 4222000   0.56836664   -8.4049829    675.68674  0.013336625   0.01203913           11 
 4223000   0.56193293   -8.4003486    677.30862  0.013365471   0.01203498            3 
 4224000   0.58203187   -8.3918407    676.37805  0.013343948  0.012030828            9 
 4225000   0.57377661   -8.4096749    675.52274   0.01332392  0.012026679            8 
 4226000   0.57374373    -8.402853    675.65199  0.013323316  0.012022527            2 
 4227000    0.5619961   -8.4002633    676.24677   0.01333189  0.012018374            3 
 4228000    0.5646385   -8.4108051    676.86007  0.013340824  0.012014224           13 
 4229000    0.5781666   -8.4174048    675.40226  0.013308943   0.01201008           11 
 4230000   0.57296267    -8.409897     674.6138  0.013290264  0.012005933           15 
 4231000   0.57305305   -8.4277662    676.26095  0.013319565  0.012001793            9 
 4232000   0.57294649   -8.4031764    674.98553  0.013291303  0.011997652            4 
 4233000    0.5829244   -8.4022482    675.08415  0.013290105  0.011993517           11 
 4234000   0.58245842   -8.3937064    674.68993  0.013279207  0.011989379            7 
 4235000    0.5736381   -8.3898004    676.40655   0.01330985  0.011985241           11 
 4236000   0.57139816   -8.4005887    676.32823  0.013305167  0.011981108            3 
 4237000   0.58940112   -8.3919042    676.04388  0.013296434  0.011976973            4 
 4238000   0.56307727   -8.4092053    675.88499  0.013290172   0.01197284           11 
 4239000   0.58833583    -8.399067     676.5674  0.013300452  0.011968709            9 
 4240000   0.56730836   -8.4023715    675.82477   0.01328272  0.011964589            8 
 4241000   0.56254051   -8.4060381    675.22022  0.013267708  0.011960468            4 
 4242000   0.57835674   -8.4224916    675.97492  0.013279407  0.011956347            7 
 4243000   0.56738864   -8.4192836    675.05141  0.013258139  0.011952229            5 
 4244000   0.57258153   -8.4083359    675.04641  0.013254917  0.011948113            4 
 4245000   0.57384971   -8.4010658     675.5914  0.013262493  0.011943996            8 
 4246000   0.58600354    -8.418707    676.13054  0.013269951  0.011939877            4 
 4247000   0.57289133   -8.4127474    675.41968  0.013252878   0.01193576            1 
 4248000   0.57329762   -8.4021918    676.31367  0.013267296  0.011931646            5 
 4249000   0.56810836   -8.3777402    675.25743  0.013243458  0.011927532            2 
 4250000   0.57733162   -8.4119349    674.85671  0.013232484  0.011923419            5 
 4251000   0.56820056   -8.4089612      675.119  0.013234513  0.011919308            5 
 4252000   0.57726715   -8.4259172    675.01392  0.013229342  0.011915198            8 
 4253000   0.58177016   -8.4050188     675.6152  0.013238012  0.011911091            4 
 4254000   0.57236089   -8.4105762     676.0566  0.013243547  0.011906985            3 
 4255000   0.56679418   -8.4013592    674.88288  0.013217448   0.01190288            8 
 4256000   0.57681112   -8.3945628     675.1919  0.013220393  0.011898778            2 
 4257000   0.57544604   -8.4022974    675.76773  0.013228559  0.011894676            6 
 4258000    0.5600128   -8.4155332    675.60598  0.013222287  0.011890572            4 
 4259000   0.57461098   -8.4149238    675.47534  0.013216626  0.011886471            4 
 4260000   0.56685381   -8.4042029      676.397  0.013231553  0.011882371            2 
 4261000   0.56473126   -8.4264303    675.22484  0.013205524  0.011878275            5 
 4262000   0.56783201   -8.4311126    676.26084  0.013222682   0.01187418            5 
 4263000   0.57210211   -8.4132575    675.49107  0.013204533  0.011870084            9 
 4264000   0.57185216   -8.4169371      675.162  0.013195005  0.011865989            4 
 4265000   0.56945964   -8.4147875    674.39774  0.013176978  0.011861894            3 
 4266000   0.56501911   -8.4039926    674.75597  0.013180887  0.011857804            2 
 4267000   0.56881338   -8.4024838    676.50886  0.013212032  0.011853718            3 
 4268000    0.5740723   -8.4210041    674.91439  0.013177804  0.011849628            7 
 4269000   0.56546577   -8.4072042    675.57692   0.01318765  0.011845546            4 
 4270000   0.56746034   -8.4267329    676.10412   0.01319485  0.011841464            5 
 4271000    0.5636725   -8.4187772    675.02004  0.013170609  0.011837382            3 
 4272000   0.56594665   -8.3848366    674.85543  0.013164315  0.011833306            2 
 4273000   0.57914763   -8.4250422     676.1839  0.013187142  0.011829232            8 
 4274000   0.56541754   -8.4354392     675.9928  0.013180331  0.011825156            3 
 4275000   0.57238235   -8.4087094    675.65978  0.013170756  0.011821082            2 
 4276000   0.56615617   -8.4211208    674.57816  0.013146596   0.01181701            8 
 4277000   0.56288091   -8.4138258    675.01487  0.013152032  0.011812942            2 
 4278000   0.57050576   -8.4327322    674.30387  0.013135107  0.011808874            3 
 4279000   0.57124351   -8.4030571     675.0496  0.013146561  0.011804812            4 
 4280000   0.56468284   -8.4331152     675.2795  0.013147965  0.011800748            6 
 4281000   0.56745894   -8.4220111    676.24461  0.013163681  0.011796689            3 
 4282000   0.54609471   -8.4104973    675.10296  0.013138389  0.011792628            7 
 4283000   0.55877534   -8.4299174    674.94007  0.013132152  0.011788567            3 
 4284000    0.5684835   -8.4092978    674.87727  0.013127865  0.011784511            5 
 4285000   0.56842654    -8.424555    674.70438  0.013121439  0.011780458            8 
 4286000   0.57725732   -8.3890981    676.00915  0.013143746  0.011776408            3 
 4287000   0.56222171   -8.4019978    675.93227  0.013139186  0.011772357            5 
 4288000   0.56061999   -8.4295742    675.38556  0.013125497  0.011768309            5 
 4289000   0.56759236   -8.4320069    675.10335  0.013116953  0.011764262            2 
 4290000   0.56481475    -8.408576     675.9596  0.013130528  0.011760216            9 
 4291000   0.55442087   -8.4189671    674.59802  0.013101026   0.01175617            7 
 4292000   0.56378462   -8.4226322    675.26862  0.013110994  0.011752123            5 
 4293000   0.57129939   -8.4259909    675.52823  0.013112979  0.011748079            9 
 4294000   0.56291519   -8.4143634    674.79632  0.013095721  0.011744035            8 
 4295000   0.56381013   -8.4167576    673.59541  0.013069372  0.011739992            3 
 4296000   0.57194366    -8.437407    675.05734  0.013094688  0.011735955            5 
 4297000   0.56574661   -8.4281937    674.26446  0.013076264  0.011731921            3 
 4298000   0.56961541   -8.4214517    674.89956  0.013085535  0.011727882            5 
 4299000   0.56373263   -8.4173976    674.11582  0.013067299  0.011723845            3 
 4300000   0.55641403   -8.4460978    674.37382   0.01306926  0.011719807            3 
 4301000   0.56928343   -8.4287744    675.58161  0.013089623  0.011715775            4 
 4302000   0.56706516   -8.4270375    674.17633  0.013059359  0.011711741            3 
 4303000   0.57478775   -8.4229204    674.03872  0.013053659   0.01170771            3 
 4304000   0.57454957   -8.4280923    674.99168  0.013069077  0.011703688            2 
 4305000   0.56325981   -8.4228239    675.46482    0.0130752  0.011699665            4 
 4306000   0.57659379   -8.4279085    676.22732   0.01308692  0.011695639            5 
 4307000   0.56610984   -8.4264685    674.59284  0.013052257   0.01169162            2 
 4308000   0.57260491   -8.4174681     675.6691  0.013070046  0.011687601            3 
 4309000   0.56051539   -8.4301627    676.69057  0.013086768  0.011683588            3 
 4310000   0.56559731   -8.4290466    675.70049  0.013064588  0.011679571            3 
 4311000    0.5590173   -8.4177625    674.42327  0.013036868  0.011675564            4 
 4312000   0.55847788   -8.4149024    673.76404  0.013021105  0.011671554            4 
 4313000    0.5723265   -8.4208263     675.5778   0.01305313  0.011667544            2 
 4314000   0.56301699   -8.4133698    674.92726  0.013037538  0.011663535            4 
 4315000   0.55771548   -8.4403636    674.88394   0.01303368  0.011659523            2 
 4316000    0.5622319   -8.4303446    676.09087  0.013053963  0.011655517            4 
 4317000   0.55755686   -8.4351948    674.51396    0.0130205   0.01165151            4 
 4318000   0.57020303   -8.4372056    675.27311  0.013032135  0.011647509            2 
 4319000   0.56653771   -8.4161808    675.01548  0.013024147  0.011643507            2 
 4320000   0.55243517   -8.4221988    674.84699  0.013017882  0.011639509            6 
 4321000   0.55751264   -8.4230542    675.82237   0.01303368  0.011635509            3 
 4322000   0.56256904   -8.4410046    674.70038  0.013009031   0.01163151            3 
 4323000   0.56940471   -8.4347072    673.99368  0.012992399  0.011627516            6 
 4324000   0.56062991   -8.4267264    675.75078  0.013023257  0.011623519            6 
 4325000   0.55727149   -8.4289605    674.70148  0.013000028  0.011619529            6 
 4326000   0.56479803   -8.4117195    674.85931  0.013000064   0.01161554            4 
 4327000   0.55934063   -8.4331326    676.01409  0.013019299  0.011611553            5 
 4328000   0.55083258   -8.4264659    675.23946  0.013001376  0.011607574            4 
 4329000   0.57426827   -8.4165584    675.32879  0.013000092  0.011603592            2 
 4330000   0.55200334    -8.432618    674.35537  0.012978356  0.011599607            3 
 4331000   0.55330757   -8.4176924    675.53234  0.012998006  0.011595627            5 
 4332000   0.55350065   -8.4230124    675.95835    0.0130032  0.011591648            7 
 4333000   0.54744142   -8.4212464    674.83372   0.01297857  0.011587672            3 
 4334000   0.56373543   -8.4267971    675.38673  0.012986208  0.011583697            2 
 4335000   0.55584261   -8.4183669      675.319  0.012981911  0.011579725            3 
 4336000   0.55963525   -8.4058651    675.73131  0.012986841  0.011575752            4 
 4337000    0.5550088   -8.4285272    674.16817  0.012953812  0.011571783            1 
 4338000   0.56524716   -8.4094829    674.67274  0.012960518  0.011567817            2 
 4339000   0.55934788   -8.4330367    674.99556  0.012963731  0.011563851            4 
 4340000   0.55255454   -8.4222243    674.19123    0.0129453  0.011559887            2 
 4341000   0.56995747   -8.4261316    674.50807    0.0129484  0.011555921            5 
 4342000   0.54711058   -8.4094774    675.14267  0.012957598  0.011551957            4 
 4343000   0.55370336   -8.4182933     674.9498  0.012950913  0.011547994            3 
 4344000   0.54683908   -8.4348553     674.9043  0.012947059  0.011544031            5 
 4345000   0.56501345   -8.4248736     675.0175  0.012946251  0.011540069            2 
 4346000   0.55466887   -8.4182362    675.11884  0.012945215  0.011536112            3 
 4347000   0.54744163   -8.4255624    675.00665  0.012940086  0.011532163            8 
 4348000   0.55498107   -8.4126208    675.30096  0.012942751  0.011528211            6 
 4349000   0.56527346   -8.4154986    675.48913   0.01294338  0.011524262            3 
 4350000   0.55444317   -8.4203921    674.47309   0.01292094  0.011520316            2 
 4351000   0.56068822   -8.4368687    675.61761  0.012939891  0.011516372            2 
 4352000   0.57770214   -8.4311644      673.617   0.01289861  0.011512428            3 
 4353000   0.54671625   -8.4234163    675.26601  0.012927215  0.011508489            2 
 4354000   0.56526039   -8.4179996    673.89612  0.012898027  0.011504547            2 
 4355000   0.56277978   -8.4163181    673.70045  0.012891321  0.011500604            3 
 4356000   0.54912439   -8.4351907    675.30007  0.012918964  0.011496661            3 
 4357000   0.55747549   -8.4208753    674.62592  0.012903105  0.011492719            1 
 4358000    0.5452572   -8.4224301    675.01824  0.012907646  0.011488775            3 
 4359000   0.56088136   -8.4420843    672.98674  0.012865847  0.011484835            2 
 4360000   0.55316152   -8.4149704    675.03296  0.012902006  0.011480895            2 
 4361000   0.55275463   -8.4396259    675.31206  0.012904381  0.011476965            7 
 4362000   0.55236206   -8.4333891    673.77937  0.012872141  0.011473025            3 
 4363000   0.54821041   -8.4343462    673.84769  0.012870496  0.011469094            7 
 4364000   0.54471413   -8.4279175    674.44689  0.012878989  0.011465163            2 
 4365000   0.56151299   -8.4272272    674.78243  0.012882444  0.011461237            3 
 4366000    0.5467263   -8.4330214    673.43756  0.012853824  0.011457311            3 
 4367000   0.55911097    -8.414765    674.89136  0.012878623  0.011453383            1 
 4368000   0.55483045   -8.4377011     674.4187  0.012866657   0.01144946            8 
 4369000   0.54532095   -8.4470843    674.79421  0.012870875  0.011445537            2 
 4370000   0.55955466   -8.4264824    674.69037  0.012865949  0.011441611            7 
 4371000   0.53884958   -8.4317586    674.10603  0.012851865  0.011437689            2 
 4372000   0.55959384   -8.4264938    676.02674  0.012885536  0.011433772            4 
 4373000   0.54612543   -8.4226415    674.45133  0.012852567  0.011429852            3 
 4374000   0.56078996   -8.4410124    672.42392  0.012811003  0.011425935            5 
 4375000   0.55975424   -8.4442684    673.61282   0.01283072  0.011422017            1 
 4376000   0.54396308     -8.42538    673.74531  0.012830311  0.011418104            2 
 4377000   0.55813926   -8.4482779    674.10317  0.012834193  0.011414189            7 
 4378000   0.54774302   -8.4531417    675.43196  0.012856555  0.011410278            2 
 4379000   0.53789015    -8.455261    672.88507  0.012805151  0.011406362            2 
 4380000   0.53823624   -8.4358527    673.65906  0.012816953   0.01140245            3 
 4381000   0.55185293   -8.4224831    674.26958  0.012825641  0.011398539            2 
 4382000   0.54838943   -8.4329946    674.64517  0.012829856   0.01139463            2 
 4383000   0.55220872   -8.4400371    673.49134  0.012804992  0.011390724            3 
 4384000   0.54860801   -8.4426544     673.9617  0.012811012  0.011386814            4 
 4385000   0.55863195   -8.4471357    673.96761  0.012808202  0.011382915            3 
 4386000   0.55073598    -8.457374    674.46342  0.012814703  0.011379011            5 
 4387000   0.54875662   -8.4401101    673.51908  0.012793843   0.01137511            5 
 4388000   0.55007036   -8.4504015    674.95974  0.012818287  0.011371216            1 
 4389000   0.55733944   -8.4288168    674.63787  0.012809255  0.011367321            3 
 4390000   0.55462159   -8.4435164    675.32551  0.012819391  0.011363428            7 
 4391000   0.53670768   -8.4434353    674.74795   0.01280551  0.011359541            1 
 4392000   0.54764017   -8.4488461     673.8419  0.012785403  0.011355652            3 
 4393000   0.55266903   -8.4476204    673.71354  0.012780058  0.011351767            3 
 4394000   0.54656897   -8.4467163    674.47962  0.012791678  0.011347882            3 
 4395000   0.54652001   -8.4188338    675.08884  0.012800319  0.011344002            3 
 4396000   0.54974072   -8.4574378    675.27793  0.012800992  0.011340118            3 
 4397000   0.54693916   -8.4412874    674.25375   0.01277867  0.011336238            1 
 4398000   0.53705639   -8.4397639    674.71286  0.012784464   0.01133236            3 
 4399000   0.54901409   -8.4549705     674.0193  0.012768419  0.011328484            2 
 4400000   0.53393281   -8.4564988    674.12651  0.012767548  0.011324606            2 
 4401000   0.54071345   -8.4313567    674.85119  0.012778368  0.011320736            2 
 4402000    0.5543305   -8.4264216     673.4964  0.012749818  0.011316863            3 
 4403000   0.55550634    -8.436426    673.97126   0.01275591  0.011312988            3 
 4404000   0.54698711    -8.435274    675.20593  0.012776376  0.011309121            3 
 4405000   0.54425353   -8.4391554    673.98178  0.012750317  0.011305255            3 
 4406000   0.55455477   -8.4370863    674.34163   0.01275423   0.01130139            5 
 4407000   0.54189945    -8.430533    674.16823  0.012748057  0.011297528            4 
 4408000   0.55134486   -8.4434473    673.90214  0.012740134  0.011293666            2 
 4409000   0.55570097   -8.4402579    673.60218  0.012731575  0.011289805            2 
 4410000   0.53599507   -8.4460078    674.55493  0.012746692  0.011285949            4 
 4411000   0.55056616   -8.4320234    674.54939  0.012743697  0.011282091            2 
 4412000   0.53599336   -8.4356542    673.39446  0.012718995  0.011278232            1 
 4413000   0.54525592   -8.4458359    675.91322  0.012763676  0.011274376            3 
 4414000   0.54416983   -8.4405668    673.84898  0.012721813   0.01127052            3 
 4415000   0.54413838   -8.4457065    674.62678  0.012733612  0.011266669            3 
 4416000   0.54491343   -8.4352633    674.64908   0.01273115  0.011262819            2 
 4417000   0.54811377   -8.4700515    673.41998  0.012705079  0.011258967            3 
 4418000   0.53907108    -8.452053    673.39883  0.012701804  0.011255121            2 
 4419000   0.53911587   -8.4521158    673.49949  0.012700828  0.011251273            5 
 4420000   0.54231798   -8.4332315    674.75796  0.012721681  0.011247426            2 
 4421000   0.55154211    -8.440024    674.46272  0.012713238  0.011243579            2 
 4422000   0.54825923   -8.4553288     673.7976  0.012697829  0.011239739            2 
 4423000   0.54868865   -8.4635565    673.68694  0.012692873  0.011235896            1 
 4424000   0.55339816   -8.4388195    672.62783  0.012670054  0.011232054            4 
 4425000   0.53628062   -8.4406097     673.8779  0.012690733   0.01122822            2 
 4426000   0.52664327   -8.4627126     673.2704  0.012676427   0.01122438            2 
 4427000   0.53105996   -8.4434283    674.22794  0.012691588  0.011220541            3 
 4428000   0.52944784   -8.4516195    675.15259  0.012706124  0.011216706            3 
 4429000   0.55414258   -8.4646078    674.20606  0.012685445  0.011212873            5 
 4430000   0.55045743   -8.4302246    674.20668  0.012682594  0.011209046            2 
 4431000   0.52990937   -8.4659056    675.08945  0.012696334  0.011205219            4 
 4432000   0.53130497   -8.4557436    674.01625   0.01267329   0.01120139            7 
 4433000   0.53958003   -8.4603997    672.98438  0.012651033  0.011197561            2 
 4434000   0.55538726   -8.4502976    672.85559   0.01264576  0.011193734            3 
 4435000   0.54253549   -8.4453979     674.0146  0.012664686  0.011189908            3 
 4436000   0.54541357   -8.4503046     674.0979  0.012663396  0.011186087            4 
 4437000   0.54599744   -8.4516958     674.9245  0.012676067  0.011182266            4 
 4438000    0.5490105   -8.4552659    673.72383  0.012650665  0.011178441            2 
 4439000   0.55333236   -8.4608973    673.65992  0.012646616  0.011174617            5 
 4440000   0.55394483    -8.464509    672.45891  0.012621226  0.011170797            3 
 4441000   0.54403861   -8.4602228    673.63687  0.012640488  0.011166978            2 
 4442000   0.54301347   -8.4447677     673.4738  0.012634583  0.011163165            7 
 4443000    0.5380231   -8.4364313    673.48446  0.012631939  0.011159358            2 
 4444000   0.53881453   -8.4447334    674.73655  0.012652576   0.01115555            2 
 4445000   0.54806019   -8.4405413    674.21824  0.012640012  0.011151742            2 
 4446000   0.54625617   -8.4655419    674.08755  0.012634719  0.011147934            1 
 4447000   0.55042241   -8.4549582    672.83044  0.012608321   0.01114413            2 
 4448000   0.54032276   -8.4412339    673.83293  0.012624268  0.011140328            4 
 4449000   0.53014749   -8.4511871    672.71572  0.012600504  0.011136525            3 
 4450000   0.54769016   -8.4499546    673.25406  0.012607754  0.011132724            2 
 4451000   0.53559803   -8.4588453    674.36802  0.012625777  0.011128927            3 
 4452000   0.54082601   -8.4590186    672.97336  0.012596836  0.011125129            2 
 4453000    0.5450202   -8.4416109    675.10533  0.012633905  0.011121336            4 
 4454000   0.53412399   -8.4528761    673.72773  0.012605294  0.011117544            2 
 4455000   0.54674595   -8.4487008    673.77924  0.012603428  0.011113752            2 
 4456000   0.51972215   -8.4538549    673.39368  0.012593389   0.01110996            2 
 4457000   0.53342494   -8.4690835    673.28742  0.012588576  0.011106164            4 
 4458000   0.54207409   -8.4739705    673.57081   0.01259105   0.01110237            2 
 4459000   0.54375543   -8.4546466    674.49074  0.012605419  0.011098583            3 
 4460000   0.52487302   -8.4532623    673.65261  0.012586932  0.011094798            5 
 4461000   0.54077303   -8.4472037    673.76062  0.012586128  0.011091011            2 
 4462000   0.54009656   -8.4537919    674.05124  0.012588735  0.011087229            2 
 4463000   0.54227548   -8.4543952    673.67554  0.012578899  0.011083445            2 
 4464000   0.53141234   -8.4743954    673.57959   0.01257429  0.011079662            4 
 4465000   0.53854675    -8.446966    672.86857  0.012558204  0.011075879            2 
 4466000   0.53586933   -8.4604264    673.05246  0.012558823  0.011072099            3 
 4467000   0.52754276   -8.4734189    673.36346  0.012561814  0.011068324            3 
 4468000   0.54173906   -8.4606407    672.70503  0.012546722  0.011064552            1 
 4469000   0.53585143   -8.4618903    673.86604  0.012565564  0.011060781            3 
 4470000   0.52017107   -8.4516943     674.1677  0.012568376  0.011057017            2 
 4471000   0.52847909   -8.4696206    673.03966   0.01254454  0.011053253            3 
 4472000   0.52789739   -8.4582488    673.94955   0.01255869   0.01104949            2 
 4473000   0.53350771   -8.4502133    673.04537  0.012539037  0.011045728            3 
 4474000   0.54126468   -8.4646088     673.7426  0.012549221  0.011041969            2 
 4475000   0.53740826   -8.4728359    673.27139  0.012537642  0.011038211            2 
 4476000   0.54420142   -8.4684648    673.78997  0.012544496  0.011034449            2 
 4477000   0.54004685   -8.4562561    674.09032  0.012547285  0.011030689            3 
 4478000   0.53640983   -8.4634434    672.93727  0.012523025  0.011026936            2 
 4479000   0.52650632     -8.44713    674.37776   0.01254703  0.011023182            2 
 4480000   0.53413702    -8.460675    674.46071  0.012545772  0.011019429            2 
 4481000   0.54065617   -8.4645441    674.26101  0.012539259  0.011015678            1 
 4482000   0.53298017   -8.4650806    672.88308  0.012510841  0.011011931            3 
 4483000   0.53104957   -8.4729874    672.46003  0.012500186  0.011008183            2 
 4484000   0.54649626   -8.4509181    673.80073  0.012522315  0.011004437            2 
 4485000    0.5233921   -8.4427879    673.41284  0.012512316  0.011000692            4 
 4486000    0.5392278   -8.4675328    673.66478  0.012514207  0.010996951            2 
 4487000   0.53909397   -8.4524057    673.87805  0.012515379  0.010993211            3 
 4488000   0.54259502   -8.4593805     674.1797  0.012518191  0.010989473            2 
 4489000   0.52878519   -8.4709917    673.24985  0.012498141  0.010985736            2 
 4490000   0.54408232   -8.4673369    672.63159  0.012483883  0.010981998            3 
 4491000   0.52184764   -8.4698594    672.98692  0.012487696  0.010978257            3 
 4492000   0.52766794   -8.4678193    673.38833  0.012492363  0.010974517            2 
 4493000   0.53463222   -8.4670947     673.0273  0.012482886  0.010970781            1 
 4494000   0.53168043   -8.4702379    673.62783  0.012491244  0.010967049            3 
 4495000   0.52656407   -8.4819585    673.73763  0.012490501  0.010963316            2 
 4496000   0.53405647   -8.4619978    673.60131  0.012485196  0.010959583            1 
 4497000   0.52325979   -8.4765664    673.35431  0.012477843  0.010955852            3 
 4498000   0.53485705   -8.4720797    673.08142  0.012470013  0.010952121            3 
 4499000    0.5410563   -8.4704417    672.90164  0.012463911  0.010948393            2 
 4500000   0.52573072   -8.4523738    673.09335  0.012464692   0.01094467            2 
 4501000   0.52840044   -8.4812457    673.42321   0.01246803  0.010940945            5 
 4502000   0.53281374   -8.4770016     672.5411  0.012448932  0.010937221            3 
 4503000   0.51893501   -8.4802664    674.28939  0.012478522  0.010933498            1 
 4504000   0.52886583   -8.4629657    673.11791  0.012454076   0.01092977            2 
 4505000   0.52483769   -8.4645994    672.95211  0.012448245  0.010926046            3 
 4506000   0.51177141   -8.4941508    673.19418  0.012449959  0.010922325            2 
 4507000   0.52744495   -8.4785271    672.53889  0.012435081  0.010918605            3 
 4508000   0.53518362   -8.4664813     673.1882  0.012444325  0.010914891            3 
 4509000   0.52545388   -8.4820538    673.25718   0.01244284  0.010911175            2 
 4510000    0.5339376   -8.4701644    672.98358  0.012435025  0.010907461            1 
 4511000   0.53034922   -8.4918511    672.17713  0.012417371   0.01090375            2 
 4512000   0.54195115   -8.4664323    672.70607  0.012424388  0.010900041            4 
 4513000   0.52134988   -8.4804384    673.94831  0.012444573  0.010896335            2 
 4514000   0.53266255   -8.4739635    672.97906  0.012423923  0.010892629            2 
 4515000   0.53749408   -8.4695157    672.57862   0.01241378  0.010888922            2 
 4516000   0.53054385   -8.5052034    673.01253  0.012419038  0.010885216            2 
 4517000   0.53505237   -8.4772947    673.58204  0.012426796  0.010881514            3 
 4518000   0.53179121    -8.484801    672.17875  0.012398162  0.010877812            2 
 4519000   0.52730719   -8.4695983     673.4737  0.012419298   0.01087411            4 
 4520000   0.52251636   -8.4820496    672.50957  0.012398775  0.010870412            4 
 4521000   0.52446628   -8.4846422    673.33436  0.012411236  0.010866719            2 
 4522000   0.54196486   -8.4910982    671.60159  0.012376559  0.010863025            3 
 4523000    0.5222063   -8.4839584    673.28892   0.01240491   0.01085933            1 
 4524000   0.53184861   -8.4844488    672.33634  0.012384622  0.010855637            3 
 4525000   0.52213006   -8.4669474    672.73234  0.012389178  0.010851946            2 
 4526000   0.52849739   -8.4919295    673.03513  0.012392015  0.010848257            3 
 4527000   0.53324768   -8.4870424    672.58481  0.012380988  0.010844568            3 
 4528000   0.53658414   -8.4732999    672.46047  0.012375966  0.010840883            2 
 4529000   0.53222216   -8.4696286    673.33003  0.012389233    0.0108372            4 
 4530000   0.52961911   -8.4679063     672.5588  0.012372311   0.01083352            5 
 4531000   0.51856695   -8.4962896    673.59848  0.012388702  0.010829839            4 
 4532000   0.52022694   -8.4635366    672.43336  0.012364544   0.01082616            2 
 4533000   0.53065566    -8.491172    671.97385  0.012353369  0.010822479            3 
 4534000   0.52834057   -8.4815502    672.77045  0.012365286  0.010818798            3 
 4535000    0.5191807   -8.4992384    673.43302  0.012374734  0.010815125            3 
 4536000   0.52495702   -8.4650421    671.75274  0.012341136   0.01081145            3 
 4537000   0.52233244   -8.4837603    672.55657  0.012353181   0.01080778            2 
 4538000   0.51986786   -8.4710205    672.93655  0.012357436  0.010804115            3 
 4539000   0.52176437   -8.4818515    673.34098  0.012362139  0.010800446            2 
 4540000   0.52650194   -8.4733293    673.53017  0.012362889  0.010796777            3 
 4541000   0.52289998   -8.4825142     672.9978  0.012350396  0.010793109            2 
 4542000   0.53343489   -8.4806064    671.90898    0.0123277  0.010789448            2 
 4543000   0.52293273   -8.4744602    672.63854  0.012338369  0.010785788            2 
 4544000   0.52583476   -8.4742029    672.70977   0.01233696  0.010782128            2 
 4545000   0.52085904   -8.4765699    673.86971  0.012355514  0.010778467            2 
 4546000   0.53487385   -8.4745056    673.01414  0.012337112  0.010774811            2 
 4547000   0.51820523   -8.5023399     673.1603  0.012337078  0.010771159            3 
 4548000   0.52670848   -8.4936743    672.91183  0.012329812  0.010767503            2 
 4549000   0.52642875   -8.5001054    673.68563  0.012341277  0.010763852            2 
 4550000   0.51939511   -8.4825906    671.70821  0.012302348  0.010760202            3 
 4551000   0.53704141   -8.4937957    673.26621  0.012328174   0.01075655            1 
 4552000    0.5211107   -8.4769925    671.61229  0.012295187  0.010752903            2 
 4553000   0.52136459   -8.4838496    673.30261  0.012323424  0.010749255            1 
 4554000   0.52100425   -8.4963606    672.36856  0.012303626  0.010745612            3 
 4555000   0.53049123   -8.4834777    672.93266  0.012311245  0.010741965            2 
 4556000   0.52108477   -8.4886525    673.09528  0.012311517  0.010738321            3 
 4557000   0.52502871   -8.4799175    673.38585  0.012314129  0.010734683            1 
 4558000   0.51274577   -8.4831607    673.46562  0.012312886  0.010731046            3 
 4559000   0.52844969   -8.4827535     671.9184  0.012281904  0.010727405            4 
 4560000    0.5173435   -8.4935135    672.66089  0.012292779  0.010723772            2 
 4561000   0.51687757   -8.4762724    671.89981  0.012276179  0.010720135            3 
 4562000   0.52927127   -8.4871671    672.56155  0.012285576  0.010716502            5 
 4563000    0.5155789   -8.5041165    673.40945  0.012298368  0.010712873            2 
 4564000   0.52528485   -8.4941433    672.51358  0.012279316  0.010709242            4 
 4565000    0.5294625   -8.4786566     671.5669  0.012259345  0.010705612            4 
 4566000   0.52367149   -8.4902115    672.10838  0.012266542  0.010701985            2 
 4567000   0.51623633   -8.4630621    671.21667  0.012247585  0.010698358            3 
 4568000   0.52926628   -8.4879414    672.32299  0.012265087  0.010694738            1 
 4569000   0.52859636   -8.4926435    671.97334  0.012256025  0.010691112            2 
 4570000    0.5263861   -8.5025754    672.16557  0.012256849  0.010687489            1 
 4571000   0.53524167   -8.4843792    672.98285  0.012269067  0.010683867            5 
 4572000   0.52635449    -8.494701     672.6865  0.012260982  0.010680247            3 
 4573000   0.52212452   -8.4753304    673.22906  0.012268187  0.010676636            3 
 4574000   0.51914813   -8.4802624    671.89488  0.012241198  0.010673021            2 
 4575000    0.5212474   -8.4974763    671.84619  0.012237636  0.010669407            5 
 4576000   0.52028526   -8.4934967    672.65308  0.012249656  0.010665795            2 
 4577000   0.52430408    -8.498199    672.26463  0.012239907  0.010662186            2 
 4578000   0.51368788    -8.502074    672.64512  0.012244159   0.01065858            4 
 4579000   0.52275752   -8.4929689    672.97884  0.012247558   0.01065497            3 
 4580000   0.51611539   -8.5046766     672.4858  0.012235913  0.010651364            2 
 4581000   0.52414694    -8.482406    672.60471  0.012235405  0.010647761            6 
 4582000   0.50553978   -8.4945609    672.15477  0.012224552  0.010644158            1 
 4583000   0.51966484   -8.5096708    673.54538   0.01224717  0.010640555            2 
 4584000   0.51826548    -8.493991    672.89969   0.01223276  0.010636953            3 
 4585000   0.50928082   -8.4856022    672.51861  0.012223166  0.010633356            2 
 4586000   0.52164963   -8.4989577    673.23342   0.01223349  0.010629752            2 
 4587000   0.52443226   -8.4895075    671.72612  0.012203439  0.010626151            2 
 4588000   0.52237665   -8.4985701    672.03727  0.012206431  0.010622551            2 
 4589000   0.51675619    -8.494175    671.74568  0.012198476  0.010618952            5 
 4590000    0.5196714   -8.4903993    673.03018  0.012219139  0.010615355            3 
 4591000   0.51247748   -8.4969958    672.32133  0.012203611  0.010611764            2 
 4592000   0.51495083   -8.5056171    672.44013  0.012203109  0.010608174            3 
 4593000   0.52582848   -8.5036066    672.86195  0.012208106  0.010604587            3 
 4594000      0.50367   -8.5194493    671.45232  0.012179878  0.010600997            4 
 4595000    0.5222914   -8.5112171    671.63536  0.012180547  0.010597411            3 
 4596000   0.51987737   -8.4777851     671.5595  0.012176521  0.010593824            2 
 4597000   0.50933993   -8.5056223    671.72893  0.012176944  0.010590238            2 
 4598000   0.51657793   -8.4693656    672.90472  0.012195605  0.010586657            2 
 4599000   0.52674841   -8.4933211    672.30515  0.012182089  0.010583079            5 
 4600000   0.51869283   -8.5061465    671.67141   0.01216796  0.010579502            3 
 4601000   0.51325399    -8.508878    671.94473  0.012170266  0.010575924            2 
 4602000   0.51309549   -8.5028594    672.42179   0.01217626  0.010572343            3 
 4603000   0.51785549   -8.4912612    672.44235  0.012173987  0.010568772            2 
 4604000   0.51959283   -8.5102573    672.02472  0.012163784  0.010565196            2 
 4605000    0.5221435   -8.5108225    672.56878  0.012170988  0.010561624            4 
 4606000   0.50294686   -8.4952885     671.5902   0.01215064  0.010558051            2 
 4607000   0.50857668   -8.4855424    672.72347  0.012168502   0.01055448            1 
 4608000    0.5106213   -8.5208244    671.76936  0.012148607  0.010550911            4 
 4609000   0.51161597   -8.4905233    672.70624   0.01216291  0.010547346            3 
 4610000   0.51904897   -8.5100368    672.32825  0.012153439  0.010543778            2 
 4611000   0.51917714   -8.4970884    672.51125  0.012154111  0.010540214            3 
 4612000    0.5278452   -8.5061041    672.62751  0.012153576  0.010536649            3 
 4613000   0.51205071    -8.504275    672.07046  0.012140878   0.01053309            2 
 4614000    0.5215515   -8.4933543    672.47373   0.01214553  0.010529531            3 
 4615000   0.51666405   -8.5050882    672.34385  0.012140553   0.01052597            5 
 4616000   0.50354888   -8.4888163    671.63123  0.012125058  0.010522413            2 
 4617000   0.50819494   -8.4973565    672.31381  0.012134752  0.010518852            2 
 4618000    0.5028379   -8.4983912    672.00654   0.01212658  0.010515295            2 
 4619000   0.51195419   -8.5078463    672.12075  0.012126015  0.010511741            3 
 4620000   0.52072893   -8.5022857    672.36529  0.012127801  0.010508191            6 
 4621000   0.50740864   -8.5095881    672.48951  0.012127417  0.010504641            2 
 4622000   0.50546127   -8.5117107    671.77077  0.012111834  0.010501094            2 
 4623000   0.50424022   -8.4863045    671.91199   0.01211176  0.010497547            1 
 4624000    0.5256165   -8.5018497    672.38503  0.012117666     0.010494            2 
 4625000   0.50558783    -8.503579    671.76083  0.012103799  0.010490459            4 
 4626000   0.50921307   -8.5017343     671.8637  0.012103035  0.010486918            2 
 4627000   0.50042942   -8.5205677    671.87537   0.01210063  0.010483372            4 
 4628000   0.51679973   -8.4960812    671.62093  0.012093434  0.010479829            2 
 4629000   0.51781146   -8.5007704    671.48554  0.012088384  0.010476289            3 
 4630000   0.50693844   -8.4934645    672.65841  0.012106883   0.01047275            5 
 4631000   0.50953372   -8.5086482    672.30674   0.01209794  0.010469212            3 
 4632000   0.50424912   -8.5077357    671.77897  0.012085834  0.010465675            3 
 4633000   0.51351815    -8.520902    671.67037  0.012081271  0.010462141            2 
 4634000   0.52055435   -8.5146794    671.86997  0.012082254  0.010458609            2 
 4635000   0.52861903   -8.5154861    672.68573  0.012094314  0.010455075            2 
 4636000   0.50081973   -8.5112932    672.66138  0.012091267  0.010451546            2 
 4637000   0.51390652   -8.5141309    671.86889  0.012074418  0.010448015            3 
 4638000   0.51683801   -8.5058776    672.20269  0.012077812  0.010444491            3 
 4639000   0.50339936   -8.5121305    671.88064  0.012069423  0.010440968            2 
 4640000   0.51429522   -8.5236943    671.48705  0.012059753  0.010437444            2 
 4641000   0.50883661   -8.5151634    670.98148  0.012048077   0.01043392            2 
 4642000   0.51142577    -8.513578    671.70942  0.012058549  0.010430395            4 
 4643000   0.50389567   -8.5036815    671.04483  0.012044024  0.010426872            3 
 4644000   0.49752274   -8.5409567    672.14946  0.012061252   0.01042335            3 
 4645000   0.51068552   -8.5045771    672.24458  0.012060362  0.010419829            3 
 4646000   0.50636382   -8.5134733    671.45036  0.012043521   0.01041631            2 
 4647000   0.51115882   -8.5143453     671.7001  0.012045407  0.010412795            3 
 4648000   0.50142462   -8.5240474    671.63573  0.012041662  0.010409277            2 
 4649000   0.49837149    -8.521744    670.59317  0.012020384  0.010405762            2 
 4650000   0.51008031   -8.5133398    672.23573  0.012047235  0.010402251            3 
 4651000   0.51378088   -8.5239164    671.71127  0.012035248  0.010398737            2 
 4652000   0.50539595   -8.4949797    671.90634  0.012036155  0.010395228            3 
 4653000    0.5119972   -8.5093893     672.1651  0.012038203  0.010391723            3 
 4654000   0.51644832   -8.5092564    671.57534  0.012025056  0.010388219            2 
 4655000   0.51510501   -8.5187267    671.78686   0.01202626  0.010384713            5 
 4656000   0.52280288    -8.530237    670.89924   0.01200779  0.010381207            1 
 4657000   0.50951479   -8.5291875    671.34577  0.012013202  0.010377705            2 
 4658000   0.51086051   -8.5094814    671.44248  0.012012353  0.010374203            2 
 4659000   0.49857079   -8.5278156    672.35363  0.012026072  0.010370705            1 
 4660000    0.5052059   -8.5231986     671.9098  0.012015554  0.010367208            1 
 4661000   0.49959989   -8.5144718    671.81811  0.012011337  0.010363712            4 
 4662000    0.5092721   -8.5302877    671.60998   0.01200504  0.010360218            3 
 4663000   0.49217691   -8.5146926    671.73343  0.012004672  0.010356725            2 
 4664000   0.50350687   -8.5101597    671.75441  0.012002473  0.010353232            2 
 4665000   0.50189771    -8.525915    671.54461  0.011996152  0.010349739            4 
 4666000   0.49829419   -8.5144828    670.81422  0.011980537  0.010346248            2 
 4667000   0.50683914   -8.5200936    670.48605   0.01197211  0.010342758            1 
 4668000   0.51072142   -8.5175642    670.13778  0.011963328   0.01033927            1 
 4669000   0.50767134   -8.5398653    671.36158  0.011982608  0.010335787            2 
 4670000   0.49974308   -8.5195564    671.21751  0.011977472  0.010332301            1 
 4671000   0.50639706   -8.5267143      670.923  0.011969653  0.010328815            3 
 4672000   0.49639163   -8.5279898    670.95783  0.011967712  0.010325334            2 
 4673000    0.5000674   -8.5415228    671.60242  0.011976646  0.010321853            2 
 4674000   0.50181804   -8.5241758    670.94122  0.011962295  0.010318372            3 
 4675000   0.51310792   -8.5190082    672.97161  0.011995929  0.010314898            1 
 4676000   0.51386251     -8.51749    671.30788  0.011963713  0.010311421            5 
 4677000   0.49712089   -8.5202044    671.13153  0.011958013  0.010307949            4 
 4678000   0.50155459   -8.5222342    671.83221  0.011967939  0.010304477            4 
 4679000   0.50828616    -8.520213    671.29782  0.011955863  0.010301009            3 
 4680000   0.50194074   -8.5486566    670.92429  0.011946658  0.010297542            2 
 4681000    0.5015096   -8.4974044    671.47973  0.011953994  0.010294072            2 
 4682000   0.49868244   -8.5214746    671.32451  0.011948678  0.010290605            4 
 4683000   0.49683045   -8.5071436    672.07304  0.011959446  0.010287141            1 
 4684000   0.50124317   -8.5329928    671.58269  0.011948169   0.01028368            3 
 4685000   0.50049999   -8.5314802    671.64731  0.011946768   0.01028022            2 
 4686000    0.5077665   -8.5161115    671.11385  0.011934732  0.010276762            1 
 4687000   0.50826322   -8.5285092    670.69929  0.011924815  0.010273302            2 
 4688000   0.49656535   -8.5083998    670.67636  0.011921864  0.010269844            2 
 4689000   0.49957713    -8.517227     671.7717  0.011938788  0.010266391            4 
 4690000   0.50165476    -8.514206    672.58515  0.011950696  0.010262942            2 
 4691000    0.4927704   -8.5140598     670.1246  0.011904438  0.010259489            3 
 4692000   0.50061762   -8.5246471     671.8587  0.011932699  0.010256038            2 
 4693000   0.49970815   -8.5416825    670.25985  0.011901766  0.010252589            2 
 4694000   0.50171384   -8.5392097    670.72157  0.011907427  0.010249139            2 
 4695000   0.51102708   -8.5214808    671.14634  0.011912431  0.010245691            3 
 4696000   0.50018811   -8.5177502    671.18545  0.011910588  0.010242249            3 
 4697000   0.50709277   -8.5210428    671.12518  0.011906983  0.010238803            2 
 4698000   0.49650737    -8.508103    671.73476  0.011915261  0.010235359            2 
 4699000   0.49853992   -8.5319382    670.14649  0.011884559  0.010231917            1 
 4700000   0.48720341   -8.5250932    671.02461    0.0118976  0.010228478            3 
 4701000   0.50189842   -8.5308509     671.7212  0.011907417  0.010225039            3 
 4702000   0.50072407   -8.5270081     670.9122  0.011890547  0.010221601            4 
 4703000   0.49829493   -8.5264766    670.74152  0.011884994  0.010218165            3 
 4704000   0.49641679   -8.5372161    671.40523  0.011894225  0.010214733            3 
 4705000   0.50430363   -8.5297602    670.64744  0.011878276  0.010211297            3 
 4706000    0.4771325   -8.5136272    670.44705  0.011872203  0.010207863            2 
 4707000   0.49640574   -8.5384502    670.71306   0.01187439  0.010204434            3 
 4708000   0.49638915   -8.5427845    671.64823  0.011888421  0.010201004            2 
 4709000   0.49228023   -8.5453991    671.57562  0.011884611  0.010197577            2 
 4710000   0.50484034   -8.5296829     670.4837  0.011862769  0.010194154            3 
 4711000    0.4990282   -8.5258351    671.73544  0.011882393  0.010190729            5 
 4712000   0.49549951   -8.5333664    671.34458  0.011872959  0.010187304            3 
 4713000   0.49440385   -8.5402288    670.51987  0.011855857  0.010183885            2 
 4714000   0.49319921   -8.5521304    671.93924  0.011878434  0.010180465            3 
 4715000   0.50437722   -8.5334943     670.9496  0.011858423  0.010177045            6 
 4716000   0.48785515    -8.520974    671.96877  0.011873918   0.01017363            3 
 4717000   0.49207022   -8.5267679    672.09068  0.011873555  0.010170216            2 
 4718000   0.49637464   -8.5151064    671.65786  0.011863393  0.010166801            5 
 4719000   0.49961609   -8.5557007    672.06591  0.011868085   0.01016339            2 
 4720000   0.49284876   -8.5207741    671.95687  0.011863645  0.010159983            3 
 4721000   0.49243502    -8.536982    671.43506  0.011851921   0.01015657            2 
 4722000   0.50183963   -8.5233966    671.54192  0.011851298  0.010153161            2 
 4723000   0.48326233   -8.5196553    670.52428  0.011830833  0.010149752            3 
 4724000   0.50247452   -8.5264855    671.49818  0.011845508  0.010146345            1 
 4725000   0.48570884   -8.5248865    671.01811  0.011834535   0.01014294            2 
 4726000   0.51516738   -8.5303292    670.89703  0.011829895  0.010139535            2 
 4727000   0.48769552   -8.5219482    672.26064  0.011851432  0.010136133            3 
 4728000   0.49227402   -8.5254168    671.09988  0.011828467  0.010132732            2 
 4729000   0.48428478   -8.5526003    670.62316  0.011817565  0.010129332            2 
 4730000    0.5005961   -8.5257453    670.20682  0.011807731  0.010125933            2 
 4731000   0.49841442   -8.5442944    670.94624   0.01181826  0.010122536            2 
 4732000   0.50138785   -8.5276472    671.35712  0.011822998  0.010119139            1 
 4733000   0.48641174   -8.5389527    671.69305  0.011826415  0.010115749            2 
 4734000    0.4862621   -8.5444189     670.7838  0.011807911  0.010112355            2 
 4735000   0.49410517   -8.5538062    671.67102  0.011821032  0.010108965            4 
 4736000    0.4960205    -8.530525    671.43477  0.011814379  0.010105577            2 
 4737000   0.49731626    -8.523135    670.57926  0.011796834  0.010102191            3 
 4738000   0.49975258   -8.5305402    671.65491  0.011813264  0.010098805            3 
 4739000    0.4996162   -8.5237253    669.73369  0.011776987  0.010095421            2 
 4740000   0.48224006   -8.5306952    671.02526  0.011797209  0.010092039            3 
 4741000   0.48424469   -8.5552722    671.09289   0.01179591  0.010088655            3 
 4742000   0.49445394   -8.5254642    670.52215  0.011783392  0.010085273            3 
 4743000   0.49244498    -8.545224    670.14657  0.011774309   0.01008189            2 
 4744000   0.48699485   -8.5459249     670.0502  0.011770134  0.010078508            3 
 4745000    0.4854841   -8.5431504    670.74119  0.011779789  0.010075128            3 
 4746000   0.49748239   -8.5399922    671.19009  0.011785189   0.01007175            2 
 4747000   0.48278847   -8.5392948    671.22494  0.011783318  0.010068374            2 
 4748000   0.49121052    -8.556118    670.63862  0.011770546  0.010064996            2 
 4749000   0.49470469   -8.5397936    669.81421  0.011753601  0.010061621            2 
 4750000   0.48750833   -8.5513651    669.75255  0.011750045  0.010058248            2 
 4751000    0.4810034   -8.5378693    670.94063  0.011768411  0.010054877            3 
 4752000   0.48500464   -8.5475699    670.82203  0.011763854  0.010051508            2 
 4753000   0.49995963   -8.5422456    669.89095  0.011745055  0.010048139            2 
 4754000   0.49217269   -8.5480666    670.54181  0.011753993  0.010044772            3 
 4755000   0.49867929   -8.5355028    671.48356  0.011768026  0.010041407            2 
 4756000   0.49108046   -8.5468638    671.24727  0.011761411  0.010038046            3 
 4757000   0.50087245   -8.5430945    669.95019  0.011736217  0.010034685            2 
 4758000   0.50064878   -8.5493291    670.67822  0.011746501  0.010031325            3 
 4759000   0.49487364    -8.548527    671.45146  0.011757573  0.010027968            4 
 4760000   0.48938996   -8.5515404    670.56617  0.011739604  0.010024608            4 
 4761000   0.49177051   -8.5435301    669.68353  0.011721689  0.010021251            4 
 4762000   0.48859673   -8.5428687    670.57728  0.011734868  0.010017895            2 
 4763000   0.48482044   -8.5521586    669.54251    0.0117143  0.010014545            2 
 4764000   0.49235634   -8.5405858    669.65345  0.011713781  0.010011197            3 
 4765000   0.49529921   -8.5488929    670.84752  0.011732206   0.01000785            2 
 4766000   0.48501607   -8.5475162    670.24402  0.011719192  0.010004505            2 
 4767000   0.49261403   -8.5440661    670.28933  0.011717526  0.010001158            2 
 4768000   0.49008409   -8.5618086     672.0896  0.011746532 0.0099978126            2 
 4769000   0.48619266   -8.5385453    670.44075  0.011715257 0.0099944673            3 
 4770000   0.49420257   -8.5640009     669.8327  0.011702179  0.009991125            1 
 4771000   0.48824896   -8.5432207    670.17038  0.011705624 0.0099877813            2 
 4772000   0.49199933   -8.5343607    671.14381   0.01172017 0.0099844413            2 
 4773000   0.48671125   -8.5423089    670.04512  0.011698532 0.0099811016            3 
 4774000    0.4806405   -8.5512704    669.94448  0.011694325 0.0099777652            5 
 4775000   0.50099047    -8.540723    669.80967  0.011689523 0.0099744313            2 
 4776000   0.49110457    -8.563426    670.46393  0.011698491 0.0099710946            2 
 4777000   0.47474431   -8.5420872    671.50306   0.01171417 0.0099677627            2 
 4778000   0.47669797   -8.5457691    670.64623  0.011696774 0.0099644333            4 
 4779000   0.48551466   -8.5579839    670.44485  0.011690815 0.0099611045            3 
 4780000   0.49419195   -8.5543294    670.10395  0.011682426 0.0099577759            4 
 4781000   0.49170067   -8.5579096      670.594  0.011688524 0.0099544483            2 
 4782000   0.48303933   -8.5394601    670.47609  0.011684025 0.0099511202            2 
 4783000   0.47783901   -8.5524622    671.42238  0.011698069 0.0099477929            2 
 4784000   0.49355458   -8.5443719    669.78881  0.011667168 0.0099444681            2 
 4785000   0.48341169   -8.5440616    670.04609  0.011669211  0.009941145            4 
 4786000   0.49312175   -8.5571844    670.55608  0.011675653 0.0099378235            2 
 4787000   0.48680351   -8.5618417    670.23587  0.011667639  0.009934504            1 
 4788000   0.48926448   -8.5299654    670.35637    0.0116673 0.0099311864            2 
 4789000   0.47547416   -8.5387847    671.32821  0.011681774 0.0099278723            3 
 4790000   0.48749448   -8.5375021    670.84403  0.011670912   0.00992456            6 
 4791000   0.48079198   -8.5556758    670.84704  0.011668528 0.0099212452            4 
 4792000   0.48476012   -8.5551437    669.39253  0.011640799 0.0099179319            3 
 4793000   0.47871346   -8.5544474    669.67269  0.011643242 0.0099146192            3 
 4794000   0.49102871   -8.5488965    671.35682  0.011670088 0.0099113095            4 
 4795000   0.48551164   -8.5566676    669.86915    0.0116418 0.0099079996            2 
 4796000   0.48999829   -8.5488482    668.84539  0.011621584  0.009904691            3 
 4797000   0.48425196   -8.5499149     670.3505  0.011645308 0.0099013868            3 
 4798000   0.49140635   -8.5628707    669.27159  0.011624142 0.0098980787            4 
 4799000   0.49180614   -8.5472496    669.99508  0.011634283 0.0098947745            1 
 4800000   0.47999514   -8.5471027    669.92029  0.011630561 0.0098914714            3 
 4801000   0.47660322    -8.554403    670.66842  0.011641124   0.00988817            2 
 4802000   0.48128922   -8.5432317    670.07641  0.011628426 0.0098848742            5 
 4803000   0.47925029   -8.5494934    671.27149   0.01164674 0.0098815769            3 
 4804000   0.49338836   -8.5561831    671.06699  0.011640768 0.0098782824            3 
 4805000   0.48861309   -8.5580301    670.50593  0.011628615 0.0098749863            2 
 4806000   0.47974862   -8.5362871    669.97058  0.011616913 0.0098716936            3 
 4807000   0.48298544   -8.5634065    670.10462   0.01161682 0.0098684019            3 
 4808000   0.48125858   -8.5439145    669.97403   0.01161214 0.0098651153            3 
 4809000   0.48294401   -8.5596295    669.23533  0.011596925 0.0098618295            2 
 4810000   0.48512063   -8.5597289    671.08651  0.011626585 0.0098585416            3 
 4811000   0.47684227   -8.5460594    670.14787   0.01160791 0.0098552598            2 
 4812000   0.47919154   -8.5547973     669.2209  0.011589445 0.0098519729            3 
 4813000   0.48184882   -8.5432082    670.41163  0.011607653 0.0098486886            2 
 4814000   0.48558871    -8.558946    670.31369  0.011603547 0.0098454046            3 
 4815000   0.48310327   -8.5348837    670.38322   0.01160234 0.0098421256            4 
 4816000   0.47996807   -8.5463006    669.68194  0.011587796 0.0098388462            2 
 4817000   0.48654353   -8.5474761     670.4095  0.011597978 0.0098355684            3 
 4818000   0.48551919   -8.5546821    670.05882  0.011589505 0.0098322905            2 
 4819000   0.48606317   -8.5598242    670.98181  0.011603061 0.0098290168            2 
 4820000   0.49102713   -8.5464557    669.75388  0.011579424 0.0098257438            2 
 4821000    0.4842682   -8.5477052    669.35928  0.011570201 0.0098224709            2 
 4822000   0.48734886     -8.55074     670.7093  0.011591133 0.0098192013            4 
 4823000   0.49031807   -8.5388302    669.47314  0.011567371 0.0098159337            2 
 4824000   0.48644241   -8.5533703    670.69778  0.011586128 0.0098126703            2 
 4825000    0.4773513   -8.5718125    669.60252   0.01156481 0.0098094069            4 
 4826000   0.48850027   -8.5640433    670.77755  0.011582704 0.0098061424            1 
 4827000   0.48008527    -8.535704    669.81977  0.011563769 0.0098028824            3 
 4828000   0.48004384   -8.5565238    670.10043  0.011566218 0.0097996194            2 
 4829000   0.47821941   -8.5451104    670.74844  0.011575006 0.0097963614            2 
 4830000   0.48110251   -8.5563594    670.29947  0.011564863 0.0097931023            1 
 4831000   0.48716606   -8.5436765    670.78635  0.011570868  0.009789845            2 
 4832000   0.48039787    -8.563319    669.63765  0.011548662 0.0097865895            2 
 4833000   0.47987926   -8.5631088     670.5715  0.011562375 0.0097833397            2 
 4834000   0.47817343   -8.5558179    670.70899  0.011562353 0.0097800849            3 
 4835000   0.47779851   -8.5522859     669.7617  0.011543635 0.0097768346            3 
 4836000   0.48092052   -8.5696355    670.70626  0.011557525 0.0097735841            3 
 4837000   0.47250425   -8.5609625    669.79645  0.011539461 0.0097703373            2 
 4838000   0.49215584   -8.5601364    670.12194  0.011542682  0.009767092            2 
 4839000   0.48324408   -8.5564061    670.01797  0.011538506 0.0097638488            4 
 4840000   0.47930044   -8.5653906    670.89791  0.011551273 0.0097606071            2 
 4841000   0.47848814   -8.5745341    670.92887  0.011549419 0.0097573658            3 
 4842000   0.47361251   -8.5737025    671.04868  0.011549096 0.0097541266            3 
 4843000   0.47765137   -8.5580851    669.49422  0.011519964 0.0097508894            2 
 4844000   0.47703271   -8.5605058    670.61531  0.011536872 0.0097476511            4 
 4845000   0.47438977   -8.5601392    669.52759  0.011515782 0.0097444179            3 
 4846000   0.47736993   -8.5659027    670.55013   0.01153099 0.0097411835            3 
 4847000    0.4844676   -8.5626641    671.02411   0.01153676 0.0097379525            4 
 4848000    0.4822209   -8.5712769    670.43165  0.011524196  0.009734723            3 
 4849000   0.46153564   -8.5643864    670.80395  0.011528218 0.0097314933            3 
 4850000   0.47994469   -8.5759802    670.09826  0.011513716 0.0097282631            2 
 4851000   0.46459135   -8.5657762    670.13173  0.011511917 0.0097250356            1 
 4852000   0.46856326   -8.5742444    670.14411  0.011509757 0.0097218105            3 
 4853000   0.47317713   -8.5652031    669.65504  0.011498988 0.0097185847            7 
 4854000   0.47398029   -8.5597394    670.61317  0.011513068 0.0097153619            2 
 4855000   0.47877777   -8.5527246    669.46164  0.011490931 0.0097121417            2 
 4856000   0.47443292    -8.572829    670.00551  0.011497898 0.0097089192            2 
 4857000   0.48327978    -8.565407    670.46006  0.011503329 0.0097056977            3 
 4858000   0.47458201   -8.5769832    670.60494  0.011503447 0.0097024806            3 
 4859000   0.47440643   -8.5650449     670.6824  0.011502408 0.0096992633            2 
 4860000   0.47774908   -8.5527403    669.42706  0.011478516 0.0096960454            2 
 4861000   0.47273363    -8.555776    669.75648  0.011481802 0.0096928313            3 
 4862000   0.48660833   -8.5851006    670.82861  0.011497817 0.0096896172            3 
 4863000   0.46885173   -8.5785856    669.99908  0.011481237  0.009686405            5 
 4864000   0.46631398   -8.5623239    669.45266  0.011469515 0.0096831915            3 
 4865000   0.46985775   -8.5645741    670.18838   0.01147976 0.0096799775            3 
 4866000   0.47174354   -8.5714324    669.34562  0.011462968 0.0096767691            6 
 4867000   0.46811425    -8.573188    670.51747  0.011480677 0.0096735606            4 
 4868000   0.46794023   -8.5767806    669.14395  0.011454806 0.0096703554            3 
 4869000   0.47792974   -8.5703834    670.58491  0.011477116 0.0096671527            3 
 4870000   0.46043189   -8.5812053    670.52751  0.011473777 0.0096639499            3 
 4871000   0.47729212   -8.5874617    669.67939  0.011456911 0.0096607472            5 
 4872000   0.47106556   -8.5726553    670.28005  0.011464834 0.0096575447            2 
 4873000    0.4693692   -8.5814544    669.64093  0.011451552 0.0096543423            3 
 4874000   0.47166777   -8.5718745    669.82265  0.011452309 0.0096511436            3 
 4875000    0.4861387   -8.5759463    669.22422   0.01143973 0.0096479475            2 
 4876000    0.4729775   -8.5655588    670.01901  0.011450967 0.0096447525            3 
 4877000   0.46947398   -8.5614815    670.05982  0.011449317 0.0096415564            2 
 4878000    0.4717678   -8.5830149    669.70346  0.011440882 0.0096383645            2 
 4879000   0.46588449   -8.5939642    669.55895  0.011436069 0.0096351721            3 
 4880000   0.46956218   -8.5731549    670.00387  0.011441323 0.0096319807            3 
 4881000   0.47846352   -8.5810751    669.19957  0.011425247 0.0096287937            2 
 4882000   0.46572785   -8.5566712    669.01213  0.011419707 0.0096256088            2 
 4883000   0.47766943   -8.5756588    670.39873  0.011441032 0.0096224227            2 
 4884000   0.46780241   -8.5624551    670.18625  0.011435064 0.0096192383            3 
 4885000    0.4665307   -8.5802863    670.34167  0.011435375 0.0096160559            2 
 4886000   0.46413649    -8.590315    670.22038  0.011430966 0.0096128747            3 
 4887000   0.47064178   -8.5791615    670.40932  0.011431848 0.0096096935            3 
 4888000   0.47041011   -8.5847291    669.87421  0.011420387 0.0096065135            2 
 4889000   0.46772305   -8.5760966    670.19789  0.011423568 0.0096033334            3 
 4890000   0.46665517   -8.5618279     669.9973  0.011417814 0.0096001546            2 
 4891000   0.46932837   -8.5593141    669.39951  0.011405294 0.0095969784            2 
 4892000   0.48504313   -8.5740447    669.89748  0.011411445 0.0095938055            2 
 4893000   0.47163305   -8.5650244    670.53607  0.011419989 0.0095906329            2 
 4894000   0.46941089   -8.5781771    670.82539  0.011422582 0.0095874625            3 
 4895000   0.46830699   -8.5767781    669.38525  0.011395731 0.0095842899            2 
 4896000   0.46599309   -8.5535614    669.91968    0.0114025 0.0095811176            3 
 4897000   0.47296287    -8.572345    670.56402  0.011411136 0.0095779483            2 
 4898000   0.46731902   -8.5648837    669.86804  0.011396965 0.0095747808            1 
 4899000   0.46915265   -8.5791973    670.84878  0.011411322  0.009571613            2 
 4900000   0.45947652   -8.5821981    669.33935  0.011383322 0.0095684452            3 
 4901000   0.46743049    -8.582995    670.38852  0.011398839 0.0095652806            2 
 4902000   0.46432493   -8.5778376     669.3903  0.011379544 0.0095621166            2 
 4903000   0.47362955   -8.5680111    668.88768   0.01136868 0.0095589531            2 
 4904000   0.45861463   -8.5816761    669.34683  0.011374164 0.0095557927            2 
 4905000   0.46721868   -8.5813811     670.6104  0.011393313 0.0095526327            2 
 4906000   0.45089465   -8.5876351    668.64484  0.011357604 0.0095494731            2 
 4907000   0.45928359   -8.5741135    669.70184   0.01137324  0.009546314            2 
 4908000   0.47001584   -8.5839485    669.53683  0.011368121 0.0095431576            2 
 4909000   0.46441838   -8.5885524    669.06674  0.011357825  0.009540001            3 
 4910000   0.46478554   -8.5808422    668.98264  0.011354084 0.0095368453            2 
 4911000   0.46535679   -8.5980045    670.01989  0.011369373 0.0095336944            2 
 4912000   0.46142928   -8.5835467    669.77926  0.011362976 0.0095305451            3 
 4913000   0.46697521   -8.5771491    670.29734  0.011369451 0.0095273969            2 
 4914000   0.46462675   -8.5908429    669.07569   0.01134642 0.0095242521            3 
 4915000   0.46726731   -8.5777533    669.67875  0.011354336  0.009521106            1 
 4916000   0.46905996   -8.5955152    669.44625  0.011348085   0.00951796            3 
 4917000   0.47157634   -8.5704742    668.89518  0.011336438 0.0095148166            2 
 4918000   0.46615091   -8.5767907    669.06549  0.011337019  0.009511677            2 
 4919000   0.46569726   -8.5943346    669.59206  0.011343635 0.0095085364            3 
 4920000   0.45512913   -8.5662514    668.99937   0.01133129 0.0095053967            2 
 4921000   0.45787207   -8.5792705    669.89057  0.011344079 0.0095022568            3 
 4922000   0.45716215   -8.5882522     669.1092  0.011328545 0.0094991186            2 
 4923000   0.46288573   -8.5629939     668.6956  0.011319243 0.0094959814            3 
 4924000   0.46325326   -8.5750332    670.13423  0.011341291 0.0094928472            3 
 4925000   0.45961346   -8.5835868    669.41568   0.01132683 0.0094897129            2 
 4926000   0.47341623    -8.574728    669.63311  0.011328209 0.0094865839            3 
 4927000   0.46794385   -8.5877738    669.60925  0.011325506 0.0094834563            3 
 4928000   0.46206964   -8.5682404    669.66616  0.011324171 0.0094803291            4 
 4929000    0.4667306   -8.5882582    669.12775  0.011312771 0.0094772015            2 
 4930000   0.45905871   -8.5896035    669.04255  0.011309036 0.0094740763            4 
 4931000   0.45879419    -8.591681    667.65123  0.011283229 0.0094709502            3 
 4932000   0.47358998   -8.5912586     668.8758  0.011301632  0.009467824            2 
 4933000   0.46282091    -8.579497    669.27944   0.01130616 0.0094647009            2 
 4934000   0.45928318   -8.5975926    668.64893  0.011293219 0.0094615775            5 
 4935000    0.4692193   -8.5768195     669.6975  0.011308637 0.0094584573            2 
 4936000    0.4555252   -8.5753185    668.89385  0.011292778 0.0094553403            2 
 4937000   0.46626189   -8.5993215    670.13335  0.011311413 0.0094522234            2 
 4938000   0.45466898   -8.5921209      669.045  0.011290755 0.0094491059            1 
 4939000   0.44956398   -8.5864276    670.07662  0.011305875 0.0094459902            1 
 4940000   0.46103134    -8.611086    669.22914   0.01128929 0.0094428764            2 
 4941000   0.46424736   -8.5752345    669.53483  0.011292161 0.0094397626            2 
 4942000   0.45463441   -8.5734547    669.37111  0.011287116 0.0094366511            4 
 4943000   0.46554937   -8.5713123    669.21553  0.011282209 0.0094335406            3 
 4944000   0.46368618   -8.5931878    668.85697  0.011273884 0.0094304317            3 
 4945000   0.45822916   -8.5862801    668.93314  0.011272887  0.009427325            3 
 4946000   0.45686981   -8.5822693    668.92627  0.011270492  0.009424219            2 
 4947000   0.45184504   -8.5783432    669.53675  0.011278498 0.0094211167            2 
 4948000   0.45496169   -8.5853463    670.98878  0.011300673 0.0094180137            3 
 4949000   0.46278178   -8.5905729    669.25558  0.011269206  0.009414912            3 
 4950000   0.45737482   -8.5874323    669.16416   0.01126539 0.0094118105            2 
 4951000   0.45679083   -8.5952021    669.64936  0.011271281 0.0094087105            3 
 4952000   0.45957317   -8.5867795    668.90478  0.011256475  0.009405614            3 
 4953000   0.45670575   -8.5855154    669.05017  0.011256649 0.0094025183            3 
 4954000   0.46542064   -8.5807631    669.07273  0.011254756  0.009399421            3 
 4955000   0.46243259   -8.5987603    669.70059  0.011263044 0.0093963278            2 
 4956000   0.44911452   -8.6000723    668.99084  0.011248837 0.0093932345            2 
 4957000   0.45658168   -8.5733871    668.70892  0.011241828 0.0093901396            2 
 4958000   0.45928641   -8.5925151    669.37644   0.01125078 0.0093870476            2 
 4959000   0.45032542   -8.5857246    668.49015  0.011233618 0.0093839596            2 
 4960000   0.46108347   -8.5990571    669.73955  0.011252345 0.0093808719            2 
 4961000   0.46472068   -8.5702688    668.54637  0.011230034 0.0093777878            5 
 4962000   0.45186317    -8.610747     669.1886  0.011238556 0.0093747059            5 
 4963000     0.459645   -8.5809878    668.81793  0.011230068 0.0093716225            3 
 4964000    0.4556932   -8.6006307    668.99236  0.011230734 0.0093685428            3 
 4965000   0.46618418   -8.5862232     668.9511   0.01122778 0.0093654625            3 
 4966000   0.45637175   -8.5868401    668.92645  0.011225105  0.009362384            4 
 4967000   0.46220477   -8.5957389    668.53086  0.011216208 0.0093593069            2 
 4968000    0.4514477   -8.5898642    669.01306  0.011222039  0.009356232            2 
 4969000   0.46471266   -8.5860106    669.74607  0.011232073 0.0093531559            3 
 4970000    0.4517667   -8.5965926    668.94063  0.011216308 0.0093500835            3 
 4971000   0.44758458   -8.5922106    669.60547  0.011225197 0.0093470132            3 
 4972000   0.46369293   -8.6013141    670.15412  0.011232135 0.0093439416            1 
 4973000    0.4620108   -8.6099718     668.8054  0.011207276 0.0093408724            3 
 4974000    0.4502481   -8.6016584    669.60257  0.011218378 0.0093378028            3 
 4975000   0.45046571   -8.6089666     670.6107   0.01123301 0.0093347373            2 
 4976000   0.45132644   -8.5792918    668.22366  0.011190777 0.0093316706            2 
 4977000   0.46265509   -8.5937449    669.66513  0.011212664 0.0093286058            1 
 4978000   0.45591765   -8.6052368    669.08589  0.011200715 0.0093255419            2 
 4979000   0.45562337   -8.5979207    669.20702  0.011200492 0.0093224761            2 
 4980000   0.45411738    -8.598057    668.73768   0.01119039 0.0093194124            2 
 4981000   0.45237693   -8.5892324    669.13912  0.011194859 0.0093163548            2 
 4982000   0.46140309   -8.6096245    668.88225  0.011188315 0.0093132951            3 
 4983000   0.45204309   -8.6144391    670.28139  0.011209469 0.0093102375            2 
 4984000   0.45336882   -8.5901849    668.59296  0.011178989 0.0093071785            1 
 4985000   0.46445003   -8.6136555    669.26238  0.011187937 0.0093041228            2 
 4986000   0.46211798   -8.6062187    669.55384  0.011190564  0.009301068            2 
 4987000   0.45482573   -8.5897259    669.50524  0.011187508 0.0092980161            3 
 4988000   0.45635315    -8.593985    668.54455  0.011169215  0.009294967            8 
 4989000   0.45892222   -8.5975781    668.53228  0.011166772 0.0092919186            2 
 4990000   0.44977972   -8.5964604    669.46975   0.01118019  0.009288872            1 
 4991000   0.45556566   -8.6091643    669.88873  0.011184945 0.0092858241            2 
 4992000   0.45778352   -8.6108072    669.02505  0.011168287 0.0092827771            2 
 4993000   0.45884984   -8.5846013     667.9456  0.011148034 0.0092797331            3 
 4994000   0.44144396   -8.5953973     669.2049  0.011166815 0.0092766906            2 
 4995000   0.44949808   -8.6066824     669.0673  0.011162284 0.0092736509            2 
 4996000    0.4562634   -8.5935983    668.97418  0.011158497 0.0092706118            3 
 4997000   0.45568808   -8.6081174    668.24691  0.011144135 0.0092675735            2 
 4998000   0.44798591   -8.5928711    669.96172  0.011170497 0.0092645348            4 
 4999000   0.45686751   -8.6024637     667.9203  0.011134232 0.0092614975            4 
 5000000   0.44871594   -8.5931655    668.43661   0.01114061 0.0092584604            2 
 5001000   0.44605871   -8.5809798    668.77217  0.011143974 0.0092554247            2 
 5002000   0.44594202   -8.6065666    669.00703  0.011145659 0.0092523907            4 
 5003000   0.45784317   -8.6071137    668.52124  0.011135339 0.0092493592            2 
 5004000    0.4490877   -8.5843311    667.92335  0.011123157  0.009246328            2 
 5005000   0.45157178   -8.6112733    668.90679  0.011137309 0.0092432984            5 
 5006000   0.44843667   -8.6097341    668.36523  0.011126069 0.0092402708            2 
 5007000   0.44548448   -8.6033137     668.9598  0.011133743 0.0092372442            2 
 5008000   0.45181552   -8.6059294    668.56192  0.011124899  0.009234219            2 
 5009000   0.45302964   -8.5994785    668.96966  0.011129461 0.0092311962            3 
 5010000   0.44979789   -8.6112943    669.28497  0.011132485 0.0092281753            5 
 5011000   0.44424522    -8.601265    669.56367  0.011134898 0.0092251531            2 
 5012000   0.45216459   -8.6071698    668.90349  0.011121699 0.0092221313            4 
Loop time of 11905.2 on 48 procs for 5000000 steps with 4000 atoms

Performance: 72573.457 tau/day, 419.985 timesteps/s
99.4% CPU use with 48 MPI tasks x no OpenMP threads

MPI task timing breakdown:
Section |  min time  |  avg time  |  max time  |%varavg| %total
---------------------------------------------------------------
Pair    | 763.14     | 810.74     | 855.91     |  93.2 |  6.81
Neigh   | 77.625     | 80.845     | 83.668     |  17.9 |  0.68
Comm    | 749.93     | 800.58     | 860.18     | 106.2 |  6.72
Output  | 13.898     | 13.903     | 13.983     |   0.3 |  0.12
Modify  | 10057      | 10090      | 10130      |  16.2 | 84.76
Other   |            | 108.8      |            |       |  0.91

Nlocal:        83.3333 ave          91 max          77 min
Histogram: 6 0 7 8 4 13 1 4 2 3
Nghost:        2040.06 ave        2060 max        2021 min
Histogram: 4 2 7 7 7 6 4 5 1 5
Neighs:        13151.9 ave       14605 max       11771 min
Histogram: 3 2 7 10 4 5 6 4 4 3
FullNghs:      26304.6 ave       28930 max       24194 min
Histogram: 5 3 4 9 8 8 2 4 1 4

Total # of neighbors = 1262622
Ave neighs/atom = 315.65550
Neighbor list builds = 267958
Dangerous builds = 2

#clear
#
#next RN
#
#jump SELF
Total wall time: 3:18:28
