
units lj                  # Use reduced LJ style units
atom_style atomic         # Uncharged point particles
atom_modify map hash      # Needed for indexing of clusters etc
                          # Used to be able to find where atoms are in relation to each other.

lattice fcc 1.0 spacing 1 1 1
Lattice spacing in x,y,z = 1.5874011 1.5874011 1.5874011
region box block 0 10 0 10 0 10 units lattice
create_box 2 box
Created orthogonal box = (0.0000000 0.0000000 0.0000000) to (15.874011 15.874011 15.874011)
  3 by 4 by 4 MPI processor grid
create_atoms 1 box
Created 4000 atoms
  using lattice units in orthogonal box = (0.0000000 0.0000000 0.0000000) to (15.874011 15.874011 15.874011)
  create_atoms CPU = 0.003 seconds
set type 1 type/fraction 2 0.14 78393
Setting atom values ...
  590 settings made for type/fraction
mass 1 1.0
mass 2 1.0
pair_style lj/cut  3.5
pair_modify tail  yes
pair_coeff 1  1  1.0  1.0   # Intearaction between 1 and 1 set with epsilon = 1 and sigma = 1
pair_coeff 1  2  1.5  0.8
pair_coeff 2  2  0.5  0.88

write_data data.0
System init for write_data ...
Neighbor list info ...
  update every 1 steps, delay 10 steps, check yes
  max neighbors/atom: 2000, page size: 100000
  master list distance cutoff = 3.8
  ghost atom cutoff = 3.8
  binsize = 1.9, bins = 9 9 9
  1 neighbor lists, perpetual/occasional/extra = 1 0 0
  (1) pair lj/cut, perpetual
      attributes: half, newton on
      pair build: half/bin/atomonly/newton
      stencil: half/bin/3d
      bin: standard
WARNING: Not all mixed pair coeffs generated from mixing. Use write_data with 'pair ij' option to store all pair coeffs. (../write_data.cpp:312)


#############################
#   M E L T   S Y S T E M   #
#############################

velocity all create 2.4 1741580 mom yes dist gaussian # Assign velocities
                                                    # Temperature 2.4, random number seed, zero linear momentum
                                                                                # Gaussian distribution

timestep 0.002   # simulation timestep
thermo 1000       # output thermodynamic data every 1000 steps bf 100

# Define a fix  in this case with index 1 applied to all
# particles in the simulation. This fix is for simulations
# in the anisotropic NPT ensemble. Note that we use the MTK
# correction.
fix 1 all npt temp 2.4 2.4 0.1 iso 5.68 5.68 0.5 mtk yes tchain 5 pchain 5 # Use NPT ensemble
                                                                         # Set temperature and pressure and damping
                                                                         # Numbers of thermostats in chain and in barostat
run 10000          # run for 10000 steps
Per MPI rank memory allocation (min/avg/max) = 3.642 | 3.644 | 3.648 Mbytes
Step Temp E_pair E_mol TotEng Press Volume 
       0          2.4   -7.4253508            0   -3.8262508   -3.2887046         4000 
    1000    2.4642143   -4.7450746            0   -1.0496772    5.6689964    4665.6267 
    2000    2.3683921   -4.7039838            0   -1.1522838    5.6643731    4679.3849 
    3000    2.4576648   -4.7480858            0   -1.0625102    5.4584079    4692.9016 
    4000    2.3594401   -4.7334934            0   -1.1952181    5.5266855     4696.336 
    5000    2.4178724   -4.6804841            0   -1.0545823    5.8274685    4694.1391 
    6000     2.445952   -4.7482828            0    -1.080272    5.4408647    4694.2691 
    7000    2.4557388    -4.727378            0   -1.0446906    5.5161997    4701.5609 
    8000    2.3832102   -4.6845974            0   -1.1106759    6.1144948    4645.9964 
    9000    2.3695503   -4.6759655            0   -1.1225287    5.8339774    4676.6158 
   10000    2.3953686   -4.6510469            0   -1.0588923    5.8391037    4697.9239 
Loop time of 2.26933 on 48 procs for 10000 steps with 4000 atoms

Performance: 761457.252 tau/day, 4406.581 timesteps/s
99.7% CPU use with 48 MPI tasks x no OpenMP threads

MPI task timing breakdown:
Section |  min time  |  avg time  |  max time  |%varavg| %total
---------------------------------------------------------------
Pair    | 0.91163    | 0.99842    | 1.1334     |   4.0 | 44.00
Neigh   | 0.19093    | 0.20281    | 0.23217    |   1.8 |  8.94
Comm    | 0.65937    | 0.79611    | 0.92931    |   6.1 | 35.08
Output  | 0.0002339  | 0.00023805 | 0.00030125 |   0.0 |  0.01
Modify  | 0.19896    | 0.25742    | 0.32642    |   6.5 | 11.34
Other   |            | 0.01433    |            |       |  0.63

Nlocal:        83.3333 ave          90 max          75 min
Histogram: 3 3 3 3 5 5 10 4 8 4
Nghost:        1475.31 ave        1508 max        1449 min
Histogram: 3 4 3 10 7 8 7 4 1 1
Neighs:        8116.71 ave        9089 max        7063 min
Histogram: 4 3 3 3 10 9 3 7 0 6

Total # of neighbors = 389602
Ave neighs/atom = 97.400500
Neighbor list builds = 911
Dangerous builds = 229

# Equilibrate just above the melting temperature to avoid step fn in T

fix 1 all npt temp 1.25 1.25 0.1 iso 5.68 5.68 0.5 mtk yes tchain 5 pchain 5
run 2000
Per MPI rank memory allocation (min/avg/max) = 3.642 | 3.644 | 3.648 Mbytes
Step Temp E_pair E_mol TotEng Press Volume 
   10000    2.3953686   -4.6510469            0   -1.0588923    5.8391037    4697.9239 
   11000    1.2578292    -6.329159            0   -4.4428869    5.6691349    3848.2511 
   12000    1.2273801   -6.3650962            0   -4.5244863    5.7402915     3831.824 
Loop time of 0.477007 on 48 procs for 2000 steps with 4000 atoms

Performance: 724517.207 tau/day, 4192.808 timesteps/s
99.6% CPU use with 48 MPI tasks x no OpenMP threads

MPI task timing breakdown:
Section |  min time  |  avg time  |  max time  |%varavg| %total
---------------------------------------------------------------
Pair    | 0.21313    | 0.23066    | 0.24531    |   1.6 | 48.36
Neigh   | 0.031328   | 0.03326    | 0.035097   |   0.5 |  6.97
Comm    | 0.13856    | 0.15909    | 0.18149    |   2.5 | 33.35
Output  | 4.8095e-05 | 5.3803e-05 | 0.00026925 |   0.0 |  0.01
Modify  | 0.043297   | 0.04947    | 0.058175   |   2.1 | 10.37
Other   |            | 0.004474   |            |       |  0.94

Nlocal:        83.3333 ave          95 max          76 min
Histogram: 3 3 7 15 9 7 1 2 0 1
Nghost:        1688.29 ave        1717 max        1665 min
Histogram: 4 6 5 3 7 12 4 4 1 2
Neighs:        9944.48 ave       11702 max        8689 min
Histogram: 1 2 8 13 13 6 3 0 1 1

Total # of neighbors = 477335
Ave neighs/atom = 119.33375
Neighbor list builds = 142
Dangerous builds = 11

#############################
# L I N E A R  Q U E N C H  #
#############################

# Define solid atoms. This closely follows ten Wolde  Ruiz-Montero and Frenkel  Faraday Discuss  1996  104  93-110
# Compute components of the per-atom q6 vector
compute q6 all orientorder/atom degrees 1 6 components 6 nnn NULL cutoff 1.3 # compute the Q6 parameter.
                                                                             # Use all neighbours within 1.3 unit cell.

# get number of connections
compute coord_number all coord/atom orientorder q6 0.5

# An atom is solid if it has 8 or more connections (of a possible 14)
variable is_solid atom c_coord_number>=8
group solid dynamic all var is_solid    # Must be dynamic to update
dynamic group solid defined

# do clustering
compute cluster solid cluster/atom 1.3 # Create a cluster where all atoms within are solid and max 1.3 units from another member

# define chunks one chunk per cluster
compute clus_chunks solid chunk/atom c_cluster nchunk every compress yes  # Says which atoms are in which chunk

# count the size of each chunk
compute size_chunks solid property/chunk clus_chunks count


# Find the maximum entry in the vector of chunk sizes
variable max_n equal max(c_size_chunks)


# Thermo style which includes this variable
# thermo_style custom step temp pe vol v_max_n

thermo ${N}  # Print the thermo information every 100 steps
thermo 1000  

# Reset the npt fix at a lower temperature (below freezing)
fix 1  all npt temp  ${temp} ${temp}  0.1  iso  5.68  5.68  0.5  mtk yes tchain  5  pchain  5
fix 1  all npt temp  0.45 ${temp}  0.1  iso  5.68  5.68  0.5  mtk yes tchain  5  pchain  5
fix 1  all npt temp  0.45 0.45  0.1  iso  5.68  5.68  0.5  mtk yes tchain  5  pchain  5

dump dmp2 all dcd ${N} traj.dcd
dump dmp2 all dcd 1000 traj.dcd


compute msd all msd com yes
variable twopoint equal c_msd[4]/6/(step*dt+1.0e-6)
fix 9 all vector 10 c_msd[4]
variable fit equal slope(f_9)/6/(10*dt)
thermo_style custom step temp pe c_msd[4] v_twopoint v_fit v_max_n

fix 1 all npt temp 1.25 ${temp} 0.1 iso 5.68 5.68 0.5 mtk yes tchain 5 pchain 5
fix 1 all npt temp 1.25 0.45 0.1 iso 5.68 5.68 0.5 mtk yes tchain 5 pchain 5
run 2000000 # 5000000  # Run for this many steps
Neighbor list info ...
  update every 1 steps, delay 10 steps, check yes
  max neighbors/atom: 2000, page size: 100000
  master list distance cutoff = 3.8
  ghost atom cutoff = 3.8
  binsize = 1.9, bins = 9 9 9
  4 neighbor lists, perpetual/occasional/extra = 1 3 0
  (1) pair lj/cut, perpetual
      attributes: half, newton on
      pair build: half/bin/atomonly/newton
      stencil: half/bin/3d
      bin: standard
  (2) compute orientorder/atom, occasional
      attributes: full, newton on
      pair build: full/bin/atomonly
      stencil: full/bin/3d
      bin: standard
  (3) compute coord/atom, occasional
      attributes: full, newton on
      pair build: full/bin/atomonly
      stencil: full/bin/3d
      bin: standard
  (4) compute cluster/atom, occasional
      attributes: full, newton on
      pair build: full/bin/atomonly
      stencil: full/bin/3d
      bin: standard
Per MPI rank memory allocation (min/avg/max) = 9.762 | 9.766 | 9.771 Mbytes
Step Temp PotEng c_msd[4] v_twopoint v_fit v_max_n 
   12000    1.2273801   -6.3650962 4.8532695e-30 3.3703259e-32 8.3333333e+20            2 
   13000      1.26292    -6.364806   0.56194021 0.0036021807  0.046430317            4 
   14000    1.2702382   -6.3502323    1.1622453 0.0069181264   0.04753435            2 
   15000    1.2456878   -6.3484526    1.6846664 0.0093592574  0.047257268            3 
   16000    1.2382442   -6.3650545    2.2386749  0.011659765  0.046923169            2 
   17000    1.2739213   -6.3430911    2.7233852  0.013349927  0.045711347            2 
   18000    1.2460979   -6.3719545    3.2465411  0.015030282  0.044928604            1 
   19000    1.2509445   -6.3367753    3.7580741  0.016482781  0.044551608            1 
   20000    1.2375245    -6.367558     4.268176  0.017784066  0.044274787            3 
   21000    1.2422614   -6.3662867     4.814443  0.019104932  0.044013523            4 
   22000    1.2661797   -6.3433032    5.3681218  0.020333794  0.043974173            2 
   23000    1.2438097   -6.3718036    5.8460768  0.021181437  0.043933267            1 
   24000    1.2401556   -6.3806443    6.4007824  0.022224938  0.043896921            4 
   25000    1.2588864   -6.3837067    6.9665773  0.023221924  0.043940159            2 
   26000    1.2394246   -6.3679988    7.5216187  0.024107752  0.044043484            2 
   27000    1.2584097    -6.349679    8.1230378  0.025071104  0.044287566            2 
   28000    1.2488557   -6.4132366    8.6391472  0.025711747  0.044480038            2 
   29000     1.223515    -6.422348    9.1311419  0.026238913   0.04454928            2 
   30000    1.2046842   -6.3796055    9.7069267  0.026963685  0.044633013            2 
   31000    1.2304534   -6.3478222    10.223002  0.027481188  0.044697146            2 
   32000    1.2256959   -6.3583476    10.693651  0.027848049  0.044679568            4 
   33000    1.2249457   -6.3575913    11.094462  0.028016318  0.044542309            3 
   34000     1.251342   -6.3539776    11.499994  0.028186259  0.044323656            3 
   35000    1.2421817   -6.3675151    12.021085   0.02862163  0.044090597            2 
   36000     1.255846   -6.3696322    12.522594  0.028987485  0.043897003            2 
   37000    1.2205277   -6.3735956    13.046766  0.029384608  0.043740741            3 
   38000    1.2516331   -6.3825956    13.409046  0.029405803  0.043561362            1 
   39000     1.241279   -6.3431392     13.96023  0.029829552   0.04336806            3 
   40000    1.2261763   -6.3562434    14.600666  0.030418053  0.043237535            3 
   41000    1.2256636   -6.3626744    15.056157  0.030601944  0.043146411            1 
   42000    1.2206211   -6.3853769    15.595431  0.030943315  0.043072328            3 
   43000    1.2539183   -6.3695678    16.099771  0.031201105  0.043016959            2 
   44000    1.2222725   -6.3300804     16.77698  0.031774583  0.042990327            2 
   45000    1.2379896   -6.3675241    17.136597  0.031734438  0.042977389            2 
   46000    1.2177206   -6.4369594     17.72432  0.032109276  0.042961464            4 
   47000    1.2578873   -6.4157562    18.312547  0.032469055  0.042978977            3 
   48000    1.2510629   -6.4323162    18.808129  0.032653002  0.043012326            2 
   49000    1.2432996   -6.3833432     19.38789  0.032972602  0.043044219            4 
   50000    1.2197309   -6.3780915    19.963402  0.033272336  0.043085631            1 
   51000    1.2288106   -6.3932736    20.402122    0.0333368   0.04311582            2 
   52000    1.2412615   -6.3987864    20.939032   0.03355614  0.043136787            1 
   53000    1.2487038   -6.3327912    21.372647   0.03360479  0.043138384            1 
   54000    1.2373549   -6.3917277    21.883629  0.033771033  0.043144492            1 
   55000    1.2387024   -6.3682432    22.344168    0.0338548  0.043123217            1 
   56000    1.2262657   -6.3570818    23.011153  0.034242788  0.043110987            2 
   57000    1.2253945   -6.4079132    23.223851  0.033952998  0.043067245            2 
   58000    1.1902664   -6.4231355    23.614984  0.033929574  0.043008367            5 
   59000    1.2449921   -6.3831418    24.191731  0.034169111   0.04295071            6 
   60000    1.2202016   -6.3615205    24.773795  0.034408048  0.042911688            1 
   61000    1.2345824   -6.3816494    25.259136  0.034507016  0.042870281            2 
   62000    1.2303462   -6.3830526    25.730088  0.034583452  0.042839371            1 
   63000    1.2107593   -6.3948635      26.2806  0.034762698  0.042805659            2 
   64000     1.225948   -6.3261354    26.899028  0.035024776  0.042787227            2 
   65000    1.2456203   -6.3754238    27.414267  0.035146495  0.042778159            3 
   66000    1.2071746   -6.3953398    27.905501  0.035234219  0.042757942            1 
   67000    1.2121962   -6.4034164    28.383788  0.035303218  0.042743134            2 
   68000     1.223552    -6.406555    28.942936  0.035469284  0.042738354            2 
   69000    1.2234843   -6.3846754    29.326347  0.035418293  0.042726383            5 
   70000    1.2363947   -6.3820122    29.979483  0.035689861  0.042711305            2 
   71000    1.2016299   -6.3491617    30.474388  0.035768061  0.042700558            3 
   72000    1.2441041   -6.3862827    31.006103  0.035886693  0.042702577            5 
   73000    1.2239618     -6.41174    31.815498  0.036319062  0.042727879            2 
   74000    1.2262916   -6.4155916    32.207201  0.036269371   0.04275598            4 
   75000      1.20495   -6.3916349    32.953227  0.036614697  0.042785364            1 
   76000    1.2207695   -6.4302488    33.205037  0.036409032   0.04281501            3 
   77000     1.228019   -6.4179148    33.821694  0.036603564  0.042837985            3 
   78000    1.2336801   -6.4111054    34.399429  0.036751527   0.04287214            3 
   79000    1.2286526   -6.4065842    34.912683  0.036827725  0.042899517            4 
   80000    1.2290778   -6.4004739    35.401193  0.036876243  0.042920656            1 
   81000    1.2501334   -6.4275058    36.059013  0.037097749  0.042955884            2 
   82000    1.2031687   -6.3572732    36.619433  0.037214871   0.04298468            5 
   83000    1.2049469   -6.3981508    37.153304  0.037302514  0.043019033            2 
   84000    1.2362666   -6.4158458    37.709709  0.037410425  0.043062104            3 
   85000    1.2008536   -6.3908489    38.220787   0.03747136  0.043086419            2 
   86000    1.2184804   -6.3570196    38.896088  0.037690008   0.04311789            2 
   87000    1.2008653   -6.3608327    39.250032  0.037595816  0.043151983            2 
   88000    1.2189165   -6.3822379    39.587011    0.0374877  0.043174651            2 
   89000    1.2150764   -6.4203595     40.26638  0.037702602   0.04318786            2 
   90000    1.2191728   -6.4556077    40.724716   0.03770807  0.043202138            2 
   91000     1.230134   -6.4110988    41.239916  0.037765491  0.043217588            2 
   92000    1.2200032   -6.4543919    41.640635  0.037717966  0.043225876            3 
   93000    1.2120622   -6.3761706    42.040284  0.037670505   0.04321896            2 
   94000    1.2078544   -6.4246495    42.423682  0.037609647  0.043208703            2 
   95000    1.2025968   -6.4516097    42.832727  0.037572568  0.043194717            2 
   96000    1.2283939   -6.4005583    43.557103  0.037809985  0.043187363            2 
   97000    1.2333252   -6.4320985    43.755476  0.037590615  0.043165416            2 
   98000    1.2199049   -6.4066037    44.263281  0.037638844  0.043136362            2 
   99000    1.1890544   -6.4574882    44.584302  0.037528874  0.043103061            2 
  100000    1.2018598   -6.3587946    45.206664   0.03767222  0.043068075            1 
  101000    1.2310593   -6.4191167    45.641634  0.037658114   0.04303385            3 
  102000    1.2061308   -6.4061614    46.200838  0.037745782  0.043002107            2 
  103000    1.2402831   -6.4184837    46.210685  0.037387286  0.042963201            5 
  104000    1.2001894   -6.4102723    46.674023  0.037399057  0.042917553            5 
  105000    1.2245497   -6.4113034    47.177663  0.037442589  0.042873326            3 
  106000    1.2209155   -6.3960343     47.77426   0.03755838  0.042825032            1 
  107000    1.2017599   -6.3811783    48.687145  0.037918337  0.042789307            3 
  108000    1.1892291   -6.4003601    48.823385  0.037672365  0.042759377            3 
  109000     1.222993   -6.4435002    49.243819  0.037648179   0.04272403            2 
  110000    1.2200311   -6.4407933    49.839865  0.037757473  0.042684786            2 
  111000     1.196308   -6.4340946    50.383779   0.03782566  0.042653843            2 
  112000    1.2064828   -6.4113949    51.021078  0.037962111  0.042629164            1 
  113000    1.2064165    -6.427874    51.635934  0.038079597  0.042610095            3 
  114000    1.2089286    -6.437077    52.173423  0.038138467  0.042591764            1 
  115000    1.2276985    -6.414604    52.490174  0.038036358   0.04256826            3 
  116000    1.1904888   -6.4153642    53.152561  0.038184311  0.042543602            4 
  117000    1.1720078   -6.4424183    53.562966  0.038150261  0.042520188            2 
  118000    1.1862871   -6.4614704     53.73485   0.03794834   0.04249645           10 
  119000     1.209978   -6.4555006    54.257051  0.037995134  0.042470093            2 
  120000    1.2018431   -6.4325611    54.732166  0.038008449  0.042443596            2 
  121000    1.1984002   -6.4176353    55.267104  0.038062744  0.042417684            2 
  122000    1.2149527   -6.4135826    55.956451  0.038221619  0.042394194            4 
  123000    1.2284614   -6.4371549    56.369338  0.038190608  0.042372604            2 
  124000    1.1763196   -6.4164756    56.743735   0.03813423  0.042351312            1 
  125000    1.2177428   -6.4170792    57.180386  0.038120257  0.042328448            3 
  126000    1.2275569   -6.4541615    57.646126  0.038125745  0.042305449            2 
  127000    1.2091874   -6.4074365    58.378265  0.038305948  0.042280714            3 
  128000    1.2053687   -6.4654311    58.458192  0.038058719  0.042256239            4 
  129000    1.2042838   -6.4565138     59.18291  0.038231854  0.042232088            2 
  130000     1.216476   -6.4548242    59.558075  0.038178253  0.042209672            3 
  131000    1.1985571   -6.4246398    59.983153  0.038157222  0.042183149            2 
  132000    1.2102638   -6.4683977    60.358222  0.038104938  0.042159153            4 
  133000     1.225349   -6.4062307    61.031111  0.038240045  0.042131878            2 
  134000    1.2015826    -6.382665    61.352498  0.038154538  0.042104555            2 
  135000    1.1954181   -6.4758442    61.744709  0.038114018  0.042074967            3 
  136000    1.2047051   -6.4236578    62.313061  0.038182022  0.042046574            3 
  137000    1.2019903   -6.4515553    62.476696  0.038002856  0.042014464            3 
  138000    1.2002948   -6.4164484     63.17995  0.038152143  0.041978291            3 
  139000    1.2200571   -6.3988072    63.582394  0.038118941   0.04194264            2 
  140000    1.1812122   -6.4366618     63.95253  0.038066982  0.041906259            2 
  141000    1.2080001   -6.4277905    64.798346  0.038296895  0.041876446            2 
  142000    1.1990873   -6.4046314    65.397852  0.038379021  0.041849002            1 
  143000    1.2059202   -6.4432267    65.840677  0.038368693  0.041830179            4 
  144000    1.1893495   -6.4361232    66.250068   0.03833916  0.041807473            6 
  145000    1.2020697   -6.4258322    66.758647  0.038367038  0.041788621            1 
  146000    1.1990194   -6.4415235    67.450851  0.038499344  0.041770389            3 
  147000    1.1946921   -6.4960162    67.475305  0.038251306   0.04175094            1 
  148000    1.1724324   -6.4432247     67.99859  0.038287494  0.041730052            6 
  149000    1.1715129   -6.4739364    68.869413  0.038517569  0.041711248            2 
  150000    1.1860003   -6.4745809    69.206034  0.038447797  0.041694933            3 
  151000    1.1838431   -6.4443108    69.687573  0.038458926  0.041677143            3 
  152000    1.1934958   -6.4284047    70.153666  0.038461439  0.041658412            4 
  153000    1.1966978   -6.4691501    70.536549    0.0384186  0.041640621            2 
  154000     1.197927    -6.441021    71.212951  0.038535147  0.041624419            2 
  155000    1.1759875   -6.4367169    71.789907  0.038596724   0.04160974            3 
  156000    1.2135157   -6.4156122    72.277712  0.038609889  0.041597407            5 
  157000    1.1877003   -6.4869688     72.65838  0.038566019  0.041586773            5 
  158000    1.2209045   -6.4602355    72.942459  0.038471761  0.041572397            2 
  159000    1.2047842   -6.4724981    73.763003  0.038659854  0.041554567            2 
  160000    1.2073385   -6.4553957    73.976373  0.038529361    0.0415389            3 
  161000    1.1726365   -6.4560883    74.275431   0.03844484  0.041522518            2 
  162000    1.1956694   -6.4668815     74.61923  0.038384378  0.041503961            2 
  163000    1.1954123   -6.4862944    74.804391  0.038243554  0.041480716            5 
  164000    1.1778952   -6.4783084    75.632043  0.038430916   0.04145649            3 
  165000    1.1728095   -6.5092543    75.848658  0.038307403  0.041435573            2 
  166000    1.1714545   -6.4753327    76.583423  0.038445494  0.041415214            3 
  167000    1.1818964   -6.4725096     76.92687  0.038386662  0.041396234            2 
  168000    1.1943506   -6.4720443    77.445039  0.038415198  0.041379494            2 
  169000    1.1837972   -6.4822524    77.811704   0.03836869  0.041361572            3 
  170000    1.1932331   -6.4751442    78.744775   0.03860038  0.041348714            3 
  171000    1.1734193   -6.4405301    79.227794  0.038610036  0.041335309            2 
  172000    1.2027343   -6.4292923    79.397952     0.038468  0.041321723            2 
  173000    1.1786033   -6.4196251     80.17194  0.038618468  0.041306915            2 
  174000    1.2015913   -6.4635982    80.669623  0.038634877  0.041291405            3 
  175000    1.1648748   -6.4625343    81.108729  0.038623204  0.041276685            1 
  176000    1.2007614   -6.4478766    81.629831  0.038650488  0.041263406            3 
  177000    1.1483442   -6.4944825    81.769851  0.038498047  0.041246658            2 
  178000    1.1995134   -6.4726058    82.653966  0.038695677  0.041230899            2 
  179000     1.219194   -6.4644092    83.079407  0.038677563  0.041219767            3 
  180000    1.1840378   -6.4411579    83.773753  0.038784145  0.041210213            2 
  181000    1.1786765   -6.4254262    84.536044  0.038920831  0.041203761            1 
  182000    1.2139472   -6.4705029    84.663522  0.038765349    0.0411983            1 
  183000    1.1736858   -6.4728699    85.499631  0.038934258  0.041196066            2 
  184000    1.1887069   -6.4873703    85.495426  0.038720755   0.04119064            5 
  185000     1.199511   -6.5058938    86.006845  0.038741822  0.041182323            3 
  186000    1.1976324   -6.4857792    86.377693  0.038699683  0.041170677            3 
  187000    1.1801939   -6.5125749    86.317351  0.038465843  0.041155293            3 
  188000    1.1831427   -6.4927937    87.259344  0.038678787  0.041140892            3 
  189000    1.1777497   -6.5055955    86.957621  0.038341103  0.041125852            2 
  190000    1.1714427   -6.4644221    88.087241  0.038634755  0.041109095            2 
  191000    1.1932136   -6.4797453    88.350932  0.038547527  0.041094642            2 
  192000    1.1530244   -6.4502471    88.954899  0.038608897  0.041079528            2 
  193000    1.1776003   -6.4868237    89.125233  0.038482398  0.041063331            2 
  194000    1.1570697   -6.5116005    89.272398   0.03834725  0.041044576            2 
  195000    1.1632372   -6.5168645    90.337494  0.038605767  0.041024227            2 
  196000    1.1860682   -6.4598125    90.668656  0.038549598  0.041008671            2 
  197000    1.1742293   -6.5182819    91.399944  0.038663259  0.040995696            2 
  198000    1.1805864   -6.5351169    91.901677  0.038679157  0.040982078            2 
  199000    1.1818013   -6.4511325    92.159199  0.038592629  0.040967333            5 
  200000    1.1621709   -6.5118973    92.900608  0.038708587  0.040953877            2 
  201000    1.1816469   -6.5071237    92.898648  0.038515194  0.040939998            4 
  202000    1.1945898   -6.5059676    93.231977  0.038462037  0.040923312            3 
  203000    1.1975136   -6.4873989    94.124671  0.038639027  0.040909593            8 
  204000    1.1623749    -6.476876    94.612729  0.038648991  0.040897452            6 
  205000    1.1952368   -6.5154418    94.639928  0.038471515  0.040884395            1 
  206000    1.1689404   -6.4859094    95.569713  0.038660887   0.04087122            8 
  207000    1.1833218   -6.5269397    95.757172  0.038549586  0.040856035            1 
  208000    1.1652578   -6.5028537     96.32291  0.038590909  0.040844104            5 
  209000    1.1840402   -6.5142029    96.911659  0.038641012  0.040833025            4 
  210000    1.1769635   -6.5072722    97.600011  0.038730163  0.040822413            2 
  211000    1.1691913   -6.4644207    98.076148  0.038734655  0.040811435            2 
  212000    1.1641235   -6.5128794    98.136044  0.038575489  0.040800196            2 
  213000    1.1643377   -6.4800708    98.416511  0.038504112  0.040785907            6 
  214000    1.1544768     -6.53923    98.972538  0.038540708  0.040772965            3 
  215000    1.1430931   -6.4992189     99.53004  0.038577535  0.040760203            4 
  216000    1.1520051   -6.4797888    100.07498  0.038609173  0.040745705            1 
  217000    1.1548716   -6.4721239     100.4492  0.038574963  0.040731857            3 
  218000    1.1632318   -6.5056974    100.72077  0.038501823  0.040716159            1 
  219000    1.1581212   -6.5135222    101.13886  0.038485106  0.040699739            2 
  220000    1.1565426   -6.5120724     101.4559  0.038430266   0.04068108            1 
  221000    1.1400685   -6.5164551    101.51671  0.038279302  0.040660067            3 
  222000    1.1790732   -6.5149544    102.43255  0.038450659  0.040637984            3 
  223000    1.1736608   -6.5418712    102.27578   0.03821965  0.040617337            2 
  224000    1.1737224   -6.5227242    102.89724  0.038280223  0.040596714            5 
  225000    1.1527349   -6.5141225    103.36715  0.038284131   0.04057526            3 
  226000    1.1753143   -6.4908582    103.57392  0.038190973  0.040553565            3 
  227000    1.1728827   -6.5334619    104.21629  0.038258551  0.040531851            2 
  228000    1.1532907   -6.5052646    104.47076  0.038183757   0.04051122            5 
  229000      1.14823    -6.517257    105.25591  0.038302732  0.040490683            7 
  230000    1.1556345   -6.5194736    105.45487  0.038208286  0.040469805            2 
  231000    1.1531719   -6.5215388    106.08712  0.038270967  0.040447889            5 
  232000    1.1577416   -6.5420816    106.16444  0.038133778  0.040424642            3 
  233000     1.167616   -6.5467674    106.56722   0.03811417  0.040401901            3 
  234000    1.1470433   -6.4988682    107.00212  0.038106169  0.040379648            3 
  235000    1.1734825   -6.5019887    107.95299  0.038281202  0.040358962            4 
  236000     1.175914   -6.5566594    108.17464   0.03819726  0.040342508            3 
  237000    1.1716877   -6.4944817      109.363  0.038453938  0.040327123            2 
  238000     1.158769   -6.5084489    109.51704  0.038346303  0.040313124            4 
  239000     1.135855   -6.5285906    109.91562  0.038324833  0.040296071            3 
  240000    1.1417627   -6.4946917    109.97282  0.038185007  0.040277863            2 
  241000    1.1568592   -6.5162938    110.53765  0.038221869  0.040257323            1 
  242000    1.1613998   -6.5082563    111.01658  0.038228849  0.040238257            3 
  243000    1.1471356   -6.5644466    111.21217  0.038138604  0.040216918            8 
  244000    1.1633962   -6.5683443    111.15218  0.037961809  0.040195608            2 
  245000    1.1949811   -6.5217853    111.15665  0.037808385    0.0401707            3 
  246000    1.1815059   -6.5529493    111.60709  0.037807279  0.040145834            4 
  247000    1.1344258   -6.5408377    112.41936  0.037928259  0.040121029            2 
  248000    1.1496681   -6.4935897    113.17469   0.03802913  0.040095936            2 
  249000    1.1792484   -6.4938722    113.20194  0.037885521  0.040073677            2 
  250000    1.1606271    -6.514386    113.84001  0.037946671  0.040050766            3 
  251000    1.1676761   -6.5531152    114.36399  0.037969453   0.04002617            2 
  252000    1.1583323   -6.5126729    114.94331  0.038010353   0.04000256            2 
  253000    1.1509057   -6.5252214     115.2947  0.037975856  0.039979292            1 
  254000    1.1652971   -6.5233972    115.42415  0.037868815  0.039956266            2 
  255000    1.1450022   -6.4993948    116.21163  0.037977657  0.039933853            2 
  256000    1.1784591     -6.53779    116.31011  0.037861364  0.039911173            4 
  257000    1.1437726   -6.5195682    116.74278  0.037854339  0.039888946            2 
  258000    1.1312637   -6.5270568    117.55733  0.037970714  0.039867757            3 
  259000    1.1546321   -6.5150373    118.13495  0.038009958  0.039846272            3 
  260000    1.1490926   -6.5345278    118.26368  0.037905026  0.039825096            2 
  261000    1.1339805   -6.4939308    118.56922   0.03785735   0.03980363            3 
  262000    1.1385846   -6.5705021     119.0846  0.037876781  0.039782202            4 
  263000    1.1507207   -6.5368105    119.45579  0.037850375  0.039761053            6 
  264000    1.1547791   -6.5557407    119.85491  0.037832988  0.039740098            2 
  265000    1.1399915    -6.526988    120.44275  0.037875079  0.039718059            2 
  266000    1.1300305   -6.5705904    120.64963  0.037797505  0.039697251            3 
  267000    1.1496233    -6.528383    121.09323  0.037794392  0.039677227            3 
  268000    1.1746619   -6.5607394    121.55036   0.03779551  0.039656262            3 
  269000    1.1449639   -6.5479492    121.99608  0.037793086  0.039634472            2 
  270000    1.1582841   -6.5215652    122.56256   0.03782795  0.039613468            3 
  271000    1.1409606    -6.546098    122.34637  0.037621884  0.039592866            4 
  272000    1.1340251   -6.5039171    123.03883  0.037695719  0.039571358            4 
  273000    1.1545221   -6.5287557    123.65475  0.037745649  0.039549993            2 
  274000    1.1584356   -6.5786554    123.11529  0.037443823  0.039525185            2 
  275000    1.1087747   -6.5297112    124.07519  0.037598542  0.039499981            1 
  276000    1.1402487   -6.5692327    124.57951  0.037614585  0.039476335            4 
  277000    1.1565787   -6.4957406    125.39942  0.037725458  0.039453661            2 
  278000    1.1216466   -6.5239074    125.12151  0.037506447  0.039430796            2 
  279000    1.1318397   -6.5345339    126.14146  0.037676659  0.039407705            3 
  280000     1.143109   -6.5482945    126.05799  0.037517259   0.03938556           11 
  281000    1.1106051   -6.5732661    126.84651   0.03761759  0.039364857            2 
  282000    1.1268918   -6.5713204    127.62606  0.037714557  0.039343526            2 
  283000      1.13579    -6.518765    128.33286  0.037789416  0.039326137            3 
  284000    1.1425592   -6.5718499     128.4951  0.037703961  0.039308947            5 
  285000     1.142423   -6.5596551    129.16203  0.037766676  0.039293662            3 
  286000     1.135856    -6.545932    129.86432  0.037839253  0.039277462            2 
  287000    1.1315354   -6.5326186    129.87514  0.037710551  0.039260989            2 
  288000    1.1657889   -6.5477711    130.24428  0.037686424  0.039245009            2 
  289000    1.1329266   -6.5892548    130.79125  0.037713739  0.039228519            6 
  290000    1.1433807   -6.5405564     131.5666  0.037806495  0.039213512            2 
  291000    1.1376977   -6.5218661    132.08826  0.037825963  0.039199182            2 
  292000    1.1214704   -6.5585835    132.39333  0.037783484  0.039184754            2 
  293000    1.1531518    -6.562574    132.21626  0.037604171  0.039167822            1 
  294000    1.1222122   -6.5959671     132.5397  0.037567942   0.03915083            3 
  295000    1.1330477   -6.5356241    133.42167  0.037689737  0.039134301            2 
  296000    1.1698104   -6.5401464     133.5142  0.037588456  0.039116923            2 
  297000    1.1074414   -6.5465574    134.17864  0.037648327  0.039099596            3 
  298000    1.1389931   -6.5701583    134.23537  0.037537854  0.039081904            3 
  299000    1.1579671   -6.5705503    134.53619  0.037496151  0.039065227            6 
  300000    1.1182452   -6.5476372    135.00525  0.037501458  0.039047415            2 
  301000    1.1208007    -6.535775    135.71983  0.037574705  0.039030088            4 
  302000    1.1139006   -6.5703303    135.52645  0.037396924  0.039011096            4 
  303000    1.1645728   -6.5559297    136.26924   0.03747779  0.038992517            1 
  304000    1.1233864   -6.5849572    136.48922  0.037414808  0.038973138            3 
  305000     1.147411   -6.5524376    136.49778  0.037294474  0.038952908            2 
  306000     1.140622   -6.5602391    137.14785  0.037349632  0.038932239            4 
  307000    1.1220725   -6.5709306    137.52763  0.037331063  0.038912259            3 
  308000    1.1409356   -6.5984668     137.5237  0.037208793  0.038890241            4 
  309000     1.130652   -6.5696749    137.83762  0.037173036  0.038868885            4 
  310000    1.1433263   -6.5745914    138.83132  0.037320247  0.038847237            3 
  311000    1.1423451    -6.558783    138.65378  0.037152673   0.03882533            5 
  312000     1.111365   -6.6117097    138.17099  0.036904645  0.038800266            2 
  313000    1.1133241    -6.547241    139.23994  0.037071337  0.038775903            2 
  314000    1.1366513   -6.5688305    139.55378  0.037036567  0.038752334            1 
  315000    1.1365528   -6.5623262    139.91262  0.037013921  0.038728802            2 
  316000    1.1329939   -6.5846967    140.49917  0.037051469  0.038705092            3 
  317000    1.1552447   -6.5779618    140.17329  0.036848921  0.038680626            3 
  318000     1.143931   -6.5634628    140.68255  0.036866496  0.038656574            2 
  319000    1.1594331   -6.5984321    141.64407  0.037002109   0.03863302            4 
  320000    1.1177727   -6.5661231    141.96977  0.036971294  0.038610597            3 
  321000    1.0991607   -6.5813641    142.36954  0.036959901  0.038587981            3 
  322000    1.1150022   -6.5706156    142.76668  0.036947898  0.038564726            2 
  323000    1.1015452   -6.5572078    143.20417   0.03694638  0.038542495            1 
  324000    1.1332148   -6.5763325    143.11794  0.036810168  0.038519867            7 
  325000    1.1369225   -6.5818769     143.6129  0.036823819  0.038496733            2 
  326000    1.1435277   -6.5617514    144.04169  0.036820472  0.038473632            2 
  327000    1.1525518   -6.5894943    144.53432  0.036833414  0.038450784            3 
  328000    1.1288198    -6.601254    144.87114  0.036806692  0.038427739            1 
  329000    1.1623638   -6.5885121    145.03163  0.036735468  0.038404236            2 
  330000    1.1263096   -6.5818581    145.60713  0.036769478  0.038380671            3 
  331000     1.115433   -6.6077204    145.21114  0.036558695  0.038355657            3 
  332000    1.1097619   -6.6024553    145.41957  0.036500895  0.038329524            4 
  333000    1.1157849   -6.5777123    146.43894  0.036646382  0.038303485            3 
  334000    1.1379761    -6.592035    146.43007  0.036534449   0.03827741            2 
  335000    1.1157713   -6.5660245     147.1899  0.036614402  0.038251795            2 
  336000    1.1216378   -6.6080429    147.45298   0.03657068   0.03822804            3 
  337000    1.1363158   -6.5643792    148.07363  0.036615636  0.038203748            3 
  338000    1.0965162   -6.5725455    148.43272  0.036595838  0.038178877            2 
  339000    1.1198695   -6.6022118    148.63832  0.036538427  0.038154733            4 
  340000    1.1085235   -6.5955809    149.60392  0.036667628  0.038131019            2 
  341000    1.1053509    -6.586588    150.12704  0.036687937  0.038107834            2 
  342000    1.1308265    -6.608215     149.1492  0.036342397  0.038083741            3 
  343000    1.1230623    -6.566201     150.1019  0.036467906  0.038060007            5 
  344000    1.1318952   -6.5832343    150.56414  0.036473871  0.038035983            1 
  345000    1.1254125    -6.589129    151.27186  0.036539096  0.038013498            2 
  346000    1.1206706   -6.5890097    151.63893    0.0365219  0.037990022            1 
  347000    1.1135828   -6.5836893    151.67561  0.036425459  0.037967817            2 
  348000    1.1113161   -6.6600855    152.26135  0.036461052  0.037945453            3 
  349000    1.1276228   -6.5996453    153.08891  0.036554182  0.037923761            2 
  350000    1.1279912   -6.5921885    153.81384  0.036622343  0.037902466            5 
  351000    1.0929681   -6.5759555    153.83261  0.036522462  0.037880806            3 
  352000    1.0949123   -6.5459701    154.26898  0.036522013  0.037859379            4 
  353000    1.0983275   -6.6331834    154.25309    0.0364148   0.03783791            3 
  354000    1.1035648    -6.630866    154.44456  0.036357004  0.037816755            4 
  355000    1.1130611   -6.6344269    154.63708  0.036299783  0.037794791            3 
  356000    1.1181008    -6.588793    155.90981  0.036495742  0.037773626            4 
  357000    1.0916127   -6.5845891    156.50398  0.036532209  0.037752678            4 
  358000     1.129696   -6.6222082    156.51038  0.036431653  0.037732449            2 
  359000    1.1175137   -6.6027803    156.66392  0.036365813  0.037711298            3 
  360000    1.1016807   -6.5803082    156.94465   0.03632978  0.037689571            3 
  361000    1.1225128   -6.6102436    157.25396  0.036300545  0.037667593            2 
  362000    1.1052148   -6.6300309     157.2278  0.036194244  0.037646063            2 
  363000    1.1127515   -6.6043065    157.87376  0.036242827  0.037623098            1 
  364000    1.1345648   -6.6214353    157.85843   0.03613975  0.037599959            1 
  365000    1.1393687   -6.6011391    158.31803  0.036145668  0.037575997            5 
  366000    1.0967416   -6.6535293    158.30788    0.0360446  0.037552616            2 
  367000    1.0942268    -6.640787    158.59714  0.036012066  0.037528379            4 
  368000    1.1175985   -6.6083229    159.23183  0.036057932  0.037504335            2 
  369000    1.0878616   -6.6330594    158.99779   0.03590736   0.03747911            2 
  370000    1.1196321   -6.6327486    158.95704  0.035801135  0.037453969            2 
  371000    1.1022919   -6.6202454    159.51105  0.035829076  0.037428038            4 
  372000    1.1173832   -6.6631209    159.74696   0.03578561    0.0374022            2 
  373000    1.1047769   -6.5843841    160.99621   0.03596877  0.037376758            2 
  374000    1.1016492   -6.6088541    160.28789  0.035714771  0.037350788            3 
  375000    1.1400276   -6.6142268    160.79674   0.03573261  0.037323988            4 
  376000    1.1177834   -6.6065064    160.64594  0.035604154  0.037296722            2 
  377000    1.1220257   -6.6036182    160.90753  0.035567536  0.037268145            3 
  378000    1.1291816    -6.594333    161.61444  0.035629286  0.037240174            2 
  379000    1.0969216   -6.6076843    161.91424  0.035601196  0.037212805            5 
  380000    1.1125832   -6.6519039    162.13084  0.035555009  0.037184772            2 
  381000    1.1006362   -6.5872775    162.21026  0.035479059  0.037156408            3 
  382000    1.1094611   -6.6095787    163.11936  0.035584504  0.037129047            3 
  383000    1.1153984    -6.608556    163.52758  0.035580413  0.037102777            2 
  384000    1.0957929   -6.6030351    164.01857  0.035594308  0.037076721            4 
  385000    1.1079411   -6.6207677    164.22592  0.035546735  0.037050673            3 
  386000    1.1045317   -6.6298401    164.89732  0.035599594  0.037025007            2 
  387000      1.12151   -6.6378504    165.19711  0.035572159  0.036999007            1 
  388000    1.1053265   -6.6168642    164.88047  0.035412471  0.036972492            1 
  389000    1.0865129   -6.6258366    165.31371  0.035414249  0.036945916            6 
  390000    1.0771631   -6.6301991    165.80121   0.03542761  0.036918903            3 
  391000    1.0779954   -6.6414435    165.69149  0.035313616  0.036891302            2 
  392000    1.1015354    -6.638045    166.35551  0.035364693  0.036863548            4 
  393000    1.1058136    -6.602605    165.85231  0.035168004  0.036835246            1 
  394000    1.1092252   -6.6429209    166.46734  0.035208828  0.036806654            3 
  395000    1.0902128   -6.6488069    167.04712  0.035242009  0.036779164            3 
  396000    1.1127945   -6.6050044    166.75233   0.03509098  0.036750969            3 
  397000    1.0982221   -6.6540592    167.27648  0.035112612  0.036722066            3 
  398000    1.0741832   -6.6245614    168.20916  0.035219672  0.036694526            4 
  399000    1.1221362   -6.6604604    168.33715  0.035158134  0.036666714            3 
  400000    1.0805308   -6.6293194    169.09027  0.035227139  0.036639059            2 
  401000    1.1254242    -6.632835    168.92908  0.035105795  0.036611914            3 
  402000    1.0764769    -6.640965    169.80856   0.03520078  0.036585497            7 
  403000    1.0845791   -6.6742091    170.01696  0.035156526  0.036558999            3 
  404000    1.0969417   -6.6467812    170.99487  0.035271219  0.036532924            2 
  405000    1.0818665   -6.6662877    170.68177  0.035119706  0.036507745            5 
  406000    1.1277854   -6.6455094    171.17006  0.035133428  0.036482119            4 
  407000    1.1000064   -6.6524601    171.33168  0.035080197   0.03645663            1 
  408000    1.0889857   -6.6394837    172.11516   0.03515424  0.036430805            2 
  409000    1.0955268   -6.6684383    172.34254  0.035114617    0.0364051            2 
  410000    1.0984463   -6.6406908    172.76075  0.035113974  0.036380085            3 
  411000    1.0728231   -6.6335232    173.14379  0.035106203  0.036355314            1 
  412000    1.0870282   -6.6248959    173.74349  0.035142291    0.0363303            2 
  413000    1.0720751   -6.6582204    173.30834  0.034969399  0.036305632            2 
  414000    1.0982367   -6.6644041    173.78706  0.034981292  0.036280636            3 
  415000    1.1068191   -6.6486223    174.44547   0.03502921  0.036255804            5 
  416000     1.119537   -6.6492735    174.22861  0.034901565  0.036231522            2 
  417000    1.0859477   -6.6212822    175.16506  0.035005007  0.036207203            2 
  418000    1.0403312   -6.6503809    175.22679   0.03493357  0.036182197            2 
  419000    1.0508218   -6.6796272    175.35554  0.034875804  0.036157207            3 
  420000    1.0967405   -6.6875147    175.75285  0.034871598  0.036132885            6 
  421000    1.0976329   -6.6756678    176.75634  0.034987399  0.036109708            3 
  422000    1.0852932   -6.6605847    177.24402  0.035000794  0.036087074            3 
  423000     1.098456   -6.6532456    177.67698  0.035003345  0.036064419            3 
  424000    1.1049544   -6.6594468    178.26687  0.035036728  0.036042457            2 
  425000    1.0874422   -6.6204596    178.11161  0.034923846  0.036019992            2 
  426000    1.0812275   -6.6876439    178.63476  0.034944202  0.035996879            2 
  427000    1.0862898     -6.68247     178.1583  0.034769379   0.03597371            4 
  428000    1.0735666   -6.6845913    178.37554   0.03473044  0.035950206            3 
  429000    1.0872058   -6.6977613    179.33579  0.034836013  0.035926666            6 
  430000    1.1039495   -6.6210267    180.14712  0.034912232  0.035903851            2 
  431000    1.1113727   -6.7138528    179.75008  0.034754462  0.035881578            3 
  432000    1.0729071   -6.6637388    180.26993  0.034774291  0.035858818            2 
  433000    1.0714881    -6.637707     180.2099   0.03468243  0.035835542            2 
  434000    1.0803533   -6.6660755    180.73657  0.034703643  0.035812039            4 
  435000    1.0853992   -6.6855497    180.77322  0.034630886  0.035788313            2 
  436000    1.0856865   -6.6526747    181.38834  0.034669025  0.035764436            2 
  437000    1.0978311    -6.682103    181.30033  0.034572908   0.03574081            2 
  438000    1.0947985   -6.7055344    181.94004  0.034615684  0.035717572            4 
  439000    1.0922246   -6.6795484    181.34166  0.034423245  0.035693997            2 
  440000    1.0775756   -6.6627486    183.03008  0.034664788  0.035670612            2 
  441000    1.1090743   -6.6567016    182.90204  0.034561987  0.035647214            2 
  442000    1.0796011   -6.6746393    183.21326  0.034542469  0.035623578            3 
  443000    1.0888361   -6.6390666      183.404  0.034500377   0.03560012            2 
  444000    1.0763069    -6.674239    184.19445   0.03457103  0.035576809            2 
  445000    1.0846889   -6.7084027    183.67216  0.034395536  0.035553581            3 
  446000    1.0543184   -6.6695671    184.47711  0.034468817  0.035529728            2 
  447000    1.0872484   -6.6844648    184.48166  0.034392554  0.035505617            3 
  448000     1.056592   -6.7154259     184.4139  0.034303182  0.035481181            2 
  449000    1.0726905   -6.7030142    184.64109  0.034268947  0.035455823            2 
  450000    1.0733405   -6.7007673    184.73922  0.034210967   0.03543039            1 
  451000    1.0820409   -6.6790783    184.65944  0.034120369  0.035404622            2 
  452000    1.0777536   -6.6801836    184.97067  0.034102263  0.035378678            3 
  453000    1.0858928   -6.7118531    185.44355  0.034113971  0.035353413            3 
  454000    1.0855126   -6.7034019     186.4292   0.03421975  0.035328425            2 
  455000    1.0991287   -6.7050693    185.97242  0.034060882  0.035302847            3 
  456000    1.0720325   -6.6776836    186.29963  0.034045986  0.035276626            3 
  457000    1.0605046   -6.7019951    186.58525  0.034023568  0.035250508            4 
  458000    1.0800885   -6.7026575     187.2542  0.034070997  0.035225063            2 
  459000    1.0915354   -6.6796274    186.98148  0.033947254  0.035199389            2 
  460000    1.0804277   -6.7029186    187.31142  0.033933228  0.035173726            2 
  461000    1.0818086   -6.6701485    188.45031  0.034065494  0.035148681            1 
  462000    1.0842282   -6.6852259     188.4464  0.033991052  0.035124223            3 
  463000    1.0440853   -6.6879435    188.51427  0.033929854  0.035099726            5 
  464000    1.0697241   -6.7076007    189.27152   0.03399273  0.035075383            2 
  465000    1.0755125   -6.6895198    189.43632  0.033949161   0.03505132            3 
  466000    1.0889625   -6.6932197    189.37136  0.033864693  0.035027277            4 
  467000    1.0798409   -6.7065394    190.26513  0.033951664  0.035003054            3 
  468000    1.0757033   -6.6934274    190.34166  0.033892746  0.034978725            4 
  469000    1.0700809    -6.696743    191.10488  0.033956091  0.034954028            4 
  470000    1.0571881   -6.6588106    191.51492  0.033956546  0.034929735            2 
  471000    1.0707393    -6.733158    190.21671  0.033654761  0.034905273            2 
  472000     1.055241    -6.692563     191.4755  0.033805703   0.03488097            2 
  473000    1.0524525   -6.7131658    191.48053  0.033735118  0.034856977            4 
  474000    1.0633514   -6.6896535    192.86113  0.033906669  0.034833351            2 
  475000    1.0635903   -6.6931638    192.36919  0.033748981  0.034809876            3 
  476000    1.0582929   -6.6507589    192.80366  0.033754142  0.034786415            4 
  477000     1.072984   -6.6908386    193.90469  0.033875731  0.034762936            6 
  478000    1.0504928   -6.6960956      193.795   0.03378574  0.034739444            2 
  479000    1.0675316   -6.7185649    194.11245  0.033770433  0.034715888            5 
  480000    1.0664291   -6.7025357    194.83868   0.03382616  0.034692634            4 
  481000    1.0474469   -6.7217822    194.89762  0.033766047  0.034669278            2 
  482000    1.0459339   -6.7343653    194.76455  0.033672987  0.034646319            2 
  483000    1.0702909   -6.7556236    194.56312  0.033568516  0.034623082            4 
  484000     1.057783   -6.6954405    195.30364   0.03362666  0.034599892            7 
  485000    1.0794676    -6.678361    196.42293  0.033749644  0.034576867            3 
  486000    1.0860386   -6.6828277     196.6542  0.033719857   0.03455423            2 
  487000    1.0486451   -6.7139682    196.75004  0.033667016  0.034531697            2 
  488000    1.0927395   -6.7168884     196.8787  0.033619996  0.034509286            2 
  489000    1.0581344   -6.6885676    197.58321  0.033671303  0.034486962            3 
  490000    1.0572407   -6.7280201    197.86609  0.033650695  0.034465729            2 
  491000    1.0328716   -6.6822252    198.04979  0.033613338  0.034443739            2 
  492000    1.0510264   -6.7096526    198.47197  0.033616527   0.03442176            2 
  493000    1.0498924   -6.6795962    199.64259  0.033746212  0.034400192            3 
  494000    1.0457145   -6.7071233    198.59442  0.033501083  0.034378358            3 
  495000    1.0690449   -6.6873977    199.32034  0.033555613  0.034356317            2 
  496000    1.0492036   -6.7259299    198.81548  0.033403138  0.034334267            5 
  497000    1.0317285    -6.720808    199.24565  0.033408057  0.034311884            4 
  498000    1.0637339   -6.7276035    199.72638  0.033421416  0.034289162            3 
  499000    1.0452474   -6.7071386    199.69451  0.033349117  0.034266596            3 
  500000    1.0448504    -6.726972    200.45182  0.033408637  0.034244209            6 
  501000    1.0643883   -6.7509473     201.0491  0.033441301  0.034222075            2 
  502000    1.0393929   -6.7161668    201.35214   0.03342499  0.034200394            3 
  503000    1.0595497   -6.7244215    201.37102  0.033361667  0.034178243            3 
  504000    1.0562373   -6.7176905    201.73367  0.033355435  0.034156571            2 
  505000    1.0861204   -6.7050092    201.96961  0.033328318  0.034134392            5 
  506000    1.0446716   -6.7072382    202.13475   0.03328965  0.034112204            5 
  507000    1.0338424   -6.7416025    202.43379  0.033273142  0.034090115            2 
  508000    1.0589788   -6.7115823    202.92327  0.033287938  0.034067904            4 
  509000    1.0682171   -6.7602867      202.918  0.033221677  0.034045576            2 
  510000    1.0577916   -6.7144922    202.94875  0.033161561    0.0340227            4 
  511000    1.0519803   -6.7301087    202.74685   0.03306374   0.03399891            4 
  512000    1.0473252   -6.7114983    202.86936  0.033019102  0.033975658            3 
  513000     1.069003   -6.7171645    203.78793  0.033103953  0.033952281            5 
  514000    1.0497331   -6.7119816    204.48757  0.033152978  0.033928793            3 
  515000    1.0687766   -6.7277997    204.54327  0.033097617  0.033905307            2 
  516000    1.0632829   -6.7326227    203.40666  0.032849913  0.033881778            6 
  517000    1.0389657   -6.6967739     204.6437  0.032985767  0.033857532            2 
  518000    1.0395703   -6.7271892    204.23866  0.032856927  0.033833602            6 
  519000    1.0576199   -6.7316305    205.07709  0.032928242  0.033809156            3 
  520000    1.0520474    -6.724732    205.09057  0.032867078  0.033784614            2 
  521000    1.0587144   -6.7501575    204.93848  0.032779667  0.033760266            5 
  522000    1.0528408   -6.7517529     205.3017  0.032774857  0.033735392            2 
  523000    1.0424571   -6.7557557    205.80646  0.032792617  0.033711002            3 
  524000    1.0325903   -6.7397233    205.48129  0.032678322  0.033686431            4 
  525000    1.0438658   -6.7250729    206.56434   0.03278799  0.033661835            4 
  526000    1.0587498   -6.7346449    206.23024  0.032672725  0.033636867            5 
  527000    1.0390694    -6.726698    206.62501  0.032673152  0.033612004            1 
  528000    1.0298742   -6.7036998    207.61562  0.032767616  0.033587564            8 
  529000    1.0671012   -6.7422141    206.81519  0.032579583  0.033562985            5 
  530000    1.0294623   -6.7104245    207.58428  0.032639038  0.033538368            2 
  531000    1.0416482   -6.7446116    207.11855  0.032504481  0.033513801            2 
  532000    1.0415543   -6.7208654    207.98209  0.032578648  0.033488966            4 
  533000     1.010658    -6.758225    207.22478  0.032399122  0.033464026            2 
  534000    1.0241691   -6.7619377    207.83452  0.032433602  0.033439221            4 
  535000    1.0363295   -6.7458701     208.6602  0.032501589  0.033414861            2 
  536000    1.0450249   -6.7570278    209.42742  0.032560234  0.033390785            3 
  537000    1.0479313   -6.7308673    209.37803  0.032491936  0.033367033            2 
  538000    1.0364297   -6.7656323    208.97835  0.032369634  0.033343427            1 
  539000    1.0115382   -6.7345739    209.60025  0.032405729   0.03331972            5 
  540000    1.0105483   -6.7137869    209.88318   0.03238938   0.03329557            2 
  541000    1.0601572   -6.7316841    210.46388  0.032418959  0.033271764            3 
  542000    1.0469268   -6.7447059    210.68326  0.032392875  0.033247814            2 
  543000     1.055758   -6.7529438    210.92808  0.032370792  0.033223536            3 
  544000     1.012154   -6.7766522    210.70481  0.032277084  0.033198959            5 
  545000    1.0331604   -6.7524775     211.0017  0.032263256  0.033174913            2 
  546000    1.0301103   -6.7580241     211.2283  0.032238751  0.033150601            2 
  547000    1.0272033   -6.7809212    211.23759  0.032181229  0.033126168            2 
  548000    1.0304359   -6.7276881    212.08913  0.032251996  0.033101746            3 
  549000    1.0314579   -6.7872447     211.5423  0.032110245  0.033077194            6 
  550000     1.054018   -6.7547811    212.00047  0.032121283  0.033053357            2 
  551000     1.030371   -6.7399832    213.18889  0.032242723  0.033029685            2 
  552000    1.0352145   -6.8010181    212.39057  0.032063794  0.033005785            6 
  553000    1.0107595   -6.7581503       213.45  0.032165461  0.032982203            3 
  554000    1.0197184   -6.7220501    213.40312  0.032100349  0.032958992            3 
  555000    1.0401276   -6.7618731    214.43144  0.032196912  0.032935852            5 
  556000    1.0566872   -6.7680099    214.47179  0.032145052   0.03291272            4 
  557000    1.0426274   -6.7884954    214.54776  0.032098707  0.032889801            2 
  558000     1.023383   -6.7519336    215.50563  0.032184234  0.032867336            4 
  559000    1.0101879   -6.7680548    214.85878   0.03203023  0.032844638            2 
  560000    1.0406287   -6.7772401    215.01923  0.031996909  0.032821975            2 
  561000    1.0290709   -6.7459871     215.8159  0.032058214  0.032798835            5 
  562000    1.0314181   -6.7885087      215.445  0.031946174  0.032776095            3 
  563000    1.0212247    -6.757002    216.63719  0.032065895  0.032752803            4 
  564000     1.015829   -6.7683138    215.91882  0.031902899   0.03272943            1 
  565000    1.0308907   -6.7647967    217.24575  0.032042146   0.03270663            5 
  566000    1.0411425   -6.7795199    217.82117  0.032070254  0.032684389            2 
  567000    1.0558561   -6.7608745    217.92908  0.032029553  0.032662421            5 
  568000     1.021997   -6.7995567    217.25641  0.031874473  0.032640238            4 
  569000    1.0084239   -6.7457663    218.27962   0.03196831  0.032617907            5 
  570000    1.0168663   -6.8005829    217.90202  0.031857021  0.032595291            3 
  571000    1.0381385   -6.7450967    219.51339  0.032036397  0.032572943            2 
  572000    1.0587319    -6.796863     219.6416  0.031999067   0.03255108            5 
  573000    1.0132226   -6.7686656     219.5063  0.031923545  0.032529185            3 
  574000     1.016889   -6.8187317    219.48744  0.031865191   0.03250747            4 
  575000    1.0398242   -6.7914493    220.42099  0.031945071  0.032486162            3 
  576000     1.032383   -6.7398784    220.90446  0.031959558  0.032464687            5 
  577000    1.0248594   -6.7592392    220.12033  0.031790921   0.03244314            3 
  578000    1.0513327   -6.8465789    220.39873  0.031776056  0.032421427            2 
  579000    1.0153177   -6.8092779    221.00378  0.031808258  0.032399225            5 
  580000     1.047116   -6.8173725    220.80045  0.031724203  0.032376883            4 
  581000    1.0163941   -6.7834187    221.34299  0.031747417   0.03235462            4 
  582000    1.0099644   -6.7765898    221.40178  0.031701286  0.032332686            9 
  583000    1.0325085   -6.7784196    222.29185  0.031774136  0.032310986            2 
  584000   0.98637294   -6.7955883    222.32839  0.031724942  0.032289586            3 
  585000    1.0106356   -6.7664128     222.7509  0.031730897    0.0322685            5 
  586000     1.013675   -6.7528947    222.85915  0.031692143  0.032247327            4 
  587000    1.0183521   -6.7561373    223.32615   0.03170445  0.032226481            3 
  588000    1.0272557   -6.7825049    223.98778    0.0317443   0.03220593            5 
  589000    1.0155375   -6.7585589    224.33432  0.031739434  0.032185127            2 
  590000    1.0168772   -6.7499271    224.37242  0.031691019  0.032164743            5 
  591000    1.0323118   -6.8053591    224.62639  0.031673208  0.032144151            2 
  592000     1.026896   -6.7851224    224.16406  0.031554626  0.032123498            4 
  593000    1.0121755   -6.7633207    225.38116   0.03167245  0.032102973            2 
  594000    1.0020507   -6.7697022     225.8992  0.031691807  0.032082489            3 
  595000     1.008272   -6.7582546     225.9204  0.031641513  0.032062337            3 
  596000   0.99679692   -6.7679183    226.24721  0.031634118  0.032042265            2 
  597000    1.0091815   -6.8114588    225.89188   0.03153153  0.032022288            2 
  598000    1.0149151   -6.8402581    226.72868  0.031595413  0.032002237            1 
  599000    1.0038372   -6.8198371    227.02095  0.031583326  0.031982581            4 
  600000    1.0106637   -6.7943262    227.51118  0.031598775  0.031962893            3 
  601000    1.0248342   -6.8063587    227.36311  0.031525667  0.031943403            3 
  602000    1.0045853   -6.7717467    228.18137  0.031586569  0.031923614            2 
  603000      1.02066   -6.8273775    228.13441  0.031527696  0.031904067            3 
  604000    1.0386158   -6.8086994    228.60335  0.031540197  0.031884821            3 
  605000     1.008632   -6.8114775    228.78749  0.031513428  0.031865244            2 
  606000   0.99825123   -6.8083643    228.73601  0.031454347    0.0318459            5 
  607000   0.99570931   -6.7823851    229.91887  0.031564919  0.031826645            2 
  608000    1.0138886   -6.8100131    229.17793  0.031411448  0.031807346            4 
  609000    1.0387455   -6.8250341    230.17481   0.03149628  0.031787901            4 
  610000     1.000132   -6.7987134    230.66402  0.031511478  0.031768744            3 
  611000    1.0001994   -6.8346105    229.80228  0.031342373  0.031749547            2 
  612000    1.0132847   -6.7972737    230.99198  0.031453157  0.031730142            5 
  613000    1.0082685   -6.8027205     231.3745  0.031453847  0.031711548            4 
  614000    1.0171558   -6.7981689     232.1329  0.031505552  0.031692793            6 
  615000   0.99093773   -6.8575971    231.33506  0.031346214  0.031673972            3 
  616000    1.0266812   -6.8362113    231.53446  0.031322303   0.03165482            6 
  617000    1.0062508   -6.8096954    232.42413  0.031391698  0.031636456            3 
  618000    1.0209334   -6.8371574    232.14517  0.031303286  0.031618096            3 
  619000    1.0080223   -6.8335959    232.84524  0.031346963       0.0316            9 
  620000    1.0042452   -6.8029511    233.13891  0.031335875  0.031581672            3 
  621000    0.9953629   -6.7785879    234.00772  0.031402002  0.031563716            3 
  622000    1.0004434   -6.8098081    233.70509  0.031310971  0.031546065            4 
  623000     1.017928   -6.8044597    234.60766  0.031381443  0.031528311            4 
  624000    1.0288027   -6.8282943    233.87977  0.031233943  0.031510577            8 
  625000   0.99493765   -6.8049623    235.24113  0.031365484  0.031492764            4 
  626000    1.0042253   -6.8446401     235.6464  0.031369328  0.031474996            3 
  627000    0.9975353    -6.804903    235.55687  0.031307399  0.031457178            2 
  628000    1.0081619   -6.8086113    235.68928  0.031275117  0.031439275            5 
  629000    1.0045218   -6.7980522    235.27272  0.031170206  0.031421155            6 
  630000    1.0124748   -6.8359086    235.37319   0.03113402  0.031403061            6 
  631000   0.99827021   -6.8165252    235.12412  0.031051786  0.031384598            8 
  632000   0.98572739   -6.8157872    236.31073  0.031159115  0.031365953            2 
  633000    1.0077981    -6.801726    236.55553  0.031142118  0.031347891            4 
  634000    1.0004501   -6.8159823    236.83844  0.031130184  0.031330528            4 
  635000   0.98710053   -6.8014931    238.26218  0.031268003  0.031313259            1 
  636000    1.0137409   -6.8145643    237.53612  0.031123706   0.03129563            3 
  637000    1.0094529   -6.7925602    238.47938  0.031198244  0.031278231            2 
  638000    0.9890129     -6.81576     238.8897  0.031202938     0.031261            3 
  639000    1.0055435   -6.7715122    239.44613  0.031226673  0.031243514            3 
  640000   0.99694162   -6.8112583    238.94744  0.031112948  0.031226119            4 
  641000    1.0049366   -6.8364053    238.60928  0.031020448  0.031208622            4 
  642000    1.0107656   -6.7987262     238.5223  0.030960839  0.031190861            3 
  643000   0.99895583   -6.8105442    238.51382  0.030911589  0.031172859            3 
  644000   0.98944539   -6.8589233    238.72525  0.030890948  0.031154763            3 
  645000   0.99741742   -6.8268102    239.82625  0.030985304  0.031136227            3 
  646000   0.98613501   -6.8290915    239.38715  0.030880695  0.031118148            3 
  647000   0.98918415   -6.8408149    240.60384  0.030989676  0.031100277            4 
  648000   0.98448442   -6.8289462    240.18105  0.030887481  0.031082352            2 
  649000   0.99771001   -6.8285478    240.00969  0.030817885  0.031064226            3 
  650000   0.99623131   -6.8099783    240.86936  0.030880687  0.031046268            8 
  651000    1.0015745   -6.8638994    240.26728   0.03075618  0.031027854            7 
  652000   0.99897509   -6.8144504    241.11585  0.030817466  0.031009777            4 
  653000   0.98729908   -6.8238035    241.18526   0.03077913   0.03099166            2 
  654000   0.99417831   -6.8241116    242.44517  0.030892606  0.030973763            5 
  655000   0.97273251   -6.8190197    242.70326  0.030878277  0.030955972            6 
  656000    0.9832919   -6.8323897    242.59407  0.030817335  0.030938135            3 
  657000    1.0129376   -6.8341691    242.42604  0.030749117  0.030920333            4 
  658000   0.97886055   -6.8499135    242.77447  0.030746514  0.030902375            3 
  659000   0.97209707   -6.8154312    242.75044  0.030696818  0.030884339            6 
  660000   0.97370659   -6.8480348     242.3502  0.030599773  0.030866064            4 
  661000   0.98620102   -6.8723952    243.52852  0.030702033  0.030848042            3 
  662000   0.98237179   -6.8342309     243.9532  0.030709113  0.030830264            4 
  663000    1.0031945   -6.8654249    243.05481  0.030549876  0.030812231            4 
  664000   0.98587456   -6.8751943    244.55917  0.030692667   0.03079416            2 
  665000   0.98785259   -6.8208144    245.03084  0.030705618  0.030776267            3 
  666000    0.9668062   -6.8397776    244.51134  0.030594512  0.030758458            5 
  667000   0.98864508   -6.8663964    245.00729  0.030610606  0.030740571            2 
  668000    1.0078293   -6.8339639    245.03776  0.030568583  0.030722914            3 
  669000   0.98872912   -6.8615229    245.30183  0.030555784  0.030705609            4 
  670000    1.0067184   -6.8831538     245.6336  0.030551442  0.030688214            3 
  671000   0.96705148   -6.8753995    246.23502  0.030580604  0.030671079            2 
  672000   0.97250057   -6.8317003    245.84712  0.030486994  0.030653715            3 
  673000   0.98781664   -6.8548427    246.80247  0.030559988  0.030636456            4 
  674000   0.97552303   -6.8830999     247.3825  0.030586362  0.030619501            2 
  675000   0.98894697   -6.8400142    247.06556  0.030501921  0.030602351            4 
  676000   0.99382436   -6.8609323    247.44447  0.030503509  0.030585223            4 
  677000   0.97478837   -6.8446662    247.25084  0.030434618  0.030567967            4 
  678000   0.99956205    -6.849327     247.7711  0.030453675  0.030550496            4 
  679000   0.96790783    -6.863533     248.1814   0.03045918  0.030532938            4 
  680000   0.97733105   -6.8717203    247.59385  0.030342384  0.030515262            2 
  681000   0.98235122   -6.8572981    249.44266  0.030524065  0.030498072            2 
  682000   0.97021334   -6.8783892    248.17504  0.030324419  0.030480709            6 
  683000    0.9820794   -6.8890429    249.17593  0.030402139  0.030463537            3 
  684000   0.99509518   -6.8239206    249.56647  0.030405271  0.030446322            3 
  685000    0.9813702    -6.903562    248.96362  0.030287544  0.030429285            5 
  686000   0.98161678   -6.8352152    249.87538  0.030354152  0.030412151            5 
  687000   0.97689492   -6.8698678    249.51617  0.030266396  0.030395195            5 
  688000   0.99341316   -6.8623839    250.03965   0.03028581  0.030378162            3 
  689000   0.98351027   -6.8707515    250.83599   0.03033817  0.030361007            5 
  690000   0.97649967   -6.9035718    250.33455  0.030233641  0.030344017            2 
  691000   0.98886729    -6.891329    250.33788  0.030190289  0.030326876            4 
  692000   0.96809153   -6.8752563    250.86064  0.030209615  0.030309696            2 
  693000   0.97455492   -6.8675327     251.7118  0.030268375   0.03029243            2 
  694000   0.96949013   -6.8636054    251.00242  0.030139579  0.030275195            5 
  695000   0.96372915   -6.8988429    252.24685  0.030245425  0.030258021            4 
  696000   0.96664269   -6.9032311    251.76041  0.030143727  0.030240796            4 
  697000   0.97045732   -6.8879046    251.72411   0.03009614   0.03022319            5 
  698000   0.97186174   -6.9272564    251.56545   0.03003408  0.030205151            7 
  699000   0.98623758   -6.8716241    251.82695  0.030022288  0.030187072            5 
  700000   0.97493914   -6.8622487     252.6186  0.030073643  0.030169564            3 
  701000   0.97018706   -6.8975706    252.84418  0.030057558  0.030151661            4 
  702000   0.96127565   -6.9043886    252.45052   0.02996801  0.030133597            7 
  703000   0.99665746   -6.9191344    252.36339  0.029915053  0.030115471            6 
  704000   0.95091551   -6.8826747    253.72989  0.030034314  0.030097494            3 
  705000   0.95172856   -6.8751068    253.43357  0.029956687  0.030079697            9 
  706000   0.97585915   -6.8572497    254.12051  0.029995339   0.03006208            5 
  707000   0.96343039   -6.8883573    254.23708  0.029966653  0.030044479            4 
  708000    0.9806396   -6.8949717    254.63669  0.029971361   0.03002673            2 
  709000   0.98540683    -6.869512    254.58607  0.029923139  0.030009187            4 
  710000   0.97546502   -6.8599009    255.08599   0.02993967  0.029991658            5 
  711000    0.9649338   -6.9138572    254.38056  0.029814881  0.029974271            2 
  712000   0.97596742   -6.9187894    255.12575  0.029860224  0.029956799            3 
  713000   0.97102045   -6.8896352    255.04343  0.029808722  0.029939532            6 
  714000   0.98058632   -6.9349471    255.40522    0.0298092  0.029922169            6 
  715000   0.97460821   -6.9258679    256.24346  0.029865205  0.029904792            4 
  716000   0.97753585   -6.8631733    256.42886  0.029845072  0.029887727            2 
  717000   0.97275141   -6.8682645    256.76365  0.029842359  0.029870675            5 
  718000   0.93470678   -6.9084487    256.19366   0.02973464  0.029853546            8 
  719000   0.95552025   -6.8845733    257.25041  0.029815764  0.029836478            4 
  720000   0.97282849   -6.9182697    256.18414  0.029650942  0.029819333            4 
  721000   0.95472898   -6.8992311    257.64404  0.029778552  0.029801773            5 
  722000   0.97448886   -6.8871316    257.06554  0.029670538  0.029784286            2 
  723000   0.97302667   -6.9118603    257.49324  0.029678797  0.029766864            4 
  724000    0.9800217   -6.9143061    257.47464  0.029635662  0.029749421            4 
  725000    0.9779787    -6.862364    258.10419  0.029667148  0.029732084            4 
  726000   0.96722331   -6.9083202    257.66712  0.029576115  0.029714735            2 
  727000   0.97281984   -6.8728785    258.55622  0.029637348  0.029697437            3 
  728000   0.96143785   -6.9144149    259.19595  0.029669866  0.029680037            2 
  729000   0.95617022   -6.9154864    258.96584  0.029602862  0.029662665            2 
  730000    0.9645222    -6.884583    258.96315  0.029562003  0.029645305            2 
  731000   0.93829251   -6.8983608    259.04455  0.029530842   0.02962807            2 
  732000   0.95090464   -6.8678408    259.11822  0.029498887  0.029610576            4 
  733000   0.95009892   -6.9166256    259.81273    0.0295376   0.02959319            4 
  734000   0.96075539   -6.8918205    259.83785   0.02950021  0.029575792            3 
  735000   0.94744729   -6.9026305    259.36765  0.029406763  0.029558074            4 
  736000    0.9595054   -6.9102936    259.44454  0.029375514  0.029540576            3 
  737000   0.97061203   -6.9120819    259.38079  0.029328447  0.029522945            5 
  738000   0.93898848   -6.9213675    260.17262  0.029378119   0.02950541            5 
  739000   0.95186442   -6.8798424    261.14858  0.029448419  0.029488089            4 
  740000    0.9370501   -6.9028519    260.80849  0.029370326  0.029470753            3 
  741000   0.97699779   -6.9099632    261.38222  0.029395212  0.029453205            4 
  742000   0.97357735   -6.9124494    261.26045   0.02934192  0.029435545            5 
  743000   0.96512683   -6.9129893      260.931  0.029265478  0.029418069            2 
  744000   0.95851703   -6.9457144    261.42278  0.029281225  0.029400285            3 
  745000   0.94913577   -6.9139478    261.51118   0.02925181  0.029382352            5 
  746000   0.97888451    -6.934541    261.12855  0.029169856  0.029364784            3 
  747000    0.9606107   -6.8941595    262.10975  0.029240266  0.029347212            5 
  748000   0.96362131   -6.9319492    262.44395  0.029238408  0.029329461            3 
  749000   0.93938631   -6.9140464    263.05288   0.02926712  0.029312079            5 
  750000    0.9506211    -6.919626    263.37368  0.029263742  0.029294608            2 
  751000   0.96703885   -6.9284988    263.32475  0.029219346  0.029277163            2 
  752000   0.95409051   -6.9452271    263.40472  0.029189353  0.029259719            3 
  753000   0.94935157   -6.9256312    264.15857  0.029234016  0.029242539            5 
  754000   0.94873021   -6.9391107    263.12588   0.02908111  0.029225448            9 
  755000   0.95346513   -6.9407198    264.15412  0.029156084   0.02920832            5 
  756000   0.93157753    -6.927238     265.0784    0.0292194  0.029191039            4 
  757000   0.94939876   -6.9639552    265.03629  0.029176166  0.029174056            4 
  758000   0.93766387   -6.9401488    264.96847  0.029130218  0.029157164            5 
  759000   0.94176183   -6.9476193    265.95584  0.029200246  0.029140423            4 
  760000    0.9383384    -6.927914    265.98943  0.029165508  0.029123695            2 
  761000   0.93275735   -6.9223716    266.30217  0.029161429   0.02910715            3 
  762000   0.95886549   -6.9670643    265.69512  0.029056771  0.029090548            3 
  763000   0.93978397    -6.922919    266.61126  0.029118748  0.029073906            6 
  764000   0.92044907   -6.8939299    266.56933  0.029076061  0.029057112            6 
  765000    0.9386214    -6.907677    266.77766  0.029060747  0.029040492            5 
  766000    0.9546146   -6.9108252    266.65417  0.029009374  0.029023841            4 
  767000   0.94313213   -6.9122814     267.0172  0.029010995  0.029006862            8 
  768000   0.96448191   -6.9164034    267.26278  0.028999868  0.028989819            2 
  769000   0.96290954   -6.9034245    267.38151  0.028975023  0.028972798            2 
  770000   0.93204059   -6.9282975    267.13163  0.028910349  0.028955827            2 
  771000   0.94566023   -6.9160282    267.63851  0.028927638  0.028938965            2 
  772000   0.95160198   -6.9674447    267.45305  0.028870148  0.028922133            4 
  773000   0.93092739   -6.9256697    267.23607  0.028809408  0.028905075            8 
  774000   0.96084758   -6.9482632    267.48477  0.028798963  0.028887809            3 
  775000   0.94463758   -6.9527275    267.92722  0.028809379  0.028870316            4 
  776000   0.96934691   -6.9580423    268.24905  0.028806814  0.028852977            5 
  777000    0.9310357   -6.9408397    268.73072  0.028821399  0.028835535            3 
  778000   0.92283788     -6.95514    268.02263  0.028708508  0.028818175            8 
  779000   0.93424289   -6.9663358       267.95  0.028663885  0.028801041            2 
  780000   0.92754152   -6.9499719    269.00361  0.028739702  0.028783676            4 
  781000   0.93616392   -6.9662427    268.70295  0.028670823  0.028766359            5 
  782000   0.94387648   -6.9447805    269.38414   0.02870675  0.028749083            2 
  783000   0.93573019   -6.9560433    269.31461  0.028662687  0.028731444            4 
  784000   0.93472266   -6.9461364    268.91881  0.028584057  0.028713636            5 
  785000   0.95298829   -6.9594848    269.10684  0.028567605   0.02869598            4 
  786000   0.93715856   -6.9381201    270.01107  0.028627128   0.02867844            5 
  787000   0.93408957   -6.9480091    269.43934  0.028530214   0.02866049            2 
  788000   0.94605747   -6.9587145       269.43  0.028493021  0.028642388            4 
  789000   0.93361851   -6.9422699    269.85858  0.028502173  0.028624394            4 
  790000   0.94900706   -6.9432314    269.73792  0.028453367  0.028606218            2 
  791000   0.92585041   -6.9663921    269.26115  0.028367167  0.028588098            3 
  792000    0.9449253    -6.928049    269.93632   0.02840239  0.028569755            3 
  793000   0.94286723   -6.9488236    269.68604  0.028340273  0.028551493            3 
  794000   0.92163158   -6.9643895    270.01665  0.028339279  0.028533119            4 
  795000   0.95883159   -6.9418559    271.26406  0.028434387  0.028514842            5 
  796000   0.93899687   -6.9246407    270.71281  0.028340956  0.028496809            7 
  797000   0.94359256   -6.9684771    271.01823  0.028337331  0.028478521            6 
  798000   0.92840904   -6.9739908    271.67519  0.028370425  0.028460293            3 
  799000   0.93624799   -6.9514161    271.78443  0.028346311  0.028442441            4 
  800000   0.96644572   -6.9626694    271.51611  0.028282928  0.028424617            6 
  801000   0.94262611   -6.9589983    271.75478  0.028272449  0.028406637            6 
  802000    0.9263856   -6.9623074    271.84102  0.028246157  0.028388644            3 
  803000   0.93645397   -6.9763034    272.27985  0.028256522  0.028370709            3 
  804000   0.94325081   -6.9853328    272.24254   0.02821751  0.028352792            6 
  805000   0.91741999    -6.928151    273.86677  0.028350597  0.028335274            5 
  806000   0.91779877   -6.9390106      273.722  0.028300455  0.028317834            5 
  807000   0.93131497   -6.9808129     273.3534  0.028227323  0.028300174            6 
  808000   0.92141496   -6.9584894     273.9624  0.028255197  0.028282577            3 
  809000   0.92675742   -6.9353197    273.70237  0.028193487  0.028264886            5 
  810000   0.90540409    -6.973587    273.59915  0.028148061    0.0282472            3 
  811000   0.92909943   -6.9711487    273.61467  0.028114948  0.028229361            3 
  812000   0.93341849   -6.9901361    273.45433  0.028063868  0.028211688            3 
  813000   0.93433643    -6.997941    273.29161   0.02801267  0.028194087            8 
  814000   0.92815359   -6.9843863    275.09014  0.028162381  0.028176589            9 
  815000   0.93546583   -6.9648742    274.49763  0.028067242   0.02815911            6 
  816000   0.93216931   -6.9912126    274.72593  0.028056162  0.028141508            6 
  817000   0.92333399   -7.0000229    274.96397  0.028046101  0.028123933            3 
  818000   0.92171192   -6.9518026    275.90173  0.028107349  0.028106615            6 
  819000   0.92906558   -7.0015918    275.30503  0.028012315  0.028089413            3 
  820000   0.93678387   -6.9973223    275.77026  0.028025433  0.028072039            4 
  821000   0.92196361   -7.0008563    275.81667  0.027996008  0.028054627            2 
  822000    0.9001328   -6.9750698    276.78581    0.0280602  0.028037587            2 
  823000   0.91633584   -6.9873971    276.99679  0.028047467  0.028020688            5 
  824000   0.91722408   -6.9561744    276.88112  0.028001732  0.028003821            3 
  825000    0.9219452   -6.9813641    277.25282  0.028005336   0.02798709            3 
  826000   0.89834178   -6.9841344    277.63824  0.028010315  0.027970163            4 
  827000   0.92160291   -6.9821031    277.66607  0.027979249  0.027953478            4 
  828000   0.92759988    -6.977651    278.10522  0.027989656  0.027936654            4 
  829000   0.88959048    -6.989149    277.70391  0.027915552  0.027919877           11 
  830000   0.91363896   -6.9924798    277.61122  0.027872612  0.027903069            5 
  831000   0.89907328   -6.9971534    277.06938  0.027784735  0.027886304            3 
  832000   0.90333312   -6.9949895    278.99085  0.027943795  0.027869504            5 
  833000   0.92659921   -6.9794865    278.74549  0.027885704  0.027852814            6 
  834000   0.92975836   -6.9744053     279.6308  0.027940728  0.027836115            5 
  835000     0.928695   -7.0190035    279.25243  0.027869504  0.027819651           11 
  836000   0.91505465    -6.997157    280.16087  0.027926722    0.0278031            8 
  837000    0.9214721   -6.9535339    280.19937  0.027897189   0.02778655           10 
  838000   0.91618001   -6.9695807    280.41519  0.027885361  0.027770287            2 
  839000    0.9219584   -6.9460329    281.16041  0.027926143  0.027754137            6 
  840000   0.92590281   -6.9775515    280.75602   0.02785278  0.027737668            5 
  841000   0.92263509   -6.9797445    279.80555  0.027725481  0.027721165            4 
  842000   0.92732525   -6.9626041    280.62714  0.027773866   0.02770469            5 
  843000   0.92133016   -6.9837298    280.36021  0.027714532  0.027687967            1 
  844000   0.92138574   -6.9700583    281.09775  0.027754517  0.027671382            6 
  845000   0.92470868   -6.9786904    281.60065  0.027771267  0.027654601            9 
  846000   0.89820738   -6.9668334    280.90218  0.027669639  0.027637739            3 
  847000   0.91498281   -7.0068783    280.75878  0.027622863  0.027620931            4 
  848000   0.90301145   -7.0290388    280.69527  0.027584047  0.027604298            3 
  849000   0.91444962   -7.0061874    282.07389  0.027686876  0.027587792            5 
  850000    0.9005797    -7.014754    282.26556  0.027673094   0.02757101            3 
  851000   0.89532077    -6.968306    281.97859  0.027612475  0.027554049            4 
  852000   0.93190457   -7.0048852    282.08111  0.027590092  0.027537245            4 
  853000   0.91752661   -6.9845196    282.10817  0.027560392   0.02752052            5 
  854000   0.91127271   -7.0082795    282.96044  0.027611284  0.027503977            6 
  855000   0.90875893   -7.0117011    282.65122  0.027548852   0.02748729            3 
  856000   0.89442706   -7.0275961    282.10869  0.027463852  0.027470316            2 
  857000   0.91751357   -6.9884024    282.29247  0.027449676  0.027453481            5 
  858000   0.91397877   -7.0267112    283.41529  0.027526738  0.027436468            3 
  859000   0.91611725   -7.0048259    282.88114  0.027442873  0.027419597            4 
  860000   0.88311836   -7.0072877    283.03652  0.027426019  0.027402941            6 
  861000   0.90841044   -7.0392933    283.07926  0.027398303   0.02738619            3 
  862000   0.91714124   -7.0258622    282.63227  0.027323305  0.027369395            8 
  863000   0.91193656    -6.998554    283.67119  0.027391965  0.027352498            2 
  864000   0.89422581    -7.011155    283.88231  0.027380624  0.027335505            2 
  865000   0.91702456   -6.9958433    283.77086  0.027338233  0.027318477           12 
  866000   0.90373848   -7.0237183    283.81146  0.027310571  0.027301336            5 
  867000   0.90661904   -7.0089997    283.67623  0.027266074  0.027284206            7 
  868000   0.92451423   -6.9957762    284.94741  0.027356702  0.027267268            3 
  869000   0.92058375   -7.0350372    284.07664  0.027241718  0.027250304            5 
  870000   0.90459383    -7.026713    283.97654  0.027200818  0.027233215            9 
  871000   0.89836421   -7.0181545    284.86201  0.027254307  0.027216138            6 
  872000   0.90387528   -7.0043422    285.63727   0.02729714  0.027199339            4 
  873000   0.90504297   -7.0190371    284.29245    0.0271375  0.027182367            4 
  874000   0.88899617   -6.9750722    285.10053  0.027183498  0.027165277            7 
  875000   0.91723101   -7.0423782    285.05073  0.027147688  0.027148195            3 
  876000   0.91601339    -7.003381    286.10019  0.027216533  0.027131226            8 
  877000   0.91713049   -6.9862834    285.41677  0.027120559  0.027114263            3 
  878000   0.89232811   -7.0243499    285.12381  0.027061865  0.027097085            5 
  879000   0.91627816   -7.0208902    285.60483  0.027076681  0.027079775            2 
  880000   0.87647128    -7.034465    285.94467  0.027078094  0.027062429            3 
  881000   0.90884891   -7.0218682    285.23972  0.026980677  0.027045053            1 
  882000   0.90556588   -7.0390359    285.37042  0.026962436  0.027027652            3 
  883000   0.88246249   -7.0548613    285.34044  0.026929071  0.027010441            4 
  884000    0.9035721   -7.0280733    286.21484  0.026981037  0.026993031            5 
  885000   0.88852774   -7.0483021    286.00429  0.026930724  0.026975753            2 
  886000    0.8845046   -7.0374715    285.95142  0.026895356  0.026958292            3 
  887000   0.88956884   -7.0334318    286.83127  0.026947695  0.026940713            4 
  888000   0.89671045   -7.0222448    287.05179  0.026938043  0.026923225            7 
  889000   0.89830757    -7.025581    286.40663  0.026847266   0.02690569            4 
  890000   0.89756708   -7.0078992     287.6375   0.02693235  0.026888345            4 
  891000   0.91425166    -7.005443     287.5803  0.026896774  0.026870977            4 
  892000   0.88516637   -7.0468457    286.40723  0.026757028  0.026853512            6 
  893000   0.89900699   -7.0588428    286.91846  0.026774773  0.026835997            5 
  894000   0.91994909   -7.0749857     287.0205  0.026754335  0.026818334            7 
  895000   0.89684776   -7.0426357    287.72742  0.026790262  0.026800887            5 
  896000   0.91983934   -7.0464104    287.25307  0.026716245  0.026783565            3 
  897000   0.89193775   -7.0251519    287.34498     0.026695  0.026766166            3 
  898000   0.89844455   -7.0511538    287.52156  0.026681659  0.026748589            7 
  899000   0.89629551   -7.0570075    287.17048  0.026619436  0.026730858            9 
  900000    0.8874927   -7.0508281    287.73125  0.026641783  0.026713268            2 
  901000   0.89761978   -7.0227352    288.38205  0.026672406  0.026695857            5 
  902000   0.89175672   -7.0780923    288.11796  0.026618437  0.026678304            6 
  903000   0.89497067   -7.0488492     288.6777  0.026640614  0.026660945            4 
  904000   0.87992525   -7.0449261    289.24357  0.026663308  0.026643585            2 
  905000   0.89025333   -7.0173543    289.50184  0.026657628  0.026626287            3 
  906000   0.88917746   -7.0539442    288.18301    0.0265069   0.02660906            4 
  907000   0.90310961   -7.0771882    288.47065  0.026504103  0.026591643            7 
  908000   0.87793541   -7.0411866    289.09788  0.026532478  0.026574266           10 
  909000   0.90313957   -7.0512957    289.27284  0.026519329  0.026556905           12 
  910000   0.89632537   -7.0658598    290.13061  0.026568737  0.026539677            7 
  911000    0.8968332    -7.060475    289.62653  0.026493462  0.026522252            3 
  912000   0.87599612   -7.0426128    289.78214  0.026478631  0.026504943            4 
  913000   0.91177512   -7.0512471    290.74427  0.026537447  0.026487708            4 
  914000   0.89229755   -7.0476174    290.54078   0.02648986  0.026470443            5 
  915000   0.89500163   -7.0461131    289.66765  0.026381389  0.026453242            3 
  916000   0.88805649   -7.0624349    290.48321  0.026426784  0.026435847            4 
  917000   0.88278578   -7.0675351    289.62818  0.026320263  0.026418421            5 
  918000   0.87932049   -7.0814496    290.30064  0.026352636  0.026400961            5 
  919000   0.87705229   -7.0526661    290.90452  0.026378719   0.02638362            5 
  920000   0.89824193   -7.0505705    291.33268   0.02638883  0.026366549            6 
  921000   0.87430122   -7.0610542    291.30215  0.026357415  0.026349367            6 
  922000    0.8746302   -7.0434418    291.63464  0.026358879  0.026332189            6 
  923000   0.88712034   -7.0044574    291.47233  0.026315668  0.026315019            5 
  924000   0.87932505   -7.0448323     291.1251  0.026255871  0.026297875            5 
  925000   0.88986029   -7.0995338    291.17682  0.026232146  0.026280635            4 
  926000   0.89408663   -7.0782534    291.53916  0.026236425  0.026263441            7 
  927000   0.90180665    -7.083049    291.81581  0.026232993  0.026246079            5 
  928000   0.88536504   -7.0592125    292.06496  0.026227098  0.026228911            5 
  929000   0.87546031   -7.0399738     292.0316  0.026195874   0.02621162            3 
  930000   0.87859274   -7.0892168    292.03114  0.026167665  0.026194413            7 
  931000   0.86177863   -7.0540742    291.79135  0.026118094  0.026177232           11 
  932000   0.88011731   -7.0710712    292.55501  0.026158352  0.026159938            7 
  933000   0.91612216   -7.0987274    292.87319  0.026158734  0.026142742            4 
  934000   0.87136533   -7.0760757    292.65338  0.026111115  0.026125666            3 
  935000   0.85803018   -7.0768331    293.09779  0.026122798  0.026108562            7 
  936000    0.8882475    -7.050144    293.16346  0.026100735  0.026091512            4 
  937000   0.86633645   -7.0897364    293.37079  0.026091318  0.026074441            4 
  938000    0.8830015   -7.0627858    293.20273  0.026048572  0.026057192            5 
  939000   0.85783585   -7.1022987    293.25549  0.026025513  0.026039868            5 
  940000   0.88735799   -7.0798603    292.96299  0.025971897  0.026022391            3 
  941000   0.89024339   -7.1027008    293.03075  0.025950297  0.026004865            4 
  942000   0.88335147   -7.0863364    293.48208  0.025962675  0.025987397            5 
  943000   0.87017129   -7.0651507    294.07591  0.025987621  0.025970033            5 
  944000   0.86964121    -7.091105    293.59429  0.025917575  0.025952656            6 
  945000   0.89442677   -7.0503943    294.59425  0.025978329  0.025935285            3 
  946000   0.85301034    -7.082741    294.29848  0.025924814  0.025918008           10 
  947000   0.87572008   -7.1050261    294.16542  0.025885728  0.025900651            6 
  948000   0.87868864   -7.1032415    294.26693  0.025867346  0.025883214            3 
  949000    0.8958984   -7.0774058    294.83196  0.025889705   0.02586592            4 
  950000   0.88614918   -7.0671323    295.19555  0.025894346  0.025848651            2 
  951000   0.87312079   -7.0877957     294.6382  0.025818279  0.025831407            4 
  952000   0.89662304   -7.0720258    295.51863  0.025868227  0.025814111            4 
  953000    0.8832322   -7.0810871    294.74274  0.025773237  0.025796741            5 
  954000   0.88102492   -7.1142175    294.48673  0.025723858  0.025779473            3 
  955000   0.86126333   -7.0996755    294.87572  0.025730865  0.025761879            3 
  956000   0.88466803   -7.0978656    294.63681  0.025683125   0.02574432            5 
  957000   0.89395131   -7.1124828    295.06543  0.025693611  0.025726751            9 
  958000   0.88203066   -7.0964105    294.97274  0.025658728  0.025709248           11 
  959000    0.8466043   -7.0839065    294.44227  0.025585877  0.025691738           10 
  960000   0.86212848   -7.0869477    295.50237  0.025651247  0.025674316            3 
  961000   0.88064477   -7.0973284    296.17426  0.025682818  0.025656884            4 
  962000   0.87198618   -7.0746514    295.81891  0.025625339  0.025639612            2 
  963000   0.87602002   -7.0725059    296.20596  0.025632222  0.025622343            4 
  964000   0.86030049   -7.0685255    296.80741  0.025657625  0.025605119            3 
  965000   0.87837048   -7.1220327    295.63545  0.025529832  0.025587718           16 
  966000   0.86060411   -7.0862371    296.68218  0.025593701  0.025570234            6 
  967000   0.86313509   -7.1062055    296.71776    0.0255703  0.025552959            4 
  968000   0.89187959   -7.0718202    296.24312  0.025503023   0.02553575            8 
  969000   0.86985634   -7.1471939    296.61395  0.025508596  0.025518374            4 
  970000   0.87292587   -7.0732341    297.10073  0.025524118   0.02550107            4 
  971000   0.85865501   -7.0925368    297.41661  0.025524941  0.025483815            2 
  972000   0.87231416   -7.1090259    297.39355  0.025496704  0.025466535            4 
  973000   0.85326127   -7.0922517    297.10936   0.02544616  0.025449314            3 
  974000   0.86427435   -7.1042352     296.8508  0.025397913  0.025432014            7 
  975000   0.85994046   -7.1098372    297.09268  0.025392536    0.0254147            9 
  976000   0.87197743   -7.1079632    297.42668  0.025395037  0.025397319           13 
  977000   0.85850339   -7.1054159     297.6434   0.02538753  0.025380001            5 
  978000   0.85709029   -7.1085913    296.66907  0.025278551  0.025362587            6 
  979000   0.85693141   -7.1298771    297.59433  0.025331488  0.025345107            5 
  980000   0.86950311    -7.117627    297.57174  0.025303719  0.025327717            3 
  981000   0.85820797   -7.0941998    298.18959   0.02533041  0.025310323            3 
  982000   0.86434494   -7.0988005    298.17033  0.025302981     0.025293            3 
  983000    0.8747317   -7.1094953    297.97742  0.025260886  0.025275475            5 
  984000   0.86445929   -7.0998889    298.09579   0.02524524  0.025258138            4 
  985000   0.85563694   -7.1079454    297.61932  0.025179299  0.025240651           10 
  986000   0.86392859   -7.1087543    297.91978  0.025179157  0.025223056            6 
  987000   0.84954507   -7.1247357    297.08704  0.025083337  0.025205368            7 
  988000   0.85558704   -7.1099445    297.55905  0.025097761  0.025187772           11 
  989000   0.86678199   -7.0977924    298.59679  0.025159824  0.025170224            5 
  990000    0.8666357   -7.1088231     298.3668   0.02511505  0.025152641            7 
  991000    0.8425155   -7.0980379    298.79578  0.025125781  0.025134999            3 
  992000   0.86836353   -7.1205373     298.4147  0.025068439  0.025117629            8 
  993000   0.85543422   -7.1257242    299.18281  0.025107655  0.025100244            4 
  994000   0.85688049   -7.0861427    300.02616  0.025153099  0.025082972            3 
  995000    0.8453226   -7.1230102    299.78304  0.025107457  0.025065614            5 
  996000   0.85912183   -7.1145968    299.27149  0.025039449  0.025048182            4 
  997000   0.84665572   -7.1470614    299.70335  0.025050431  0.025030836            9 
  998000   0.85880498   -7.1173705    299.67881  0.025023281  0.025013475           13 
  999000   0.86823638   -7.1327538    299.42322  0.024976912  0.024996075            7 
 1000000   0.85550303   -7.1278756    299.99337  0.024999447  0.024978629            4 
 1001000   0.84114602   -7.1264812    299.05891  0.024896679  0.024961132            5 
 1002000   0.85203781    -7.121019    299.62294  0.024918741  0.024943556            4 
 1003000   0.87266782   -7.1107747    299.33487  0.024869963  0.024925965            9 
 1004000   0.86015617   -7.1357235    299.56984  0.024864695  0.024908408            3 
 1005000   0.84577861   -7.1411896    299.35442  0.024822091  0.024890886           12 
 1006000   0.85498569   -7.1271369      300.208  0.024868125  0.024873288            6 
 1007000   0.84351009   -7.1515909    300.19728  0.024842542  0.024855744            6 
 1008000   0.85131995    -7.172468    300.18717  0.024817061  0.024838198            7 
 1009000   0.85460995     -7.15975    299.99445  0.024776548  0.024820707            9 
 1010000   0.86999317    -7.128427    300.93068  0.024829264  0.024803165            4 
 1011000   0.86148044   -7.1594141    300.18849  0.024743529  0.024785755            5 
 1012000   0.85196427   -7.1323747    301.21335  0.024803471  0.024768327            8 
 1013000   0.83738887   -7.1636487    299.88459  0.024669677  0.024750812            4 
 1014000     0.845445   -7.1731185      300.294  0.024678994  0.024733246            5 
 1015000   0.85144451    -7.116471    300.27175  0.024652853  0.024715678           10 
 1016000   0.83458191   -7.1493415    299.97833  0.024604521  0.024698235            3 
 1017000   0.83817849   -7.1398412    300.16526  0.024595646  0.024680523            3 
 1018000   0.84937592   -7.1431155    300.26651  0.024579773  0.024662873            4 
 1019000   0.84218065   -7.1080354    300.99986  0.024615625  0.024645241            6 
 1020000   0.83955663   -7.1626128    301.30503  0.024616424  0.024627556            5 
 1021000   0.87163403   -7.1351152    301.25955  0.024588602  0.024609918            5 
 1022000   0.86084586   -7.1412819    301.52285  0.024586012  0.024592294            5 
 1023000   0.84339661   -7.1657006     300.8053  0.024503528  0.024574601            2 
 1024000   0.85508878    -7.153747    300.86027  0.024484071   0.02455697            3 
 1025000   0.82367653   -7.1407161    302.00958  0.024553624  0.024539415            4 
 1026000    0.8294731   -7.1518051    301.79005  0.024511862  0.024521861            3 
 1027000    0.8489481   -7.1305268    301.27153  0.024445921  0.024504414            5 
 1028000   0.83952834    -7.138084    300.97237   0.02439789  0.024486892            6 
 1029000   0.85173818   -7.1200389    302.58206   0.02450454  0.024469286            5 
 1030000   0.85365026   -7.1458542    301.69583  0.024409048  0.024451745            5 
 1031000    0.8372852   -7.1449571    300.97342  0.024326982  0.024434168            7 
 1032000   0.84523051   -7.1422375    302.44503  0.024422241  0.024416774            4 
 1033000   0.83062956   -7.1407685    302.76256  0.024424214  0.024399361            7 
 1034000   0.84848757   -7.1416806    302.30175  0.024363455  0.024382155            3 
 1035000   0.85736538   -7.1498436    302.98061  0.024394574  0.024364942            5 
 1036000   0.81904657   -7.1594846    303.23864  0.024391782  0.024347729            4 
 1037000   0.82259851   -7.1950573    302.43793  0.024303916   0.02433046           11 
 1038000   0.85079598   -7.1214723     303.2482  0.024345553   0.02431323            3 
 1039000   0.83965922    -7.177699    302.68162  0.024276678  0.024296002            7 
 1040000   0.83477071   -7.1412804    303.44708   0.02431467  0.024278793            6 
 1041000   0.84013449   -7.1275623    304.38307   0.02436624  0.024261593            2 
 1042000   0.85186462   -7.1514404    303.28997  0.024255436   0.02424449            4 
 1043000   0.82328103   -7.2027269    302.98015  0.024207427  0.024227182            6 
 1044000   0.83566162   -7.1958991    303.48112  0.024224227  0.024209687            5 
 1045000   0.84186811   -7.1599862    303.83117  0.024228961  0.024192335            5 
 1046000   0.83241442   -7.1522095    304.15861  0.024231884  0.024175104            3 
 1047000   0.82764946   -7.1352459    303.67795  0.024170483   0.02415795            4 
 1048000   0.83380804   -7.2047337    303.93329  0.024167724   0.02414069            3 
 1049000   0.82482903   -7.1787227    304.19223  0.024165255  0.024123488            8 
 1050000   0.83382306   -7.1159342    304.18881  0.024141969   0.02410622            2 
 1051000   0.84067645   -7.1820779    304.03172  0.024106543  0.024088985            4 
 1052000   0.83231823   -7.1958725    304.09524  0.024088659  0.024071787            3 
 1053000   0.84467553   -7.1596751    304.42105  0.024091568  0.024054601            4 
 1054000   0.81530543   -7.1682129    304.38762  0.024066068    0.0240374            4 
 1055000    0.8243245   -7.2002043    303.66004  0.023985785  0.024020132            7 
 1056000   0.82038722   -7.1554968    303.89729  0.023981793  0.024002942            4 
 1057000   0.83043691   -7.1659048    303.84918  0.023955312  0.023985652            9 
 1058000     0.811375   -7.1781063    305.10748   0.02403178  0.023968471            5 
 1059000   0.83752841   -7.1877389    304.44902  0.023957273  0.023951236            5 
 1060000   0.82962334   -7.1631659    305.25506   0.02399804  0.023934046            7 
 1061000   0.83476581   -7.1599035    305.38246  0.023985427  0.023916733            5 
 1062000   0.84018933   -7.1617588    305.22494  0.023950482  0.023899599            3 
 1063000   0.84061904   -7.2030481    304.73882  0.023889842  0.023882204            6 
 1064000   0.83829761    -7.159509    304.69061  0.023863613  0.023864738            5 
 1065000   0.82062675   -7.1654621    305.47817   0.02390283  0.023847356            4 
 1066000   0.82916246   -7.1844313    305.36976  0.023871932  0.023830177            4 
 1067000   0.82064364   -7.1491049     306.2953  0.023921845  0.023813057            6 
 1068000   0.83204992   -7.1553595    305.56733  0.023842644   0.02379595            5 
 1069000   0.80352062   -7.1796914    305.10704  0.023784459  0.023778726            3 
 1070000   0.81868986    -7.158213    306.48291  0.023869386  0.023761597            2 
 1071000   0.83399181   -7.1731696    305.17346  0.023745211  0.023744509            3 
 1072000   0.84567418   -7.1913798    305.42657  0.023742737  0.023727432            5 
 1073000   0.82018614   -7.1801247    305.94744  0.023761062  0.023710449            7 
 1074000   0.80046071   -7.1623955     306.3474  0.023769972  0.023693451            6 
 1075000   0.82850397    -7.165171    306.60022  0.023767459  0.023676422            5 
 1076000   0.81977118   -7.1988442    306.27153  0.023719914  0.023659395            4 
 1077000    0.8291941   -7.1658341     306.3197  0.023701617  0.023642339            5 
 1078000    0.8195614   -7.2015564    305.75218  0.023635759  0.023625194            5 
 1079000   0.82807414   -7.1991689    305.55491  0.023598618  0.023608064            8 
 1080000   0.82937342   -7.1918234    305.88848  0.023602506  0.023590935            7 
 1081000   0.81724146   -7.1786136    306.55115  0.023631757  0.023573954           10 
 1082000   0.82579237   -7.2053117    306.51529  0.023607154  0.023556897            5 
 1083000   0.81097927   -7.1982898    306.74609  0.023603115  0.023539828            5 
 1084000   0.81646246   -7.1670476    307.15939  0.023613114  0.023522769            6 
 1085000   0.82049387   -7.1977174    306.15972  0.023514572  0.023505661           11 
 1086000   0.81580677   -7.2059261    306.80551  0.023542473  0.023488509            4 
 1087000   0.80581953   -7.2379123    306.39642  0.023489452  0.023471363            7 
 1088000   0.82530084   -7.1822771    306.92411  0.023508281   0.02345427            6 
 1089000   0.80521816   -7.1781295    306.74033   0.02347263  0.023437266            4 
 1090000   0.82280589    -7.199572    307.31713  0.023495194   0.02342026            8 
 1091000   0.80631742   -7.1863419    307.41512  0.023481143   0.02340318           13 
 1092000   0.81429554    -7.215206    307.85482  0.023493195  0.023386289            6 
 1093000    0.8118845   -7.2068594    307.66273  0.023457055  0.023369361            8 
 1094000    0.8062315    -7.243252    308.01906  0.023462756  0.023352483            6 
 1095000    0.8088399   -7.1716783    307.97587  0.023438042  0.023335595            4 
 1096000    0.8189427   -7.2023587    308.31072  0.023442117  0.023318923            9 
 1097000   0.80949137   -7.2477775    307.61395  0.023367817  0.023302158           12 
 1098000   0.82456137   -7.1955976     307.7568  0.023357377  0.023285332            9 
 1099000   0.83083992   -7.1958685    308.18141  0.023368321  0.023268552            4 
 1100000   0.81120806   -7.1978512    309.26906  0.023429474  0.023251814            4 
 1101000   0.81379231   -7.2098024    308.65669  0.023361845  0.023235202            9 
 1102000   0.80174666   -7.2041946     309.3399  0.023392309  0.023218577            4 
 1103000   0.81294354   -7.2125057     308.6342  0.023317785  0.023201974            4 
 1104000    0.7868419   -7.2188243    309.73332  0.023379628  0.023185457            6 
 1105000   0.80649126   -7.2143005    309.58664  0.023347409  0.023168915            8 
 1106000   0.80138859   -7.2360146    308.80778  0.023267615  0.023152277            7 
 1107000   0.80257986   -7.2117635    309.70264   0.02331396  0.023135778            6 
 1108000   0.80525138   -7.2314015     309.5725   0.02328313  0.023119299            9 
 1109000   0.81958724   -7.1936179    309.41981  0.023250662  0.023102753            5 
 1110000   0.82154833    -7.236278    309.52906  0.023237918  0.023086251            5 
 1111000    0.8041389    -7.245277    310.37171  0.023280206  0.023069779            9 
 1112000   0.82103355   -7.2360481    309.85603  0.023220625  0.023053312            4 
 1113000   0.81238448   -7.2124752    310.29833  0.023232879  0.023036964            8 
 1114000   0.81186004   -7.2121124    309.44278  0.023148024  0.023020616            6 
 1115000   0.79811214   -7.1976358    311.22678  0.023260596  0.023004416            4 
 1116000   0.81288226   -7.2537705    309.92167  0.023142299  0.022988029            6 
 1117000   0.80922662   -7.2355428    310.30844  0.023150436  0.022971566            3 
 1118000   0.82124602   -7.2419929    310.27549  0.023127272  0.022955159            6 
 1119000   0.81229136   -7.2646973    310.84013  0.023148654  0.022938761            6 
 1120000   0.80058894   -7.2372064    310.48093   0.02310126  0.022922325            9 
 1121000   0.80643078   -7.2150449    311.28321  0.023140292  0.022906019            6 
 1122000   0.79976605   -7.2249626    311.22113  0.023115057  0.022889705            4 
 1123000    0.7886212   -7.2090011    310.97525  0.023076228  0.022873472            6 
 1124000   0.81214955   -7.1932465    310.82588  0.023044623  0.022857213            9 
 1125000   0.81071079   -7.2068524    310.66427  0.023012168  0.022840893            4 
 1126000   0.80280776   -7.2274368    310.83509  0.023004373   0.02282449            9 
 1127000   0.79847605   -7.2349379    311.18504  0.023009837  0.022808158            5 
 1128000   0.81925609   -7.2042767     311.4502  0.023009028  0.022791753            4 
 1129000   0.79710314    -7.235598    311.33449  0.022980107  0.022775474            6 
 1130000   0.82311748   -7.2266613    311.47741   0.02297031  0.022759295            6 
 1131000   0.79998062    -7.197111    311.54234  0.022954785  0.022743063            9 
 1132000   0.79549764   -7.2379057    311.85396  0.022957447  0.022726881            5 
 1133000   0.80651249   -7.2135578    311.74479  0.022929155  0.022710702            4 
 1134000   0.79792996   -7.2488532    311.98465  0.022926562  0.022694516            3 
 1135000   0.81178878   -7.2294518    312.62967   0.02295372  0.022678386            6 
 1136000   0.81140517   -7.2257318    312.68965  0.022937914  0.022662282            6 
 1137000   0.79893827   -7.2346075    312.53595  0.022906475  0.022646126            4 
 1138000   0.81272913   -7.2399876    313.10332  0.022927894  0.022630092            4 
 1139000    0.8167554   -7.2514034    312.66521   0.02287571  0.022614085            7 
 1140000   0.79211261   -7.2775584    312.47887  0.022842022  0.022598119            7 
 1141000    0.7867736   -7.2380755    312.36283  0.022813528  0.022582035            2 
 1142000   0.80368498   -7.1988577    313.34487  0.022865213  0.022566101            6 
 1143000   0.77651007   -7.2160617    313.32533  0.022843783  0.022550212            6 
 1144000   0.80205136   -7.2514315    312.49158  0.022763081  0.022534338            7 
 1145000   0.79976714   -7.2576528    313.05806   0.02278443  0.022518485            7 
 1146000     0.806866    -7.260368    313.12319  0.022769284  0.022502606            3 
 1147000   0.79757131   -7.2648578    313.18422  0.022753866  0.022486692            5 
 1148000   0.80392884    -7.244457     313.4297  0.022751866   0.02247081            7 
 1149000   0.78414686   -7.2524016    313.47927  0.022735659  0.022454866            7 
 1150000   0.79949953   -7.2846978     313.1328  0.022690783  0.022438933            5 
 1151000   0.78422679    -7.240364    313.30873  0.022683806  0.022422991            6 
 1152000   0.79235015    -7.249831     312.6865  0.022619105  0.022406971            7 
 1153000   0.78128171   -7.2505999    313.56801  0.022663198  0.022390997            6 
 1154000   0.78470259   -7.2532541    312.66167   0.02257811  0.022375014            7 
 1155000   0.78895639   -7.2390161    314.27907  0.022675257  0.022359017            5 
 1156000   0.79660732   -7.2425012    313.52006  0.022600927  0.022343165            7 
 1157000   0.76749992   -7.2449235    313.44758  0.022576173  0.022327268            5 
 1158000   0.78136952   -7.2516578    313.76931   0.02257983  0.022311464            5 
 1159000   0.79386449   -7.3000363    314.34573  0.022601792  0.022295607           10 
 1160000   0.79970461   -7.2968507     313.3457  0.022510467  0.022279681           12 
 1161000   0.79390405   -7.2922965    314.85303   0.02259927  0.022263773           13 
 1162000   0.77418429   -7.2400965    314.75915  0.022573088  0.022248069            9 
 1163000   0.79586224    -7.274655    314.87256  0.022561806  0.022232357           14 
 1164000   0.79514067   -7.2632394     314.5553  0.022519709  0.022216663           13 
 1165000   0.80840331   -7.2722265    314.46152  0.022493671  0.022200923            8 
 1166000    0.7977627   -7.2662234    314.93757  0.022508403  0.022185251            4 
 1167000    0.7784811   -7.2712812    314.48746  0.022456974  0.022169515            9 
 1168000   0.79849541   -7.2759921    314.81925  0.022461419  0.022153777            8 
 1169000   0.80645161   -7.3034938    314.31527  0.022406278  0.022137994            5 
 1170000   0.77223323   -7.2906306    315.03862  0.022438648  0.022122262            6 
 1171000   0.77837702   -7.2710171     314.9151  0.022410696  0.022106619            6 
 1172000   0.78152475   -7.2974302    315.12381  0.022406414  0.022090899            5 
 1173000   0.78288134    -7.303559    315.67261  0.022426301  0.022075152            4 
 1174000   0.80568271   -7.2980246    314.24574  0.022305916  0.022059421            4 
 1175000   0.80053999   -7.2560068     315.6861  0.022389085   0.02204368            5 
 1176000   0.77334918   -7.2673778    315.33985  0.022345511  0.022027944            7 
 1177000   0.79202158   -7.2954777    315.36362  0.022328209  0.022012223            4 
 1178000   0.80113137    -7.293238    315.27694  0.022303123  0.021996566            4 
 1179000   0.77598354   -7.2868367    315.25356  0.022282553  0.021980839            3 
 1180000    0.7870368   -7.2689409    314.72052  0.022226026  0.021965198            4 
 1181000   0.77691553   -7.2674147    315.14096  0.022236873  0.021949407           10 
 1182000   0.77786536   -7.2956988    314.41029  0.022166546  0.021933624           12 
 1183000   0.77735095   -7.2743933    315.45486   0.02222139  0.021917824            8 
 1184000   0.77630649   -7.2811693    315.77626  0.022225243  0.021902153           10 
 1185000    0.7906372   -7.2910918    316.10234  0.022229419  0.021886526            4 
 1186000   0.77942153   -7.2726706    316.14037  0.022213348  0.021870863            5 
 1187000   0.78263843   -7.2919579    315.76482  0.022168269   0.02185525            3 
 1188000   0.77775646   -7.3004048    315.96655  0.022163759  0.021839687            5 
 1189000   0.78584457   -7.2902337    316.29666  0.022168255  0.021824072            4 
 1190000    0.7667159   -7.3043444    315.93513  0.022124308  0.021808548            8 
 1191000   0.79257189   -7.3052635    315.97963  0.022108846  0.021792925            3 
 1192000   0.77748652   -7.2899028    315.84395  0.022080813  0.021777327            6 
 1193000    0.7864338   -7.3111306    316.32982  0.022096243  0.021761706            9 
 1194000   0.77454807   -7.2801982    317.45908  0.022156552  0.021746203            5 
 1195000    0.7740905   -7.2760632    317.63066  0.022149976  0.021730862            6 
 1196000   0.77282328   -7.2828469     317.0493  0.022090949  0.021715514            6 
 1197000    0.7842261   -7.3010372    316.79502  0.022054791  0.021700073            4 
 1198000   0.77351702   -7.2911376     317.5258  0.022087215  0.021684691            5 
 1199000   0.76878806   -7.2849192    318.05809  0.022105789  0.021669393            9 
 1200000   0.78353207    -7.296229    316.62222  0.021987654  0.021654073            4 
 1201000   0.77382284   -7.3143826    318.00196  0.022065082  0.021638659            6 
 1202000   0.76530323   -7.2711492    317.86668  0.022037346  0.021623357           15 
 1203000   0.77114984   -7.3083273    317.59596  0.022000274  0.021607991           10 
 1204000   0.78691728   -7.2920418     317.0442  0.021943813  0.021592706            4 
 1205000   0.78112524   -7.2823208    317.55006  0.021960585  0.021577518            7 
 1206000   0.78719571   -7.2773615    317.62706  0.021947696  0.021562255            6 
 1207000   0.77972026   -7.3020146    318.22355  0.021970695  0.021547035            6 
 1208000   0.77887416   -7.2962209    316.67434  0.021845636  0.021531779            7 
 1209000   0.78086044   -7.3036648    317.70357  0.021898509  0.021516513            6 
 1210000   0.78190185   -7.3303824    317.66241  0.021877577  0.021501285            4 
 1211000    0.7719994   -7.3114862    318.69946  0.021930874  0.021486018           10 
 1212000   0.76686792   -7.3007816    319.11467  0.021941328  0.021470766           14 
 1213000   0.76203523   -7.3275829    317.99969   0.02184664  0.021455579            4 
 1214000   0.75612568    -7.309375    318.21154  0.021843186  0.021440343            8 
 1215000   0.77731308   -7.3132717    317.45969  0.021773641  0.021425122           10 
 1216000   0.75401229   -7.3411275    318.13798  0.021802219  0.021409868            4 
 1217000   0.75125384   -7.3248387    318.37746  0.021800702  0.021394691            8 
 1218000   0.75854141   -7.3188901    318.10025  0.021763837  0.021379502            6 
 1219000   0.76781542   -7.3446912    317.89508  0.021731958  0.021364254           11 
 1220000   0.75372238   -7.3014193    318.75551  0.021772918  0.021349094            5 
 1221000    0.7631889   -7.3056797    318.83169  0.021760284  0.021333968            4 
 1222000   0.75470519   -7.3130309    318.55385   0.02172353  0.021318829            2 
 1223000   0.76426466   -7.3098886    318.20826   0.02168222  0.021303632            4 
 1224000   0.78142263   -7.3571524    318.33678  0.021673256  0.021288435           10 
 1225000   0.74488628   -7.3056266    319.13526  0.021709881  0.021273281            8 
 1226000   0.75765974   -7.3329344    318.46867  0.021646864  0.021258163            9 
 1227000   0.76315078   -7.3166861    319.73307  0.021715096  0.021243101            4 
 1228000   0.77186546   -7.3167609    319.62818  0.021690295  0.021228022            9 
 1229000   0.77434679   -7.3253404    318.81822  0.021617726   0.02121289           11 
 1230000   0.74053375    -7.310587    320.05575  0.021683994  0.021197872           10 
 1231000   0.75520827   -7.3111941    319.03206  0.021597079  0.021182962            4 
 1232000   0.76964783   -7.3158982    319.52592  0.021612955  0.021168038            8 
 1233000   0.75308941   -7.3272353    319.85513  0.021617676  0.021153102            6 
 1234000   0.75335502   -7.3232181    319.74521  0.021592735  0.021138152            6 
 1235000   0.76861692   -7.3281724     319.4572  0.021555817  0.021123149           12 
 1236000   0.76130828    -7.339226    319.79334  0.021561039  0.021108172            6 
 1237000   0.75860739   -7.3195482    319.73304  0.021539548   0.02109313            7 
 1238000   0.74508631   -7.3723143    319.33379  0.021495274   0.02107812            8 
 1239000   0.76570417   -7.3419472    319.67343  0.021500769  0.021063041            6 
 1240000   0.77079297   -7.3260096     320.5827  0.021544537  0.021048056            5 
 1241000   0.74356864   -7.3229899    319.91829  0.021482561   0.02103315            5 
 1242000   0.75230074   -7.3475263    318.70115  0.021383598  0.021018169            3 
 1243000   0.76830059   -7.3419121    320.25257  0.021470406  0.021003144            9 
 1244000    0.7659362    -7.310291    320.17435  0.021447907  0.020988175            6 
 1245000   0.76078383   -7.3205657    320.15543  0.021429413  0.020973257            8 
 1246000   0.76304543    -7.349875    320.34935  0.021425184  0.020958384            4 
 1247000    0.7560351   -7.3221476    320.68593  0.021430495  0.020943576            6 
 1248000   0.74841459   -7.3417557    320.13629  0.021376622  0.020928615            8 
 1249000   0.74649138   -7.3442023    320.59454  0.021390081  0.020913651            9 
 1250000   0.75044752   -7.3263985    321.13528  0.021409019  0.020898741            8 
 1251000   0.76171778   -7.3231009    319.68796  0.021295494  0.020883785            2 
 1252000   0.75975672   -7.3320632    320.59385  0.021338781  0.020868854            5 
 1253000   0.74790304   -7.3621883    319.76955  0.021266929  0.020853905            6 
 1254000   0.74620571     -7.35453    320.33569  0.021287592  0.020838894           10 
 1255000   0.74693695   -7.3423263    319.93666  0.021244134  0.020823884            7 
 1256000   0.74854613   -7.3602727    319.78091  0.021216886   0.02080884           10 
 1257000   0.75096189   -7.3585301    319.78589  0.021200337  0.020793827            7 
 1258000   0.74328375   -7.3449274    319.74506   0.02118078  0.020778796           10 
 1259000   0.75571398    -7.355705    320.02794  0.021182681  0.020763867            9 
 1260000    0.7470548   -7.3764612    320.51485  0.021198072  0.020748914            6 
 1261000   0.76107509    -7.350615    320.61983  0.021188199  0.020733921            7 
 1262000   0.74281844   -7.3144835    320.04766  0.021133628   0.02071889            6 
 1263000   0.75950909   -7.3661386    320.51774  0.021147911  0.020703868            7 
 1264000    0.7389527   -7.3605602    319.92757  0.021092271  0.020688763           11 
 1265000   0.73406703    -7.351011    320.52718  0.021115097  0.020673683            7 
 1266000   0.74201941   -7.3527373    320.56924  0.021101187  0.020658659           19 
 1267000   0.74876594   -7.3417995    319.91956  0.021041802  0.020643599            3 
 1268000   0.76687182   -7.3853484     320.8395  0.021085666  0.020628592            6 
 1269000   0.75039386   -7.3575792    320.96993  0.021077615  0.020613619            3 
 1270000   0.74821924   -7.3684396    320.99699  0.021062795  0.020598673           10 
 1271000   0.76222732   -7.3672723    320.41494   0.02100806  0.020583657            6 
 1272000   0.74739969   -7.3714487    320.92913  0.021025231  0.020568682            8 
 1273000   0.73958982   -7.3820508    320.41109  0.020974803  0.020553702            7 
 1274000   0.75031348   -7.3693564    320.84334  0.020986613  0.020538745            7 
 1275000   0.75146244   -7.3654221    320.56485  0.020951951   0.02052379            9 
 1276000    0.7222655   -7.3618591    320.99161  0.020963402  0.020508802            7 
 1277000   0.74384786    -7.365528    321.09146  0.020953502  0.020493843            6 
 1278000   0.73195204   -7.3727989    320.91439   0.02092556  0.020478846            7 
 1279000   0.75322098   -7.3863043    320.26596   0.02086695  0.020463868            9 
 1280000   0.74466846   -7.3575043     321.2412  0.020914141  0.020448907            9 
 1281000   0.74438857   -7.3440623    321.13238  0.020890735  0.020433908            5 
 1282000   0.72865885   -7.3917168    321.17393  0.020877141   0.02041891           10 
 1283000   0.72781374   -7.3863148    320.21034  0.020798281  0.020403898            7 
 1284000   0.71939983   -7.3923687    320.43535  0.020796686  0.020388795            5 
 1285000   0.76465694   -7.3695396    320.94526  0.020813571  0.020373782           13 
 1286000   0.74783185   -7.3825658    320.36648  0.020759881  0.020358801            5 
 1287000   0.74180865   -7.3855105    320.69397  0.020764955  0.020343801           12 
 1288000   0.75281062   -7.3637268    321.20074  0.020781621  0.020328838            6 
 1289000    0.7381901   -7.3730413    321.61442  0.020792244  0.020313909            6 
 1290000   0.74137981   -7.4000425    321.29529   0.02075551  0.020298974           10 
 1291000   0.76332881   -7.3771561    321.22026   0.02073459   0.02028401            9 
 1292000   0.72561434   -7.4162706    320.95516  0.020701442   0.02026907            6 
 1293000    0.7139618    -7.405686    320.81233  0.020676226  0.020254083            4 
 1294000   0.74481847   -7.3964266    320.51557  0.020641136  0.020239123            7 
 1295000   0.72380487   -7.3846315    321.56631  0.020692813  0.020224174            6 
 1296000    0.7355903   -7.3705656    321.36365  0.020663815   0.02020929            5 
 1297000   0.72991777   -7.3639903    321.65245  0.020666439  0.020194517            5 
 1298000   0.73531445   -7.3750461    321.39611  0.020634059  0.020179685            5 
 1299000   0.74059511   -7.3892673    321.61091  0.020631955  0.020164867            5 
 1300000   0.74584387    -7.380713    321.03077  0.020578895  0.020150052           15 
 1301000    0.7480575    -7.391018     320.9807   0.02055987  0.020135171           12 
 1302000   0.71740853   -7.3833513     321.4522  0.020574258  0.020120322           15 
 1303000   0.73985798   -7.3980693    320.96059  0.020527027  0.020105501           11 
 1304000   0.75164212   -7.3813025    321.25186  0.020529899  0.020090656            8 
 1305000   0.74575923   -7.3867502    321.89537   0.02055526  0.020075784           12 
 1306000   0.73099543   -7.3983714    321.73556  0.020529324  0.020060983            7 
 1307000   0.72320526   -7.4012577    321.85843   0.02052145   0.02004619            7 
 1308000   0.72203003    -7.393865    321.16398  0.020461517  0.020031342            8 
 1309000   0.72838608   -7.3927973    322.29473  0.020517872  0.020016487           13 
 1310000   0.73083698   -7.3714851    321.05312  0.020423226  0.020001752            6 
 1311000   0.73212723   -7.3718225    322.16884  0.020478569  0.019987061            6 
 1312000    0.7392601   -7.3941362    321.39741  0.020413961  0.019972331            7 
 1313000   0.74720378   -7.3827368    321.91141  0.020431036  0.019957602            7 
 1314000   0.70404032    -7.405725    322.58655  0.020458305  0.019942879            8 
 1315000   0.72109846   -7.3751866    321.61762  0.020381345  0.019928188            4 
 1316000   0.73575066   -7.3700835      322.694  0.020434017  0.019913558           18 
 1317000   0.72323899   -7.4117115    322.11013  0.020381557  0.019898891            7 
 1318000   0.72643421   -7.4081199    322.25099  0.020374999  0.019884252            8 
 1319000   0.72361189   -7.3873063    321.89355  0.020336969  0.019869569            6 
 1320000   0.72892243   -7.3996191    321.73745  0.020311707  0.019854891           11 
 1321000   0.72727541   -7.3818129    322.30178  0.020331932  0.019840214            7 
 1322000   0.71330814   -7.4122036    322.39916  0.020322691  0.019825592            7 
 1323000   0.72228291   -7.4026941    323.16937  0.020355843  0.019810944            8 
 1324000   0.71801368   -7.4181366    322.97115  0.020327993    0.0197964            5 
 1325000   0.74024721   -7.4261954    322.48834  0.020282286  0.019781754            9 
 1326000   0.72392855   -7.4070105    321.63678  0.020213473  0.019767058           11 
 1327000   0.72380829   -7.4044796    321.69637  0.020201982  0.019752368            6 
 1328000   0.71697265    -7.405218     321.5629  0.020178395  0.019737648            5 
 1329000   0.71843659   -7.4258633    321.90328  0.020184555  0.019722854            6 
 1330000   0.73697844   -7.3957935    321.52478  0.020145663  0.019708062            3 
 1331000   0.71128358    -7.420103    321.96552  0.020158122    0.0196933            8 
 1332000   0.71491029   -7.4055061    322.11294  0.020152211  0.019678536            6 
 1333000   0.72533512   -7.4221591    321.62661   0.02010669  0.019663814            5 
 1334000   0.70955588   -7.4384154    322.10726  0.020121643  0.019649077           11 
 1335000   0.73441788   -7.4062307    322.43276  0.020126889  0.019634392           12 
 1336000   0.73048303   -7.4227114    321.76685  0.020070288  0.019619719            9 
 1337000   0.74092943   -7.4064646    322.02888  0.020071608  0.019605043            7 
 1338000   0.71469947   -7.4158146    322.69061  0.020097821  0.019590404            5 
 1339000   0.72637646   -7.4469587    322.93144  0.020097799  0.019575756            5 
 1340000   0.69952118   -7.3958606    322.69937  0.020068369  0.019561122            4 
 1341000   0.71446029   -7.4242207     322.8419  0.020062261  0.019546582            4 
 1342000   0.72669198   -7.4215428    322.70057  0.020038535  0.019532019            6 
 1343000   0.71373055   -7.4305218    322.30643  0.019999158  0.019517512            5 
 1344000    0.7030266   -7.4211761    323.10972  0.020034085  0.019503022            5 
 1345000     0.716088   -7.4289665    322.72176  0.019995153  0.019488555            9 
 1346000   0.71589249   -7.4204293     323.3707  0.020020474  0.019474087            8 
 1347000   0.71889999   -7.4388341    322.83757  0.019972629   0.01945961            3 
 1348000   0.71936567   -7.4152834    322.72536  0.019950875  0.019445088            5 
 1349000   0.72644507    -7.404098    322.91173  0.019947599  0.019430612            6 
 1350000   0.71282014   -7.4300729    322.91002  0.019932717  0.019416168            9 
 1351000   0.70465419   -7.4379546    322.88312  0.019916304  0.019401655            7 
 1352000   0.72972603   -7.4461138    323.27533  0.019925748  0.019387184           10 
 1353000   0.72023785   -7.4321015    322.75899  0.019879219  0.019372721            9 
 1354000    0.7331801   -7.4533046    323.31369  0.019898676  0.019358229            8 
 1355000   0.71927007   -7.4655195    322.14127  0.019811886  0.019343704            9 
 1356000   0.70856765   -7.4450332     322.8812  0.019842748  0.019329209           10 
 1357000   0.72447448   -7.4650807    322.29387  0.019792058  0.019314721            8 
 1358000   0.71100018    -7.404666    323.37215  0.019843652   0.01930022           18 
 1359000   0.71264752   -7.4287329    323.45601  0.019834192  0.019285777           24 
 1360000      0.70853   -7.4236253    323.28646  0.019809219  0.019271364           14 
 1361000   0.70360872   -7.4116542    323.79041  0.019825521  0.019257037           17 
 1362000    0.7204952   -7.4335101    322.90115  0.019756556  0.019242658           12 
 1363000   0.71535993   -7.4386136    323.71073  0.019791558  0.019228282           12 
 1364000   0.71058121   -7.4184202    323.64045  0.019772755  0.019213953            5 
 1365000   0.70323189   -7.4421423    323.59146  0.019755278  0.019199593            9 
 1366000   0.71451682   -7.4812778    323.66007  0.019745002  0.019185231           17 
 1367000   0.71195667   -7.4068781    324.16766  0.019761501   0.01917092           10 
 1368000   0.70427314   -7.4408218    323.83952  0.019727066   0.01915662            4 
 1369000   0.70075587   -7.4651352    322.90535  0.019655792  0.019142298           11 
 1370000    0.7054474   -7.4539146    322.92466  0.019642619  0.019127896           11 
 1371000   0.71223692   -7.4325466    323.53853  0.019665605  0.019113516            7 
 1372000   0.69208903   -7.4597654    323.75447  0.019664387  0.019099213            8 
 1373000   0.71093368   -7.4634449    323.58029  0.019639493  0.019084932            9 
 1374000   0.69572342   -7.4591443    323.24543   0.01960489  0.019070595           12 
 1375000   0.70486424    -7.445232    323.76859  0.019622339  0.019056352            7 
 1376000   0.70617714   -7.4325322    323.84293   0.01961258  0.019042131            5 
 1377000   0.70140133   -7.4605706     323.5801  0.019582432  0.019027873            6 
 1378000   0.70209651   -7.4267959    323.59999  0.019569423  0.019013638            6 
 1379000   0.69907016   -7.4539779    323.54903  0.019552153  0.018999435            6 
 1380000   0.70660458   -7.4596878    323.97456  0.019563681   0.01898526            7 
 1381000    0.6868667   -7.4696674    323.96278  0.019548804  0.018971063            4 
 1382000   0.70691459   -7.4545052    324.40073  0.019561067  0.018956857            8 
 1383000   0.68750663   -7.4707027    323.69731  0.019504538  0.018942626           14 
 1384000    0.7030398   -7.4664852    323.37435  0.019470999  0.018928404           19 
 1385000   0.70810707   -7.4676928    323.74633  0.019479322  0.018914138            7 
 1386000   0.70565036   -7.4463461    323.76866   0.01946661  0.018899928            7 
 1387000   0.70016606   -7.4660023    324.09296  0.019472059  0.018885725            4 
 1388000   0.70079055   -7.4669628     323.9731  0.019450834  0.018871514            8 
 1389000   0.72956702   -7.4685688    324.52203  0.019469764  0.018857334            8 
 1390000   0.69538163   -7.4796866    324.71528  0.019467343  0.018843162            6 
 1391000   0.69252252   -7.4695079    324.06012  0.019414098  0.018829049            6 
 1392000   0.71744238   -7.4969409    323.71207  0.019379314  0.018814945            9 
 1393000   0.68474489   -7.4398668    324.23668  0.019396786  0.018800755            4 
 1394000   0.70121824   -7.4847361    324.59507  0.019404296  0.018786584            7 
 1395000   0.68407952   -7.4817894    323.75273  0.019340067  0.018772429            6 
 1396000   0.68610496   -7.4724744    323.57382  0.019315534  0.018758278            9 
 1397000   0.68982071   -7.4495401    323.94871   0.01932407  0.018744165           12 
 1398000   0.68692369   -7.4861314    324.29428  0.019330846   0.01873004           14 
 1399000   0.68145009    -7.464745    324.84456  0.019349807   0.01871597            8 
 1400000   0.69594194   -7.4581856    323.73898  0.019270177   0.01870193            8 
 1401000   0.69045058   -7.4688579    324.94712  0.019328285  0.018687868           21 
 1402000    0.6842154   -7.4585001    324.06997  0.019262362  0.018673782           10 
 1403000   0.70442239   -7.4792505    324.46093  0.019271853  0.018659718           10 
 1404000    0.6865753   -7.4578012    324.98666  0.019289332  0.018645683            8 
 1405000   0.68455647    -7.471203    325.25465  0.019291497  0.018631675            7 
 1406000   0.70807323   -7.4502527    324.93067  0.019258575  0.018617659           10 
 1407000   0.69122603   -7.4520782    324.30379  0.019207758  0.018603668            8 
 1408000   0.67816073   -7.4856108    324.32035  0.019195096  0.018589677            8 
 1409000   0.70910403   -7.5161775    324.21566  0.019175281  0.018575628            8 
 1410000   0.71202929   -7.4818308    324.69477  0.019189998  0.018561594            5 
 1411000   0.69061377   -7.4751115    324.83365    0.0191846  0.018547575            6 
 1412000   0.70085315   -7.4654259    325.17779  0.019191323  0.018533577            7 
 1413000   0.69819594   -7.4962151    323.95792  0.019105799  0.018519581            5 
 1414000   0.66204094   -7.4794676    324.76219  0.019139686  0.018505591            8 
 1415000   0.68679927   -7.4757853    325.03965    0.0191425  0.018491681            9 
 1416000   0.69984424   -7.4841047    324.47168  0.019095556  0.018477753            7 
 1417000   0.69136475   -7.4934732    324.61743  0.019090651  0.018463851            9 
 1418000   0.67225408   -7.4855457     325.1005  0.019105577  0.018449974            9 
 1419000   0.67787109   -7.5035114    324.97788  0.019084912  0.018436062           15 
 1420000   0.70307476   -7.5048267    324.61896  0.019050409  0.018422146           12 
 1421000    0.6831256   -7.5254891    324.41677  0.019025145  0.018408229            7 
 1422000   0.68970324   -7.4853232    325.32729  0.019065125  0.018394348           10 
 1423000   0.69475312   -7.4643222    325.52835  0.019063502  0.018380512            6 
 1424000   0.68572038   -7.4736696     324.8531  0.019010598  0.018366725            9 
 1425000   0.68927426    -7.478381    325.21259   0.01901828  0.018352959            9 
 1426000     0.688015   -7.4898322    325.03496  0.018994563  0.018339218            9 
 1427000   0.69384408   -7.4867771    325.76604  0.019023945  0.018325468            6 
 1428000   0.68004232   -7.5146127    325.23409   0.01897958  0.018311752            6 
 1429000   0.69663769   -7.4924126    325.48413   0.01898088   0.01829803            9 
 1430000   0.68207383   -7.5021766    325.10222  0.018945351  0.018284314           15 
 1431000   0.68230988   -7.4673049    324.90751  0.018920773  0.018270524            7 
 1432000   0.67560319   -7.4862647    325.49144  0.018941541  0.018256816            6 
 1433000   0.66194555   -7.4893962      325.731  0.018942254  0.018243135           10 
 1434000   0.67655577   -7.4910853    324.92675  0.018882308  0.018229451            8 
 1435000   0.67741018   -7.5099617    324.85817  0.018865167  0.018215759           12 
 1436000   0.68564106   -7.5154093    325.29138  0.018877169  0.018202049            9 
 1437000   0.69601154   -7.5064258    325.07953  0.018851748  0.018188351            8 
 1438000   0.67027439   -7.5220575    324.98788  0.018833326  0.018174589           10 
 1439000   0.67827585   -7.5230342    325.72635  0.018863004  0.018160797            6 
 1440000   0.68791668   -7.5229443    324.64192  0.018787148  0.018147013            9 
 1441000   0.68214842   -7.4921892    324.99917   0.01879477  0.018133287           26 
 1442000   0.68556122   -7.5489422    324.76902  0.018768436  0.018119547           28 
 1443000   0.68204907   -7.5204969    324.54402  0.018742436  0.018105781           20 
 1444000    0.6813087   -7.5184139    324.82252  0.018745528  0.018092054           11 
 1445000   0.67507159   -7.5492032    324.80441  0.018731511  0.018078315           18 
 1446000   0.68863374   -7.5520453    324.33836  0.018691699  0.018064563           10 
 1447000   0.68171908    -7.521826    324.78135  0.018704293  0.018050855            8 
 1448000   0.65705532    -7.535473    325.17948  0.018714289  0.018037176           11 
 1449000   0.68770964   -7.5325016    325.50887  0.018720317    0.0180235            7 
 1450000   0.66493284    -7.524281    325.25033  0.018692548  0.018009829            7 
 1451000   0.66828855   -7.5181516    325.48197  0.018692969  0.017996169            8 
 1452000   0.67204725   -7.5077331    325.17797  0.018662647  0.017982519           22 
 1453000   0.68145149    -7.520396    325.59306   0.01867361  0.017968897           10 
 1454000   0.66575875   -7.5099196    325.91623  0.018679288  0.017955321            7 
 1455000   0.67733401   -7.5178639    325.42588  0.018638366  0.017941754           24 
 1456000   0.67004896    -7.514666    325.59202  0.018635075  0.017928226           13 
 1457000   0.66154556   -7.4958193    325.22148  0.018601092  0.017914694           13 
 1458000    0.6668927   -7.5120629    325.88707  0.018626375   0.01790117           13 
 1459000   0.66925042   -7.5465401    325.45383  0.018588864  0.017887649           12 
 1460000    0.6719262   -7.5508702    325.79435  0.018595568  0.017874147           14 
 1461000   0.66530876   -7.5350871     326.4499  0.018620232  0.017860621            8 
 1462000   0.68459255   -7.5320272    325.92701  0.018577691  0.017847128           10 
 1463000   0.67868564   -7.5573388    325.60972  0.018546919   0.01783361           11 
 1464000   0.67543014   -7.5638802    325.30388  0.018516842  0.017820081           24 
 1465000    0.6730412   -7.5498352    325.52632  0.018516855  0.017806546           12 
 1466000   0.66002193   -7.5518741    325.30674  0.018491743  0.017793024           25 
 1467000   0.66426209   -7.5618426    326.00667  0.018518897  0.017779555           27 
 1468000   0.66528263   -7.5559154    326.39536  0.018528347   0.01776609           23 
 1469000   0.66349583   -7.5456607    325.16988  0.018446215  0.017752638           26 
 1470000   0.66053973   -7.5491584    325.82542  0.018470829  0.017739193           28 
 1471000   0.66596597   -7.5580484    325.51553  0.018440716  0.017725738           14 
 1472000   0.67680693   -7.5468723    325.80043  0.018444318  0.017712313            8 
 1473000   0.66544374   -7.5273841    325.98089  0.018442006  0.017698884           14 
 1474000   0.66847333   -7.5404017    326.17093  0.018440238  0.017685477           21 
 1475000   0.65932163   -7.5465485    326.17586  0.018428015  0.017672062           13 
 1476000   0.66330916   -7.5408757    325.89644  0.018399754  0.017658647           16 
 1477000   0.66457022   -7.5435038    325.40226  0.018359415  0.017645243           12 
 1478000    0.6584148   -7.5331595    325.11916  0.018331031  0.017631868           15 
 1479000   0.66126878   -7.5556803    325.23838  0.018325354  0.017618524           11 
 1480000   0.64497268   -7.5708537    325.33747  0.018318551  0.017605127           17 
 1481000   0.66373874   -7.5591579    325.36695  0.018307841  0.017591728           13 
 1482000   0.65989188   -7.5657197    326.25935  0.018345667  0.017578368            8 
 1483000   0.65280014    -7.537351    326.02237   0.01831998  0.017565025            9 
 1484000   0.66043541   -7.5692793    325.87865  0.018299565  0.017551669           17 
 1485000    0.6662097   -7.5487696    325.88735   0.01828773  0.017538341           16 
 1486000   0.66172155   -7.5674738    325.47219  0.018252142  0.017524997            9 
 1487000   0.67410523   -7.5615642     326.0151  0.018270292  0.017511681           11 
 1488000   0.65388414   -7.5388867     325.7568  0.018243548  0.017498411            9 
 1489000   0.65561558   -7.5670067     325.2727  0.018204203  0.017485149           16 
 1490000   0.66104129   -7.5652971    326.22267  0.018245116  0.017471874            8 
 1491000   0.66636869   -7.5645997    325.97587  0.018219085  0.017458644            9 
 1492000    0.6457881   -7.5612871    325.86943  0.018200929  0.017445447           20 
 1493000   0.66104026   -7.5704001    326.32201  0.018213999  0.017432227            6 
 1494000   0.65815821   -7.5687907    326.12671  0.018190914   0.01741899            8 
 1495000   0.64738003   -7.5654014    326.27623  0.018187081  0.017405773            4 
 1496000   0.65791471   -7.5933156    325.80997  0.018148951  0.017392512            8 
 1497000    0.6555894   -7.5723949    326.07999  0.018151859   0.01737926            8 
 1498000   0.65070445   -7.5814929    325.47509  0.018106091  0.017366011            8 
 1499000   0.66315462   -7.5511363    325.80776  0.018112506  0.017352804           10 
 1500000   0.64107709   -7.5692286    326.05742  0.018114301  0.017339638            7 
 1501000   0.65443596   -7.5772282    326.67123  0.018136311  0.017326508           13 
 1502000   0.66334291   -7.5465292     326.2044  0.018098335  0.017313398            9 
 1503000   0.64926829   -7.5600214    326.24141  0.018088346  0.017300259           13 
 1504000   0.64935768   -7.5912196    326.49344  0.018090284  0.017287175            7 
 1505000   0.64850842   -7.5517854    326.90675  0.018101149   0.01727408            7 
 1506000   0.65265216   -7.5566336    327.14971  0.018102574  0.017261003            9 
 1507000   0.62954894   -7.5690797    327.08266  0.018086854  0.017247998            7 
 1508000   0.64827705   -7.5617224    327.31209  0.018087538  0.017234994            3 
 1509000   0.65223535   -7.5762108    326.55659   0.01803383  0.017222005            9 
 1510000   0.67426847   -7.5319119    326.98653  0.018045614   0.01720904            6 
 1511000   0.64367849   -7.5406522    326.91961  0.018029981  0.017196135            4 
 1512000   0.64484008   -7.5538334     327.6274  0.018057066  0.017183236            6 
 1513000   0.66803601   -7.5651082    327.70686  0.018049508  0.017170373            5 
 1514000   0.63610057   -7.5803449    327.31236  0.018015872  0.017157525            6 
 1515000   0.64501048   -7.5732408    326.48423  0.017958428  0.017144634           10 
 1516000   0.64432493   -7.5598315    327.43235    0.0179987  0.017131764           12 
 1517000   0.65568045   -7.5687831    327.77988  0.018005926   0.01711896            6 
 1518000   0.65206952   -7.5612593    327.09679  0.017956565  0.017106095            7 
 1519000   0.64196377   -7.5669102    326.74508  0.017925449  0.017093223            6 
 1520000   0.66638015   -7.5974323    326.94129  0.017924413  0.017080349            8 
 1521000   0.65083701   -7.6102163    326.06571  0.017864656  0.017067484            6 
 1522000   0.63154634   -7.5884033    326.47706  0.017875441  0.017054621            9 
 1523000   0.64113253   -7.5955726    326.86202  0.017884768   0.01704176            6 
 1524000   0.64200184   -7.6076177    327.44034  0.017904656  0.017028885           13 
 1525000   0.64722114   -7.6098158    327.91662  0.017918941  0.017016027           14 
 1526000   0.65337595   -7.5986299    326.97328  0.017855683  0.017003188            8 
 1527000   0.64838177   -7.5931514    326.59501  0.017823347  0.016990348           10 
 1528000   0.64377696   -7.6010007    326.15883  0.017787894  0.016977518            8 
 1529000   0.62998387   -7.5938461    327.15305  0.017830447  0.016964693           14 
 1530000   0.64295994   -7.5883983    327.40911   0.01783274  0.016951889           16 
 1531000   0.63229889   -7.6008283    327.26046  0.017813002  0.016939068           15 
 1532000   0.64197435   -7.6017375    326.52855  0.017761562  0.016926221            6 
 1533000   0.63257735   -7.5729576     327.2159  0.017787339  0.016913432            8 
 1534000   0.64991699   -7.6113512    326.83409  0.017755003  0.016900649            9 
 1535000   0.62745201   -7.6130763    326.64928  0.017733403  0.016887849           11 
 1536000   0.63144358   -7.6065266    326.63315  0.017720982  0.016875044            9 
 1537000   0.64086645   -7.6200742    327.38215  0.017750063   0.01686227            9 
 1538000    0.6381715   -7.5920582    326.95376   0.01771531  0.016849497           14 
 1539000   0.64135014   -7.6166657    327.19392  0.017716803  0.016836707            9 
 1540000   0.64367523   -7.5927566    327.56245  0.017725241  0.016823933            8 
 1541000   0.63841766   -7.6051055    326.31861  0.017646475  0.016811136            6 
 1542000   0.63061494   -7.6063508    325.92076   0.01761353  0.016798336           10 
 1543000   0.65029857   -7.6276841    326.27501  0.017621247  0.016785532            9 
 1544000   0.64386578   -7.6006847    326.36167  0.017614511  0.016772713           15 
 1545000   0.64407207   -7.5978983    326.98479   0.01763672  0.016759954            8 
 1546000   0.64775691   -7.6169261    326.91598  0.017621603  0.016747171           10 
 1547000   0.64122436   -7.6233045    326.28344  0.017576139  0.016734394            8 
 1548000   0.63132078   -7.6121241     326.4807  0.017575404  0.016721606            6 
 1549000   0.63162473   -7.6119285    326.64054  0.017572657  0.016708826            5 
 1550000   0.62815708    -7.620315    326.54735  0.017556309  0.016696077            8 
 1551000   0.63190528   -7.6083962    326.25239  0.017529142  0.016683314            8 
 1552000   0.63204943    -7.628432     326.2853  0.017519614  0.016670563           13 
 1553000   0.63718645   -7.6492506    326.32724  0.017510584  0.016657823            6 
 1554000   0.62349007   -7.6409024    326.26708  0.017496089  0.016645038           12 
 1555000   0.63005108   -7.6414375    326.90917  0.017519248  0.016632282            9 
 1556000   0.62731016   -7.6241555    326.02333  0.017460547  0.016619561           16 
 1557000   0.62115346   -7.6215521    326.10089  0.017453483  0.016606834           10 
 1558000    0.6301001    -7.618459    326.76411  0.017477755  0.016594118           16 
 1559000   0.63840458   -7.6309453    326.28835  0.017441114  0.016581425           13 
 1560000    0.6263426   -7.6212793    325.92662   0.01741061  0.016568711           18 
 1561000   0.62884453   -7.6270808    326.61928  0.017436434  0.016556044           25 
 1562000   0.62135359   -7.5961434    326.37207  0.017412082  0.016543402           12 
 1563000   0.62670489   -7.6237472     326.5085  0.017408216  0.016530744            8 
 1564000   0.63819022   -7.6366262      326.671  0.017405744  0.016518113           12 
 1565000   0.62893872   -7.6042814      326.866  0.017405005  0.016505492           11 
 1566000   0.63090856   -7.6303541    326.62633  0.017381137  0.016492886           17 
 1567000   0.63027456   -7.6157377    326.64403  0.017370986  0.016480263           10 
 1568000   0.64973347   -7.6244838    326.72531  0.017364228  0.016467653            8 
 1569000   0.62580974   -7.6130691    326.88026   0.01736139  0.016455043           22 
 1570000   0.62011974   -7.6429037    326.04043  0.017305755   0.01644244           12 
 1571000   0.62561558   -7.6304275    326.44282  0.017316084  0.016429834           10 
 1572000   0.62036912   -7.6427328    325.75758  0.017268744  0.016417241           16 
 1573000   0.64366113   -7.6349778    326.48669  0.017296392  0.016404642            8 
 1574000   0.63490442   -7.6368536    326.30326  0.017275691  0.016392063           10 
 1575000    0.6244498   -7.6289825     326.5467  0.017277603  0.016379493            7 
 1576000   0.61680005   -7.6387766    326.83915  0.017282104  0.016366944            7 
 1577000    0.6259876   -7.6406621    325.99587  0.017226584  0.016354409            7 
 1578000    0.6230437   -7.6153568    327.32092  0.017285642  0.016341851            7 
 1579000   0.63237562   -7.6249271    326.29442   0.01722052  0.016329283            6 
 1580000   0.61360424   -7.6477913    326.31734   0.01721083  0.016316747           11 
 1581000   0.62764147   -7.6222928    327.10568  0.017241497  0.016304223           14 
 1582000   0.62570313   -7.6216571    326.69062  0.017208735  0.016291693            9 
 1583000   0.61535276   -7.6270433    326.13044  0.017168374   0.01627921            9 
 1584000   0.61275037   -7.6520172    327.04175  0.017205479  0.016266679           17 
 1585000   0.62047484   -7.6253771    326.91453  0.017187935  0.016254213           11 
 1586000   0.62203656   -7.6296986    326.44453  0.017152403  0.016241754           11 
 1587000   0.61770683   -7.6531363     327.1005   0.01717604  0.016229289           13 
 1588000   0.62484082   -7.6488482    326.67467  0.017142877  0.016216796            8 
 1589000   0.61946309    -7.650109    326.60691  0.017128535  0.016204334           21 
 1590000   0.61693765    -7.652517    326.66438  0.017120775  0.016191877           26 
 1591000   0.61263557   -7.6701319    326.68999  0.017111355  0.016179425           11 
 1592000    0.6076247   -7.6501925    326.12924  0.017071254  0.016166968           12 
 1593000   0.61295127   -7.6404913     326.6084  0.017085604  0.016154531           11 
 1594000   0.60829354   -7.6605207    326.66408  0.017077796  0.016142112            8 
 1595000   0.60663062   -7.6630156    326.08172  0.017036662  0.016129707           14 
 1596000   0.63341177   -7.6693692    326.65575   0.01705596  0.016117317           10 
 1597000   0.60819402   -7.6542255    325.97934  0.017009984  0.016104918           18 
 1598000   0.62195429   -7.6551183    326.08162  0.017004674  0.016092565           22 
 1599000   0.61813541   -7.6593829    326.86893   0.01703507  0.016080182           19 
 1600000   0.62101434   -7.6474046    326.50115  0.017005268  0.016067804           25 
 1601000   0.61154806   -7.6292225    325.99023  0.016968053  0.016055428            8 
 1602000   0.60575294   -7.6606187    326.59283  0.016988807  0.016043072           15 
 1603000   0.61055973   -7.6496965    326.66232  0.016981822  0.016030706           19 
 1604000    0.6081935   -7.6592923    326.16646  0.016945473  0.016018365           12 
 1605000   0.60388719   -7.6332876    326.07655  0.016930247  0.016006067           17 
 1606000   0.63178036   -7.6698828    326.64354  0.016949125  0.015993783           25 
 1607000   0.60134271   -7.6594284    326.45333  0.016928715  0.015981501           36 
 1608000   0.59074436   -7.6503059     326.5618  0.016923808  0.015969226           24 
 1609000   0.60814356   -7.6630579    326.76568  0.016923849  0.015956932           15 
 1610000   0.61379817   -7.6599402    326.13039  0.016880455   0.01594464           21 
 1611000   0.60794538   -7.6573803    326.44344   0.01688617   0.01593236           26 
 1612000   0.59967849   -7.6675471    326.73751  0.016890897  0.015920109           31 
 1613000   0.59269542   -7.6709761    326.78394  0.016882824  0.015907863           28 
 1614000   0.61681284   -7.6548876    326.50809  0.016858121  0.015895617           22 
 1615000   0.60546606    -7.695015     326.5176  0.016848173  0.015883367           31 
 1616000   0.60041674   -7.6662728    326.08534  0.016815457  0.015871113           17 
 1617000    0.6145208   -7.6627011    326.22588    0.0168123  0.015858869           17 
 1618000    0.6169114    -7.683404    326.40023   0.01681089  0.015846639           24 
 1619000   0.61860206   -7.6765687    326.19884   0.01679014  0.015834398           19 
 1620000   0.60468815     -7.67554    326.05073  0.016772157  0.015822174           24 
 1621000   0.59715389   -7.6859827    326.19884  0.016769424  0.015809931           20 
 1622000   0.59226809    -7.679015    326.82861  0.016791441  0.015797718           23 
 1623000   0.59816035   -7.6832038    326.32482  0.016755228  0.015785513           18 
 1624000    0.6074368   -7.6594398    325.85838  0.016720976  0.015773332           12 
 1625000    0.6113447   -7.6801126    326.32387  0.016734557  0.015761149           17 
 1626000   0.59768035   -7.6699304    325.92152  0.016703645  0.015748962           25 
 1627000   0.59792662   -7.6660828    326.45365  0.016720633  0.015736786           25 
 1628000   0.60758849   -7.6820471    326.62654  0.016719213  0.015724597           27 
 1629000   0.60900729   -7.6549672    326.24165   0.01668926  0.015712453           22 
 1630000   0.59132579   -7.6567053    326.09636  0.016671593  0.015700314           32 
 1631000   0.60848995   -7.6907793    326.17263  0.016665268  0.015688186           19 
 1632000   0.61391403     -7.68253    326.15989  0.016654406  0.015676059           14 
 1633000   0.59249908   -7.6721396    326.22909  0.016647739  0.015663927           16 
 1634000   0.60369615   -7.6825064     326.3937  0.016645945  0.015651814           31 
 1635000   0.60684207   -7.6884339    326.50703  0.016641541  0.015639704           15 
 1636000   0.60171257   -7.6926499    325.92287  0.016601613    0.0156276           29 
 1637000   0.59527854   -7.7045337    326.02169  0.016596502  0.015615501           39 
 1638000   0.59859494   -7.6821766    326.66505  0.016619101  0.015603421           16 
 1639000   0.59429485   -7.6794025    326.20518  0.016585579  0.015591343           25 
 1640000   0.59653703   -7.6908863    325.35647  0.016532341  0.015579245           17 
 1641000   0.60608388   -7.6876313    326.04633  0.016557299  0.015567147           22 
 1642000   0.60579492   -7.6930421    326.54056  0.016572298  0.015555067           12 
 1643000   0.60579245    -7.692707    326.55446  0.016562916  0.015543012           24 
 1644000   0.60443243    -7.687349    326.11176  0.016530401  0.015530984           25 
 1645000   0.59451922   -7.7051979    326.00109  0.016514746  0.015518931           26 
 1646000   0.59889585   -7.6919217    326.27787  0.016518726   0.01550687           21 
 1647000   0.58914927   -7.7160118    325.85745  0.016487424  0.015494803           12 
 1648000   0.58950254   -7.6871513    325.84303  0.016476691  0.015482752           24 
 1649000   0.60336453   -7.7168343    325.64011  0.016456444   0.01547073           11 
 1650000   0.58663333   -7.6931588    325.63916  0.016446422   0.01545873           17 
 1651000   0.59408075   -7.7161516    325.57982  0.016433466   0.01544675           21 
 1652000   0.60096452   -7.6922428    326.33073  0.016461397  0.015434782           17 
 1653000   0.58316355   -7.6928773    325.86207  0.016427812  0.015422829           19 
 1654000   0.59529481   -7.7079648    325.93299  0.016421453  0.015410883           12 
 1655000   0.60040531   -7.7083602    325.64975  0.016397268  0.015398933           18 
 1656000   0.58730802   -7.7073443    325.72424  0.016391115  0.015386951           25 
 1657000    0.5849835   -7.7037196    325.91306  0.016390719   0.01537499           32 
 1658000   0.59770669   -7.7141227    325.86749  0.016378543  0.015363006           10 
 1659000   0.58393723   -7.7293098    325.82644  0.016366609  0.015351028           14 
 1660000   0.58056815   -7.7044006    326.15378  0.016373182  0.015339087           11 
 1661000   0.58911362   -7.7080511    326.11505  0.016361381  0.015327131           19 
 1662000   0.57769992   -7.7297018    325.60995  0.016326211  0.015315185           24 
 1663000   0.58995917   -7.7224763    325.51791  0.016311781  0.015303249           19 
 1664000   0.57360041   -7.7227542    325.38138  0.016295141  0.015291311           11 
 1665000   0.59018256   -7.7183895    325.24786  0.016278672  0.015279365           12 
 1666000   0.59154366   -7.7371569    325.22391  0.016267703  0.015267433           15 
 1667000    0.5875143   -7.7291419    325.46186  0.016269839  0.015255511           24 
 1668000    0.5973384    -7.740557    325.42774  0.016258381  0.015243594           14 
 1669000   0.58479717   -7.7219556    325.57261  0.016255872  0.015231666           14 
 1670000   0.59327515   -7.7186108    325.83085  0.016259024  0.015219765           14 
 1671000   0.59932346   -7.7206984    325.39788  0.016227702  0.015207858           23 
 1672000     0.584411   -7.7263492    325.76303  0.016236196  0.015195962           21 
 1673000   0.58653889   -7.7475029    325.40648  0.016208731  0.015184067           30 
 1674000   0.58594915   -7.7353891     326.1247  0.016234802  0.015172192           16 
 1675000   0.58745055   -7.7430817    325.97692  0.016217757  0.015160327           23 
 1676000   0.59231406   -7.7181743    325.84968  0.016201754  0.015148497           19 
 1677000   0.58032685    -7.726226    325.26793  0.016163185  0.015136662           31 
 1678000   0.58551414   -7.7318953    325.35497  0.016157875  0.015124831           20 
 1679000   0.57735349   -7.7352933    325.13863  0.016137514  0.015113013           16 
 1680000    0.5841866   -7.7509074     325.4983  0.016145749  0.015101199           15 
 1681000   0.57923022   -7.7437821    325.55287   0.01613885  0.015089381            9 
 1682000   0.57926786     -7.72893    325.81489  0.016142236  0.015077595           15 
 1683000   0.58678313   -7.7491328    325.14373  0.016099412  0.015065818           14 
 1684000   0.58125058    -7.747056    325.59744  0.016112304   0.01505403           20 
 1685000    0.5810391   -7.7393981    325.52962  0.016099388  0.015042256           11 
 1686000   0.57944779   -7.7333269    324.98433  0.016062887  0.015030483           18 
 1687000   0.57414419   -7.7459143    325.39958  0.016073878  0.015018722           16 
 1688000   0.58551983   -7.7458733    325.78618  0.016083441  0.015006984           16 
 1689000   0.59043929   -7.7486798    325.29208   0.01604954  0.014995257           17 
 1690000   0.57996058   -7.7268267    325.98857  0.016074387  0.014983518           22 
 1691000   0.58438016   -7.7563411    325.32192  0.016032028  0.014971793           16 
 1692000   0.57214917   -7.7430581    325.57009  0.016034776  0.014960077           28 
 1693000   0.57757957   -7.7365925    325.21502  0.016007827  0.014948344           15 
 1694000   0.57806898    -7.743489    325.49775  0.016012286  0.014936629           12 
 1695000   0.57148726   -7.7252586    325.24207  0.015990269  0.014924934           19 
 1696000   0.58458605   -7.7368673    325.79366  0.016007943  0.014913273           14 
 1697000    0.5785097   -7.7444826    325.40001   0.01597918  0.014901617           16 
 1698000   0.57936151   -7.7615637    325.87407  0.015993035  0.014889946           22 
 1699000     0.573822   -7.7410703    325.90629  0.015985201  0.014878311           14 
 1700000   0.57310367   -7.7587491    325.16203  0.015939315  0.014866682           11 
 1701000   0.58311184    -7.743617    325.37856  0.015940553  0.014855053           20 
 1702000   0.56559134   -7.7552049    325.04265   0.01591474   0.01484341           21 
 1703000   0.57137044   -7.7605075    325.86748  0.015945757  0.014831784           15 
 1704000   0.56776896   -7.7643241     325.7838  0.015932306  0.014820162           22 
 1705000    0.5734926   -7.7744129    325.51117  0.015909637  0.014808551           12 
 1706000    0.5731827   -7.7706754    324.95829  0.015873305  0.014796942           12 
 1707000    0.5732892    -7.745754    325.20635  0.015876116  0.014785354            9 
 1708000   0.56171112   -7.7480487     325.2969  0.015871238  0.014773782           10 
 1709000   0.55654091   -7.7499397    325.24187  0.015859268  0.014762219           29 
 1710000    0.5686474   -7.7547961    325.26582  0.015851161  0.014750684           31 
 1711000   0.57400036   -7.7979171    325.35159  0.015846074  0.014739143           18 
 1712000   0.56554217   -7.7677983    325.09558  0.015824356  0.014727597           16 
 1713000   0.57977781    -7.750923    324.59619  0.015790824  0.014716058           12 
 1714000   0.56338523   -7.7435639    325.44568  0.015822913  0.014704538           25 
 1715000   0.57572964   -7.7547541    325.05488  0.015794698  0.014693034           39 
 1716000   0.57589398   -7.7507297    325.44385  0.015804383  0.014681526           15 
 1717000    0.5856049   -7.7697791    325.18977  0.015782846  0.014670049           11 
 1718000   0.56354262   -7.7531567    325.48039  0.015787756  0.014658568           21 
 1719000   0.58049387   -7.7636688    324.96304  0.015753492  0.014647082           58 
 1720000   0.56957438   -7.7688433    325.62977  0.015776636  0.014635619           22 
 1721000   0.56533395   -7.7345209    324.91116  0.015732673  0.014624159           38 
 1722000   0.57375775   -7.7778588    325.02712  0.015729148  0.014612708           14 
 1723000   0.56800433   -7.7762617    324.66052  0.015702288   0.01460127           42 
 1724000    0.5648893   -7.7731564    325.81645  0.015749055  0.014589829           21 
 1725000   0.56024358   -7.7619179    324.73478   0.01568767  0.014578414           28 
 1726000   0.56216005   -7.7720328     325.8633  0.015733068   0.01456699           44 
 1727000   0.57596894   -7.7721946    325.28855  0.015696224  0.014555585           45 
 1728000   0.57004824   -7.7513191    325.64819  0.015704484  0.014544197           31 
 1729000   0.55519474   -7.7481541    325.89606  0.015707348  0.014532818           20 
 1730000   0.55895724   -7.7813867    325.16814  0.015663205  0.014521445           41 
 1731000   0.55933878   -7.7716108    324.95061  0.015643684  0.014510087           18 
 1732000    0.5585219   -7.7737289     325.3039  0.015651651  0.014498734           22 
 1733000   0.55895952   -7.7610307     325.2638   0.01564069  0.014487394           39 
 1734000   0.54958723   -7.7591296     325.7051  0.015652879  0.014476073           32 
 1735000   0.55543126   -7.7595495    325.02235  0.015611064  0.014464744           15 
 1736000   0.56838192   -7.7615916    325.12433  0.015606967  0.014453434           12 
 1737000   0.55614296   -7.7701322    325.25904  0.015604445  0.014442142           15 
 1738000    0.5532576   -7.7646939    325.55149  0.015609488  0.014430849           41 
 1739000   0.55902219   -7.7852889    325.30999   0.01558894  0.014419581           14 
 1740000   0.55483992   -7.7673465    324.55191  0.015543674   0.01440831           27 
 1741000   0.55951352   -7.7558805    324.52297  0.015533361   0.01439705           27 
 1742000   0.55592001    -7.760646    325.04258  0.015549301  0.014385786           20 
 1743000   0.56973146   -7.7711249    325.02587  0.015539581  0.014374514            9 
 1744000   0.54688592   -7.7738272    325.46061  0.015551443  0.014363276           17 
 1745000   0.54501916   -7.7890989    324.78794  0.015510408  0.014352038           13 
 1746000   0.55254964   -7.7875438    325.75867  0.015547856  0.014340802           22 
 1747000   0.54560241   -7.7641469    325.15126  0.015509982  0.014329577           22 
 1748000   0.54892583   -7.7878977    325.12613  0.015499911  0.014318364           24 
 1749000   0.55486361   -7.7806741    324.83416  0.015477137  0.014307175           18 
 1750000   0.56744844   -7.7793725    324.77067   0.01546527  0.014295988           13 
 1751000    0.5649377   -7.7706822    325.26973  0.015480189  0.014284801           21 
 1752000   0.55171272   -7.7633245    325.20772  0.015468404  0.014273626           15 
 1753000   0.55092176   -7.7677549    325.48349  0.015472689  0.014262456           14 
 1754000   0.56059945   -7.7768023    325.00698  0.015441229  0.014251316           11 
 1755000   0.54989477    -7.775944    324.81763  0.015423439   0.01424018           21 
 1756000   0.54462241   -7.7990293    324.69301  0.015408742  0.014229029           12 
 1757000   0.55660764   -7.7821853    324.38308  0.015385272  0.014217879           13 
 1758000   0.56165325   -7.7683911    325.21281  0.015415852  0.014206744           27 
 1759000   0.55581217   -7.7842288      324.852  0.015389994  0.014195615           22 
 1760000   0.56342076    -7.786935    324.62361  0.015370436  0.014184492           22 
 1761000   0.54998764   -7.7781316    324.88868  0.015374251  0.014173413           14 
 1762000   0.54919716   -7.8036341    324.71054  0.015357101  0.014162319           31 
 1763000    0.5458145   -7.7811406    324.89566   0.01535714  0.014151234           14 
 1764000   0.55159421   -7.7956061    324.94204  0.015350626  0.014140167           17 
 1765000   0.54775963   -7.7846087    324.84468  0.015337331  0.014129113           12 
 1766000   0.54799759   -7.7839523    324.74355  0.015323875  0.014118077           32 
 1767000   0.54132969   -7.8059741    324.34275    0.0152963  0.014107042           23 
 1768000   0.53986388   -7.8014402    325.41664  0.015338265  0.014096012           23 
 1769000   0.53991604   -7.7971137    325.21302  0.015320003  0.014084995           28 
 1770000   0.53768601   -7.7825565    325.02916  0.015302691  0.014074005           20 
 1771000   0.54377943   -7.7988712    325.87496  0.015333849  0.014063022           14 
 1772000   0.53923486   -7.7966284    324.75766  0.015272651  0.014052044           23 
 1773000   0.54229779   -7.7836813    324.98191  0.015274578  0.014041071           24 
 1774000   0.54598592   -7.7945863      325.245  0.015278326   0.01403009           16 
 1775000   0.55410013   -7.8067387    324.92252  0.015254578  0.014019131           19 
 1776000   0.54945484   -7.7922768    324.32597  0.015217998  0.014008179           21 
 1777000   0.55390509   -7.8086964    325.06114   0.01524391  0.013997215           23 
 1778000   0.55442344   -7.7955391    324.87057  0.015226405  0.013986261           27 
 1779000    0.5537742   -7.7865487    324.85799  0.015217256  0.013975318           13 
 1780000      0.53221   -7.8083825    324.73059  0.015202743  0.013964372           30 
 1781000   0.54264965   -7.7990766    323.97465  0.015158836  0.013953444           20 
 1782000   0.54550681   -7.8065359     324.8221   0.01518996  0.013942542           24 
 1783000   0.53989629   -7.8104464    325.06853  0.015192958  0.013931624           23 
 1784000   0.53270029   -7.7829274    324.69288  0.015166895   0.01392073           16 
 1785000   0.53802496   -7.7825025    324.56345  0.015152355  0.013909855           18 
 1786000    0.5398425   -7.8005577    325.39771  0.015182797  0.013898978           16 
 1787000   0.53601347   -7.7919998    325.02944  0.015157128  0.013888096           27 
 1788000   0.53878128   -7.8112532    325.05103  0.015149657  0.013877232           35 
 1789000   0.54568573   -7.8031598    325.19239  0.015147773  0.013866381           12 
 1790000   0.53971213   -7.8138303    324.16995  0.015091711  0.013855534           17 
 1791000   0.53288865   -7.8220366    325.20005  0.015131214  0.013844707           28 
 1792000   0.52954974   -7.8112379      325.205     0.015123  0.013833871           33 
 1793000   0.53812971   -7.8269314    324.35434   0.01507503  0.013823053           15 
 1794000   0.51770443   -7.8197717    324.63641  0.015079729   0.01381225           14 
 1795000   0.54511957   -7.8191011    324.53918  0.015066814  0.013801461           21 
 1796000    0.5492791   -7.8094387    325.12038  0.015085392  0.013790686           25 
 1797000   0.54073636   -7.8175334    324.20774  0.015034676  0.013779916           21 
 1798000   0.53430643   -7.8296222    324.30515  0.015030828  0.013769157           20 
 1799000   0.52776474   -7.8032709    324.20386  0.015017781  0.013758408           13 
 1800000   0.53104269   -7.8185379    325.20204   0.01505565  0.013747661           12 
 1801000    0.5383439   -7.8162861    324.69271  0.015023723  0.013736924           19 
 1802000   0.53300851   -7.8229724    324.75062  0.015018064  0.013726202           21 
 1803000   0.53393626   -7.8126528    324.44123  0.014995435  0.013715485           20 
 1804000    0.5328506     -7.81167    324.74708  0.015001251  0.013704769           23 
 1805000   0.53848213   -7.8154524    324.47853  0.014980541   0.01369406           33 
 1806000   0.53805027    -7.820839    324.71705  0.014983252  0.013683355           15 
 1807000   0.54838674   -7.8126252    324.62169  0.014970563  0.013672674           21 
 1808000   0.53381724    -7.819769    324.76638  0.014968952  0.013662011           22 
 1809000   0.53527408   -7.8268751     324.6807   0.01495673  0.013651331           24 
 1810000   0.53698696   -7.8214161    324.00985  0.014917581  0.013640649           35 
 1811000    0.5251114   -7.8243161    324.47494  0.014930744  0.013629985           49 
 1812000   0.52665677   -7.8120612    324.76265  0.014935736  0.013619341           28 
 1813000   0.52450193   -7.8345504    324.69836  0.014924543  0.013608714           57 
 1814000   0.53131831   -7.8181798    324.87201  0.014924293  0.013598101           37 
 1815000   0.52000692   -7.8090988    324.35369  0.014892272  0.013587501           24 
 1816000   0.51338084   -7.8364705    324.73801  0.014901708  0.013576904           15 
 1817000   0.52382162   -7.8174475     324.3017  0.014873496  0.013566307           49 
 1818000   0.52491072   -7.8207823     324.8234  0.014889228  0.013555725           55 
 1819000   0.53264091   -7.8138698    324.62467  0.014871938  0.013545157           15 
 1820000   0.51932773   -7.8289813    324.69622  0.014867043  0.013534592           41 
 1821000    0.5116188   -7.8381863     324.4413  0.014847213  0.013524042           22 
 1822000   0.52100805   -7.8234952    324.76971  0.014854085  0.013513482           19 
 1823000    0.5394786    -7.823419    324.40768  0.014829387   0.01350295           36 
 1824000   0.52572259   -7.8314697    324.57172  0.014828752  0.013492415           40 
 1825000    0.5233283   -7.8104614    325.16655  0.014847788  0.013481911           33 
 1826000    0.5318775    -7.819548    324.63483   0.01481539  0.013471418           50 
 1827000   0.52331019   -7.8232443    324.39513  0.014796348  0.013460932           36 
 1828000   0.52219879    -7.824558    324.21608  0.014780091  0.013450454           19 
 1829000   0.53386747   -7.8349763    324.87339  0.014801959  0.013439981           20 
 1830000   0.51205156   -7.8199388    323.93662  0.014751212  0.013429509           17 
 1831000   0.52947536   -7.8253691    324.62029  0.014774271  0.013419047           18 
 1832000   0.52501144   -7.8267024    324.81787  0.014775194  0.013408598           19 
 1833000   0.52002647   -7.8109027    324.33914  0.014745369  0.013398161           23 
 1834000   0.51774889   -7.8241169    324.73649  0.014755384  0.013387722           40 
 1835000   0.51359068   -7.8271838    324.29813  0.014727435   0.01337728           22 
 1836000   0.52489995   -7.8318131    325.07307  0.014754587  0.013366847           30 
 1837000   0.52500513   -7.8269968    324.21123  0.014707459  0.013356423           29 
 1838000   0.52244042   -7.8467782     323.6189  0.014672602  0.013345999           28 
 1839000   0.51274477   -7.8413132    323.91824  0.014678188  0.013335576           38 
 1840000   0.51233419   -7.8385851    324.56484  0.014699495  0.013325151           30 
 1841000   0.51762059   -7.8283439     324.0648  0.014668875  0.013314743           17 
 1842000   0.52734017   -7.8495505      323.829  0.014650244  0.013304358           20 
 1843000   0.51471859   -7.8237706    323.98288  0.014649253  0.013293976           52 
 1844000   0.50389054   -7.8487915    323.93716  0.014639243  0.013283615           40 
 1845000    0.5121994   -7.8345192    324.08128  0.014637818  0.013273254           53 
 1846000   0.51950269   -7.8309448    324.02355  0.014627282  0.013262891           26 
 1847000   0.51693066   -7.8459588     323.7855  0.014608622  0.013252535           40 
 1848000   0.52609284   -7.8588272    324.08747  0.014614334  0.013242207           56 
 1849000   0.50354773   -7.8199523    323.99419  0.014602226  0.013231883           49 
 1850000   0.51691699   -7.8462664    323.80804  0.014585948  0.013221563           71 
 1851000   0.50410925   -7.8569707    323.80081  0.014577742  0.013211247           44 
 1852000   0.53099566   -7.8461361    324.34582  0.014594394  0.013200946           20 
 1853000   0.51589281   -7.8492446    323.98524  0.014570302  0.013190652           42 
 1854000   0.51686337   -7.8456237    324.28356  0.014575852  0.013180358           38 
 1855000    0.5031916   -7.8410416    323.85778  0.014548867   0.01317008           16 
 1856000   0.51039597   -7.8536233     324.3389   0.01456263  0.013159806           49 
 1857000    0.5169046   -7.8571377    323.69481  0.014525885  0.013149546           30 
 1858000    0.5088614   -7.8375835    323.86757  0.014525815  0.013139293           64 
 1859000   0.51284295   -7.8530827    324.01046  0.014524407  0.013129053           24 
 1860000   0.52053072   -7.8540649    324.02699  0.014517338  0.013118825           21 
 1861000   0.52124972   -7.8389525      323.896  0.014503672    0.0131086           21 
 1862000   0.50251216    -7.838591    324.27572  0.014512877  0.013098389           46 
 1863000   0.50404492   -7.8542458    323.72623  0.014480508  0.013088169           45 
 1864000   0.51993479   -7.8560688    323.88701  0.014479927  0.013077966           32 
 1865000   0.50937927   -7.8398961    324.04297  0.014479132   0.01306777           23 
 1866000   0.51295713   -7.8781647    324.16821  0.014476966  0.013057581           16 
 1867000   0.51260206   -7.8674781    323.04737  0.014419183  0.013047388           21 
 1868000   0.51498147   -7.8573568    323.81609  0.014445757  0.013037212           50 
 1869000   0.50764774   -7.8775946    323.88375  0.014441045  0.013027045           21 
 1870000   0.52083593   -7.8648407    323.69715  0.014425007  0.013016896           45 
 1871000   0.50748384   -7.8602881    323.07501  0.014389587  0.013006754           26 
 1872000   0.51031891   -7.8612632    323.86614  0.014417118  0.012996623           21 
 1873000   0.50831457   -7.8472483    323.87887  0.014409987  0.012986507           33 
 1874000   0.49838735   -7.8610377    323.74968  0.014396553  0.012976407           20 
 1875000   0.50427447   -7.8471975    324.05291  0.014402351  0.012966293           20 
 1876000   0.50233628   -7.8605188     324.1314  0.014398161  0.012956177           58 
 1877000   0.51839239   -7.8522812    323.80434   0.01437597  0.012946079           48 
 1878000   0.50747089   -7.8692478    323.51774  0.014355597  0.012935993           25 
 1879000   0.51080921    -7.869742    323.82896   0.01436176  0.012925895           43 
 1880000   0.49714762   -7.8556325    324.19734   0.01437045  0.012915832           23 
 1881000   0.50519548   -7.8713705    323.69776  0.014340677  0.012905784           45 
 1882000   0.49951742   -7.8609521    323.89983  0.014342004  0.012895735           15 
 1883000   0.49636481   -7.8716824      323.615  0.014321783   0.01288569           25 
 1884000   0.49838647   -7.8704547     323.7921  0.014322014  0.012875662           33 
 1885000   0.49857183   -7.8754354    323.32023  0.014293556  0.012865631           19 
 1886000   0.50743626   -7.8753626    323.91881  0.014312425  0.012855616           12 
 1887000   0.50700132   -7.8655373    324.10247  0.014312951  0.012845624           21 
 1888000   0.49649504   -7.8589079    323.81231  0.014292563  0.012835625           15 
 1889000   0.49657887   -7.8637587    323.81383  0.014285064  0.012825627           14 
 1890000   0.50805529   -7.8713974     324.0482   0.01428784  0.012815643           23 
 1891000   0.48954618   -7.8629179    323.56232  0.014258872  0.012805674           17 
 1892000   0.49714884   -7.8806895    323.70137   0.01425746  0.012795712           20 
 1893000   0.49419317   -7.8795156    323.50413  0.014241245  0.012785751           16 
 1894000   0.50428411   -7.8769899    323.37178  0.014227903  0.012775793           45 
 1895000   0.48287775   -7.8811357    323.63017  0.014231758  0.012765847           14 
 1896000   0.49901749   -7.8751741    323.54598  0.014220551  0.012755904           19 
 1897000   0.49120532   -7.8830692    323.56276  0.014213792  0.012745973           24 
 1898000    0.4899157   -7.8820198    323.66444  0.014210768  0.012736069           16 
 1899000   0.50131672   -7.8796726     323.2625  0.014185646  0.012726155           16 
 1900000   0.47626773   -7.8811521    323.76757  0.014200332   0.01271626           14 
 1901000   0.49737123   -7.8821912    323.85441  0.014196669   0.01270636           18 
 1902000   0.50212529   -7.8782015    323.30193  0.014164999  0.012696476           33 
 1903000   0.49397306   -7.8860624    323.58818   0.01417009  0.012686607           27 
 1904000   0.49432808   -7.8734252    323.02929  0.014138187  0.012676728           25 
 1905000   0.48888282    -7.887469    323.26586  0.014141114  0.012666866           47 
 1906000   0.49420045   -7.8820029    323.00973  0.014122496  0.012657014           50 
 1907000   0.48801272   -7.8793077    323.79529  0.014149418  0.012647169           21 
 1908000   0.48670604   -7.8683768    323.42519  0.014125838   0.01263734           21 
 1909000   0.51117826   -7.8852872    323.44361  0.014119243  0.012627514           59 
 1910000   0.49395093   -7.8774391    323.53802   0.01411597  0.012617694           37 
 1911000   0.49548118   -7.8882425    323.18375  0.014093134  0.012607884           34 
 1912000   0.47864135   -7.9086224    323.21761  0.014087239  0.012598087           12 
 1913000   0.47902732   -7.8913348    323.28383  0.014082759  0.012588294           24 
 1914000   0.49288368   -7.8841495    323.11923  0.014068235  0.012578497           27 
 1915000   0.49192307   -7.8912263    323.59926  0.014081778   0.01256873           39 
 1916000   0.48412214   -7.8804634    323.55859   0.01407266  0.012558965           27 
 1917000   0.48473096   -7.8841125    322.97996  0.014040165  0.012549206           16 
 1918000   0.50744186      -7.8983    322.62066  0.014017234  0.012539456           38 
 1919000   0.47626101   -7.8890574     323.2065   0.01403537   0.01252971           39 
 1920000   0.48121215   -7.8888751    323.64207  0.014046965  0.012519976           18 
 1921000    0.4879456    -7.887835    323.52165  0.014034429  0.012510245           22 
 1922000   0.47949054   -7.8828538    322.83851  0.013997507  0.012500527           41 
 1923000   0.48571564   -7.9035826    323.27068  0.014008956  0.012490815           18 
 1924000    0.4839564   -7.9015474    323.46298  0.014010004  0.012481113           26 
 1925000   0.49410286   -7.8971453    323.05928   0.01398525  0.012471411           38 
 1926000   0.48118928    -7.907333    322.78083  0.013965941  0.012461715           19 
 1927000   0.47850701   -7.8953314    322.75064  0.013957388  0.012452025           44 
 1928000   0.48393947   -7.8924203    323.00108  0.013960974  0.012442349           23 
 1929000   0.47185731   -7.9066687    322.99455  0.013953454  0.012432682           40 
 1930000   0.49390993    -7.905251    323.32423  0.013960459  0.012423021           35 
 1931000   0.49241093   -7.9094307    322.59282  0.013921665  0.012413376           45 
 1932000   0.48355945   -7.8900979    323.38513  0.013948634  0.012403738           44 
 1933000   0.48304242   -7.9028077    323.13145  0.013930482  0.012394123           24 
 1934000   0.48790475   -7.8842514    322.65455   0.01390273  0.012384505           22 
 1935000   0.48372412   -7.8976481    322.91194   0.01390663   0.01237489           35 
 1936000   0.49394544   -7.8940884    323.31074  0.013916613  0.012365281           39 
 1937000   0.48025874   -7.8951107    322.71369  0.013883741  0.012355691           43 
 1938000    0.4829726   -7.9042771    323.13446   0.01389467  0.012346117           29 
 1939000    0.4722923   -7.9091559    322.81599  0.013873818  0.012336539           36 
 1940000   0.47563442   -7.8990657    322.90593   0.01387053  0.012326967           17 
 1941000   0.48121633    -7.901147    323.28396  0.013879614  0.012317415           20 
 1942000   0.48016931   -7.9218695    323.59908  0.013885989  0.012307868           18 
 1943000   0.48001622   -7.9169514    323.02873   0.01385438  0.012298323           29 
 1944000   0.47356875   -7.9146677    323.09911   0.01385027  0.012288786           23 
 1945000   0.48636178   -7.8933438    322.63716  0.013823357  0.012279268           47 
 1946000   0.47211207   -7.9113489    322.68568  0.013818332  0.012269752           24 
 1947000    0.4761682   -7.8955602    322.77958  0.013815254  0.012260245           20 
 1948000   0.47408377   -7.9203363    322.84964  0.013811159  0.012250748           23 
 1949000   0.46803167   -7.9036094    322.57273  0.013792232  0.012241255           38 
 1950000   0.47699678   -7.9260484    322.96693  0.013802006  0.012231773           21 
 1951000   0.47783766   -7.9092549    322.67784  0.013782583  0.012222309           54 
 1952000   0.46642393   -7.9176676    322.98148  0.013788485  0.012212846           23 
 1953000   0.47248805   -7.9343134    323.01782  0.013782976  0.012203391           18 
 1954000   0.46199128   -7.9096253    322.65268   0.01376035  0.012193951           43 
 1955000   0.47569276   -7.8970757    322.97664   0.01376712  0.012184524           21 
 1956000   0.47701533   -7.9171753    323.26912  0.013772542   0.01217511           16 
 1957000   0.48027508   -7.9079502    323.05741   0.01375649  0.012165708           38 
 1958000   0.47516536   -7.9038107    322.65188  0.013732205  0.012156308           13 
 1959000   0.47068601   -7.9223988    322.42632    0.0137156   0.01214691           22 
 1960000    0.4678541   -7.9010048    322.91165  0.013729237  0.012137524           31 
 1961000   0.46390393   -7.9142228    323.17327  0.013733353  0.012128145           23 
 1962000   0.46304254    -7.922102    322.81119  0.013710975   0.01211878           30 
 1963000   0.46632078   -7.9306631    322.45709  0.013688958  0.012109412           24 
 1964000   0.48087374   -7.9114976    323.25295  0.013715757  0.012100064           22 
 1965000   0.47449543   -7.9056575    322.30041   0.01366838   0.01209072           34 
 1966000   0.45803152   -7.9234369    323.01054  0.013691528    0.0120814           23 
 1967000   0.47955674   -7.9046361    322.99162  0.013683766  0.012072089           21 
 1968000   0.46612102   -7.9154114     323.1912  0.013685264  0.012062779           21 
 1969000   0.46965253   -7.9182626    323.17087  0.013677454  0.012053472           21 
 1970000   0.46411403   -7.9094628     322.1189  0.013626011  0.012044178           22 
 1971000   0.46300079   -7.9182633    322.81278  0.013648435  0.012034886           21 
 1972000   0.47124493   -7.9311881    322.63448  0.013633979  0.012025606           24 
 1973000    0.4709779   -7.9267078    322.82716  0.013635207  0.012016333           22 
 1974000   0.46443667   -7.9247965    322.71621  0.013623616  0.012007067           20 
 1975000   0.44992107   -7.9305657    322.75501  0.013618355  0.011997806           31 
 1976000   0.46107528   -7.9275012    322.77488  0.013612301  0.011988563           40 
 1977000   0.46590472   -7.9297864     322.5322  0.013595186  0.011979324           22 
 1978000   0.46229792   -7.9283354    322.87796   0.01360288  0.011970087           32 
 1979000   0.47069614    -7.935447    322.78956  0.013592284  0.011960854           20 
 1980000   0.46624107   -7.9287273    322.92724  0.013591214  0.011951639           16 
 1981000   0.45938583   -7.9383693    323.15152  0.013593788  0.011942432           18 
 1982000   0.45620347    -7.928369    322.88857  0.013575873  0.011933237           25 
 1983000   0.46353626   -7.9451338    322.75259  0.013563313  0.011924048           24 
 1984000   0.46057691   -7.9324874    322.58484  0.013549431  0.011914867           26 
 1985000   0.45677385   -7.9278916    322.19519  0.013526246  0.011905689           29 
 1986000   0.45876029   -7.9324737    322.94435   0.01355087  0.011896524           24 
 1987000   0.46262385    -7.931244    322.91218  0.013542702  0.011887366           17 
 1988000    0.4640567      -7.9035    322.74205  0.013528758  0.011878219           18 
 1989000   0.45727403   -7.9200168    322.65618  0.013518358  0.011869079           28 
 1990000   0.44890834   -7.9355156    322.64663  0.013511165  0.011859954           54 
 1991000   0.45085345   -7.9252073     322.7822  0.013510054  0.011850838           29 
 1992000   0.46227283   -7.9305067    322.62431  0.013496666  0.011841725           36 
 1993000   0.46441757   -7.9433895     322.6469  0.013490839  0.011832621           34 
 1994000   0.45569808   -7.9317884    322.70239  0.013486392  0.011823522           27 
 1995000   0.46595981   -7.9439815    322.55549  0.013473496  0.011814425           26 
 1996000    0.4565015   -7.9204419    322.22183  0.013452815   0.01180534           24 
 1997000   0.44967489   -7.9190263     322.4772  0.013456735  0.011796263           20 
 1998000   0.45154682   -7.9508346    322.32865  0.013443804  0.011787196           28 
 1999000   0.45697501   -7.9510563    322.58068  0.013447585   0.01177813           19 
 2000000   0.45581769   -7.9399736    321.76683  0.013406951  0.011769075           30 
 2001000   0.44933918   -7.9440654    322.32064  0.013423315  0.011760027           29 
 2002000   0.45276021   -7.9340218    322.56385  0.013426734  0.011750989           28 
 2003000    0.4558101   -7.9506525    322.64948  0.013423593  0.011741959           30 
 2004000   0.45970648   -7.9517379     322.9192  0.013428111  0.011732934           43 
 2005000   0.45172267   -7.9510718    322.44111  0.013401542  0.011723916           21 
 2006000   0.45980966   -7.9341419      322.782  0.013409023  0.011714916           27 
 2007000   0.45280256   -7.9424199    322.20654  0.013378448  0.011705923           25 
 2008000    0.4528112   -7.9525322    322.40303   0.01337994  0.011696933           23 
 2009000   0.45782895   -7.9402957    322.10736  0.013361016  0.011687954           28 
 2010000   0.44959895   -7.9445513    322.26183  0.013360772  0.011678983           21 
 2011000   0.45690371   -7.9603758    322.64325  0.013369934  0.011670018           27 
 2012000   0.45929943   -7.9565474    322.18875  0.013344464  0.011661064           28 
Loop time of 4418.12 on 48 procs for 2000000 steps with 4000 atoms

Performance: 78223.352 tau/day, 452.681 timesteps/s
99.4% CPU use with 48 MPI tasks x no OpenMP threads

MPI task timing breakdown:
Section |  min time  |  avg time  |  max time  |%varavg| %total
---------------------------------------------------------------
Pair    | 279.99     | 292.21     | 305.84     |  31.8 |  6.61
Neigh   | 28.196     | 28.87      | 29.938     |   5.5 |  0.65
Comm    | 254.41     | 268.56     | 284.8      |  39.7 |  6.08
Output  | 5.1091     | 5.1109     | 5.1457     |   0.2 |  0.12
Modify  | 3766.4     | 3776.6     | 3789.7     |   8.8 | 85.48
Other   |            | 46.75      |            |       |  1.06

Nlocal:        83.3333 ave          90 max          76 min
Histogram: 2 2 5 7 8 4 5 10 0 5
Nghost:        1860.77 ave        1878 max        1843 min
Histogram: 5 2 4 3 7 9 5 5 5 3
Neighs:        11576.0 ave       13102 max       10568 min
Histogram: 4 7 9 6 8 5 2 5 0 2
FullNghs:      23155.8 ave       25387 max       21167 min
Histogram: 3 9 3 7 5 3 6 6 3 3

Total # of neighbors = 1111478
Ave neighs/atom = 277.86950
Neighbor list builds = 107682
Dangerous builds = 0

#clear
#
#next RN
#
#jump SELF
Total wall time: 1:13:41
