
units lj                  # Use reduced LJ style units
atom_style atomic         # Uncharged point particles
atom_modify map hash      # Needed for indexing of clusters etc
                          # Used to be able to find where atoms are in relation to each other.

lattice fcc 1.0 spacing 1 1 1
Lattice spacing in x,y,z = 1.5874011 1.5874011 1.5874011
region box block 0 10 0 10 0 10 units lattice
create_box 2 box
Created orthogonal box = (0.0000000 0.0000000 0.0000000) to (15.874011 15.874011 15.874011)
  3 by 4 by 4 MPI processor grid
create_atoms 1 box
Created 4000 atoms
  using lattice units in orthogonal box = (0.0000000 0.0000000 0.0000000) to (15.874011 15.874011 15.874011)
  create_atoms CPU = 0.018 seconds
set type 1 type/fraction 2 0.45 78393
Setting atom values ...
  1799 settings made for type/fraction
mass 1 1.0
mass 2 1.0
pair_style lj/cut  3.5
pair_modify tail  yes
pair_coeff 1  1  1.0  1.0   # Intearaction between 1 and 1 set with epsilon = 1 and sigma = 1
pair_coeff 1  2  1.5  0.8
pair_coeff 2  2  0.5  0.88

write_data data.0
System init for write_data ...
Neighbor list info ...
  update every 1 steps, delay 10 steps, check yes
  max neighbors/atom: 2000, page size: 100000
  master list distance cutoff = 3.8
  ghost atom cutoff = 3.8
  binsize = 1.9, bins = 9 9 9
  1 neighbor lists, perpetual/occasional/extra = 1 0 0
  (1) pair lj/cut, perpetual
      attributes: half, newton on
      pair build: half/bin/atomonly/newton
      stencil: half/bin/3d
      bin: standard
WARNING: Not all mixed pair coeffs generated from mixing. Use write_data with 'pair ij' option to store all pair coeffs. (../write_data.cpp:312)


#############################
#   M E L T   S Y S T E M   #
#############################

velocity all create 2.4 5300450 mom yes dist gaussian # Assign velocities
                                                    # Temperature 2.4, random number seed, zero linear momentum
                                                                                # Gaussian distribution

timestep 0.002   # simulation timestep
thermo 1000       # output thermodynamic data every 1000 steps bf 100

# Define a fix  in this case with index 1 applied to all
# particles in the simulation. This fix is for simulations
# in the anisotropic NPT ensemble. Note that we use the MTK
# correction.
fix 1 all npt temp 2.4 2.4 0.1 iso 5.68 5.68 0.5 mtk yes tchain 5 pchain 5 # Use NPT ensemble
                                                                         # Set temperature and pressure and damping
                                                                         # Numbers of thermostats in chain and in barostat
run 10000          # run for 10000 steps
Per MPI rank memory allocation (min/avg/max) = 3.642 | 3.644 | 3.648 Mbytes
Step Temp E_pair E_mol TotEng Press Volume 
       0          2.4   -5.5879345            0   -1.9888345   -4.1997978         4000 
    1000    2.3885429   -4.9584536            0   -1.3765349    5.6326946    3819.7469 
    2000     2.446897   -5.0204552            0   -1.3510274    5.3412068    3797.7886 
    3000    2.4198365   -5.0274884            0   -1.3986411    6.0241447    3740.8048 
    4000    2.4015128   -4.9954042            0   -1.3940356    5.4752804     3798.294 
    5000    2.4106453   -4.9962391            0   -1.3811752    5.7425373    3787.9406 
    6000    2.4316652   -4.9795167            0   -1.3329307    5.9280468    3776.7377 
    7000    2.4282851   -5.0476345            0   -1.4061175    5.3813102    3791.1195 
    8000    2.4243934   -4.9683451            0   -1.3326641     5.765681    3788.3458 
    9000    2.3977848   -5.0097321            0   -1.4139541    5.6662616    3783.7692 
   10000    2.4221521   -4.9905401            0   -1.3582203    5.3214087    3815.5443 
Loop time of 2.52684 on 48 procs for 10000 steps with 4000 atoms

Performance: 683857.534 tau/day, 3957.509 timesteps/s
99.6% CPU use with 48 MPI tasks x no OpenMP threads

MPI task timing breakdown:
Section |  min time  |  avg time  |  max time  |%varavg| %total
---------------------------------------------------------------
Pair    | 1.1371     | 1.2099     | 1.2825     |   2.8 | 47.88
Neigh   | 0.21091    | 0.21768    | 0.22694    |   0.7 |  8.61
Comm    | 0.75498    | 0.84705    | 0.92222    |   3.7 | 33.52
Output  | 0.00024001 | 0.00024338 | 0.00029776 |   0.0 |  0.01
Modify  | 0.20528    | 0.23645    | 0.27174    |   4.4 |  9.36
Other   |            | 0.01556    |            |       |  0.62

Nlocal:        83.3333 ave          94 max          75 min
Histogram: 2 4 4 10 8 13 4 2 0 1
Nghost:        1698.46 ave        1729 max        1678 min
Histogram: 5 5 9 5 12 5 1 1 1 4
Neighs:        9993.46 ave       11104 max        8681 min
Histogram: 1 2 3 7 8 6 7 9 3 2

Total # of neighbors = 479686
Ave neighs/atom = 119.92150
Neighbor list builds = 904
Dangerous builds = 183

# Equilibrate just above the melting temperature to avoid step fn in T

fix 1 all npt temp 1.25 1.25 0.1 iso 5.68 5.68 0.5 mtk yes tchain 5 pchain 5
run 2000
Per MPI rank memory allocation (min/avg/max) = 3.644 | 3.645 | 3.649 Mbytes
Step Temp E_pair E_mol TotEng Press Volume 
   10000    2.4221521   -4.9905401            0   -1.3582203    5.3214087    3815.5443 
   11000    1.2448903   -7.0328892            0   -5.1660206    5.9064888    2974.0623 
   12000     1.266311   -7.1622629            0   -5.2632713    5.2168439    2968.0507 
Loop time of 0.613096 on 48 procs for 2000 steps with 4000 atoms

Performance: 563696.662 tau/day, 3262.133 timesteps/s
99.7% CPU use with 48 MPI tasks x no OpenMP threads

MPI task timing breakdown:
Section |  min time  |  avg time  |  max time  |%varavg| %total
---------------------------------------------------------------
Pair    | 0.26233    | 0.30054    | 0.33558    |   2.5 | 49.02
Neigh   | 0.037983   | 0.041908   | 0.047251   |   0.8 |  6.84
Comm    | 0.18857    | 0.22387    | 0.26684    |   3.1 | 36.51
Output  | 4.8841e-05 | 5.0163e-05 | 6.4904e-05 |   0.0 |  0.01
Modify  | 0.037816   | 0.042109   | 0.046535   |   1.2 |  6.87
Other   |            | 0.004617   |            |       |  0.75

Nlocal:        83.3333 ave          92 max          75 min
Histogram: 1 3 6 7 11 6 5 5 3 1
Nghost:        2009.23 ave        2031 max        1982 min
Histogram: 1 2 6 5 7 9 2 6 5 5
Neighs:        12875.6 ave       14651 max       11436 min
Histogram: 2 7 3 11 5 8 7 1 0 4

Total # of neighbors = 618031
Ave neighs/atom = 154.50775
Neighbor list builds = 143
Dangerous builds = 13

#############################
# L I N E A R  Q U E N C H  #
#############################

# Define solid atoms. This closely follows ten Wolde  Ruiz-Montero and Frenkel  Faraday Discuss  1996  104  93-110
# Compute components of the per-atom q6 vector
compute q6 all orientorder/atom degrees 1 6 components 6 nnn NULL cutoff 1.3 # compute the Q6 parameter.
                                                                             # Use all neighbours within 1.3 unit cell.

# get number of connections
compute coord_number all coord/atom orientorder q6 0.5

# An atom is solid if it has 8 or more connections (of a possible 14)
variable is_solid atom c_coord_number>=8
group solid dynamic all var is_solid    # Must be dynamic to update
dynamic group solid defined

# do clustering
compute cluster solid cluster/atom 1.3 # Create a cluster where all atoms within are solid and max 1.3 units from another member

# define chunks one chunk per cluster
compute clus_chunks solid chunk/atom c_cluster nchunk every compress yes  # Says which atoms are in which chunk

# count the size of each chunk
compute size_chunks solid property/chunk clus_chunks count


# Find the maximum entry in the vector of chunk sizes
variable max_n equal max(c_size_chunks)


# Thermo style which includes this variable
# thermo_style custom step temp pe vol v_max_n

thermo ${N}  # Print the thermo information every 100 steps
thermo 1000  

# Reset the npt fix at a lower temperature (below freezing)
fix 1  all npt temp  ${temp} ${temp}  0.1  iso  5.68  5.68  0.5  mtk yes tchain  5  pchain  5
fix 1  all npt temp  0.45 ${temp}  0.1  iso  5.68  5.68  0.5  mtk yes tchain  5  pchain  5
fix 1  all npt temp  0.45 0.45  0.1  iso  5.68  5.68  0.5  mtk yes tchain  5  pchain  5

dump dmp2 all dcd ${N} traj.dcd
dump dmp2 all dcd 1000 traj.dcd


compute msd all msd com yes
variable twopoint equal c_msd[4]/6/(step*dt+1.0e-6)
fix 9 all vector 10 c_msd[4]
variable fit equal slope(f_9)/6/(10*dt)
thermo_style custom step temp pe c_msd[4] v_twopoint v_fit v_max_n

fix 1 all npt temp 1.25 ${temp} 0.1 iso 5.68 5.68 0.5 mtk yes tchain 5 pchain 5
fix 1 all npt temp 1.25 0.45 0.1 iso 5.68 5.68 0.5 mtk yes tchain 5 pchain 5
run 5000000 # 5000000  # Run for this many steps
Neighbor list info ...
  update every 1 steps, delay 10 steps, check yes
  max neighbors/atom: 2000, page size: 100000
  master list distance cutoff = 3.8
  ghost atom cutoff = 3.8
  binsize = 1.9, bins = 8 8 8
  4 neighbor lists, perpetual/occasional/extra = 1 3 0
  (1) pair lj/cut, perpetual
      attributes: half, newton on
      pair build: half/bin/atomonly/newton
      stencil: half/bin/3d
      bin: standard
  (2) compute orientorder/atom, occasional
      attributes: full, newton on
      pair build: full/bin/atomonly
      stencil: full/bin/3d
      bin: standard
  (3) compute coord/atom, occasional
      attributes: full, newton on
      pair build: full/bin/atomonly
      stencil: full/bin/3d
      bin: standard
  (4) compute cluster/atom, occasional
      attributes: full, newton on
      pair build: full/bin/atomonly
      stencil: full/bin/3d
      bin: standard
Per MPI rank memory allocation (min/avg/max) = 9.833 | 9.837 | 9.841 Mbytes
Step Temp PotEng c_msd[4] v_twopoint v_fit v_max_n 
   12000     1.266311   -7.1622629 4.0697334e-30 2.8262036e-32 8.3333333e+20            1 
   13000    1.2281969   -7.1443474   0.46225338 0.0029631626  0.037557272            2 
   14000    1.2682985   -7.1626816   0.82783393 0.0049275828  0.034076253            2 
   15000    1.2284462   -7.1381753    1.2302445 0.0068346915  0.033022155            2 
   16000    1.2542127   -7.1178415    1.6141532 0.0084070477  0.032599567            1 
   17000    1.2509852   -7.1257352    2.0427565  0.010013512   0.03283371            1 
   18000    1.2301592   -7.1220757    2.4121062  0.011167158  0.032908639            1 
   19000    1.2485169   -7.1837732    2.9062177  0.012746568  0.033301506            3 
   20000    1.2292817   -7.1439322    3.3485294  0.013952205  0.033907065            1 
   21000    1.2277237   -7.1545198      3.78289  0.015011468  0.034408612            1 
   22000    1.2439346   -7.1693619    4.1993981  0.015906811  0.034793874            2 
   23000     1.271062   -7.1659477    4.6368232  0.016800084  0.035021785            2 
   24000    1.2439033   -7.1399543    5.0703246  0.017605293  0.035119418            1 
   25000    1.2256161   -7.1017026    5.5095554  0.018365184  0.035138731            1 
   26000     1.252867   -7.1052847    6.0356291  0.019344965  0.035355298            1 
   27000    1.2802828   -7.1151146    6.4150493  0.019799535  0.035587486            2 
   28000    1.2304943   -7.1302451     6.806572  0.020257654  0.035616065            2 
   29000      1.27171   -7.1414622    7.1008399  0.020404712  0.035527517            1 
   30000    1.2869748     -7.17216    7.5916358  0.021087877  0.035414675            2 
   31000     1.233296   -7.1741008    8.0245929  0.021571486    0.0353631            1 
   32000    1.2544227   -7.1594937    8.4867608  0.022100939  0.035369726            1 
   33000     1.248142   -7.1581508    8.8769551  0.022416553  0.035331908            3 
   34000    1.2801325   -7.1730539    9.2765458  0.022736631  0.035319818            1 
   35000    1.2523369   -7.1743033    9.6991774  0.023093279  0.035312693            3 
   36000    1.2304098   -7.2450058    10.037596  0.023235176  0.035288263            2 
   37000    1.2148738   -7.1468704    10.523096  0.023700666  0.035266835            1 
   38000    1.2336399   -7.1394794    10.862964  0.023822288  0.035200599            1 
   39000    1.2499117   -7.1798604    11.218771  0.023971732   0.03513765            1 
   40000    1.2450588   -7.1350395    11.663008  0.024297932  0.035060639            1 
   41000    1.2386966    -7.213929    12.035643  0.024462688  0.034971711            2 
   42000    1.2635354   -7.1268797    12.368194  0.024540067  0.034849864            3 
   43000    1.2492119   -7.1642031    12.694918  0.024602555  0.034733245            1 
   44000    1.2449261    -7.161664    13.082236  0.024776962   0.03461115            2 
   45000    1.2532253   -7.1758257     13.48302  0.024968555  0.034485508            2 
   46000    1.2617997   -7.1764448    13.794612   0.02499024  0.034369205            1 
   47000    1.2821994   -7.1482717    14.303058  0.025360031  0.034257727            1 
   48000    1.2696748   -7.1390081    14.644442  0.025424379  0.034172476            3 
   49000    1.2407169   -7.1004641    15.108858  0.025695336  0.034086116            3 
   50000    1.2723216   -7.1545932    15.328365  0.025547274  0.034005099            1 
   51000    1.2594734   -7.1407233    15.736036  0.025712477  0.033910901            2 
   52000    1.2641806   -7.1355333    16.167971   0.02591021  0.033820723            1 
   53000    1.2419711    -7.198609    16.547636  0.026018295  0.033749439            1 
   54000    1.2295398   -7.0728136    17.057715  0.026323633  0.033698425            2 
   55000    1.2307657   -7.1249031    17.537214  0.026571536  0.033663307            1 
   56000    1.2537491   -7.1607532    17.937874  0.026693265  0.033661305            2 
   57000    1.2016813   -7.1847965    18.430303  0.026944888  0.033660313            2 
   58000    1.2652135   -7.1554643    18.808696  0.027023989  0.033672523            1 
   59000     1.257188   -7.1419794    19.199569  0.027118036  0.033680647            1 
   60000    1.2286469   -7.1752285    19.586228  0.027203095  0.033687216            3 
   61000    1.2434315    -7.140863    20.091896  0.027447945  0.033702609            1 
   62000    1.2384869   -7.1555429    20.359803  0.027365326  0.033699358            1 
   63000    1.2359547   -7.1576519     20.58228  0.027225238  0.033674003            2 
   64000     1.238584   -7.1279369    21.197216  0.027600542  0.033663162            1 
   65000    1.2322103   -7.1755061    21.502021  0.027566693   0.03364835            1 
   66000    1.2152899   -7.1476524    21.968377  0.027737849   0.03363644            1 
   67000    1.2298656   -7.1792068    22.268531  0.027697178  0.033623994            1 
   68000    1.2341435    -7.182216    22.777403  0.027913484  0.033619329            2 
   69000    1.2173491   -7.1423899    23.270327  0.028104259  0.033621732            1 
   70000     1.255084   -7.1742647    23.592601  0.028086429  0.033622532            2 
   71000    1.2380962   -7.1401796     23.88678  0.028036126  0.033614308            1 
   72000    1.2452952   -7.1174823    24.445344  0.028293222  0.033608313            2 
   73000    1.2305912   -7.1519173    24.833666  0.028348933   0.03360505            2 
   74000    1.2628937   -7.1586079    25.125666  0.028294669  0.033598659            1 
   75000     1.201001   -7.1649399    25.530471  0.028367189  0.033584098            2 
   76000    1.2337905   -7.1952623    25.902442    0.0284018  0.033576476            1 
   77000    1.2258543   -7.1483543    26.498925   0.02867849  0.033581071            2 
   78000    1.2555719   -7.1770135     26.95439  0.028797425  0.033592224            2 
   79000    1.2456486   -7.1934627    27.146385  0.028635427  0.033592687            2 
   80000    1.2292048   -7.1720839    27.789321  0.028947209  0.033596238            1 
   81000    1.2284959   -7.2153357      28.0893  0.028898456  0.033607957            2 
   82000    1.2586935   -7.1834902    28.534249   0.02899822   0.03362013            2 
   83000    1.2343811   -7.1731791    28.855693  0.028971579  0.033620309            1 
   84000    1.2203978   -7.1582424     29.05224  0.028821666  0.033613524            1 
   85000    1.2114938   -7.1732526    29.491191  0.028912932  0.033602867            2 
   86000    1.2264992   -7.2208406    29.954084  0.029025275  0.033595917            2 
   87000    1.2467691   -7.1727546    30.330257   0.02905197  0.033582051            3 
   88000     1.231138   -7.1983609     30.46565  0.028850047  0.033571203            2 
   89000    1.2326175   -7.1456395    31.082944   0.02910388   0.03356197            2 
   90000    1.2581504   -7.1811574      31.3793  0.029054908  0.033552451            1 
   91000    1.2503146   -7.1460724    31.827588  0.029146143  0.033535612            1 
   92000    1.2415775    -7.145047     32.27097  0.029230951   0.03351933            1 
   93000    1.2124861   -7.1811987    32.669265  0.029273535  0.033505114            3 
   94000    1.2657887    -7.145402     33.01769  0.029271002  0.033492914            2 
   95000    1.2171905   -7.1997988    33.594491  0.029468851  0.033492496            3 
   96000    1.2218671   -7.1735986    34.070644  0.029575212  0.033499752            3 
   97000    1.2476859   -7.1814341     34.54475   0.02967762  0.033518122            1 
   98000    1.2213858   -7.1171323    35.066035  0.029818057  0.033534683            1 
   99000    1.2335845   -7.1339139     35.35538   0.02976042   0.03354045            1 
  100000    1.2388587    -7.174121    35.772869  0.029810724   0.03354833            2 
  101000    1.2494959    -7.199838     36.13538   0.02981467   0.03355228            1 
  102000    1.2476587   -7.1518927    36.550021  0.029861128  0.033564065            1 
  103000    1.2396481   -7.1889795    37.021096  0.029952343  0.033574918            1 
  104000    1.2372491   -7.1731739    37.464382  0.030019536  0.033586432            1 
  105000    1.2312343   -7.1422105    37.828757  0.030022823   0.03359476            1 
  106000    1.2434809   -7.2435879    38.093655  0.029947842  0.033597476            2 
  107000    1.2615055   -7.1566699    38.625571   0.03008222  0.033600669            1 
  108000    1.2199967   -7.1926837     39.16485  0.030219791  0.033612101            2 
  109000    1.2504764   -7.1993916    39.402759  0.030124433  0.033623494            1 
  110000    1.2305864   -7.1622625    39.867681  0.030202789  0.033633702            2 
  111000     1.219332   -7.1990971    40.401161  0.030331202  0.033643668            2 
  112000    1.2536683   -7.1346198    40.951712  0.030470024  0.033658757            1 
  113000    1.2395028   -7.1939339    41.351082  0.030494898  0.033675963            1 
  114000    1.2298463    -7.200621    41.464516  0.030310319   0.03368832            2 
  115000    1.2355923   -7.1862408    42.172675  0.030559909  0.033698683            1 
  116000    1.2173597   -7.1668679    42.566044  0.030579055  0.033716351            3 
  117000    1.2327393   -7.1702813    42.959351  0.030597828  0.033729575            1 
  118000    1.2124704   -7.1437433    43.465685  0.030696105   0.03374598            2 
  119000    1.2084413   -7.1377449     43.83607  0.030697528  0.033759014            2 
  120000    1.2322752   -7.2211931    44.041748  0.030584547   0.03376892            1 
  121000    1.2439144   -7.1947255      44.5869  0.030707231  0.033777183            2 
  122000    1.2653941    -7.217478    44.769077   0.03057997  0.033781227            2 
  123000    1.2295963   -7.1921145    45.253015  0.030659224  0.033786012            4 
  124000    1.2441214   -7.2411684    45.537094  0.030602886  0.033790659            1 
  125000    1.2386695   -7.2210934    45.965294  0.030643529  0.033791835            2 
  126000    1.2242345   -7.1694918    46.256567  0.030592967  0.033793704            1 
  127000    1.2237241   -7.1615836    46.644171  0.030606411  0.033786714            2 
  128000    1.2694991   -7.1731183    46.807747  0.030473794  0.033779611            3 
  129000    1.2536167   -7.1844298    47.488593  0.030677386  0.033775839            2 
  130000    1.2315435   -7.1969963    47.834693  0.030663265  0.033767447            2 
  131000    1.2497514   -7.1698595    48.127898  0.030615711  0.033762803            6 
  132000    1.2067745   -7.1653289     48.68955  0.030738352  0.033757851            1 
  133000    1.2571387   -7.1325953    49.046719  0.030731027  0.033753346            1 
  134000    1.2156831   -7.2159492     49.04051  0.030497829  0.033743404            4 
  135000    1.2277652   -7.1717469    49.744944  0.030706755  0.033732744            1 
  136000      1.22105   -7.1938323    50.018546  0.030648619  0.033722898            1 
  137000    1.2144744   -7.2227065    50.569577  0.030760083  0.033714273            1 
  138000    1.2565865   -7.1700748    51.114345   0.03086615   0.03371052            3 
  139000    1.1881283   -7.1733457    51.498487  0.030874393  0.033707117            1 
  140000     1.247615   -7.1702785    51.963781  0.030930822  0.033702514            1 
  141000    1.2035338   -7.1758229     52.33579  0.030931318   0.03370137            1 
  142000    1.2232727   -7.1732168    52.491318  0.030804764  0.033697796            1 
  143000    1.2550487   -7.2400758    52.859784   0.03080407   0.03369555            1 
  144000    1.2304804   -7.1966023    53.567378   0.03099964  0.033691246            2 
  145000    1.2233846   -7.2173439     53.79299  0.030915511   0.03368982            3 
  146000    1.2285281   -7.1903595    54.310423    0.0309991  0.033692031            3 
  147000    1.2420012   -7.2048371    54.777188  0.031052828  0.033692585            5 
  148000    1.2297055   -7.2378459     54.93786   0.03093348  0.033691194            4 
  149000    1.2156788   -7.2011289    55.479906   0.03102903    0.0336921            2 
  150000    1.2221172   -7.2266782    55.762084  0.030978935  0.033689559            2 
  151000    1.2403383   -7.1988111    56.082787  0.030950765  0.033682736            1 
  152000    1.2402181   -7.2269521    56.378592  0.030909316  0.033676091            4 
  153000     1.242409   -7.1965009    57.081518  0.031090152  0.033672862            2 
  154000    1.2269036   -7.1675447    57.412291  0.031067257  0.033671811            3 
  155000     1.223176   -7.2180994    57.949262  0.031155517  0.033671545            4 
  156000    1.2333087   -7.1916621    58.359229  0.031174802  0.033674231            1 
  157000    1.2181948   -7.2197479     58.80646   0.03121362  0.033676186            1 
  158000    1.2264813   -7.1862097    59.157589   0.03120126  0.033676424            2 
  159000    1.2229013   -7.2657347    59.598399  0.031236058  0.033678602            1 
  160000    1.2099465   -7.2055758    60.308581  0.031410719  0.033680921            3 
  161000    1.2262645   -7.1453706    60.545968  0.031338493  0.033684841            2 
  162000    1.2333457   -7.1433269    60.994384  0.031375712  0.033689878            1 
  163000    1.2158617   -7.2098593    61.330534  0.031355079  0.033692676            2 
  164000    1.1944489   -7.2246967    61.716958  0.031360243  0.033697427            4 
  165000     1.221682   -7.2287285    62.144904  0.031386315  0.033702225            2 
  166000    1.2405518   -7.2308052    62.494317  0.031372649  0.033705022            2 
  167000    1.2318823   -7.2027001    63.101632   0.03148784  0.033709326            3 
  168000    1.2122738   -7.2399322    63.363734  0.031430423  0.033713326            2 
  169000    1.2025609   -7.1948752    63.741904  0.031430919  0.033716064            4 
  170000    1.2364575   -7.2122953    64.243601  0.031491961  0.033723192            6 
  171000    1.2198346   -7.1842084    65.202633  0.031775162  0.033731524            2 
  172000    1.2361662   -7.2134561    65.043273  0.031513213  0.033741429            1 
  173000     1.214642   -7.2210612    65.390713  0.031498417  0.033747165            1 
  174000    1.2013399   -7.2516703    65.973456  0.031596483  0.033753216            2 
  175000     1.220517   -7.2114714    66.450738  0.031643209  0.033759585            1 
  176000    1.2466482   -7.1792734    67.122126   0.03178131   0.03376761            2 
  177000    1.1987797    -7.214156    67.455728  0.031758817  0.033777923            2 
  178000    1.2172054   -7.2303405    67.821323  0.031751556  0.033784287            2 
  179000    1.2126945   -7.1506723    68.091407   0.03169991  0.033790171            3 
  180000    1.2257389   -7.2333373    68.065902  0.031511992  0.033791251            1 
  181000    1.2243404   -7.2062501    68.524864  0.031549201  0.033789106            2 
  182000    1.2315668   -7.2119252       69.057  0.031619505  0.033790128            2 
  183000    1.2542503   -7.1832903     69.31116  0.031562459  0.033789553            1 
  184000    1.2478199   -7.1556299    70.067993  0.031733692   0.03378678            2 
  185000    1.2002719   -7.2154323    70.140459  0.031594801  0.033786107            2 
  186000    1.2316562   -7.1707361    70.612401   0.03163638   0.03378531            2 
  187000    1.2411501   -7.1626262    70.883324  0.031587934  0.033784278            1 
  188000    1.2273435   -7.2271894    71.228737  0.031573021  0.033780734            1 
  189000    1.2082734   -7.1979449    71.725291  0.031624908  0.033777479            1 
  190000    1.2042444   -7.2319668    72.152186  0.031645695  0.033776109            3 
  191000    1.2199606   -7.1649708    72.910743   0.03181097  0.033773092            3 
  192000    1.2113437   -7.1572556     73.35489   0.03183806  0.033772015            2 
  193000    1.2227233   -7.1963239    73.781344   0.03185723  0.033775601            2 
  194000    1.1967959   -7.2536017    73.951449  0.031766086  0.033778095            1 
  195000    1.2190192   -7.1912878    74.467403  0.031823677  0.033781128            2 
  196000    1.2142564   -7.1897197    74.810639  0.031807245   0.03378199            2 
  197000    1.2259728   -7.2385355    74.964696  0.031710954   0.03378232            2 
  198000    1.2044527   -7.1670107    75.724251  0.031870476   0.03378382            1 
  199000    1.1720784   -7.1933021    76.193858  0.031906976  0.033785557            4 
  200000    1.2213727   -7.2151852    76.926705  0.032052794  0.033787635            1 
  201000    1.2410385   -7.2425799    77.119846  0.031973402  0.033791183            1 
  202000    1.2242677   -7.2241141    77.264203  0.031874671  0.033793787            3 
  203000     1.235527   -7.2159553    77.595656  0.031853717  0.033795209            1 
  204000    1.2388673   -7.1921052    78.013993  0.031868461  0.033794425            1 
  205000    1.2289865   -7.2501159    78.041679   0.03172426  0.033792704            2 
  206000    1.2327908   -7.2146572    78.513703  0.031761207   0.03379097            1 
  207000    1.2230295   -7.2278454    79.037853  0.031818781  0.033789095            2 
  208000    1.2328586   -7.1796386     79.53671  0.031865669  0.033787266            1 
  209000    1.2062465   -7.2281943    79.866174  0.031844567  0.033784999            1 
  210000    1.2354532   -7.1950559    80.402592   0.03190579  0.033784222            1 
  211000    1.2489051   -7.2247409    80.877381  0.031942094  0.033781411            5 
  212000    1.2382801   -7.1723401    81.682095  0.032107742  0.033782345            2 
  213000    1.2001406    -7.274734    81.216794  0.031774958  0.033782565            4 
  214000    1.2265612   -7.2091538    81.724807  0.031824302  0.033782343            1 
  215000    1.1954731   -7.2210201    81.940271  0.031759795  0.033777721            2 
  216000     1.201269   -7.2270917    82.228291  0.031723878  0.033771975            1 
  217000    1.1986626   -7.2130382    82.915126  0.031841446  0.033767515            1 
  218000    1.2387614   -7.2184403    83.139028  0.031780974  0.033764377            2 
  219000    1.2188624   -7.2198443    83.893044  0.031922772  0.033761087            2 
  220000    1.2286518    -7.249874    84.020284  0.031825865  0.033756093            2 
  221000    1.2001388   -7.2393671    84.371479  0.031814283  0.033751314            2 
  222000    1.2206998   -7.2017525    84.492319  0.031716336  0.033744687            1 
  223000    1.2108873   -7.2004078    84.836803  0.031702841  0.033738296            3 
  224000    1.2140785   -7.1946603    85.134727  0.031672145  0.033728184            1 
  225000    1.2190979   -7.2347743    85.520542  0.031674275  0.033716934            2 
  226000    1.2521741   -7.1991553    85.849137  0.031655286   0.03370702            1 
  227000    1.2315788   -7.2012328    86.234965  0.031657476  0.033695616            3 
  228000    1.2162943   -7.2414105    85.897469  0.031395274  0.033681156            4 
  229000    1.2273205    -7.184034    86.631887  0.031525432  0.033665066            6 
  230000    1.2011075   -7.2439802    87.073428  0.031548343  0.033650251            3 
  231000    1.2016714   -7.2234797    87.367103  0.031517714  0.033636476            1 
  232000    1.2335895   -7.2296321    87.477957   0.03142168  0.033619861            2 
  233000    1.2128296   -7.2705967    87.918518  0.031444391  0.033604213            1 
  234000    1.2250713   -7.1991063    88.352457   0.03146455  0.033589269            2 
  235000    1.2209564   -7.2290353    88.913483  0.031529604  0.033575125            1 
  236000    1.2038773   -7.1907075    89.256144     0.031517  0.033561469            1 
  237000    1.2093163   -7.2186072    89.802775  0.031576222  0.033548746            1 
  238000    1.2229104   -7.2775729    90.104162  0.031549076  0.033536171            3 
  239000    1.2208257   -7.2645726    90.520881  0.031562371    0.0335265            2 
  240000    1.2230149   -7.2075481    90.920501  0.031569618  0.033516167            1 
  241000    1.2095469   -7.2068581    91.377971  0.031596809  0.033505467            1 
  242000    1.2192931   -7.2766537    91.399077  0.031473511  0.033493842            1 
  243000     1.221424   -7.2521324    92.205337  0.031620486  0.033483293            1 
  244000     1.242932     -7.25749    92.211571  0.031493023  0.033472542            2 
  245000    1.2094279    -7.201248    92.879003  0.031591497  0.033461735            3 
  246000    1.2227383   -7.2003195    93.293352  0.031603439   0.03345305            1 
  247000    1.1843688   -7.2023207    93.700613  0.031612892   0.03344443            8 
  248000    1.1898329   -7.2314032    94.188947  0.031649512  0.033436023            1 
  249000    1.2191128   -7.2329834    94.524037   0.03163455  0.033427336            2 
  250000    1.1885454   -7.2108911    95.152461  0.031717487  0.033419189            3 
  251000    1.1950137   -7.2198483     95.77283  0.031797088  0.033411626            1 
  252000     1.233906   -7.2608234    95.782025   0.03167395  0.033403013            1 
  253000    1.2215684   -7.2425048    96.143493  0.031667817  0.033395605            2 
  254000    1.1946498   -7.2208787    96.886971  0.031787064  0.033388748            2 
  255000    1.2100139   -7.2189338    96.985216  0.031694515  0.033381523            2 
  256000    1.1944625   -7.2277051    97.533876  0.031749309   0.03337473            2 
  257000    1.2053254   -7.1898061    98.108056  0.031811951  0.033367311            2 
  258000    1.2087731   -7.2071536    98.127804  0.031695027  0.033359371            2 
  259000    1.2133857   -7.1963868    98.490541  0.031689363  0.033351578            1 
  260000    1.2316952   -7.2270065    98.786137  0.031662223  0.033343329            2 
  261000    1.1971791   -7.2282644    98.800874  0.031545617  0.033335142            3 
  262000    1.2233777   -7.2379539    98.710852  0.031396581  0.033323936            2 
  263000    1.1883596   -7.2605005    99.701367  0.031591054  0.033314288            1 
  264000     1.211649   -7.2412796    100.17755  0.031621701  0.033304904            2 
  265000     1.218679   -7.2124957     100.8042  0.031699434  0.033296422            2 
  266000    1.2030658    -7.236644    100.82721   0.03158747  0.033288077            1 
  267000    1.2228875   -7.2339511    101.29903  0.031616428  0.033279141            2 
  268000    1.2072957   -7.2103604     101.9171  0.031690641  0.033271233            2 
  269000    1.1783076   -7.2365596    101.84395  0.031550171  0.033261824            1 
  270000    1.2222347   -7.1912774    102.62594  0.031674672  0.033252396            1 
  271000    1.2101879   -7.2589318    102.69736  0.031579754  0.033243022            3 
  272000    1.2050261   -7.2853076     102.5942  0.031432047  0.033232579            2 
  273000    1.1998871   -7.2858161    102.80374  0.031380874  0.033222842            3 
  274000    1.2081844   -7.2043301    103.60064  0.031508709   0.03321301            4 
  275000    1.2147809   -7.2655604    104.05817  0.031532778  0.033203725            1 
  276000    1.1984585   -7.2213829    104.20955  0.031464237  0.033192911            2 
  277000    1.2069246    -7.210927    104.55773  0.031455395  0.033181318            1 
  278000    1.2081392   -7.2328281    104.91744   0.03145007  0.033170671            1 
  279000    1.1972789   -7.2133369    105.21035  0.031424836  0.033158532            2 
  280000     1.211397   -7.2211758    105.75498  0.031474697  0.033147344            1 
  281000    1.1893709   -7.2898478    105.31959  0.031233566  0.033134633            3 
  282000    1.2290753   -7.2499401    106.08948  0.031350319  0.033120788            1 
  283000    1.2160788   -7.3176044    106.03458  0.031223375  0.033106319            3 
  284000    1.2039397   -7.2275939    106.52382  0.031256989  0.033091816            3 
  285000    1.1889072   -7.2911167    106.74374   0.03121162  0.033075513            1 
  286000    1.1984008   -7.2500211    107.62065  0.031357998  0.033060052            2 
  287000    1.2173028   -7.2338871    107.99707  0.031358034  0.033045444            3 
  288000    1.1931111   -7.2295224    107.91997  0.031226843  0.033030445            2 
  289000     1.226215      -7.2506    108.87417  0.031393937  0.033017271            1 
  290000     1.181521   -7.2548668     108.8364  0.031274828  0.033005072            1 
  291000    1.1979981   -7.2445992    109.57125  0.031377791  0.032992862            2 
  292000    1.2042886   -7.2465032    109.76334  0.031325153  0.032980286            1 
  293000    1.2408337   -7.2391808    109.55362  0.031158596  0.032966951            1 
  294000    1.2030856   -7.2365803    110.47176  0.031312858  0.032952951            3 
  295000    1.2218987   -7.2419971    110.04727    0.0310868  0.032937908            2 
  296000    1.2003259    -7.197627    110.70773  0.031167716  0.032921274            2 
  297000    1.1741126   -7.2152672    110.78732  0.031085106   0.03290379            2 
  298000    1.1910921   -7.2343899    110.85789  0.031000528  0.032885399            1 
  299000    1.1893167   -7.2562732    111.38127  0.031042718  0.032867359            1 
  300000    1.1760326   -7.2420264    111.80709  0.031057525  0.032848943            3 
  301000    1.2097965   -7.2533316    111.83364  0.030961693  0.032831617            2 
  302000       1.1965   -7.2907999    112.08724   0.03092915  0.032813851            3 
  303000    1.2251358   -7.2650247    112.62704  0.030975533  0.032796331            2 
  304000    1.2212944   -7.2703355    112.93909  0.030959181  0.032778651            2 
  305000    1.1913401    -7.265228    113.51708  0.031015596  0.032761528            3 
  306000    1.1934191   -7.2346778    113.64933  0.030950254  0.032744366            2 
  307000    1.2117735    -7.251218    114.08569  0.030967887  0.032726262            1 
  308000    1.2074685   -7.2419064     114.4041  0.030953489  0.032708677            2 
  309000    1.2277468   -7.2057816    115.55092    0.0311626  0.032693199            2 
  310000    1.1969151   -7.2692403    114.81775  0.030864987  0.032677015            2 
  311000    1.2021231   -7.2823562     115.1956  0.030866988   0.03266066            2 
  312000    1.1828136   -7.2408667    115.62303  0.030882219  0.032644695            1 
  313000    1.1787876   -7.2446298      115.944  0.030869011  0.032628521            1 
  314000    1.1827956   -7.2493168    116.59228  0.030942749  0.032611712            2 
  315000    1.2091684   -7.2477504    116.63517  0.030855865  0.032595529            1 
  316000    1.1961079   -7.2508475    117.47296  0.030979157  0.032579871            1 
  317000    1.2068303    -7.214298     117.7862  0.030963776  0.032564372            2 
  318000    1.2273119   -7.2513664    118.36543  0.031018194  0.032549183            2 
  319000    1.2013448    -7.244492    118.63508  0.030991399  0.032535116            1 
  320000    1.2088537    -7.232297    118.97128  0.030982104  0.032520926            1 
  321000    1.2124878   -7.2439344    119.33636  0.030980363  0.032506149            1 
  322000    1.2018874   -7.2237514    119.84205  0.031015024  0.032492129            1 
  323000    1.2162644   -7.2725153      119.827  0.030915119  0.032478497            1 
  324000    1.2081472   -7.2632203    120.25325  0.030929335  0.032465739            1 
  325000    1.1690091   -7.2442966    120.80944  0.030976779  0.032452382            1 
  326000    1.2263983   -7.2257441    121.40665  0.031034419  0.032438903            3 
  327000    1.2226259   -7.2711512    121.20619  0.030888428  0.032424853            2 
  328000    1.2043864   -7.2107924    122.00512  0.030997236  0.032411448            2 
  329000    1.2164349   -7.2451444    121.91638  0.030880543  0.032397234            2 
  330000    1.2123193   -7.2983743    121.82822  0.030764702  0.032382751            2 
  331000    1.2123323   -7.2504667    122.03446   0.03072368  0.032367886            1 
  332000    1.1729507    -7.272514    122.21052  0.030675332  0.032352181            2 
  333000    1.2032667   -7.2790158    122.63168  0.030688608  0.032335198            1 
  334000    1.2094139   -7.2927014    123.05093  0.030701329  0.032318011            1 
  335000    1.1931205   -7.2429427    123.64851  0.030758336  0.032302322            2 
  336000    1.1780665   -7.2769827    123.95704  0.030743313  0.032286148            4 
  337000    1.2137951   -7.2323126    124.72842  0.030842833  0.032271197            2 
  338000    1.2113229   -7.2418812    124.61671  0.030724042  0.032256349            5 
  339000    1.2134939   -7.2791662    124.96188  0.030718259  0.032239872            1 
  340000    1.1853607   -7.2908861    125.11059  0.030664359  0.032223401            2 
  341000    1.1867915    -7.214652    125.80735   0.03074471  0.032208623            1 
  342000    1.2030738   -7.2680591    125.48566  0.030576428  0.032193177            2 
  343000    1.2122631   -7.2718492    126.34599  0.030696304  0.032178134            2 
  344000     1.195494   -7.2380836    126.61681  0.030672677  0.032161896            1 
  345000    1.2021144   -7.2242165    127.21082   0.03072725  0.032146744            2 
  346000     1.187239   -7.2767654    126.91848  0.030568035  0.032131812            1 
  347000    1.1925779   -7.2562554    127.32062  0.030576518  0.032115006            1 
  348000     1.195071   -7.2886393    127.62704   0.03056203  0.032099051            2 
  349000    1.1964061   -7.2593929    128.19677    0.0306105  0.032082732            2 
  350000    1.1845782   -7.2734857    128.68172  0.030638506  0.032066768            1 
  351000    1.1809151   -7.2713728     128.7206  0.030560446  0.032050203            3 
  352000    1.1979109    -7.278271    129.11264  0.030566439  0.032035115            3 
  353000    1.2107884   -7.2423704    129.34853  0.030535535  0.032020145            1 
  354000    1.2069031   -7.2882155    130.08525  0.030622705  0.032004141            2 
  355000    1.2039707   -7.2180104    130.54061  0.030643336  0.031988866            1 
  356000    1.1624323    -7.249233     130.8251  0.030623853   0.03197439            3 
  357000    1.1858562   -7.3074996    130.27445  0.030409535  0.031958808            2 
  358000    1.1819614   -7.2744227    131.12633  0.030522889  0.031943007            4 
  359000    1.2076279   -7.2328641    131.80719  0.030595912  0.031928106            1 
  360000    1.2020515   -7.2796214    131.56297   0.03045439  0.031913235            1 
  361000     1.186719   -7.3249263     131.7803  0.030420199  0.031897826            1 
  362000    1.1758693   -7.2295546    132.64438  0.030535078  0.031883259            1 
  363000     1.203062   -7.2612036    133.15624  0.030568467  0.031870259            2 
  364000    1.2225276   -7.2796034    134.23845  0.030732245  0.031857828            3 
  365000    1.2111611   -7.2756986    134.14342  0.030626352  0.031846653            2 
  366000    1.1862977   -7.2945238    134.00122  0.030510297  0.031833886            4 
  367000     1.191726   -7.2960993    135.25012  0.030710745  0.031820671            1 
  368000    1.1953977   -7.3355976    134.78363  0.030521655  0.031808567            1 
  369000    1.1722939   -7.2542179     135.5651  0.030615425  0.031795538            2 
  370000    1.1927594   -7.2494032    135.83232  0.030592866   0.03178316            2 
  371000    1.2177632   -7.2784578    135.95515  0.030537993  0.031769923            1 
  372000    1.2142014   -7.2830598    136.37929  0.030550915   0.03175721            2 
  373000    1.1586694   -7.2798054    136.58007  0.030513868  0.031744786            2 
  374000    1.1812468   -7.2921149     137.2872  0.030589839  0.031731466            4 
  375000    1.2079039   -7.2979419    137.07152  0.030460337  0.031718332            2 
  376000    1.1745531   -7.2633442    137.58647  0.030493454  0.031705946            2 
  377000    1.1747847   -7.2980488    137.84115  0.030468865   0.03169385            2 
  378000    1.2052548   -7.2871608    138.47776  0.030528608  0.031681745            1 
  379000    1.1935092   -7.2719546    138.70011  0.030496945  0.031669327            1 
  380000    1.2031465     -7.27068    139.27732  0.030543272   0.03165692            1 
  381000    1.2067228   -7.3004539    139.31205  0.030470701  0.031644043            1 
  382000    1.1846467   -7.3174624    139.13891  0.030353165  0.031630905            2 
  383000    1.2105801   -7.2920971     140.0647  0.030475348  0.031618351            2 
  384000    1.1835699   -7.2621707    140.49845  0.030490114  0.031606655            1 
  385000    1.1910169    -7.327142    140.39729  0.030389025   0.03159436            2 
  386000     1.197285   -7.2621177    141.51222  0.030550997  0.031582551            4 
  387000    1.1887792    -7.276114    141.45137  0.030458951  0.031571747            4 
  388000    1.2173102   -7.3162296    141.83284  0.030462381  0.031560153            1 
  389000    1.2060878   -7.3057556    141.95849  0.030410988   0.03154885            1 
  390000    1.1717481   -7.2774788    142.62128  0.030474632  0.031537447            1 
  391000    1.1800413   -7.3256492    143.39687  0.030561993  0.031525577            1 
  392000    1.1807264   -7.2685538    143.72437  0.030553651  0.031514706            3 
  393000    1.1770858   -7.2683106      144.266  0.030590755  0.031504319            1 
  394000    1.1651676    -7.297657    144.06419  0.030470429  0.031494319            3 
  395000    1.1883034   -7.2906877    144.45592  0.030475933  0.031483577            1 
  396000    1.1904877   -7.3071858     144.3558  0.030377903  0.031472751            2 
  397000    1.1708606   -7.3435255     144.4516  0.030321495  0.031461248            2 
  398000    1.2186161   -7.2943371    145.06504  0.030373752  0.031449284            2 
  399000    1.2118793   -7.2995921    145.52001   0.03039265  0.031438186            3 
  400000    1.1971909   -7.2955608    145.66645  0.030347177  0.031426231            1 
  401000     1.163357   -7.3199618    146.09103  0.030359733  0.031414424            1 
  402000    1.2037736   -7.2708666     146.6839  0.030407111  0.031403603            3 
  403000    1.2023175   -7.3165655    146.30432  0.030253169  0.031391436            1 
  404000    1.1883007   -7.2794693    146.86735   0.03029442  0.031379659            1 
  405000    1.1729587   -7.3364879    146.98716  0.030244271  0.031367785            2 
  406000    1.1854449   -7.2579777    147.46469  0.030267794  0.031355018            2 
  407000    1.2202141   -7.3454404    147.42124  0.030184528  0.031341964            1 
  408000    1.1950879   -7.2806257    148.22403  0.030274517   0.03132958            4 
  409000    1.1889734   -7.3474972    147.83434  0.030121095  0.031316224            1 
  410000    1.1946363   -7.2596815    148.94994  0.030274377    0.0313032            4 
  411000    1.1952116   -7.2879492     149.0996  0.030231063  0.031290916            4 
  412000    1.1753662   -7.2899941    148.72228  0.030081367  0.031277969            2 
  413000    1.2093686   -7.2873527    149.95619  0.030257504  0.031265515            3 
  414000    1.1932405   -7.3028842    150.10387  0.030214145  0.031253326            1 
  415000    1.1882418   -7.2519219    150.68745  0.030258525  0.031241531            3 
  416000    1.2102198   -7.2494292    151.73136  0.030394904  0.031230711            1 
  417000    1.1800376   -7.3163705    150.97496  0.030170856  0.031220123            3 
  418000    1.1639792   -7.2767119    151.31237  0.030165943  0.031209077            3 
  419000    1.1986407    -7.292496    151.62555  0.030156235  0.031197908            3 
  420000    1.1952256    -7.294687     152.6021  0.030278195  0.031186359            2 
  421000    1.2005708   -7.3119479     152.8676  0.030258828  0.031175626            1 
  422000    1.1560108   -7.2858619    153.37525  0.030287371  0.031165303            1 
  423000    1.1749003   -7.2912761    153.34827  0.030210455  0.031155321            1 
  424000    1.2004371   -7.3101546    153.75653  0.030219444  0.031145445            1 
  425000     1.186461   -7.3284744    153.51121  0.030100237  0.031134356            7 
  426000    1.1892347   -7.3538111    153.57393  0.030041848  0.031122569            4 
  427000    1.1892352   -7.3153569    154.49264  0.030150789  0.031111413            1 
  428000    1.1830175    -7.299142    154.73375  0.030127287  0.031100071            2 
  429000    1.2041587   -7.3208892    155.19035  0.030145756  0.031089094            4 
  430000    1.2054373   -7.3304473    155.53699  0.030142828  0.031077839            1 
  431000    1.1781933   -7.2554235    155.90114  0.030143298  0.031066907            1 
  432000    1.1692461   -7.2977556    156.46194  0.030181701  0.031056145            2 
  433000    1.1801336   -7.3208298    156.69385   0.03015663  0.031045479            1 
  434000    1.1841776    -7.287763    157.16419  0.030177456  0.031035615            1 
  435000    1.1508304    -7.265828     157.6418  0.030199579   0.03102573            3 
  436000    1.1719026   -7.3103768    157.93205  0.030185788   0.03101581            1 
  437000    1.1835771   -7.3135592    157.92562  0.030115487  0.031005498            2 
  438000    1.2102314   -7.3223135    158.30566  0.030119037  0.030994737            1 
  439000    1.1755594   -7.2651805    158.88524  0.030160448  0.030983833            1 
  440000    1.1716737    -7.311608    159.58173  0.030223812  0.030973406            1 
  441000    1.2021451   -7.3280916    159.28255  0.030098743  0.030963773            1 
  442000    1.1991709    -7.337644    160.11139  0.030186914  0.030954432            1 
  443000    1.1831286   -7.2623925    160.03302  0.030104029  0.030945249            2 
  444000    1.1842031   -7.3361435    160.52177   0.03012796  0.030935647            3 
  445000    1.1937339   -7.3323846    160.88197   0.03012771  0.030926042            3 
  446000    1.1464392   -7.3038532    161.30924  0.030139992  0.030917412            1 
  447000    1.1676557   -7.2785658     162.2234   0.03024299  0.030909608            1 
  448000    1.1663302    -7.303489    161.96651  0.030127699  0.030901307            1 
  449000    1.1689754   -7.3199302    162.48116  0.030156117  0.030892371            5 
  450000    1.1912904   -7.3101536    163.07194  0.030198507  0.030884057            1 
  451000    1.1714007   -7.2844186    163.52447  0.030215165  0.030876252            4 
  452000    1.1845314   -7.3369119    163.12671  0.030074984  0.030868107            3 
  453000    1.1756094   -7.3025861    164.31271  0.030226768  0.030859748            4 
  454000    1.2051915   -7.2919633    164.45302  0.030185943  0.030851786            2 
  455000     1.196076   -7.2850799    164.80821  0.030184655  0.030843316            2 
  456000    1.1731555   -7.3232002    165.10678  0.030173023  0.030835063            2 
  457000    1.1739705   -7.2913974    164.81719  0.030054193  0.030826464            3 
  458000    1.1630064   -7.2976662    165.74266  0.030156961  0.030818309            2 
  459000    1.1830407     -7.27926    166.32843  0.030197608  0.030810694            3 
  460000    1.1782035   -7.3000683    166.13344  0.030096639  0.030802321            2 
  461000    1.1925517    -7.292049    166.35778  0.030071906   0.03079375            2 
  462000    1.1876652   -7.2931297     167.1519  0.030150055  0.030785296            1 
  463000    1.1746822   -7.3045017    167.50897  0.030149203  0.030777615            1 
  464000    1.1803855   -7.2951303    167.58125  0.030097207  0.030769341            1 
  465000    1.1798963   -7.2913855    167.58382  0.030032943  0.030760932            2 
  466000    1.1792858   -7.3114296    167.54841  0.029962163  0.030751954            1 
  467000    1.1839535   -7.3599343     167.8254  0.029947431  0.030742639            2 
  468000    1.1635291   -7.3317225    168.39606  0.029985053  0.030733168            2 
  469000    1.1972861   -7.3464962    168.63446  0.029963478  0.030724365            2 
  470000    1.1906381   -7.3268935    169.34957  0.030026519  0.030716045            1 
  471000     1.184935   -7.3270462    169.29288  0.029952739   0.03070756            2 
  472000    1.1717795   -7.3416115    169.96794  0.030008464  0.030698611            2 
  473000     1.166634   -7.3395861    170.49824   0.03003845  0.030690009            2 
  474000    1.1529351   -7.2976435    170.36829   0.02995223  0.030680762            4 
  475000     1.184393   -7.3476755    170.60795  0.029931219  0.030671714            1 
  476000     1.173787   -7.3366552    171.34321  0.029997061  0.030662576            2 
  477000    1.1863569   -7.3087835    171.72441   0.03000077  0.030653429            1 
  478000    1.1576898   -7.3236856    171.71161  0.029935776  0.030644825            2 
  479000    1.1612927   -7.2968913    172.68446  0.030042529  0.030636517            2 
  480000    1.1269999   -7.3159809    172.34121  0.029920348  0.030628785            1 
  481000    1.1462957   -7.3164164    173.29018  0.030022553   0.03062027            3 
  482000    1.1826396   -7.3374848    173.03936  0.029916901  0.030612388            1 
  483000    1.1823325    -7.336699    173.37237  0.029912417  0.030603207            2 
  484000    1.1790488   -7.3334426      173.153  0.029812844  0.030594113            2 
  485000    1.1723987   -7.3540307    173.36957  0.029788586   0.03058467            5 
  486000    1.2004567   -7.3398659    173.67231  0.029779202  0.030574713            5 
  487000    1.1842446   -7.3237183    174.03405  0.029779953    0.0305648            1 
  488000    1.1786786   -7.3161334      174.453  0.029790471  0.030554645            1 
  489000    1.1748744   -7.3235912    174.38997  0.029718809  0.030544195            1 
  490000    1.1723518   -7.3321075    174.88027  0.029741543  0.030533915            2 
  491000    1.1831907   -7.2924351    175.70801  0.029821455  0.030523629            2 
  492000     1.185708   -7.3715196    175.35936  0.029701788  0.030513551            1 
  493000    1.1759161   -7.3672576    175.84283  0.029723264  0.030503717            5 
  494000    1.1636363    -7.321095    176.94527  0.029849067  0.030494503            3 
  495000    1.1824659   -7.3616504    176.97554  0.029793861  0.030485634            1 
  496000    1.1839628   -7.2976187    177.90787  0.029890435  0.030476168            2 
  497000     1.174973   -7.3211954     177.4064  0.029746211  0.030466971            2 
  498000    1.1796307   -7.3405769    177.54184  0.029709144  0.030458004            3 
  499000    1.1687078   -7.3492728    178.47587   0.02980559  0.030449032            2 
  500000    1.1802433   -7.3543707     178.4817  0.029746949  0.030440515            1 
  501000    1.1598763   -7.3719427    179.31443  0.029826086  0.030432793            1 
  502000    1.1699171   -7.2981372    180.57889  0.029976575  0.030425325            2 
  503000    1.1589966   -7.3451879    180.26219  0.029864511  0.030417759            1 
  504000     1.174401   -7.3675919    180.32359  0.029815409  0.030410121            2 
  505000    1.1522265   -7.3091231    181.47523  0.029946408  0.030402097            1 
  506000    1.1769491   -7.3590728    181.13997  0.029832011  0.030394878            1 
  507000    1.1552903   -7.3402116    182.02548  0.029918718    0.0303876            1 
  508000    1.1780934   -7.3281813    182.62498  0.029958166  0.030381067            3 
  509000    1.1723046   -7.3496283    182.67135  0.029906901  0.030374614            2 
  510000    1.1530447   -7.3769163    182.85166  0.029877722  0.030368421            1 
  511000     1.147705   -7.3554271    184.59294  0.030103219  0.030362504            1 
  512000    1.1667614   -7.3509532    184.28763  0.029994731  0.030356937            3 
  513000    1.1689336   -7.3167038    184.98326  0.030049263  0.030352109            2 
  514000    1.1515257    -7.324253     185.1076   0.03001096  0.030346349            3 
  515000    1.1637894   -7.3510462     185.3853  0.029997622  0.030340727            2 
  516000    1.1489939   -7.3339025    185.59463  0.029973293  0.030335933            3 
  517000    1.1419503   -7.3974838    186.08729  0.029994727  0.030331233            3 
  518000     1.156873   -7.3423745    186.14958  0.029946844  0.030326697            1 
  519000    1.1599408   -7.3277532    185.84065   0.02983954  0.030322044            2 
  520000    1.1773874   -7.3268417    187.07345  0.029979719  0.030316544            2 
  521000    1.1522943   -7.2977305    187.09543  0.029925692  0.030310957            1 
  522000    1.1586385   -7.3399445    187.44025  0.029923412  0.030304961            2 
  523000    1.1645921   -7.3676134    187.30685  0.029844941  0.030298698            2 
  524000    1.1890178   -7.3189276    188.33167  0.029950966  0.030292876            2 
  525000     1.161649   -7.3303047    187.68194  0.029790784  0.030287028            2 
  526000     1.140623   -7.3274898    188.80509  0.029912086    0.0302809            1 
  527000    1.1789198   -7.3543925    188.24862  0.029767335  0.030274802            2 
  528000    1.1912448    -7.348302    189.06863  0.029840378  0.030268541            3 
  529000    1.1601701   -7.3308879    189.47506  0.029847993  0.030262473            2 
  530000     1.171066   -7.3597586    189.56896   0.02980644  0.030256194            2 
  531000    1.1839427   -7.3441939    190.15896    0.0298429   0.03024975            2 
  532000     1.157241   -7.3287958    190.21616  0.029795765  0.030243878            1 
  533000    1.1717277   -7.3162984    191.03514  0.029867908   0.03023823            1 
  534000    1.1512087   -7.3049339    191.25376  0.029846092  0.030232229            4 
  535000    1.1878299   -7.3485721    191.13507  0.029771817  0.030226312            1 
  536000    1.1645473   -7.3769277    191.48304  0.029770374  0.030220173            2 
  537000    1.1706535   -7.3722119    192.31361  0.029843825  0.030213947            1 
  538000    1.1687651   -7.3401624    191.95694  0.029733106  0.030207405            6 
  539000    1.1712885   -7.3466415    193.28871  0.029883845  0.030200734            5 
  540000    1.1467055   -7.3254201    193.01392  0.029786099  0.030194524            4 
  541000    1.1671916    -7.378516    192.28535  0.029618815  0.030188047            2 
  542000    1.1786941   -7.3794408     193.6617  0.029775785  0.030181394            3 
  543000    1.1471607   -7.3768476    194.06044  0.029782142  0.030174455            1 
  544000    1.1650024   -7.3843321    193.73299  0.029677235  0.030167283            2 
  545000     1.172849   -7.3599187     194.4586  0.029733731  0.030160361            4 
  546000    1.1616865   -7.3909219    193.98361  0.029606779  0.030153394            3 
  547000    1.1506733   -7.3208379    194.74487  0.029668627  0.030146273            1 
  548000    1.1407347    -7.340368    194.95664  0.029646691  0.030139348            2 
  549000    1.1705859   -7.3212139    195.80242  0.029721072  0.030132796            1 
  550000    1.1712186   -7.3289132    196.14742  0.029719307  0.030126125            2 
  551000     1.172956   -7.3348954    196.12933  0.029662633   0.03011896            2 
  552000    1.1669048   -7.3197716    196.41921  0.029652659  0.030112147            1 
  553000    1.1660502   -7.3776597    197.06509  0.029696366  0.030105684            1 
  554000    1.1447597   -7.3357066    197.80301  0.029753762  0.030098403            2 
  555000    1.1810132   -7.3374047    197.51303  0.029656611  0.030091092            4 
  556000    1.1666637   -7.3810281    197.57891  0.029613146  0.030084064            2 
  557000    1.1602989   -7.3370389    197.62564  0.029566972  0.030076608            2 
  558000    1.1805977    -7.367333    197.99256  0.029568782  0.030069423            3 
  559000    1.1600198   -7.2902628    198.70209  0.029621659  0.030062225            2 
  560000    1.1757717   -7.3588287    198.46938  0.029534134  0.030054281            6 
  561000    1.1423038   -7.3844884    198.35433  0.029464399  0.030046097            2 
  562000    1.1428703   -7.3628185     199.4692  0.029577283  0.030038033            1 
  563000    1.1536695   -7.3568691    200.01258  0.029605177  0.030030616            3 
  564000    1.1680372   -7.4113316    199.53028  0.029481425  0.030023122            1 
  565000    1.1535988   -7.3868697    200.14488  0.029519895  0.030015223            1 
  566000    1.1529477   -7.3868521    200.64264  0.029541025  0.030007623            3 
  567000    1.1595332   -7.4052652    199.86347  0.029374407   0.02999974            3 
  568000     1.140984   -7.3652589    201.39603  0.029547539  0.029991693            3 
  569000     1.158436   -7.3988488    200.93016  0.029427382  0.029983268            2 
  570000    1.1781442   -7.3318709    201.76654  0.029498033  0.029975586            2 
  571000    1.1619827   -7.3615928     201.3988  0.029392703  0.029967737            6 
  572000    1.1258222   -7.3468488    202.40336  0.029487668   0.02995999            2 
  573000    1.1510284   -7.3348113    202.82425  0.029497418  0.029952986            2 
  574000    1.1504451   -7.3891087    202.68346  0.029425589  0.029945257            2 
  575000    1.1399913   -7.3269452    203.74358  0.029528055  0.029938122            1 
  576000     1.155395   -7.3970075    203.20244  0.029398501  0.029930375            2 
  577000    1.1416515   -7.3974268    203.47635   0.02938711  0.029922374            1 
  578000    1.1538596   -7.3449215    204.07687  0.029422847  0.029914969            1 
  579000    1.1690077   -7.3224967    204.87566  0.029486998  0.029907911            1 
  580000     1.146513   -7.3519167    204.94634  0.029446313  0.029900515            2 
  581000    1.1528756   -7.3457403    204.98807  0.029401617  0.029893494            3 
  582000    1.1458975   -7.3702006    205.85727  0.029475553  0.029886645            1 
  583000    1.1594928   -7.2994577    206.28655  0.029486356  0.029879572            1 
  584000    1.1596316    -7.313206    206.28671  0.029435889  0.029872959            1 
  585000    1.1775404   -7.3913357     206.1083  0.029360157  0.029866096            4 
  586000    1.1349989    -7.373504    206.53972  0.029371405  0.029859276            1 
  587000    1.1662441   -7.3935877    206.82598  0.029362007  0.029852119            3 
  588000    1.1646499    -7.297463    207.70636  0.029436843  0.029845154            1 
  589000    1.1544892   -7.3796762    208.01187   0.02943009  0.029838562            2 
  590000    1.1433109   -7.4291474    207.62991  0.029326258  0.029831441            2 
  591000    1.1381313   -7.3121438     209.2858  0.029510124  0.029824456            2 
  592000    1.1618491   -7.3635946    208.40009  0.029335599   0.02981767            1 
  593000    1.1736408   -7.4020036    208.80067  0.029342421  0.029810839            2 
  594000    1.1743829   -7.3489739    209.95483  0.029454943  0.029803904            1 
  595000    1.1641748   -7.3862003    209.99314  0.029410804  0.029797436            3 
  596000    1.1494751   -7.4009075    209.71906  0.029323135  0.029790631            2 
  597000     1.152707   -7.3512007    211.08533   0.02946473  0.029784091            1 
  598000     1.128776   -7.3342883    211.58249   0.02948474  0.029777708            2 
  599000    1.1586392   -7.3825023    210.78301  0.029324292   0.02977102            1 
  600000    1.1477817   -7.3888993    211.24659  0.029339804  0.029763868            3 
  601000    1.1668345    -7.322159    212.14277  0.029415249  0.029757004            4 
  602000    1.1658231   -7.3635091    211.49426  0.029276614   0.02974939            2 
  603000    1.1789777   -7.3834817     211.8229  0.029273479  0.029741776            3 
  604000    1.1561687   -7.3531361    212.35696  0.029298698  0.029733657            1 
  605000    1.1595904   -7.3392175    212.05782  0.029209066  0.029725815            1 
  606000    1.1353599   -7.4028234    211.92699  0.029142875  0.029717557            4 
  607000    1.1422962   -7.4181632    212.01176  0.029106501  0.029709344            5 
  608000    1.1553038   -7.3827958    212.96463  0.029189231  0.029701268            3 
  609000    1.1428978    -7.350505    213.46315  0.029209517  0.029693569            2 
  610000    1.1488304   -7.3886999    213.42045    0.0291558  0.029685532            3 
  611000    1.1568276   -7.3975944    214.05132  0.029194124  0.029676999            3 
  612000    1.1658117   -7.4132717    213.69439   0.02909782  0.029668774            1 
  613000    1.1533952   -7.4339588    214.13363  0.029110064  0.029660719            5 
  614000    1.1274851   -7.3835591    214.61565  0.029128074   0.02965241            3 
  615000    1.1429943   -7.3761688    215.11701  0.029148647  0.029644199            2 
  616000    1.1649875   -7.3442249    215.64829  0.029173199  0.029636721            1 
  617000    1.1466662   -7.3490361    216.12359  0.029190112  0.029629328            2 
  618000    1.1493519     -7.37686    215.45434  0.029052635   0.02962199            2 
  619000    1.1498502   -7.3865768    216.01228  0.029080813   0.02961388            1 
  620000    1.1450487    -7.379349    216.11579  0.029047821  0.029605691            1 
  621000    1.1572148    -7.343409    217.01927  0.029122285  0.029597561            1 
  622000    1.1463587   -7.3867711    216.71974  0.029035335  0.029588997            1 
  623000    1.1424846   -7.3789433    217.42383   0.02908291  0.029580591            2 
  624000    1.1510536   -7.3920054    218.42053  0.029169408  0.029572348            1 
  625000    1.1427907   -7.4237775    217.75245   0.02903366  0.029564322            3 
  626000    1.1592612   -7.3624701    219.21918  0.029182532  0.029556867            1 
  627000    1.1450644   -7.4291325    219.05342  0.029113959  0.029549549            1 
  628000    1.1361825   -7.3897296    219.96815  0.029188979  0.029542371            1 
  629000    1.1405817   -7.3679687    219.87057  0.029129646  0.029535622            2 
  630000    1.1879926    -7.341128     219.8687  0.029083161  0.029528913            1 
  631000    1.1488088   -7.4257026    219.82786  0.029031677  0.029522091            1 
  632000    1.1703908   -7.4182593    220.18229  0.029032474  0.029514693            1 
  633000    1.1454994   -7.3672248    220.36994  0.029011314  0.029506971            2 
  634000    1.1179047   -7.3461146    221.36001   0.02909569  0.029498906            1 
  635000    1.1331544   -7.4072629     221.1214  0.029018557   0.02949085            2 
  636000    1.1537955   -7.4193757    221.08496  0.028968155  0.029482673            3 
  637000    1.1869521    -7.411564    221.04574  0.028917548  0.029473804            3 
  638000     1.148957   -7.4452164    220.37683  0.028784853  0.029464661            2 
  639000    1.1705661   -7.3920737    221.72962  0.028916226  0.029455763            1 
  640000    1.1474475   -7.4305325    222.30583  0.028946072  0.029447249            2 
  641000    1.1698464   -7.3403989    222.43268  0.028917405   0.02943893            1 
  642000    1.1260965   -7.4238998    223.21097  0.028973386  0.029431076            3 
  643000    1.1465029   -7.4278213    223.33096  0.028943878  0.029422956            1 
  644000    1.1413295   -7.4106066    223.43614  0.028912544  0.029414559            1 
  645000    1.1357761   -7.4417003    222.93448  0.028802905  0.029405999            4 
  646000    1.1349028   -7.3743319    224.20726  0.028922505  0.029397679            2 
  647000    1.1397947   -7.3697388    223.97707  0.028848154  0.029389357            3 
  648000    1.1392422   -7.4078083    223.64844  0.028761374  0.029380111            2 
  649000    1.1470924   -7.4366487    224.16807  0.028783779  0.029371055            3 
  650000    1.1356246   -7.3935483    225.04903   0.02885244  0.029362172            2 
  651000    1.1329272   -7.3919899     225.4076  0.028854019  0.029353478            2 
  652000    1.1545709    -7.388523     224.5136  0.028695501  0.029344569            2 
  653000    1.1522692   -7.3346265    225.81487   0.02881762  0.029335429            2 
  654000     1.148382   -7.3966142    225.20912  0.028696371  0.029326224            3 
  655000    1.1480327   -7.3775907    226.05559  0.028760253  0.029316737            2 
  656000    1.1352099   -7.3799774    225.57429   0.02865527  0.029307223            1 
  657000    1.1772692   -7.4328462    225.32326  0.028579815  0.029297567            4 
  658000    1.1406916    -7.402264    225.82596  0.028600046  0.029287582            2 
  659000    1.1470705   -7.4109602    226.43489  0.028633648  0.029277623            2 
  660000    1.1561858   -7.3769539    226.48764  0.028596925  0.029268024            2 
  661000    1.1415691   -7.3764119    227.18115  0.028641093  0.029258574            2 
  662000      1.12227   -7.4226688    226.73561  0.028541743  0.029248706            1 
  663000    1.1661384   -7.4353067    227.56214  0.028602582  0.029238665            5 
  664000    1.1441907   -7.4135034    227.45426  0.028545966  0.029228774            2 
  665000    1.1479176   -7.4099336    228.50131  0.028634249  0.029218847            1 
  666000    1.1442349   -7.3856861    228.99521  0.028653055  0.029209362            1 
  667000    1.1407489   -7.3831055    228.85036  0.028591999  0.029200073            3 
  668000    1.1384241   -7.4068173    229.49587  0.028629724  0.029190846            2 
  669000    1.1530454    -7.423778    229.55825    0.0285947  0.029181674            3 
  670000    1.1380951     -7.35054      230.462  0.028664428   0.02917257            1 
  671000    1.1609022   -7.3753911    230.36308  0.028609424  0.029163719            1 
  672000    1.1123361   -7.4215633    230.85414  0.028627746  0.029154509            2 
  673000    1.1662992   -7.4245017    230.17227  0.028500776  0.029145366       -1e+20 
  674000    1.1317316   -7.3791033    231.63943   0.02863989  0.029136043            2 
  675000    1.1454988    -7.393631    231.51757  0.028582417  0.029127155            3 
  676000    1.1395706   -7.3954682    232.00249  0.028599912  0.029118242            1 
  677000    1.1191048   -7.3882322    231.87369  0.028541813  0.029109038            1 
  678000    1.1484252   -7.3821799    232.19067  0.028538677  0.029099513            2 
  679000    1.1287576   -7.4380305    232.19588  0.028497285  0.029089895            2 
  680000    1.1503067   -7.4194384    232.19427   0.02845518  0.029080447            2 
  681000    1.1581335   -7.4345726    232.25035  0.028420258  0.029070952            1 
  682000    1.1374906    -7.390343    233.44181  0.028524171  0.029061188            2 
  683000    1.1439639   -7.4194675    233.58179  0.028499487  0.029051636            4 
  684000    1.1374359   -7.4316635    233.92199  0.028499267  0.029042049            1 
  685000     1.147616   -7.3997008    234.25214  0.028497827  0.029032695            2 
  686000    1.1305507   -7.3886222    234.42133  0.028476838  0.029023593            1 
  687000    1.1415396   -7.3590347    235.45375   0.02856062   0.02901411            1 
  688000    1.1600054   -7.3853366     235.5623  0.028532255  0.029004783            5 
  689000    1.1486276   -7.3871937    235.35815  0.028466152  0.028995701            1 
  690000    1.1575894   -7.3808984     236.1952   0.02852599  0.028986567            1 
  691000    1.1126462   -7.3788967    236.44047  0.028514287  0.028977494            6 
  692000    1.1258354   -7.4224833    236.81746  0.028518481  0.028968366            1 
  693000    1.1300376   -7.4221534    235.93396  0.028371087  0.028959603            2 
  694000     1.135537   -7.3720389    237.70044  0.028542319  0.028950924            2 
  695000    1.1298311   -7.4476683     236.7227  0.028384016  0.028942067            2 
  696000    1.1322024   -7.4240605    237.17954  0.028397934  0.028932794            4 
  697000    1.1291639   -7.4062738    237.98082  0.028452991  0.028923765            3 
  698000    1.1668559   -7.3786059    237.93911  0.028407248  0.028915097            1 
  699000    1.1338762   -7.4056895    238.31741  0.028411708  0.028906728            3 
  700000    1.1484738    -7.425065    239.25615  0.028482875  0.028898489            2 
  701000    1.1558166    -7.437496    239.48256  0.028469158  0.028889706            1 
  702000    1.1003694   -7.4246025    239.83391  0.028470312  0.028881122            1 
  703000    1.1430642   -7.4132798    240.28285  0.028483031  0.028872391            2 
  704000    1.1132163   -7.4043941    239.98664  0.028407509  0.028864301            4 
  705000    1.1267239   -7.4020021    240.79926  0.028463269  0.028856206            2 
  706000    1.1387895   -7.4193379    240.02209   0.02833122  0.028847821            2 
  707000    1.1196171   -7.4079776    240.71498  0.028372817  0.028839317            2 
  708000     1.142485   -7.4011262    241.18396  0.028387943  0.028830734            1 
  709000    1.1338644   -7.5046738    239.66728  0.028169638  0.028821905            1 
  710000    1.1498252   -7.4366075    241.56371  0.028352549  0.028812876            3 
  711000    1.1349926   -7.4041443    241.86013  0.028347413  0.028804215            2 
  712000      1.12291   -7.4143958     242.5425  0.028387465  0.028795738            2 
  713000    1.1299489   -7.4137483    242.40697   0.02833181  0.028787178            1 
  714000    1.0922974   -7.4036447    242.97214  0.028358092  0.028778504            4 
  715000    1.1495804   -7.4101585    242.87293  0.028306868  0.028769796            2 
  716000    1.1018717   -7.3905181    243.67911  0.028361163  0.028761378            1 
  717000    1.1375102   -7.3808955    244.02555  0.028361873  0.028753038            4 
  718000    1.1179918   -7.4495876    243.32759  0.028241363  0.028744587            1 
  719000    1.1472766   -7.4508194    243.04345  0.028169152  0.028735838            1 
  720000    1.1371754   -7.4161205    244.78539  0.028331643  0.028727086            2 
  721000    1.1218569   -7.3888094    244.85709  0.028300635   0.02871894            3 
  722000    1.1189373   -7.4121215    244.72901  0.028246654  0.028710051            2 
  723000    1.1475539   -7.4174605    245.28056  0.028271157  0.028701461            4 
  724000    1.1274064   -7.4354148    244.90381  0.028188744  0.028692688            1 
  725000    1.1432258   -7.3915408    245.56352  0.028225692  0.028683636            2 
  726000    1.1485519   -7.4463683    244.59387  0.028075513  0.028674576            4 
  727000    1.1308504   -7.4391411    245.10095  0.028095019   0.02866549            2 
  728000    1.1702488   -7.4086541    246.77708  0.028248292  0.028656362            1 
  729000    1.1333045   -7.4394678    245.01953  0.028008634  0.028646546            3 
  730000    1.1259799   -7.4662957    245.91005  0.028071923  0.028637184            2 
  731000    1.1254609   -7.4563362     245.8637  0.028028238  0.028627753            2 
  732000     1.125561   -7.4133905    246.70607  0.028085846  0.028618574            2 
  733000    1.1542739   -7.4041173     248.1464  0.028211278  0.028609691           10 
  734000    1.1413972   -7.4226565    247.31923  0.028078932   0.02860094            2 
  735000    1.1094875     -7.40936     247.5402  0.028065783   0.02859168            3 
  736000     1.131571   -7.4377598    247.89697  0.028068045  0.028582477            3 
  737000    1.1550285   -7.4401092    248.46891  0.028094631  0.028573189            2 
  738000    1.1281002   -7.4183354    249.24698  0.028144419  0.028564233            9 
  739000    1.1120105   -7.4311995    248.82619  0.028058885  0.028555461            2 
  740000    1.1286026   -7.4055141    249.69791  0.028119134  0.028546711            2 
  741000     1.130687   -7.4533723    249.59438  0.028069544  0.028538107            2 
  742000    1.1399886   -7.4924956     249.5636  0.028028256  0.028529252            1 
  743000    1.1310671    -7.435015    250.22325  0.028064519  0.028520453            2 
  744000    1.1189556   -7.4338583    251.10153  0.028125172  0.028511773            1 
  745000    1.1065934   -7.4553713    250.34206  0.028002468  0.028503136            3 
  746000    1.1127509   -7.4001565    252.33512  0.028187569   0.02849465            2 
  747000    1.1535111   -7.3827595    252.79363  0.028200985  0.028486652            3 
  748000     1.110358   -7.4224726     252.4117  0.028120733  0.028478504            2 
  749000    1.1336001   -7.4598412    252.63799  0.028108365   0.02847031            2 
  750000    1.1280783   -7.4525723    253.41531  0.028157257  0.028462625            1 
  751000    1.1176255   -7.3820888    254.02301  0.028187196  0.028454756            2 
  752000     1.142717   -7.4293659    252.77023  0.028010885  0.028446876            1 
  753000    1.1344312   -7.3984941    254.00797  0.028110666  0.028438772            5 
  754000    1.1385987   -7.4271442    254.57473  0.028136023  0.028430547            4 
  755000    1.1404182   -7.4104477    253.96605  0.028031573  0.028422301            2 
  756000    1.1106069   -7.4680623    253.88197  0.027985226  0.028414085            3 
  757000    1.1193953   -7.4827513    254.30423  0.027994741  0.028405804            1 
  758000    1.1422614   -7.4241543    255.03416  0.028038056  0.028397278            2 
  759000     1.129095   -7.4547324    255.26693  0.028026672  0.028389049            1 
  760000     1.146827   -7.4640406    254.57827  0.027914284  0.028380539            2 
  761000    1.1155917   -7.4470029    254.93798  0.027916993  0.028371936            2 
  762000     1.108339   -7.4584363     255.8661  0.027981857  0.028363323            4 
  763000    1.1270636   -7.4740089    256.01971  0.027961961  0.028355082            1 
  764000    1.1273012   -7.4095941    256.87203  0.028018328  0.028346758            8 
  765000    1.1324839    -7.391693    257.43499  0.028043028  0.028338473            4 
  766000    1.1127708   -7.4509072    256.21137  0.027873299  0.028330294            2 
  767000    1.1382286     -7.42588    256.53513  0.027872135  0.028322043            2 
  768000    1.0954026   -7.4445791    257.08521   0.02789553  0.028313621            3 
  769000    1.1194827   -7.4171277    258.32596  0.027993711  0.028305116            3 
  770000    1.1214959   -7.4655758    256.82061  0.027794438     0.028297            2 
  771000    1.1561578   -7.4664565    257.87506  0.027872359  0.028288465            3 
  772000    1.1400451   -7.5091387    257.29552  0.027773696  0.028279834            3 
  773000    1.1289843   -7.4604086    257.89778  0.027802693  0.028270918            4 
  774000    1.1228224   -7.4266831    258.68825  0.027851879  0.028262382            2 
  775000    1.1394108   -7.4220875    259.20934  0.027871972  0.028253893            2 
  776000    1.1236557   -7.4645476    259.31292  0.027847178  0.028245214            1 
  777000     1.133863   -7.4362874    259.01809  0.027779718  0.028236427            1 
  778000    1.1271403   -7.4716779    259.16965  0.027760246  0.028227607            4 
  779000    1.1269082   -7.4686207    259.58652  0.027769204  0.028218906            3 
  780000     1.138438   -7.4470576    260.04712  0.027782812  0.028210338            4 
  781000    1.1011462   -7.4438879    259.77631  0.027718343  0.028201627            1 
  782000    1.1312662   -7.4903718    260.01551  0.027708387  0.028192776            2 
  783000    1.1243178   -7.4839581    260.99973  0.027777749  0.028184139            4 
  784000     1.138877   -7.4512462    261.84138   0.02783178  0.028175702            3 
  785000    1.0867234   -7.4442574    262.10988  0.027824829  0.028167452            6 
  786000    1.1315981   -7.4385937     262.1282   0.02779137  0.028158983            2 
  787000    1.1223337   -7.3898764    263.79675  0.027932735  0.028150658            2 
  788000    1.1072664   -7.4463126    262.80261  0.027792154  0.028142683            2 
  789000    1.1076937   -7.4325352    263.34313  0.027814018  0.028134673            3 
  790000    1.1284498   -7.4432064     263.2086   0.02776462  0.028126732            2 
  791000    1.1238328   -7.4607498    264.18819  0.027832722  0.028118359            1 
  792000    1.1472787   -7.4482817    264.49129   0.02782947  0.028110355            1 
  793000    1.1084949   -7.4275037    264.87239  0.027834426  0.028102511            2 
  794000    1.1485129   -7.3729472    264.61123   0.02777196  0.028094916            3 
  795000    1.0978507   -7.4367817    266.07958  0.027890941  0.028087452            1 
  796000    1.1224375   -7.4745273    265.12095  0.027755543      0.02808            2 
  797000    1.0995938   -7.4449346    265.72854  0.027784247  0.028072326            1 
  798000    1.1179828   -7.4670185    266.33478  0.027812739  0.028064878            2 
  799000    1.1355326   -7.4797072    266.71608  0.027817697  0.028057368            2 
  800000    1.1144341   -7.5000755     266.4389  0.027754052  0.028050028            1 
  801000    1.1031125   -7.4192899    267.37627  0.027816924  0.028042472            2 
  802000    1.1047514   -7.4686059    268.14479  0.027862093  0.028035189            2 
  803000    1.1335845   -7.4256231    268.06036  0.027818634  0.028027979            2 
  804000    1.1277591   -7.4215319    268.46627  0.027826106   0.02802093            2 
  805000    1.1016987    -7.464181    268.45994  0.027790884  0.028013731            2 
  806000    1.1320273   -7.5140821    268.43602   0.02775393  0.028006236            1 
  807000    1.1110151   -7.4589664    269.60106  0.027839845  0.027998598            1 
  808000    1.0934129   -7.4246514    269.44845   0.02778965  0.027991369            2 
  809000    1.1375402   -7.4208535    270.12388  0.027824874  0.027984018            1 
  810000     1.134369   -7.4744606    269.78035   0.02775518  0.027976731            2 
  811000    1.1543084   -7.4590761    269.63724  0.027706251  0.027969266            2 
  812000    1.0995799   -7.4318536    270.98354  0.027810298   0.02796219            1 
  813000    1.1215651    -7.432934    271.17032  0.027795236   0.02795538            4 
  814000    1.1317318   -7.4390875    271.69645  0.027814952  0.027948453            2 
  815000    1.1194754   -7.4554659    272.53053  0.027866108  0.027941813            2 
  816000    1.1171553   -7.4679213    271.83001  0.027760418  0.027934905            3 
  817000    1.1114923   -7.4420942    272.84832  0.027830306  0.027928252            2 
  818000    1.1281703    -7.450797    272.20239   0.02773048  0.027921517            1 
  819000    1.1195239   -7.4538188    272.12909  0.027689163  0.027914718            1 
  820000    1.1284234   -7.4347438    273.58366  0.027803218  0.027907835            1 
  821000    1.1130808   -7.4613466    273.48456  0.027759293  0.027900862            2 
  822000    1.1288173   -7.4355534    273.61421  0.027738667  0.027893795            3 
  823000    1.1029424   -7.4480918     273.6433  0.027707908  0.027886844            3 
  824000    1.1210189   -7.4509071    273.83273   0.02769344  0.027879942            2 
  825000    1.1131252   -7.4881426    274.20869  0.027697847  0.027872912            2 
  826000    1.1326923   -7.4894874     274.5336  0.027697094   0.02786576            2 
  827000    1.1026213    -7.463258    274.07034  0.027616922  0.027858507            3 
  828000    1.1219252   -7.4485119    275.45587  0.027723014  0.027851087            2 
  829000    1.1363325   -7.4347008    274.86856  0.027630535  0.027843882            4 
  830000    1.1298007   -7.4985608    275.00527  0.027610971  0.027836439            2 
  831000    1.1398328   -7.4853812    274.45808  0.027522872  0.027828796            1 
  832000    1.1195873   -7.4557641    275.13561  0.027557653  0.027821041            2 
  833000    1.1213747   -7.4976731    275.56314  0.027567341  0.027813362            4 
  834000    1.1213256   -7.4836998    275.91201  0.027569146  0.027805774            1 
  835000    1.1145445    -7.445151    276.12575   0.02755746  0.027798259            3 
  836000    1.1258956   -7.4711205     276.1847  0.027530373  0.027790775            4 
  837000    1.1275388   -7.4635237    275.17008  0.027396464  0.027783052            6 
  838000    1.1446704   -7.4456021    276.43066  0.027489127  0.027775323            2 
  839000    1.1073861   -7.4346908    277.66295  0.027578759  0.027767695            4 
  840000    1.1407532    -7.457959    276.70836  0.027451227   0.02775992            2 
  841000     1.115648   -7.4981619    277.20776  0.027468069  0.027752122            2 
  842000    1.1233216   -7.4357385    277.92116  0.027506053   0.02774455            4 
  843000    1.1020006   -7.4474683    278.56594  0.027537163  0.027737185            1 
  844000    1.0980073   -7.5036441    277.69858  0.027418896  0.027729562            4 
  845000    1.1183333   -7.4952106    279.52393  0.027566462  0.027721566            1 
  846000    1.1157946   -7.4646901    278.39787  0.027422958  0.027713993            1 
  847000    1.1101107   -7.4846774    278.89364  0.027439358  0.027706369            2 
  848000    1.1012019   -7.4770123     279.5575  0.027472239  0.027698799            3 
  849000    1.1238029   -7.4639764    280.70209  0.027552227  0.027691449            2 
  850000    1.0853259   -7.4952957    279.38848  0.027391027  0.027684219            2 
  851000    1.1184324   -7.4375862    281.20198  0.027536426  0.027676871            1 
  852000    1.1081555    -7.466801    280.83951  0.027468654  0.027669665            2 
  853000    1.1129081   -7.4562654    281.31192  0.027482603  0.027662571            1 
  854000    1.1354837   -7.5040085    279.97676  0.027320136  0.027655124            1 
  855000    1.1184353   -7.4578453    280.96423  0.027384428  0.027647629            2 
  856000    1.1154234   -7.4794205    281.38693  0.027393588  0.027640137            1 
  857000    1.0974527   -7.4590784    282.04881  0.027425983  0.027632856            3 
  858000    1.1409217   -7.4567426    281.60367  0.027350784  0.027625826            7 
  859000    1.1284055   -7.5270618    282.11787  0.027368827  0.027618246            3 
  860000    1.1194218   -7.4893549    282.74541  0.027397811  0.027610959            1 
  861000    1.1398965   -7.4848884    282.60766  0.027352658  0.027603898            2 
  862000    1.1244172   -7.4382777     284.5361  0.027507357  0.027596843            1 
  863000    1.1440734   -7.5091462    284.15312  0.027438501  0.027589636            6 
  864000    1.0976907   -7.5048459       282.79   0.02727527  0.027582284            2 
  865000    1.1075563   -7.4781156     283.6726  0.027328767   0.02757481            2 
  866000    1.1352873   -7.4571766    284.04737  0.027333273  0.027567397            2 
  867000    1.1202418   -7.4586379    283.41928  0.027241377    0.0275599            1 
  868000    1.1048389   -7.4395737    285.28715   0.02738932  0.027552581            2 
  869000    1.1067093   -7.4691604    284.69489  0.027301006  0.027545376            4 
  870000    1.0907907   -7.5182886    284.58061  0.027258679  0.027537918            2 
  871000    1.0927378   -7.5176617    285.78147  0.027342276  0.027530207            3 
  872000    1.0954664   -7.4446414    286.13033  0.027344259  0.027522862            1 
  873000    1.1446039   -7.4792986    286.65629  0.027363143  0.027515495            3 
  874000    1.1252141   -7.4920338    285.16324  0.027189478  0.027508221            2 
  875000    1.1359572   -7.4762389     286.1949  0.027256657  0.027500825            2 
  876000    1.1131147   -7.4776461    286.76306  0.027279591  0.027493435            1 
  877000    1.1294974   -7.4867359    287.08161  0.027278754  0.027486104            2 
  878000    1.1119996   -7.4940913    286.54836  0.027197073   0.02747873            3 
  879000    1.1100455   -7.5065667     287.5734   0.02726331  0.027471168            3 
  880000    1.1106538   -7.4580281    288.99847   0.02736728  0.027463861            2 
  881000    1.1344003   -7.4600301    287.89297  0.027231647  0.027456578            3 
  882000    1.1147254   -7.4760187    287.88452  0.027199973  0.027449022            3 
  883000    1.1115723   -7.4871584    288.40357  0.027218155  0.027441559            2 
  884000    1.1173633   -7.4694425    288.29194  0.027176842  0.027434104            2 
  885000    1.0890117   -7.5035903    288.36724  0.027153224   0.02742674            1 
  886000    1.1131356   -7.5198326    288.93174  0.027175672  0.027419206            1 
  887000    1.1071336   -7.5203954    289.96943  0.027242524  0.027411584            1 
  888000    1.1200472   -7.5186564    288.43102  0.027067475  0.027404049            2 
  889000    1.1084869   -7.4833472    290.17419   0.02720043   0.02739663            3 
  890000    1.1182142   -7.4958659    289.88013  0.027142334  0.027389218            1 
  891000    1.1143778   -7.5016937    290.57875  0.027177211  0.027381881            2 
  892000    1.1142121   -7.5186122    291.29769   0.02721391  0.027374529            2 
  893000    1.0721688   -7.4848858    292.09663  0.027257991  0.027367272            2 
  894000    1.0917511   -7.4800271     291.1975   0.02714369   0.02735994            7 
  895000    1.1113605   -7.4577922    292.02255  0.027190182  0.027353021            2 
  896000    1.1164849   -7.4641691    292.03006  0.027160534  0.027346012            2 
  897000    1.1268898     -7.49599     292.4144  0.027165961  0.027338773            5 
  898000     1.098324   -7.5468907    291.57185  0.027057522  0.027331361            2 
  899000    1.1181146   -7.4934201    292.75862  0.027137432  0.027323886            1 
  900000     1.127752   -7.5204742    293.22638   0.02715059  0.027316743            2 
  901000    1.1011294   -7.5261331     292.9909  0.027098677  0.027309374            4 
  902000    1.1058458   -7.5063693    292.18397  0.026994085  0.027301905            1 
  903000    1.1048212   -7.4606146     294.1941  0.027149696  0.027294205            2 
  904000    1.1350967   -7.4992363    293.30134  0.027037365  0.027286492            3 
  905000    1.0953524   -7.5043202    293.97053  0.027069109  0.027278541            9 
  906000    1.1137662   -7.4969319    294.00549  0.027042448  0.027270893            2 
  907000     1.123774   -7.4917345    294.35803  0.027045023  0.027263205            2 
  908000    1.1312769   -7.4618613    293.95126  0.026977905  0.027255545            1 
  909000    1.0965207   -7.5140878    294.60856  0.027008486  0.027247812            2 
  910000    1.1163928   -7.4870512    295.47607  0.027058248  0.027240184            1 
  911000    1.0893179   -7.5519668    294.14763  0.026907028  0.027232413            2 
  912000    1.1015106   -7.4938348    295.16524  0.026970508  0.027224679            1 
  913000    1.1175783   -7.4290778    296.04358  0.027021138  0.027216899            3 
  914000    1.1144332   -7.5235334    295.20025  0.026914684  0.027209277            1 
  915000    1.0859907   -7.4825548    295.90135  0.026949121  0.027201332            3 
  916000    1.1032489   -7.5332355    294.42564  0.026785448  0.027193202            1 
  917000    1.1006168   -7.4679308    297.25617  0.027013465   0.02718525            2 
  918000    1.0967171    -7.542741    296.49685   0.02691511  0.027177484            2 
  919000    1.1227121   -7.4646162    297.37296  0.026965266  0.027169652            3 
  920000    1.1171424   -7.4930389    297.52453  0.026949686  0.027162072            1 
  921000    1.1091959   -7.5276907    297.02561  0.026875282  0.027154504            2 
  922000    1.1175276   -7.5062638    296.79486  0.026825277  0.027146647            1 
  923000    1.1264732   -7.4484057    298.01197  0.026906101  0.027138834            3 
  924000    1.1073618   -7.4887319    298.19333  0.026893337  0.027131101            3 
  925000    1.1105857   -7.4452498    298.18396  0.026863419  0.027123413            3 
  926000    1.1131702   -7.5049747    298.37459  0.026851565  0.027115781            1 
  927000    1.1283329    -7.543839    297.76958  0.026768211  0.027108132            1 
  928000    1.0971395   -7.5172752    298.98072  0.026848125   0.02710026            1 
  929000    1.0830656   -7.5270979    299.48147  0.026864144  0.027092504            2 
  930000    1.1237598   -7.4959898    299.06055   0.02679754  0.027084589            1 
  931000    1.0901449   -7.5293497    299.33002  0.026792877  0.027076591            2 
  932000    1.0751842   -7.5164223    299.24809  0.026756804  0.027068304            1 
  933000    1.0855472   -7.5330663    299.87523   0.02678414  0.027060048            1 
  934000    1.1022361    -7.506796    299.77232  0.026746281   0.02705189            4 
  935000    1.0899702   -7.4783104    300.72615  0.026802687  0.027043839            2 
  936000    1.1046663   -7.4939735    300.87139  0.026786983  0.027035939            1 
  937000    1.0960559   -7.5339296    300.32755  0.026710027  0.027027878            3 
  938000    1.1075246   -7.5298018    300.26493  0.026675989    0.0270198            1 
  939000    1.1366301   -7.4920745    300.32651  0.026653045  0.027011823            1 
  940000    1.1118521   -7.4825705    302.14609  0.026786001  0.027003828            2 
  941000    1.0918937   -7.4975099    301.96757  0.026741726  0.026995973            1 
  942000    1.0766244    -7.541982    301.73988  0.026693195  0.026987577            3 
  943000    1.1009423   -7.5170926    301.07088  0.026605768  0.026978976            4 
  944000    1.0797794   -7.4970968    302.84943  0.026734589  0.026970717            1 
  945000    1.0974186   -7.5148249    302.45284  0.026671327  0.026962667            2 
  946000    1.1073404   -7.4654751    302.54492  0.026651244  0.026954624            5 
  947000    1.1054936   -7.5297083    302.96739  0.026660277  0.026946678            4 
  948000    1.1143786   -7.4969421    303.58065  0.026686063  0.026938732            1 
  949000    1.1027916   -7.5347345    303.70574  0.026668927   0.02693075            1 
  950000    1.0898955   -7.5196779     303.5439  0.026626658  0.026922934            3 
  951000    1.0773052   -7.5046217      304.397  0.026673414  0.026914925            1 
  952000    1.0994924   -7.5260347    303.85799  0.026598213  0.026906917            3 
  953000    1.1066125   -7.5169574    303.92732  0.026576366  0.026899058            2 
  954000    1.1022292   -7.4985623    306.38918  0.026763555  0.026891058            2 
  955000    1.0648153   -7.4933569    304.90408  0.026605941  0.026883334            3 
  956000    1.0989613    -7.520454    305.83117  0.026658924  0.026875527            3 
  957000    1.0839258   -7.5521188    306.32366  0.026673951  0.026867641            2 
  958000    1.0824928   -7.5236355     305.9161  0.026610656  0.026859843            3 
  959000    1.1185933   -7.5271889    306.13303  0.026601758  0.026852098            3 
  960000    1.1225744   -7.4973217    307.57747  0.026699433   0.02684442            4 
  961000      1.12416   -7.5151985      306.899  0.026612816   0.02683692            3 
  962000    1.0785267   -7.4989939     306.8563  0.026581453  0.026829169            3 
  963000    1.1014241   -7.5294944    307.71656  0.026628293  0.026821506            2 
  964000    1.0900242   -7.5571935    307.06011  0.026543923  0.026813934            1 
  965000    1.0935642   -7.5251623    307.80978  0.026581155  0.026806397            1 
  966000    1.1009479   -7.5370798     308.5358   0.02661627  0.026798816            3 
  967000    1.0814952   -7.5142396    308.89014  0.026619281  0.026791178            1 
  968000    1.1059215   -7.5592477    308.42727  0.026551934  0.026783429            2 
  969000    1.1020215    -7.530282    307.97061   0.02648526  0.026775754            2 
  970000    1.1069636   -7.5094727     308.7256  0.026522818  0.026768023            3 
  971000    1.0695981   -7.5338524    308.72311  0.026495289    0.0267602            1 
  972000     1.083886   -7.5233878     309.4122  0.026527109  0.026752347            1 
  973000    1.0925686   -7.4588158    309.93348  0.026544491  0.026744679            1 
  974000    1.0924862   -7.5318752    308.11196  0.026361393  0.026736428            2 
  975000    1.1005729   -7.5499611     309.0414  0.026413795  0.026728321            1 
  976000    1.0613394   -7.5229045    308.31678  0.026324862  0.026719992            3 
  977000    1.0627179   -7.5172332    309.39988    0.0263903  0.026711781            2 
  978000    1.0975932   -7.4808575    310.30974  0.026440843  0.026703685            3 
  979000    1.0633847   -7.5163342    310.17607  0.026402457  0.026695482            3 
  980000    1.1070125   -7.5202699    310.42453  0.026396644  0.026687467            1 
  981000    1.0941701   -7.5503298    309.94317  0.026328846  0.026679289            2 
  982000     1.075034   -7.5266522    310.85727  0.026379606   0.02667113            2 
  983000    1.1070039   -7.5206915    311.95751  0.026446042  0.026663017            3 
  984000    1.0859747   -7.5129289     311.6621  0.026394148  0.026654832            4 
  985000    1.0990166   -7.5106387    311.64143  0.026365603  0.026646778            2 
  986000    1.0946219   -7.5556546    312.16502  0.026383115    0.0266387            4 
  987000    1.1041965   -7.5421302    312.03784  0.026345647  0.026630554            2 
  988000    1.0923812   -7.5415243    311.68218  0.026288983  0.026622238            7 
  989000    1.0835661     -7.51573    311.65339  0.026259976  0.026614269            4 
  990000    1.0903954   -7.5428985    312.24149  0.026282954   0.02660637            2 
  991000    1.0700529   -7.4866611    313.38535  0.026352619  0.026598222            2 
  992000    1.0878143   -7.5614942    312.67791  0.026266626   0.02659019            2 
  993000    1.0994827   -7.4999057    314.23712  0.026371024   0.02658204            3 
  994000    1.0931679   -7.5335485    313.99019  0.026323792  0.026574071            1 
  995000    1.0849862   -7.5055975    314.79262  0.026364541   0.02656595            2 
  996000    1.0839564   -7.4960402     314.6418  0.026325452  0.026557822            2 
  997000    1.0703383   -7.5569413    313.94907  0.026241146  0.026549731            1 
  998000    1.0751055    -7.545453    314.59837  0.026269069  0.026541735            1 
  999000    1.0968961   -7.5261765     314.9486  0.026271989  0.026533649            4 
 1000000     1.085502   -7.5720195    315.13665  0.026261388  0.026525353            4 
 1001000       1.0902   -7.5163592    315.49947  0.026265357  0.026517206            2 
 1002000    1.0908605   -7.4934016    315.29252  0.026221933  0.026509202            1 
 1003000     1.091111   -7.5500004    316.17228  0.026268883  0.026501234            3 
 1004000    1.0894487   -7.5233515    316.84313    0.0262984  0.026493536            1 
 1005000     1.086096   -7.5100276    316.82039  0.026270347   0.02648577            6 
 1006000    1.0847309   -7.5401765    316.22479  0.026194896  0.026477895            1 
 1007000    1.1148041   -7.5571807     316.4619  0.026188505  0.026470029            3 
 1008000    1.0856637   -7.5217455    316.84818  0.026194459   0.02646217            4 
 1009000    1.1098325   -7.5450906    317.71352  0.026239967   0.02645415            2 
 1010000    1.0914466    -7.550258    317.99407  0.026237134  0.026445963            2 
 1011000    1.0779941   -7.5445163    317.99377  0.026211158  0.026437953            1 
 1012000    1.1134926   -7.5544676    318.52115  0.026228685   0.02643012            3 
 1013000     1.078273   -7.5755745    317.96388   0.02615695  0.026422224            1 
 1014000    1.1102444   -7.5337382    318.22625  0.026152716  0.026414489            2 
 1015000    1.0902044   -7.5627549    319.42229  0.026225147  0.026406797            4 
 1016000    1.0881419   -7.5214443     319.9671   0.02624402  0.026399063            6 
 1017000    1.0821499    -7.547294    318.96543  0.026136138  0.026391276            2 
 1018000    1.1208849   -7.5364301     319.9967  0.026194884  0.026383501            2 
 1019000    1.1051047   -7.5735227    320.11198  0.026178605  0.026375738            1 
 1020000    1.0919474   -7.5000296    320.89383  0.026216816  0.026368034            1 
 1021000      1.07637   -7.5237489    320.71713  0.026176716  0.026360338            1 
 1022000    1.1134887   -7.5528392    320.81932  0.026159435  0.026352677            4 
 1023000     1.079118   -7.5542733    320.47322  0.026105671  0.026344994            1 
 1024000    1.0714948   -7.5371422    320.65747  0.026095172  0.026337192            2 
 1025000    1.0800271   -7.5084617     321.3533  0.026126284  0.026329308            1 
 1026000    1.0674119   -7.5154833    320.81596  0.026057177  0.026321433            4 
 1027000    1.0700087   -7.5500864    319.81338  0.025950452  0.026313317            3 
 1028000    1.1182531   -7.5145159    321.41716  0.026055217  0.026305272            1 
 1029000    1.0838102   -7.5458527    321.45722   0.02603314  0.026297241            1 
 1030000    1.0842705   -7.5258445     321.6319  0.026021998   0.02628912            1 
 1031000    1.0836261   -7.5387452    321.58783  0.025993197  0.026281034            1 
 1032000    1.0928636   -7.5312938    322.38416  0.026032312   0.02627309            4 
 1033000     1.072678   -7.5345692    322.35072  0.026004414  0.026265016            2 
 1034000    1.0991054   -7.5413183    321.82412  0.025936825  0.026256925            4 
 1035000    1.0836929   -7.5196857    322.95081  0.026002481  0.026248692            2 
 1036000    1.0761284   -7.5675659    322.42236  0.025934875  0.026240474            2 
 1037000    1.0899055   -7.5300367    323.13279  0.025966955  0.026232071            3 
 1038000    1.0962222   -7.5075777    323.09561  0.025938954  0.026223748            2 
 1039000    1.0747824   -7.5722088    321.65774  0.025798664  0.026215046            5 
 1040000      1.08588   -7.5314174    323.52867  0.025923771  0.026206483            4 
 1041000     1.080458   -7.5601571    323.51636  0.025897883  0.026197853            1 
 1042000    1.0849926   -7.5143649    323.99395  0.025911224  0.026189386            3 
 1043000    1.0738533   -7.5252979    323.86153  0.025875801  0.026180929            2 
 1044000    1.0949986   -7.5640389     323.5057  0.025822614  0.026172424            3 
 1045000    1.0762337   -7.5629625    323.81778   0.02582279  0.026163812            4 
 1046000     1.097017   -7.5636505    324.02586   0.02581468  0.026155395            2 
 1047000    1.0701092   -7.5043752    324.64616  0.025839395  0.026147073            2 
 1048000    1.0796093   -7.5835738    324.79522  0.025826592  0.026138801            4 
 1049000    1.0907286   -7.5778898    324.62235  0.025788239  0.026130456            3 
 1050000    1.0838713   -7.5547888    325.81583  0.025858399  0.026122003            3 
 1051000    1.0694568   -7.5507215    325.35788  0.025797485  0.026113915            2 
 1052000    1.0668652   -7.5579103     326.2451  0.025843243  0.026105858            2 
 1053000    1.0893574   -7.5794665    325.24422  0.025739492  0.026097592            2 
 1054000    1.0847348   -7.5650632    326.71547  0.025831394  0.026089342            2 
 1055000    1.0676807    -7.521954    325.76073  0.025731496   0.02608111            1 
 1056000    1.0868712   -7.5077177    328.19288  0.025899059  0.026072693            2 
 1057000    1.0938484   -7.5459533    327.70808  0.025836336  0.026064479            5 
 1058000    1.0732448    -7.544586    327.27098  0.025777487  0.026056061            2 
 1059000    1.0866602   -7.5677944    328.24983  0.025830173  0.026047741            3 
 1060000    1.0673084   -7.5065367    328.50579  0.025825927  0.026039652            1 
 1061000     1.090091   -7.5462162    327.94992  0.025757926  0.026031592            3 
 1062000    1.0827196   -7.5641921    328.99787  0.025815903  0.026023917            1 
 1063000    1.0791174   -7.5935056    327.94578  0.025709139  0.026016006            2 
 1064000    1.0808256   -7.5917972    329.37473  0.025796893  0.026008038            2 
 1065000    1.0995375   -7.5900442    328.95827  0.025740084  0.026000136            3 
 1066000    1.0890606   -7.5530386    329.90289  0.025789782  0.025992292            1 
 1067000    1.0438915   -7.5996127    329.45448   0.02573059  0.025984601            1 
 1068000    1.0660054   -7.5732247    330.22294  0.025766459  0.025976693            2 
 1069000    1.0884109   -7.5528619    330.32717  0.025750481  0.025968862            3 
 1070000    1.0951235   -7.5674269    330.74907  0.025759273  0.025961012            1 
 1071000    1.0797406   -7.5481752    330.90752   0.02574755    0.0259533            4 
 1072000    1.0882547    -7.549823    331.57558  0.025775465   0.02594557            3 
 1073000    1.0924127   -7.5245573    332.16059  0.025796877  0.025937837            2 
 1074000    1.0673114   -7.5422729    331.59769  0.025729182   0.02592998            5 
 1075000    1.0942233   -7.5243015    331.88198  0.025727285  0.025922321            3 
 1076000     1.082177     -7.52585    332.75822  0.025771237   0.02591458            1 
 1077000    1.0716244   -7.5763234    331.61245  0.025658654  0.025906907            2 
 1078000    1.0735829   -7.6249005    331.28629  0.025609639  0.025898994            3 
 1079000    1.0943595   -7.5649637    333.02826   0.02572044  0.025891094            1 
 1080000    1.0734743   -7.5190905    333.52643  0.025735064   0.02588324            2 
 1081000    1.0928505   -7.5274184     332.5317  0.025634575  0.025875537            2 
 1082000    1.0735272   -7.5915305    332.98607  0.025645877  0.025867452            1 
 1083000    1.0644891   -7.5454237    332.89521  0.025615205  0.025859436            2 
 1084000    1.0859043    -7.531513    333.17456  0.025613051  0.025851363            1 
 1085000    1.0835302   -7.5372959    334.55249  0.025695275  0.025843404            3 
 1086000    1.0880247   -7.5682703    333.31038  0.025576303  0.025835259            3 
 1087000    1.0751543   -7.5270332    333.95188  0.025601954  0.025827303            6 
 1088000    1.0990394   -7.6038283    333.38164  0.025534745  0.025818941            1 
 1089000    1.0587462   -7.5498939    334.33265  0.025584072  0.025810841            3 
 1090000    1.0695486   -7.5676115    334.76394  0.025593573  0.025802985            1 
 1091000    1.0878126   -7.5965028    333.84494  0.025499919  0.025794896            1 
 1092000    1.0836191   -7.5686377    334.00825   0.02548903  0.025786734            3 
 1093000    1.0704653   -7.5054475    335.97993  0.025616036  0.025778674            2 
 1094000    1.0861011    -7.594436    333.49024  0.025402974  0.025770575            3 
 1095000    1.0604024    -7.583844    334.22293  0.025435535  0.025762462            3 
 1096000      1.08921   -7.5582907    334.83906  0.025459174   0.02575438            4 
 1097000    1.0741862   -7.5657707    335.19362    0.0254629   0.02574613            2 
 1098000     1.094809   -7.6025255    336.55726  0.025543204  0.025738119            5 
 1099000    1.0685792   -7.5520872    337.19814  0.025568558  0.025729985            4 
 1100000    1.0896273   -7.5664883    336.99775  0.025530132  0.025721917            2 
 1101000    1.0879957    -7.578321    336.16208  0.025443693  0.025713868            3 
 1102000    1.0677121   -7.5601799    335.70389  0.025385957  0.025705682            5 
 1103000    1.0782402   -7.5123225     338.3074   0.02555964  0.025697608            7 
 1104000    1.0900212   -7.5501251    338.17123   0.02552621  0.025689711            4 
 1105000    1.0689388   -7.5598436    338.03539  0.025492865  0.025682015            4 
 1106000     1.071537   -7.5557379    338.64306  0.025515601  0.025674568            2 
 1107000    1.0697672   -7.5353336    339.32495  0.025543884  0.025667057            1 
 1108000    1.0896561   -7.5347346    340.05565  0.025575786  0.025659674            1 
 1109000    1.0808932   -7.6125048    338.74021  0.025453878   0.02565212            1 
 1110000    1.0746324   -7.5720314    339.21261  0.025466412  0.025644604            2 
 1111000    1.0732458    -7.540063     340.7669  0.025560074  0.025637224            3 
 1112000     1.086525   -7.5657396    339.69688    0.0254569  0.025629843            2 
 1113000    1.0641879   -7.5878863     340.1125  0.025465147  0.025622331            1 
 1114000    1.0848291   -7.6081576    340.22539  0.025450732  0.025614609            4 
 1115000    1.0645416   -7.5558829    340.74574  0.025466797  0.025606912            2 
 1116000    1.0850544   -7.5586557    339.96605  0.025385756  0.025599246            6 
 1117000    1.0988952   -7.5656449    340.38268  0.025394112  0.025591488            1 
 1118000     1.076722   -7.6064522    340.80664  0.025402999  0.025583626            3 
 1119000    1.0839603   -7.5819706    340.61968  0.025366375  0.025575867            2 
 1120000    1.0734145   -7.5897718    341.05162  0.025375864  0.025567872            3 
 1121000    1.0974197   -7.5928282    341.17434  0.025362351  0.025560035            6 
 1122000    1.0750813   -7.5789608    341.58042  0.025369907  0.025552172            3 
 1123000    1.0915098   -7.5586956    342.02302  0.025380158  0.025544469            6 
 1124000    1.0460225    -7.580625    342.41368  0.025386542  0.025536808       -1e+20 
 1125000    1.0724875   -7.6048774    341.93861  0.025328786  0.025529172            2 
 1126000    1.0780263   -7.5478056    343.18084  0.025398227  0.025521632            3 
 1127000     1.091862   -7.5898483    343.16811  0.025374749  0.025514005            1 
 1128000    1.0521482   -7.5759704    343.04638  0.025343261  0.025506431            2 
 1129000    1.0960921   -7.5868551    343.06137   0.02532192  0.025498768            2 
 1130000    1.0585653   -7.6203568    342.56944  0.025263233  0.025491204            5 
 1131000    1.0879109   -7.5792371     344.7411  0.025400906  0.025483722            3 
 1132000    1.0904386   -7.5313234     344.7707  0.025380646  0.025476283            2 
 1133000    1.0472763   -7.5722863    344.68715    0.0253521  0.025468689            4 
 1134000     1.047003   -7.5497994    345.01124   0.02535356  0.025461097            4 
 1135000    1.0690653   -7.5885452    345.19686   0.02534485   0.02545367            2 
 1136000    1.0684308     -7.58392    344.63148  0.025281065  0.025446242            3 
 1137000    1.0620552   -7.5990258    344.54536  0.025252518   0.02543871            3 
 1138000    1.0624381   -7.5913948    345.16835  0.025275948  0.025431056            3 
 1139000    1.0746449   -7.5669642    346.35682   0.02534071  0.025423668            3 
 1140000    1.0513493   -7.5746005    345.64538  0.025266475   0.02541635            2 
 1141000    1.0738068   -7.5793985    346.56225  0.025311295  0.025409064            3 
 1142000     1.090797   -7.5636678    346.52337  0.025286294  0.025401734            2 
 1143000    1.0542694   -7.5955318    345.94921  0.025222311  0.025394237            4 
 1144000    1.0598202   -7.6020506    346.57089  0.025245548  0.025386786            2 
 1145000    1.0778343   -7.6715072    346.11694  0.025190462   0.02537927            1 
 1146000     1.072404   -7.6150406    347.17833  0.025245661  0.025371786            1 
 1147000    1.0859822   -7.6013228    347.11274  0.025218886  0.025364248            2 
 1148000    1.0487428   -7.5852309    347.01938  0.025190141  0.025356798            2 
 1149000    1.0762696   -7.5972779    347.82228  0.025226449  0.025349166            2 
 1150000    1.0645488    -7.583669    347.87381  0.025208247  0.025341548            2 
 1151000     1.065202   -7.6046365    347.96243  0.025192762  0.025333932            2 
 1152000    1.0580993   -7.5576714    347.98849  0.025172779  0.025326092            3 
 1153000    1.0779363   -7.5826302    348.11694   0.02516023  0.025318376            2 
 1154000    1.0614324   -7.5675859     348.2472  0.025147834  0.025310758            1 
 1155000     1.046848   -7.5777793    348.46711  0.025141927  0.025303073            2 
 1156000     1.063641   -7.5957427    348.44775  0.025118782  0.025295331            1 
 1157000    1.0838674   -7.6143535    348.12231  0.025073632   0.02528769            5 
 1158000    1.0820496   -7.5647631    349.58285  0.025157085  0.025280015            3 
 1159000    1.0670388   -7.5855301    350.40128  0.025194225  0.025272354            4 
 1160000    1.0485119      -7.5792    348.97106   0.02506976  0.025264719            2 
 1161000    1.0500992    -7.586232    349.58955   0.02509256  0.025257196            5 
 1162000    1.0616022   -7.5673134    350.47815  0.025134692  0.025249654            1 
 1163000    1.0740321   -7.5802612    349.73119  0.025059558  0.025242209            3 
 1164000    1.0769716   -7.6082492    350.16358  0.025068985   0.02523451            2 
 1165000    1.0889067   -7.6251583    351.42523  0.025137713  0.025226912            3 
 1166000     1.067602   -7.6378497    351.07027  0.025090785  0.025219411            2 
 1167000     1.060139   -7.6241628    350.32048  0.025015744  0.025211669            2 
 1168000    1.0392888   -7.6186746    350.80382  0.025028811  0.025203997            3 
 1169000    1.0357718   -7.6471494    351.37666  0.025048236  0.025196329            3 
 1170000    1.0555193   -7.5731795    352.76171  0.025125478  0.025188961            1 
 1171000     1.077259   -7.5634816    352.70755  0.025100167  0.025181591            2 
 1172000    1.0684201   -7.6397433     352.9255  0.025094248  0.025174217            3 
 1173000    1.0473023   -7.6236827    351.93635  0.025002582  0.025166634            2 
 1174000    1.0696403    -7.625203    351.84331  0.024974681  0.025158978            5 
 1175000    1.0527016   -7.5785414    353.46493  0.025068435  0.025151524            2 
 1176000    1.0587015   -7.6070349    353.51492   0.02505066  0.025144159            1 
 1177000    1.0445611   -7.6009829     353.7264   0.02504435  0.025136851            3 
 1178000    1.0649566   -7.6420114     353.1322  0.024981055  0.025129282            2 
 1179000    1.0465801   -7.6041771    353.81392  0.025008052   0.02512171            5 
 1180000    1.0519698   -7.6655731    352.07525  0.024864072  0.025114104            1 
 1181000    1.0668182   -7.6353811     354.2679  0.024997735  0.025106283            1 
 1182000    1.0520576   -7.5987916    355.32975  0.025051449  0.025098855            1 
 1183000    1.0547829   -7.5587165    354.72792  0.024987878  0.025091464            3 
 1184000    1.0287738   -7.6196761    354.21269  0.024930511  0.025083977            2 
 1185000    1.0704357   -7.5987759     355.1351  0.024974339  0.025076513            3 
 1186000    1.0532203    -7.625977    355.16227   0.02495519  0.025069058            2 
 1187000     1.053991   -7.5786104    356.92008  0.025057573  0.025061809            4 
 1188000    1.0455476   -7.6353741    355.00767  0.024902334  0.025054582            1 
 1189000     1.055757   -7.6156783    357.07433  0.025026236  0.025047299            1 
 1190000    1.0411931   -7.6699402    355.42247  0.024889528  0.025039917            2 
 1191000    1.0604967   -7.6169341    355.98306  0.024907855  0.025032493            1 
 1192000    1.0550759   -7.6371309    356.43658  0.024918665   0.02502506            2 
 1193000    1.0707637   -7.6066713    356.33059  0.024890374  0.025017614            4 
 1194000     1.067954   -7.5833088    358.15327  0.024996739   0.02500999            3 
 1195000     1.036316    -7.605963    356.19744  0.024839431  0.025002378            3 
 1196000    1.0437474   -7.6303969    356.64792   0.02485005  0.024994836            2 
 1197000     1.042187   -7.5763581    357.41287  0.024882545  0.024987252            4 
 1198000    1.0653896   -7.6336087    356.73899  0.024814899  0.024979727            1 
 1199000    1.0453899   -7.6193824    357.26331  0.024830644   0.02497219            3 
 1200000    1.0529991   -7.6131857    357.51792  0.024827633  0.024964793            6 
 1201000    1.0252781   -7.6291797      356.939  0.024766792  0.024957379            1 
 1202000    1.0687436   -7.6679891    358.28977  0.024839834  0.024949997            2 
 1203000    1.0551223   -7.6473349    358.23967  0.024815715   0.02494253            2 
 1204000    1.0509751    -7.646806    359.04778  0.024851037  0.024934949            4 
 1205000    1.0648624   -7.6064602    359.13728  0.024836603  0.024927464            1 
 1206000    1.0675072   -7.6183267      358.632  0.024781094  0.024920001            1 
 1207000    1.0510743   -7.6317067    359.69149  0.024833712  0.024912499            1 
 1208000     1.057172   -7.6239085    358.73335  0.024747057  0.024905039            3 
 1209000    1.0739483   -7.6354608    359.42864  0.024774514  0.024897499            3 
 1210000    1.0527783   -7.6783248    358.99458  0.024724145  0.024889971            2 
 1211000    1.0619459   -7.5542525    360.32837  0.024795511  0.024882417            2 
 1212000     1.072559   -7.6169529    359.80145  0.024738824  0.024875022            6 
 1213000    1.0422892    -7.578983    361.58853  0.024841201  0.024867592            2 
 1214000    1.0539191    -7.593001    361.10714  0.024787695  0.024860261            1 
 1215000    1.0430221    -7.626697    360.20515  0.024705428  0.024852815            3 
 1216000    1.0698372   -7.6381598    360.22836  0.024686702  0.024845302            3 
 1217000    1.0559059   -7.5653173      362.359  0.024812312   0.02483783            1 
 1218000    1.0495807    -7.602336    362.47208  0.024799677   0.02483055            9 
 1219000    1.0711334   -7.5980822    362.72338  0.024796512  0.024823376            6 
 1220000    1.0430119   -7.5971732    363.55239  0.024832813    0.0248161            2 
 1221000    1.0620884    -7.589636    362.33904  0.024729664  0.024808835            2 
 1222000    1.0449135   -7.6597907    362.80347  0.024741099   0.02480141            2 
 1223000    1.0568985   -7.6732596    361.52656  0.024633862  0.024793916            3 
 1224000    1.0665302    -7.603994    363.03055  0.024716132  0.024786492            2 
 1225000    1.0654931   -7.6203912    363.48733  0.024727029  0.024779115            2 
 1226000    1.0500358   -7.6096962    362.47127  0.024637797  0.024771818            3 
 1227000     1.037659   -7.6479113    362.86276  0.024644306  0.024764327            4 
 1228000    1.0555371   -7.5861412    363.47529  0.024665804   0.02475687            2 
 1229000    1.0782055   -7.6182845     362.8057  0.024600332  0.024749422            5 
 1230000    1.0689085   -7.6471857    363.31138  0.024614592  0.024741893            2 
 1231000    1.0609123   -7.6100376    364.59209  0.024681295  0.024734391            2 
 1232000    1.0674752   -7.5919581    364.36626  0.024645986  0.024726944            1 
 1233000    1.0814949   -7.6147227    363.95109  0.024597938  0.024719444            3 
 1234000    1.0486161   -7.6203334     364.4214  0.024609765  0.024711847            2 
 1235000    1.0448491   -7.6174333    364.82274  0.024616919  0.024704491            2 
 1236000    1.0511038    -7.645217    364.36056  0.024565841  0.024697069            4 
 1237000    1.0640518    -7.624838    364.63702  0.024564607  0.024689599            2 
 1238000    1.0489247   -7.6181824    365.48471  0.024601825  0.024682066            3 
 1239000    1.0449162   -7.6142448    365.08626   0.02455517  0.024674459            1 
 1240000    1.0508295   -7.6111044    365.13111  0.024538381  0.024666808            3 
 1241000    1.0505698   -7.6504362     366.0108  0.024577679  0.024659329            2 
 1242000    1.0655882   -7.6506348    364.96686  0.024487846  0.024651892            2 
 1243000     1.073056   -7.6524984    365.99434   0.02453703  0.024644335            3 
 1244000    1.0705115   -7.6748835    365.56062  0.024488251  0.024636754            1 
 1245000     1.058396   -7.6312956    366.29629  0.024517824  0.024629173            4 
 1246000     1.071556    -7.628256    366.07029  0.024483032  0.024621566            4 
 1247000    1.0189529   -7.6569115    365.85578  0.024449063  0.024613996            3 
 1248000    1.0518323   -7.6383853    367.49125  0.024538679  0.024606544            1 
 1249000    1.0311749   -7.6463378    366.50538  0.024453255   0.02459903            3 
 1250000    1.0535429   -7.6459497    365.69784  0.024379856  0.024591387            1 
 1251000    1.0634277   -7.5952827    367.83419  0.024502677  0.024583901            1 
 1252000    1.0355444   -7.6205528    367.92946  0.024489448  0.024576384            3 
 1253000    1.0650464   -7.6656363    367.13984  0.024417387   0.02456877            2 
 1254000    1.0464049   -7.6148614    369.23343  0.024537044  0.024561127            3 
 1255000    1.0514338   -7.6504432    367.55705  0.024406178    0.0245538            4 
 1256000     1.033428   -7.6308398    368.09087  0.024422165  0.024546416            2 
 1257000     1.034524   -7.6217543     369.3152  0.024483904  0.024539195            1 
 1258000    1.0643129   -7.6153301    370.32998  0.024531663  0.024532082            3 
 1259000    1.0434194   -7.6744102    369.64904  0.024467106  0.024524697            1 
 1260000    1.0421363   -7.6053193     370.0406  0.024473585  0.024517384            1 
 1261000    1.0343179   -7.6238863    370.23132   0.02446678  0.024509962            2 
 1262000    1.0672487   -7.6361704    370.99688  0.024497945  0.024502613            1 
 1263000    1.0589919   -7.6193323    369.61319  0.024387252  0.024495258            8 
 1264000    1.0481351   -7.6641293     369.3163  0.024348384  0.024487857            3 
 1265000    1.0435775   -7.6326836    369.77884  0.024359607   0.02448057            2 
 1266000    1.0427371   -7.6417394    370.18638  0.024367192  0.024473221            1 
 1267000    1.0531085   -7.6409539    371.21893  0.024415873   0.02446599            1 
 1268000    1.0665864   -7.6423233    371.88504  0.024440394  0.024458711            3 
 1269000    1.0520793   -7.6350366    372.03053  0.024430689  0.024451503            1 
 1270000    1.0597189   -7.5998187    372.40447  0.024435989  0.024444293            2 
 1271000    1.0462332   -7.6366258    372.70645  0.024436563   0.02443694            1 
 1272000    1.0278855   -7.6239407    371.47559  0.024336713  0.024429844            1 
 1273000    1.0589454   -7.5996631    372.30546   0.02437192  0.024422524            5 
 1274000    1.0584465   -7.6622298    372.40983  0.024359617  0.024415275            1 
 1275000    1.0451184   -7.6591493    371.01801  0.024249543  0.024408083            3 
 1276000     1.039877   -7.6467252    372.26554  0.024312012  0.024400722            1 
 1277000    1.0567633   -7.6237917    373.65355  0.024383552  0.024393406            2 
 1278000    1.0599866   -7.6374289    373.06236  0.024325923  0.024386104            4 
 1279000    1.0374982   -7.6271223    373.60776   0.02434244  0.024378861            3 
 1280000    1.0657851   -7.6514918     372.6285  0.024259668  0.024371573            5 
 1281000    1.0493916   -7.6189149    373.96496  0.024327671  0.024364331            1 
 1282000    1.0496055   -7.6371297    373.87495  0.024302844  0.024357157            3 
 1283000    1.0412363   -7.6156979    373.74078  0.024275187  0.024349811            4 
 1284000    1.0513466   -7.6809701    374.78384  0.024323977  0.024342558            2 
 1285000    1.0338449   -7.6378603    375.62288   0.02435946   0.02433554            5 
 1286000     1.063502   -7.6528756    376.04015  0.024367558  0.024328651            3 
 1287000    1.0261231   -7.6135126    376.46493  0.024376129  0.024321846            4 
 1288000    1.0845723   -7.6257662    375.44976  0.024291522  0.024315217            2 
 1289000    1.0463713   -7.6087854    376.75683  0.024357178  0.024308566            2 
 1290000    1.0565052   -7.6494793     377.2554  0.024370504  0.024301829            3 
 1291000    1.0379579   -7.6859371    377.58507  0.024372907   0.02429516            2 
 1292000    1.0503988   -7.6954692    376.80924  0.024304001  0.024288442            2 
 1293000    1.0688124   -7.7067757    377.12524  0.024305571  0.024281686            3 
 1294000    1.0675529   -7.6510165    378.60333  0.024381976  0.024274994            2 
 1295000    1.0419322   -7.6485742    377.94196  0.024320589  0.024268272            6 
 1296000    1.0567884   -7.6727957    377.49528  0.024273102  0.024261547            2 
 1297000    1.0518447   -7.6512188    378.20695  0.024300113  0.024254718            3 
 1298000    1.0263297   -7.6287533    377.73137  0.024250858  0.024247704            1 
 1299000    1.0390831   -7.7085345     377.5352  0.024219605  0.024240786            3 
 1300000    1.0388701   -7.6414061    377.29124  0.024185336  0.024233785            2 
 1301000    1.0459523    -7.646082    378.54928  0.024247328  0.024226865            2 
 1302000    1.0579792   -7.6380925    379.15697  0.024267599  0.024220023            2 
 1303000    1.0433263   -7.6325126    378.83349  0.024228287  0.024213262            3 
 1304000    1.0403934   -7.6289504    380.14022  0.024293215  0.024206554            3 
 1305000    1.0547796   -7.6629839    378.49254  0.024169383  0.024199709            2 
 1306000    1.0491363   -7.6496438    379.83519  0.024236549  0.024192892            3 
 1307000    1.0464552   -7.6539967    380.83996  0.024282068  0.024185997            3 
 1308000    1.0370043   -7.6740344    379.33581  0.024167674  0.024179029            1 
 1309000    1.0407968   -7.6973199    378.62603  0.024104025   0.02417203            6 
 1310000    1.0178353   -7.6166873    380.26184  0.024189684  0.024165157            5 
 1311000    1.0349962   -7.6524868    380.44832  0.024183087  0.024158266            1 
 1312000    1.0234747   -7.6566008    380.01576   0.02413718  0.024151239            1 
 1313000    1.0543376   -7.6738838    380.30739  0.024137306  0.024144098            5 
 1314000    1.0490158    -7.660298    380.88456  0.024155541  0.024136924            3 
 1315000    1.0249601   -7.6882916    380.37583  0.024104932  0.024129686            2 
 1316000    1.0185398   -7.6632463    380.27783   0.02408041   0.02412267            5 
 1317000    1.0564351    -7.651004    380.96976  0.024105907  0.024115603            2 
 1318000    1.0263258   -7.6416368    382.78015  0.024202083  0.024108731            3 
 1319000     1.043955   -7.6436785    380.71117  0.024053018  0.024101871            2 
 1320000    1.0282669    -7.614979    383.28484  0.024197275  0.024095239            2 
 1321000    1.0385756   -7.6705954    381.44922   0.02406316  0.024088451            1 
 1322000    1.0121572   -7.6630811    381.36338  0.024039548  0.024081644            4 
 1323000    1.0554967   -7.6368711    382.61977  0.024100514   0.02407473            1 
 1324000    1.0321326   -7.6944451    383.03819  0.024108647  0.024067958            4 
 1325000    1.0238188    -7.645181     384.2476  0.024166515  0.024061195            2 
 1326000    1.0625668    -7.626628    384.50524  0.024164482  0.024054452            2 
 1327000    1.0169926   -7.6439545    384.30683  0.024133813  0.024047708            3 
 1328000      1.02342   -7.6801607     384.3048  0.024115512  0.024040998            3 
 1329000    1.0482049   -7.7130646    383.95998  0.024075745  0.024034197            3 
 1330000    1.0341682   -7.6437798    384.85765  0.024113888  0.024027395            2 
 1331000    1.0481342   -7.6816189    385.03853  0.024107095  0.024020766            5 
 1332000    1.0464339   -7.6927165    385.14284  0.024095523  0.024014155            2 
 1333000    1.0440681   -7.6591844    386.26568  0.024147642  0.024007705            1 
 1334000    1.0246107   -7.6609199    385.95013  0.024109828  0.024001201            1 
 1335000    1.0252237    -7.645634    387.30751  0.024176499  0.023994804            2 
 1336000    1.0495747   -7.6584117    386.87768  0.024131592  0.023988396            2 
 1337000    1.0474657    -7.639335    386.23888  0.024073728  0.023981895            2 
 1338000     1.041307   -7.6824761    385.86409  0.024032392  0.023975315            3 
 1339000    1.0423761    -7.709576    386.00871  0.024023445  0.023968645            2 
 1340000     1.029083   -7.6601237    387.58596  0.024103604  0.023962077            2 
 1341000    1.0314719   -7.6140626    386.51617   0.02401915  0.023955413            1 
 1342000    1.0150659   -7.6736629    386.49888  0.024000179  0.023948754            3 
 1343000    1.0024425   -7.6928213    385.42232  0.023915508  0.023941968            2 
 1344000    1.0470428    -7.642654    387.27027  0.024012294  0.023935216            1 
 1345000    1.0367601   -7.6776922    387.11782  0.023984995  0.023928498            1 
 1346000    1.0243032   -7.6696838    388.24344  0.024036865  0.023921665            2 
 1347000    1.0206456   -7.6813707    387.20143  0.023954555  0.023914993            2 
 1348000    1.0349303   -7.6856449    388.47597  0.024015577   0.02390837            2 
 1349000    1.0165696   -7.6560722    387.49015  0.023936876  0.023901666            2 
 1350000    1.0309883   -7.6222255     388.1357  0.023958994  0.023894887            2 
 1351000    1.0369311   -7.7394875    386.69646  0.023852483  0.023888037            2 
 1352000    1.0464955    -7.693438    387.23016  0.023867737  0.023881149            3 
 1353000    1.0090493   -7.6783308    388.45422  0.023925488  0.023874279            2 
 1354000    1.0302345   -7.6946882    388.96275  0.023939115  0.023867452            3 
 1355000     1.015885   -7.6943806     389.3174   0.02394326  0.023860523            2 
 1356000    1.0509646   -7.6939943    388.52302  0.023876783  0.023853599            3 
 1357000    1.0159145   -7.6531078    390.07163  0.023954288  0.023846758            4 
 1358000    1.0236134   -7.7035561    388.80231  0.023858757  0.023839971            1 
 1359000    1.0278043   -7.6590708    390.39848  0.023939078  0.023833236            2 
 1360000    1.0363784   -7.6643048      390.105  0.023903492  0.023826714            2 
 1361000    1.0443337   -7.6854097    390.35996  0.023901541  0.023819981            3 
 1362000    1.0423891    -7.688076    391.48078  0.023952568  0.023813378            2 
 1363000    1.0370029   -7.6653876    389.71097   0.02382679  0.023806739            3 
 1364000    1.0456078   -7.6756531    391.32944  0.023908202  0.023800124            2 
 1365000    1.0213805    -7.675592    390.59299  0.023845726  0.023793392            4 
 1366000    1.0306511   -7.6565711    390.81959  0.023842093  0.023786567            3 
 1367000    1.0405892   -7.6942246    390.99525   0.02383536  0.023779746            3 
 1368000    1.0252767   -7.6880693    391.49787  0.023848554   0.02377303            2 
 1369000    1.0022236   -7.6891221    390.73369  0.023784617  0.023766213            3 
 1370000    1.0477585   -7.6835668     391.8308   0.02383399  0.023759514            2 
 1371000    1.0769796   -7.6545267    392.91784  0.023882679   0.02375296            1 
 1372000    1.0370182   -7.6685838    391.58195  0.023784132  0.023746408            1 
 1373000    1.0100798   -7.6727675    393.03825  0.023855198  0.023739636            1 
 1374000    1.0264886   -7.7124184    392.01267  0.023775635  0.023732971            4 
 1375000    1.0338143   -7.7044133     392.3681  0.023779885  0.023726247            3 
 1376000    1.0364894   -7.6591399    393.22792  0.023814675  0.023719626            2 
 1377000    1.0277682   -7.7146033    392.50241  0.023753474   0.02371302            2 
 1378000    1.0403791   -7.6365495    394.99298  0.023886852  0.023706528            4 
 1379000    1.0483196   -7.6780633    393.48955  0.023778677   0.02370003            4 
 1380000    1.0393058   -7.6647195    394.33232  0.023812338  0.023693543            3 
 1381000    1.0393495   -7.6619023    395.16924  0.023845597  0.023687146            3 
 1382000    1.0384632   -7.7154296    394.01661  0.023758841  0.023680641            3 
 1383000    1.0006622   -7.6888198    393.27941  0.023697241  0.023673801            4 
 1384000    1.0321259   -7.7286233    395.15738  0.023793195  0.023667104            2 
 1385000    1.0220535   -7.7014623     394.8715  0.023758815  0.023660502            2 
 1386000     1.031412   -7.7183499    394.78033  0.023736191  0.023653914            4 
 1387000    1.0089403   -7.6596338    397.04206  0.023854966  0.023647495            2 
 1388000    1.0245867   -7.6645053    396.11602  0.023782182  0.023641081            2 
 1389000    1.0508191    -7.672042    395.19618  0.023709874  0.023634551            2 
 1390000    1.0153791   -7.6549062    396.08179  0.023745911  0.023628063            4 
 1391000    1.0304325   -7.7096435    396.47148  0.023752186  0.023621606            2 
 1392000    1.0487478   -7.6538205    395.92938  0.023702669  0.023615128            2 
 1393000    1.0526147   -7.6660874    397.02357  0.023751111  0.023608539            3 
 1394000    1.0053678   -7.6929199    396.90312  0.023726872  0.023602137            5 
 1395000    1.0142375   -7.6573145    397.14178  0.023724121  0.023595763            1 
 1396000    1.0175435   -7.6486254     399.7896  0.023865187  0.023589408            3 
 1397000    1.0258924   -7.6869015     397.3039  0.023699827  0.023583028            2 
 1398000    1.0220296   -7.6821406    397.05312  0.023667926  0.023576607            4 
 1399000    1.0188404   -7.7013546    397.64155  0.023686058  0.023570007            2 
 1400000    1.0286002   -7.7298202    396.57298  0.023605535  0.023563364            1 
 1401000    1.0348363     -7.73467    397.28577  0.023631083  0.023556751            4 
 1402000    1.0541512   -7.6797803    397.87134  0.023649034   0.02355019            1 
 1403000    1.0264532   -7.6942261    399.14714  0.023707955  0.023543705            1 
 1404000     1.022662     -7.69702    398.25318  0.023638009  0.023537165            3 
 1405000    1.0400893   -7.7248026    398.08155  0.023611005  0.023530613            2 
 1406000    1.0282307   -7.7232114    398.05029  0.023592359   0.02352416            2 
 1407000    1.0138707   -7.7139558    398.29322   0.02358998  0.023517687            2 
 1408000    1.0288022   -7.7095281    399.51776  0.023645701  0.023511045            1 
 1409000     1.001717   -7.6788064    400.86969  0.023708877  0.023504506            2 
 1410000     1.030566   -7.7213142    398.90983  0.023576231  0.023498051            3 
 1411000    1.0194866   -7.6699504    400.39211  0.023647065   0.02349167            2 
 1412000    1.0163316   -7.7559905    398.49466  0.023518335  0.023485169            4 
 1413000       1.0181   -7.7157102    400.48952   0.02361934  0.023478667            4 
 1414000    1.0301598   -7.7056557    400.31166  0.023592154  0.023472238            2 
 1415000    1.0264694   -7.7277247    400.33355   0.02357677   0.02346592            6 
 1416000    1.0236742   -7.7275078    400.64366   0.02357837  0.023459484            5 
 1417000    1.0343315   -7.7163966     400.7781  0.023569637  0.023453084            4 
 1418000    1.0576127   -7.7217999    401.06335  0.023569778  0.023446692            2 
 1419000    1.0165139   -7.7186672    401.71579  0.023591484  0.023440214            2 
 1420000    1.0255458   -7.6781528     403.0165  0.023651203  0.023433818            3 
 1421000    1.0164258   -7.6833902    402.23409  0.023588675  0.023427419            4 
 1422000    1.0171579   -7.6940804    402.32116  0.023577189  0.023421111            4 
 1423000    1.0196667   -7.7203752    402.69885  0.023582739  0.023414699            1 
 1424000    1.0078878   -7.7043415    402.67421  0.023564736  0.023408453            2 
 1425000     1.013168   -7.7056083    402.48389   0.02353707  0.023402018            4 
 1426000    1.0117718   -7.7663112    401.92591  0.023487957  0.023395644            6 
 1427000     1.009785   -7.7163459    403.13862  0.023542316  0.023389349            2 
 1428000    1.0008078   -7.7301183    402.78996  0.023505483  0.023382911            2 
 1429000    1.0157704   -7.7498238    403.51176  0.023531127  0.023376458            3 
 1430000    1.0429487   -7.7295903    403.61741  0.023520828  0.023370006            3 
 1431000     1.008267   -7.6643979    403.71846  0.023510276  0.023363727            2 
 1432000    1.0098582   -7.6570869     404.5161  0.023540276  0.023357488            3 
 1433000    1.0247936   -7.7563649    403.59879  0.023470504  0.023351324            2 
 1434000    1.0206777    -7.756436    403.50177  0.023448499  0.023344984            5 
 1435000    1.0157429   -7.6991024    404.32243  0.023479816  0.023338702            4 
 1436000    1.0247926   -7.6968302    405.42073  0.023527201  0.023332478            2 
 1437000    1.0087289   -7.6925438    405.84096  0.023535198   0.02332629            3 
 1438000    1.0179972   -7.7243073    404.88078  0.023463188  0.023320035            4 
 1439000    1.0260429   -7.6795759    406.46054  0.023538368  0.023313789            1 
 1440000    1.0300832   -7.6761086    405.46449   0.02346438  0.023307473            3 
 1441000    1.0195721   -7.7053571    405.36631  0.023442419  0.023301323            1 
 1442000    1.0487924    -7.702003    405.77377  0.023449709   0.02329513            5 
 1443000    1.0109228   -7.7052529     405.1596   0.02339799  0.023288931            1 
 1444000    1.0253412   -7.7149721    407.63396  0.023524582  0.023282759            5 
 1445000    1.0271044   -7.6960455     406.6084  0.023449158  0.023276598            2 
 1446000   0.99745391   -7.7664296    406.14126   0.02340602  0.023270291            2 
 1447000   0.99496277   -7.7166057    406.11692  0.023388443  0.023263982            2 
 1448000    1.0033292   -7.6681547    407.08246  0.023427858  0.023257783            1 
 1449000    1.0008816   -7.6726451    407.24097  0.023420806  0.023251628            1 
 1450000     1.032554   -7.7204856     407.2508  0.023405218  0.023245389            2 
 1451000   0.99819413   -7.7256102    405.41017  0.023283377  0.023239108            2 
 1452000    1.0048462    -7.699398    407.72663  0.023400289  0.023232782            2 
 1453000    1.0407539   -7.7077127    407.73528   0.02338468  0.023226538            2 
 1454000    1.0128692   -7.7228132    407.66229  0.023364414  0.023220261            1 
 1455000    1.0238032   -7.7485108    408.30956  0.023385427   0.02321397            2 
 1456000    1.0222782   -7.7402339    407.37899  0.023316105  0.023207552            2 
 1457000    1.0397973   -7.6760834    408.62817  0.023371549  0.023201305            5 
 1458000    1.0314591   -7.7418204    407.26232  0.023277453  0.023194918            2 
 1459000    1.0108532   -7.7394505      408.573  0.023336361  0.023188538            2 
 1460000    1.0451073   -7.7124477    409.04023  0.023347045  0.023182176            2 
 1461000   0.99118533   -7.7513515    408.82685  0.023318894   0.02317589            1 
 1462000    1.0193966   -7.7674146    409.28618  0.023329126  0.023169565            4 
 1463000    1.0399494   -7.7518768    409.34369  0.023316455  0.023163152            3 
 1464000   0.99908646   -7.7556567    408.23499   0.02323742  0.023156777            3 
 1465000    1.0187007   -7.7447708    409.19074  0.023275924  0.023150423            3 
 1466000    1.0477235   -7.7350648    409.07453  0.023253441  0.023144054            4 
 1467000    1.0049758   -7.7094314    409.14857  0.023241796  0.023137766            3 
 1468000    1.0012564   -7.6718423    409.76832  0.023261145  0.023131483            5 
 1469000     1.023382   -7.7042645    410.56431  0.023290465  0.023125099            3 
 1470000    1.0302648   -7.7490172    408.60039  0.023163287  0.023118572            2 
 1471000    1.0264464   -7.7537988    410.23512   0.02324015  0.023112041            3 
 1472000    1.0155025    -7.694275    411.60695  0.023302024  0.023105684            2 
 1473000    1.0080979   -7.7289697    410.34467  0.023214792  0.023099355            1 
 1474000    1.0021395   -7.7150619    410.17687  0.023189556  0.023093106            2 
 1475000    1.0422883   -7.7245921     411.4578  0.023246204  0.023086781            3 
 1476000    1.0073436   -7.7345059    412.10841  0.023267187  0.023080452            2 
 1477000    1.0358958   -7.6819724    412.70607  0.023285154   0.02307419            1 
 1478000    1.0123698   -7.7430262    412.16257  0.023238755  0.023067907            5 
 1479000    1.0219751   -7.7242446    410.88847  0.023151255   0.02306163            3 
 1480000    1.0233178    -7.720231    413.28351  0.023270468   0.02305535            2 
 1481000    1.0131617   -7.7539096    411.10636  0.023132251  0.023048921            5 
 1482000   0.99793755     -7.76303    411.32878  0.023129149  0.023042466            2 
 1483000   0.98648648    -7.744189    413.36755  0.023228116   0.02303613            1 
 1484000    1.0101406   -7.7560718    413.00608  0.023192165  0.023029783            3 
 1485000    1.0226572   -7.7463214    413.07539  0.023180437  0.023023537            3 
 1486000    1.0236909   -7.7367857    414.77905  0.023260377  0.023017296            2 
 1487000    1.0427409   -7.7622031    413.22476   0.02315763  0.023011056            2 
 1488000   0.99611424   -7.7705203    413.63545  0.023165068  0.023004843            8 
 1489000    1.0083779   -7.7357891    413.47965  0.023140791   0.02299866            2 
 1490000    0.9987612   -7.7404896    413.97291  0.023152847  0.022992325            4 
 1491000    1.0318856   -7.7493497    414.77031  0.023181886  0.022986063            1 
 1492000   0.99799852    -7.780699    414.57935  0.023155683  0.022979876            3 
 1493000   0.97690256   -7.7252819     414.8256  0.023153918  0.022973466            3 
 1494000   0.99133447   -7.7167548    415.01416  0.023148938  0.022967244            2 
 1495000   0.99317003   -7.7037882    415.48153  0.023159506   0.02296098            2 
 1496000    1.0235467   -7.7485784    413.92445  0.023057289  0.022954744            2 
 1497000    1.0028542   -7.7384095    415.26262  0.023116378  0.022948497            2 
 1498000   0.99540368   -7.7059381    415.01571  0.023087211  0.022942187            1 
 1499000    1.0130238   -7.7732853    414.63792  0.023050807  0.022935859            2 
 1500000    1.0089904   -7.7479828    414.74998  0.023041666  0.022929444            3 
 1501000    1.0374591   -7.7284195    414.45039  0.023009682  0.022923055            1 
 1502000    1.0246743   -7.7628214    415.88004  0.023073682  0.022916681            2 
 1503000    1.0146601   -7.6986594    415.57798  0.023041582  0.022910342            2 
 1504000     1.024509   -7.6988728    416.76763  0.023092178  0.022904105            4 
 1505000    1.0200521   -7.7614047    416.36196  0.023054372   0.02289788            1 
 1506000    1.0082243    -7.722248    417.08869  0.023079277  0.022891621            2 
 1507000    1.0142335   -7.7436085    416.03259  0.023005562  0.022885296            4 
 1508000    1.0056488   -7.7448223    416.14198  0.022996352   0.02287903            2 
 1509000   0.99395309   -7.7393865    417.45806  0.023053792   0.02287269            2 
 1510000    1.0182047   -7.7574782    416.71452   0.02299749  0.022866441            4 
 1511000    0.9860043   -7.7679206    416.97681  0.022996735  0.022860144            3 
 1512000    1.0292297   -7.7234734    418.62095  0.023072143  0.022853925            4 
 1513000   0.99897623   -7.7293033    420.06451  0.023136402  0.022847707            2 
 1514000     1.010932   -7.7402971    418.53373  0.023036863  0.022841503            1 
 1515000    1.0159936   -7.7767189    417.70062  0.022975831  0.022835279            3 
 1516000    1.0029182   -7.7266529    418.55674  0.023007736  0.022828993            2 
 1517000   0.99335164   -7.7635228    418.28693  0.022977748  0.022822765            1 
 1518000   0.98049327   -7.7575132    417.42039  0.022915041  0.022816419            2 
 1519000    1.0169428   -7.7566621    419.03622  0.022988601  0.022810122            2 
 1520000    1.0025643   -7.7646844    418.29426  0.022932799  0.022803766            2 
 1521000    1.0154215   -7.7602917    418.23181    0.0229143  0.022797457            3 
 1522000    1.0025506    -7.710087    420.17287  0.023005523  0.022791211            5 
 1523000   0.99280635   -7.7353888     419.5793  0.022957939  0.022784996            4 
 1524000    1.0220178    -7.774825    419.94036  0.022962618  0.022778827            3 
 1525000    1.0162059   -7.7588062      420.572  0.022982076  0.022772715            3 
 1526000    1.0141432   -7.7531287    420.17029  0.022945079  0.022766453            3 
 1527000    1.0030372   -7.7946979    417.64767  0.022792385   0.02276017            2 
 1528000   0.99209547   -7.8056264    418.99311  0.022850846  0.022753834            2 
 1529000    1.0022634   -7.7547459    420.81144  0.022935003  0.022747535            3 
 1530000   0.99186556   -7.7477185    421.24809  0.022943796  0.022741303            4 
 1531000   0.98884788   -7.7621984    420.41868  0.022883664  0.022735072            3 
 1532000    1.0288895   -7.7521861    420.38677  0.022866991  0.022728847            3 
 1533000    1.0101311    -7.710657    421.53612  0.022914553  0.022722668            3 
 1534000   0.99758001     -7.77165     420.6184  0.022849761  0.022716465            5 
 1535000   0.98561445   -7.7578643    419.70491  0.022785283  0.022710226            3 
 1536000   0.98022097   -7.7603148    420.63335   0.02282082  0.022703971            4 
 1537000    1.0034972   -7.7784138    421.01289   0.02282655   0.02269768            5 
 1538000    1.0167806   -7.7532257    421.45311  0.022835561  0.022691379            5 
 1539000   0.99176767   -7.7403408    421.12702  0.022803066  0.022685131            8 
 1540000   0.99287325   -7.7560547     423.0857  0.022894248  0.022678936            4 
 1541000   0.97903076   -7.7672219    421.90677  0.022815638  0.022672756            2 
 1542000    1.0278388   -7.7196361    423.66031  0.022895607  0.022666614            3 
 1543000    1.0075604   -7.7735805    421.93269  0.022787464  0.022660419            3 
 1544000   0.98531381   -7.7890047    422.40892  0.022798409  0.022654119            3 
 1545000   0.98730404   -7.7606395    422.87486  0.022808784   0.02264785            2 
 1546000    1.0014831   -7.7474793    423.54001  0.022829884  0.022641595            4 
 1547000   0.98114251   -7.7776996    423.08345  0.022790533  0.022635353            1 
 1548000     1.016358   -7.7724158    423.23425  0.022783928  0.022629046            3 
 1549000   0.99718325   -7.7480134    424.28196  0.022825584  0.022622778           10 
 1550000    1.0352319    -7.734109    424.56485  0.022826067  0.022616652            6 
 1551000    1.0024454   -7.7164803    424.50745  0.022808266  0.022610588            4 
 1552000    1.0049518   -7.7661683    424.77589  0.022807984  0.022604425            1 
 1553000    1.0006559   -7.7467013    423.66215  0.022733534  0.022598211            4 
 1554000   0.98656915   -7.7915279    423.63683  0.022717548  0.022591981            7 
 1555000    1.0336963   -7.7990014    425.03463  0.022777847  0.022585719            2 
 1556000   0.98620649   -7.7391565    425.25948   0.02277525  0.022579534            2 
 1557000    1.0015235   -7.7424606    424.43302   0.02271639  0.022573317            3 
 1558000    1.0015425   -7.7528452    425.83549  0.022776823  0.022567162            3 
 1559000     1.031495   -7.7742137    424.00882  0.022664573  0.022561074            2 
 1560000     0.995583   -7.7834938    425.91271  0.022751748  0.022554941            2 
 1561000   0.99502868   -7.7262889    426.13063  0.022748806  0.022548668            2 
 1562000    1.0038617   -7.7500367     425.6434  0.022708248  0.022542482            4 
 1563000   0.99614413    -7.745068    426.88741  0.022760045  0.022536281            3 
 1564000   0.96718537   -7.7292436    426.62517   0.02273152  0.022530105            2 
 1565000    1.0153807    -7.759636    425.87881  0.022677253   0.02252389            3 
 1566000    1.0186979   -7.7897562    426.35523  0.022688124  0.022517703            2 
 1567000   0.99197964   -7.7215509    427.88085  0.022754778   0.02251163            5 
 1568000    1.0192171   -7.7436742    427.47591  0.022718745  0.022505521            3 
 1569000    1.0113234   -7.7315991    427.03114  0.022680643  0.022499453            1 
 1570000   0.99919874   -7.7796918    427.29532  0.022680219  0.022493307            2 
 1571000    1.0141909   -7.7947735    427.55032  0.022679308  0.022487078            2 
 1572000    1.0012283   -7.7888128    426.42684  0.022605324  0.022480884            1 
 1573000    1.0084869   -7.7714554    426.88913  0.022615445   0.02247464            1 
 1574000   0.99581308   -7.7197078    428.86351  0.022705607   0.02246844            5 
 1575000     1.016086   -7.7811871    427.53981  0.022621154  0.022462265            1 
 1576000    1.0002974   -7.8046052    426.25502  0.022538866  0.022456015            2 
 1577000   0.99940602   -7.7745437    428.03705  0.022618741  0.022449722            3 
 1578000   0.99686859   -7.7661922    427.94548  0.022599571  0.022443431            2 
 1579000   0.99959405   -7.7597582    427.95341  0.022585677  0.022437199            2 
 1580000   0.99009467    -7.768601    428.38281   0.02259403  0.022431043            1 
 1581000    1.0077091   -7.7466467    428.67094  0.022594926  0.022424844            3 
 1582000    1.0058835   -7.7957624    427.81368  0.022535487  0.022418709            2 
 1583000   0.97765612   -7.7488091    430.11166  0.022642223  0.022412488            3 
 1584000    1.0093685   -7.7926115    428.87139  0.022562678  0.022406329            4 
 1585000   0.99490111   -7.7727071    430.26009  0.022621456  0.022400204            7 
 1586000    1.0096698   -7.7686621    430.11854  0.022599755  0.022394071            2 
 1587000   0.99151448   -7.7384602     430.3686  0.022598645   0.02238799            4 
 1588000   0.99356817     -7.74437    430.73975  0.022603891  0.022381943            2 
 1589000    1.0011041   -7.7740145    430.43428  0.022573646  0.022375925            4 
 1590000    1.0157997   -7.7552518    430.40542  0.022557936  0.022369813            2 
 1591000   0.98634114   -7.7704965    431.46925  0.022599479  0.022363774            8 
 1592000   0.98426427   -7.7591831    429.95397  0.022505966  0.022357674            1 
 1593000   0.98237048   -7.7992725    430.25517  0.022507594  0.022351469            2 
 1594000    1.0118433   -7.7818563    431.59936  0.022563748  0.022345237            5 
 1595000    1.0062181   -7.7752773    431.29659  0.022533782  0.022338966            2 
 1596000   0.99447559   -7.8093894    430.95535  0.022501846  0.022332711            3 
 1597000    1.0004268   -7.7664529    430.51455  0.022464754  0.022326522            4 
 1598000   0.97032068   -7.7507952    432.99451  0.022580023  0.022320392            3 
 1599000     1.019949   -7.7886078    431.90552  0.022509147  0.022314236            2 
 1600000    1.0008624   -7.8232254     430.1925   0.02240586   0.02230797            4 
 1601000     1.004072   -7.8180093    431.64497  0.022467466  0.022301634            2 
 1602000   0.99234653   -7.7390068    432.34502  0.022489858  0.022295399            2 
 1603000   0.97561967   -7.7761514    433.35532  0.022528349  0.022289184            2 
 1604000    1.0010375   -7.8035351     431.2664  0.022405777   0.02228283            2 
 1605000   0.98641435   -7.7763912    432.23113  0.022441907  0.022276493            5 
 1606000    1.0064517    -7.808396    431.47072  0.022388476  0.022270242            7 
 1607000   0.99403005   -7.7983452    431.27597  0.022364446  0.022263961            2 
 1608000   0.98468284   -7.7642664    433.39726  0.022460472  0.022257728            5 
 1609000    1.0104562   -7.7703983    432.59042  0.022404724  0.022251543            2 
 1610000   0.99517372   -7.8140118    433.28358  0.022426686  0.022245337            4 
 1611000   0.97432695   -7.7933428    433.16468  0.022406615  0.022239143            6 
 1612000   0.99011942   -7.7836104    433.10454  0.022389606  0.022232896            4 
 1613000   0.99746374   -7.7717846     433.6965  0.022406308  0.022226698            3 
 1614000   0.98748561    -7.782481    434.15388  0.022416041  0.022220521            3 
 1615000   0.98042218   -7.7513364    434.35335  0.022412454  0.022214314            2 
 1616000   0.99823167   -7.7642147     434.0992  0.022385478  0.022208239            3 
 1617000    1.0026722   -7.7665123    434.71351  0.022403293  0.022202148            2 
 1618000    1.0167162   -7.7750934    434.36631  0.022371565  0.022196041            4 
 1619000     1.031663   -7.7695345    435.13149  0.022397133  0.022189934            2 
 1620000    1.0219457   -7.7654981    435.27748  0.022390817  0.022183798            2 
 1621000   0.99391172   -7.7684392    434.68686  0.022346641  0.022177734            2 
 1622000   0.98214308   -7.7688882    435.88374  0.022394356  0.022171712            2 
 1623000    1.0099235   -7.7728503    436.09843  0.022391581  0.022165707            1 
 1624000   0.99599254   -7.7098366    436.94248  0.022421104  0.022159676            4 
 1625000     1.001923   -7.8000202    436.07397  0.022362768  0.022153622            3 
 1626000    1.0043343   -7.7962608    436.41598  0.022366543  0.022147516            1 
 1627000   0.98245113   -7.7681444     435.9664  0.022329769  0.022141346            1 
 1628000   0.97014137   -7.7777748    435.49051  0.022291693  0.022135205            3 
 1629000    1.0080283   -7.7771728    436.30903  0.022319881  0.022129062            2 
 1630000    1.0067313   -7.8054227    436.59879  0.022321002  0.022122919            3 
 1631000    1.0108283   -7.7653589    438.00416  0.022379121  0.022116862            2 
 1632000    1.0059385   -7.7763507    436.63741   0.02229562  0.022110847            3 
 1633000   0.98107082   -7.8050328    436.69235   0.02228477  0.022104684            2 
 1634000    1.0057209    -7.848032    435.73077  0.022222092   0.02209842            3 
 1635000   0.98632837     -7.81256    435.42874  0.022193106  0.022092204            2 
 1636000    1.0007316   -7.8526038    437.12204  0.022265792  0.022085932            2 
 1637000   0.98817961   -7.7756744    438.23402  0.022308798  0.022079767            3 
 1638000    0.9852044   -7.7955882    438.31872  0.022299487  0.022073604            5 
 1639000   0.99376241   -7.7810053    437.36123  0.022237199  0.022067504            3 
 1640000    0.9913987   -7.8137098    438.37178  0.022274989  0.022061438            6 
 1641000   0.96728661    -7.765612    439.55661  0.022321583  0.022055366            1 
 1642000    1.0190621   -7.7702362    439.46275  0.022303225  0.022049378            2 
 1643000   0.98538055   -7.7912507     439.1084  0.022271678  0.022043338            2 
 1644000   0.99839635    -7.813742    438.77089  0.022241023  0.022037231            3 
 1645000   0.97657423   -7.8098502    438.03848  0.022190399  0.022031116            3 
 1646000    1.0002954   -7.7950868    439.35187  0.022243412  0.022025014            2 
 1647000   0.98643344   -7.8006299    439.03671   0.02221396  0.022018873            3 
 1648000    1.0078696    -7.822285    438.44348  0.022170483  0.022012707            2 
 1649000   0.98781681   -7.8031928    438.99394  0.022184856  0.022006585            2 
 1650000   0.97844834     -7.75302    440.05532  0.022225016  0.022000489            2 
 1651000   0.98231575   -7.7787287    439.24443  0.022170625  0.021994327            2 
 1652000   0.99721241   -7.7750097    439.28074  0.022159037  0.021988196            4 
 1653000   0.98538181   -7.8198722    438.98654    0.0221308   0.02198197            2 
 1654000     1.006131   -7.8453715    439.39163  0.022137829  0.021975607            1 
 1655000   0.97991406   -7.8350568    438.37265  0.022073145  0.021969333            3 
 1656000   0.97291879   -7.8180406    439.57278  0.022120208  0.021962967            3 
 1657000   0.96439268   -7.8389458    441.38441  0.022197969  0.021956647            2 
 1658000   0.98828547   -7.8431586     439.6505  0.022097432  0.021950322            1 
 1659000    1.0178537   -7.7934186    440.61581    0.0221326  0.021944058            4 
 1660000     1.009766   -7.8464642    439.69614  0.022073099  0.021937743            2 
 1661000    1.0259318   -7.7831852    440.39918  0.022095082  0.021931358            2 
 1662000   0.97022484    -7.809446    440.09246  0.022066409   0.02192502            5 
 1663000   0.98972323   -7.7591209    441.25105  0.022111197  0.021918747            4 
 1664000   0.99576937   -7.7878965    440.99516  0.022085094  0.021912507            4 
 1665000   0.99248199   -7.8318333    439.26456  0.021985213    0.0219062            3 
 1666000   0.98998542   -7.7699208     441.2963  0.022073645  0.021899873            3 
 1667000    1.0028507   -7.7803117    440.08064  0.021999632  0.021893629            3 
 1668000   0.99385996   -7.8320134    440.09626  0.021987223  0.021887379            2 
 1669000   0.98890447   -7.8101413    440.67366  0.022002879   0.02188112            3 
 1670000   0.98500521   -7.8331019    441.13879  0.022012913  0.021874789            2 
 1671000   0.98665398   -7.8268487    441.68916  0.022027187  0.021868583            4 
 1672000    1.0090003   -7.7766641    441.56393  0.022007771  0.021862364            3 
 1673000   0.95849187   -7.7933712    442.79969  0.022056171  0.021856206            1 
 1674000   0.97654619   -7.7785969    443.01664  0.022053795  0.021850044            2 
 1675000   0.97595874    -7.785472    443.21292  0.022050394  0.021843868            3 
 1676000   0.97420175   -7.7839831     442.6632  0.022009905  0.021837675            1 
 1677000   0.97633641   -7.8216984    442.39336  0.021983371  0.021831358            1 
 1678000   0.98950605   -7.8178296    442.47949  0.021974547  0.021824977            3 
 1679000   0.98173959   -7.8339278    441.59904   0.02191776  0.021818654            6 
 1680000   0.99011165   -7.8022956    443.45489   0.02199677  0.021812392            4 
 1681000    1.0090975   -7.7966105    442.35581  0.021929199   0.02180608            3 
 1682000   0.99030098   -7.8179997    442.55215  0.021925889  0.021799766            2 
 1683000   0.99382687   -7.8324213    442.03303  0.021887158  0.021793367           16 
 1684000    0.9955733   -7.8425706    441.42692  0.021844167  0.021786824            5 
 1685000    1.0141951   -7.8417397    441.44546   0.02183212  0.021780259            2 
 1686000   0.97406397   -7.8272978    441.52827  0.021823263  0.021773764            2 
 1687000   0.98519527   -7.8645553    442.08805  0.021837979  0.021767251            4 
 1688000    1.0111744   -7.8099964    442.91379  0.021865807  0.021760768            1 
 1689000   0.96453705   -7.7949476    443.07126  0.021860631  0.021754339            2 
 1690000   0.96178238   -7.8311267    442.97953  0.021843172  0.021747877            3 
 1691000   0.97215466   -7.8086102    441.73485  0.021768916  0.021741533            2 
 1692000   0.98245272   -7.8320226    442.67936  0.021802569  0.021735065            2 
 1693000    0.9712581   -7.8218976    442.59639  0.021785607  0.021728609            3 
 1694000   0.99263141   -7.8282409    443.61188  0.021822702   0.02172209            7 
 1695000   0.97561577   -7.8046156    444.32622  0.021844947  0.021715637            3 
 1696000   0.99263509   -7.8312541    443.57269  0.021795042  0.021709189            3 
 1697000   0.98134851   -7.8051522    444.93032  0.021848866  0.021702777            2 
 1698000   0.97735136   -7.8457331    443.83037  0.021782017    0.0216964            5 
 1699000   0.98360505   -7.8546343    444.35166  0.021794765  0.021689935            3 
 1700000   0.98920721   -7.8257674    444.19849  0.021774436  0.021683484            3 
 1701000   0.97795734   -7.8447189    444.46064  0.021774478  0.021677197            5 
 1702000   0.98388229   -7.7988612     445.9411  0.021834171  0.021670902            3 
 1703000   0.98484807   -7.7848398    448.37152  0.021940278   0.02166465            4 
 1704000   0.99841172    -7.815955    445.95728  0.021809335  0.021658495            6 
 1705000   0.97390057   -7.7979457    447.76135  0.021884719   0.02165248            1 
 1706000   0.96656493   -7.8305566    447.09066   0.02183913  0.021646355            1 
 1707000   0.95953553    -7.833867    446.89171  0.021816623  0.021640148            2 
 1708000   0.97773701   -7.8274537    447.00347  0.021809303  0.021633986            4 
 1709000    0.9934092   -7.8263993    447.31048  0.021811511  0.021627817            2 
 1710000   0.97318578   -7.8301239    445.99713  0.021734753  0.021621644            3 
 1711000   0.96037214   -7.8277985    448.34676  0.021836487  0.021615439            8 
 1712000   0.99318967    -7.824674     446.8396   0.02175037  0.021609239            2 
 1713000   0.97795492   -7.8614348    446.82659   0.02173704  0.021603027            3 
 1714000   0.98029554   -7.7994281    448.31573  0.021796759  0.021596849            4 
 1715000   0.96609293   -7.8279249     448.7698  0.021806113  0.021590757            2 
 1716000   0.97707501   -7.8310291    449.45205  0.021826537  0.021584681            1 
 1717000   0.97592968   -7.8451468    447.42552  0.021715469  0.021578565            2 
 1718000   0.96684935   -7.8242592     449.0606   0.02178214  0.021572469            3 
 1719000    0.9697746   -7.8595539    448.93136  0.021763203  0.021566335            5 
 1720000    0.9819071   -7.8158978    449.66057   0.02178588  0.021560221            3 
 1721000   0.98149477   -7.8443186    449.32061   0.02175676  0.021554126            2 
 1722000   0.96570329   -7.8465147    448.41839  0.021700464  0.021548012            5 
 1723000   0.97766428   -7.8420368    449.56773  0.021743457  0.021541956            2 
 1724000   0.97545209    -7.798031    450.83393   0.02179205   0.02153588            3 
 1725000   0.95984574   -7.8530258    447.62157   0.02162423  0.021529798            3 
 1726000   0.99569085    -7.790933    451.60175   0.02180387  0.021523788            3 
 1727000    0.9737265   -7.8513143    449.75415  0.021702092  0.021517782            6 
 1728000   0.98985431   -7.8070616    450.69596  0.021734952  0.021511734            1 
 1729000   0.96477923   -7.8678973    448.15559  0.021599942  0.021505565            4 
 1730000   0.95938547   -7.8475515     448.5557  0.021606729  0.021499346            2 
 1731000   0.99971059   -7.8187152    450.99687  0.021711769  0.021493147            5 
 1732000    0.9670244   -7.7894273    452.08526    0.0217516  0.021486995            2 
 1733000   0.96594411   -7.8663042    449.54308  0.021616805  0.021480813            2 
 1734000   0.96697691   -7.8433842    449.80534  0.021616943  0.021474491            2 
 1735000   0.95592745   -7.8832695    449.60225  0.021594729  0.021468225            3 
 1736000   0.99281007   -7.8457848    449.73983  0.021588893   0.02146199            5 
 1737000    0.9465299   -7.8344373    450.14848   0.02159607  0.021455754            1 
 1738000    1.0000793   -7.8529724    448.33204   0.02149655  0.021449487            6 
 1739000   0.97570335   -7.8454766    448.97497  0.021514997    0.0214431            4 
 1740000   0.97309458   -7.8366476     450.5721  0.021579124  0.021436753            2 
 1741000   0.96993902   -7.8450532     451.0339  0.021588833  0.021430421            2 
 1742000   0.98541545   -7.8544278    450.46605  0.021549275  0.021424086            4 
 1743000   0.97749905   -7.8542967    450.98341  0.021561647  0.021417698            4 
 1744000   0.95840678   -7.8567281    450.13357  0.021508676  0.021411286            2 
 1745000   0.96459367   -7.8557892     448.6579  0.021425879   0.02140493            2 
 1746000   0.93450379   -7.8508985    450.04992  0.021480046  0.021398504            5 
 1747000   0.96357941   -7.8502794    449.52954  0.021442928  0.021392011            4 
 1748000   0.98011469   -7.8627069     449.6837   0.02143801  0.021385506            3 
 1749000   0.97195714    -7.849084    450.52991  0.021466071  0.021379005            2 
 1750000   0.96377825   -7.8731091    451.14498  0.021483094  0.021372525            2 
 1751000   0.98102371   -7.8631765    449.36276  0.021386006   0.02136606            6 
 1752000   0.96768636   -7.8494531    452.32732  0.021514808  0.021359582            5 
 1753000   0.95032976   -7.8455795    451.33956  0.021455579  0.021353073            4 
 1754000   0.97496159   -7.8191075     451.2968  0.021441315  0.021346527            3 
 1755000   0.94554653   -7.8691698    450.85883  0.021408301  0.021340116            3 
 1756000   0.96201856   -7.8442166     450.1587  0.021362884  0.021333657            5 
 1757000   0.96227611   -7.8480568    452.27605   0.02145115  0.021327208            1 
 1758000    0.9975107   -7.8486044    452.52153  0.021450584  0.021320826            4 
 1759000   0.94980287   -7.8564096    453.24979  0.021472891  0.021314456            2 
 1760000   0.97669386   -7.8912116    451.74515  0.021389448  0.021308123            3 
 1761000    0.9738701   -7.8584221    452.66205  0.021420691  0.021301733            3 
 1762000     0.957375    -7.843056    452.56439  0.021403915  0.021295363            3 
 1763000   0.96062432   -7.8719564     453.0965  0.021416927  0.021289011            2 
 1764000   0.97227639    -7.885434    453.23794  0.021411467  0.021282677            3 
 1765000   0.97798038   -7.9012074    452.75325  0.021376452  0.021276277            3 
 1766000   0.97339899   -7.8407294    452.80372  0.021366729  0.021269858            4 
 1767000   0.94573536   -7.8948115    452.83517   0.02135612  0.021263538            3 
 1768000   0.98980078   -7.9027769    452.72491  0.021338844  0.021257142            4 
 1769000   0.97077106   -7.8769471    452.50145  0.021316255  0.021250681            2 
 1770000   0.94836159   -7.8463793    452.58566  0.021308176  0.021244287            4 
 1771000   0.97606981   -7.8312478    453.97032  0.021361299  0.021237914            3 
 1772000   0.97478028   -7.8820096    454.74808   0.02138582  0.021231577            4 
 1773000   0.97122114   -7.8947066    453.28516  0.021304999    0.0212252            3 
 1774000   0.97759893   -7.8689529    453.66497  0.021310831  0.021218843            7 
 1775000   0.96674673   -7.8430343    455.73638  0.021396074  0.021212593            2 
 1776000   0.96747032   -7.8803412    454.07712  0.021306171  0.021206223            2 
 1777000   0.95805087   -7.8771683    454.38891  0.021308803  0.021199868            2 
 1778000   0.95770778   -7.8600427    455.00994  0.021325925   0.02119359            4 
 1779000   0.96476124   -7.8344818    455.46911  0.021335446  0.021187346            2 
 1780000   0.96817542   -7.8803232    455.07751  0.021305127   0.02118105            3 
 1781000   0.96579563   -7.8672552    455.14802  0.021296463  0.021174796            2 
 1782000   0.95442161   -7.8616278    455.10478  0.021282491  0.021168561            4 
 1783000   0.95411325   -7.8376704    455.80745  0.021303395  0.021162202            3 
 1784000   0.97404301   -7.9096726    455.48108  0.021276209  0.021155826            4 
 1785000   0.97040517   -7.8343595    457.47164  0.021357219  0.021149502            3 
 1786000   0.94428373   -7.8603732    457.45272  0.021344379  0.021143247            2 
 1787000   0.96531643   -7.8503686    457.91245  0.021353873  0.021137078            2 
 1788000   0.99729413   -7.8634541    457.12021  0.021305006  0.021130876            1 
 1789000   0.96381299   -7.8935503    455.69388  0.021226657  0.021124635            3 
 1790000   0.96349823   -7.8705576    456.68057  0.021260734  0.021118443            4 
 1791000   0.95404666   -7.8691641    457.66578  0.021294704  0.021112201            4 
 1792000    0.9630362   -7.8671942    457.58067  0.021278863  0.021106044            4 
 1793000   0.95388739   -7.8707242    457.17325   0.02124806  0.021099869            2 
 1794000   0.97431117   -7.8971779    457.06796  0.021231325  0.021093654            5 
 1795000    0.9773988   -7.8813901    457.45278  0.021237362  0.021087435            4 
 1796000   0.96757118   -7.9098198    457.78688  0.021241039  0.021081223            3 
 1797000   0.96675562   -7.8719955    459.13624  0.021291794  0.021074978            3 
 1798000   0.95732603   -7.8659665     459.3713  0.021290846  0.021068758            2 
 1799000   0.97386037   -7.8353078    460.45392  0.021329161  0.021062637            3 
 1800000   0.96362015   -7.8532726    458.70405  0.021236299  0.021056524            6 
 1801000    0.9797969   -7.8510066    459.67918  0.021269627  0.021050455            2 
 1802000   0.96158244   -7.8561989    459.92024  0.021268972  0.021044373            2 
 1803000   0.96428722   -7.8388949    460.18893  0.021269594   0.02103831            5 
 1804000   0.97638261   -7.8698797    460.12622  0.021254907  0.021032233            2 
 1805000   0.98396758   -7.8422451    459.20875  0.021200773   0.02102613            2 
 1806000   0.95786787   -7.9136879    458.21511  0.021143185  0.021019903            1 
 1807000   0.95834241   -7.8531683    458.98784   0.02116712  0.021013711            2 
 1808000   0.96386483   -7.8741691    458.83234  0.021148246  0.021007417            1 
 1809000   0.95579712   -7.8732093    458.47768  0.021120217  0.021001088            3 
 1810000   0.96706113   -7.8621351    458.55486  0.021112102  0.020994789            4 
 1811000   0.96828889   -7.8948962    458.79524  0.021111505  0.020988516            4 
 1812000   0.94049021   -7.8801098    459.98032  0.021154356  0.020982286            2 
 1813000   0.94606776   -7.9019914    459.95624  0.021141581  0.020976129            2 
 1814000   0.94775567     -7.88717    458.64873  0.021069861  0.020969904            3 
 1815000   0.97569701   -7.8804512    458.88171  0.021068949  0.020963527            8 
 1816000   0.96245862   -7.8850958    460.39903  0.021126975  0.020957232            1 
 1817000   0.94909676   -7.8763373    459.96589  0.021095482  0.020950988            1 
 1818000   0.94854597   -7.8438626    461.42994  0.021150987   0.02094475            4 
 1819000   0.97385074   -7.8708088    460.63394  0.021102893  0.020938444            1 
 1820000   0.96194696    -7.851266    459.65879  0.021046648   0.02093212            3 
 1821000   0.95470466   -7.8628671    459.34991  0.021020955  0.020925817            6 
 1822000   0.94948151   -7.9019371    457.27832  0.020914669  0.020919474            4 
 1823000   0.95988318   -7.8630835    460.23336  0.021038278  0.020913076            3 
 1824000   0.95757593   -7.8511665    461.68577    0.0210931  0.020906746            2 
 1825000   0.94482598   -7.8808257    461.09994  0.021054792  0.020900401            3 
 1826000   0.95800991   -7.8674182    460.98246    0.0210379  0.020894048            4 
 1827000   0.95561243   -7.8980887    459.66154  0.020966135   0.02088772            2 
 1828000   0.96528045   -7.8927956    461.27947  0.021028422  0.020881355            3 
 1829000   0.94389156   -7.8747097    461.20054  0.021013329  0.020875041            1 
 1830000   0.94443543   -7.8451544    461.31825  0.021007206  0.020868715            2 
 1831000   0.93742696   -7.8490552    462.08181  0.021030485  0.020862448            4 
 1832000   0.94832279   -7.8729857    461.07533  0.020973223  0.020856115            2 
 1833000   0.97977674   -7.8760885     461.7297   0.02099153  0.020849806            2 
 1834000   0.94226684   -7.8677771    461.45306  0.020967514   0.02084343            2 
 1835000   0.96835374   -7.8855351    461.39843  0.020953607  0.020837067            3 
 1836000   0.95410278   -7.9042237    460.83945  0.020916823  0.020830694            8 
 1837000   0.96212701   -7.8593182    461.70036  0.020944491  0.020824312            3 
 1838000   0.94339944   -7.8925935    461.26086  0.020913169  0.020817943            3 
 1839000   0.96360726   -7.8788022    461.75896  0.020924369  0.020811631            3 
 1840000   0.96943769    -7.876898    462.05593  0.020926446  0.020805262            2 
 1841000   0.97053401   -7.8893183    461.96118   0.02091079  0.020798838            4 
 1842000   0.97263505   -7.8610708     461.3309  0.020870924  0.020792459            3 
 1843000   0.95644403   -7.8889649    462.10225  0.020894477  0.020786134            3 
 1844000    0.9595958   -7.8886061    461.31136  0.020847404  0.020779768            6 
 1845000   0.97234734   -7.8533562    462.44758  0.020887425  0.020773427            7 
 1846000   0.95860756   -7.8646726    462.02054  0.020856832   0.02076707            4 
 1847000   0.97067061   -7.8808957    462.58153  0.020870851  0.020760725            5 
 1848000   0.94094372   -7.8939882    462.45061  0.020853653  0.020754359            3 
 1849000   0.96200716   -7.9111028    462.67237  0.020852369  0.020747954            2 
 1850000   0.97787468   -7.9267336    462.59402  0.020837569  0.020741524            5 
 1851000   0.96319924   -7.8846366    462.83927  0.020837352  0.020735166            7 
 1852000   0.94779755   -7.9072384    463.12174  0.020838811  0.020728751            3 
 1853000   0.94875557   -7.9261696    461.90434  0.020772816  0.020722344            3 
 1854000   0.97020735   -7.8817403    461.79188  0.020756557  0.020715949            3 
 1855000   0.93874288   -7.8976417    462.43605  0.020774306  0.020709547            2 
 1856000   0.97565263   -7.8674446    464.52548  0.020856927  0.020703118            3 
 1857000   0.96137829   -7.8767228    463.72325  0.020809695  0.020696768            5 
 1858000   0.94863041   -7.8597869    465.13943  0.020862012  0.020690495            3 
 1859000   0.95124439   -7.8829162    463.07428  0.020758216  0.020684135            2 
 1860000   0.95394463   -7.8958479    463.46352  0.020764494  0.020677717            4 
 1861000   0.96100894   -7.8754311    465.58146  0.020848176  0.020671352            3 
 1862000   0.93772791   -7.9014013    462.81909   0.02071335  0.020665027            6 
 1863000   0.93323341   -7.9083473    464.10616  0.020759803  0.020658686            2 
 1864000   0.96624506   -7.8842919    464.81404  0.020780313   0.02065236            2 
 1865000   0.95868812   -7.8766192    465.45213  0.020797682  0.020646053            5 
 1866000   0.94568059   -7.9014324    464.65245  0.020750824  0.020639746            3 
 1867000   0.95434569   -7.9313787    464.74187  0.020743701  0.020633353            1 
 1868000   0.96452688   -7.8630687    466.39004  0.020806122   0.02062704            2 
 1869000    0.9564597    -7.874945    465.22733  0.020743148  0.020620753            1 
 1870000   0.96239471   -7.9283866    465.06565  0.020724851  0.020614417            8 
 1871000   0.95944456    -7.870508    466.08659  0.020759246  0.020608072            4 
 1872000   0.93672401   -7.8812393    467.02063  0.020789736  0.020601837            1 
 1873000   0.95092831   -7.8925308    465.82628  0.020725497  0.020595596            3 
 1874000   0.94462544   -7.8963058    465.17119  0.020685307  0.020589303            1 
 1875000   0.96009719   -7.8725339    466.85759  0.020749226  0.020582983            2 
 1876000   0.96506234   -7.8931818    464.86773  0.020649775  0.020576632            2 
 1877000   0.96304585   -7.9085919    465.46346  0.020665222  0.020570315            2 
 1878000   0.94515955   -7.9040736    466.02379  0.020679082  0.020563921            3 
 1879000   0.96259348   -7.9106413    467.00365  0.020711533  0.020557542            1 
 1880000   0.92957677   -7.8965746    465.85153  0.020649447  0.020551229            4 
 1881000   0.95555237   -7.9065852    466.60456  0.020671831  0.020544864            2 
 1882000   0.95919551   -7.9135623    466.61869  0.020661472  0.020538537            3 
 1883000   0.96013471   -7.9490525      466.444  0.020642769  0.020532257            2 
 1884000   0.95430514   -7.9326659    466.07429  0.020615459  0.020525831            2 
 1885000   0.96150356   -7.9107673    466.60694   0.02062807  0.020519577            2 
 1886000   0.95368202   -7.9045915    468.04911  0.020680855  0.020513346            3 
 1887000   0.94632206   -7.8796625    467.95083  0.020665555  0.020507047            2 
 1888000   0.95292653   -7.9410814    465.94287  0.020565981  0.020500706            2 
 1889000   0.95042132   -7.9355641    466.67514  0.020587398  0.020494302            2 
 1890000   0.94848265   -7.9465193    465.94727  0.020544412  0.020487814            2 
 1891000   0.95829257   -7.9209558    466.82447  0.020572205  0.020481356            1 
 1892000   0.96160917   -7.9224572    466.97341  0.020567891  0.020474943            2 
 1893000   0.95755887    -7.910714    467.78029  0.020592547  0.020468466            4 
 1894000   0.92849901     -7.92048    467.36849  0.020563555  0.020462014            2 
 1895000   0.94733863   -7.9520046    465.84636  0.020485768  0.020455613            2 
 1896000   0.95179187   -7.8744197    466.76183    0.0205152  0.020449118            4 
 1897000   0.93962571   -7.9077644    467.96433   0.02055721  0.020442675            2 
 1898000   0.93101524    -7.903028    468.30593  0.020561377  0.020436229            2 
 1899000   0.94066224   -7.9331059    467.68103  0.020523127  0.020429821            2 
 1900000   0.94431362    -7.892725    468.32887   0.02054074  0.020423396            4 
 1901000   0.95185877   -7.9007951    468.35653  0.020531147  0.020416962            3 
 1902000   0.96749309   -7.9023587    468.04635  0.020506762  0.020410651            6 
 1903000   0.93715261   -7.9140793     469.7871  0.020572215   0.02040433            2 
 1904000   0.94066953   -7.9057387    469.38938  0.020544003  0.020398006            3 
 1905000   0.93900523   -7.8979698    469.13755  0.020522202  0.020391772            3 
 1906000   0.96337907   -7.9294343    469.03683  0.020507032  0.020385459            1 
 1907000   0.94808881   -7.9312478    468.89659   0.02049015    0.0203791            4 
 1908000   0.93965425   -7.8901243    469.94618  0.020525252  0.020372756            2 
 1909000   0.95079613   -7.9332095      469.242  0.020483761  0.020366409            2 
 1910000    0.9308818   -7.9048938    469.58279  0.020487905   0.02036001            1 
 1911000   0.95065349   -7.8720955    469.26719  0.020463422   0.02035364            3 
 1912000   0.92678603   -7.9342139    468.74417  0.020429924  0.020347296            3 
 1913000   0.94520301   -7.8804515    470.85439  0.020511169   0.02034093            6 
 1914000   0.93487291    -7.934771    470.38203  0.020479886  0.020334576            3 
 1915000   0.94074366   -7.9576906    467.69671  0.020352337  0.020328183            2 
 1916000   0.93862636   -7.9575973    469.06682  0.020401306  0.020321754            3 
 1917000   0.94592623   -7.9695772     470.2119  0.020440441  0.020315323            6 
 1918000    0.9366999   -7.9346232    470.50932  0.020442706    0.0203089            3 
 1919000   0.96843006   -7.9410411    471.15127   0.02045993  0.020302587            3 
 1920000   0.92922397   -7.9200179    471.79675  0.020477289  0.020296293            5 
 1921000   0.94938394   -7.9578189    470.79251  0.020423066  0.020289971            3 
 1922000   0.94349149   -7.9667126    470.13269  0.020383832  0.020283655            2 
 1923000   0.96000681    -7.949637    470.58135  0.020392674  0.020277345            2 
 1924000   0.94312262     -7.93381    471.46747  0.020420455  0.020270947            3 
 1925000   0.96091715   -7.9362324    470.18881  0.020354494  0.020264587            5 
 1926000   0.96870591   -7.9584339    471.73802  0.020410956  0.020258271            3 
 1927000   0.93808172   -7.9851619    469.71935  0.020313067  0.020251938            4 
 1928000   0.95833969    -7.937717    471.38879  0.020374688  0.020245544            3 
 1929000   0.94400541    -7.947813    472.14231  0.020396678  0.020239248            2 
 1930000   0.94305671   -7.9708349    470.90313  0.020332605  0.020232912            3 
 1931000   0.93450631   -7.9945708    471.24234  0.020336714  0.020226592            5 
 1932000   0.91823116   -7.9668372    471.02026  0.020316609  0.020220223            4 
 1933000   0.97374812   -7.9535157     471.4439  0.020324362  0.020213855            7 
 1934000   0.95351656    -7.991444    468.85455  0.020202282  0.020207494            4 
 1935000   0.96100803   -7.9950346    470.77259  0.020274444  0.020201104            2 
 1936000   0.92990212   -7.9715867    472.51786  0.020339095  0.020194802            3 
 1937000   0.93674067   -7.9390533    472.78099  0.020339915  0.020188486            2 
 1938000   0.94171624   -7.9173586     474.3056  0.020394977  0.020182278            2 
 1939000   0.94583791    -7.932997    473.09925  0.020332614  0.020176045            4 
 1940000    0.9472676   -7.9492349    472.70754  0.020305307  0.020169783            3 
 1941000   0.94539675   -7.9291442    474.58651  0.020375516  0.020163604            6 
 1942000   0.92572388   -7.8929821    474.43494  0.020358519  0.020157468            2 
 1943000   0.94317374   -7.9174021    474.76242  0.020362087  0.020151372            2 
 1944000   0.91410346   -7.9544226    473.43543  0.020294729  0.020145211            2 
 1945000   0.94351913   -7.9507578    473.68014  0.020294779  0.020139044            4 
 1946000   0.93284786   -7.9242574    474.15595  0.020304725  0.020132885            6 
 1947000   0.93034073   -7.9222093    474.66854  0.020316236  0.020126708            4 
 1948000   0.93769375   -7.9083538    474.87775  0.020314757   0.02012051            2 
 1949000   0.95561734   -7.9314029    474.28151   0.02027884  0.020114364            4 
 1950000   0.94786235   -7.9561226    473.71646  0.020244293  0.020108158            4 
 1951000   0.91830842   -7.9570523    474.47335  0.020266246   0.02010199            7 
 1952000   0.94339923   -7.9149855    475.15689  0.020285045  0.020095787           10 
 1953000   0.94690602   -7.9211789    475.29033  0.020280352  0.020089626            3 
 1954000   0.93866713   -7.9441029     475.0643  0.020260334  0.020083355            3 
 1955000   0.93527187   -7.9717962    474.01741  0.020205346  0.020077046            9 
 1956000   0.95601114   -7.9400665    474.30211  0.020207145  0.020070767            2 
 1957000   0.94358642   -7.9390838    474.65286  0.020211755  0.020064517            7 
 1958000   0.93637258   -7.9264969    473.86347  0.020167836  0.020058281            3 
 1959000   0.92697758   -7.9283785    475.19445  0.020214159  0.020052037            2 
 1960000   0.93971125   -7.9212024    474.69324  0.020182536  0.020045792            3 
 1961000   0.91202184   -7.9066662    474.90728  0.020181339  0.020039556            2 
 1962000   0.92507031   -7.9478861    474.95081  0.020172902  0.020033369            2 
 1963000   0.94466904   -7.9492315    473.27125  0.020091325  0.020027142            4 
 1964000     0.937979   -7.9287797    475.46816  0.020174311  0.020020874            2 
 1965000   0.92194133   -7.9538819    474.71729    0.0201322  0.020014589            3 
 1966000   0.94090351   -7.9792709    475.90838  0.020172447  0.020008318            2 
 1967000   0.92925276   -7.9781536    475.99459  0.020165844  0.020002139            1 
 1968000   0.92285733   -7.9335209    477.64979  0.020225686  0.019995931           14 
 1969000   0.94375608   -7.9697428    475.94841  0.020143406  0.019989787            3 
 1970000   0.91126885   -7.9112289    476.61717  0.020161471  0.019983669            3 
 1971000   0.93891136   -7.9228315    475.71987  0.020113304  0.019977466            4 
 1972000    0.9389272     -7.99253     474.8364  0.020065771   0.01997125            8 
 1973000   0.92559963   -7.9695291    475.97395  0.020103647   0.01996501            2 
 1974000   0.93966008   -7.9549952    476.98064  0.020135961  0.019958774            3 
 1975000   0.94200371   -7.9336762    477.87548  0.020163522  0.019952556            2 
 1976000   0.95278492   -8.0092075    475.71393   0.02006216  0.019946338            4 
 1977000    0.9246173   -7.9665959    477.06578  0.020108994  0.019940093            3 
 1978000   0.91107416   -7.9557524    476.56079  0.020077553  0.019933852            3 
 1979000   0.94372949   -7.9638252    475.81049  0.020035813  0.019927607            1 
 1980000   0.92754371   -7.9536003    477.55534  0.020099131  0.019921357            3 
 1981000   0.92458466    -7.948288    476.09733  0.020027651  0.019915026            6 
 1982000   0.92339357   -7.9857545    475.42073  0.019989099  0.019908587            4 
 1983000   0.92618807   -8.0177483    475.78796  0.019994451  0.019902188            4 
 1984000   0.94828041   -7.9557959    476.23451   0.02000313   0.01989585            3 
 1985000   0.96851405   -7.9549018    476.30983  0.019996215  0.019889443            3 
 1986000   0.91656489   -7.9652235    475.66104  0.019958922  0.019883074            5 
 1987000   0.91873773   -7.9449909    476.99874   0.02000498  0.019876684            3 
 1988000   0.90711222   -7.9547142    475.72875  0.019941681  0.019870304            2 
 1989000   0.90534429   -7.9797448    476.56986  0.019966895  0.019863995            2 
 1990000   0.92434074   -7.9449513    477.48762  0.019995294  0.019857704            5 
 1991000   0.91443315   -7.9225259    476.34027  0.019937229  0.019851426            5 
 1992000   0.93412584   -7.9405935    478.48819  0.020017076  0.019845128            2 
 1993000   0.93937594   -7.9729007    477.92524  0.019983494  0.019838807            1 
 1994000   0.92487039   -7.9347092    478.42793  0.019994481   0.01983245            2 
 1995000   0.92382071   -7.9359574    477.39688   0.01994139  0.019826131            4 
 1996000    0.9136776   -7.9559108    476.86939  0.019909376  0.019819752            3 
 1997000   0.93483505   -7.9652449    477.34309  0.019919174   0.01981339            2 
 1998000     0.937285   -7.9667503    475.99845  0.019853122  0.019806964            2 
 1999000   0.94276936   -7.9815537    478.20426  0.019935145  0.019800545            4 
 2000000   0.92452772   -7.9630628    477.12715  0.019880298  0.019794127            3 
 2001000   0.94385345   -8.0011481    477.72829  0.019895398  0.019787663            2 
 2002000   0.94228617   -7.9542391    479.04237  0.019940159    0.0197813            3 
 2003000   0.92479968   -7.9796874    477.59829  0.019870124  0.019774939            2 
 2004000   0.93497925    -7.963597    477.19415  0.019843403  0.019768554            4 
 2005000   0.91910834   -7.9282382    478.26147  0.019877867  0.019762243            2 
 2006000   0.91635781   -7.9473442    478.24603  0.019867316   0.01975596            8 
 2007000   0.93193288   -7.9714612    477.71103  0.019835203  0.019749621            5 
 2008000   0.92345451   -7.9887042    477.21947  0.019804925  0.019743209            6 
 2009000   0.92277406   -7.9784199    478.53466  0.019849621  0.019736852            3 
 2010000   0.93078624   -7.9320344    478.85373  0.019852974  0.019730578            7 
 2011000   0.92664638   -7.9819124    478.62275   0.01983353  0.019724206            2 
 2012000   0.94026877   -7.9704397     478.2822  0.019809568  0.019717785            2 
 2013000   0.92847828   -7.9706187    480.35012  0.019885334  0.019711408            4 
 2014000   0.93896695   -7.9669608    478.25143  0.019788623  0.019705068            2 
 2015000   0.91216297   -7.9577048    479.22403  0.019819025  0.019698705            3 
 2016000   0.93416894   -7.9749463    478.54499  0.019781126  0.019692334            3 
 2017000   0.92067549   -8.0024569    479.08992  0.019793832  0.019685887            1 
 2018000   0.95852634   -8.0114135    477.47626  0.019717388  0.019679492            1 
 2019000   0.93389699   -7.9692757    478.65374  0.019756222  0.019673188            3 
 2020000   0.92686562   -7.9484507    480.55694  0.019824956   0.01966692            4 
 2021000   0.93328899   -7.9718647    478.27039  0.019720864  0.019660697            2 
 2022000   0.92471346   -8.0029995    479.30163  0.019753612  0.019654475            4 
 2023000   0.92185996   -7.9455065    479.51624  0.019752688  0.019648243            3 
 2024000   0.92935139   -7.9925452    479.66385  0.019749006  0.019641994            4 
 2025000    0.9402438   -7.9992351    480.39807  0.019769468  0.019635726            1 
 2026000   0.92909715   -7.9999817    480.06148  0.019745866  0.019629443            2 
 2027000   0.92736412   -7.9744862    480.59644  0.019758117  0.019623176            2 
 2028000   0.93765951   -7.9762928    479.89135  0.019719401  0.019616936            9 
 2029000   0.92006434   -7.9569951    481.02241  0.019756136  0.019610658            2 
 2030000   0.90928099   -7.9894542    481.34022  0.019759451  0.019604361            3 
 2031000   0.91782306   -7.9586289    480.12087  0.019699691  0.019598119            2 
 2032000   0.93694514   -7.9883529    481.78466  0.019758229  0.019591894            4 
 2033000   0.93297143   -7.9907532    480.71888  0.019704824  0.019585605            5 
 2034000   0.92350881   -7.9741172    480.94087  0.019704231    0.0195793            5 
 2035000   0.92611341   -7.9730407    481.56035  0.019719916   0.01957302            2 
 2036000   0.93902768   -7.9897024    480.63194  0.019672231  0.019566713            2 
 2037000   0.91895909   -7.9749389    482.04314  0.019720305  0.019560387            7 
 2038000   0.94208191   -7.9486675    481.91139  0.019705242  0.019554104            7 
 2039000   0.91965698   -7.9844574    482.17834  0.019706488    0.0195478            6 
 2040000   0.92023408   -7.9672858     481.5738  0.019672132  0.019541537            6 
 2041000   0.91851772   -7.9805491    482.08638  0.019683422  0.019535214            3 
 2042000   0.92698012   -7.9625823    481.90208  0.019666262  0.019528945            5 
 2043000   0.94770708   -7.9760459    481.98376  0.019659968  0.019522732            1 
 2044000   0.93500905   -7.9671834    481.87674  0.019645986  0.019516564            3 
 2045000   0.90373253   -8.0044249     481.7651   0.01963183  0.019510345            2 
 2046000    0.9232081   -7.9817619    482.45903  0.019650498  0.019504113            1 
 2047000   0.91200954   -7.9712274    482.89613  0.019658693  0.019497973            3 
 2048000   0.92248229   -8.0119354    482.17665  0.019619818  0.019491758            3 
 2049000    0.9286708   -7.9540466    483.33244  0.019657249  0.019485533            3 
 2050000   0.93783086   -7.9646052    483.35063  0.019648399   0.01947932            2 
 2051000   0.93397984   -8.0051929    482.54546  0.019606105  0.019473139            1 
 2052000    0.9225386   -8.0225061    482.09999   0.01957846  0.019466912            6 
 2053000   0.93212549   -8.0282991    482.58999  0.019588813  0.019460667            1 
 2054000   0.93691506   -8.0132663     481.8339    0.0195486  0.019454424            7 
 2055000   0.93664911   -7.9869792    483.12767  0.019591552  0.019448136            8 
 2056000   0.91940849   -8.0131786    482.80321  0.019568872  0.019441838            5 
 2057000   0.93947885   -8.0448527    481.44906  0.019504499  0.019435528            4 
 2058000   0.89709891   -8.0142619    482.05187  0.019519431  0.019429169            4 
 2059000    0.9205554   -7.9982095    483.42953  0.019565709  0.019422825            4 
 2060000   0.92679057   -8.0016392    483.14517  0.019544708  0.019416563            2 
 2061000   0.91747798   -8.0100114    482.75847  0.019519589  0.019410251            5 
 2062000   0.93260806   -8.0015677    482.92646  0.019516912  0.019403982            4 
 2063000   0.91565191   -7.9622552    485.29476  0.019603117   0.01939771            1 
 2064000   0.91362992   -7.9624915    485.40589  0.019598106  0.019391477            2 
 2065000   0.94027387   -8.0069933    483.28938  0.019503204  0.019385214            3 
 2066000   0.93084953   -7.9734665    484.44202  0.019540256  0.019378946            4 
 2067000   0.92255116   -7.9565019    484.09265  0.019516717  0.019372674           11 
 2068000   0.93422131   -7.9917358    483.94169  0.019501197  0.019366445            6 
 2069000   0.92748388    -7.975643    484.17514  0.019501174  0.019360237            2 
 2070000   0.90532536     -7.95314    484.55779  0.019507158  0.019353992            1 
 2071000   0.92819329   -7.9674995    485.23716  0.019525075   0.01934771            3 
 2072000   0.92452454   -7.9933984    483.21598  0.019434362  0.019341408            4 
 2073000   0.93371143   -7.9912147     484.2166  0.019465211  0.019335111            3 
 2074000   0.91066065   -8.0133233    484.02506   0.01944813  0.019328795            3 
 2075000   0.92544893   -7.9403253    484.53553  0.019459258  0.019322519            3 
 2076000    0.9412247   -7.9799359    484.19892  0.019436373  0.019316269            6 
 2077000    0.9081321   -7.9985745    483.25938  0.019389319  0.019309955            2 
 2078000    0.9228603   -7.9912232    483.64849  0.019395592  0.019303583            4 
 2079000   0.91481172   -8.0227571    482.73361  0.019349592  0.019297167            3 
 2080000   0.92051345   -7.9934644    483.22785   0.01936009  0.019290729            1 
 2081000   0.91681265   -7.9622681    484.03951   0.01938329  0.019284333            2 
 2082000   0.95617521   -7.9710399    483.32925  0.019345551  0.019277994            2 
 2083000   0.93930926   -7.9643479    484.19447  0.019370878  0.019271699            4 
 2084000     0.904969    -7.973956    484.86503  0.019388397  0.019265321            5 
 2085000   0.91989691   -8.0121472    485.11399  0.019389049  0.019258948            3 
 2086000    0.9248146    -7.978057    483.85798  0.019329577  0.019252602            4 
 2087000   0.91722974   -7.9906982     483.5736   0.01930896  0.019246266            2 
 2088000    0.9238047   -8.0123936    483.69833  0.019304691  0.019239948            6 
 2089000   0.92543331   -7.9874556    484.25692  0.019317733  0.019233583            3 
 2090000   0.92447645   -7.9869574    484.99079  0.019337751  0.019227208            6 
 2091000   0.91618328   -8.0067086    483.43297  0.019266419  0.019220872            2 
 2092000   0.91117915   -7.9539575    485.11354  0.019324153  0.019214611            7 
 2093000   0.89803024   -8.0084087    485.43015  0.019327526  0.019208303           11 
 2094000    0.9078984    -7.988961    485.41476  0.019317684  0.019201988            4 
 2095000   0.89857785   -7.9659496    486.58211  0.019354897  0.019195696            3 
 2096000   0.91416924   -8.0184402    485.14953  0.019288706  0.019189386            2 
 2097000   0.90446665    -8.015376    486.41034  0.019329611  0.019183097            2 
 2098000    0.9105831   -7.9895501    485.59579  0.019288044  0.019176773            7 
 2099000   0.92040367   -8.0033148    487.20533  0.019342756  0.019170457            1 
 2100000    0.9194117   -8.0258555    486.05161  0.019287762  0.019164155            2 
 2101000   0.91095863   -8.0181069    486.70468  0.019304485  0.019157844            6 
 2102000   0.91101921   -7.9802695    487.26743  0.019317612  0.019151547            4 
 2103000   0.89679508   -7.9545421    487.02794  0.019298935  0.019145282           14 
 2104000    0.9186917    -8.016549    486.58149  0.019272081  0.019139002            2 
 2105000   0.90694991    -8.004435    486.75205  0.019269677  0.019132714            2 
 2106000   0.90183293   -8.0051041    486.06979  0.019233531   0.01912642            7 
 2107000   0.92147339   -7.9823313    486.98799  0.019260718  0.019120101            3 
 2108000   0.90857352   -8.0397983    484.77302  0.019164019  0.019113751            6 
 2109000   0.93503042   -7.9911808    487.37024  0.019257557  0.019107371            6 
 2110000   0.93621179   -8.0031037    486.67434  0.019220945  0.019101023            3 
 2111000   0.91828854   -8.0090843    487.29798  0.019236459  0.019094672            5 
 2112000   0.92418691   -8.0130059    485.97638  0.019175204   0.01908834            3 
 2113000   0.93182271   -8.0410273    487.14039  0.019212036  0.019081989            4 
 2114000   0.91786568    -7.986731    487.47371  0.019216088  0.019075698            2 
 2115000   0.93024515   -8.0247487    486.81137  0.019180905  0.019069423            1 
 2116000   0.94174831   -8.0034945    487.01781  0.019179971   0.01906316            5 
 2117000   0.90766822    -8.032072    487.70463  0.019197946   0.01905689            2 
 2118000   0.90348764   -8.0333108    486.23227  0.019130952   0.01905059            5 
 2119000   0.90829999   -8.0040815    488.52865  0.019212233  0.019044272            3 
 2120000   0.93747824   -8.0319107    487.30123  0.019154923  0.019037948            8 
 2121000   0.91627516   -8.0608615    487.54398  0.019155429  0.019031624            3 
 2122000   0.91118999   -8.0154168    487.37727  0.019139855  0.019025362           12 
 2123000   0.89496861   -8.0076679    488.02376  0.019156216  0.019019122            2 
 2124000   0.90790971   -7.9817912    488.84439  0.019179394  0.019012898            2 
 2125000   0.92275433   -8.0050858    490.07304  0.019218551  0.019006742            4 
 2126000   0.89386397   -8.0043445    488.91856  0.019164258  0.019000579            3 
 2127000   0.92122465   -7.9650004    490.69407  0.019224811  0.018994432            8 
 2128000   0.92502098   -8.0193807    489.05853  0.019151728  0.018988314            4 
 2129000   0.91563074   -8.0259295     489.6013  0.019163978   0.01898219            6 
 2130000   0.93227619    -8.021656    490.31681  0.019182974  0.018976098            2 
 2131000   0.92646952    -8.020276    490.29212  0.019173007  0.018969966            3 
 2132000   0.89515273   -7.9905821    489.87879  0.019147858  0.018963804            2 
 2133000   0.90057908   -8.0211632    489.30628  0.019116513  0.018957688            4 
 2134000   0.91473352   -8.0195038    489.57345  0.019117989  0.018951612            3 
 2135000    0.9258208   -7.9953816    490.22347  0.019134406  0.018945484            2 
 2136000   0.91344098   -8.0046022    490.82724  0.019149003  0.018939367            2 
 2137000   0.91480672   -8.0347241    489.56986   0.01909101  0.018933208            2 
 2138000   0.91490096   -8.0013883    490.08601  0.019102199   0.01892701            3 
 2139000   0.92716767    -7.984804    491.34931  0.019142485  0.018920824            1 
 2140000   0.90828048   -8.0312919     489.8552  0.019075358  0.018914674            2 
 2141000   0.88918413   -8.0213681    489.41314  0.019049242  0.018908494            3 
 2142000   0.92286853   -8.0293113    489.95478  0.019061422  0.018902327            5 
 2143000   0.90700954   -8.0274532    490.76095  0.019083876  0.018896186            3 
 2144000   0.92891839   -8.0455456    490.35936  0.019059366  0.018889978            6 
 2145000   0.90007945   -8.0570875    489.35601    0.0190115  0.018883748            4 
 2146000   0.91696383   -8.0464898    490.57586   0.01905001   0.01887754            4 
 2147000   0.90588447   -8.0324582    490.86091  0.019052201  0.018871379            5 
 2148000    0.9088346   -8.0237468    490.68776  0.019036614  0.018865254            4 
 2149000   0.88741792   -8.0356883    490.59135  0.019024017  0.018859086            2 
 2150000   0.89750801   -8.0455874    491.27996  0.019041859  0.018852931            2 
 2151000   0.89438361   -7.9899388    491.78348  0.019052513  0.018846808            7 
 2152000   0.90203771   -8.0219983    489.56933   0.01895792  0.018840685            5 
 2153000   0.89186514   -8.0200657    491.28812  0.019015642  0.018834537            5 
 2154000   0.89409478   -7.9985658    491.97964  0.019033567  0.018828419            4 
 2155000   0.89784983     -8.03961    490.34146  0.018961387  0.018822287            3 
 2156000   0.90949338   -8.0368692    491.23376  0.018987081  0.018816148            3 
 2157000   0.89715516   -8.0482264    491.51184  0.018989022  0.018810006            3 
 2158000   0.88050614   -8.0213813    492.44186  0.019016136  0.018803903            1 
 2159000   0.89406958   -8.0375923     491.8432  0.018984221  0.018797734            4 
 2160000   0.90299434   -8.0281468    491.01309  0.018943406  0.018791566            2 
 2161000   0.88873088   -8.0417509    491.87989  0.018968066  0.018785416            2 
 2162000   0.92397795   -7.9973904    491.18969  0.018932689  0.018779251            3 
 2163000   0.90911364   -8.0357608     490.5466   0.01889916  0.018773071            2 
 2164000     0.893924    -8.008838    491.95921  0.018944825  0.018766867            3 
 2165000   0.90404437   -8.0385726    490.41045  0.018876461  0.018760661            3 
 2166000   0.89385797   -8.0263565    489.48769  0.018832244  0.018754434            1 
 2167000   0.90631022   -8.0365803    490.70194  0.018870248  0.018748243            4 
 2168000   0.89832202   -8.0131746    493.06616   0.01895242  0.018742026            6 
 2169000   0.91321372    -8.057527    492.14657  0.018908351  0.018735821            4 
 2170000   0.88910069   -8.0517878    491.13069  0.018860626  0.018729635            4 
 2171000   0.90124864   -8.0485822    491.35801  0.018860664  0.018723417            2 
 2172000   0.90405356   -8.0305616    492.66175  0.018902001  0.018717234            4 
 2173000   0.90594609   -8.0187195    491.69947  0.018856399  0.018711022            3 
 2174000    0.9259837   -8.0326347    492.04029   0.01886079  0.018704829            3 
 2175000      0.91588   -8.0558155    491.59978  0.018835241  0.018698568            4 
 2176000   0.90060013    -8.043573    491.95791    0.0188403  0.018692344            5 
 2177000   0.91878673   -8.0917624    490.76863  0.018786121  0.018686095            4 
 2178000   0.91501038   -8.0129007      493.457  0.018880356   0.01867984            3 
 2179000   0.89947685   -8.0283714    492.83113  0.018847756  0.018673599            4 
 2180000   0.89796677   -8.0577275     492.1274   0.01881221  0.018667353            2 
 2181000   0.89027158   -8.0507393    492.34315  0.018811827  0.018661116            2 
 2182000   0.90735595   -8.0501262    491.29919  0.018763336  0.018654865            7 
 2183000   0.91070972   -8.0761895    491.56395  0.018764848  0.018648575            2 
 2184000   0.90832719   -8.0535896    492.02094  0.018773693  0.018642281            5 
 2185000   0.91524179     -8.04382     491.0928  0.018729703  0.018636014            1 
 2186000   0.90044746   -8.0447929    492.66797  0.018781182  0.018629775            4 
 2187000   0.90198319   -8.0645441    492.95099  0.018783379  0.018623533            3 
 2188000   0.90889189   -8.0670229    491.62394  0.018724251  0.018617297            3 
 2189000   0.89739673   -8.0481594    493.33353   0.01878078   0.01861107            2 
 2190000   0.91062069    -8.038697    492.77752  0.018751047  0.018604888            2 
 2191000   0.90085591   -8.0757797    492.45804  0.018730338   0.01859864            3 
 2192000   0.92211968   -8.0704688    492.80486  0.018734978  0.018592413            2 
 2193000   0.88584215   -8.0269338    494.54849  0.018792692  0.018586183            1 
 2194000   0.87897551   -8.0789307    492.20049  0.018694944  0.018579951            2 
 2195000    0.8829404   -8.1061578    491.90392  0.018675168  0.018573602            2 
 2196000   0.89426776   -8.0723415    492.65984  0.018695349   0.01856734            3 
 2197000   0.89121005   -8.0976244    492.07027  0.018664477  0.018561095            3 
 2198000   0.89036629   -8.0701125    493.35239  0.018704595  0.018554878            3 
 2199000   0.90253183   -8.0387967     492.9947  0.018682534  0.018548678            1 
 2200000   0.87833233   -8.0234956    494.45572  0.018729383  0.018542452            2 
 2201000   0.88808674   -8.0435952    493.39164  0.018680586  0.018536223            2 
 2202000   0.88380037   -8.0454468    494.30103  0.018706518  0.018529962            6 
 2203000   0.90073287    -8.055672     494.2557  0.018696312   0.01852373            2 
 2204000   0.90399988   -8.0445452    494.88872  0.018711763  0.018517503            3 
 2205000   0.89424459   -8.0609342    493.14162  0.018637249  0.018511294            2 
 2206000   0.91272088   -8.0323033    495.02132  0.018699808  0.018505102            2 
 2207000   0.87757491   -8.0563277    494.29616  0.018663954   0.01849891            2 
 2208000   0.90436941   -8.0514154    494.98909  0.018681654  0.018492708            3 
 2209000   0.90270217   -8.0642312    494.78804  0.018665612  0.018486543            3 
 2210000   0.89536255    -8.048892    494.74278  0.018655459  0.018480357            4 
 2211000   0.88479853   -8.0428727    494.43995  0.018635608  0.018474192            3 
 2212000    0.9016514   -8.0397455    494.91918  0.018645237  0.018468014            4 
 2213000   0.90446643    -8.051071    495.45249  0.018656894   0.01846186            3 
 2214000   0.91677483   -8.0429228    495.34846  0.018644552  0.018455674            4 
 2215000   0.93042058   -8.0212469    496.32959  0.018673047  0.018449564            4 
 2216000    0.9147744   -8.0673787    494.37583  0.018591149  0.018443452            3 
 2217000   0.89638646   -8.1019755    494.35048   0.01858181  0.018437274            3 
 2218000   0.88655543    -8.089525    494.14331  0.018565649   0.01843107            7 
 2219000   0.89118435   -8.0613893    494.74024    0.0185797  0.018424834            3 
 2220000   0.89931942   -8.0437897    495.89906  0.018614829  0.018418675            2 
 2221000   0.89293132   -8.0258904    495.71881  0.018599685  0.018412465            5 
 2222000   0.88825233   -8.0574462     495.2042  0.018572015  0.018406283            3 
 2223000   0.90724296   -8.0985793    495.21648  0.018564121  0.018400092            2 
 2224000   0.89278586   -8.0440902    495.40402  0.018562801  0.018393941            2 
 2225000   0.90039702   -8.0951543     494.4372  0.018518247  0.018387756            2 
 2226000   0.90781209   -8.0745396    495.70911  0.018557544  0.018381622            3 
 2227000   0.89744651   -8.0423256    496.41319  0.018575557  0.018375472            9 
 2228000   0.89294238   -8.0769308    495.13175  0.018519291  0.018369304            7 
 2229000   0.85899892    -8.097284    493.90597  0.018465155  0.018363075            6 
 2230000   0.89891764   -8.0579989    494.90121  0.018494066  0.018356857            4 
 2231000   0.86916118   -8.0533516    496.45752  0.018543908  0.018350655            7 
 2232000   0.88962052   -8.1141983    495.08179  0.018484237  0.018344433            2 
 2233000   0.89297426   -8.1087528     495.4332  0.018489073  0.018338205            3 
 2234000   0.90713542   -8.0683634    495.83469  0.018495773  0.018332002            2 
 2235000   0.87914464   -8.0936566    494.70454  0.018445359  0.018325762            3 
 2236000   0.89535033   -8.0783893    495.52833  0.018467812   0.01831954            4 
 2237000    0.8951675   -8.0379841    496.80923  0.018507273  0.018313361            3 
 2238000   0.91156487   -8.0597222    496.75473  0.018496974  0.018307179            3 
 2239000   0.87644402   -8.0606548    495.54296  0.018443612  0.018301051            3 
 2240000   0.88538284   -8.0815986     495.9661   0.01845112  0.018294909            2 
 2241000    0.8863982   -8.0724786    496.26092  0.018453849  0.018288756            5 
 2242000   0.89722527   -8.0687432    494.20938  0.018369364  0.018282519            3 
 2243000   0.92910333   -8.0471837    496.55944  0.018448486  0.018276312            3 
 2244000   0.89607609   -8.0917664     496.2061  0.018427143  0.018270151            2 
 2245000   0.88608999   -8.0874369    495.38211  0.018388349  0.018263994            6 
 2246000   0.89875988   -8.0497272    497.03934  0.018441649  0.018257834            3 
 2247000   0.88953479   -8.0675542    496.91076  0.018428674  0.018251707            7 
 2248000   0.89038236   -8.0824259    497.10902  0.018427825  0.018245551            3 
 2249000   0.88744869   -8.0012824    497.75605  0.018443607  0.018239465            3 
 2250000   0.91165341   -8.0604219     495.5951  0.018355374  0.018233333            2 
 2251000   0.90129807   -8.0489689    497.21896  0.018407336  0.018227215            3 
 2252000   0.89454152    -8.039279    498.27365   0.01843819  0.018221058            6 
 2253000   0.85768617   -8.0554708    497.29486  0.018393803  0.018214893            2 
 2254000   0.87655042    -8.087079    496.53405  0.018357514  0.018208709            5 
 2255000   0.89360727   -8.0758205    496.78013  0.018358468  0.018202496            3 
 2256000   0.90698934   -8.0939407     496.1297  0.018326304  0.018196298            5 
 2257000   0.90897976   -8.0821911    496.70487  0.018339421  0.018190125            6 
 2258000   0.88145595   -8.0849673    497.37221  0.018355928  0.018183997            6 
 2259000   0.87648357   -8.0808309    497.12831  0.018338804  0.018177849            3 
 2260000   0.90009873   -8.0521208    498.24705  0.018371941  0.018171736            3 
 2261000   0.86948464   -8.0522095    498.35912  0.018367946  0.018165653            2 
 2262000   0.88765662   -8.0994328    498.33493  0.018358935  0.018159531            2 
 2263000   0.88458653   -8.0811909    497.39081  0.018316056   0.01815339            4 
 2264000   0.89580525   -8.0798029    498.27528  0.018340521  0.018147252            2 
 2265000   0.89212544   -8.0639212    498.21727  0.018330289   0.01814109            5 
 2266000   0.89393552   -8.1095362    496.87776  0.018272939    0.0181349            8 
 2267000   0.88839146    -8.092083    497.55916  0.018289927  0.018128728            2 
 2268000   0.89787159   -8.1187665    497.32873  0.018273395  0.018122521            2 
 2269000   0.88156554   -8.0722768    498.10292  0.018293776  0.018116321            4 
 2270000   0.89004877   -8.0933659    497.55894  0.018265747  0.018110165            8 
 2271000   0.87001098   -8.0873968    498.33857  0.018286312  0.018103978            7 
 2272000   0.88831329   -8.0687975     498.1336  0.018270745  0.018097803            2 
 2273000   0.88505297   -8.0631181    499.20282  0.018301907  0.018091651            7 
 2274000   0.89670444   -8.0918045    498.29724  0.018260673   0.01808549            3 
 2275000   0.89066022   -8.0810931    497.61894    0.0182278   0.01807935           11 
 2276000   0.87854947   -8.0965551    498.10436  0.018237565  0.018073173            7 
 2277000   0.88654213   -8.0754266    498.55925  0.018246203  0.018067009            4 
 2278000   0.89514234   -8.0416698    496.78755  0.018173381  0.018060838            5 
 2279000   0.87583379   -8.0900592    498.38034  0.018223648  0.018054645            3 
 2280000   0.88467799   -8.1152245    498.24966  0.018210879  0.018048438            3 
 2281000   0.89596401   -8.0929192    497.67069  0.018181744  0.018042225            5 
 2282000    0.8727927   -8.0699088    496.99999  0.018149284  0.018036029            2 
 2283000   0.89728069   -8.1054529    498.24716  0.018186858  0.018029821            5 
 2284000   0.90261827    -8.073111    499.50705  0.018224863  0.018023656            2 
 2285000   0.89943614   -8.0851794    499.89032  0.018230865  0.018017491            3 
 2286000   0.89198719   -8.0928961    499.00459  0.018190602  0.018011339            6 
 2287000    0.8995866   -8.0965183    498.62169  0.018168696  0.018005192            3 
 2288000   0.89043464   -8.0671112     499.5962  0.018196249   0.01799906            6 
 2289000    0.8817341   -8.0507564    499.54105  0.018186291  0.017992956            3 
 2290000   0.87766081   -8.0815003    498.04355  0.018123856  0.017986845            6 
 2291000   0.86382342   -8.0842903     499.0014  0.018150786  0.017980671            3 
 2292000   0.89359637   -8.0612761    498.34863  0.018119133  0.017974506            3 
 2293000   0.87085883   -8.1039751    497.78684  0.018090814  0.017968302            4 
 2294000   0.87165847   -8.0549212    498.71516  0.018116651  0.017962109            3 
 2295000   0.88007015   -8.0518027    500.63754   0.01817856  0.017955945            6 
 2296000   0.86552345   -8.0703588    498.68158  0.018099651  0.017949783            3 
 2297000   0.87061592   -8.0633298    499.82263  0.018133168  0.017943646            3 
 2298000   0.88505614    -8.066928    499.86434  0.018126789  0.017937554            4 
 2299000   0.88396896   -8.0530026    499.93517  0.018121472  0.017931441            2 
 2300000   0.90824238   -8.0634763    499.14716  0.018085042  0.017925346           12 
 2301000    0.8925425   -8.0643786     500.1129  0.018112158  0.017919227            4 
 2302000    0.8952865     -8.08885    499.18966  0.018070868  0.017913058            1 
 2303000   0.88875325   -8.1318613    499.35669  0.018069065   0.01790688            2 
 2304000   0.86238305   -8.1109327    498.35783  0.018025095  0.017900716            6 
 2305000   0.88481767    -8.089526    501.13881  0.018117817  0.017894538            3 
 2306000    0.8914392   -8.0807253    499.48536  0.018050208  0.017888395            3 
 2307000   0.86063356   -8.1401152    498.26714   0.01799838  0.017882224            7 
 2308000   0.86663022   -8.1403544    499.33456  0.018029122  0.017876005            4 
 2309000   0.87513693   -8.0856699    499.33033  0.018021161  0.017869801            2 
 2310000   0.87521079   -8.1066258     499.5131  0.018019953   0.01786366            3 
 2311000   0.88502742   -8.1158289    500.45716  0.018046198  0.017857532            3 
 2312000   0.89716071   -8.1029388    499.97329  0.018020952  0.017851401            2 
 2313000    0.8793789   -8.0970377    499.47445  0.017995188   0.01784525            3 
 2314000   0.85476311   -8.1040331    500.80894   0.01803547  0.017839112            3 
 2315000   0.86765873   -8.1524064    499.60693  0.017984411  0.017832945            3 
 2316000   0.86545421   -8.0788537     501.4641  0.018043469  0.017826787            2 
 2317000    0.8932755   -8.1332754    499.84859  0.017977579  0.017820682            4 
 2318000    0.8853544   -8.1045706    501.52639  0.018030141   0.01781457            2 
 2319000   0.85483803   -8.1033139    500.68447  0.017992111  0.017808449            2 
 2320000   0.88822916   -8.1030637    501.55177  0.018015509  0.017802333            4 
 2321000   0.88716829   -8.1181079    501.70529  0.018013259    0.0177962            4 
 2322000   0.87309589   -8.1057607    501.17457  0.017986455   0.01779007            4 
 2323000   0.87832847   -8.1138623    500.42587  0.017951853  0.017783937            4 
 2324000   0.87724111   -8.1251457    499.87154  0.017924252  0.017777767            4 
 2325000   0.87753659   -8.1290357    501.67121  0.017981047  0.017771598            3 
 2326000   0.89058799   -8.0917568    501.37849  0.017962829  0.017765457            3 
 2327000    0.8898879   -8.0811491     502.4945  0.017995076  0.017759364            2 
 2328000   0.88553609   -8.1176824    500.16755   0.01790405  0.017753284            2 
 2329000   0.88136764   -8.1422094    501.54323  0.017945586  0.017747148            2 
 2330000   0.87678307   -8.1565943    499.85719  0.017877582  0.017740956            2 
 2331000   0.88959118   -8.1478321    499.78269  0.017867249  0.017734749            4 
 2332000   0.89895383   -8.1222019    501.01905  0.017903768  0.017728578            3 
 2333000   0.88841669   -8.1432424    501.25794  0.017904627    0.0177224            4 
 2334000   0.88402808   -8.0653701    502.13298  0.017928198  0.017716271            5 
 2335000   0.87508555   -8.0939368    501.00109  0.017880125  0.017710149            3 
 2336000    0.8670186   -8.1413465    501.07478  0.017875099  0.017703999            4 
 2337000   0.86027693   -8.1369831    502.07432  0.017903092  0.017697831            4 
 2338000   0.88172143   -8.1395576    501.12841   0.01786172  0.017691691            2 
 2339000   0.87952411   -8.0889584    502.96151  0.017919392  0.017685594            2 
 2340000    0.8859307   -8.1122032    501.72552  0.017867718  0.017679472            3 
 2341000   0.86722575   -8.1099439    502.17866  0.017876216  0.017673343            9 
 2342000   0.89076817   -8.1184355    501.72159   0.01785232  0.017667225            4 
 2343000   0.87318069   -8.1328083    501.86888  0.017849939  0.017661137            2 
 2344000   0.88458302   -8.0803381    502.10889  0.017850856  0.017655061            1 
 2345000   0.88330948   -8.0931995    504.41536  0.017925208  0.017648997            2 
 2346000   0.87146741   -8.1099785    503.06513  0.017869605   0.01764295            2 
 2347000   0.86387713   -8.0885047    502.64269  0.017846992  0.017636905            8 
 2348000    0.8717782   -8.1095183    502.00806  0.017816868  0.017630866            2 
 2349000   0.87540487   -8.0948444    503.65631  0.017867756  0.017624841            4 
 2350000   0.86888633   -8.0655678    504.67593   0.01789631  0.017618881            6 
 2351000   0.86348966   -8.0814416    503.33971  0.017841334  0.017612909            2 
 2352000   0.88311995    -8.134634    503.23604  0.017830075  0.017606922            2 
 2353000   0.87158186   -8.0723966     504.2433   0.01785817  0.017600912            3 
 2354000   0.86932804   -8.1024401    503.63382  0.017829008  0.017594942           12 
 2355000   0.87179801   -8.0904774    503.81233  0.017827754  0.017588993            1 
 2356000   0.86449465   -8.0816917    504.66812  0.017850457  0.017583001            9 
 2357000   0.85367429   -8.1145221    503.95242  0.017817579  0.017577028            3 
 2358000   0.86720136   -8.0992363    504.43161  0.017826958  0.017571096            2 
 2359000   0.85689381   -8.1073796    504.51015  0.017822176  0.017565115            2 
 2360000   0.87752576   -8.1174661    503.37572  0.017774566  0.017559149            3 
 2361000   0.84559907   -8.1433576    502.82688  0.017747666  0.017553151            4 
 2362000   0.87103489   -8.1045655    503.78055  0.017773799  0.017547151            6 
 2363000   0.86651331   -8.1320551    503.02941  0.017739787  0.017541161            4 
 2364000   0.86824128   -8.1407244    502.51651  0.017714203   0.01753513            5 
 2365000   0.87651967   -8.1015981     503.5021  0.017741441  0.017529162            2 
 2366000   0.86506332   -8.1027681    504.83053  0.017780731  0.017523177            2 
 2367000     0.871053   -8.1215294    504.14583  0.017749114  0.017517179            5 
 2368000   0.88737045   -8.1185508    502.62328  0.017688038  0.017511186            2 
 2369000   0.87356557   -8.1235677    504.02743  0.017729964  0.017505195            2 
 2370000   0.88536449   -8.0836368     505.9587   0.01779039  0.017499261            4 
 2371000   0.86916461   -8.1077901    504.88792  0.017745253  0.017493311            1 
 2372000   0.87016066   -8.1258291    504.02685   0.01770752   0.01748732            3 
 2373000   0.87649301   -8.1498005    503.77018  0.017691044   0.01748129            5 
 2374000   0.87973407   -8.1484996    503.89918   0.01768812  0.017475288            5 
 2375000   0.87684454   -8.1168128    504.10362  0.017687846  0.017469317            2 
 2376000   0.86731671   -8.1270311    503.95577  0.017675216  0.017463357            2 
 2377000   0.87236182    -8.127828    503.08497  0.017637252  0.017457418            3 
 2378000   0.86040842   -8.1332288    503.73532  0.017652626  0.017451484            3 
 2379000   0.87012409   -8.1416662    504.90558  0.017686198  0.017445478            4 
 2380000    0.8675641   -8.1188903    504.58443  0.017667522  0.017439525            3 
 2381000    0.8708889   -8.1702942    505.00109  0.017674685  0.017433539            6 
 2382000   0.88150285   -8.1450591    505.78983  0.017694858  0.017427581            3 
 2383000    0.8707281   -8.1262365    504.63263  0.017646966  0.017421571            5 
 2384000   0.89246541    -8.155437    504.81878   0.01764607  0.017415586            6 
 2385000   0.89516007   -8.1437139    503.98239  0.017609448  0.017409602            6 
 2386000   0.84167603   -8.1559568    504.38191  0.017616021   0.01740359            2 
 2387000   0.87036654   -8.1210741    505.49323  0.017647438  0.017397592            2 
 2388000   0.85977867   -8.1304805    505.63603  0.017645032  0.017391607            2 
 2389000    0.8787814   -8.1300826     505.4624  0.017631589  0.017385603            5 
 2390000   0.85505647   -8.1428154    505.07011  0.017610534  0.017379585            3 
 2391000   0.87135955   -8.1087086    505.20659  0.017607925  0.017373589            2 
 2392000   0.87590971   -8.1798579    505.13952  0.017598227  0.017367574            9 
 2393000   0.86711927   -8.1533888    504.95738   0.01758453  0.017361521            7 
 2394000   0.84720145   -8.1575959      504.407  0.017558027  0.017355502           18 
 2395000   0.85693491   -8.1228915     505.2915  0.017581472  0.017349472            2 
 2396000    0.8876036   -8.1151804    505.01745  0.017564602  0.017343475            3 
 2397000   0.87245216   -8.1137775    505.37615  0.017569745  0.017337474            5 
 2398000   0.87581249   -8.1172029    504.22707  0.017522486  0.017331532            1 
 2399000    0.8788668   -8.1150115    504.88904  0.017538177  0.017325554            3 
 2400000   0.85903002   -8.1413876    505.74016  0.017560422  0.017319564            4 
 2401000   0.85287443   -8.1397071    505.59826  0.017548183  0.017313594            2 
 2402000    0.8718947   -8.1092582    505.39594  0.017533859  0.017307624            4 
 2403000   0.88052221   -8.1390289    505.43317  0.017527853   0.01730168            6 
 2404000   0.87079347    -8.122109    505.67204  0.017528842   0.01729576            2 
 2405000    0.8704794    -8.164419    506.03449  0.017534113  0.017289832            3 
 2406000   0.85256953   -8.1638529    505.89752  0.017522081  0.017283893            3 
 2407000   0.88907402   -8.1368906    505.85758  0.017513419  0.017277973            3 
 2408000   0.86747421    -8.132476    506.43571  0.017526153  0.017272007            2 
 2409000   0.86658421    -8.146845    507.39364  0.017552015  0.017266084            3 
 2410000   0.87348224    -8.149935    506.56747  0.017516164  0.017260173            1 
 2411000   0.87799358   -8.1462691    504.03936  0.017421518  0.017254247            1 
 2412000   0.86836726   -8.1301008    507.52244  0.017534634  0.017248323            5 
 2413000   0.86508257   -8.1220772    506.94291  0.017507353   0.01724241            2 
 2414000   0.86905734   -8.1644981    507.15106  0.017507286  0.017236484            3 
 2415000   0.87821707   -8.1637708    505.00852  0.017426105  0.017230542            3 
 2416000   0.87721786   -8.1512604     507.0625  0.017489739  0.017224541            5 
 2417000   0.86507915    -8.141166    506.64622   0.01746815  0.017218559            4 
 2418000   0.88454733   -8.1614305    506.43326  0.017453586  0.017212532            3 
 2419000   0.88107361   -8.1596955    505.62775  0.017418622  0.017206499            2 
 2420000   0.87860027   -8.1703292    505.29141  0.017399842  0.017200473            4 
 2421000   0.84218732   -8.1665014    505.53778  0.017401135  0.017194465            3 
 2422000   0.86458617   -8.1173628    506.11477  0.017413803  0.017188478            5 
 2423000   0.87065141    -8.153777     506.8868  0.017433168  0.017182497            2 
 2424000   0.86343803   -8.1547914    505.68253  0.017384576  0.017176511            5 
 2425000   0.88769134   -8.1459147    506.63676  0.017410198  0.017170538            4 
 2426000    0.8587229    -8.146784     507.3754  0.017428394  0.017164573            5 
 2427000   0.87203517   -8.1139964    508.00324   0.01744277  0.017158635            3 
 2428000   0.89338319   -8.1342326    507.88353  0.017431477  0.017152725            2 
 2429000    0.8626676   -8.0897793    507.86189  0.017423559  0.017146851            5 
 2430000   0.89269283   -8.1636017     507.8644  0.017416475  0.017140985            7 
 2431000   0.86831223   -8.1560947    506.91883  0.017376897  0.017135119            3 
 2432000    0.8697742   -8.1482717    507.64762  0.017394724  0.017129249            2 
 2433000   0.86965165   -8.1437546    507.81396  0.017393272   0.01712337            3 
 2434000   0.88046298    -8.186338    506.37687  0.017336924  0.017117479            3 
 2435000   0.86812304   -8.1730339    506.83148  0.017345362  0.017111512            3 
 2436000   0.85357008   -8.1704278    506.63517  0.017331526   0.01710553            3 
 2437000   0.82732691   -8.1850934    506.24151  0.017310953  0.017099527            7 
 2438000   0.87537427   -8.1841459    508.27945  0.017373511   0.01709356            3 
 2439000   0.86074713   -8.1758163     506.6409  0.017310404  0.017087584            2 
 2440000   0.87918326   -8.1443405    505.99506  0.017281252  0.017081637            1 
 2441000   0.84577985   -8.1459141    507.11751  0.017312492  0.017075697            2 
 2442000   0.87221816   -8.1681911    506.32576  0.017278384  0.017069764            1 
 2443000    0.8715167   -8.1496798    506.78526  0.017286985  0.017063854            3 
 2444000   0.86645836   -8.1376876    506.84208   0.01728185  0.017057962            2 
 2445000   0.87007066   -8.1306261    508.37733  0.017327107  0.017052083            4 
 2446000   0.86085286   -8.1434292    508.00095    0.0173072  0.017046245           10 
 2447000    0.8692805   -8.1507904    509.72784  0.017358938  0.017040371            3 
 2448000   0.86028043   -8.1310622    508.23471  0.017301018  0.017034482            1 
 2449000   0.83913893   -8.1227652    508.75911  0.017311798  0.017028602            3 
 2450000   0.85283704   -8.1634652    507.59384  0.017265097  0.017022741            4 
 2451000    0.8486374   -8.1427772    507.38268  0.017250873  0.017016859            2 
 2452000   0.85060979   -8.1628608    508.15095  0.017269948  0.017010987            7 
 2453000   0.84638509    -8.172356    508.16922  0.017263528  0.017005109            4 
 2454000   0.85813481   -8.1877175    508.39355  0.017264111  0.016999222            2 
 2455000   0.84930322    -8.168035    508.27402  0.017253022  0.016993306            3 
 2456000   0.86755064    -8.185293    508.60536  0.017257239  0.016987359            3 
 2457000   0.85763977   -8.1852385    507.97265  0.017228756  0.016981462            4 
 2458000   0.85635158   -8.1863238    507.83358  0.017217032  0.016975552            3 
 2459000   0.85903796   -8.2133659    507.84139  0.017210295  0.016969623            4 
 2460000   0.85677379   -8.1755839    509.46839  0.017258414  0.016963674            4 
 2461000   0.86586976   -8.1941598    506.41997  0.017148177   0.01695771            4 
 2462000   0.85380688   -8.2029172    507.24167  0.017169025  0.016951767            2 
 2463000    0.8481491    -8.170885    508.12578  0.017191967  0.016945828            5 
 2464000   0.85381727   -8.1677459    508.81304  0.017208233   0.01693991            4 
 2465000   0.85312963   -8.1627954    507.13487  0.017144519  0.016933988            4 
 2466000   0.85528142     -8.20679    508.66909  0.017189412  0.016928039            3 
 2467000   0.85657775   -8.1687821     509.4435  0.017208604  0.016922087            2 
 2468000   0.86451799   -8.2001433    509.03031  0.017187679  0.016916122            6 
 2469000   0.86388345   -8.1975365    507.59348  0.017132222  0.016910181            6 
 2470000   0.84884081   -8.1491693    508.16244  0.017144482  0.016904263            1 
 2471000   0.85372565   -8.1684455    509.54261  0.017184089  0.016898368            7 
 2472000   0.87943063   -8.1438522    509.88594  0.017188711  0.016892504            9 
 2473000   0.84769953   -8.1527283    509.83073  0.017179901  0.016886621            2 
 2474000   0.85591121   -8.2096443    507.96924  0.017110255  0.016880713            3 
 2475000   0.85738585   -8.1741537    507.46729  0.017086441  0.016874823            5 
 2476000    0.8588769   -8.1798452       507.92  0.017094776  0.016868914            2 
 2477000   0.84269559   -8.1793274    509.39459  0.017137484  0.016862992           11 
 2478000   0.84570713   -8.1917881    509.09297  0.017120425   0.01685708            5 
 2479000   0.85677134   -8.2334806    507.67015   0.01706569  0.016851178            2 
 2480000   0.86845453   -8.1612624    509.37596  0.017116128  0.016845268            5 
 2481000   0.85964339   -8.1570646    508.75422  0.017088345  0.016839391            3 
 2482000   0.86988023   -8.1858944    509.54413  0.017107982  0.016833499            6 
 2483000   0.86626641   -8.2010713    508.04423  0.017050753  0.016827589            3 
 2484000   0.86166431   -8.2218406    508.76088  0.017067931  0.016821664            1 
 2485000   0.86673057   -8.2181876    508.65956  0.017057665  0.016815694            5 
 2486000   0.86871074   -8.1874014    508.41814   0.01704271   0.01680974            4 
 2487000   0.85809343   -8.1849682    509.31302  0.017065843  0.016803802            2 
 2488000   0.83620645   -8.1914399    509.98985  0.017081654  0.016797895           16 
 2489000   0.86005089   -8.1820514    509.04266  0.017043078  0.016791974            5 
 2490000   0.83943041    -8.146234    509.85429  0.017063397  0.016786112            7 
 2491000   0.85643933   -8.2000208     509.8879  0.017057671  0.016780252            8 
 2492000   0.84821211   -8.1967606    509.27895  0.017030462  0.016774397            6 
 2493000   0.85287256   -8.1560404    510.17238  0.017053496  0.016768544            3 
 2494000   0.84326278   -8.1772877    508.15391  0.016979214  0.016762669            5 
 2495000    0.8460475   -8.1774294     510.0588  0.017036032  0.016756777            4 
 2496000   0.84801531   -8.2306714    508.47088  0.016976191  0.016750845            5 
 2497000   0.87875388    -8.156776    510.81211  0.017047527  0.016744936            4 
 2498000   0.84492854   -8.2054304    509.54817  0.016998538  0.016739038            7 
 2499000   0.84678096   -8.1940569    509.31052  0.016983811  0.016733142            3 
 2500000   0.84140173   -8.1926109    509.12147  0.016970716  0.016727276            3 
 2501000   0.85921275   -8.1945145    509.18061  0.016965901    0.0167214            2 
 2502000   0.84901334   -8.1860527    510.56615  0.017005267  0.016715508            4 
 2503000   0.85979464   -8.2050066    509.16407  0.016951793  0.016709582            6 
 2504000   0.86650344   -8.1951449    510.28754  0.016982413  0.016703709            2 
 2505000   0.87871587   -8.1950447    509.11142  0.016936508  0.016697836            3 
 2506000   0.85781991   -8.1594127    510.86321  0.016988003  0.016692015            9 
 2507000    0.8479532    -8.164471    510.21772   0.01695977   0.01668617           10 
 2508000   0.84821205   -8.1956119    508.48341  0.016895382  0.016680309            6 
 2509000   0.85080849   -8.2326702    509.68024  0.016928399   0.01667445            2 
 2510000   0.84035124   -8.1730861    510.23119  0.016939946  0.016668584            4 
 2511000   0.83761417   -8.1887459    509.99117  0.016925234    0.0166627            3 
 2512000   0.85516013   -8.1979298    510.09163  0.016921829  0.016656838            5 
 2513000   0.83743239   -8.1645646    510.61392  0.016932415  0.016650971            3 
 2514000   0.85700663   -8.1763489    510.64343  0.016926658  0.016645075            6 
 2515000   0.83335369   -8.2330713    509.21994  0.016872762  0.016639156            6 
 2516000   0.85013215   -8.2137756    510.85676  0.016920269  0.016633254            4 
 2517000   0.86534541   -8.2171505    510.44295  0.016899846  0.016627348            6 
 2518000   0.87380312   -8.1715514    511.21275  0.016918611  0.016621495            5 
 2519000   0.87417445   -8.1755191    509.54938  0.016856867   0.01661566            4 
 2520000   0.85790224    -8.194479    511.19383  0.016904558  0.016609828            5 
 2521000   0.84620471   -8.1685628    511.46874   0.01690694  0.016604012           12 
 2522000   0.84514471   -8.1992597    511.18125  0.016890737  0.016598215            5 
 2523000   0.83319259    -8.192771    509.70061  0.016835137  0.016592399            3 
 2524000   0.85858106   -8.1646478    510.77996  0.016864103  0.016586592            2 
 2525000   0.85180362   -8.1454687    511.75012  0.016889443  0.016580811            3 
 2526000   0.84414891   -8.1659781    511.20003  0.016864609  0.016575022            4 
 2527000    0.8467124   -8.1704905    511.57539  0.016870314  0.016569226            3 
 2528000   0.84789331   -8.1607359    512.67378  0.016899848  0.016563417            3 
 2529000   0.84642584   -8.1461753    512.75331  0.016895786  0.016557639            3 
 2530000   0.84722215   -8.1811208    511.49711  0.016847731  0.016551879            7 
 2531000   0.83120384   -8.1742099     512.0549  0.016859439  0.016546095            4 
 2532000   0.83370749   -8.2055477    511.38617  0.016830772  0.016540266            3 
 2533000    0.8576901   -8.1767198    510.20234   0.01678518  0.016534454            2 
 2534000    0.8385509   -8.1672331    511.33224  0.016815714  0.016528662            5 
 2535000    0.8351158   -8.2179886    511.86996  0.016826757  0.016522866            6 
 2536000   0.83727073   -8.1779499    511.78894   0.01681746  0.016517076            3 
 2537000   0.85460512   -8.2002619    511.31231  0.016795175  0.016511267            7 
 2538000   0.86070897   -8.1694964    512.26818  0.016819943  0.016505491            6 
 2539000    0.8575992   -8.1865931    512.06706  0.016806717  0.016499716            6 
 2540000   0.83951817   -8.1881221    512.65166   0.01681928  0.016493948            3 
 2541000   0.85339376   -8.2008858    511.15467  0.016763566  0.016488148            2 
 2542000   0.85247864   -8.2282641    511.25688  0.016760323  0.016482353            4 
 2543000   0.84300205   -8.2304796    511.75583  0.016770082  0.016476557            4 
 2544000   0.83439791   -8.2145885     512.1215  0.016775469  0.016470766            4 
 2545000    0.8473805   -8.2520451    511.30853  0.016742257  0.016464961            7 
 2546000   0.85762113   -8.1940561    511.90707  0.016755272  0.016459156            5 
 2547000   0.84404886   -8.1946902    512.02046  0.016752403   0.01645338            3 
 2548000   0.84866756   -8.1723968    513.87951   0.01680663  0.016447621            5 
 2549000    0.8398969   -8.2103631    511.22444  0.016713235   0.01644189            6 
 2550000   0.85044107   -8.1725424     512.2756  0.016741033  0.016436117            4 
 2551000   0.84443555   -8.2015895    512.67757  0.016747601  0.016430332            5 
 2552000   0.83050807    -8.206839    513.89518  0.016780799  0.016424564            4 
 2553000   0.82516382   -8.1542507    514.30145  0.016787487  0.016418815            5 
 2554000   0.84223295   -8.2103543    511.82249  0.016700029  0.016413046            5 
 2555000   0.85071061   -8.2096149    513.07724  0.016734417  0.016407244            7 
 2556000   0.84482942   -8.1967182    511.36561  0.016672066  0.016401444           10 
 2557000   0.84719657   -8.2222817    511.30997  0.016663733   0.01639568            5 
 2558000   0.84819166   -8.1987965    512.70508  0.016702668  0.016389899            7 
 2559000   0.84878311   -8.2375465     511.6086  0.016660434  0.016384096            3 
 2560000   0.85404035    -8.231585    513.23798  0.016706965  0.016378314            4 
 2561000   0.84296113   -8.1692321     512.1571  0.016665271  0.016372549           10 
 2562000   0.85432979   -8.1888113    513.71489  0.016709436  0.016366779            3 
 2563000   0.84381168   -8.2091961    510.93739  0.016612609  0.016361021            2 
 2564000   0.84228702   -8.1896558    513.56492  0.016691528  0.016355248            9 
 2565000   0.83795205   -8.1999557    512.94508  0.016664882  0.016349476            2 
 2566000   0.85639736   -8.1951185    511.63368  0.016615799  0.016343718            5 
 2567000   0.84964673   -8.2135391     512.5258  0.016638287  0.016337965            2 
 2568000   0.85091227   -8.2089466    512.30939  0.016624786  0.016332187            3 
 2569000   0.85717494   -8.2207313    512.52806  0.016625407  0.016326413            6 
 2570000   0.86406733   -8.2266306    512.06571  0.016603947   0.01632065            2 
 2571000   0.83520803   -8.2427122    511.30296  0.016572765  0.016314856            6 
 2572000   0.83346612   -8.2255983    512.31754  0.016599195  0.016309045            1 
 2573000   0.82400274    -8.209648    513.36882  0.016626792  0.016303267            5 
 2574000   0.82579053   -8.2086465    513.01385   0.01660884  0.016297504            4 
 2575000   0.84353499   -8.2312341    512.42471  0.016583324  0.016291705            3 
 2576000   0.82252404   -8.2176314    513.14288  0.016600119   0.01628592            4 
 2577000   0.85335225   -8.1912357    511.35317  0.016535803  0.016280153            5 
 2578000   0.84776788   -8.2323884    511.85964   0.01654576  0.016274391            6 
 2579000   0.83316783   -8.2244385    511.60307  0.016531054  0.016268596            4 
 2580000   0.83394678   -8.2228811    513.02869  0.016570694    0.0162628            9 
 2581000   0.83529544   -8.2149855    513.04768  0.016564887  0.016257016            6 
 2582000   0.85731424   -8.1857889    513.42725  0.016570722  0.016251247            3 
 2583000   0.83262626   -8.2286012    512.65163  0.016539283  0.016245495            6 
 2584000   0.81596795    -8.201388    513.93843  0.016574382  0.016239735            4 
 2585000   0.81360442   -8.2308182    511.89464  0.016502084  0.016233984            2 
 2586000   0.83038381   -8.2203196    512.79516  0.016524721  0.016228257            6 
 2587000   0.83522174    -8.196258    514.59396  0.016576278  0.016222526            4 
 2588000   0.84767728   -8.2363707    512.56983  0.016504696   0.01621683            3 
 2589000   0.84752495   -8.2116962    514.87199  0.016572422  0.016211105            3 
 2590000   0.85137232   -8.2060769    513.54612  0.016523363  0.016205388            8 
 2591000   0.82559274   -8.2312913    513.74111  0.016523257  0.016199685            9 
 2592000   0.82678699   -8.2183569    514.06011  0.016527138   0.01619396            3 
 2593000   0.84771208   -8.2148646    513.27817  0.016495635  0.016188272            7 
 2594000   0.84959738   -8.2345515    512.93781  0.016478341   0.01618254            6 
 2595000   0.84788905   -8.2147651    513.94303  0.016504272   0.01617681            3 
 2596000    0.8437089   -8.2538013    514.46515  0.016514675  0.016171115            4 
 2597000   0.83464338   -8.2524717    512.37374  0.016441206  0.016165374            4 
 2598000    0.8384382   -8.2275263    513.39939  0.016467776  0.016159615            7 
 2599000   0.82900487   -8.2529383    513.66105   0.01646983  0.016153864            8 
 2600000   0.84156307   -8.2569426    512.20898  0.016416955  0.016148094            3 
 2601000   0.83538337     -8.26399     513.3026  0.016445681  0.016142325            4 
 2602000   0.84872763   -8.2221009    514.91567  0.016491022  0.016136602            2 
 2603000   0.83342781   -8.2314506    514.62572  0.016475404  0.016130874            4 
 2604000   0.83796178   -8.2420919    513.98478  0.016448566  0.016125183            5 
 2605000   0.82890442   -8.2366272    513.78298  0.016435796  0.016119506            2 
 2606000   0.83629671   -8.2712609    514.30251  0.016446102  0.016113796            2 
 2607000   0.82114158   -8.2272564    515.32898  0.016472605  0.016108118            1 
 2608000   0.83390409   -8.2262892    515.27034  0.016464415  0.016102458            4 
 2609000   0.83601478   -8.2377941    514.64646  0.016438177  0.016096791            9 
 2610000   0.82672965   -8.2789967    514.17231   0.01641674  0.016091097            5 
 2611000   0.84273284    -8.269826    512.76965  0.016365685  0.016085373            7 
 2612000   0.84238948   -8.2603225    514.59897  0.016417782  0.016079649            6 
 2613000   0.82082177   -8.2735008    513.03305  0.016361559  0.016073902            2 
 2614000   0.80710987   -8.2624751    514.37075  0.016397945  0.016068168            3 
 2615000   0.84780501   -8.2258321    514.98182  0.016411148  0.016062441            4 
 2616000   0.83224265   -8.2341417    515.64305  0.016425938  0.016056721            5 
 2617000   0.82134591   -8.2333332    514.40251  0.016380159  0.016051013            6 
 2618000   0.82630894   -8.2661246    513.93426  0.016358997  0.016045283            6 
 2619000   0.81696826    -8.279742    514.04988   0.01635643  0.016039542            3 
 2620000   0.82052856     -8.25817    514.69828  0.016370811  0.016033802            4 
 2621000   0.81226429   -8.2447391    513.92141  0.016339864  0.016028084            3 
 2622000   0.83666949   -8.2621782    514.82597  0.016362382  0.016022359            3 
 2623000   0.81888009   -8.2714966    513.84914  0.016325109  0.016016631            6 
 2624000    0.8478539    -8.284588    513.75794  0.016315991  0.016010921            8 
 2625000   0.81993099   -8.2705712    514.41395  0.016330602  0.016005218            6 
 2626000   0.83871156   -8.2385087    515.02517  0.016343779  0.015999547            5 
 2627000   0.82644359   -8.2638208    515.28977  0.016345951  0.015993914            3 
 2628000   0.84714554   -8.2418047    515.56838  0.016348566  0.015988271            5 
 2629000   0.82281991   -8.2247252    516.16342  0.016361209  0.015982654            7 
 2630000   0.85212531   -8.2425022    515.19355  0.016324257  0.015977024            5 
 2631000    0.8029988   -8.2161191    515.27892  0.016320757  0.015971407            4 
 2632000   0.84698438    -8.220209    516.89706  0.016365788   0.01596581            3 
 2633000   0.83569193   -8.2527446    516.29957  0.016340662    0.0159602            2 
 2634000   0.81601862   -8.2497044    515.29756  0.016302757  0.015954606            2 
 2635000   0.84688192   -8.2397234    515.87537  0.016314844  0.015948988            2 
 2636000   0.84447588   -8.2629202    515.57298  0.016299095  0.015943363            2 
 2637000   0.83047431    -8.268364    515.24563   0.01628257  0.015937725            1 
 2638000   0.82937667   -8.2303611    515.40633  0.016281474  0.015932107            4 
 2639000   0.84661317    -8.231746     516.6984  0.016316105  0.015926518            7 
 2640000   0.81927724   -8.2046298    516.92753  0.016317157  0.015920937            3 
 2641000   0.81691348   -8.1957156    516.61448    0.0163011  0.015915366            5 
 2642000   0.83589529   -8.2421323    515.35187  0.016255106   0.01590978            5 
 2643000   0.82842978   -8.2389809    515.03795  0.016239058  0.015904174            5 
 2644000     0.828952   -8.2265941     516.5367  0.016280153  0.015898564            3 
 2645000    0.8397653   -8.2469704    515.82974  0.016251725  0.015892953            3 
 2646000   0.85204323   -8.2404434    516.04264  0.016252288  0.015887304            3 
 2647000    0.8068364   -8.2521913    515.17393  0.016218799   0.01588168            3 
 2648000   0.82481905    -8.261598    515.93816  0.016236724  0.015876054            2 
 2649000   0.83478928   -8.2495909    516.13603   0.01623682  0.015870416            2 
 2650000   0.82465829   -8.2397496    516.26695   0.01623481   0.01586479            8 
 2651000   0.81593337   -8.2454938    515.89146  0.016216882  0.015859194            4 
 2652000   0.83616149   -8.2456292    516.15247  0.016218969  0.015853601            3 
 2653000   0.82720202   -8.2036492    516.94644  0.016237795  0.015847995            3 
 2654000     0.842106    -8.259915    515.09192  0.016173446  0.015842389            1 
 2655000   0.84859742   -8.2300511    516.44721  0.016209894  0.015836795            3 
 2656000   0.81323525   -8.2280408    516.90346  0.016218106  0.015831195            5 
 2657000   0.80243653   -8.2631401    516.25283  0.016191596  0.015825585            7 
 2658000   0.83133694     -8.25321     516.6999   0.01619952  0.015819985            2 
 2659000   0.82103164   -8.2277769    516.80847  0.016196831  0.015814402            4 
 2660000   0.81233265   -8.2674704     516.4162  0.016178452  0.015808799            6 
 2661000   0.82918148   -8.2792019    515.13966  0.016132396  0.015803172            6 
 2662000   0.81664795   -8.2733183    515.01057  0.016122294  0.015797537            3 
 2663000   0.81578806   -8.2714084    515.51119  0.016131906  0.015791893            7 
 2664000   0.82977114   -8.2874147    516.04656  0.016142598  0.015786252           10 
 2665000   0.83653293   -8.2578267    515.58585  0.016122134  0.015780612           12 
 2666000   0.85770984   -8.2845784    515.05565  0.016099514  0.015774929            6 
 2667000   0.81624507   -8.3045419    514.94065  0.016089884   0.01576928            8 
 2668000   0.84730021   -8.2949373    515.90338  0.016113924  0.015763637            6 
 2669000   0.81670015   -8.2963479     515.1443  0.016084186   0.01575797            7 
 2670000   0.82564005   -8.2743823    516.05941  0.016106723  0.015752288           12 
 2671000   0.84421224   -8.3044441    514.54992  0.016053598  0.015746573            6 
 2672000   0.82773066   -8.3109674    514.51609  0.016046535  0.015740872            3 
 2673000   0.81563691    -8.290988    514.53361  0.016041078  0.015735189            7 
 2674000   0.82078094   -8.3183379    515.21772  0.016056399  0.015729479            4 
 2675000   0.81993716   -8.2766184    515.07967  0.016046096  0.015723814            5 
 2676000   0.81562093   -8.2916912    515.12511  0.016041514  0.015718144            8 
 2677000   0.81887558    -8.301822    515.74232  0.016054735  0.015712501            3 
 2678000   0.83306913   -8.2864912     514.8411  0.016020697  0.015706866            2 
 2679000   0.83786687   -8.2661733    517.51365  0.016097849  0.015701253           19 
 2680000   0.81208434    -8.212737    517.78763  0.016100362  0.015695641            7 
 2681000   0.83046605   -8.2646186    516.97497  0.016069097  0.015690045            3 
 2682000   0.83985843   -8.2732829    515.78231  0.016026047  0.015684447           10 
 2683000   0.81002907    -8.277762    516.45694  0.016041028  0.015678878            5 
 2684000   0.81116275   -8.2729178    516.75354  0.016044261  0.015673267            7 
 2685000   0.83990692   -8.2562062    515.83656  0.016009825  0.015667685            7 
 2686000   0.84441924    -8.285559    517.28788  0.016048892   0.01566209            4 
 2687000   0.82395918    -8.320762    515.66076  0.015992456   0.01565649            3 
 2688000   0.80908022   -8.2718139    516.77274   0.01602098   0.01565088            5 
 2689000   0.80904892   -8.2558162    516.55283  0.016008207  0.015645295            4 
 2690000   0.81851623   -8.2411808    518.15262  0.016051816  0.015639728            1 
 2691000   0.82991398   -8.2394962    518.32903  0.016051314  0.015634195            2 
 2692000   0.80629893   -8.2643467    517.91502  0.016032535  0.015628666            7 
 2693000   0.82160721   -8.2570012    517.37682  0.016009928  0.015623113            5 
 2694000   0.82754526   -8.2589586    517.32064  0.016002247  0.015617578            9 
 2695000   0.80852446   -8.2596463    517.64646  0.016006384  0.015612054            4 
 2696000   0.80127536   -8.2612902    518.13009  0.016015396  0.015606521            6 
 2697000   0.80744411   -8.2822802    517.29291   0.01598359  0.015600977            8 
 2698000   0.80010464   -8.2534184    517.09505  0.015971555  0.015595387            4 
 2699000    0.8212159   -8.3009223    516.44749  0.015945643  0.015589821           10 
 2700000   0.82472181    -8.272864    518.26828  0.015995934  0.015584276            4 
 2701000   0.82686977   -8.2716104    516.94574  0.015949208  0.015578722            9 
 2702000   0.83362901    -8.258921    516.91277  0.015942289  0.015573174            4 
 2703000   0.82248317   -8.2745304     517.3518  0.015949926  0.015567626            8 
 2704000   0.80880375   -8.2593294    517.69053  0.015954466  0.015562114            6 
 2705000   0.82541004   -8.2557592    518.61558  0.015977066  0.015556596            6 
 2706000    0.8071027   -8.2308725    518.44799  0.015966001  0.015551091            9 
 2707000   0.82410216   -8.2711831    517.90424  0.015943364    0.0155456            5 
 2708000    0.8242897    -8.291411      518.939  0.015969319  0.015540112           12 
 2709000   0.82618928   -8.2928288    517.30468   0.01591315  0.015534603            9 
 2710000   0.83216514   -8.3093857    516.95813  0.015896621  0.015529051            8 
 2711000   0.81194057     -8.28655     517.6174  0.015911023  0.015523499            7 
 2712000   0.82239506   -8.3134509    517.16662  0.015891305  0.015517957            6 
 2713000   0.81818658   -8.3133047    518.03753  0.015912198   0.01551241           16 
 2714000    0.8097979   -8.3321479    517.18339  0.015880109  0.015506832            5 
 2715000   0.81404877   -8.2899356    518.36458  0.015910515  0.015501272            6 
 2716000   0.81675548    -8.317248    517.15699  0.015867605  0.015495729           11 
 2717000   0.82564697   -8.3083064    517.08259  0.015859483   0.01549017            4 
 2718000   0.81554999   -8.3052705    517.17423  0.015856458  0.015484626           10 
 2719000   0.82480618   -8.3253298    517.24232  0.015852713  0.015479111            4 
 2720000   0.80955884   -8.2953804    518.57109  0.015887595  0.015473594            7 
 2721000   0.81236945   -8.2914353    517.88091  0.015860618  0.015468088           13 
 2722000    0.8001258   -8.2743877    519.42711  0.015902128  0.015462613            7 
 2723000   0.82345314   -8.3101066    519.37765  0.015894775  0.015457139            6 
 2724000   0.82718559   -8.2997122    518.86402  0.015873226  0.015451635            7 
 2725000   0.81642081   -8.2853888    518.87103  0.015867616  0.015446133            6 
 2726000   0.82724445   -8.3074536    518.47497  0.015849687  0.015440666            5 
 2727000    0.8246528   -8.3034852    519.45535  0.015873834  0.015435226            8 
 2728000   0.81216558   -8.2810741    520.12792  0.015888561  0.015429791            6 
 2729000   0.79879196   -8.2938458    518.72275   0.01583983  0.015424346            4 
 2730000   0.82773437   -8.2840137    520.10955   0.01587636  0.015418921            5 
 2731000   0.81830233   -8.2799269    520.34197  0.015877638  0.015413491           11 
 2732000   0.83068218   -8.3125674    517.89851  0.015797295  0.015408064            1 
 2733000   0.81026652   -8.3263591    518.33639  0.015804866   0.01540263            3 
 2734000   0.81253455   -8.2432808    521.18423  0.015885888   0.01539721            3 
 2735000   0.80594608   -8.2728229    519.52219  0.015829439  0.015391802            6 
 2736000   0.80363809   -8.3221779    519.03076  0.015808685  0.015386391            3 
 2737000   0.82468655   -8.2785708    518.78835  0.015795529  0.015380951            3 
 2738000   0.82676567   -8.3035577    519.40671   0.01580858  0.015375528            6 
 2739000    0.7840609   -8.3298659    518.50424  0.015775351  0.015370091            6 
 2740000   0.81692993   -8.2647353    519.05868  0.015786456  0.015364659            3 
 2741000   0.82712955   -8.2771435    518.74663   0.01577121  0.015359218            9 
 2742000   0.80401367   -8.2676644    519.50992  0.015788655  0.015353799            3 
 2743000   0.81275897    -8.267336    520.57769  0.015815339  0.015348375            3 
 2744000   0.81371246   -8.3043955    519.43804  0.015774965  0.015342985            6 
 2745000   0.80508797   -8.2780171    519.27401  0.015764238  0.015337574            2 
 2746000   0.80993058   -8.3324407     519.2835  0.015758785  0.015332148            5 
 2747000   0.82175624   -8.2941675    520.53741  0.015791088  0.015326732            6 
 2748000   0.80994261   -8.2808894    520.36274  0.015780044   0.01532133            4 
 2749000   0.82141072   -8.2920047    519.55754  0.015749895   0.01531593            3 
 2750000   0.81258467   -8.2825955    519.81341  0.015751922  0.015310512            2 
 2751000   0.81049895   -8.3329016     518.9899   0.01572125  0.015305083            3 
 2752000   0.82677892   -8.2918823    519.59167   0.01573376  0.015299649            4 
 2753000   0.81513643   -8.3229695    520.32773  0.015750325  0.015294258            4 
 2754000   0.80191558   -8.2888664    520.46986  0.015748906  0.015288866            3 
 2755000   0.80026605   -8.2976474    520.49481  0.015743945  0.015283478            7 
 2756000   0.82748608   -8.3110895    520.74982  0.015745943   0.01527808            7 
 2757000   0.81803622   -8.3227038    518.26907  0.015665248  0.015272667            3 
 2758000   0.83051537   -8.3080978    520.01474  0.015712314  0.015267264            4 
 2759000   0.78964877    -8.297085    519.76039  0.015698936  0.015261866            4 
 2760000   0.78639737   -8.3015425    519.52386  0.015686107  0.015256466            3 
 2761000   0.81712218   -8.3283651    519.01325  0.015665014   0.01525105            9 
 2762000   0.79275066   -8.2929844    520.55325  0.015705807  0.015245645            4 
 2763000   0.81103036   -8.2968737    520.56659  0.015700524  0.015240287            5 
 2764000   0.81167624   -8.2772977    520.88221   0.01570436  0.015234927            7 
 2765000   0.81153503   -8.3256486    519.53013   0.01565793  0.015229562            5 
 2766000   0.82076132   -8.3192697     520.4246  0.015679218  0.015224154            4 
 2767000   0.82044702    -8.338981    520.07492   0.01566302  0.015218769            5 
 2768000   0.80472369   -8.3343542    520.54612  0.015671548  0.015213385           12 
 2769000   0.81108639    -8.307611    520.06649  0.015651453  0.015208014            6 
 2770000    0.8061106   -8.2955446    519.57195  0.015630925  0.015202625            6 
 2771000   0.81210485   -8.3035721    519.60744  0.015626352  0.015197245            5 
 2772000   0.82198651   -8.3331703     518.5349  0.015588471   0.01519186            8 
 2773000   0.80971604   -8.3178532    519.62885  0.015615724  0.015186461            7 
 2774000   0.80240909   -8.3214328    520.56509  0.015638221  0.015181067            6 
 2775000   0.81480699   -8.3560816    518.60177  0.015573627  0.015175655            4 
 2776000   0.81319619   -8.3167372    520.17283  0.015615179  0.015170217            3 
 2777000   0.80094291   -8.3351324    519.45438  0.015587996   0.01516479            7 
 2778000   0.79170579   -8.3169366    519.66312  0.015588647  0.015159409           11 
 2779000   0.80787262   -8.3379766    519.32686  0.015572954  0.015154011            3 
 2780000   0.80434159   -8.3311473    520.11844   0.01559108  0.015148624            5 
 2781000    0.8043955   -8.3114821    520.34178  0.015592166  0.015143239            5 
 2782000   0.80675266   -8.3000198    521.27696  0.015614575  0.015137863            2 
 2783000   0.80392355   -8.3146212    519.87409  0.015566957  0.015132504            4 
 2784000   0.79110091   -8.3015986    520.86577  0.015591049  0.015127162            7 
 2785000   0.80217832   -8.3145399    521.31746  0.015598966   0.01512181            5 
 2786000   0.81351717   -8.2895367    520.87081  0.015580007  0.015116465            7 
 2787000   0.81040528   -8.2946052    521.52149  0.015593873  0.015111131            7 
 2788000   0.81302754   -8.2853303    520.92476  0.015570444  0.015105815            7 
 2789000   0.81247735   -8.2960649    522.62763  0.015615741  0.015100469            5 
 2790000   0.78843343    -8.322221    521.02642  0.015562318  0.015095112            4 
 2791000   0.79442708   -8.3245629    520.86797  0.015552012  0.015089762            8 
 2792000   0.80042242   -8.3111798    520.94389  0.015548707  0.015084407            9 
 2793000   0.82784176   -8.3082177    520.23418  0.015521965  0.015079075           13 
 2794000   0.80729238   -8.3229662    522.03432    0.0155701  0.015073761            5 
 2795000    0.8050581    -8.312155    522.75304  0.015585958  0.015068429            4 
 2796000   0.80594574   -8.2808584    521.39762  0.015539986  0.015063135            2 
 2797000   0.82134944   -8.2751847    522.84319  0.015577499  0.015057865            5 
 2798000   0.81106756   -8.2863655    522.45021  0.015560228  0.015052589            3 
 2799000   0.79715624   -8.3146709    520.76233  0.015504416  0.015047314            4 
 2800000   0.80945109    -8.306863    521.90889  0.015533003  0.015042016            2 
 2801000   0.80597745   -8.2870433     522.8282  0.015554808  0.015036734            2 
 2802000   0.79654349   -8.3075099    521.94068  0.015522861  0.015031459            6 
 2803000   0.82334127   -8.3013984     522.0978  0.015521994  0.015026156            3 
 2804000   0.80730759    -8.324777    522.46887  0.015527487  0.015020874            4 
 2805000     0.808907   -8.3250314    521.47954  0.015492559   0.01501557           12 
 2806000    0.7886297   -8.3424105    521.74641  0.015494964  0.015010238            2 
 2807000   0.80399824    -8.322792    521.58437  0.015484633  0.015004923            3 
 2808000   0.81002497   -8.3011296    521.83205  0.015486469   0.01499961           16 
 2809000    0.8169864   -8.3297204    521.72451  0.015477765   0.01499428            2 
 2810000   0.80561237    -8.356442    520.75432  0.015443485  0.014988951            9 
 2811000   0.81095474   -8.3361463    520.57869  0.015432785  0.014983612            5 
 2812000   0.81304349   -8.3165697    522.03512  0.015470457  0.014978292            7 
 2813000   0.80230224   -8.3529205    522.57246  0.015480876  0.014972964            8 
 2814000   0.78156863   -8.3473808    520.81899  0.015423448  0.014967619            6 
 2815000   0.79573307   -8.3215368     522.7739  0.015475841  0.014962266            4 
 2816000    0.8085592   -8.3625476    521.00249  0.015417924  0.014956925            9 
 2817000   0.79808326   -8.3333365    521.54751  0.015428574  0.014951594            3 
 2818000   0.79557602   -8.3414725     521.0241  0.015407621  0.014946266            5 
 2819000   0.80481772    -8.359724    520.20789  0.015378027  0.014940908            5 
 2820000   0.80572798   -8.3322812    520.80651  0.015390263   0.01493553            6 
 2821000   0.80358303   -8.3701844    520.04422  0.015362289  0.014930153            3 
 2822000   0.78945027    -8.333154    520.41994   0.01536794   0.01492479           10 
 2823000   0.79170807   -8.3407892    521.12772   0.01538339  0.014919431           10 
 2824000   0.80138334   -8.3746205    520.89754   0.01537115  0.014914097            6 
 2825000   0.80668131   -8.3768969    520.98808   0.01536838  0.014908768            4 
 2826000   0.79113661   -8.3538911    520.78429  0.015356932  0.014903454           14 
 2827000   0.78419333   -8.3529303    521.85043  0.015382927   0.01489811            5 
 2828000   0.80983476   -8.3271049    522.20569  0.015387957  0.014892767            6 
 2829000   0.80354316   -8.3580621    520.94551  0.015345396  0.014887439            6 
 2830000   0.80613794   -8.3850476    520.28557  0.015320541    0.0148821            5 
 2831000   0.79188607   -8.3581232    520.97712  0.015335486  0.014876737            7 
 2832000   0.80066167   -8.3708076     519.5727  0.015288745  0.014871357            5 
 2833000   0.80125125   -8.3354747    520.97163  0.015324498   0.01486597           16 
 2834000   0.80954088   -8.3679255    520.69923  0.015311081  0.014860616            3 
 2835000   0.80647528   -8.3688659    521.66356  0.015334026   0.01485525            5 
 2836000    0.7937415   -8.3492489     519.7773  0.015273193   0.01484991            7 
 2837000   0.77931674   -8.3431407    520.23085  0.015281132  0.014844589            8 
 2838000   0.81537044   -8.3803582    519.08249  0.015242027  0.014839249            7 
 2839000   0.79956347   -8.3351197     521.5388  0.015308759   0.01483391           21 
 2840000   0.79786222   -8.3795103    520.36344   0.01526888  0.014828573            2 
 2841000   0.79718657   -8.3663219    521.15117  0.015286612  0.014823211            4 
 2842000   0.79083138   -8.3601269    520.82449  0.015271654  0.014817874            5 
 2843000   0.80305113   -8.3371205    520.27057  0.015250046  0.014812537            8 
 2844000   0.79307872   -8.3762014    520.71198  0.015257618  0.014807189            4 
 2845000   0.79020355   -8.3619577    520.37169  0.015242287  0.014801847            5 
 2846000   0.80218404   -8.3465224    520.14451   0.01523028  0.014796502            3 
 2847000    0.8054424   -8.3644326    520.02762  0.015221508  0.014791179            5 
 2848000   0.81032604   -8.3828021    521.85979  0.015269774  0.014785838           16 
 2849000   0.79386806   -8.3608986     521.0447  0.015240573  0.014780488            5 
 2850000   0.79360503   -8.3783626    520.40474  0.015216513  0.014775156           16 
 2851000   0.78512656   -8.3435974    521.57445  0.015245366  0.014769788            9 
 2852000    0.7849854   -8.3692998    521.42668  0.015235703  0.014764435            5 
 2853000   0.78750812   -8.3327377    522.28565  0.015255452  0.014759072            8 
 2854000   0.79767693   -8.3499845    521.45439  0.015225835  0.014753727            6 
 2855000   0.79060985   -8.3521206    520.89671  0.015204224  0.014748394            7 
 2856000   0.80776589   -8.3454261    521.49141  0.015216253  0.014743084            5 
 2857000   0.79176644   -8.3251115    521.83187  0.015220857  0.014737782            4 
 2858000   0.77874921   -8.3293124    521.66245  0.015210592  0.014732465            4 
 2859000    0.7873045   -8.3572568    521.30506  0.015194854  0.014727167            3 
 2860000   0.78367384   -8.3287324    522.19998  0.015215617  0.014721881            6 
 2861000   0.79383738   -8.3120037    522.19593  0.015210181  0.014716586            6 
 2862000   0.80021149   -8.3692923    521.34011  0.015179947  0.014711292            3 
 2863000   0.80881054   -8.3374831     521.6707  0.015184268  0.014705994            5 
 2864000   0.80468931   -8.3534359    521.39464  0.015170933  0.014700705            3 
 2865000   0.79542318   -8.3431872     523.1502  0.015216702  0.014695396            2 
 2866000   0.79736971   -8.3467349    522.29064  0.015186399  0.014690087            3 
 2867000   0.79189779   -8.3383486     522.8008  0.015195931  0.014684787            2 
 2868000   0.79668056   -8.3445969    521.61961  0.015156311  0.014679494            4 
 2869000    0.7725629   -8.3603447    521.74752  0.015154744  0.014674211            6 
 2870000   0.79424968    -8.354502     521.9433  0.015155148  0.014668918            3 
 2871000   0.78607259   -8.3319779    521.93979  0.015149767  0.014663641           12 
 2872000   0.79535542   -8.3637237    521.71341  0.015137924  0.014658354            2 
 2873000   0.79438154   -8.3539518    523.03254  0.015170917   0.01465305            4 
 2874000   0.79636563   -8.3444172    522.78422  0.015158438  0.014647746            6 
 2875000   0.81011047   -8.3723897    522.17844  0.015135607  0.014642466            5 
 2876000   0.80912832   -8.3404634    521.54473  0.015111982  0.014637185            3 
 2877000   0.80425886   -8.3421367    522.13278  0.015123763  0.014631918            9 
 2878000    0.8002701   -8.3560173    522.25014  0.015121906  0.014626645            5 
 2879000   0.79552448   -8.3608578    523.13162  0.015142168  0.014621351            7 
 2880000    0.7920023   -8.3613912     523.2502  0.015140341  0.014616102            3 
 2881000   0.79215634   -8.3840539    521.86807  0.015095108  0.014610838            4 
 2882000   0.77463905   -8.3607737     522.3227  0.015103016  0.014605578            2 
 2883000   0.79577859   -8.3579545     521.8882  0.015085218  0.014600307            4 
 2884000   0.79926353     -8.37001    521.80753  0.015077656  0.014595041            4 
 2885000   0.79600226   -8.3959559    522.06839  0.015079965  0.014589768            6 
 2886000   0.78243523   -8.3497429    522.10946  0.015075926  0.014584504            4 
 2887000   0.77246982   -8.3461623    522.74411  0.015089023  0.014579267            2 
 2888000   0.80008813   -8.3463781    522.61281   0.01508001  0.014574024            3 
 2889000   0.77870463    -8.340407    522.98051  0.015085396  0.014568779            5 
 2890000   0.79602884   -8.3475642    523.00725  0.015080947  0.014563546            5 
 2891000   0.80384466   -8.3546136    521.53851  0.015033394  0.014558311            8 
 2892000   0.80047132   -8.3538421    522.68513  0.015061236  0.014553062            3 
 2893000   0.78737144   -8.3754932    521.32604  0.015016881   0.01454779           14 
 2894000   0.77491353   -8.3726081    520.84009  0.014997699  0.014542509            7 
 2895000   0.79453927      -8.3976    522.68184  0.015045534  0.014537209           23 
 2896000   0.77957515   -8.3763423    522.02139  0.015021334  0.014531904           13 
 2897000   0.78619641   -8.3479259    520.37625  0.014968826   0.01452662            3 
 2898000    0.7944165   -8.3674849    523.21844  0.015045389  0.014521362            3 
 2899000   0.79550657   -8.3696094    521.79486  0.014999277  0.014516111            7 
 2900000   0.78047062   -8.3671902    522.04405  0.015001266   0.01451087            8 
 2901000   0.78543413   -8.3598095    521.67471  0.014985485  0.014505609           11 
 2902000   0.79513705   -8.3724546    521.51815  0.014975826  0.014500337           10 
 2903000    0.7926827   -8.3912019    521.22647  0.014962294  0.014495076           11 
 2904000    0.7852363   -8.4063879    521.54588  0.014966307  0.014489781            4 
 2905000   0.79546666    -8.388237    521.56594  0.014961731  0.014484469            3 
 2906000   0.77139653   -8.3609227    521.76814  0.014962381  0.014479182            5 
 2907000   0.78575656   -8.3849881      519.826  0.014901559  0.014473881           18 
 2908000   0.77197948   -8.3606382      521.521  0.014945008  0.014468568            8 
 2909000   0.79372833   -8.3691375    521.66615  0.014944029  0.014463275           25 
 2910000    0.7961008   -8.3718386    521.03154   0.01492072  0.014457975           15 
 2911000   0.78092013   -8.4393203    520.95307  0.014913348  0.014452653            7 
 2912000   0.79426734   -8.3829739    521.02534  0.014910295  0.014447338           20 
 2913000   0.78653773   -8.3712772    520.49643  0.014890046  0.014442001           10 
 2914000   0.78637988   -8.3926258    522.09218   0.01493057  0.014436667           12 
 2915000   0.78011423   -8.3739286    520.50317  0.014880022  0.014431362            4 
 2916000    0.7965382   -8.3831136    521.76394  0.014910949  0.014426053            5 
 2917000   0.78558741   -8.3709792    521.83646  0.014907909   0.01442076            5 
 2918000   0.79820497    -8.372191    521.28011  0.014886912  0.014415469            6 
 2919000   0.79596762   -8.3966685    521.44806  0.014886607  0.014410184            5 
 2920000   0.77295962   -8.4114629    520.81616  0.014863475  0.014404861           22 
 2921000   0.79976588   -8.4020096    521.21488  0.014869761  0.014399542            6 
 2922000   0.77959618    -8.395483    520.74832  0.014851367   0.01439423            4 
 2923000   0.78938503   -8.3969585    521.39254  0.014864652  0.014388925            7 
 2924000   0.77742282   -8.3640151    521.46957  0.014861764  0.014383632            8 
 2925000   0.78735596   -8.3881005    520.35972  0.014825063  0.014378324            8 
 2926000   0.76716612   -8.3963757    521.43047  0.014850492  0.014373017            6 
 2927000   0.80746415   -8.4138666    521.23265  0.014839786  0.014367727            8 
 2928000   0.78174336   -8.4358821    521.30057  0.014836651  0.014362436            6 
 2929000   0.79515683    -8.377359    522.13464  0.014855316  0.014357142            3 
 2930000   0.78032023    -8.379211    522.95716  0.014873639  0.014351853            7 
 2931000   0.78948878   -8.3865684    521.97292  0.014840581  0.014346567            6 
 2932000   0.78472532   -8.3891412    521.04455  0.014809133  0.014341308           17 
 2933000   0.76895681   -8.3649136     521.5037   0.01481713  0.014336044            5 
 2934000    0.7865195   -8.3620863    521.75377  0.014819182  0.014330785            5 
 2935000   0.79267379   -8.3557603     523.4341  0.014861843  0.014325528            8 
 2936000   0.77690467   -8.3871647    522.16131  0.014820655  0.014320288            3 
 2937000   0.77324978   -8.3850736    520.39793  0.014765575  0.014315028            6 
 2938000   0.78450149   -8.3835427     521.1503  0.014781889  0.014309757            9 
 2939000   0.78782121   -8.4071515    521.18376  0.014777809  0.014304474            6 
 2940000   0.78660656   -8.4070078    521.09371   0.01477023  0.014299213            2 
 2941000   0.77369204    -8.372765    522.42052  0.014802803  0.014293955            7 
 2942000   0.77842746    -8.401482    521.52388  0.014772374  0.014288689            5 
 2943000   0.77354838   -8.4019742    521.27709  0.014760366  0.014283433            4 
 2944000    0.8010193   -8.3805822    522.52389  0.014790645  0.014278181            2 
 2945000   0.76654377   -8.3467859     521.7766  0.014764476   0.01427295            3 
 2946000   0.77780876   -8.3927961    521.68572  0.014756894  0.014267706            3 
 2947000   0.78197216   -8.3926884    521.62985  0.014750307  0.014262474            4 
 2948000   0.78760897   -8.4096786    521.34961  0.014737382  0.014257227            6 
 2949000   0.77655135   -8.3870269    522.70258  0.014770617  0.014251981            8 
 2950000   0.77330155   -8.4182985    521.22081  0.014723752  0.014246737            4 
 2951000   0.77672091   -8.4104086    521.22037   0.01471875  0.014241472            6 
 2952000   0.75619359   -8.4059519    521.67853  0.014726698  0.014236217            4 
 2953000    0.7671252    -8.427267    519.55714  0.014661845  0.014230951            5 
 2954000    0.7859016   -8.3639145    521.68475  0.014716902  0.014225698            8 
 2955000    0.7731585   -8.4026566    522.11171  0.014723962  0.014220437            4 
 2956000   0.77101847    -8.409913    521.32343  0.014696759  0.014215178            2 
 2957000   0.76718917   -8.3967512    522.56738  0.014726845  0.014209915            3 
 2958000   0.77160747    -8.430228    521.36332  0.014687946  0.014204653            5 
 2959000   0.79066276   -8.4161162    521.83166  0.014696171  0.014199388            6 
 2960000   0.76609599   -8.4044932    521.45588  0.014680627  0.014194123            7 
 2961000   0.76549873   -8.3775542    521.46776  0.014676004  0.014188868            3 
 2962000   0.76828003   -8.4003891    521.71789  0.014678086  0.014183605            3 
 2963000   0.76038019   -8.4017213    520.52749  0.014639653  0.014178347            6 
 2964000   0.78271853   -8.3993527    521.95513  0.014674852  0.014173095            7 
 2965000   0.76441379   -8.4339141     520.2892   0.01462308  0.014167833            3 
 2966000   0.78324296   -8.3795929    521.33308  0.014647479  0.014162604            3 
 2967000   0.78967371   -8.4122022    520.82497  0.014628271  0.014157368            5 
 2968000    0.7785398   -8.4029872    520.92237  0.014626077  0.014152141            3 
 2969000   0.78024671   -8.4008653    521.29171  0.014631518  0.014146923            3 
 2970000   0.77468478   -8.3838968    523.47922  0.014687969  0.014141699            6 
 2971000   0.76466366   -8.3802653    522.11951  0.014644887  0.014136488            2 
 2972000   0.75610113   -8.3965795    522.12526  0.014640121  0.014131274            3 
 2973000   0.78474958   -8.4089192    521.47325   0.01461692  0.014126047            4 
 2974000   0.76157697   -8.4151809    521.96397  0.014625756   0.01412083            5 
 2975000   0.79369665   -8.3995096     523.2423  0.014656647  0.014115618            4 
 2976000   0.76387164   -8.4023045    521.49865  0.014602897  0.014110412            4 
 2977000   0.78619767   -8.3926832    522.36171  0.014622151  0.014105215            4 
 2978000   0.79419019   -8.3814901    521.46002  0.014592008  0.014100008            5 
 2979000   0.76690603   -8.3717966    521.58842  0.014590702  0.014094805            5 
 2980000   0.77674249   -8.3754454    522.84118  0.014620838    0.0140896            3 
 2981000   0.78575686    -8.402328     522.7557  0.014613544  0.014084417            7 
 2982000   0.78396333   -8.3789677    522.29997  0.014595908  0.014079226            4 
 2983000   0.77053271   -8.4223102    520.97358  0.014553961  0.014074017            3 
 2984000   0.76695696   -8.4253289    521.64693  0.014567888  0.014068803            3 
 2985000   0.77516056   -8.4243098    521.28686  0.014552955  0.014063592            3 
 2986000   0.77769615   -8.3604114    522.54576  0.014583215  0.014058387            2 
 2987000   0.77173941    -8.391689    522.54602   0.01457834  0.014053189            5 
 2988000    0.7700151   -8.3991627    522.09294  0.014560825  0.014047988            3 
 2989000   0.75908116   -8.4113755    521.97634  0.014552703  0.014042789            5 
 2990000   0.79821967   -8.4116198     522.5465  0.014563726  0.014037584            6 
 2991000   0.78118168   -8.3846103      522.302  0.014552045  0.014032384            2 
 2992000   0.77788018   -8.4306203    520.57272  0.014499017   0.01402717            4 
 2993000    0.7584895   -8.4026744    521.51127  0.014520305  0.014021941            7 
 2994000   0.77858088   -8.4184832    521.87509  0.014525582  0.014016724            3 
 2995000   0.77713681   -8.4314391     521.3335  0.014505662  0.014011525            3 
 2996000   0.77956855   -8.4241151     519.9441  0.014462174  0.014006316            3 
 2997000   0.77759677   -8.4264129    520.61374  0.014475969  0.014001107            6 
 2998000   0.77092526   -8.4326338    522.02316  0.014510317  0.013995891            4 
 2999000   0.77096536   -8.4078499    521.37972  0.014487599  0.013990704            4 
 3000000    0.7671269   -8.4310405    521.15463  0.014476517  0.013985508            2 
 3001000   0.77341995   -8.4338877    522.95039  0.014521559   0.01398031            8 
 3002000   0.75768135   -8.4247222    520.94057  0.014460931  0.013975121            5 
 3003000   0.77147637   -8.4033803    521.93741  0.014483778  0.013969927            5 
 3004000   0.78598351   -8.4030011    521.51127  0.014467135   0.01396475            3 
 3005000   0.77261926   -8.4053305    522.44422  0.014488192  0.013959584            6 
 3006000   0.74804705   -8.4368819    521.97062  0.014470243  0.013954401            9 
 3007000   0.76223541   -8.4423048    520.50146  0.014424716  0.013949217            6 
 3008000   0.78639421   -8.4079896    522.20981  0.014467249  0.013944029            6 
 3009000    0.7664921   -8.4393228    520.72258  0.014421252  0.013938841            5 
 3010000    0.7608744   -8.4210737    520.34521  0.014406014  0.013933653            5 
 3011000   0.77133714   -8.4284508    520.81843  0.014414326  0.013928471            9 
 3012000   0.76234706   -8.4325178    521.16799  0.014419212  0.013923273            4 
 3013000   0.79103394   -8.4218126    521.54421  0.014424832  0.013918084            3 
 3014000   0.77146445    -8.399074    521.94976  0.014431258  0.013912899            8 
 3015000     0.747852   -8.4181761    522.42823  0.014439697  0.013907739            5 
 3016000   0.78264982   -8.3772407    522.49943  0.014436876  0.013902579            6 
 3017000   0.76062076   -8.4165501    521.64105  0.014408382  0.013897423           12 
 3018000   0.76756767   -8.4007303    522.82352  0.014436258  0.013892268           11 
 3019000    0.7741894   -8.4069737    521.12501  0.014384592  0.013887123           11 
 3020000   0.77299785   -8.4162138    521.97828  0.014403374  0.013881975            5 
 3021000    0.7813815   -8.4231675    522.78259  0.014420793  0.013876827            5 
 3022000   0.77464195   -8.4253687    522.93428  0.014420204  0.013871685            5 
 3023000   0.77706741   -8.4153369    521.57524   0.01437797  0.013866549            4 
 3024000   0.76884187   -8.4336535    522.09761   0.01438761  0.013861395            7 
 3025000   0.75654267   -8.3992786    523.20243   0.01441329  0.013856241           12 
 3026000    0.7660235   -8.3964823    522.87805  0.014399594  0.013851096            5 
 3027000   0.76442278   -8.4015204    521.92047  0.014368475  0.013845966            7 
 3028000   0.77102228   -8.3892566    523.08009  0.014395643  0.013840841            3 
 3029000   0.78417738   -8.4295507     521.9919  0.014360952  0.013835717            5 
 3030000   0.77424855   -8.4082871    521.10237  0.014331748  0.013830588            4 
 3031000   0.77171967   -8.4273891    521.61189  0.014341028  0.013825456            9 
 3032000   0.75962727   -8.4110312    522.99183  0.014374226  0.013820331            4 
 3033000   0.76024535   -8.4048055     523.1165  0.014372912  0.013815203            7 
 3034000   0.76370176   -8.3943023    522.72322  0.014357373  0.013810083            5 
 3035000   0.76637585   -8.4096161    523.20581  0.014365893  0.013804974           10 
 3036000   0.78667126   -8.4209126    523.15323  0.014359718  0.013799871           12 
 3037000     0.767408   -8.4204407    522.29422  0.014331419  0.013794762            7 
 3038000   0.75882082   -8.4200268    523.46914   0.01435893  0.013789664            2 
 3039000   0.74941589     -8.41455    522.75192  0.014334538  0.013784564           10 
 3040000   0.77064692    -8.436119    523.26699  0.014343942  0.013779484            8 
 3041000   0.76112883   -8.4321427     523.1749  0.014336701  0.013774415           16 
 3042000   0.79296365    -8.392496    523.42758   0.01433891  0.013769356            4 
 3043000   0.76666425   -8.4002709    523.35646  0.014332251  0.013764305            4 
 3044000   0.76005983   -8.4087103    522.79841  0.014312265  0.013759255           10 
 3045000   0.76648038   -8.4118856    523.93157  0.014338576  0.013754211           16 
 3046000   0.76950804   -8.3896859    522.38743  0.014291624  0.013749158           12 
 3047000     0.769947   -8.4058804    523.29669  0.014311801  0.013744113            8 
 3048000   0.77086808    -8.416438    524.39685  0.014337184  0.013739084           17 
 3049000    0.7578686   -8.4015919    523.99735  0.014321563  0.013734053           10 
 3050000   0.75718054   -8.4091284    522.35921   0.01427211  0.013729022           18 
 3051000   0.77326665   -8.4002757    523.54867   0.01429992  0.013724002           12 
 3052000   0.77660922    -8.405266    524.07488  0.014309602   0.01371897           14 
 3053000   0.76184294   -8.4331711     523.1313   0.01427916  0.013713933           14 
 3054000   0.76462327   -8.4362343    523.08147  0.014273124  0.013708888            3 
 3055000   0.75949151     -8.42711    522.50141   0.01425263  0.013703835            9 
 3056000   0.77673006   -8.4393043    522.82599  0.014256817  0.013698779            2 
 3057000   0.77521142   -8.4408639    523.33828  0.014266118  0.013693726            8 
 3058000   0.74601436   -8.4242335    522.87796  0.014248909  0.013688685           10 
 3059000   0.74572935   -8.4300846    524.50398  0.014288547  0.013683642            5 
 3060000   0.74535315   -8.4280991    523.68188  0.014261489  0.013678628            6 
 3061000   0.76073266   -8.3990158    523.55117  0.014253272  0.013673601            5 
 3062000   0.75673841   -8.4364022    522.87805  0.014230297  0.013668564           11 
 3063000   0.73993953   -8.4509404    523.14871  0.014233015  0.013663531           10 
 3064000   0.76425023   -8.4296163    523.33603  0.014233465  0.013658518            7 
 3065000   0.74935949   -8.4206888    523.82805  0.014242198  0.013653496            7 
 3066000   0.76146935   -8.4309852    523.33913  0.014224264  0.013648482            7 
 3067000   0.77435616   -8.4060857    524.02564   0.01423828   0.01364346            9 
 3068000   0.76017314   -8.4119874    524.12633  0.014236374  0.013638444            3 
 3069000    0.7628131   -8.4669419    523.36567   0.01421108  0.013633406            9 
 3070000   0.75887237   -8.4452547    524.78998  0.014245114  0.013628369            7 
 3071000   0.76452782   -8.4521851    522.50699  0.014178525   0.01362332            8 
 3072000   0.76999612   -8.4373455    523.13327  0.014190898    0.0136183            6 
 3073000   0.75830247   -8.4240085    522.73142  0.014175383  0.013613271            6 
 3074000   0.76644555    -8.434625    523.21848  0.014183975  0.013608243            6 
 3075000   0.75015055   -8.4220336    523.21579   0.01417929  0.013603223            3 
 3076000   0.77306428   -8.4293346    523.80955  0.014190766  0.013598203            1 
 3077000   0.76427724   -8.4057746    524.32879  0.014200216  0.013593189            4 
 3078000   0.77529908   -8.3884473    523.59089  0.014175625  0.013588192            2 
 3079000   0.77273842   -8.4598833    522.53399  0.014142416  0.013583185            9 
 3080000   0.74756653   -8.4759928    522.90069  0.014147746  0.013578144            3 
 3081000   0.75161145   -8.4628706    523.30502   0.01415409  0.013573102            8 
 3082000   0.74397576   -8.4234698    523.76938  0.014162053  0.013568058            6 
 3083000   0.77886346   -8.4622862    522.93328   0.01413486  0.013563025            6 
 3084000   0.77090681   -8.4446879    522.66589  0.014123052  0.013557995            7 
 3085000   0.76973202   -8.4339828    522.36207  0.014110267  0.013552957           11 
 3086000   0.75933659   -8.4563723    523.81129  0.014144828  0.013547929            2 
 3087000   0.73632797   -8.4387022    522.78676  0.014112589  0.013542907            3 
 3088000   0.75650741   -8.4535737    523.63103  0.014130803  0.013537864            7 
 3089000   0.74729258   -8.4748845    522.31159  0.014090633  0.013532821            6 
 3090000   0.75330617    -8.463594    522.37093  0.014087673  0.013527772            7 
 3091000   0.76186014   -8.4600173    521.90526  0.014070561   0.01352274            7 
 3092000    0.7671747   -8.4955507    521.85098  0.014064548  0.013517708            4 
 3093000   0.76709104   -8.4637196    521.78462  0.014058213  0.013512643            4 
 3094000   0.76297608   -8.4597657    522.58416  0.014075204  0.013507589            4 
 3095000   0.76975023   -8.4644027    523.64728  0.014099281  0.013502545            7 
 3096000   0.76278355   -8.4730122    522.01196  0.014050709  0.013497507            5 
 3097000   0.75524276   -8.4643201    522.28901  0.014053627  0.013492471            2 
 3098000   0.77510604   -8.4757377    522.85842  0.014064408   0.01348744            3 
 3099000   0.74008691   -8.4644763    522.56325  0.014051932  0.013482417            6 
 3100000   0.74528497   -8.4376098    522.88447  0.014056034  0.013477388            6 
 3101000   0.75356516   -8.4543362    523.06777  0.014056427  0.013472364            9 
 3102000   0.74266194   -8.4671513    523.82327  0.014072192  0.013467346            4 
 3103000   0.75281903   -8.4488893     521.6165  0.014008392  0.013462316            8 
 3104000   0.74688729   -8.4719224    523.32873  0.014049848  0.013457287            2 
 3105000   0.74349521    -8.475405     521.6212  0.013999495  0.013452248            3 
 3106000   0.76268986   -8.4753397     522.0179  0.014005632  0.013447207            4 
 3107000   0.76196089   -8.5040384     521.9809  0.014000131  0.013442164            4 
 3108000   0.74415799   -8.4870623    522.59159  0.014012001  0.013437127            3 
 3109000   0.75870149   -8.4947104    521.63691  0.013981905  0.013432091            1 
 3110000   0.74919574   -8.4760586    523.11241  0.014016946  0.013427062            4 
 3111000   0.74928694   -8.5012481    522.89533  0.014006625  0.013422053            3 
 3112000   0.75384489   -8.4621491    522.45291  0.013990277  0.013417038            4 
 3113000   0.77011219   -8.4769923    522.69144  0.013992168  0.013412034            4 
 3114000   0.74634813   -8.4535958    523.30474  0.014004087  0.013407031            4 
 3115000   0.76312749   -8.4817934    523.68957  0.014009887  0.013402027            3 
 3116000   0.76382802   -8.4513654    522.76707   0.01398072  0.013397031            3 
 3117000    0.7453711   -8.4552912    522.70109   0.01397447  0.013392029            7 
 3118000   0.74645172   -8.4631482    523.16804  0.013982469  0.013387036            5 
 3119000   0.74408725    -8.445994    523.12748  0.013976902  0.013382037            4 
 3120000   0.72516827   -8.4696197    523.18684  0.013974008  0.013377047            7 
 3121000   0.76524666   -8.4777503    522.78333  0.013958756  0.013372045            5 
 3122000   0.75593614    -8.476168    522.33837  0.013942408  0.013367038            4 
 3123000   0.75618563   -8.4696797    522.51198  0.013942576  0.013362039            3 
 3124000   0.74138675   -8.4457166     523.7434  0.013970961  0.013357046            4 
 3125000   0.74359044   -8.4682958    523.14948  0.013950653  0.013352055            6 
 3126000   0.74206283   -8.4605758    523.32851  0.013950963  0.013347059            6 
 3127000   0.76854716   -8.5014954    522.85097  0.013933775  0.013342075            4 
 3128000   0.75824397   -8.4831733    522.72397  0.013925937  0.013337101            4 
 3129000    0.7491675    -8.475138    522.54827  0.013916807   0.01333213            7 
 3130000    0.7479565   -8.4695966    522.79101  0.013918823  0.013327167            4 
 3131000   0.73540882   -8.5087887    522.56552  0.013908376  0.013322188            6 
 3132000   0.74819685   -8.4875875    523.61531  0.013931868  0.013317222            4 
 3133000   0.74587014   -8.4514394    524.00709  0.013937842  0.013312255            8 
 3134000    0.7440812   -8.4530369    523.06749   0.01390841  0.013307296            4 
 3135000   0.74661723   -8.4852496    523.81412   0.01392382  0.013302333            3 
 3136000    0.7684846   -8.4860822    523.10325   0.01390049  0.013297371            7 
 3137000   0.74483964   -8.4754487     525.1397  0.013950157  0.013292414            5 
 3138000   0.76280892   -8.4565254    523.99754   0.01391538  0.013287451            3 
 3139000   0.74895253   -8.4613153    522.83742  0.013880148  0.013282485            3 
 3140000   0.73962187   -8.4829395    523.75337  0.013900036  0.013277521            5 
 3141000    0.7599636    -8.488028    522.64769  0.013866276  0.013272552            6 
 3142000   0.75393275   -8.4882923    522.65034  0.013861933   0.01326759            4 
 3143000    0.7569991    -8.479673    523.41235  0.013877727  0.013262632            5 
 3144000   0.75866905   -8.4721923    523.27779  0.013869746  0.013257677            6 
 3145000   0.73822908   -8.4570818    523.43532   0.01386951  0.013252718            3 
 3146000   0.74104789   -8.4651138    523.34231  0.013862638  0.013247767            4 
 3147000   0.74956422   -8.4859923    522.93299  0.013847394  0.013242807            3 
 3148000   0.74544233   -8.5175743    522.94109   0.01384321  0.013237843            6 
 3149000   0.73110501   -8.4881623    522.71853  0.013832924  0.013232887           14 
 3150000   0.76027793   -8.5121424    522.27104  0.013816694  0.013227923            3 
 3151000   0.74669156    -8.501261    523.07255  0.013833506  0.013222965            4 
 3152000   0.74601173   -8.5053144     522.1381  0.013804413  0.013218006           10 
 3153000   0.74843503   -8.5398616    522.18478  0.013801268  0.013213044            6 
 3154000   0.74056158   -8.5046054    522.83418   0.01381405  0.013208088            7 
 3155000   0.73552503   -8.4966694     523.1264   0.01381739  0.013203136            9 
 3156000   0.74056555   -8.4950903     522.9171  0.013807486  0.013198184            8 
 3157000   0.74904248   -8.4920038    523.35386  0.013814641  0.013193237            7 
 3158000   0.75097111   -8.5117431    523.44454  0.013812659  0.013188277            6 
 3159000   0.75499247   -8.4873928    521.62159  0.013760198  0.013183323            5 
 3160000   0.74184314   -8.5143268    521.84028  0.013761611  0.013178364            5 
 3161000   0.73992176   -8.5250361    523.23613  0.013794056  0.013173407            4 
 3162000   0.74900484   -8.5223699    522.67115  0.013774804  0.013168461            5 
 3163000   0.75409374   -8.5119363    523.80731  0.013800382  0.013163527            5 
 3164000   0.75116035   -8.5271004    523.92877   0.01379922   0.01315859            7 
 3165000   0.74927095   -8.5154518    521.62734  0.013734264  0.013153635            6 
 3166000   0.75065413   -8.5162398    522.84086  0.013761867  0.013148686            6 
 3167000    0.7454461   -8.4834167    524.20401  0.013793391  0.013143752            3 
 3168000   0.74366436   -8.5051586    523.42033  0.013768422  0.013138835            6 
 3169000   0.74091129   -8.5350127    523.82438  0.013774702  0.013133913            8 
 3170000   0.74094632   -8.5019085    523.73462  0.013767997  0.013128986            6 
 3171000    0.7488016   -8.5416186    522.81496  0.013739487  0.013124062            5 
 3172000   0.73505738   -8.5372794    523.33838  0.013748907   0.01311912            6 
 3173000   0.73448481   -8.5255097    522.99645  0.013735593  0.013114181            5 
 3174000    0.7503251   -8.5356123    521.47411  0.013691297   0.01310924            3 
 3175000   0.74856703   -8.5351539    522.69096  0.013718923  0.013104299            6 
 3176000   0.75074643   -8.5494279    522.83957  0.013718502  0.013099362            7 
 3177000   0.74039028   -8.5307119    522.71136  0.013710821  0.013094427            4 
 3178000   0.75740135   -8.5214482    522.13906    0.0136915  0.013089498            7 
 3179000   0.74308555   -8.5284608    522.74926  0.013703189  0.013084553            9 
 3180000   0.73788872    -8.513517    523.28905  0.013713025  0.013079629            6 
 3181000   0.75216882   -8.5387888    522.76916  0.013695095  0.013074707            7 
 3182000   0.73848949   -8.5457212    522.82757  0.013692321  0.013069768            3 
 3183000   0.73494367   -8.5295298    522.04059  0.013667415  0.013064837            5 
 3184000   0.75286733   -8.5198936    522.45501  0.013673969  0.013059908            3 
 3185000   0.73306208   -8.5604632    522.22362  0.013663622  0.013054975            5 
 3186000   0.74309672   -8.5317349    521.77284  0.013647542  0.013050038            3 
 3187000   0.75664101    -8.533342    522.48591  0.013661906  0.013045105           21 
 3188000   0.75370455   -8.5662611    522.42821  0.013656112  0.013040191            2 
 3189000   0.74404783    -8.550418    523.34441  0.013675771  0.013035286           11 
 3190000   0.73995928    -8.519433    522.43648  0.013647766  0.013030365            8 
 3191000   0.74241335   -8.5435596    522.30257  0.013639992  0.013025463           12 
 3192000   0.75165041   -8.5455807    521.32187  0.013610116  0.013020549            4 
 3193000   0.75785736   -8.5508626    522.59121  0.013638981   0.01301565            5 
 3194000   0.72801291    -8.519646    522.04132  0.013620364  0.013010758           15 
 3195000   0.74855303   -8.5204185    522.45206  0.013626814  0.013005869            9 
 3196000   0.73099975   -8.5112664    522.26063  0.013617559  0.013000983           10 
 3197000    0.7397513   -8.5317357    522.60223  0.013622204  0.012996113            4 
 3198000    0.7271349   -8.5263959    522.44221  0.013613775  0.012991237           10 
 3199000   0.74484841   -8.5192315    524.60571  0.013665878  0.012986359            7 
 3200000   0.72414715   -8.5219393    524.43641  0.013657198  0.012981495           10 
 3201000   0.73543361    -8.545032    522.40045  0.013599928  0.012976629           13 
 3202000     0.733009   -8.5097428    522.37571  0.013595037  0.012971767           16 
 3203000   0.75464237   -8.5243319    523.77807  0.013627278  0.012966917           10 
 3204000   0.73952511   -8.5235623    523.35384  0.013611991  0.012962064           16 
 3205000   0.73041672   -8.5081461    523.67282  0.013616038  0.012957199            8 
 3206000   0.76461699   -8.5104901    524.25258  0.013626861  0.012952337            9 
 3207000    0.7377386   -8.5223344     523.3113  0.013598153  0.012947486           13 
 3208000   0.75334035   -8.5274198    523.49346  0.013598646  0.012942649           13 
 3209000   0.72891268   -8.4986294    522.84795  0.013577645  0.012937808            8 
 3210000    0.7341613   -8.5266741    523.06414  0.013579028   0.01293298            8 
 3211000   0.74048098   -8.5129962    522.94687  0.013571755  0.012928128           12 
 3212000   0.73632071    -8.529609    522.69646  0.013561033   0.01292329            3 
 3213000   0.75982622   -8.5275706    523.69484  0.013582707  0.012918453            6 
 3214000   0.75688885   -8.4881717    523.82466  0.013581847  0.012913632            3 
 3215000   0.72390894   -8.4902761    524.43584  0.013593464  0.012908809            7 
 3216000    0.7493184   -8.5212421    522.92745  0.013550152  0.012903994            5 
 3217000   0.73714984   -8.4969386    523.67154  0.013565214  0.012899186            7 
 3218000   0.73454526   -8.4766295    524.20783  0.013574887  0.012894384           10 
 3219000   0.73756663   -8.5066363    524.63948  0.013581844  0.012889595            6 
 3220000   0.72441314   -8.5299479    523.68301  0.013552873  0.012884787           11 
 3221000   0.73111796   -8.4895819     524.4448  0.013568374  0.012879978            9 
 3222000   0.73791255   -8.4970324    524.10108  0.013555273  0.012875182           10 
 3223000   0.74391583   -8.5212843    523.47185  0.013534798  0.012870385           11 
 3224000   0.74681165   -8.4897147    523.78692  0.013538744  0.012865598            7 
 3225000   0.74625998   -8.5051596    523.05165  0.013515547  0.012860813           13 
 3226000   0.75078728   -8.4842349    525.09275  0.013564082  0.012856027           19 
 3227000   0.73178557   -8.4795636    524.14676   0.01353545  0.012851237            8 
 3228000   0.73264498   -8.5175033    524.22065  0.013533164  0.012846448            6 
 3229000   0.73578805    -8.506415    523.98696  0.013522942  0.012841654           10 
 3230000   0.71701965   -8.5265367    523.98689  0.013518754  0.012836876           10 
 3231000   0.74949443   -8.5307056    523.53896  0.013503016  0.012832082            6 
 3232000   0.74444294   -8.5073439    523.14812  0.013488761  0.012827286           11 
 3233000   0.73654725   -8.5078783    524.70174  0.013524635  0.012822499            9 
 3234000   0.73914474   -8.4818931     523.9521  0.013501136  0.012817705           12 
 3235000   0.74438391   -8.5617261    523.34543  0.013481335  0.012812916           17 
 3236000   0.73354324   -8.5331205    523.28883  0.013475712  0.012808112            7 
 3237000   0.74949908   -8.5374958    523.88136  0.013486803  0.012803326            2 
 3238000   0.73776868     -8.50475    524.32657  0.013494095  0.012798523            9 
 3239000   0.73997912   -8.5318471    524.66745  0.013498699  0.012793721           12 
 3240000   0.74085267   -8.5237204    523.58188  0.013466612  0.012788931           13 
 3241000   0.71045048   -8.5226271    522.92779  0.013445639  0.012784146           21 
 3242000   0.72323713   -8.5232339    524.19301  0.013474013  0.012779366           17 
 3243000   0.72808793   -8.5490524    523.65108  0.013455933  0.012774577            4 
 3244000   0.75154998   -8.5272534    523.46926  0.013447114  0.012769801           13 
 3245000    0.7317536   -8.5132203    524.42411  0.013467491  0.012765034           12 
 3246000   0.73357764   -8.5405613    523.57987  0.013441669  0.012760253           11 
 3247000   0.73619095   -8.5312513    524.31005  0.013456269  0.012755463           15 
 3248000   0.73650177   -8.5164776    523.82714  0.013439736  0.012750688           10 
 3249000   0.73226511    -8.555638    523.26055  0.013421067  0.012745924           11 
 3250000   0.75298424   -8.5325437    524.37253   0.01344545  0.012741155           25 
 3251000   0.75640607   -8.5650533     523.6366  0.013422449  0.012736378           12 
 3252000    0.7290595   -8.5446057    522.74073  0.013395365    0.0127316           12 
 3253000   0.71542519   -8.5524761    522.60295  0.013387718  0.012726823           13 
 3254000   0.72893102   -8.5189251    523.44438  0.013405152  0.012722051            3 
 3255000   0.72430411   -8.5691086    523.29829  0.013397294  0.012717279            8 
 3256000   0.73749064   -8.5521684    522.95874  0.013384489  0.012712493            6 
 3257000    0.7261811   -8.5464393    522.82434  0.013376941  0.012707699           10 
 3258000   0.74192093   -8.5417876    522.63021  0.013367869  0.012702911            9 
 3259000   0.73364844   -8.5818574    522.98722  0.013372896  0.012698117           15 
 3260000   0.74537299   -8.5585946    523.06538  0.013370792  0.012693336            7 
 3261000   0.73383375   -8.5368315    523.13212  0.013368397  0.012688551           13 
 3262000   0.74224772   -8.5472832    523.59032  0.013376004  0.012683761            5 
 3263000   0.71421978   -8.5558206    523.72804  0.013375422  0.012678989            7 
 3264000   0.73563369   -8.5732783    523.45797  0.013364429  0.012674214            5 
 3265000   0.73303488   -8.5431783    522.81872   0.01334402  0.012669447           14 
 3266000   0.72132659   -8.5221735    524.71335  0.013388277  0.012664689            9 
 3267000   0.73033209   -8.5171831    524.24865  0.013372326  0.012659931           14 
 3268000   0.72912252   -8.5252494     523.5118  0.013349444  0.012655178            9 
 3269000   0.72926424   -8.5608461    524.13458  0.013361236  0.012650413           14 
 3270000   0.72314123   -8.5558665    522.26687  0.013309553  0.012645633           21 
 3271000   0.72872185   -8.5399455    523.12942  0.013327459   0.01264085           16 
 3272000   0.72039163   -8.5544091    522.94173  0.013318606  0.012636082           24 
 3273000   0.71538375   -8.5689746    522.92098  0.013314008  0.012631313           15 
 3274000   0.72617915   -8.5544265    522.80645  0.013307026  0.012626545            4 
 3275000   0.72861848   -8.5529569     522.8386  0.013303781   0.01262178           20 
 3276000   0.73549807    -8.533252    522.68754  0.013295878  0.012617019            9 
 3277000   0.73701782   -8.5739694    522.31161   0.01328226  0.012612249           16 
 3278000   0.72027041   -8.5647378     521.6017  0.013260161  0.012607483           16 
 3279000   0.71666295   -8.5441443    523.56053  0.013305899  0.012602717           14 
 3280000   0.73472771   -8.5482175    523.10779   0.01329034  0.012597961           15 
 3281000    0.7307982   -8.5467733    522.06833  0.013259889  0.012593198            7 
 3282000   0.71252391   -8.5648857    522.83779  0.013275386  0.012588431           18 
 3283000   0.71573417   -8.5708516    522.13509  0.013253505  0.012583664            8 
 3284000   0.73768685    -8.537431    524.57188  0.013311304  0.012578904           20 
 3285000   0.74173333   -8.5553104    523.38072  0.013277035  0.012574158            6 
 3286000   0.72973808   -8.5798666    522.44269  0.013249206  0.012569405            7 
 3287000   0.72807492    -8.555945     524.3356  0.013293165  0.012564658            3 
 3288000   0.74591452   -8.5613278    521.99053  0.013229687  0.012559913           10 
 3289000   0.72804369   -8.5591251    521.66231  0.013217349  0.012555167           11 
 3290000   0.71795911   -8.5581385    522.73232  0.013240434  0.012550431           10 
 3291000   0.73138832   -8.5373775    523.65126  0.013259679  0.012545688           15 
 3292000   0.72380594   -8.5389186    523.73231  0.013257703  0.012540955           13 
 3293000   0.74451295   -8.5600042    522.55938  0.013223995  0.012536225           15 
 3294000   0.73321618   -8.5489351    523.27526  0.013238091    0.0125315           15 
 3295000   0.72785018   -8.5499807    522.75293  0.013220863  0.012526765            6 
 3296000   0.73041932   -8.5550625     521.8481  0.013193975  0.012522026           14 
 3297000    0.7234991   -8.5462981    522.85958  0.013215539  0.012517313            3 
 3298000   0.71412743   -8.5661952    522.62738  0.013205664   0.01251259            6 
 3299000    0.7320687   -8.5339914    522.25446  0.013192242  0.012507854            7 
 3300000   0.72082133   -8.5629895    522.74601  0.013200657  0.012503117            7 
 3301000   0.71525694   -8.5664484    522.01612  0.013178232  0.012498375           15 
 3302000   0.74128671   -8.5663104    522.24015  0.013179895  0.012493636           12 
 3303000    0.6998984   -8.5485878     521.6606  0.013161283  0.012488896            4 
 3304000    0.7290638   -8.5331016    522.95387  0.013189918  0.012484176            8 
 3305000   0.72986243   -8.5410807    523.81757  0.013207705  0.012479466            5 
 3306000   0.73447081   -8.5442609    523.21358  0.013188485  0.012474754            8 
 3307000   0.73677492   -8.5584683    522.73057  0.013172326  0.012470042            4 
 3308000   0.73181342   -8.5054279     522.9672  0.013174305  0.012465345            9 
 3309000   0.72538965   -8.5504695    522.63279  0.013161902  0.012460631            6 
 3310000   0.70738437   -8.5543391    523.08886  0.013169407  0.012455934            5 
 3311000   0.71904513   -8.5599184    522.23305   0.01314389  0.012451223            3 
 3312000   0.71459763   -8.5553941    521.75786  0.013127965  0.012446511            6 
 3313000   0.71547158   -8.5444965    521.57872  0.013119497    0.0124418            8 
 3314000   0.71672701    -8.549193    522.30249  0.013133738  0.012437084            8 
 3315000   0.73127746   -8.5359167    522.01618  0.013122579  0.012432381            7 
 3316000   0.73782952   -8.5712749    522.18272  0.013122807  0.012427662            5 
 3317000   0.71997857   -8.5764893    522.79182  0.013134153  0.012422943            3 
 3318000   0.73459147    -8.583743    521.29339  0.013092561  0.012418225            6 
 3319000   0.72556984   -8.5578062    522.02064  0.013106876  0.012413497            8 
 3320000   0.72680079   -8.5557546    521.55028  0.013091122  0.012408781            5 
 3321000   0.71218932   -8.5608849    522.63757  0.013114463  0.012404074            5 
 3322000   0.70778415   -8.5620165    522.56036  0.013108578  0.012399347            4 
 3323000   0.71884465    -8.539467    523.25949  0.013122166   0.01239463            6 
 3324000   0.71905741    -8.547158    521.90106  0.013084162  0.012389914            6 
 3325000   0.74423256   -8.5886069    521.88807  0.013079902  0.012385187            4 
 3326000   0.71574448   -8.5340262     521.9726  0.013078087  0.012380458            5 
 3327000   0.72396134   -8.5719702    521.44995  0.013061065  0.012375728            7 
 3328000   0.73310785   -8.5872604    521.13542  0.013049264  0.012371006            5 
 3329000   0.72195024   -8.5563153    521.95201  0.013065786  0.012366277           13 
 3330000   0.70951826   -8.5580087    522.53591  0.013076474   0.01236157            6 
 3331000   0.70969443   -8.5805602    522.62582  0.013074798  0.012356857            7 
 3332000   0.71083393    -8.558412    522.33819   0.01306368  0.012352156            4 
 3333000   0.72044111   -8.5780934      520.883  0.013023377  0.012347441            5 
 3334000    0.7155325   -8.5935782    521.56759  0.013036582  0.012342735            5 
 3335000   0.71033505   -8.5711024     522.8834  0.013065552   0.01233802           11 
 3336000   0.72846729   -8.5402324    521.76893  0.013033796  0.012333322            5 
 3337000   0.70364065   -8.5700669    521.41579  0.013021071  0.012328623            4 
 3338000   0.71302556   -8.5738038    521.60977  0.013022013  0.012323925            3 
 3339000   0.71669521   -8.5721128    523.34505  0.013061422  0.012319229            9 
 3340000   0.72672288   -8.5410427    522.22663  0.013029606  0.012314535            2 
 3341000   0.72658576   -8.5737546    522.06526  0.013021682  0.012309853            3 
 3342000   0.70589718   -8.5711677    521.69979  0.013008672  0.012305176            5 
 3343000   0.69350991   -8.5683131    521.33213  0.012995616  0.012300488            3 
 3344000   0.71702232   -8.5461529    522.85171  0.013029598  0.012295817            5 
 3345000   0.72109525   -8.5567897    522.69431  0.013021782  0.012291148            4 
 3346000    0.7201723   -8.5518216    523.45425  0.013036816  0.012286476            2 
 3347000   0.70564836   -8.5627154    521.80365  0.012991825  0.012281807            4 
 3348000    0.7187284   -8.5835574    521.90724  0.012990523  0.012277135            2 
 3349000   0.71206259   -8.5681979    523.09035  0.013016083  0.012272477            3 
 3350000   0.71117308   -8.5554062    522.88117  0.013006994  0.012267823            4 
 3351000   0.70752606   -8.5594372    522.21803  0.012986622  0.012263174            2 
 3352000    0.7226131   -8.5704364    522.89957  0.012999691  0.012258529            4 
 3353000   0.73313701   -8.5980766    522.46759  0.012985078  0.012253873            5 
 3354000   0.72110982   -8.5722604    521.45888  0.012956144  0.012249222            7 
 3355000   0.71485392   -8.5751816     523.4132  0.013000825  0.012244563           10 
 3356000   0.72614622   -8.5569662    522.76299  0.012980805  0.012239922            9 
 3357000   0.72159538   -8.5518708    521.93341  0.012956345  0.012235266            2 
 3358000   0.72508879   -8.5801388     523.6235  0.012994429  0.012230625            6 
 3359000    0.7171105   -8.5695529    522.84817  0.012971325  0.012225997           10 
 3360000   0.71506219   -8.5903259    522.50377  0.012958923  0.012221351            4 
 3361000   0.70744624   -8.6010491    521.46171   0.01292923  0.012216707            5 
 3362000   0.73074208   -8.5602372    521.85291  0.012935081  0.012212066            3 
 3363000   0.71479842   -8.5586726     522.4959  0.012947168  0.012207432            4 
 3364000    0.7238896   -8.5939486    523.13711  0.012959203  0.012202785            6 
 3365000   0.73167932    -8.611461    522.17027  0.012931408  0.012198144            3 
 3366000    0.7057937   -8.5752928    521.38855  0.012908213    0.0121935            3 
 3367000   0.70774064   -8.5901652    521.63129  0.012910387  0.012188862           10 
 3368000   0.71455166   -8.6089521    522.58742  0.012930211  0.012184222            7 
 3369000   0.71806858   -8.5915495    521.90254  0.012909433   0.01217958            8 
 3370000   0.70246722    -8.607507    521.60321    0.0128982   0.01217494           10 
 3371000   0.71783438   -8.5734842    522.75698  0.012922896  0.012170302            7 
 3372000   0.70478411   -8.5883783    521.83235  0.012896213  0.012165675            7 
 3373000   0.72927571   -8.5904227    522.53784  0.012909819  0.012161051            7 
 3374000   0.70791152   -8.5919036    522.48344  0.012904649  0.012156435            6 
 3375000   0.70925957   -8.5761486    522.27441  0.012895665  0.012151809            6 
 3376000   0.70938275   -8.5973078    522.10802  0.012887737  0.012147184            6 
 3377000   0.72304484   -8.6207028    521.19899  0.012861489  0.012142562           17 
 3378000   0.71994873   -8.5707373    523.17045  0.012906317  0.012137944            8 
 3379000   0.71988788   -8.5976148    522.58133  0.012887968  0.012133328           12 
 3380000   0.71988617   -8.5869209    522.42719  0.012880355  0.012128715            5 
 3381000   0.72126171   -8.5755826     521.1017  0.012843875  0.012124097           16 
 3382000   0.71851061   -8.5935943    523.01666  0.012887262   0.01211948            6 
 3383000    0.7070151    -8.602328    522.35212  0.012867083  0.012114864           11 
 3384000   0.71371497   -8.6114724    522.05994  0.012856086  0.012110237            7 
 3385000   0.70431557   -8.6042499    521.49499   0.01283838   0.01210562            5 
 3386000   0.71739822    -8.601399    523.96907  0.012895478  0.012101012            7 
 3387000   0.71105196   -8.5991953    521.80655  0.012838464  0.012096408            7 
 3388000   0.72344576   -8.6248953    521.34215  0.012823253  0.012091809           10 
 3389000    0.7103987   -8.6204072     522.7444  0.012853949  0.012087205            6 
 3390000   0.70166791   -8.5914006    522.57865  0.012846083  0.012082615           10 
 3391000   0.70151454   -8.5933704    521.51121  0.012816062  0.012078011           15 
 3392000   0.71907931   -8.5910855    522.71707  0.012841909  0.012073427           12 
 3393000   0.70681092   -8.5772569    522.30028  0.012827888  0.012068847            6 
 3394000   0.70806694   -8.5701327    522.14734  0.012820353  0.012064271           20 
 3395000   0.70574841   -8.5861184    521.95397   0.01281183  0.012059686           11 
 3396000   0.71033754   -8.5969976    521.85027  0.012805513  0.012055105            8 
 3397000   0.70895451   -8.5808013    522.54012  0.012818667  0.012050529           16 
 3398000   0.70609399   -8.5978234    522.46741  0.012813111  0.012045957            7 
 3399000   0.69691661   -8.6264672    521.81423  0.012793327  0.012041367            7 
 3400000    0.7006829   -8.6047228    522.25115  0.012800273  0.012036788           20 
 3401000   0.71027675   -8.5834692    522.62484  0.012805666  0.012032211           16 
 3402000   0.69368387   -8.6039304    522.24933  0.012792703   0.01202765           10 
 3403000    0.7032731   -8.6178169    521.80386  0.012778036  0.012023071            7 
 3404000   0.70100973   -8.6067552    521.62406   0.01276988  0.012018492           10 
 3405000   0.69840938   -8.5964637    521.99053  0.012775099  0.012013925            5 
 3406000   0.71626459   -8.6046557    522.16705  0.012775667  0.012009358            3 
 3407000   0.72884622    -8.605581     521.1577  0.012747229  0.012004792            4 
 3408000   0.71413635    -8.609897    522.04363  0.012765151   0.01200023            4 
 3409000   0.71364221   -8.6032812    521.52191  0.012748653  0.011995663           13 
 3410000   0.70683521   -8.5905236    521.89891  0.012754128  0.011991105            4 
 3411000   0.70804613   -8.5826533    522.04137  0.012753869  0.011986546            5 
 3412000    0.7167411   -8.6173366    521.24818  0.012730759  0.011981987           11 
 3413000   0.71349395   -8.6282582    521.04976  0.012722184  0.011977421            8 
 3414000   0.70730607   -8.6187902    521.92997  0.012739943  0.011972865            5 
 3415000   0.71111235   -8.6325699     521.3348  0.012721689  0.011968314           15 
 3416000   0.72452302   -8.5994532    522.31002  0.012741755  0.011963766           12 
 3417000   0.69435141   -8.5967002    522.97824  0.012754323  0.011959219            7 
 3418000      0.69955   -8.6072563     523.1686  0.012755232  0.011954683            9 
 3419000   0.70843391    -8.590791    522.25926  0.012729338  0.011950155            7 
 3420000   0.69312562   -8.6089101    522.68238  0.012735925  0.011945618            6 
 3421000   0.69002217   -8.5978936    521.41439  0.012701315  0.011941079           10 
 3422000   0.69846962   -8.6125854     521.3001   0.01269482  0.011936542            6 
 3423000   0.70600175   -8.5791481    523.27042  0.012739079  0.011932025            5 
 3424000   0.71101774   -8.6151622    522.59325  0.012718878  0.011927499            6 
 3425000   0.68710919   -8.5919003    522.65185   0.01271659  0.011922982            4 
 3426000   0.71315013   -8.5916488    521.65669  0.012688672   0.01191846            7 
 3427000   0.71292789   -8.6141558    522.08498  0.012695384  0.011913945            4 
 3428000   0.71816881   -8.6161682    522.64517  0.012705299  0.011909418            3 
 3429000   0.69339416   -8.6145912    522.77105  0.012704653   0.01190489            7 
 3430000   0.70589807   -8.6471358    521.86839  0.012679018  0.011900364            5 
 3431000     0.699917   -8.6417376     522.0096  0.012678752  0.011895845            7 
 3432000   0.69412563   -8.6238189    522.37343  0.012683892  0.011891325            4 
 3433000      0.70621   -8.6064905     521.7125  0.012664154  0.011886799            5 
 3434000   0.69476448   -8.6260509    522.32704   0.01267538  0.011882278           14 
 3435000   0.70510984    -8.615891    523.45836  0.012699135  0.011877771           17 
 3436000   0.69956329   -8.6194664    521.79757   0.01265516  0.011873246           12 
 3437000   0.68399245   -8.6193069    521.80793   0.01265173  0.011868733            7 
 3438000   0.71068027     -8.64406    521.84683  0.012648992  0.011864216            4 
 3439000    0.7087316   -8.6162951     523.2487  0.012679284  0.011859704            5 
 3440000   0.71096582    -8.630873    522.77269  0.012664067  0.011855191           10 
 3441000   0.69911888    -8.605403    522.65371  0.012657505  0.011850686           13 
 3442000   0.68727732   -8.6305512    522.99855  0.012662177  0.011846181           22 
 3443000   0.70047454    -8.606225    521.50371  0.012622318  0.011841678            4 
 3444000   0.70823563   -8.6076985    521.51517  0.012618931   0.01183717           18 
 3445000   0.70429525   -8.6365552     520.5706  0.012592419  0.011832672           30 
 3446000   0.70166815   -8.6015574    521.08409  0.012601182  0.011828171            6 
 3447000   0.71142832   -8.6259843     521.4682  0.012606813  0.011823669           15 
 3448000    0.6975663   -8.6123812    521.65441  0.012607657  0.011819171           18 
 3449000   0.69856136    -8.634325    522.10455  0.012614878   0.01181467           11 
 3450000   0.69213898   -8.6140776    522.05045  0.012609914  0.011810168            7 
 3451000   0.68508676   -8.6122849    522.44521  0.012615793  0.011805668           15 
 3452000    0.6861398   -8.6191085    522.65768  0.012617267  0.011801165            4 
 3453000   0.70431745   -8.6274002      522.086  0.012599817  0.011796671            4 
 3454000   0.69575766   -8.6319487    521.45435  0.012580929  0.011792174            5 
 3455000   0.70264021   -8.6284723    521.89718  0.012587969  0.011787675            4 
 3456000   0.71104767    -8.622346    522.96808  0.012610148  0.011783187            7 
 3457000   0.70897351   -8.6378254    521.82918  0.012579047  0.011778704            7 
 3458000   0.69404528   -8.6012964    521.90856  0.012577322   0.01177422            5 
 3459000   0.71635668   -8.6028889    522.45534  0.012586859  0.011769744            6 
 3460000   0.69687584   -8.6308919    521.80431  0.012567541  0.011765268           12 
 3461000   0.68832964   -8.6217791    521.99639  0.012568535  0.011760799            5 
 3462000   0.68970849   -8.6257306    521.98419  0.012564611  0.011756331           10 
 3463000   0.70724945   -8.6192917    522.49838  0.012573356  0.011751854            5 
 3464000   0.69382652   -8.6289292    522.87046  0.012578677  0.011747392            8 
 3465000    0.6975094   -8.6237578    521.67281  0.012546244  0.011742924           10 
 3466000   0.70404661   -8.6053756    522.57194  0.012564242   0.01173847            4 
 3467000   0.70041896   -8.6195029    522.86845  0.012567745  0.011734014           10 
 3468000     0.705092    -8.622986    521.33744  0.012527332  0.011729551           12 
 3469000   0.68100504    -8.633366    522.20494   0.01254456  0.011725087            5 
 3470000   0.68323378   -8.6139498    521.36311  0.012520728  0.011720627           12 
 3471000   0.69630433   -8.6165459    522.05776  0.012533798  0.011716172            5 
 3472000   0.68437023   -8.6356503    520.80616  0.012500148  0.011711725           11 
 3473000   0.69186878   -8.6373077    521.10221  0.012503652  0.011707274            9 
 3474000   0.71007363    -8.629617    520.80463  0.012492915  0.011702828           18 
 3475000   0.69774858   -8.6292799    522.00967  0.012518217  0.011698382           20 
 3476000   0.68922086   -8.6185924    522.81563  0.012533938  0.011693939           20 
 3477000   0.69721712   -8.5967737    522.03537  0.012511633  0.011689501           34 
 3478000   0.68577202   -8.6541825    522.54989  0.012520364   0.01168505           15 
 3479000   0.69756532   -8.6213761    521.97326  0.012502953   0.01168061           12 
 3480000    0.6838274   -8.6101761    522.07459  0.012501786  0.011676175           14 
 3481000   0.69142908   -8.6176275    522.07698  0.012498252  0.011671745            7 
 3482000   0.69749982   -8.6271296    521.75895  0.012487051  0.011667308            4 
 3483000   0.69371302   -8.6291693    522.35486  0.012497724   0.01166288            5 
 3484000   0.68392857   -8.6402654    520.92092  0.012459838  0.011658435           11 
 3485000   0.70344123   -8.6436149    521.81389  0.012477616  0.011653999            6 
 3486000   0.71060891   -8.6461555    522.34412  0.012486712   0.01164957            6 
 3487000   0.68887361   -8.6373163    522.03265  0.012475687  0.011645149            6 
 3488000   0.66776851   -8.6425849    521.59033  0.012461543  0.011640727            3 
 3489000   0.69533265   -8.6329119    522.89168  0.012489053  0.011636307            6 
 3490000   0.69176088   -8.6322341     522.6668  0.012480105  0.011631897            5 
 3491000   0.68644712   -8.6514844    522.92709  0.012482743  0.011627484            5 
 3492000   0.67930758   -8.6344733    520.93793  0.012431699   0.01162307            6 
 3493000   0.69044628   -8.6369868    521.60373  0.012444025  0.011618651            5 
 3494000   0.68381486   -8.6365221    522.14689  0.012453418  0.011614239            7 
 3495000   0.69081937    -8.611151    522.33531  0.012454347  0.011609825            3 
 3496000   0.69717299   -8.6527889    522.58694  0.012456783   0.01160542            4 
 3497000   0.68844382    -8.638284    521.48572  0.012426978  0.011601011            4 
 3498000   0.68551296   -8.6403461    521.24647  0.012417726   0.01159659            6 
 3499000   0.69403134   -8.6662792    521.89864   0.01242971  0.011592182            5 
 3500000   0.69067677   -8.6536705    521.74646  0.012422535  0.011587776            5 
 3501000   0.67068874   -8.6589292      521.993  0.012424855  0.011583373            7 
 3502000     0.686434   -8.6384577    522.06565  0.012423036  0.011578974            5 
 3503000   0.71185603   -8.6408568    521.51884  0.012406481  0.011574572            3 
 3504000   0.70217885   -8.6423406    521.65447  0.012406166  0.011570165           10 
 3505000   0.69862096   -8.6443162    521.02311  0.012387616  0.011565759           12 
 3506000   0.68701266   -8.6378175    522.21116  0.012412321  0.011561356            9 
 3507000   0.68334938   -8.6510644    521.45778   0.01239088  0.011556944            7 
 3508000    0.6984816   -8.6476787     521.6466  0.012391833  0.011552543            9 
 3509000   0.69198364   -8.6550817    522.72913   0.01241401  0.011548144            8 
 3510000   0.68733971   -8.6426695    522.15437  0.012396827  0.011543737           12 
 3511000   0.68850819   -8.6637956    521.27545  0.012372435  0.011539339           13 
 3512000   0.69352997   -8.6712419    522.08481  0.012388117   0.01153493            8 
 3513000   0.68178465   -8.6679492    521.38141  0.012367905  0.011530519            7 
 3514000   0.69637902   -8.6513316    521.46565  0.012366383  0.011526119            7 
 3515000   0.68985662   -8.6400717    521.68033  0.012367955  0.011521722            6 
 3516000   0.69405171   -8.6213089     521.9302  0.012370359  0.011517328            5 
 3517000   0.67632024   -8.6613119    521.43436  0.012355093  0.011512936            8 
 3518000   0.67282642    -8.632501    521.86565  0.012361798  0.011508551            6 
 3519000   0.69998543    -8.649079    521.30677   0.01234505  0.011504166            3 
 3520000   0.69140522   -8.6360729    521.39255  0.012343574  0.011499772            2 
 3521000   0.69622864   -8.6545009    522.00069  0.012354461   0.01149539            8 
 3522000   0.68143969     -8.64843    522.50194  0.012362813  0.011491008            5 
 3523000   0.68410975   -8.6362998    521.93066  0.012345791  0.011486646            5 
 3524000   0.71000553   -8.6284857    522.82041  0.012363328  0.011482283            3 
 3525000   0.67429545   -8.6598422    521.94631  0.012339156  0.011477915            7 
 3526000   0.68153857   -8.6638192    521.85605  0.012333524  0.011473541            7 
 3527000   0.68656633   -8.6675484    521.30934  0.012317109  0.011469164            6 
 3528000   0.69050191   -8.6409935    521.12274  0.012309211  0.011464794            6 
 3529000   0.69030652    -8.619634    521.58357  0.012316605  0.011460425            4 
 3530000   0.69934734   -8.6321518    521.14179  0.012302686  0.011456061            5 
 3531000   0.69501225   -8.6542015    521.28639  0.012302615  0.011451699            6 
 3532000   0.69809157   -8.6656596    520.88264  0.012289606  0.011447336           12 
 3533000   0.69384779   -8.6550113    520.78405  0.012283801  0.011442971            4 
 3534000   0.68553564    -8.668408    521.71154  0.012302196  0.011438602            8 
 3535000   0.66915639   -8.6872998    521.30542  0.012289142  0.011434237           12 
 3536000   0.67357538   -8.6631449     520.7693  0.012273032  0.011429866            7 
 3537000   0.69978215   -8.6851855    521.47964  0.012286298    0.0114255            5 
 3538000   0.69398302   -8.6769787    520.64108  0.012263074  0.011421126            8 
 3539000   0.69180141   -8.6539359    521.68184  0.012284116  0.011416775            4 
 3540000   0.69928313   -8.6651699    521.99206  0.012287949  0.011412413           13 
 3541000   0.69091832    -8.664068    521.99078  0.012284448  0.011408052            2 
 3542000   0.68653323   -8.6503434    521.82254  0.012277022  0.011403697            6 
 3543000   0.69193176    -8.669064    520.90654  0.012252012  0.011399345            8 
 3544000   0.66489414   -8.6976521    520.55773  0.012240353  0.011394974            5 
 3545000   0.68682586   -8.6807627    521.19535  0.012251889  0.011390617            3 
 3546000   0.67257308   -8.6723855    521.02355  0.012244396  0.011386265            6 
 3547000   0.68958969   -8.6548541    520.48702  0.012228339  0.011381922            6 
 3548000   0.69049552   -8.6527132    520.38848  0.012222578  0.011377577           10 
 3549000   0.67984107   -8.6811742    521.04716    0.0122346  0.011373226            6 
 3550000   0.68032562   -8.6528246    520.20511  0.012211388  0.011368886            8 
 3551000   0.68936277   -8.6814747    519.86176  0.012199891  0.011364546            5 
 3552000   0.69639841   -8.6584687    521.58255  0.012236828  0.011360201            5 
 3553000   0.67096988   -8.6883213    519.83065  0.012192294  0.011355858           12 
 3554000    0.6809296   -8.6744885     520.4573  0.012203557  0.011351505            4 
 3555000   0.68619252   -8.6859737    520.26116  0.012195527  0.011347154            7 
 3556000   0.68493093    -8.671122    521.99681  0.012232771  0.011342819            3 
 3557000   0.69219766   -8.6833612    519.82886  0.012178541  0.011338476           16 
 3558000   0.68569227   -8.6761685    522.17759  0.012230129  0.011334139           15 
 3559000   0.67787888   -8.7153001    521.16618  0.012203011  0.011329798           13 
 3560000   0.68473995   -8.6904722    520.44273  0.012182648  0.011325465           10 
 3561000   0.68595316   -8.6957454    520.19817  0.012173504  0.011321134            5 
 3562000   0.67176478   -8.6645561    520.12229  0.012168311  0.011316804            8 
 3563000   0.68070104   -8.6993014    519.52544  0.012150936  0.011312466           23 
 3564000   0.68447769   -8.6640705     521.6157  0.012196401  0.011308143            4 
 3565000    0.6818022   -8.6909649    520.62923  0.012169921  0.011303805            5 
 3566000   0.67757342   -8.6842713     520.6199   0.01216629  0.011299468            6 
 3567000   0.67170719    -8.692192    519.25548  0.012131004  0.011295137            5 
 3568000   0.66971359   -8.6981673     519.6803  0.012137526  0.011290804            5 
 3569000   0.68639165    -8.679906    520.26004  0.012147661  0.011286475           13 
 3570000   0.69089111   -8.7025683    520.64627  0.012153274  0.011282146            3 
 3571000   0.66209977   -8.6932198    520.74464  0.012152167  0.011277818           10 
 3572000   0.68206583   -8.6930777    520.13761  0.012134603  0.011273492           19 
 3573000   0.68463995   -8.6959427      521.317  0.012158713   0.01126916           10 
 3574000   0.68641446   -8.6778948    520.52714  0.012136895  0.011264837            5 
 3575000   0.68679477   -8.6977777    520.15438  0.012124811  0.011260517            8 
 3576000   0.68533414   -8.7135553    519.82574  0.012113762   0.01125619            6 
 3577000   0.68303457   -8.6842564    521.00391  0.012137823  0.011251865           10 
 3578000   0.68669863   -8.7043856    520.14612  0.012114452  0.011247545            7 
 3579000   0.67995261   -8.7177796    519.52165  0.012096527  0.011243234           10 
 3580000   0.67198986   -8.6726765    519.80261  0.012099688  0.011238927            9 
 3581000   0.67530274     -8.67989    520.74087  0.012118144  0.011234616            8 
 3582000   0.69634884   -8.6876817    521.66856  0.012136343  0.011230322            6 
 3583000   0.68194521   -8.6952934     520.2025  0.012098858  0.011226014            7 
 3584000   0.67959109   -8.7110076    520.86813  0.012110959  0.011221712            9 
 3585000   0.67000722   -8.7043761    520.39167  0.012096506  0.011217409            9 
 3586000     0.674184   -8.6792056    520.00606  0.012084171   0.01121311            8 
 3587000   0.67818666   -8.6743225    520.43617  0.012090795  0.011208827            7 
 3588000   0.66677718   -8.6974764    520.82708  0.012096504  0.011204539            9 
 3589000   0.66327199   -8.7118886     521.1637   0.01210095  0.011200253            8 
 3590000   0.67994456   -8.6726723    520.83152  0.012089868  0.011195962            8 
 3591000   0.66612702   -8.6999631    520.77053  0.012085086  0.011191675            4 
 3592000   0.66775208   -8.7109411    519.41165  0.012050196  0.011187387           11 
 3593000   0.69531275   -8.6927833    520.10969  0.012063032  0.011183089            6 
 3594000   0.68421404   -8.7097552    520.13744  0.012060319  0.011178793            3 
 3595000   0.68416605   -8.6915011     520.8413   0.01207328  0.011174502           11 
 3596000    0.6830359   -8.7122987    519.48637  0.012038524  0.011170222            6 
 3597000   0.66425598   -8.6851657    520.07705  0.012048861   0.01116593           12 
 3598000   0.67924284   -8.6927249    520.88323  0.012064185  0.011161644           18 
 3599000   0.66861979   -8.6978252    520.03174  0.012041117  0.011157364           27 
 3600000   0.68069202   -8.7096472    520.66258  0.012052375   0.01115309            9 
 3601000    0.6703026   -8.7144903    519.25413  0.012016434  0.011148815           10 
 3602000   0.67928999   -8.6844113    520.38538  0.012039269  0.011144535            5 
 3603000   0.67455088   -8.7189065    519.66753  0.012019325  0.011140261           19 
 3604000   0.67606097   -8.6619944    519.89298  0.012021203  0.011135984           10 
 3605000   0.67985806   -8.7048082    521.15626   0.01204707  0.011131712           19 
 3606000   0.65969468   -8.6787693    520.25525  0.012022908  0.011127446           16 
 3607000   0.69127739   -8.7064199    521.03428  0.012037572  0.011123187           21 
 3608000   0.69218119   -8.7086831    519.97926  0.012009868  0.011118929           23 
 3609000   0.68045242   -8.6897876    520.78272  0.012025093  0.011114674            8 
 3610000   0.68385669   -8.6926612    521.51185  0.012038593  0.011110423           12 
 3611000   0.66403231   -8.6992867    520.98215  0.012023035  0.011106167           28 
 3612000   0.66902777   -8.7139318     520.6546  0.012012149  0.011101914           17 
 3613000   0.66050171   -8.7054139    520.58274  0.012007167  0.011097662            8 
 3614000   0.66863502   -8.6903061    520.36498  0.011998823  0.011093415            9 
 3615000   0.67744411   -8.7047873    519.88062  0.011984339  0.011089171            9 
 3616000   0.67178035   -8.7186822    519.03916  0.011961633  0.011084919            6 
 3617000   0.66629191   -8.7021447    519.96191  0.011979585  0.011080669            6 
 3618000   0.66741067   -8.7030312    521.06723  0.012001733  0.011076426            7 
 3619000   0.67923405   -8.7116543    520.66167  0.011989078   0.01107218           10 
 3620000   0.66714564   -8.7106156    520.54892   0.01198317   0.01106794            6 
 3621000   0.66877574   -8.6843978    520.52034  0.011979203  0.011063704           11 
 3622000   0.67861029   -8.6915038    519.92654  0.011962234  0.011059465            8 
 3623000   0.66723869   -8.7161038    520.07157  0.011962268  0.011055231            7 
 3624000   0.66645236   -8.7080451    519.66904  0.011949711  0.011051005            6 
 3625000   0.65870042   -8.6872852    520.02748  0.011954655   0.01104677           14 
 3626000   0.67060141   -8.7075613    521.16709  0.011977548  0.011042541            8 
 3627000   0.65930334   -8.7117096    520.25813  0.011953362  0.011038315            6 
 3628000   0.66739129   -8.7415631    520.73124  0.011960934  0.011034098            8 
 3629000    0.6705361   -8.7107803    520.64102  0.011955567  0.011029875            7 
 3630000   0.67488312    -8.721839    520.57882  0.011950845  0.011025657            7 
 3631000   0.67128274   -8.6880608    520.30913  0.011941364  0.011021438           23 
 3632000   0.66883992   -8.6856386    521.80302  0.011972353  0.011017218           10 
 3633000   0.66159569   -8.6997151    520.48514  0.011938828  0.011013008           14 
 3634000   0.66753772   -8.6899183    520.64948  0.011939311  0.011008803            8 
 3635000   0.68899636   -8.7090004    519.74095  0.011915198  0.011004597            8 
 3636000   0.67288118   -8.7394964    518.83833  0.011891234  0.011000385            6 
 3637000   0.65768094    -8.748237    519.93173  0.011913017  0.010996169           10 
 3638000   0.66968648   -8.7003042    519.50355  0.011899935  0.010991952            5 
 3639000   0.68041143   -8.7081425    519.83168  0.011904179  0.010987746           15 
 3640000   0.67629694   -8.7250978    520.42686  0.011914534  0.010983541           10 
 3641000   0.66763208   -8.6985917    521.03429  0.011925165  0.010979345            7 
 3642000   0.66827855     -8.69021    520.15052  0.011901669  0.010975147           10 
 3643000   0.66022308   -8.7040709    519.54993  0.011884663  0.010970951           12 
 3644000   0.68107854   -8.6936488    521.08162  0.011916429   0.01096676           11 
 3645000   0.66244362   -8.6953479    520.83064  0.011907422   0.01096258           12 
 3646000   0.67091391   -8.7201915    518.84782  0.011858837   0.01095839           12 
 3647000   0.66118219   -8.7110155    519.84039  0.011878265  0.010954194            5 
 3648000   0.67056389   -8.7207453    519.85923  0.011875439   0.01095001           13 
 3649000   0.66183012   -8.7337258    519.38908  0.011861448  0.010945817           21 
 3650000   0.66045574   -8.7158245    519.37745  0.011857933  0.010941629           15 
 3651000   0.66935368   -8.7137601    520.03455  0.011869683  0.010937445           12 
 3652000   0.68595418   -8.7115981    520.62074  0.011879809  0.010933259           27 
 3653000   0.67657137   -8.7109491    520.74696  0.011879436  0.010929072           29 
 3654000   0.66278313   -8.7205321    520.35456  0.011867236  0.010924882           12 
 3655000     0.667609   -8.6931404    520.45371   0.01186625  0.010920702           17 
 3656000   0.67446811   -8.7192215    520.07761  0.011854431  0.010916518            8 
 3657000   0.66455392   -8.7125753    520.49336  0.011860663  0.010912338           22 
 3658000     0.664891   -8.7304592    520.32997  0.011853699  0.010908156            9 
 3659000   0.67796493   -8.7021577    520.15363  0.011846443  0.010903975           24 
 3660000   0.67444141   -8.7173462    518.64127  0.011808772  0.010899805           24 
 3661000   0.66033812   -8.7155903    521.16346  0.011862958  0.010895632           13 
 3662000   0.65703093   -8.7027841    520.03516  0.011834042  0.010891457           23 
 3663000     0.670564   -8.7326968    520.56815  0.011842937  0.010887276           15 
 3664000   0.66616696   -8.7283743    519.30859  0.011811058  0.010883109           10 
 3665000   0.67469114   -8.7018771    520.68642  0.011839164  0.010878944           23 
 3666000   0.65884179    -8.712253    519.51259  0.011809251  0.010874788           11 
 3667000   0.65854917   -8.7181639    520.01511  0.011817451  0.010870625           22 
 3668000   0.66098109   -8.6934778    519.95384  0.011812837  0.010866461           10 
 3669000   0.67199934   -8.7157301     519.8059  0.011806257  0.010862303           21 
 3670000   0.67417979   -8.7379936    519.77182  0.011802267  0.010858146            8 
 3671000   0.66261302   -8.7205146    520.42198   0.01181381  0.010853992           11 
 3672000   0.66437945   -8.7349533    519.47282  0.011789053  0.010849839           11 
 3673000   0.66073389   -8.7154278    519.29489  0.011781806  0.010845695            9 
 3674000   0.65790619   -8.7218379    519.30102  0.011778739  0.010841538           12 
 3675000    0.6581311   -8.7481015    518.94695  0.011767505  0.010837382           18 
 3676000   0.65833645   -8.7140101    519.28355  0.011771934  0.010833226           13 
 3677000   0.65939679   -8.7315336    519.36822  0.011770651  0.010829081            8 
 3678000   0.68410041   -8.7000924     520.1222  0.011784534  0.010824934           23 
 3679000   0.66551766   -8.7196031    519.77467  0.011773459  0.010820786           16 
 3680000   0.66637578   -8.7406045    519.33168  0.011760228  0.010816639           12 
 3681000    0.6513857   -8.7259665    518.51825  0.011738618   0.01081249           11 
 3682000   0.68444205   -8.7168696    519.58392  0.011759549  0.010808351           10 
 3683000   0.66048677   -8.7118472    519.23609  0.011748486  0.010804221           10 
 3684000   0.67334293   -8.7244785    518.43905  0.011727268  0.010800078            3 
 3685000    0.6504783    -8.732033    518.66632  0.011729225  0.010795938            7 
 3686000   0.67502584   -8.6956134    520.10074  0.011758472  0.010791801           12 
 3687000   0.65415238   -8.7425209    519.68298  0.011745841  0.010787673           18 
 3688000   0.66480876   -8.7218634    519.86173  0.011746695   0.01078355           14 
 3689000   0.67119295   -8.7321869    519.82947  0.011742782   0.01077942           15 
 3690000    0.6564659   -8.7380121    519.98285  0.011743063  0.010775291           14 
 3691000   0.65586084   -8.7207217    519.35391  0.011725682  0.010771161           10 
 3692000   0.66758438   -8.7481845    519.27843  0.011720802  0.010767034           14 
 3693000    0.6590792   -8.7379855     520.0901  0.011735944  0.010762913            9 
 3694000   0.66261539   -8.7440106    518.84563  0.011704693  0.010758793           12 
 3695000   0.64941342   -8.7260421     519.9226  0.011725814  0.010754674           25 
 3696000   0.66188503   -8.7547327    518.92539  0.011700157  0.010750559           14 
 3697000   0.65633488   -8.7319585    520.56311  0.011733908   0.01074645           18 
 3698000    0.6377896   -8.7388946    519.75803  0.011712593  0.010742335           19 
 3699000    0.6611276   -8.7404348    520.35177  0.011722803  0.010738228           16 
 3700000       0.6625   -8.6921167    518.94319   0.01168791  0.010734119           11 
 3701000   0.65985019   -8.7312632    519.75317  0.011702989  0.010730017           25 
 3702000   0.64663024   -8.7134894    519.59611  0.011696293  0.010725915           19 
 3703000   0.67138523   -8.7417134     519.2927  0.011686306  0.010721822           23 
 3704000   0.64875958   -8.7268171    519.44579  0.011686595  0.010717734           11 
 3705000   0.64556793   -8.7235833    519.48175   0.01168425  0.010713642           11 
 3706000   0.65232764   -8.7040948    519.74508  0.011687018   0.01070955           14 
 3707000   0.66301896   -8.7677954    519.40718   0.01167627  0.010705455           13 
 3708000   0.65071887   -8.7461284    519.37172  0.011672324  0.010701355           19 
 3709000   0.65331685   -8.7272626      520.258   0.01168909   0.01069727           11 
 3710000   0.66820636   -8.7180499    519.94669  0.011678946  0.010693189            7 
 3711000   0.67535107   -8.7505775    520.42055   0.01168644  0.010689108           12 
 3712000   0.65206474   -8.7345912    520.88815  0.011693789  0.010685031           14 
 3713000   0.65949618   -8.7511842    519.11843  0.011650921  0.010680956           24 
 3714000   0.65866948   -8.7236745    519.14351  0.011648347  0.010676878           18 
 3715000   0.65463117   -8.7181928    519.78383  0.011659574  0.010672801           21 
 3716000   0.64664106   -8.7211214    519.85347  0.011657998  0.010668728           23 
 3717000   0.66657345   -8.7520893    520.15875  0.011661706  0.010664655           24 
 3718000   0.65545774   -8.7221397    519.46952  0.011643122  0.010660585           25 
 3719000   0.63982149   -8.7464358    519.75181  0.011646316  0.010656519           20 
 3720000   0.65902825   -8.7443747    520.37737  0.011657199  0.010652453           20 
 3721000   0.66269275   -8.7250439    520.24981   0.01165121  0.010648384           19 
 3722000   0.65387955   -8.7291485    520.45052  0.011652573  0.010644325           16 
 3723000   0.64634839   -8.7258049    520.15133  0.011642746  0.010640267           22 
 3724000   0.65046903   -8.7404815    520.27226  0.011642326  0.010636208           22 
 3725000   0.64989949    -8.730819    520.27476  0.011639256  0.010632144           18 
 3726000   0.66826409   -8.7574941    520.85414  0.011649091  0.010628087           20 
 3727000   0.66640609    -8.766506    519.28195  0.011610812   0.01062403           26 
 3728000   0.65322775   -8.7151528    519.99004  0.011623526  0.010619969           33 
 3729000   0.67100822   -8.7555587    519.46726  0.011608726   0.01061591           36 
 3730000   0.65583066   -8.7552995    518.58201  0.011585836  0.010611855           32 
 3731000   0.65783935    -8.737445    519.36774   0.01160028  0.010607807           38 
 3732000   0.66397344   -8.7481133    520.21747  0.011616146  0.010603755           54 
 3733000   0.65116493   -8.7395071    519.40849  0.011594975  0.010599705           38 
 3734000   0.64337181    -8.760736    519.22432  0.011587759  0.010595649           48 
 3735000   0.64917079   -8.7239878    520.41034  0.011611119  0.010591604           44 
 3736000   0.65593904   -8.7579629    519.67563  0.011591623  0.010587564           49 
 3737000   0.64801901   -8.7394818    519.77848  0.011590814  0.010583522           51 
 3738000   0.65041635    -8.751507    518.56281  0.011560612  0.010579482           41 
 3739000   0.65080093   -8.7607334    518.20154  0.011549468   0.01057544           38 
 3740000   0.64329477     -8.74606    518.06838  0.011543413  0.010571397           48 
 3741000   0.64464808   -8.7342385    519.23167   0.01156624  0.010567361           50 
 3742000   0.66764056   -8.7564036    518.45889   0.01154594  0.010563323           45 
 3743000   0.65940821   -8.7160503    520.06258   0.01157856  0.010559291           52 
 3744000   0.66059049   -8.7406917    518.64252   0.01154386  0.010555258           40 
 3745000   0.65677767   -8.7314141    519.47308  0.011559259  0.010551219           56 
 3746000   0.64036269    -8.756646    519.17064  0.011549445  0.010547184           46 
 3747000   0.66120878   -8.7226869    518.96722  0.011541838   0.01054316           39 
 3748000   0.64904685   -8.7424337    518.33194  0.011524634  0.010539139           54 
 3749000   0.64449948   -8.7228371    518.76223  0.011531125  0.010535115           50 
 3750000   0.64204763   -8.7629579     519.0875  0.011535278  0.010531097           41 
 3751000   0.66309641   -8.7584401    519.82429  0.011548571  0.010527075           36 
 3752000   0.64984199   -8.7691336    519.10607  0.011529541  0.010523056           31 
 3753000   0.64805542   -8.7555907    519.78937  0.011541642  0.010519028           32 
 3754000    0.6422822   -8.7455137    518.45986  0.011509054  0.010514997           37 
 3755000   0.63516573   -8.7624224    518.81342  0.011513835  0.010510977           27 
 3756000   0.65349391   -8.7260034    519.55713   0.01152727  0.010506962           44 
 3757000   0.63353543   -8.7718563    519.39113   0.01152052   0.01050294           38 
 3758000   0.66003174   -8.7583053    518.57541  0.011499366  0.010498922           51 
 3759000   0.65363826   -8.7605363    517.92704  0.011481933  0.010494902           45 
 3760000   0.65616683   -8.7646179    519.23418   0.01150785  0.010490886           56 
 3761000   0.65819125   -8.7714936    518.30574  0.011484218   0.01048687           56 
 3762000   0.63975811   -8.7842732    518.76089  0.011491248  0.010482852           51 
 3763000   0.65519916   -8.7550874    518.64437  0.011485614  0.010478836           54 
 3764000   0.66076975   -8.7654339    518.64395  0.011482553  0.010474823           49 
 3765000   0.65169601   -8.7526133    518.28071  0.011471463  0.010470822           50 
 3766000   0.64369221   -8.7289818    519.61157  0.011497866  0.010466816           48 
 3767000   0.65846576   -8.7572303    518.57255  0.011471829  0.010462823           39 
 3768000   0.64523826   -8.7789064    519.44026  0.011487975   0.01045882           32 
 3769000   0.64432482   -8.7815032    518.36823  0.011461224  0.010454819           55 
 3770000   0.64138759   -8.7490241    518.50661  0.011461243  0.010450819           43 
 3771000   0.63646707   -8.7634112    518.90316  0.011466966  0.010446824           44 
 3772000   0.64108751   -8.7421192    518.84624  0.011462669  0.010442829           42 
 3773000   0.65086603   -8.7835165    518.05277  0.011442106  0.010438833           59 
 3774000   0.63511631   -8.7713599    519.25188  0.011465551  0.010434835           46 
 3775000   0.64686152   -8.7514583    518.35638  0.011442746  0.010430839           38 
 3776000   0.66506268   -8.7791651    518.43802  0.011441517  0.010426842           56 
 3777000   0.64942213   -8.7573205    520.06503  0.011474385  0.010422852           34 
 3778000   0.64762796   -8.7469304    519.17158  0.011451641  0.010418874           44 
 3779000   0.66268988   -8.7622506    519.42689   0.01145424  0.010414895           49 
 3780000   0.66238485   -8.7567291     519.4234  0.011451133  0.010410921           48 
 3781000   0.65939819   -8.7635289    518.76626  0.011433621  0.010406951           42 
 3782000   0.65727179   -8.7639826    517.56271  0.011404079  0.010402973           41 
 3783000   0.64033854   -8.7764163    519.34097  0.011440236  0.010398994           47 
 3784000   0.64923572   -8.7796469    519.29836  0.011436275  0.010395013           71 
 3785000   0.64777651   -8.7530188    518.82726  0.011422881  0.010391034           54 
 3786000   0.63161865   -8.7766778    518.52852  0.011413288  0.010387066           66 
 3787000   0.64142541   -8.7445913    519.68696  0.011435766  0.010383098           47 
 3788000   0.64499163   -8.7795284    519.15947  0.011421143  0.010379133           58 
 3789000    0.6596527   -8.7690608    519.36983  0.011422755  0.010375165           44 
 3790000   0.63565097   -8.7714292    519.39835  0.011420368  0.010371207           49 
 3791000   0.65588486   -8.7321587    519.83404  0.011426933  0.010367246           61 
 3792000   0.64663972   -8.7857397    519.24246  0.011410919  0.010363285           48 
 3793000   0.63799032   -8.7695852    518.35698  0.011388456  0.010359325           55 
 3794000   0.63906478   -8.7622182    519.16939  0.011403299  0.010355369           47 
 3795000   0.64518387   -8.7887498    519.73398  0.011412692  0.010351411           55 
 3796000   0.63593462   -8.7757352    518.93045  0.011392045   0.01034745           59 
 3797000   0.65122936   -8.7732637    518.95224  0.011389523  0.010343499           58 
 3798000   0.63323727   -8.7902889    518.43371  0.011375147  0.010339548           74 
 3799000   0.64632429   -8.7728364    519.14017   0.01138765  0.010335598           67 
 3800000   0.64623006   -8.7687876    518.44636  0.011369438  0.010331651           62 
 3801000   0.65312158   -8.7784517    518.45328  0.011366598  0.010327709           65 
 3802000   0.64651423   -8.7784789    518.77594  0.011370681  0.010323766           50 
 3803000   0.65142579   -8.7629531    518.13679  0.011353685   0.01031983           58 
 3804000    0.6287403   -8.7853229    518.26772  0.011353569  0.010315892           60 
 3805000   0.64045011   -8.8140723    517.61382  0.011336264  0.010311951           60 
 3806000   0.63591367   -8.7940718     517.9889  0.011341498  0.010308007           51 
 3807000   0.63722092    -8.778754    518.79245  0.011356108  0.010304068           59 
 3808000   0.64155054   -8.7488873     518.3872  0.011344258  0.010300136           58 
 3809000    0.6165046   -8.7817922    518.93342   0.01135323  0.010296205           61 
 3810000   0.63503834   -8.7866969    517.81825  0.011325858  0.010292272           70 
 3811000   0.64933891   -8.7697925    519.67047  0.011363388  0.010288339           59 
 3812000   0.63859706   -8.8014583    518.22566  0.011328823  0.010284409           56 
 3813000   0.65284966    -8.798344    518.15876  0.011324389  0.010280479           74 
 3814000   0.64524964   -8.7718443    519.37362  0.011347964  0.010276546           68 
 3815000   0.64487265   -8.7594209    517.98721  0.011314705  0.010272617           74 
 3816000   0.64363114   -8.7778678    517.66504  0.011304705  0.010268683           57 
 3817000   0.64953048   -8.7661771    518.44317  0.011318731  0.010264756           79 
 3818000   0.63465117   -8.7784822    518.71636  0.011321729  0.010260831           65 
 3819000   0.61776107   -8.7685367    518.35274   0.01131083  0.010256908           76 
 3820000   0.65760664   -8.7976823    518.49591  0.011310993   0.01025299           60 
 3821000   0.62565552   -8.7828806    518.67117  0.011311855   0.01024907           71 
 3822000   0.64937177   -8.7975589     518.9502  0.011314979  0.010245147           71 
 3823000   0.64405195   -8.7673171    519.17656  0.011316953  0.010241228           80 
 3824000   0.64925493   -8.7758977    518.12522  0.011291083   0.01023731           56 
 3825000   0.65168868   -8.7813913    517.71874  0.011279275  0.010233391           74 
 3826000   0.62587376   -8.8032151     518.0412  0.011283351  0.010229472           82 
 3827000   0.64355227    -8.810323    517.72602  0.011273539  0.010225558           58 
 3828000   0.64670277   -8.8055354    517.60868   0.01126804  0.010221644           76 
 3829000   0.63725638   -8.7794234    518.06491  0.011275026  0.010217739           72 
 3830000   0.63806564   -8.7840775    518.11232  0.011273114  0.010213838           59 
 3831000   0.63022573   -8.7731174     518.5566  0.011279835   0.01020994           62 
 3832000   0.63790622   -8.7725575    517.52724  0.011254507  0.010206039           56 
 3833000   0.62890484   -8.7901618    518.02494  0.011262391  0.010202139           60 
 3834000   0.65134091   -8.8122635    518.29983  0.011265429  0.010198244           59 
 3835000   0.64149946   -8.7798225    518.43689  0.011265469  0.010194351           53 
 3836000   0.63372169   -8.7765433    518.84805  0.011271464  0.010190453           57 
 3837000   0.64298775   -8.8118506     517.8466  0.011246777  0.010186564           78 
 3838000   0.65032047   -8.7965653    518.76883  0.011263871  0.010182676           67 
 3839000    0.6486722   -8.7834384    517.97979  0.011243809  0.010178786           67 
 3840000   0.64443645   -8.7818192    518.48286  0.011251798  0.010174899           63 
 3841000   0.64814375   -8.8032844    517.60438  0.011229809  0.010171018           71 
 3842000   0.63900073   -8.8000148     517.1864  0.011217821  0.010167132           64 
 3843000   0.63897095   -8.7913876    518.78272  0.011249517  0.010163254           55 
 3844000   0.63686543   -8.7938401     519.1089  0.011253662  0.010159376           55 
 3845000   0.65442627   -8.8054982    518.24429  0.011231996  0.010155497           76 
 3846000   0.63593922   -8.7833143    518.75219   0.01124008  0.010151619           55 
 3847000   0.64534053   -8.8057354    517.24488  0.011204507  0.010147735           54 
 3848000   0.63824363   -8.8007887    518.21552  0.011222616  0.010143857           60 
 3849000    0.6442946   -8.8153338    517.93073  0.011213534  0.010139981           67 
 3850000    0.6461313   -8.8453952    517.27812  0.011196496  0.010136106           59 
 3851000   0.64263339   -8.7975664    518.29743  0.011215646  0.010132234           59 
 3852000   0.64833469   -8.8054934    517.90069  0.011204151  0.010128369           57 
 3853000    0.6395571   -8.8156417    518.11027  0.011205776  0.010124498           68 
 3854000   0.63414313   -8.7815385    518.02033  0.011200924  0.010120629           68 
 3855000   0.63885133   -8.7875576    519.35981  0.011226974  0.010116763           61 
 3856000   0.64428145   -8.7888868     517.8399  0.011191215  0.010112899           55 
 3857000   0.63720075   -8.8180009    517.91146   0.01118986  0.010109035           72 
 3858000   0.63182257   -8.7945652     518.2622  0.011194535  0.010105176           69 
 3859000   0.62469096   -8.7921763    518.13388  0.011188863  0.010101314           73 
 3860000   0.63880799   -8.8165591    518.52286  0.011194362  0.010097454           78 
 3861000   0.63882104   -8.8229818    517.77847  0.011175396  0.010093598           64 
 3862000   0.62827994   -8.7989517    517.01789  0.011156091  0.010089743           58 
 3863000   0.63706098   -8.8106771     518.1967  0.011178633  0.010085886           60 
 3864000   0.63108648   -8.8199409    518.18409  0.011175468  0.010082037           61 
 3865000   0.63208962   -8.7856394    518.32922  0.011175705  0.010078193           74 
 3866000   0.64600237   -8.7844325     517.4357  0.011153555  0.010074347           59 
 3867000   0.61675859   -8.8008731    517.27419   0.01114719  0.010070504           63 
 3868000    0.6324675   -8.7949508    517.91907  0.011158201  0.010066662           74 
 3869000   0.61921616   -8.8061669    518.47267  0.011167241  0.010062824           77 
 3870000   0.63956289   -8.8127534    517.44216  0.011142165  0.010058981           69 
 3871000   0.64245772   -8.7965137    518.00487  0.011151401  0.010055142           79 
 3872000   0.61704776   -8.7967405    518.73373  0.011164207   0.01005131           73 
 3873000   0.63607109   -8.8145821    518.27344  0.011151421  0.010047478           72 
 3874000   0.62475732   -8.8293687    517.53089   0.01113257  0.010043644           68 
 3875000   0.65335948   -8.7966776    517.86483  0.011136878  0.010039809           81 
 3876000   0.63328656   -8.7829986    518.01574  0.011137249  0.010035982           75 
 3877000   0.63403679   -8.8041585     517.7084  0.011127771  0.010032161           77 
 3878000    0.6222706   -8.8273132    517.54253  0.011121337  0.010028338           62 
 3879000   0.62112226   -8.8162479    518.27944  0.011134301  0.010024512           81 
 3880000   0.63911145   -8.7897844    518.55719  0.011137397   0.01002069           50 
 3881000   0.61869912    -8.828668     518.3893  0.011130922  0.010016871           91 
 3882000    0.6498925   -8.7871235    518.38079  0.011127872   0.01001305           99 
 3883000   0.64059489   -8.8306186    517.87114  0.011114069  0.010009231           93 
 3884000   0.62880441   -8.8143583    517.53033  0.011103895  0.010005414           65 
 3885000    0.6321947   -8.8105452    517.75832  0.011105927    0.0100016           78 
 3886000   0.62545049   -8.8183409    517.38348  0.011095031 0.0099977866           83 
 3887000   0.62438529   -8.7838738    517.58906  0.011096584 0.0099939754           63 
 3888000   0.63642636   -8.8170961    518.19308  0.011106676 0.0099901679           82 
 3889000   0.64366259    -8.815869    517.81644  0.011095749 0.0099863598           81 
 3890000   0.63212494   -8.8014688    517.67627  0.011089894 0.0099825555           63 
 3891000   0.64197338   -8.8191045    516.96506  0.011071812 0.0099787487           94 
 3892000   0.62545786   -8.8058405    517.77543  0.011086319 0.0099749443           90 
 3893000   0.63357925   -8.8174033     517.8105  0.011084222 0.0099711418           85 
 3894000   0.63491684   -8.8258315    517.35522  0.011071632 0.0099673396           89 
 3895000   0.61552303    -8.819219    517.49654  0.011071813 0.0099635379           58 
 3896000   0.62845777   -8.8051746    518.47076  0.011089809 0.0099597376           83 
 3897000   0.63531282   -8.8065414    518.55759   0.01108882 0.0099559469           82 
 3898000   0.62149744   -8.7977521    518.05196  0.011075166 0.0099521559           84 
 3899000    0.6292477   -8.8114141     518.1758  0.011074972 0.0099483612           92 
 3900000   0.63635179   -8.8186497    517.70526  0.011062078 0.0099445709           90 
 3901000   0.62187359   -8.8222884     517.3618  0.011051905 0.0099407787           86 
 3902000   0.62154132    -8.802788    517.54866  0.011053064 0.0099369919           91 
 3903000   0.62679911    -8.829416    518.05511  0.011061045 0.0099332106           84 
 3904000   0.63361034   -8.8081144    517.93977   0.01105575 0.0099294255           99 
 3905000   0.62728149   -8.8202365    518.08543  0.011056027 0.0099256407           81 
 3906000   0.61605888   -8.8052806    518.47891  0.011061591 0.0099218571           69 
 3907000    0.6253804   -8.8204613    518.06018  0.011049829 0.0099180784           89 
 3908000   0.63244584   -8.8228376    517.06438  0.011025767 0.0099143001           81 
 3909000   0.63802383   -8.8074476    517.61041  0.011034587 0.0099105277           99 
 3910000   0.62517587   -8.8172241     517.9779  0.011039597 0.0099067521           78 
 3911000   0.64008587   -8.8095706    518.29664  0.011043566  0.009902983           62 
 3912000   0.61855831   -8.8258322    517.57029   0.01102527 0.0098992144           66 
 3913000   0.63580638   -8.8116199    517.83031   0.01102799  0.009895449           99 
 3914000   0.63210613   -8.8218698    517.33692  0.011014668 0.0098916828           97 
 3915000   0.62895751   -8.8268339    517.11547  0.011007141 0.0098879204           99 
 3916000   0.62074733   -8.8241372    516.81885  0.010998018 0.0098841548          100 
 3917000    0.6327422   -8.8351094    516.87353  0.010996373 0.0098803894          107 
 3918000   0.61496452   -8.8224674    517.22336  0.011001007 0.0098766349           73 
 3919000   0.62403395   -8.8199682    518.05525  0.011015889 0.0098728788           83 
 3920000   0.62116927   -8.8366038    517.44278  0.011000059 0.0098691235           91 
 3921000   0.62199069   -8.8310261    517.51179   0.01099872  0.009865373          104 
 3922000   0.63274421   -8.8428795    517.98149  0.011005896 0.0098616219           92 
 3923000   0.62559191    -8.813641    517.06341  0.010983588 0.0098578738           98 
 3924000   0.62948024   -8.8262748    517.42788   0.01098853 0.0098541251           86 
 3925000   0.62672411   -8.8280216    516.54646  0.010967016   0.00985038          100 
 3926000   0.62494684   -8.8231699    517.97939  0.010994638 0.0098466401           79 
 3927000   0.62234701   -8.8135946    517.66018  0.010985064 0.0098428972           93 
 3928000   0.62090296   -8.8305383    517.58741  0.010980724 0.0098391597           90 
 3929000   0.60804475   -8.8223468    517.93566  0.010985316 0.0098354208           91 
 3930000   0.61619055   -8.7998028     517.8502  0.010980708 0.0098316864           95 
 3931000   0.62540241   -8.8299456    517.95509  0.010980138 0.0098279454          102 
 3932000    0.6129114   -8.7962055    517.67081  0.010971321 0.0098242122           72 
 3933000    0.6143664   -8.8273603    518.27243  0.010981279 0.0098204816           68 
 3934000   0.62409144   -8.8332374    517.88327  0.010970244 0.0098167514           89 
 3935000   0.62433687   -8.8080417    518.39189  0.010978227 0.0098130219           77 
 3936000   0.62668435    -8.818777    517.17525  0.010949679 0.0098092968           98 
 3937000   0.61952535   -8.8368859    517.65724    0.0109571  0.009805577           96 
 3938000   0.61322535   -8.8458341    517.73685  0.010956002 0.0098018533           73 
 3939000   0.63135478    -8.845489    518.11078  0.010961132 0.0097981352          108 
 3940000   0.62562175   -8.8369851    517.43745  0.010944109 0.0097944205           76 
 3941000   0.62932457   -8.8000948     517.7907  0.010948801  0.009790706           72 
 3942000   0.62323901   -8.8069197    516.93932  0.010928025 0.0097869909           84 
 3943000    0.6314829   -8.8448475    517.31647  0.010933225 0.0097832811           80 
 3944000   0.61853324    -8.805463    518.20099  0.010949142  0.009779569           71 
 3945000   0.61578369   -8.8162521    518.72773  0.010957493 0.0097758669           83 
 3946000   0.61233339   -8.8322501    517.46548   0.01092806 0.0097721607           77 
 3947000   0.63054355   -8.8283896    518.37739  0.010944544 0.0097684558           94 
 3948000   0.60545668   -8.8243758    517.74207  0.010928362 0.0097647533           79 
 3949000   0.62524997   -8.8190735    517.76027  0.010925978 0.0097610574           84 
 3950000   0.61648718   -8.8482933       516.73  0.010901477  0.009757359          102 
 3951000   0.61724592   -8.8353879    517.68539  0.010918868 0.0097536631           77 
 3952000   0.62458533   -8.8395438    517.61812  0.010914687 0.0097499682           84 
 3953000   0.61556755   -8.8307726    517.61603  0.010911882 0.0097462743           74 
 3954000   0.62550095   -8.8373906    517.79965  0.010912992 0.0097425805           81 
 3955000   0.62162372   -8.8497688    517.59393  0.010905898 0.0097388883           88 
 3956000   0.62202157   -8.8288515    517.98248  0.010911326 0.0097351939           75 
 3957000   0.61247784   -8.8187939    517.16049  0.010891258 0.0097315056           75 
 3958000   0.62123407   -8.8265793    516.78138  0.010880524  0.009727819           78 
 3959000   0.62005644   -8.8308725    517.80905  0.010899407 0.0097241296           89 
 3960000   0.61254845   -8.8570022    517.13007  0.010882367 0.0097204384           75 
 3961000   0.61974431    -8.845804      517.936  0.010896575 0.0097167516           80 
 3962000   0.60883682    -8.836893    517.42404  0.010883057 0.0097130688           76 
 3963000   0.64230072    -8.853111    517.48518  0.010881596 0.0097093806           72 
 3964000   0.60928228   -8.8332929    517.60861  0.010881446 0.0097057049           79 
 3965000   0.63154065   -8.8226395    517.12715  0.010868582 0.0097020312           95 
 3966000     0.626442   -8.8378439     517.2639  0.010868715 0.0096983596           84 
 3967000   0.61743835   -8.8454472    517.11334  0.010862813 0.0096946862           92 
 3968000   0.62252076   -8.8324281    517.60742  0.010870451 0.0096910138           85 
 3969000   0.61314689   -8.8256117    517.14342   0.01085797 0.0096873482           85 
 3970000   0.61741058   -8.8465718    517.90818  0.010871288 0.0096836785           79 
 3971000   0.61038342   -8.8348543    517.89201  0.010868211 0.0096800174           78 
 3972000   0.63170026   -8.8395742    517.52782  0.010857835 0.0096763546           85 
 3973000   0.60930243    -8.827491    516.88308  0.010841578 0.0096726924           75 
 3974000   0.61904362   -8.8088478    518.55522  0.010873914 0.0096690379           76 
 3975000   0.61304962   -8.8324304     518.1196  0.010862046 0.0096653854           74 
 3976000   0.62148447    -8.845781    517.44301  0.010845133  0.009661733           84 
 3977000   0.60381722   -8.8419813    517.71683  0.010848144 0.0096580781           93 
 3978000   0.61225413   -8.8390587    517.15157  0.010833576 0.0096544248           69 
 3979000    0.6260877   -8.8328892    517.44439  0.010836986 0.0096507746           81 
 3980000   0.60794133    -8.832103    518.01165   0.01084614 0.0096471236           87 
 3981000   0.59993798   -8.8461258    518.02109  0.010843613 0.0096434738           85 
 3982000   0.61405227   -8.8463911    517.91099  0.010838586 0.0096398269           98 
 3983000   0.61305813   -8.8424847    517.30428  0.010823171 0.0096361836           79 
 3984000   0.62332849   -8.8526147    517.69778  0.010828685 0.0096325487           96 
 3985000   0.61973618   -8.8345109    517.28299  0.010817294 0.0096289087           89 
 3986000    0.6198658   -8.8391801    517.27589  0.010814432 0.0096252741           84 
 3987000   0.61664047   -8.8260669    517.73347  0.010821283 0.0096216373           89 
 3988000   0.61416323   -8.8286358    518.19225  0.010828156 0.0096180024           92 
 3989000   0.60974149   -8.8355544    517.77375  0.010816699 0.0096143632           74 
 3990000   0.60944023   -8.8525734    516.19657  0.010781048 0.0096107273           88 
 3991000   0.61000597     -8.83677    517.75819  0.010810954 0.0096070915           80 
 3992000   0.61385429   -8.8361531    516.92533  0.010790859 0.0096034617           87 
 3993000   0.60880633   -8.8431016    517.46287  0.010799375 0.0095998386           75 
 3994000   0.61302248   -8.8482601    517.56667  0.010798837 0.0095962172           77 
 3995000   0.61929608   -8.8314767    517.12336  0.010786887 0.0095925953           72 
 3996000   0.61982167   -8.8447048    517.32803  0.010788456  0.009588971           80 
 3997000   0.62179371   -8.8395763    517.34164   0.01078604  0.009585351          101 
 3998000   0.60791199   -8.8397298    517.25207  0.010781476 0.0095817334           83 
 3999000   0.61364512   -8.8556278    517.12669  0.010776167 0.0095781135           84 
 4000000   0.60778735   -8.8642536    517.18411  0.010774669 0.0095744969           95 
 4001000   0.61321245   -8.8292651     517.6174  0.010781001 0.0095708784           74 
 4002000   0.62094925   -8.8465313    517.33165  0.010772357 0.0095672656           72 
 4003000    0.6138045   -8.8498159    515.93734  0.010740639 0.0095636498           85 
 4004000   0.60691952   -8.8257401    517.00064  0.010760087 0.0095600415           96 
 4005000   0.59685079   -8.8390357    517.88881   0.01077588 0.0095564394           75 
 4006000   0.60840327   -8.8414315    517.85205  0.010772426 0.0095528369           82 
 4007000    0.6093449    -8.845034     517.6755  0.010766066 0.0095492348           73 
 4008000   0.59224062   -8.8297593    517.48717  0.010759464 0.0095456338           75 
 4009000     0.619316   -8.8336811    518.75965  0.010783231 0.0095420441           75 
 4010000   0.61875604   -8.8341952    517.50888  0.010754549  0.009538447           78 
 4011000   0.62418484    -8.825307    517.69998  0.010755838 0.0095348536           76 
 4012000   0.61097353   -8.8460218    516.40988   0.01072636 0.0095312577           77 
 4013000   0.61270624   -8.8588427    516.76525  0.010731067 0.0095276655           72 
 4014000    0.6108067   -8.8572768    517.03833  0.010734063 0.0095240722           88 
 4015000   0.61182522   -8.8477712    517.79646  0.010747125  0.009520478           75 
 4016000   0.59741592   -8.8498285    517.50992  0.010738503 0.0095168861           79 
 4017000     0.602121   -8.8504561    517.35661  0.010732649 0.0095132984           81 
 4018000   0.60395909   -8.8604663     516.9219  0.010720962 0.0095097091           88 
 4019000   0.59984326   -8.8391172    517.71231  0.010734683 0.0095061279           74 
 4020000   0.60439986   -8.8714778    517.74936  0.010732781 0.0095025458           90 
 4021000   0.59589615   -8.8411884    516.09743  0.010695876 0.0094989644           80 
 4022000   0.60378085   -8.8457251    516.86742  0.010709171 0.0094953861           82 
 4023000   0.62159912   -8.8439283    517.23729   0.01071417 0.0094918111           71 
 4024000   0.62207702   -8.8411786    517.48729  0.010716685 0.0094882405           73 
 4025000   0.62046831    -8.843768     516.9951  0.010703832 0.0094846685           76 
 4026000   0.62795303    -8.850839    517.69394  0.010715639 0.0094810963           79 
 4027000   0.61901787   -8.8565046    517.32921   0.01070543 0.0094775237           90 
 4028000   0.61060155   -8.8386699    516.72812  0.010690337 0.0094739498           80 
 4029000   0.61315566   -8.8537208    517.56051    0.0107049 0.0094703776           97 
 4030000   0.59854651   -8.8689519    516.93125  0.010689232 0.0094668098           83 
 4031000   0.60589971   -8.8738046    517.06384  0.010689321 0.0094632432          105 
 4032000   0.60877654   -8.8674118    517.24295  0.010690372 0.0094596843           86 
 4033000   0.61014455   -8.8582593    517.90012    0.0107013 0.0094561221           73 
 4034000   0.61132267   -8.8511062    517.41164  0.010688556 0.0094525601           85 
 4035000   0.60548419   -8.8584418    516.27173  0.010662365 0.0094489997           87 
 4036000   0.61539259   -8.8858602    516.31773  0.010660673 0.0094454374           83 
 4037000   0.60670784   -8.8744027    517.39971  0.010680367 0.0094418803           95 
 4038000   0.60067618   -8.8566133    517.11503  0.010671847 0.0094383203           93 
 4039000   0.60542102   -8.8638756    517.85569  0.010684487 0.0094347644           80 
 4040000   0.61510687   -8.8705006    516.44403  0.010652723 0.0094312077           60 
 4041000   0.61336928   -8.8570986    517.15641  0.010664778 0.0094276506           90 
 4042000   0.61301542   -8.8495322     516.9821  0.010658546 0.0094240988           73 
 4043000   0.60283844   -8.8593048    517.17175  0.010659818 0.0094205475           65 
 4044000    0.6082923   -8.8656671    516.98412  0.010653316 0.0094169931           70 
 4045000   0.60082047   -8.8484791     517.5885  0.010663134 0.0094134483           77 
 4046000   0.60386219   -8.8686451    517.50521  0.010658783 0.0094099059           91 
 4047000   0.59502843   -8.8702103    516.90924  0.010643877 0.0094063612           78 
 4048000   0.60325738   -8.8628163    516.97506  0.010642603 0.0094028156          131 
 4049000   0.61739006   -8.8610443    516.72312  0.010634789 0.0093992757           93 
 4050000   0.60371838   -8.8669728    516.73313  0.010632369 0.0093957314           78 
 4051000   0.60016692   -8.8543622    516.59233  0.010626848 0.0093921882           87 
 4052000   0.60446749   -8.8689213    516.29121  0.010618032 0.0093886489           93 
 4053000   0.60470136   -8.8551786     516.9549  0.010629059 0.0093851077           82 
 4054000   0.60770401   -8.8735857    517.07501  0.010628906 0.0093815727           72 
 4055000   0.60745843   -8.8495178    516.46451  0.010613738 0.0093780346           74 
 4056000   0.60515364   -8.8729519    516.79612  0.010617935 0.0093745022           85 
 4057000   0.60887715   -8.8748389    516.89461  0.010617341  0.009370974           72 
 4058000   0.60079991   -8.8713322    516.08823  0.010598165  0.009367444           73 
 4059000   0.59437734    -8.868259    516.57332  0.010605513 0.0093639147           94 
 4060000   0.60479342   -8.8784048    515.93178  0.010589733 0.0093603861           82 
 4061000   0.60397219   -8.8614587    516.31674  0.010595025 0.0093568646           80 
 4062000   0.59474959   -8.8917362    516.36329  0.010593371 0.0093533406           83 
 4063000    0.6036602   -8.8732637    516.33538  0.010590192 0.0093498158           73 
 4064000   0.60543207   -8.8663976    516.79673  0.010597046 0.0093462975           87 
 4065000   0.60053535   -8.8793258    516.29205  0.010584093 0.0093427792           85 
 4066000   0.62153507   -8.8961964     516.8591  0.010593112 0.0093392623           93 
 4067000   0.59297413   -8.8636988    515.82421  0.010569302 0.0093357427           74 
 4068000   0.61423315   -8.8695596    516.30129  0.010576477 0.0093322278           84 
 4069000   0.60917736   -8.8647309    516.47903  0.010577518 0.0093287134           73 
 4070000    0.5998034   -8.8919426    516.68549  0.010579146 0.0093252019          107 
 4071000   0.61522326   -8.8729147    516.14223  0.010565427 0.0093216881           84 
 4072000   0.59960976    -8.858438    516.74557   0.01057518 0.0093181773          107 
 4073000   0.59204542   -8.8496384     515.8843  0.010554962 0.0093146692           85 
 4074000   0.59813745   -8.8793433    516.29036  0.010560677 0.0093111609           88 
 4075000    0.5851735   -8.8923478    516.86925  0.010569923 0.0093076551          103 
 4076000   0.59126835   -8.8716401    516.84684  0.010566872 0.0093041539          109 
 4077000   0.59557703   -8.8841287    515.84429  0.010543788 0.0093006539           84 
 4078000   0.59669555   -8.8760926    516.13963  0.010547238 0.0092971509           93 
 4079000    0.6016748   -8.8705629    517.31401  0.010568644 0.0092936548          104 
 4080000   0.58525492   -8.8826954     515.9845  0.010538899 0.0092901548           98 
 4081000   0.60642724   -8.8794025    515.87786  0.010534139  0.009286662           90 
 4082000   0.59320659   -8.8857317    516.70679  0.010548481 0.0092831707           75 
 4083000   0.59343511   -8.8605664    516.49063  0.010541486 0.0092796787          103 
 4084000   0.59631731   -8.8910344    516.51722  0.010539447 0.0092761892           82 
 4085000   0.60732646   -8.8812506    517.30899  0.010553019 0.0092727006           78 
 4086000   0.59612843   -8.8801636    516.72955  0.010538619 0.0092692172           92 
 4087000   0.60434497    -8.860012    517.43703  0.010550466  0.009265732           98 
 4088000   0.61310567   -8.8663152    517.15807  0.010542198 0.0092622502          104 
 4089000   0.59664344   -8.8922995    516.22035  0.010520509 0.0092587697           93 
 4090000    0.5925604   -8.8640369    516.75997  0.010528932 0.0092552924          105 
 4091000   0.60307505   -8.8704327    516.91088  0.010529432 0.0092518157           83 
 4092000   0.61638797   -8.8849193    516.75614  0.010523708 0.0092483418           84 
 4093000   0.60957203   -8.8854976    516.28998  0.010511645  0.009244867           81 
 4094000     0.591739   -8.8634457    516.77395  0.010518929 0.0092413927           82 
 4095000   0.59695315   -8.8720086    516.49113  0.010510605 0.0092379194          111 
 4096000   0.59518191    -8.854795    516.31931  0.010504543 0.0092344527           84 
 4097000   0.59699807   -8.8673652    517.45921  0.010525165 0.0092309866           87 
 4098000   0.59981904   -8.8894555    515.85759  0.010490027 0.0092275218          104 
 4099000   0.60876869   -8.8741386    516.17598  0.010493941 0.0092240564           90 
 4100000   0.58678179   -8.8879808    516.42141   0.01049637  0.009220587           84 
 4101000   0.58097508   -8.8776257    516.33668  0.010492089 0.0092171209           93 
 4102000   0.60970529   -8.8825593    515.38465   0.01047019 0.0092136603           93 
 4103000   0.58905658   -8.8864383    516.30258  0.010486282 0.0092101984           89 
 4104000   0.58741501   -8.8817041    517.30421  0.010504065 0.0092067363           78 
 4105000   0.60196795   -8.9038039    516.40618  0.010483276 0.0092032766          113 
 4106000   0.60022601   -8.8730868    515.96074  0.010471682 0.0091998206          101 
 4107000   0.60272841   -8.8806591    516.00223  0.010469975 0.0091963646           87 
 4108000   0.58524066   -8.8804847    515.79944  0.010463312 0.0091929078          103 
 4109000   0.59172889   -8.9068817    515.73622  0.010459484 0.0091894517          103 
 4110000   0.60133636   -8.8866794    516.41441   0.01047069 0.0091859954          116 
 4111000   0.60183277   -8.8961777    516.53408  0.010470568 0.0091825476          102 
 4112000   0.57823778   -8.8829612    515.76086  0.010452352 0.0091790944          102 
 4113000     0.597474    -8.874643    515.53768  0.010445289 0.0091756489          102 
 4114000   0.60300014   -8.8944112    516.14024  0.010454955 0.0091722013          103 
 4115000   0.59552313   -8.8924515    516.69196  0.010463588 0.0091687535           97 
 4116000   0.58836381     -8.89608    516.74653   0.01046215 0.0091653069          103 
 4117000   0.59357233   -8.8925531     516.2229   0.01044901 0.0091618681          100 
 4118000   0.58672345   -8.8761267     516.1746  0.010445495 0.0091584304          121 
 4119000   0.59136315   -8.8881531    516.14586  0.010442378 0.0091549892           99 
 4120000   0.59144945   -8.8942663    516.27446  0.010442445 0.0091515514           98 
 4121000    0.5957393   -8.8962072    516.31976  0.010440827 0.0091481192           92 
 4122000   0.59150617   -8.8896273    516.04499  0.010432739 0.0091446901          114 
 4123000   0.60006719   -8.8891761    516.31418  0.010435649 0.0091412607           88 
 4124000   0.59631202   -8.8971944    515.55587  0.010417796 0.0091378315           81 
 4125000   0.58725319   -8.8994482    515.91429  0.010422511  0.009134403          109 
 4126000     0.595133   -8.8877394    516.52689  0.010432358  0.009130973          101 
 4127000   0.58730393   -8.8987702    516.45619  0.010428402 0.0091275479           79 
 4128000   0.58737418   -8.8805509    515.36841  0.010403917 0.0091241208          133 
 4129000   0.59480441    -8.885458    516.81983   0.01043069 0.0091207001           85 
 4130000   0.59159749    -8.894499    516.09397  0.010413518 0.0091172805          107 
 4131000   0.58946645   -8.8921355    516.16953  0.010412522 0.0091138568           75 
 4132000   0.60427452   -8.8778295    515.12928  0.010389022 0.0091104347          130 
 4133000   0.58910219   -8.9038609     515.3279  0.010390513 0.0091070134           91 
 4134000   0.59944914   -8.9043104    516.31674  0.010407933 0.0091035955          130 
 4135000   0.58695172   -8.8855251    515.74203  0.010393834  0.009100176           89 
 4136000   0.59380151   -8.8994029    515.22135   0.01038083 0.0090967588          111 
 4137000   0.58271848   -8.9028364    515.73913   0.01038875 0.0090933456          107 
 4138000   0.59708019   -8.9081247    516.18494  0.010395218 0.0090899362          108 
 4139000   0.60411659   -8.9028749    515.83572  0.010385675 0.0090865284          118 
 4140000   0.58033677   -8.9071243    515.62597  0.010378945 0.0090831216          111 
 4141000   0.59247748   -8.9041471     515.2617  0.010369108 0.0090797154          110 
 4142000   0.59439828   -8.9104822    515.67082  0.010374835 0.0090763151           92 
 4143000   0.58900804    -8.917124    515.42097  0.010367306 0.0090729131          109 
 4144000     0.590225   -8.9049641    515.93829  0.010375207 0.0090695079           94 
 4145000   0.60581513   -8.9035892    515.50088   0.01036391 0.0090661091          104 
 4146000   0.60362252   -8.8915683    515.86898  0.010368809   0.00906271          100 
 4147000   0.59572922   -8.9093733    515.84189  0.010365764 0.0090593104          104 
 4148000   0.58950281   -8.9032091    515.99341  0.010366309 0.0090559119          102 
 4149000   0.58251187   -8.9047958    515.81627  0.010360253 0.0090525172          115 
 4150000   0.58136842   -8.9130961    516.18599   0.01036518 0.0090491221          104 
 4151000   0.58437121   -8.8972641    516.28206  0.010364612 0.0090457299          101 
 4152000   0.59796792   -8.9212986    515.77122  0.010351863 0.0090423386          106 
 4153000   0.59284424   -8.9028411    515.45465  0.010343018 0.0090389511           98 
 4154000   0.58534951   -8.9206597    515.62612  0.010343968 0.0090355614          103 
 4155000   0.59967893   -8.9120919    514.93736  0.010327665 0.0090321794           98 
 4156000    0.5963156    -8.901511    515.54381   0.01033734 0.0090287959           98 
 4157000   0.59316806   -8.8939858    515.73178  0.010338621 0.0090254165          105 
 4158000   0.60258604   -8.9229585    515.27305  0.010326941 0.0090220376          107 
 4159000   0.57796686   -8.8966691    516.30568  0.010345149 0.0090186582          106 
 4160000   0.57486604    -8.912047    515.99416  0.010336421  0.009015282          104 
 4161000    0.5875713   -8.8831813    516.57983  0.010345667 0.0090119046          105 
 4162000   0.60191282   -8.8964126     515.8649  0.010328866 0.0090085305           96 
 4163000    0.5817694   -8.9124469    515.47492  0.010318579 0.0090051587           92 
 4164000    0.5719299   -8.9152312    515.68393  0.010320284 0.0090017837          120 
 4165000   0.58615198   -8.9239244    515.11984  0.010306519   0.00899841          126 
 4166000   0.58710938   -8.9058197    515.42874  0.010310224 0.0089950394           92 
 4167000   0.58433755   -8.9034065    515.37395  0.010306655 0.0089916698           88 
 4168000   0.57555559   -8.9054969    515.70857  0.010310872 0.0089882998          108 
 4169000   0.59497551   -8.8986618    515.58807   0.01030599 0.0089849352           99 
 4170000   0.59573025   -8.9018659    515.31929  0.010298147 0.0089815738           85 
 4171000   0.59165624   -8.9076541    515.21727   0.01029364 0.0089782148           99 
 4172000   0.58158183   -8.9129324    516.13309  0.010309466  0.008974858          115 
 4173000   0.58972807   -8.9169156    515.48676  0.010294088 0.0089715012          103 
 4174000   0.60003659   -8.9253346    515.25561  0.010287007 0.0089681419          108 
 4175000   0.60153625   -8.9110886    515.52709  0.010289962 0.0089647894           95 
 4176000   0.60275875   -8.9191301     515.6832  0.010290613 0.0089614373          110 
 4177000    0.5756805   -8.9071375    514.42162   0.01026298 0.0089580867          120 
 4178000   0.58015898   -8.8934414    515.84881   0.01028899 0.0089547374           83 
 4179000   0.58148199   -8.9054129    515.35367  0.010276654 0.0089513918           97 
 4180000   0.58553482   -8.8962314    515.85684  0.010284227 0.0089480446          109 
 4181000   0.57903189   -8.9069547    516.16544  0.010287918 0.0089446992          108 
 4182000   0.57235805   -8.9247704     515.4314  0.010270831 0.0089413599          111 
 4183000   0.57213353   -8.9083381    515.28965  0.010265552 0.0089380175          103 
 4184000   0.58062513   -8.9210608     514.9851  0.010257033 0.0089346785          100 
 4185000    0.5777858   -8.9219361    516.67271  0.010288186 0.0089313401          103 
 4186000   0.58493496   -8.9144772    515.34433  0.010259283 0.0089280023          102 
 4187000   0.59994892   -8.9041358    515.66348  0.010263185  0.008924668           87 
 4188000    0.5736932   -8.9109964    516.32029  0.010273804 0.0089213332           88 
 4189000   0.57853953   -8.9179564    517.08194  0.010286503 0.0089179986           89 
 4190000   0.57806414   -8.9252593    515.31783  0.010248962 0.0089146639          102 
 4191000   0.58868901   -8.9033237    516.22338  0.010264523 0.0089113355           94 
 4192000   0.57277132   -8.9020786    515.27988  0.010243318 0.0089080074          105 
 4193000   0.58409864   -8.9148963    515.98877  0.010254964 0.0089046782          103 
 4194000   0.58759135   -8.9334864    514.74594  0.010227824  0.008901353           82 
 4195000   0.57894418   -8.9163347    515.92163  0.010248741 0.0088980289           99 
 4196000   0.57659321   -8.9113717    516.13009  0.010250439 0.0088947031           95 
 4197000   0.58505519   -8.8995877     515.8189  0.010241817 0.0088913791           93 
 4198000   0.57038723   -8.9083471    515.54797     0.010234 0.0088880597           90 
 4199000   0.57620072   -8.9113343    515.39811  0.010228588 0.0088847428           90 
 4200000   0.58032729   -8.9073382     516.0594  0.010239274 0.0088814275           94 
 4201000   0.56552733   -8.9344477    514.68635    0.0102096 0.0088781104           94 
 4202000   0.57934143   -8.9129012    515.30997  0.010219538 0.0088747989           82 
 4203000   0.57550257   -8.9165487    515.56395  0.010222142 0.0088714907           96 
 4204000    0.5911332    -8.929136    515.29695  0.010214418 0.0088681803           92 
 4205000   0.58522772   -8.9139163    514.58563  0.010197892 0.0088648744          114 
 4206000    0.5870819    -8.922331     515.6017  0.010215599 0.0088615685           89 
 4207000   0.57649972   -8.9394736    514.93089  0.010199883 0.0088582644          108 
 4208000   0.57922167   -8.9213047    515.61412  0.010210989 0.0088549588           97 
 4209000    0.5737331   -8.9056454    515.51421  0.010206585 0.0088516563           91 
 4210000   0.57585095   -8.9053898    515.27258  0.010199378 0.0088483517          101 
 4211000   0.56005284   -8.9238573    514.84319  0.010188459 0.0088450476          108 
 4212000   0.57878823   -8.9359914    514.69588  0.010183125 0.0088417449           94 
 4213000   0.57297119   -8.9274224    515.47602  0.010196139 0.0088384423           95 
 4214000   0.57694727   -8.9231739    515.68608  0.010197874 0.0088351438          105 
 4215000   0.56785013   -8.9293319    515.44559    0.0101907 0.0088318448           91 
 4216000   0.57147057   -8.9314228    515.43215  0.010188017 0.0088285518           94 
 4217000   0.58222817   -8.9177386    515.95183   0.01019587 0.0088252594          104 
 4218000   0.57991988   -8.9217838    515.40349   0.01018262 0.0088219686           86 
 4219000   0.57304082   -8.9225359    515.50087   0.01018213 0.0088186803           82 
 4220000   0.58703267   -8.9170916    515.50572  0.010179813 0.0088153914          104 
 4221000   0.57081369    -8.905045    515.86019  0.010184399  0.008812106          103 
 4222000   0.57764255   -8.9255305    514.86941  0.010162431 0.0088088219           76 
 4223000   0.56324942   -8.9026643    515.99497  0.010182236 0.0088055374           92 
 4224000   0.57721588   -8.9384171    515.26498  0.010165423 0.0088022579           89 
 4225000   0.58003413   -8.9240887    515.31522  0.010164008 0.0087989784          100 
 4226000   0.58287983   -8.9448903    514.68305  0.010149137 0.0087957014          114 
 4227000   0.56620152   -8.9335917    514.88075  0.010150634  0.008792419           98 
 4228000    0.5799331   -8.9309499    514.64918  0.010143669 0.0087891447           82 
 4229000   0.57295639   -8.9199757    515.70159  0.010162008 0.0087858702           98 
 4230000   0.56041409   -8.9188627    514.76186  0.010141093 0.0087825955           98 
 4231000   0.57687701   -8.9223845     515.0823  0.010145007 0.0087793234           79 
 4232000   0.57628555   -8.9207308    514.55356  0.010132198 0.0087760504           88 
 4233000   0.57278797   -8.9155603    515.03659  0.010139314 0.0087727805           98 
 4234000   0.58538831   -8.9435774     515.2214  0.010140557  0.008769513           85 
 4235000   0.56434263   -8.9136211    515.79585  0.010149466 0.0087662503           84 
 4236000   0.57126258   -8.9353056    514.80377  0.010127553 0.0087629827           85 
 4237000   0.57498954   -8.9251808     514.7938  0.010124967 0.0087597192           78 
 4238000   0.57874425   -8.9306993    516.06822  0.010147637 0.0087564539           84 
 4239000   0.56570783   -8.9273085    514.65228  0.010117407 0.0087531922           97 
 4240000   0.56174513   -8.9215531    515.30434  0.010127837  0.008749933           85 
 4241000    0.5827329   -8.9235414    515.45197   0.01012835 0.0087466747           97 
 4242000   0.57159444   -8.9317478    515.64871  0.010129827 0.0087434191           97 
 4243000    0.5823259   -8.9175959    515.32939  0.010121168 0.0087401651          103 
 4244000   0.56173111     -8.93034    515.20132  0.010116268 0.0087369094           83 
 4245000   0.54718892   -8.9333505    514.53345  0.010100774  0.008733658           89 
 4246000    0.5685935   -8.9135972    515.28584  0.010113162 0.0087304093           94 
 4247000   0.58809671   -8.9322652    515.84252  0.010121704 0.0087271598           80 
 4248000   0.56997105   -8.9287963    515.16423  0.010106015 0.0087239103           88 
 4249000   0.56402603   -8.9207459    515.38646  0.010107995 0.0087206646           84 
 4250000   0.55539563   -8.9240515    515.99454   0.01011754 0.0087174227           88 
 4251000   0.57147669   -8.9180078    515.32685  0.010102071 0.0087141784           97 
 4252000   0.57363693   -8.9468813    515.94882  0.010111885 0.0087109363          100 
 4253000   0.56865784   -8.9397713     515.4559  0.010099849 0.0087077017           81 
 4254000   0.57796811   -8.9350343    514.24587  0.010073771 0.0087044647           89 
 4255000   0.57343049   -8.9304383    514.49595  0.010076301 0.0087012286           94 
 4256000   0.56956345   -8.9349277    514.40527  0.010072158  0.008697993           91 
 4257000   0.57781495   -8.9438301    515.24203  0.010086172  0.008694758           93 
 4258000   0.56194728   -8.9329984    514.97993  0.010078674 0.0086915247          109 
 4259000   0.56814579    -8.936709    515.08772  0.010078417 0.0086882976          109 
 4260000   0.57397433   -8.9356162     514.7124  0.010068709 0.0086850684          100 
 4261000   0.55803313    -8.929038    514.64645  0.010065056 0.0086818396           89 
 4262000    0.5780996   -8.9447025    515.02678  0.010070131  0.008678608           90 
 4263000   0.56653962   -8.9285705    514.61979  0.010059813 0.0086753813           95 
 4264000   0.57647151   -8.9362792    515.00318  0.010064947 0.0086721541           99 
 4265000   0.57439118   -8.9283949    514.95343  0.010061614 0.0086689289           91 
 4266000   0.56477359   -8.9489338    514.13095  0.010043189 0.0086657063           97 
 4267000   0.58354205   -8.9385471    515.80378  0.010073505 0.0086624888           86 
 4268000   0.56952081   -8.9368115    515.95287  0.010074056 0.0086592755          103 
 4269000    0.5506879   -8.9520455    514.91212   0.01005138 0.0086560602          101 
 4270000     0.569778   -8.9045066    515.82136  0.010066771  0.008652846           88 
 4271000   0.57535269   -8.9458507    514.89321  0.010046305  0.008649632           89 
 4272000   0.57890746   -8.9545599    514.62114  0.010038646 0.0086464177           89 
 4273000   0.57035616   -8.9480657    513.97295  0.010023655 0.0086432051           85 
 4274000   0.55519913   -8.9403412    514.85742  0.010038555 0.0086399982          132 
 4275000   0.56641453   -8.9378402    514.87722  0.010036593 0.0086367849           95 
 4276000   0.57420929   -8.9432651    514.44995  0.010025919 0.0086335751           96 
 4277000   0.58744641   -8.9403595    514.19597  0.010018626 0.0086303673          118 
 4278000   0.57585466   -8.9441863    514.19035  0.010016175 0.0086271627          106 
 4279000   0.56525699   -8.9521238    513.85871  0.010007375 0.0086239577          146 
 4280000   0.57866928   -8.9446196    513.75526  0.010003023 0.0086207543          109 
 4281000   0.57300924   -8.9299848    514.02046  0.010005849  0.008617553           93 
 4282000   0.55296548    -8.951566     515.2817  0.010028057 0.0086143563           95 
 4283000   0.56821324   -8.9433995      514.554  0.010011557 0.0086111595          101 
 4284000   0.58098176   -8.9554943    514.74049  0.010012848  0.008607964           88 
 4285000   0.55447516    -8.930896    514.74587  0.010010616 0.0086047673          100 
 4286000   0.56748052   -8.9437282    514.33293  0.010000251 0.0086015731           99 
 4287000   0.56614953     -8.93924    514.07213 0.0099928492 0.0085983834           89 
 4288000   0.56337146    -8.942484    514.40644 0.0099970157 0.0085951929           94 
 4289000   0.56843966   -8.9422173     515.8685  0.010023092 0.0085920073          113 
 4290000   0.56137348   -8.9430777    515.20683  0.010007903 0.0085888225           99 
 4291000   0.56840033   -8.9445761    515.45482  0.010010386 0.0085856365           85 
 4292000   0.55850333   -8.9590028    514.01156 0.0099800319 0.0085824502          111 
 4293000   0.56759886   -8.9425997    514.49577 0.0099871064 0.0085792631           88 
 4294000   0.56557988   -8.9392056    514.93767 0.0099933564   0.00857608           87 
 4295000   0.57448628   -8.9558773    514.79754 0.0099883109 0.0085728985          100 
 4296000   0.56395248   -8.9604506    514.62375 0.0099826147 0.0085697169           93 
 4297000   0.55976898   -8.9484598    514.57342 0.0099793154 0.0085665388          105 
 4298000   0.56587671   -8.9522737    515.58617 0.0099966296 0.0085633653           85 
 4299000   0.56594024   -8.9450034    514.42487 0.0099717932  0.008560187           77 
 4300000   0.59266134   -8.9595858    515.09965 0.0099825514 0.0085570154          102 
 4301000   0.55425864   -8.9428975    514.47646 0.0099681559 0.0085538448           85 
 4302000   0.56907083   -8.9442101    514.97937 0.0099755806 0.0085506785           84 
 4303000   0.54610143   -8.9503329    514.43636 0.0099627462 0.0085475121          112 
 4304000   0.56209297   -8.9472927    514.55795 0.0099627857 0.0085443449           98 
 4305000   0.56479902   -8.9465075    515.57269 0.0099801141 0.0085411801           88 
 4306000   0.55718168   -8.9499731    514.16644 0.0099505813 0.0085380191           88 
 4307000    0.5618978    -8.950631    513.89687 0.0099430554 0.0085348562          101 
 4308000   0.54929166   -8.9480001    514.92338  0.009960604 0.0085316931          110 
 4309000   0.56474954   -8.9530143    515.52573 0.0099699413 0.0085285315           99 
 4310000   0.56077162   -8.9417997    514.89782 0.0099554875  0.008525375           95 
 4311000   0.55683125   -8.9456244    514.23973 0.0099404571 0.0085222168           95 
 4312000   0.55788922    -8.953014    513.76102 0.0099289003 0.0085190597           87 
 4313000   0.56323665   -8.9419716     514.9961 0.0099504618 0.0085159061           89 
 4314000   0.55672428   -8.9436874    514.82018  0.009944757 0.0085127578          101 
 4315000   0.56482492   -8.9604292    514.45419 0.0099353841 0.0085096081          100 
 4316000   0.57789041   -8.9582745    513.52242 0.0099150916 0.0085064544          100 
 4317000   0.55539656   -8.9550519    514.11235 0.0099241826 0.0085033075           79 
 4318000   0.55855755    -8.939398    514.28097 0.0099251385 0.0085001642           93 
 4319000   0.56650697   -8.9473375    513.73285 0.0099122646 0.0084970254           89 
 4320000   0.55784583   -8.9524121     514.6222 0.0099271258 0.0084938856           96 
 4321000   0.55858911   -8.9372099    514.63803 0.0099251336 0.0084907445           90 
 4322000   0.55405457   -8.9461807    515.02813 0.0099303587 0.0084876041           88 
 4323000   0.55744621    -8.946656    514.47086 0.0099173194 0.0084844613           88 
 4324000   0.56876349    -8.952074    514.88652 0.0099230366 0.0084813228           94 
 4325000    0.5616471   -8.9454043    514.55635 0.0099143805 0.0084781832          100 
 4326000   0.56809387   -8.9533167    514.01142 0.0099015916 0.0084750498           85 
 4327000   0.56880445   -8.9561427    515.03777 0.0099190696 0.0084719196           94 
 4328000   0.55925705   -8.9413006    515.54539 0.0099265518 0.0084687889           98 
 4329000   0.55622175   -8.9645781    513.81431 0.0098909353 0.0084656585           90 
 4330000   0.55330276   -8.9645144    514.50872 0.0099020155 0.0084625282          105 
 4331000   0.57512664   -8.9453305    513.99954 0.0098899319 0.0084594042           92 
 4332000   0.55370638   -8.9606557    514.23137 0.0098921086  0.008456279           92 
 4333000   0.55205416   -8.9490254     514.3841  0.009892763 0.0084531527           94 
 4334000   0.55514039   -8.9537941    514.85555 0.0098995454 0.0084500308          100 
 4335000   0.54632033   -8.9691819    514.12077 0.0098831366 0.0084469029           98 
 4336000   0.55197534   -8.9660478    515.20878 0.0099017677 0.0084437822          103 
 4337000   0.55954352   -8.9707038    514.82497   0.00989211 0.0084406622           89 
 4338000    0.5581201   -8.9607069    514.49261  0.009883445 0.0084375433           98 
 4339000   0.57317941   -8.9472112    515.03508 0.0098915855 0.0084344208           78 
 4340000   0.55980198   -8.9688456    513.97435 0.0098689392 0.0084313031          124 
 4341000   0.56242257   -8.9545307    514.48324 0.0098764347 0.0084281882           92 
 4342000   0.55755555   -8.9539681    515.16697 0.0098872826 0.0084250759           88 
 4343000   0.54886358   -8.9728844    514.39493 0.0098701921 0.0084219652          108 
 4344000   0.55163157   -8.9405293    513.74308 0.0098554151  0.008418854           76 
 4345000   0.55913171   -8.9722668     514.5314 0.0098682662 0.0084157432           86 
 4346000   0.55978122   -8.9663929     515.9152 0.0098925295 0.0084126375           95 
 4347000   0.56302228   -8.9428164    514.49222 0.0098629749 0.0084095292           86 
 4348000   0.56138031   -8.9650976    514.41447 0.0098592164 0.0084064219          100 
 4349000   0.53948875   -8.9722113    515.27722 0.0098734809 0.0084033181           83 
 4350000    0.5525946   -8.9569971     514.5164  0.009856636  0.008400214           80 
 4351000    0.5586388   -8.9641583    514.42203 0.0098525632 0.0083971136           96 
 4352000   0.55296232   -8.9543617    514.27491 0.0098474821 0.0083940095           87 
 4353000   0.54818081     -8.95322    514.28183 0.0098453524 0.0083909123           94 
 4354000   0.55325287   -8.9626143     514.6366 0.0098498813 0.0083878172           83 
 4355000    0.5577504   -8.9661215    513.81721 0.0098319405 0.0083847194           95 
 4356000   0.54930712     -8.94051    514.74398 0.0098474132 0.0083816285          105 
 4357000   0.54416152   -8.9475534    513.87345 0.0098285029 0.0083785364           98 
 4358000   0.55827395    -8.954037    514.01743 0.0098290009 0.0083754454          105 
 4359000   0.55740612   -8.9658969    514.18907 0.0098300274 0.0083723569           97 
 4360000   0.54816017   -8.9637861    514.35139 0.0098308752 0.0083692728          100 
 4361000   0.55707347   -8.9679022    513.72323 0.0098166176 0.0083661891           84 
 4362000   0.55545383   -8.9735167      513.519 0.0098104654 0.0083631056           91 
 4363000   0.55488668   -8.9664757    514.10788 0.0098194645 0.0083600202           99 
 4364000   0.55895402   -8.9496253    514.62341 0.0098270586 0.0083569408           94 
 4365000   0.55413924   -8.9718764    514.55701 0.0098235397 0.0083538598          100 
 4366000   0.54424846   -8.9697738    513.71779 0.0098052716   0.00835078           91 
 4367000    0.5497724   -8.9776723    514.07781 0.0098098964 0.0083477034          126 
 4368000   0.54546865   -8.9642092    514.06272 0.0098073626 0.0083446251          104 
 4369000   0.55196874   -8.9664442    514.17976 0.0098073503 0.0083415483           95 
 4370000   0.54779765   -8.9844835    513.35935 0.0097894613 0.0083384742          100 
 4371000   0.54191466   -8.9811579     513.9336 0.0097981697 0.0083354011          108 
 4372000   0.56150104   -8.9543587    514.02704 0.0097977096 0.0083323291           86 
 4373000   0.56674938   -8.9782294    513.82824 0.0097916808  0.008329262           84 
 4374000   0.54043713   -8.9656165     514.3238 0.0097988836 0.0083261922          106 
 4375000   0.54381771   -8.9758411    513.95043 0.0097895319 0.0083231237           85 
 4376000   0.55389759   -8.9743215    513.90328  0.009786397 0.0083200592           98 
 4377000   0.55124679   -8.9835068    513.36977 0.0097740037 0.0083169971           93 
 4378000   0.55112247   -8.9612361    513.20234 0.0097685843  0.008313935           95 
 4379000   0.55596962   -8.9601081    513.74186 0.0097766206 0.0083108756           91 
 4380000   0.55767895   -8.9777664    514.06613  0.009780558 0.0083078139          141 
 4381000    0.5530055   -8.9566343     513.4672  0.009766933 0.0083047556           87 
 4382000   0.55142278   -8.9717134    514.06162 0.0097760082 0.0083017016          100 
 4383000   0.54625112    -8.954164     515.0668 0.0097928891 0.0082986478           89 
 4384000   0.54645079   -8.9472675    514.71217 0.0097839143 0.0082955956           89 
 4385000   0.54079026   -8.9632059    513.50659 0.0097587721 0.0082925459          160 
 4386000   0.54822476   -8.9742403    514.36968 0.0097729457  0.008289495           98 
 4387000   0.56302931   -8.9542461    513.81704 0.0097602203  0.008286448          100 
 4388000   0.56162456   -8.9576516    514.10563 0.0097634768 0.0082834036           96 
 4389000   0.52808183   -8.9595528    513.71289 0.0097537953 0.0082803576           93 
 4390000   0.56085979    -8.976885    514.25926 0.0097619449 0.0082773153           84 
 4391000   0.54752241    -8.968652     513.4684 0.0097447127 0.0082742747           89 
 4392000   0.54176477   -8.9760943    514.96889 0.0097709641 0.0082712373           84 
 4393000   0.54196471   -8.9739026     514.2174 0.0097544844 0.0082681989           85 
 4394000   0.55251457   -8.9729737    514.82189 0.0097637288 0.0082651617           88 
 4395000   0.54363321   -8.9633564    514.06947 0.0097472406 0.0082621253           86 
 4396000   0.55428624    -8.954126    514.20452 0.0097475834 0.0082590932           90 
 4397000   0.56894743   -8.9658552    513.98334 0.0097411747  0.008256062          108 
 4398000   0.53495818   -8.9758751    514.22677 0.0097435723  0.008253032          106 
 4399000   0.55464566   -8.9596681    514.89401 0.0097539973 0.0082500023           97 
 4400000   0.55261707   -8.9784359    514.33961 0.0097412805 0.0082469738           99 
 4401000   0.54537417   -8.9543176    513.05487 0.0097147404 0.0082439464           92 
 4402000   0.55877603   -8.9820429    514.33424  0.009736753  0.008240923           84 
 4403000   0.55745864   -8.9749554    513.07984 0.0097108002 0.0082378976          104 
 4404000   0.54569902   -8.9634983    514.36607 0.0097329336 0.0082348702           92 
 4405000   0.53964685   -8.9630599    514.27496 0.0097290003 0.0082318458          105 
 4406000   0.54909174   -8.9708147    512.97946 0.0097022897 0.0082288257           86 
 4407000   0.54252045   -8.9885352    513.73464 0.0097143681 0.0082258025           90 
 4408000    0.5479107   -8.9762901     514.7062 0.0097305315 0.0082227824          116 
 4409000   0.55117369   -8.9740425    513.73747 0.0097100149 0.0082197631           93 
 4410000   0.54881317   -8.9799745    513.71391 0.0097073679 0.0082167448           91 
 4411000   0.53604139   -8.9853399    514.40567  0.009718236 0.0082137308           91 
 4412000   0.53572542   -8.9551881     514.2251 0.0097126228 0.0082107171           89 
 4413000    0.5384756   -8.9829164    513.34588  0.009693819  0.008207705           97 
 4414000   0.54684982   -8.9748738     514.0281 0.0097045027 0.0082046898           98 
 4415000   0.54764309   -8.9812408    513.68115  0.009695756 0.0082016787           90 
 4416000   0.54930355   -8.9891939    514.31426 0.0097055076 0.0081986689           97 
 4417000   0.54309592   -8.9646522    513.46209 0.0096872329 0.0081956596           94 
 4418000   0.55016552   -8.9843254    514.09227 0.0096969268 0.0081926538           91 
 4419000   0.54057854    -8.971993    514.22949 0.0096973201 0.0081896498           92 
 4420000   0.55130709   -8.9759525    513.58638 0.0096830011 0.0081866463           97 
 4421000   0.54645512   -8.9864531    513.85151 0.0096858084 0.0081836448          102 
 4422000   0.53579726   -8.9546812    512.77669 0.0096633628 0.0081806482           89 
 4423000   0.54276331   -8.9696745    513.64101 0.0096774628 0.0081776484           96 
 4424000   0.54397968   -8.9704836    514.20871 0.0096859687 0.0081746492           93 
 4425000   0.55115858   -8.9719855    513.30067 0.0096666793 0.0081716516           90 
 4426000    0.5321557   -8.9732426    513.54245 0.0096690474  0.008168657           93 
 4427000   0.53849385   -8.9848617    513.87263 0.0096730787 0.0081656655           89 
 4428000   0.55205927    -8.994423        513.8 0.0096695273 0.0081626735           91 
 4429000   0.54811966   -8.9670544    513.25906  0.009657166 0.0081596845          107 
 4430000   0.54943528    -8.989206    514.46974 0.0096777604 0.0081566949          110 
 4431000    0.5405467    -8.982987     513.8143 0.0096632494 0.0081537032          106 
 4432000   0.54362735   -8.9823655    512.70397 0.0096401919  0.008150716           91 
 4433000   0.54712189    -8.954743    512.94438 0.0096425366 0.0081477303           97 
 4434000   0.54350085   -8.9936294    513.35303 0.0096480422 0.0081447492          101 
 4435000   0.54080288   -8.9770219    514.01716 0.0096583457 0.0081417653           84 
 4436000   0.52992612   -8.9744214    513.95236 0.0096549512 0.0081387822           87 
 4437000   0.54280813   -8.9704069    513.44696 0.0096432829 0.0081358016          100 
 4438000   0.55015517   -8.9599272    513.81014 0.0096479296 0.0081328237           87 
 4439000   0.54343582   -8.9667791    513.58835 0.0096415925 0.0081298493           89 
 4440000   0.54840994   -8.9839153    513.85979 0.0096445156  0.008126875           88 
 4441000    0.5364125   -8.9756791    513.50038 0.0096355997 0.0081239048           87 
 4442000   0.53209621   -8.9833737    514.05603 0.0096438546 0.0081209322           92 
 4443000   0.53123369   -8.9859684    513.47881 0.0096308577 0.0081179617          100 
 4444000   0.54244203   -8.9900839    514.07102 0.0096397956 0.0081149944           99 
 4445000   0.54432784   -8.9802136    514.51084 0.0096458726 0.0081120264           95 
 4446000   0.55082075   -8.9895716    514.16218 0.0096371679 0.0081090625          102 
 4447000   0.53653159   -8.9928727    513.22206 0.0096173837  0.008106095           92 
 4448000   0.54739826   -8.9714802    513.77123 0.0096255101 0.0081031324           87 
 4449000   0.53523329   -8.9736719    513.29603 0.0096144457 0.0081001675          106 
 4450000   0.52966194   -8.9908371    513.29279 0.0096122246 0.0080972063          110 
 4451000   0.53744258   -8.9943103    513.61359 0.0096160712 0.0080942437          100 
 4452000   0.53385816   -8.9902814    513.15818 0.0096053867  0.008091286           90 
 4453000   0.54255347     -9.00889    513.90542 0.0096172134 0.0080883274          100 
 4454000   0.53905099   -8.9886228    513.31408 0.0096039904  0.008085374           97 
 4455000    0.5313008   -8.9952564     514.1538  0.009617542 0.0080824193           97 
 4456000   0.53978682   -8.9862963    513.85851 0.0096098615 0.0080794656           94 
 4457000   0.53540468   -8.9989214    513.39125 0.0095989688 0.0080765131           93 
 4458000   0.53982957    -8.987416    513.76019 0.0096037123  0.008073563           94 
 4459000   0.53000581   -9.0068372    513.59456  0.009598463 0.0080706115           93 
 4460000   0.53788289   -9.0006363    512.62206 0.0095781402 0.0080676614          106 
 4461000   0.54800306   -8.9771509    513.03601 0.0095837258  0.008064715           82 
 4462000   0.54158031   -8.9852903    513.02287 0.0095813325 0.0080617716           98 
 4463000   0.54065444   -8.9971569    514.48545  0.009606495 0.0080588244          105 
 4464000   0.52872981   -8.9986636    513.92178 0.0095938205 0.0080558808           93 
 4465000   0.54596916   -9.0100307    514.17501 0.0095963981  0.008052936           90 
 4466000   0.53803242     -8.98997    513.14562 0.0095750413 0.0080499912           95 
 4467000   0.54383618   -8.9756297    512.95782 0.0095693944 0.0080470493           88 
 4468000   0.54512887   -8.9954533    513.71753 0.0095814221 0.0080441104           93 
 4469000   0.54000726   -8.9956192    513.89084 0.0095825099 0.0080411742          114 
 4470000   0.52942027   -8.9982856     512.8215 0.0095604306 0.0080382407           98 
 4471000   0.54958704   -8.9763249    511.78357 0.0095389468 0.0080353045          132 
 4472000   0.53650706   -8.9869073    513.86087 0.0095755231 0.0080323717           90 
 4473000   0.53933627   -8.9867433    512.89047 0.0095553036 0.0080294375           95 
 4474000   0.53191818   -8.9786882     514.0979 0.0095756575 0.0080265064           97 
 4475000   0.52779967   -8.9922212    512.98877 0.0095528636 0.0080235772          116 
 4476000   0.54109131   -8.9777254    513.71508 0.0095642516  0.008020648          101 
 4477000    0.5258704   -8.9958004    513.39774 0.0095562084 0.0080177226           96 
 4478000   0.52186681   -9.0007246    513.34616 0.0095531146  0.008014796           92 
 4479000    0.5328483   -9.0116894    512.95247 0.0095436569 0.0080118704           95 
 4480000   0.54322383   -9.0086838    513.51005 0.0095518982 0.0080089467          114 
 4481000   0.53944264   -8.9715875    513.09609 0.0095420682 0.0080060254          101 
 4482000   0.54432902    -9.007627    512.45618 0.0095280414 0.0080031075          104 
 4483000   0.53905069   -8.9853681    513.25119 0.0095406943 0.0080001872           91 
 4484000   0.53030075   -9.0016739    513.06475 0.0095351016 0.0079972681           95 
 4485000   0.52827249   -9.0019814    513.31084 0.0095375482 0.0079943526           93 
 4486000   0.53317807   -8.9851179    513.52374 0.0095393769 0.0079914403           91 
 4487000   0.54660722   -9.0027845    512.99664 0.0095274615 0.0079885284          100 
 4488000   0.53851486   -8.9990164      513.621 0.0095369319 0.0079856172           90 
 4489000   0.52879398   -8.9934042    513.34029 0.0095295962   0.00798271           82 
 4490000   0.52831077   -9.0061187    513.59281 0.0095321605 0.0079798031           87 
 4491000    0.5291004   -9.0015556    513.62656 0.0095306644 0.0079768986           88 
 4492000   0.54209271   -9.0062146    513.57481 0.0095275825 0.0079739948          102 
 4493000    0.5333449   -8.9976353    513.78046 0.0095292763  0.007971093           86 
 4494000   0.52892399   -9.0006425    513.45571  0.009521134 0.0079681917           92 
 4495000   0.52140103    -9.006667     513.4551 0.0095190044 0.0079652926          106 
 4496000   0.52880432   -8.9983137    513.01952 0.0095088138 0.0079623941           91 
 4497000   0.53473491   -9.0008445    512.63048 0.0094994901 0.0079594969           98 
 4498000    0.5362534   -9.0163276    513.63162 0.0095159259 0.0079566009          103 
 4499000   0.52207088   -9.0104136    512.85205 0.0094993711 0.0079537037          111 
 4500000   0.53272148    -8.994449    512.80446 0.0094963789 0.0079508077           95 
 4501000   0.52970485   -8.9966002    513.05108 0.0094988351 0.0079479118           91 
 4502000   0.52837227   -9.0037612    514.02158 0.0095146894  0.007945018          131 
 4503000    0.5353171   -9.0020642     512.6637 0.0094874472 0.0079421222           88 
 4504000   0.52511346   -8.9943818    513.05521 0.0094925845 0.0079392377          150 
 4505000   0.52899471   -9.0000479    513.04868 0.0094903567 0.0079363518          105 
 4506000   0.52166581   -8.9991885    513.76698 0.0095015347 0.0079334647          107 
 4507000    0.5359935   -9.0070492    512.87514 0.0094829366  0.007930583           96 
 4508000   0.51803652   -9.0138382    513.58246 0.0094939083 0.0079276976           98 
 4509000   0.53899059   -9.0208117    512.72132 0.0094758874 0.0079248173           94 
 4510000   0.53333161   -8.9930154    513.67393 0.0094913882   0.00792194          103 
 4511000   0.52964615   -9.0053518    513.43255 0.0094848251 0.0079190613          103 
 4512000   0.52299364   -9.0133721    513.16234 0.0094777323 0.0079161837          134 
 4513000   0.52769419   -9.0235892    513.59469 0.0094836156 0.0079133074           91 
 4514000   0.53037813   -8.9977293    512.60224 0.0094631931 0.0079104331          120 
 4515000   0.52433585   -9.0312286    513.44061 0.0094765709 0.0079075577          125 
 4516000   0.53097434   -9.0172455    512.46328 0.0094564378 0.0079046824           98 
 4517000    0.5377045   -8.9864774     512.6982 0.0094586784 0.0079018099          103 
 4518000   0.52964864   -9.0221472    512.86259 0.0094596169 0.0078989408          101 
 4519000   0.53433059   -9.0204816     512.8121 0.0094565926 0.0078960706          111 
 4520000   0.53485091   -9.0096303    513.12806 0.0094603256 0.0078932011          118 
 4521000    0.5334202   -8.9967587    513.68763 0.0094685473  0.007890334          144 
 4522000   0.53203308   -9.0117375    512.65526 0.0094474285  0.007887471           87 
 4523000   0.51982651   -9.0112631    512.98266 0.0094513719 0.0078846121          102 
 4524000   0.52676555   -8.9864902    513.47136 0.0094582848 0.0078817506           93 
 4525000   0.52253711   -9.0073052    512.83915 0.0094445517 0.0078788888          106 
 4526000   0.52782567   -9.0020771       512.43 0.0094349316 0.0078760308           91 
 4527000   0.51929253   -9.0064929    513.24634 0.0094478746 0.0078731747          124 
 4528000   0.52831503     -9.00864    512.57341 0.0094334035 0.0078703182          104 
 4529000   0.52572838   -9.0113133    513.45733 0.0094475847 0.0078674605          130 
 4530000   0.52679799   -9.0171609     512.8256 0.0094338779 0.0078646059          126 
 4531000   0.53232833   -9.0143692    513.21476 0.0094389531 0.0078617526          100 
 4532000   0.52336088   -8.9936799    512.75972 0.0094285032 0.0078588965          115 
 4533000   0.53362113   -9.0151172    513.43747 0.0094388828 0.0078560422           95 
 4534000   0.54010019   -9.0022329    512.67863 0.0094228538 0.0078531918           95 
 4535000   0.52995176   -9.0061329    513.12651 0.0094290061 0.0078503419          105 
 4536000   0.53022569   -9.0183034    512.21669 0.0094102126 0.0078474921          134 
 4537000   0.53122784   -9.0066967    513.26668 0.0094274241 0.0078446436           99 
 4538000   0.52707046   -9.0225772    514.09433 0.0094405452 0.0078417968          136 
 4539000   0.51430735   -9.0074888    512.88318 0.0094162293 0.0078389551          103 
 4540000   0.51817732   -9.0178831    512.40311 0.0094053434 0.0078361138          102 
 4541000    0.5380078   -8.9977743     513.3294 0.0094202709 0.0078332732          138 
 4542000   0.52339906   -9.0129146    512.63015 0.0094053675 0.0078304356          106 
 4543000   0.52234992   -9.0231289    513.10175 0.0094119478 0.0078275958           98 
 4544000   0.52035969   -9.0311071    512.56529 0.0094000384 0.0078247607          102 
 4545000   0.52067005   -9.0194535    513.48291 0.0094147949 0.0078219254           87 
 4546000   0.51698727   -9.0036787     512.7404 0.0093991128 0.0078190926           87 
 4547000   0.51984387   -9.0102684    512.08692 0.0093850692 0.0078162618           96 
 4548000   0.53176837   -9.0126815    513.16637 0.0094027845 0.0078134301          139 
 4549000   0.52561832   -9.0128586    513.08091  0.009399152 0.0078106012           90 
 4550000   0.52862144   -9.0296297    513.69846 0.0094083968 0.0078077711           83 
 4551000   0.52587244   -9.0154631    513.40911 0.0094010311 0.0078049424           95 
 4552000   0.53013724   -9.0266373    512.70497 0.0093860752 0.0078021169           99 
 4553000   0.52823085   -9.0148322    513.10484 0.0093913324 0.0077992905           92 
 4554000   0.52100567   -9.0195501    513.88846 0.0094036096 0.0077964675          127 
 4555000   0.52674913   -9.0261394    513.12358 0.0093875518 0.0077936471          102 
 4556000   0.52161077   -9.0194417    512.10965 0.0093669456 0.0077908247          101 
 4557000   0.51740682   -9.0166155    512.62395  0.009374295 0.0077880048           91 
 4558000    0.5295082   -9.0152559    512.59764 0.0093717573 0.0077851862           91 
 4559000    0.5168829   -9.0157971    512.81736 0.0093737179  0.007782372           92 
 4560000   0.50745121   -9.0131959    513.42514 0.0093827694 0.0077795553           83 
 4561000   0.52143582   -9.0329244    512.24793 0.0093592036 0.0077767406           91 
 4562000   0.53143163   -9.0276928    512.46303 0.0093610812 0.0077739252          102 
 4563000   0.52087331   -8.9982605    513.08817 0.0093704465 0.0077711149           84 
 4564000   0.52415208   -9.0124908    513.15636 0.0093696384  0.007768305           97 
 4565000   0.52467196   -9.0186494    513.53203 0.0093744438 0.0077654963          130 
 4566000   0.51836006    -9.020339    513.34035 0.0093688923 0.0077626853           95 
 4567000   0.51877144   -9.0049869    512.06729 0.0093436115 0.0077598782           84 
 4568000   0.51992868    -9.024236    512.76457 0.0093542865 0.0077570744           90 
 4569000   0.52323778   -9.0176412    513.35935 0.0093630873 0.0077542709          105 
 4570000   0.52282639   -9.0308182    513.39837   0.00936175 0.0077514713           94 
 4571000   0.52075525   -9.0160323    511.92154 0.0093327781 0.0077486696          102 
 4572000   0.52702733   -9.0212546    512.90747 0.0093487072 0.0077458708           95 
 4573000   0.50946232   -9.0180898    512.59993 0.0093410585 0.0077430705          144 
 4574000   0.52015792   -9.0131703    512.61829 0.0093393508  0.007740272          141 
 4575000   0.52240639   -9.0378424    512.60904  0.009337141 0.0077374754           95 
 4576000   0.53182855   -9.0152354    512.91516 0.0093406752 0.0077346779          131 
 4577000   0.52000172   -9.0248551    513.30824 0.0093457913 0.0077318835           94 
 4578000   0.51313445   -9.0252525    512.59093 0.0093306926 0.0077290879           90 
 4579000   0.52472102   -9.0256353    512.60675 0.0093289428 0.0077262951           81 
 4580000   0.52079508   -9.0342136    513.08653 0.0093356356 0.0077235014          106 
 4581000   0.52345693    -9.045196    511.90888 0.0093121749 0.0077207116          139 
 4582000   0.52775391   -9.0053543    512.82861 0.0093268699 0.0077179222           95 
 4583000   0.52088356   -9.0321996    511.57137 0.0093019741  0.007715138          128 
 4584000   0.52284588   -9.0366855    512.34826 0.0093140681 0.0077123535          102 
 4585000   0.51360093   -9.0316335    512.19922 0.0093093279 0.0077095686          140 
 4586000   0.51681598    -9.028542    513.00711 0.0093219782 0.0077067844          149 
 4587000   0.50541526   -9.0330855    511.90008 0.0092998343     0.007704          107 
 4588000   0.51575628   -9.0453574    512.69042 0.0093121626 0.0077012176           96 
 4589000   0.51295758   -9.0211175    511.19272 0.0092829361  0.007698437          106 
 4590000   0.52531114   -9.0296737    512.06448 0.0092967408 0.0076956574           95 
 4591000    0.5304059   -9.0173084    512.99938 0.0093116855 0.0076928794           90 
 4592000   0.52499123   -9.0141736     512.6176 0.0093027294 0.0076901047          135 
 4593000   0.52087496   -9.0310101    512.48126 0.0092982304 0.0076873311           99 
 4594000   0.52622186   -9.0132653    513.34455  0.009311866 0.0076845578          121 
 4595000   0.53049638   -9.0344481    512.22598 0.0092895535 0.0076817862          109 
 4596000   0.51299248   -9.0211062    512.52138 0.0092928884 0.0076790176          105 
 4597000   0.51347405   -9.0313315    512.15296 0.0092841882  0.007676249          127 
 4598000    0.5190167   -9.0271063    511.86128 0.0092768827 0.0076734789           93 
 4599000   0.51160077   -9.0210957      512.365 0.0092839928 0.0076707097          113 
 4600000   0.51570467   -9.0380871    511.86709 0.0092729544 0.0076679454          152 
 4601000   0.51655839   -9.0311949     512.2073 0.0092771009 0.0076651814           98 
 4602000   0.50183236   -9.0446863    512.49278 0.0092802546  0.007662417          108 
 4603000   0.50847402   -9.0312353    512.53923 0.0092790794 0.0076596542          106 
 4604000   0.50537501   -9.0210377    512.43533 0.0092751834 0.0076568926          107 
 4605000   0.51033613   -9.0203351    512.07779  0.009266699 0.0076541326          136 
 4606000   0.51177457   -9.0268291    512.57011 0.0092735944 0.0076513739          145 
 4607000   0.51575021   -9.0224058    512.02749 0.0092617664 0.0076486166          106 
 4608000   0.51237221   -9.0354633    512.31403 0.0092649383  0.007645861          149 
 4609000   0.52309594   -9.0216431    511.86148 0.0092547458 0.0076431065          105 
 4610000   0.52193662   -9.0249459    512.68444 0.0092676145 0.0076403515          139 
 4611000   0.51999707   -9.0424725    513.35133 0.0092776573 0.0076376021          139 
 4612000   0.51824886   -9.0058109    512.07757 0.0092526303 0.0076348549          149 
 4613000   0.51413481   -9.0347435    512.48323 0.0092579527 0.0076321095          150 
 4614000   0.52741089   -9.0503509    512.02149 0.0092476068 0.0076293616          121 
 4615000   0.51831387   -9.0160749      512.855 0.0092606537  0.007626616           94 
 4616000   0.51298864   -9.0171848    512.66294 0.0092551801 0.0076238727          110 
 4617000   0.50384221   -9.0421326    512.62101 0.0092524187 0.0076211291          134 
 4618000    0.5195177   -9.0297328    512.75163 0.0092527724  0.007618387          141 
 4619000   0.50559177   -9.0281111    512.31155 0.0092428295 0.0076156458          108 
 4620000   0.50151058   -9.0317114    511.94038 0.0092341338 0.0076129062          138 
 4621000   0.50990506   -9.0208927     512.6842 0.0092455493 0.0076101685          142 
 4622000   0.52638001    -9.032947    512.37884 0.0092380435  0.007607431          140 
 4623000   0.50931785   -9.0230178    512.52515 0.0092386825 0.0076046944          107 
 4624000   0.51681597   -9.0382873    512.08881 0.0092288208 0.0076019596          122 
 4625000   0.49844407   -9.0342592    512.72108 0.0092382176 0.0075992263          107 
 4626000   0.50314854   -9.0373901     512.2112 0.0092270355 0.0075964929           99 
 4627000   0.50610748   -9.0370448    512.31071 0.0092268336 0.0075937604          111 
 4628000   0.50974647   -9.0332715    512.01217 0.0092194644 0.0075910319          104 
 4629000   0.51542413   -9.0427039     512.0688 0.0092184921 0.0075883021          132 
 4630000   0.52129791   -9.0513705    512.63954 0.0092267736 0.0075855739          106 
 4631000   0.51110238   -9.0329965    512.18523  0.009216606  0.007582849          105 
 4632000   0.50638354   -9.0534618     513.1261 0.0092315433 0.0075801223          101 
 4633000   0.50702622   -9.0443951     512.3401  0.009215413 0.0075773979          142 
 4634000   0.51141435   -9.0361715    512.19324 0.0092107833  0.007574677          148 
 4635000   0.51792087   -9.0409091    511.93828 0.0092042122 0.0075719562          140 
 4636000   0.50644023   -9.0407693    511.41729 0.0091928618 0.0075692358          101 
 4637000   0.51425729   -9.0466332    512.29391 0.0092066334 0.0075665155          145 
 4638000   0.50901096   -9.0264372    511.61569 0.0091924624  0.007563796           85 
 4639000   0.50752839   -9.0310148    512.73068 0.0092105101 0.0075610799          132 
 4640000   0.50647787   -9.0437369    512.25122 0.0091999141 0.0075583635           95 
 4641000   0.49989777   -9.0473192    512.25003 0.0091979105 0.0075556498          125 
 4642000   0.51131237   -9.0380161    512.11984 0.0091935918 0.0075529374          102 
 4643000   0.52338904   -9.0382645    512.74553 0.0092028417 0.0075502253          138 
 4644000     0.504069   -9.0275372    511.68981  0.009181916 0.0075475134          105 
 4645000   0.50647735   -9.0360256    511.62142 0.0091787122 0.0075448048          144 
 4646000   0.50368945   -9.0402845     512.3253 0.0091893618 0.0075420964           97 
 4647000   0.51180616    -9.045333     511.9542 0.0091807296 0.0075393896          106 
 4648000   0.51029041   -9.0210687    511.04639 0.0091624784 0.0075366883          135 
 4649000   0.50272992   -9.0507924    512.53498 0.0091871904 0.0075339844          133 
 4650000   0.49545669   -9.0487897    512.61967 0.0091867325 0.0075312796          113 
 4651000   0.50498838   -9.0416759    511.81583 0.0091703547  0.007528577          107 
 4652000   0.50757243   -9.0466391    511.70844 0.0091664595 0.0075258784           95 
 4653000   0.50591414   -9.0307125    512.46386 0.0091780188 0.0075231778          111 
 4654000   0.52042621   -9.0476568    513.13832 0.0091881235 0.0075204826          129 
 4655000   0.50611092   -9.0533959    512.09304 0.0091674372 0.0075177854          103 
 4656000   0.50795839    -9.040995    511.94285 0.0091627802 0.0075150882          129 
 4657000   0.50174798   -9.0482772    512.07797 0.0091632304  0.007512393          148 
 4658000   0.51604336   -9.0601475    512.19506  0.009163358 0.0075097003           96 
 4659000    0.5101499   -9.0424334    511.76036 0.0091536159 0.0075070052          107 
 4660000    0.5090093   -9.0189972     512.3667 0.0091624946  0.007504315           97 
 4661000   0.50663887   -9.0463532    512.46568 0.0091622985 0.0075016249          127 
 4662000   0.50460616   -9.0313629    512.78203 0.0091659879 0.0074989354          144 
 4663000   0.50914892   -9.0383494     511.9617  0.009149362 0.0074962469          105 
 4664000   0.50062739   -9.0401841    512.88819 0.0091639542 0.0074935615          100 
 4665000   0.50769443   -9.0351455    511.61258 0.0091392029 0.0074908738           94 
 4666000   0.49542196    -9.051825    511.84088 0.0091413216 0.0074881901          110 
 4667000   0.49857607   -9.0536705    512.29178 0.0091474142 0.0074855057          113 
 4668000   0.50565872   -9.0339088    511.60827 0.0091332525 0.0074828246          138 
 4669000   0.50807952   -9.0662608    512.12525 0.0091405235 0.0074801418          124 
 4670000   0.51082721   -9.0360563    511.49522 0.0091273237 0.0074774603          142 
 4671000   0.49662989   -9.0352914     512.4227 0.0091419164 0.0074747838          143 
 4672000   0.50265102   -9.0576224    511.31311 0.0091201682 0.0074721069          103 
 4673000   0.50172467   -9.0528695    511.75012 0.0091260098 0.0074694286           91 
 4674000   0.51118204   -9.0528812    511.56218 0.0091207064 0.0074667525          140 
 4675000   0.49682138   -9.0517495    512.12404 0.0091287708 0.0074640781          143 
 4676000   0.51110245   -9.0374067    511.11034 0.0091087528 0.0074614065          106 
 4677000   0.50894832   -9.0395948    512.31283 0.0091282308 0.0074587348           99 
 4678000   0.50931817    -9.043602    511.56003 0.0091128693 0.0074560639          130 
 4679000   0.50026376    -9.044458    512.15935 0.0091215956 0.0074533941          100 
 4680000   0.50907213   -9.0435481     511.8872 0.0091148006 0.0074507293           90 
 4681000   0.49538101   -9.0552651    511.88492 0.0091128128 0.0074480637          103 
 4682000   0.49338587   -9.0380143    512.35227 0.0091191846 0.0074453983          150 
 4683000   0.49982434   -9.0450351     512.6302  0.009122183 0.0074427331          103 
 4684000   0.51612744   -9.0539365     511.3649 0.0090977246 0.0074400692          111 
 4685000   0.49054947     -9.05204    511.41831 0.0090967326 0.0074374069          143 
 4686000   0.50759188   -9.0620649    511.79118 0.0091014223  0.007434745          136 
 4687000   0.50377844   -9.0586782    510.95123 0.0090845464 0.0074320819          104 
 4688000   0.50495456   -9.0531973    512.22731 0.0091052921 0.0074294249          112 
 4689000   0.49880408   -9.0575553     511.2196 0.0090854411 0.0074267677           99 
 4690000   0.49423207   -9.0379296    512.83175 0.0091121491 0.0074241127          142 
 4691000   0.49539805   -9.0793999    512.25902 0.0091000323 0.0074214577           91 
 4692000   0.49865967   -9.0545903    511.47129 0.0090841022 0.0074188046          103 
 4693000   0.50401845   -9.0743783    511.97343 0.0090910829 0.0074161537          129 
 4694000   0.50429062    -9.059535    511.16653 0.0090748212 0.0074135033           97 
 4695000   0.49779117   -9.0434433    511.32537 0.0090757077 0.0074108568           88 
 4696000   0.49758522   -9.0563095    511.88983 0.0090837918 0.0074082102          116 
 4697000   0.49873865   -9.0383601    510.36931  0.009054881 0.0074055649          110 
 4698000   0.50000786   -9.0646791    512.15274 0.0090845882 0.0074029223           93 
 4699000   0.51000688   -9.0450625    512.50823 0.0090889592 0.0074002776          105 
 4700000   0.49311115   -9.0665224    511.19532 0.0090637469 0.0073976334           94 
 4701000   0.50157185    -9.056546    511.62204 0.0090693832 0.0073949911          110 
 4702000   0.49950967   -9.0310795     512.1391 0.0090766182 0.0073923491          135 
 4703000   0.50147305   -9.0562739    511.96465  0.009071597 0.0073897121          121 
 4704000   0.49996296   -9.0440081    511.76433 0.0090661198 0.0073870719          105 
 4705000   0.49353252    -9.062544     510.5972 0.0090435211 0.0073844344          157 
 4706000   0.50312132   -9.0594154    512.29313 0.0090716307 0.0073817989           97 
 4707000   0.49915411    -9.043116    511.94977 0.0090636247 0.0073791651          102 
 4708000   0.49718616   -9.0628047    510.99363 0.0090447753 0.0073765318          100 
 4709000   0.50142382   -9.0554138    511.19285 0.0090463802 0.0073739007          103 
 4710000   0.49621138   -9.0567665     512.7043 0.0090712014  0.007371269          132 
 4711000   0.49838069   -9.0611745    512.29109 0.0090619665 0.0073686409          143 
 4712000   0.50394954   -9.0651018    510.88283 0.0090351377 0.0073660126          127 
 4713000   0.49295271   -9.0614869    510.58517 0.0090279577 0.0073633861          111 
 4714000   0.50378026   -9.0584711    511.93647 0.0090499306 0.0073607604          127 
 4715000   0.50396389   -9.0725071    512.67979 0.0090611486 0.0073581352          138 
 4716000   0.49488691   -9.0473879    511.70344 0.0090419749 0.0073555113          125 
 4717000     0.506507   -9.0528594    512.34415 0.0090513771 0.0073528888          103 
 4718000   0.49639157   -9.0506725    511.17985 0.0090288939 0.0073502688          141 
 4719000   0.48909924   -9.0474214    511.86248  0.009039035 0.0073476466          141 
 4720000    0.5017071   -9.0679916     511.7728 0.0090355367 0.0073450288           96 
 4721000   0.48927741   -9.0668287    511.55421 0.0090297644 0.0073424108          104 
 4722000   0.50106526   -9.0446534    511.01917 0.0090184098  0.007339795          166 
 4723000   0.50236267    -9.058603    511.59678 0.0090266917 0.0073371787          109 
 4724000   0.50464777   -9.0633294    511.54248  0.009023823  0.007334563          107 
 4725000   0.50597715   -9.0449697    511.58576 0.0090226765 0.0073319492          147 
 4726000     0.495841   -9.0515178    511.54708 0.0090200853 0.0073293381          152 
 4727000   0.49799215   -9.0614631    511.31013 0.0090139998 0.0073267267          105 
 4728000    0.4958083   -9.0731465    510.97886 0.0090062546 0.0073241154           96 
 4729000    0.4983031   -9.0762981    511.23652 0.0090088905 0.0073215082          120 
 4730000   0.48603976   -9.0550024     511.6585 0.0090144203 0.0073188991           99 
 4731000   0.48867817   -9.0665938    512.27424 0.0090233608 0.0073162929          104 
 4732000   0.49722723    -9.057155    511.86794 0.0090142988 0.0073136876          101 
 4733000   0.50564527   -9.0668304    511.18231 0.0090003224 0.0073110828          134 
 4734000   0.48926985   -9.0512048    511.91663 0.0090113475 0.0073084822          104 
 4735000   0.49935816   -9.0447919    511.88547  0.009008896 0.0073058818          149 
 4736000   0.49500038   -9.0585625    511.74346  0.009004495   0.00730328          147 
 4737000   0.48713062   -9.0626098    511.43941 0.0089972452 0.0073006823          145 
 4738000   0.49633764   -9.0772872    510.96137 0.0089869384 0.0072980824          141 
 4739000   0.49412272   -9.0584503    512.61868 0.0090141851 0.0072954874          104 
 4740000   0.49976428   -9.0710224    511.66402 0.0089954997 0.0072928955          130 
 4741000   0.48628548    -9.061664    511.93614 0.0089983853 0.0072903022          124 
 4742000   0.49675634   -9.0700764    511.14513  0.008982587 0.0072877133          102 
 4743000   0.48757639   -9.0681507    510.96626 0.0089775504 0.0072851215          104 
 4744000   0.49300254   -9.0667705    510.85026 0.0089736204 0.0072825321          123 
 4745000   0.49727292   -9.0607387    511.12874 0.0089766199 0.0072799436          103 
 4746000   0.49519788   -9.0817313    511.07452 0.0089737766 0.0072773571          108 
 4747000   0.49100702   -9.0536762    511.25831 0.0089751125 0.0072747687          104 
 4748000   0.49999601   -9.0683428    511.05228 0.0089696061 0.0072721834          130 
 4749000   0.48477603   -9.0697937    511.43153 0.0089743723 0.0072696013          105 
 4750000   0.48419339   -9.0599851    511.21749  0.008968728 0.0072670172          106 
 4751000   0.48559626    -9.064192    511.93797 0.0089794775 0.0072644352          107 
 4752000   0.49136366   -9.0796636    511.40878 0.0089683077 0.0072618552          100 
 4753000   0.49077876   -9.0792123    511.05391  0.008960199 0.0072592756          137 
 4754000   0.49541086   -9.0739384    512.06019 0.0089759533 0.0072566977          152 
 4755000   0.49375048   -9.0918274    511.90532 0.0089713516 0.0072541224          113 
 4756000   0.49132415   -9.0738182    511.18176 0.0089567871 0.0072515463          107 
 4757000   0.48265502   -9.0828109    511.09149  0.008953323 0.0072489721          141 
 4758000   0.49382913   -9.0840168      511.462 0.0089579305  0.007246397          108 
 4759000   0.48646793   -9.0692068    511.67156 0.0089597178  0.007243825          105 
 4760000    0.4981401   -9.0578111    512.07944 0.0089649762 0.0072412557          123 
 4761000   0.50065663   -9.0833937    511.18648 0.0089474634 0.0072386846          149 
 4762000   0.49700571   -9.0773407    510.68059 0.0089367317 0.0072361133          154 
 4763000   0.49035966   -9.0706071    511.87629 0.0089557752 0.0072335463          122 
 4764000   0.49194654   -9.0655552    510.70194 0.0089333533 0.0072309818          103 
 4765000   0.48310973   -9.0805363    511.16736  0.008939618 0.0072284185          108 
 4766000   0.49145496   -9.0814649    511.65432 0.0089462568 0.0072258553          141 
 4767000   0.48662761   -9.0769034    511.92305 0.0089490778 0.0072232929          135 
 4768000   0.48491004    -9.063753    511.63261 0.0089421247 0.0072207315           97 
 4769000   0.48459459   -9.0698654    510.72055 0.0089243124 0.0072181711          124 
 4770000   0.48613953   -9.0749234    511.12141 0.0089294447 0.0072156121           95 
 4771000   0.49204078   -9.0799935    511.43619 0.0089330712 0.0072130536          133 
 4772000    0.4841657   -9.0733277    511.52339  0.008932722  0.007210497          117 
 4773000   0.48793553   -9.0743564     511.3159 0.0089272278 0.0072079442          109 
 4774000   0.48143618   -9.0763318    510.71598 0.0089148859 0.0072053904          108 
 4775000   0.49286584   -9.0754279     511.1484 0.0089205655 0.0072028366          108 
 4776000   0.48304313   -9.0648913    510.73576 0.0089114977 0.0072002856          130 
 4777000   0.48623901   -9.0986577    511.54436  0.008923738 0.0071977357          102 
 4778000   0.47602756   -9.0821989    511.18619 0.0089156235 0.0071951857          111 
 4779000   0.48778486   -9.0541516     511.5844 0.0089207017 0.0071926351          106 
 4780000   0.49196196   -9.0497367    511.49416 0.0089172622 0.0071900887          118 
 4781000   0.48458902    -9.080504    511.11282 0.0089087503 0.0071875422          133 
 4782000   0.48437271   -9.0938219    511.37665 0.0089114849  0.007184995          133 
 4783000   0.49697301   -9.0670819    511.44394 0.0089107941 0.0071824501          120 
 4784000   0.48659924   -9.0851771    511.19959 0.0089046752 0.0071799087          144 
 4785000   0.48919372   -9.0788139    511.12465 0.0089015091 0.0071773652           96 
 4786000   0.48210757   -9.0813756    510.30237 0.0088853317 0.0071748263          107 
 4787000   0.48460028   -9.0713737    511.79916 0.0089095321 0.0071722874          110 
 4788000   0.48238499   -9.0896937    510.47291 0.0088845883 0.0071697477          101 
 4789000   0.49093938   -9.0753191    511.09802 0.0088936107 0.0071672111          103 
 4790000   0.48349411   -9.0898053    510.59043 0.0088829232 0.0071646753           83 
 4791000   0.47972254   -9.0860315     511.1086 0.0088900821 0.0071621386          141 
 4792000   0.48431393    -9.087635    511.70736 0.0088986395 0.0071596033          106 
 4793000   0.49342855   -9.1055381    510.34066 0.0088730207 0.0071570681          128 
 4794000   0.48802975   -9.0797435    511.78117 0.0088962099 0.0071545344           96 
 4795000   0.47919302   -9.0676759    511.04751 0.0088816042 0.0071520026          111 
 4796000    0.4881271   -9.0700218    511.24881 0.0088832502 0.0071494709           97 
 4797000   0.47186996   -9.0986839    510.55577 0.0088693588 0.0071469402           90 
 4798000   0.48657005   -9.0836831    511.46699 0.0088833366 0.0071444111          149 
 4799000   0.49382346   -9.0773744    511.18207 0.0088765379 0.0071418834          135 
 4800000   0.48762204    -9.072991    510.35216 0.0088602806 0.0071393575          117 
 4801000   0.48085428   -9.0966764    511.29534 0.0088748064 0.0071368325          104 
 4802000   0.48082002   -9.0879832    510.46419 0.0088585344 0.0071343104          100 
 4803000   0.49062298   -9.0867267    510.64544 0.0088598348 0.0071317868          137 
 4804000   0.47955115   -9.0672658     511.2373 0.0088682573 0.0071292654          115 
 4805000   0.49202344   -9.0814091    510.06252 0.0088460375 0.0071267447          148 
 4806000   0.48131459   -9.0810031    510.91682 0.0088590099 0.0071242257          110 
 4807000    0.4769695   -9.0863831    511.55185 0.0088681758 0.0071217091          137 
 4808000   0.49325375   -9.0876519    510.35978 0.0088456701 0.0071191903          143 
 4809000   0.49117673   -9.0729081    511.51537 0.0088638555 0.0071166771          101 
 4810000   0.47897038   -9.0839085      511.088 0.0088546084 0.0071141624          103 
 4811000   0.48134855   -9.0892302    510.36008 0.0088401593 0.0071116507           86 
 4812000   0.47922246    -9.100412    510.99567 0.0088493294 0.0071091379          104 
 4813000   0.49221273   -9.0790961    511.19545 0.0088509497 0.0071066278          152 
 4814000   0.48616312   -9.0846461    511.15206   0.00884836 0.0071041191          101 
 4815000   0.48336147   -9.0829518    510.63059 0.0088374972 0.0071016116          108 
 4816000    0.4805119   -9.0841682      510.733 0.0088374343 0.0070991056          103 
 4817000   0.47963196   -9.0922658    510.34109 0.0088288196 0.0070965993           96 
 4818000    0.4762408    -9.092438    511.37313 0.0088448376 0.0070940949          140 
 4819000   0.49492545   -9.0926736    511.17983 0.0088396596 0.0070915911          106 
 4820000   0.46762653   -9.0777579    510.87764 0.0088326009 0.0070890884          107 
 4821000    0.4752836   -9.0717693    510.61499 0.0088262288 0.0070865884          107 
 4822000   0.47701808   -9.0745178    511.34667 0.0088370433   0.00708409          148 
 4823000   0.47524047   -9.0877359    511.66483 0.0088407082 0.0070815944          107 
 4824000    0.4894648    -9.092635    510.48861 0.0088185567  0.007079097          108 
 4825000   0.48354878   -9.0903928    511.27737 0.0088303518 0.0070766026          112 
 4826000   0.48589983   -9.0762959    511.14661 0.0088262642 0.0070741086          137 
 4827000   0.47889258   -9.1074364    511.06795 0.0088230776 0.0070716141          159 
 4828000   0.48512814   -9.0853544     510.4575 0.0088107135 0.0070691229          105 
 4829000   0.48426768    -9.086981    510.87815 0.0088161481 0.0070666346          116 
 4830000   0.47094814   -9.0997355    510.66436 0.0088106342 0.0070641446          104 
 4831000   0.48464081   -9.0941314    510.65842  0.008808708 0.0070616566          132 
 4832000   0.48670953   -9.0845008    510.69782 0.0088075646 0.0070591686          108 
 4833000   0.47557943   -9.0913832    510.67725 0.0088053875 0.0070566795          139 
 4834000   0.47572301   -9.0902848    510.60401 0.0088023032  0.007054193          134 
 4835000   0.48314608   -9.0897299    510.74275 0.0088028741 0.0070517063          102 
 4836000   0.47031177   -9.0854231    510.50494 0.0087969557 0.0070492225          152 
 4837000   0.47484408   -9.0934496    511.67043 0.0088152166 0.0070467416           90 
 4838000   0.47473688   -9.0869972    510.83186 0.0087989503 0.0070442607          135 
 4839000   0.47587722   -9.0910332    510.97604 0.0087996149 0.0070417782           99 
 4840000   0.47159316   -9.0841606    510.71268 0.0087932625 0.0070392981          124 
 4841000   0.48168937   -9.0979236    510.81846 0.0087932668 0.0070368199          109 
 4842000     0.475268    -9.099625    511.01753 0.0087948769 0.0070343453          100 
 4843000   0.48732716   -9.0771744    511.32693 0.0087983847 0.0070318696          101 
 4844000   0.47191307   -9.0870767    510.76983 0.0087869845 0.0070293953          139 
 4845000   0.46502178   -9.0915164     511.1161 0.0087911265 0.0070269221          103 
 4846000   0.47938156   -9.0790195    510.55749 0.0087797064 0.0070244484           90 
 4847000   0.47883635    -9.094641    510.54223 0.0087776328 0.0070219765           96 
 4848000   0.46902357   -9.1096419     511.2061 0.0087872336 0.0070195057          139 
 4849000   0.47761634   -9.0950303    510.66045 0.0087760441 0.0070170361          109 
 4850000   0.46396519   -9.0956184    511.70904 0.0087922516 0.0070145685          110 
 4851000   0.47761754   -9.0846772    510.90354 0.0087766017 0.0070121011           87 
 4852000    0.4787705   -9.0915721     510.7664 0.0087724374 0.0070096354          103 
 4853000   0.47421582   -9.0785537     511.0138 0.0087748781 0.0070071726          101 
 4854000   0.47948571   -9.1031159    511.37722 0.0087793095 0.0070047095          112 
 4855000   0.47663908   -9.0706733    510.53321 0.0087630142 0.0070022499          152 
 4856000   0.48192631   -9.0891482    510.47979  0.008760293 0.0069997892          169 
 4857000   0.47989292   -9.0893681    510.92504 0.0087661286  0.006997331           92 
 4858000   0.46944291   -9.0854763    510.93003 0.0087644098 0.0069948722          107 
 4859000   0.47608167   -9.0907331    510.72582 0.0087591037 0.0069924146          134 
 4860000   0.46678433   -9.0740834    510.88025 0.0087599494 0.0069899589          129 
 4861000   0.47467831   -9.0976955    510.14108 0.0087454756 0.0069875049          117 
 4862000   0.47526242   -9.1084916     510.6091 0.0087516986 0.0069850497          105 
 4863000   0.47043694   -9.1031946    510.66682 0.0087508879 0.0069825986          150 
 4864000   0.47166345   -9.0930569    510.61966 0.0087482809  0.006980145          126 
 4865000   0.46965993   -9.0981043    510.74035 0.0087485501 0.0069776938          148 
 4866000   0.47047191   -9.0922769    510.54436 0.0087433956 0.0069752456          105 
 4867000   0.47273395   -9.1017987    510.75502 0.0087452062 0.0069727959           99 
 4868000   0.47744196   -9.1062563     511.2201 0.0087513712 0.0069703486          114 
 4869000   0.47797195   -9.1101419     510.1539 0.0087313257 0.0069679028          147 
 4870000   0.46928702   -9.1024752     509.7944 0.0087233812 0.0069654571          152 
 4871000   0.47329517   -9.1015846    510.80174  0.008738824 0.0069630127          147 
 4872000   0.47178631   -9.0954461    510.89126 0.0087385616 0.0069605675          100 
 4873000   0.47942162   -9.0977474    510.81935 0.0087355386 0.0069581251          146 
 4874000   0.47876431    -9.096731    510.28352 0.0087245848  0.006955681          126 
 4875000   0.46720998   -9.0828793    510.41078 0.0087249706 0.0069532412           96 
 4876000    0.4738857   -9.0985641    510.33763  0.008721931 0.0069508034          106 
 4877000   0.47451841   -9.0985459    510.32626 0.0087199484 0.0069483655           99 
 4878000   0.47277121    -9.085646     510.9553  0.008728907 0.0069459288          127 
 4879000   0.46207357    -9.105306    510.60325 0.0087211049 0.0069434937          118 
 4880000   0.46821107   -9.1069015    510.98668 0.0087258655 0.0069410593          146 
 4881000   0.46405512   -9.0990658    510.36398 0.0087134464  0.006938627           87 
 4882000   0.47038355   -9.1058322    510.53148 0.0087145207 0.0069361956          103 
 4883000   0.46735346   -9.1067057     511.2714 0.0087253634 0.0069337638          123 
 4884000   0.47202684   -9.0977004    510.19274 0.0087051723 0.0069313341          130 
 4885000   0.46774838   -9.1000619    510.80689 0.0087138671 0.0069289067          147 
 4886000   0.49046075   -9.1107269    510.63769 0.0087091978 0.0069264788           94 
 4887000   0.46685174    -9.099074    510.19294 0.0086998319 0.0069240504          115 
 4888000   0.46872503   -9.1018632    510.32865 0.0087003657 0.0069216256          106 
 4889000   0.45833805   -9.1036714    510.95029 0.0087091819 0.0069192016          158 
 4890000    0.4688533   -9.1126244    510.32107 0.0086966781  0.006916778          104 
 4891000   0.48116056   -9.1011767    510.28041 0.0086942072 0.0069143548           99 
 4892000   0.47113493   -9.1038182    510.16825 0.0086905194 0.0069119324          136 
 4893000   0.46348471   -9.0974429    510.11896 0.0086879039 0.0069095125          107 
 4894000    0.4700745   -9.1013442    510.21147 0.0086877039 0.0069070928          107 
 4895000   0.48172513   -9.1155879    510.27231 0.0086869647 0.0069046761          157 
 4896000   0.46387202   -9.0973026    510.47776 0.0086886874 0.0069022597          139 
 4897000   0.46442521   -9.1112441    510.01071 0.0086789652 0.0068998448          136 
 4898000   0.46907685   -9.1066863    509.88572 0.0086750667 0.0068974305          142 
 4899000   0.47258912   -9.0964327    509.74008 0.0086708186 0.0068950159          147 
 4900000   0.45671592   -9.1092924    510.23319 0.0086774352 0.0068926034          105 
 4901000   0.48112346   -9.0920229    510.32007 0.0086771418 0.0068901931          143 
 4902000   0.46990246   -9.1214783    510.01793 0.0086702354 0.0068877835          101 
 4903000   0.46881527   -9.1072962    510.69232 0.0086799293 0.0068853749          137 
 4904000   0.46527191   -9.1213397    511.40122 0.0086902056 0.0068829666           92 
 4905000   0.46318662   -9.1143096    510.43083 0.0086719476 0.0068805594          136 
 4906000   0.45766548   -9.0946155     510.2313 0.0086667907 0.0068781532          143 
 4907000   0.45572781   -9.1116784    511.09119 0.0086796275 0.0068757491          105 
 4908000   0.45734331   -9.0970881    509.76535 0.0086553476 0.0068733469          112 
 4909000   0.47631558   -9.1011462    510.34185 0.0086633709  0.006870944           95 
 4910000   0.47170754   -9.1040813     510.9679 0.0086722318 0.0068685447          121 
 4911000   0.46711797   -9.0964724    510.21544 0.0086576978 0.0068661467          113 
 4912000   0.46797062   -9.0931813    510.63759  0.008663097 0.0068637487           94 
 4913000   0.47470113   -9.1121868    510.79396  0.008663986 0.0068613517          131 
 4914000   0.46546932   -9.1010553    510.61662 0.0086592156 0.0068589566          148 
 4915000   0.46746206   -9.1032128    510.79993 0.0086605617 0.0068565619          136 
 4916000   0.46110527   -9.1018042    510.91619 0.0086607708 0.0068541711          113 
 4917000   0.46529986   -9.1052579    510.52994 0.0086524633 0.0068517783          115 
 4918000   0.46767134   -9.1128442    510.20329  0.008645169  0.006849387          107 
 4919000    0.4628049   -9.1129284    509.99202 0.0086398323  0.006846998          112 
 4920000   0.47186545   -9.0961113    510.46821 0.0086461418 0.0068446103          140 
 4921000   0.46099687    -9.103824    510.99397 0.0086532881  0.006842223          155 
 4922000   0.47118017   -9.1195123     510.5736 0.0086444129 0.0068398368          102 
 4923000   0.45510455   -9.1069283    510.76224 0.0086458501 0.0068374521          147 
 4924000   0.46059713   -9.1064485    509.95424 0.0086304197  0.006835068          105 
 4925000   0.46691344   -9.1238867    510.18829 0.0086326277 0.0068326865           94 
 4926000   0.46475099   -9.0997278    509.99593  0.008627621 0.0068303039          115 
 4927000     0.459998     -9.11159    510.93744 0.0086417942  0.006827923          143 
 4928000   0.45672564   -9.1194275    510.53105 0.0086331684 0.0068255439          125 
 4929000   0.45696311   -9.1000676    510.51777 0.0086311925 0.0068231648           97 
 4930000   0.47600919   -9.1142284    510.10232 0.0086224191 0.0068207871           90 
 4931000   0.46292261   -9.1022791    510.43871 0.0086263556 0.0068184092          144 
 4932000   0.46864166   -9.1054802    510.56674 0.0086267697 0.0068160341          148 
 4933000   0.46630139   -9.1240786    510.39414 0.0086221052 0.0068136616           84 
 4934000   0.46783255   -9.1160368    509.83417 0.0086109001 0.0068112871          114 
 4935000   0.46047218   -9.1197264     510.7683 0.0086249291 0.0068089144          138 
 4936000   0.46415475   -9.1065307    509.75289 0.0086060388 0.0068065416          103 
 4937000   0.46740218   -9.1304777    510.15129 0.0086110203 0.0068041691           96 
 4938000   0.46720217    -9.104013    510.75656  0.008619491 0.0068017979          154 
 4939000   0.45673871   -9.1100749    509.49178 0.0085964058 0.0067994299          131 
 4940000   0.46953222   -9.1019085    510.02699 0.0086036941 0.0067970629          101 
 4941000   0.44923148   -9.1155413    510.17451 0.0086044408 0.0067946981           93 
 4942000   0.46086795   -9.1173544    510.50932 0.0086083454 0.0067923341          146 
 4943000   0.46050796   -9.1150423    510.00179 0.0085980475 0.0067899686          154 
 4944000   0.46201617   -9.0909686    509.76349 0.0085922918 0.0067876048          104 
 4945000   0.46519179   -9.1190508    509.91565 0.0085931185 0.0067852425          106 
 4946000   0.46805515   -9.1150276    510.59617 0.0086028469 0.0067828792          117 
 4947000   0.45513648   -9.1066637    509.62525 0.0085847525 0.0067805209          108 
 4948000   0.47031339   -9.0925377    510.21887 0.0085930152 0.0067781634          103 
 4949000   0.46158699   -9.0947142    511.22748 0.0086082622 0.0067758063           91 
 4950000   0.45862576   -9.1142703    510.29075 0.0085907533 0.0067734504          140 
 4951000   0.46171755   -9.1077915    509.86735 0.0085818918 0.0067710945          136 
 4952000   0.46166482   -9.1205846    509.85256 0.0085799098 0.0067687415          115 
 4953000   0.45561562   -9.1402718    510.47216 0.0085886022 0.0067663891          147 
 4954000   0.45523428   -9.1230442    509.54713 0.0085713081 0.0067640367          117 
 4955000   0.45871482   -9.1229673    510.67873 0.0085886096 0.0067616863          136 
 4956000   0.45966378   -9.1078967    510.98728 0.0085920649  0.006759337           98 
 4957000   0.45893251   -9.1210648    509.96252 0.0085731041   0.00675699          121 
 4958000   0.45905272   -9.1183334    510.26666 0.0085764868 0.0067546416          127 
 4959000   0.45806828   -9.1215922    509.64507 0.0085643118 0.0067522961           96 
 4960000   0.45038924   -9.1088423    510.23111 0.0085724312 0.0067499505          117 
 4961000   0.44967831   -9.1130468    509.51832 0.0085587301 0.0067476067          104 
 4962000   0.45687897   -9.1156677    510.44398  0.008572551 0.0067452635          141 
 4963000    0.4532999   -9.1263698    510.53153 0.0085722938 0.0067429197          141 
 4964000   0.45907871   -9.1244972    510.19621 0.0085649377 0.0067405801          142 
 4965000    0.4562176   -9.1133249    510.20768 0.0085634052 0.0067382414          148 
 4966000   0.46046233   -9.1162947    510.24187 0.0085622545 0.0067358992          100 
 4967000   0.45659679   -9.1133244    510.56005 0.0085658689 0.0067335604          148 
 4968000   0.46276584   -9.1096649    509.79279 0.0085512747 0.0067312254          140 
 4969000    0.4601115   -9.1201098    510.62927 0.0085635821  0.006728889           93 
 4970000   0.44602793   -9.1135165    510.19226 0.0085545316  0.006726555          107 
 4971000   0.46344929   -9.1381181    509.93003 0.0085484147 0.0067242204          160 
 4972000   0.46363375   -9.1160342    510.02278 0.0085482498 0.0067218873          103 
 4973000   0.46405855   -9.1184622    509.95164 0.0085453388 0.0067195556           99 
 4974000   0.45655873   -9.1171222     509.7147 0.0085396512 0.0067172241          109 
 4975000    0.4604457   -9.1221583     509.9937 0.0085426081 0.0067148931          108 
 4976000   0.45555881   -9.1081134     509.8607 0.0085386638  0.006712564          103 
 4977000   0.45597605   -9.1224081    510.10231 0.0085409938 0.0067102359          143 
 4978000   0.44731585   -9.1340744    510.30632 0.0085426931 0.0067079089          112 
 4979000   0.45227868     -9.11293    509.02086 0.0085194628 0.0067055805          105 
 4980000   0.45895467   -9.1204582    510.02959 0.0085346317 0.0067032527          139 
 4981000   0.45019256   -9.1365952    509.80051 0.0085290856 0.0067009265          115 
 4982000   0.44967779   -9.1229423    510.13689 0.0085330003 0.0066986029           98 
 4983000   0.45728766   -9.1154062    509.58151     0.008522 0.0066962781          134 
 4984000   0.46293607   -9.1136018    510.89262  0.008542212 0.0066939579          133 
 4985000   0.45929786   -9.1249964    509.15095 0.0085113834 0.0066916375          142 
 4986000   0.44133927   -9.1150879     510.7474 0.0085363584 0.0066893189          110 
 4987000   0.44931855   -9.1326646     509.6992 0.0085171313 0.0066869988          121 
 4988000   0.45108902   -9.1324351    510.48263 0.0085285123 0.0066846822          134 
 4989000   0.45334656   -9.1292289     509.6253 0.0085124825 0.0066823652          149 
 4990000   0.45784065   -9.1237273     510.2449 0.0085211239 0.0066800497          110 
 4991000   0.45133516   -9.1236372    510.62271 0.0085257248 0.0066777352          146 
 4992000   0.45093548    -9.122362     509.3954  0.008503529 0.0066754211          103 
 4993000   0.45906203   -9.1308498    510.21462 0.0085154986 0.0066731097           99 
 4994000    0.4604098   -9.1200831    509.98055 0.0085098877 0.0066707993          139 
 4995000   0.45013944   -9.1231971    509.82188 0.0085055369 0.0066684882          136 
 4996000   0.44947887   -9.1439719    509.25568 0.0084943902 0.0066661774          146 
 4997000   0.44822228   -9.1196802    510.27846 0.0085097468 0.0066638682          132 
 4998000   0.44892889   -9.1270324    509.73779 0.0084990294   0.00666156          137 
 4999000   0.45097613   -9.1375391    510.04966 0.0085025282  0.006659254           95 
 5000000   0.44730969   -9.1120701    509.42387 0.0084903978 0.0066569494          102 
 5001000   0.45288967   -9.1350976    510.21174 0.0085018287 0.0066546457          151 
 5002000   0.45467387   -9.1335367    509.96113 0.0084959538 0.0066523414          111 
 5003000   0.46473386   -9.1186926    510.10394 0.0084966343 0.0066500396          155 
 5004000   0.44544048   -9.1255489     509.7182 0.0084885125 0.0066477379           99 
 5005000   0.44869631   -9.1104684     509.9868 0.0084912887  0.006645436          132 
 5006000   0.44674564   -9.1170169     510.3901 0.0084963061 0.0066431362          146 
 5007000   0.44962205   -9.1188159    510.57216 0.0084976392 0.0066408383           93 
 5008000   0.44098488   -9.1329394    509.09203 0.0084713131 0.0066385418          101 
 5009000   0.45244527   -9.1265205    509.58956 0.0084778991 0.0066362461          100 
 5010000   0.44220869   -9.1379864    510.16235 0.0084857343 0.0066339513          152 
 5011000    0.4542444   -9.1324642    509.32133 0.0084700547 0.0066316575           98 
 5012000   0.45080555   -9.1235626    510.35251 0.0084855099 0.0066293667          107 
Loop time of 12624.7 on 48 procs for 5000000 steps with 4000 atoms

Performance: 68437.019 tau/day, 396.048 timesteps/s
99.4% CPU use with 48 MPI tasks x no OpenMP threads

MPI task timing breakdown:
Section |  min time  |  avg time  |  max time  |%varavg| %total
---------------------------------------------------------------
Pair    | 891.26     | 950.98     | 1036.5     | 125.3 |  7.53
Neigh   | 83.851     | 86.948     | 90.919     |  21.4 |  0.69
Comm    | 780.94     | 869.54     | 929.55     | 135.0 |  6.89
Output  | 14.138     | 14.143     | 14.228     |   0.3 |  0.11
Modify  | 10560      | 10591      | 10615      |  11.7 | 83.89
Other   |            | 112.1      |            |       |  0.89

Nlocal:        83.3333 ave          91 max          76 min
Histogram: 3 3 5 4 10 4 9 2 5 3
Nghost:        2256.71 ave        2283 max        2236 min
Histogram: 2 5 6 10 9 5 2 6 1 2
Neighs:        15191.7 ave       17353 max       13629 min
Histogram: 4 5 7 8 7 6 7 2 0 2
FullNghs:      30384.3 ave       33426 max       27645 min
Histogram: 3 4 6 8 4 6 8 4 2 3

Total # of neighbors = 1458447
Ave neighs/atom = 364.61175
Neighbor list builds = 266518
Dangerous builds = 2

#clear
#
#next RN
#
#jump SELF
Total wall time: 3:30:28
