
units lj                  # Use reduced LJ style units
atom_style atomic         # Uncharged point particles
atom_modify map hash      # Needed for indexing of clusters etc
                          # Used to be able to find where atoms are in relation to each other.

lattice fcc 1.0 spacing 1 1 1
Lattice spacing in x,y,z = 1.5874011 1.5874011 1.5874011
region box block 0 10 0 10 0 10 units lattice
create_box 2 box
Created orthogonal box = (0.0000000 0.0000000 0.0000000) to (15.874011 15.874011 15.874011)
  3 by 4 by 4 MPI processor grid
create_atoms 1 box
Created 4000 atoms
  using lattice units in orthogonal box = (0.0000000 0.0000000 0.0000000) to (15.874011 15.874011 15.874011)
  create_atoms CPU = 0.019 seconds
set type 1 type/fraction 2 0.75 78393
Setting atom values ...
  3002 settings made for type/fraction
mass 1 1.0
mass 2 1.0
pair_style lj/cut  3.5
pair_modify tail  yes
pair_coeff 1  1  1.0  1.0   # Intearaction between 1 and 1 set with epsilon = 1 and sigma = 1
pair_coeff 1  2  1.5  0.8
pair_coeff 2  2  0.5  0.88

write_data data.0
System init for write_data ...
Neighbor list info ...
  update every 1 steps, delay 10 steps, check yes
  max neighbors/atom: 2000, page size: 100000
  master list distance cutoff = 3.8
  ghost atom cutoff = 3.8
  binsize = 1.9, bins = 9 9 9
  1 neighbor lists, perpetual/occasional/extra = 1 0 0
  (1) pair lj/cut, perpetual
      attributes: half, newton on
      pair build: half/bin/atomonly/newton
      stencil: half/bin/3d
      bin: standard
WARNING: Not all mixed pair coeffs generated from mixing. Use write_data with 'pair ij' option to store all pair coeffs. (../write_data.cpp:312)


#############################
#   M E L T   S Y S T E M   #
#############################

velocity all create 2.4 2750902 mom yes dist gaussian # Assign velocities
                                                    # Temperature 2.4, random number seed, zero linear momentum
                                                                                # Gaussian distribution

timestep 0.002   # simulation timestep
thermo 1000       # output thermodynamic data every 1000 steps bf 100

# Define a fix  in this case with index 1 applied to all
# particles in the simulation. This fix is for simulations
# in the anisotropic NPT ensemble. Note that we use the MTK
# correction.
fix 1 all npt temp 2.4 2.4 0.1 iso 5.68 5.68 0.5 mtk yes tchain 5 pchain 5 # Use NPT ensemble
                                                                         # Set temperature and pressure and damping
                                                                         # Numbers of thermostats in chain and in barostat
run 10000          # run for 10000 steps
Per MPI rank memory allocation (min/avg/max) = 3.642 | 3.644 | 3.648 Mbytes
Step Temp E_pair E_mol TotEng Press Volume 
       0          2.4    -3.937065            0  -0.33796495   -3.5201857         4000 
    1000    2.3956619   -3.4437049            0   0.14888965     5.001077    3770.4357 
    2000    2.4263976   -3.4374336            0   0.20125289      5.57638    3729.9242 
    3000    2.4304512   -3.4801331            0   0.16463223    5.7090495    3692.7164 
    4000    2.3990754   -3.4453875            0   0.15232606    5.4770668    3721.9654 
    5000    2.4159456   -3.4447026            0   0.17830984    5.9367395    3684.2098 
    6000    2.3883046   -3.4510735            0   0.13048769    5.6360292     3707.453 
    7000    2.3939441   -3.4252391            0   0.16477934     5.473482    3747.1502 
    8000    2.3997431   -3.4570543            0   0.14166043    5.8194915    3695.3522 
    9000    2.3853524   -3.4096621            0     0.167472    5.8523407    3710.9545 
   10000    2.3844113   -3.4693952            0   0.10632757    5.5569738    3702.9657 
Loop time of 2.64476 on 48 procs for 10000 steps with 4000 atoms

Performance: 653366.929 tau/day, 3781.059 timesteps/s
99.6% CPU use with 48 MPI tasks x no OpenMP threads

MPI task timing breakdown:
Section |  min time  |  avg time  |  max time  |%varavg| %total
---------------------------------------------------------------
Pair    | 1.1659     | 1.2427     | 1.3198     |   3.3 | 46.99
Neigh   | 0.2111     | 0.22219    | 0.24298    |   1.1 |  8.40
Comm    | 0.80653    | 0.89975    | 0.99759    |   4.4 | 34.02
Output  | 0.00024746 | 0.00025666 | 0.00046335 |   0.0 |  0.01
Modify  | 0.24004    | 0.26419    | 0.2951     |   2.9 |  9.99
Other   |            | 0.01572    |            |       |  0.59

Nlocal:        83.3333 ave          94 max          74 min
Histogram: 2 0 5 8 11 11 5 2 2 2
Nghost:        1725.69 ave        1750 max        1694 min
Histogram: 1 3 1 4 10 9 5 6 4 5
Neighs:        10312.1 ave       12052 max        8970 min
Histogram: 2 1 7 13 10 5 6 3 0 1

Total # of neighbors = 494981
Ave neighs/atom = 123.74525
Neighbor list builds = 905
Dangerous builds = 206

# Equilibrate just above the melting temperature to avoid step fn in T

fix 1 all npt temp 1.25 1.25 0.1 iso 5.68 5.68 0.5 mtk yes tchain 5 pchain 5
run 2000
Per MPI rank memory allocation (min/avg/max) = 3.644 | 3.646 | 3.649 Mbytes
Step Temp E_pair E_mol TotEng Press Volume 
   10000    2.3844113   -3.4693952            0   0.10632757    5.5569738    3702.9657 
   11000    1.2365834   -5.0955706            0   -3.2411593    5.6087448    2838.3597 
   12000    1.2913194   -5.0978353            0   -3.1613404    5.4670886    2847.0048 
Loop time of 0.645691 on 48 procs for 2000 steps with 4000 atoms

Performance: 535240.951 tau/day, 3097.459 timesteps/s
99.7% CPU use with 48 MPI tasks x no OpenMP threads

MPI task timing breakdown:
Section |  min time  |  avg time  |  max time  |%varavg| %total
---------------------------------------------------------------
Pair    | 0.29312    | 0.31669    | 0.3551     |   2.6 | 49.05
Neigh   | 0.041007   | 0.043636   | 0.047227   |   0.8 |  6.76
Comm    | 0.19464    | 0.23611    | 0.26555    |   3.4 | 36.57
Output  | 5.2778e-05 | 5.4291e-05 | 6.9709e-05 |   0.0 |  0.01
Modify  | 0.039225   | 0.044373   | 0.049692   |   1.5 |  6.87
Other   |            | 0.004831   |            |       |  0.75

Nlocal:        83.3333 ave          94 max          74 min
Histogram: 1 0 8 9 6 14 4 2 1 3
Nghost:        2064.60 ave        2086 max        2029 min
Histogram: 2 1 4 3 3 8 6 9 5 7
Neighs:        13412.7 ave       14925 max       12168 min
Histogram: 6 7 1 8 8 3 4 4 4 3

Total # of neighbors = 643811
Ave neighs/atom = 160.95275
Neighbor list builds = 144
Dangerous builds = 6

#############################
# L I N E A R  Q U E N C H  #
#############################

# Define solid atoms. This closely follows ten Wolde  Ruiz-Montero and Frenkel  Faraday Discuss  1996  104  93-110
# Compute components of the per-atom q6 vector
compute q6 all orientorder/atom degrees 1 6 components 6 nnn NULL cutoff 1.3 # compute the Q6 parameter.
                                                                             # Use all neighbours within 1.3 unit cell.

# get number of connections
compute coord_number all coord/atom orientorder q6 0.5

# An atom is solid if it has 8 or more connections (of a possible 14)
variable is_solid atom c_coord_number>=8
group solid dynamic all var is_solid    # Must be dynamic to update
dynamic group solid defined

# do clustering
compute cluster solid cluster/atom 1.3 # Create a cluster where all atoms within are solid and max 1.3 units from another member

# define chunks one chunk per cluster
compute clus_chunks solid chunk/atom c_cluster nchunk every compress yes  # Says which atoms are in which chunk

# count the size of each chunk
compute size_chunks solid property/chunk clus_chunks count


# Find the maximum entry in the vector of chunk sizes
variable max_n equal max(c_size_chunks)


# Thermo style which includes this variable
# thermo_style custom step temp pe vol v_max_n

thermo ${N}  # Print the thermo information every 100 steps
thermo 1000  

# Reset the npt fix at a lower temperature (below freezing)
fix 1  all npt temp  ${temp} ${temp}  0.1  iso  5.68  5.68  0.5  mtk yes tchain  5  pchain  5
fix 1  all npt temp  0.45 ${temp}  0.1  iso  5.68  5.68  0.5  mtk yes tchain  5  pchain  5
fix 1  all npt temp  0.45 0.45  0.1  iso  5.68  5.68  0.5  mtk yes tchain  5  pchain  5

dump dmp2 all dcd ${N} traj.dcd
dump dmp2 all dcd 1000 traj.dcd


compute msd all msd com yes
variable twopoint equal c_msd[4]/6/(step*dt+1.0e-6)
fix 9 all vector 10 c_msd[4]
variable fit equal slope(f_9)/6/(10*dt)
thermo_style custom step temp pe c_msd[4] v_twopoint v_fit v_max_n

fix 1 all npt temp 1.25 ${temp} 0.1 iso 5.68 5.68 0.5 mtk yes tchain 5 pchain 5
fix 1 all npt temp 1.25 0.45 0.1 iso 5.68 5.68 0.5 mtk yes tchain 5 pchain 5
run 2000000 # 5000000  # Run for this many steps
Neighbor list info ...
  update every 1 steps, delay 10 steps, check yes
  max neighbors/atom: 2000, page size: 100000
  master list distance cutoff = 3.8
  ghost atom cutoff = 3.8
  binsize = 1.9, bins = 8 8 8
  4 neighbor lists, perpetual/occasional/extra = 1 3 0
  (1) pair lj/cut, perpetual
      attributes: half, newton on
      pair build: half/bin/atomonly/newton
      stencil: half/bin/3d
      bin: standard
  (2) compute orientorder/atom, occasional
      attributes: full, newton on
      pair build: full/bin/atomonly
      stencil: full/bin/3d
      bin: standard
  (3) compute coord/atom, occasional
      attributes: full, newton on
      pair build: full/bin/atomonly
      stencil: full/bin/3d
      bin: standard
  (4) compute cluster/atom, occasional
      attributes: full, newton on
      pair build: full/bin/atomonly
      stencil: full/bin/3d
      bin: standard
Per MPI rank memory allocation (min/avg/max) = 9.837 | 9.845 | 9.848 Mbytes
Step Temp PotEng c_msd[4] v_twopoint v_fit v_max_n 
   12000    1.2913194   -5.0978353 2.1500404e-30 1.4930835e-32 8.3333333e+20            2 
   13000    1.2590078    -5.095135   0.71730863 0.0045981321  0.059977888            2 
   14000     1.269993   -5.0840623    1.4317291 0.0085221969  0.059843012            2 
   15000    1.2512337   -5.1073827    2.1128377  0.011737987  0.059443547            3 
   16000    1.2637944   -5.0891023    2.8921948  0.015063514  0.059614573            5 
   17000     1.225076   -5.1169622    3.5849167  0.017573121  0.059798592            3 
   18000     1.295476   -5.0881954    4.2282971  0.019575449  0.059396525            2 
   19000    1.2544155   -5.0944884    4.9480457  0.021701954  0.059034893            4 
   20000    1.2659731   -5.0845917    5.6481702  0.023534042  0.058922665            2 
   21000    1.2470835   -5.1053274     6.347452  0.025188301  0.058814871            3 
   22000    1.2616951   -5.0837732    6.9875754  0.026468088  0.058638117            1 
   23000     1.266655   -5.1149875    7.6642028   0.02776885  0.058343413            2 
   24000    1.2402854   -5.0876578    8.3857695  0.029117255  0.058070819            3 
   25000    1.2431416    -5.103684    9.1081819  0.030360606  0.058149203            1 
   26000     1.247727   -5.1370071    9.8482252  0.031564824  0.058166545            1 
   27000    1.2363003   -5.1034823    10.540392  0.032532072  0.058184408            2 
   28000    1.2559533   -5.1074446    11.203116  0.033342607  0.058179749            1 
   29000     1.253481   -5.1107771    11.842297  0.034029589  0.058108538            4 
   30000    1.2474149   -5.0791362    12.625018  0.035069494  0.058075244            2 
   31000    1.2402499   -5.1356985    13.405668  0.036036741  0.058184746            2 
   32000    1.2320978   -5.1143422     14.08511  0.036679975  0.058309527            1 
   33000    1.2571803   -5.1288843    14.890279  0.037601715  0.058456387            1 
   34000    1.2400356   -5.1349464    15.770375  0.038652878  0.058708159            3 
   35000    1.2081736   -5.1710196     16.29161  0.038789547  0.058914054            1 
   36000    1.2559499   -5.1634374    16.878215  0.039069941  0.058919487            1 
   37000    1.2257374   -5.1169281    17.688985  0.039840056  0.058930032            1 
   38000     1.239716    -5.108056    18.377903  0.040302418  0.058957115            2 
   39000    1.2400091   -5.1183599    19.020057  0.040641146  0.058986071            2 
   40000     1.258041   -5.1089362    19.892229  0.041442144  0.058952871            2 
   41000    1.2511361   -5.1341785    20.543924  0.041755942  0.058987271            1 
   42000    1.2308453   -5.1031523     21.39627  0.042452917  0.059043402            2 
   43000    1.2305967   -5.1136113    22.068298  0.042768018  0.059107221            2 
   44000    1.2187322   -5.1792256    22.562259  0.042731551  0.059122363            3 
   45000    1.2388473     -5.14488    23.237823  0.043033004  0.059097369            3 
   46000    1.2257791   -5.1353991    23.921505  0.043336059  0.059088169            3 
   47000    1.2105836   -5.0739895    24.759946  0.043900612  0.059054287            1 
   48000    1.2176326   -5.1331664     25.60757  0.044457587  0.059061374            2 
   49000    1.2405356   -5.1309244    26.423327  0.044937631   0.05912733            2 
   50000    1.2598674    -5.134156    26.983659  0.044972764  0.059172014            4 
   51000    1.2362533   -5.1359462    27.730304  0.045310954  0.059205107            3 
   52000    1.2341151   -5.1194405     28.53258  0.045725288  0.059220736            2 
   53000    1.2614094    -5.115605    29.180788  0.045881742  0.059245062            2 
   54000     1.223289   -5.1546245    29.566954  0.045628015  0.059209419            3 
   55000    1.2386486   -5.1048739    30.299157  0.045907813  0.059175868            4 
   56000     1.260572    -5.135807    31.131572  0.046326743  0.059156587            2 
   57000    1.2258163    -5.147331    31.808677  0.046503913  0.059150838            3 
   58000    1.2157355   -5.1214241    32.877047  0.047237135  0.059153297            3 
   59000    1.2183317   -5.1254018     33.65923  0.047541285  0.059211292            5 
   60000    1.2496608   -5.1758175    34.192183  0.047489143  0.059280205            1 
   61000    1.2449205   -5.1833749    35.078052  0.047920835  0.059334494            4 
   62000    1.2421649   -5.1313341    35.762754  0.048068218  0.059387943            2 
   63000    1.2424529   -5.1570472    36.583051  0.048390278  0.059430095            2 
   64000    1.2312134   -5.0995177    37.017901  0.048200391  0.059445218            4 
   65000    1.2204797   -5.1878745    37.592695  0.048195763  0.059431054            2 
   66000    1.1922876    -5.156739    38.448032  0.048545495  0.059412639            1 
   67000    1.2270771   -5.1619947    38.886611  0.048366432  0.059402811            3 
   68000    1.2395815   -5.1832089    39.690588  0.048640426  0.059378426            2 
   69000    1.2520674   -5.1262814    40.504735  0.048918762  0.059378396            2 
   70000    1.2276537   -5.1366766    41.128833  0.048962897   0.05936031            2 
   71000    1.2290487    -5.138249    41.898233   0.04917633  0.059357639            2 
   72000    1.2288429   -5.1173017    42.869985  0.049618038  0.059360091            2 
   73000    1.2502381   -5.1165447    43.583134  0.049752435  0.059371942            3 
   74000    1.2221126   -5.1240319    44.215956  0.049792743  0.059378591            2 
   75000    1.2252196   -5.0652552    44.848735  0.049831928  0.059382392           12 
   76000    1.2334704   -5.1788012     45.07904  0.049428771   0.05935073            3 
   77000    1.2210013   -5.1554862    45.709327  0.049468969  0.059299363            6 
   78000    1.2141767   -5.1256029    46.498164  0.049677526  0.059238858            2 
   79000    1.2334369   -5.1773642    47.032953   0.04961282  0.059197882            4 
   80000    1.2150382   -5.1886963    47.603632  0.049587117  0.059146847            2 
   81000    1.2249215   -5.1664695     48.18706  0.049575164  0.059081439            4 
   82000    1.2054428   -5.1443499    48.879879  0.049674674  0.059016536            4 
   83000    1.2132297   -5.1350708    49.515553   0.04971441  0.058945389            1 
   84000     1.224854   -5.1475842    50.485479    0.0500848  0.058897299            7 
   85000    1.2388135   -5.1647472    51.243878  0.050239096  0.058857913            4 
   86000    1.2273533   -5.1651724    51.646211  0.050044777   0.05880761            2 
   87000    1.2206308   -5.1521718    52.707847  0.050486443  0.058765253            4 
   88000    1.2403432   -5.1644204    53.388642  0.050557426  0.058739363            1 
   89000    1.2541785   -5.1609769    54.100677  0.050656064  0.058717421            7 
   90000     1.195766   -5.1884829    54.869844  0.050805411  0.058697457            5 
   91000    1.2353766   -5.1807317    55.647876  0.050959593   0.05868194            2 
   92000    1.2154235   -5.1397627    56.069605  0.050787685  0.058674683            2 
   93000    1.2312197    -5.124839    57.065944  0.051134358  0.058655498            3 
   94000    1.2082744   -5.1628287    57.620512  0.051082014  0.058631693            3 
   95000    1.2247774   -5.1691128    57.886266  0.050777426   0.05859773            2 
   96000    1.2051823   -5.1339443    58.742606  0.050991845  0.058560963            3 
   97000    1.2208627   -5.1456779    59.517287   0.05113169   0.05853172            2 
   98000    1.2299951    -5.174726    59.758624  0.050815156  0.058497328            2 
   99000    1.2252708   -5.1262119    60.717938  0.051109375  0.058456151            4 
  100000    1.2342506   -5.1509861    61.618786  0.051348988  0.058427509            4 
  101000    1.2080956   -5.1812806    62.185261  0.051307971  0.058401952            2 
  102000    1.2073094   -5.1771331    62.868796  0.051363395  0.058377116            3 
  103000    1.1959899    -5.178725    63.349842  0.051253918  0.058350279            3 
  104000     1.204223   -5.1819094    63.979535  0.051265653  0.058316262            2 
  105000    1.1991536   -5.1612002    64.682406  0.051335242  0.058283841            2 
  106000    1.1870423    -5.193908    65.052591  0.051141974  0.058239716            3 
  107000    1.2214939   -5.1978666    65.663782  0.051140017  0.058193321            2 
  108000    1.2177653   -5.2105203    65.875487  0.050829851  0.058129066            1 
  109000    1.1949313   -5.1451811    66.671708  0.050972254  0.058059716            1 
  110000    1.2164132    -5.179365    67.240164  0.050939518  0.057995042            7 
  111000    1.2031879   -5.1966515    67.760054  0.050870911  0.057926968            2 
  112000    1.2110437   -5.1724982    68.344278  0.050851397  0.057858328            2 
  113000    1.2269433   -5.1743631    69.670117  0.051379142  0.057807471            4 
  114000    1.2324951   -5.1894658     70.09203  0.051236864  0.057764879            2 
  115000    1.2074586   -5.2105045    70.799043  0.051303654  0.057717828            3 
  116000    1.2085141   -5.1468898    71.405747  0.051297232  0.057669914            1 
  117000    1.1842917   -5.1564238     72.42108  0.051581966  0.057623634            3 
  118000    1.1897239   -5.2166233    72.686454  0.051332241  0.057581345            2 
  119000    1.2078612   -5.1717889    73.687446  0.051601852  0.057532545            2 
  120000    1.2308617   -5.1698382    73.780381  0.051236375  0.057482365            2 
  121000    1.2026874   -5.1905352    74.311548  0.051178752   0.05742682            1 
  122000    1.2176149   -5.1967855    75.003658  0.051232007  0.057365895            2 
  123000     1.188744   -5.1643284    75.747011  0.051319113  0.057318249            3 
  124000    1.2066433   -5.1968423     76.60862  0.051484287  0.057277728            2 
  125000    1.2243871   -5.2121878    76.835577  0.051223718  0.057227927            3 
  126000    1.2285787   -5.1845658    77.695323  0.051385796  0.057181667            4 
  127000    1.2072128   -5.1952124    78.078189  0.051232407  0.057134534            2 
  128000    1.2049412   -5.1829632    79.178239  0.051548333  0.057089706            3 
  129000    1.2348784   -5.2100091    79.572791  0.051403612  0.057041295            1 
  130000    1.2180348     -5.20064    80.219049  0.051422467  0.056994338            2 
  131000    1.2253065   -5.2267058    80.637288  0.051295985  0.056950865            2 
  132000    1.2119137   -5.1964352    81.474286  0.051435786  0.056905782            2 
  133000    1.1820535   -5.2363648      81.8399  0.051278133  0.056853449            2 
  134000    1.1973371   -5.1570423    82.516878  0.051316466  0.056804477            1 
  135000    1.1857628   -5.2433675    82.779049  0.051098178  0.056750227            1 
  136000    1.1589513   -5.2159043    83.329927  0.051060004  0.056690214            2 
  137000     1.185222   -5.1686884    84.449756  0.051368464  0.056638766            1 
  138000    1.2174185   -5.2175571    85.053902  0.051361051  0.056596308            3 
  139000    1.2219818   -5.1788013    85.704628  0.051381672  0.056550526            4 
  140000    1.1674182   -5.2244618    86.188579  0.051302725  0.056501031            2 
  141000    1.1841545   -5.2192117    86.735847  0.051262321  0.056453755            4 
  142000    1.2025328    -5.169543    87.623801  0.051422418  0.056401545            2 
  143000     1.200013   -5.2183015     87.33624  0.050895245  0.056341937            1 
  144000    1.1837085   -5.2057846    88.435703  0.051178069  0.056278317            5 
  145000    1.1906267     -5.18431    88.747727  0.051004441  0.056219546            1 
  146000    1.1814511   -5.2015405    89.960961   0.05134758    0.0561667            2 
  147000    1.2243438   -5.1909998    90.288368  0.051183882  0.056116604            2 
  148000    1.1450433   -5.2030159    90.773074  0.051110965  0.056064138            2 
  149000    1.1903089   -5.1573782    91.071436  0.050934807  0.056006342            5 
  150000    1.1625942   -5.1853952    91.914993  0.051063885  0.055946804            3 
  151000    1.2109358   -5.2101228    92.366839  0.050975077  0.055887216            3 
  152000    1.2071826   -5.2079157    93.573036  0.051301006  0.055837703            3 
  153000    1.1708165   -5.1972474    94.127645  0.051267781  0.055789931            2 
  154000    1.1837131   -5.2283367    94.824423  0.051311917  0.055747099            2 
  155000    1.1864876   -5.1952705    95.641973  0.051420415  0.055710871            4 
  156000    1.1966109   -5.2280613    95.982402   0.05127265  0.055670432            4 
  157000    1.2026297   -5.2016681    96.270984  0.051099248  0.055631607            3 
  158000    1.1992874   -5.2303715    97.227306  0.051280224   0.05558863            2 
  159000    1.1922104   -5.1848431    98.503146  0.051626387  0.055555662            4 
  160000    1.1664682   -5.2030495    99.357574  0.051748736  0.055528614            2 
  161000    1.1866377   -5.2371055    99.724693  0.051617336  0.055505822            2 
  162000    1.1902878   -5.1893628    100.01482   0.05144795  0.055475842            2 
  163000    1.1455147   -5.2008961    100.78681  0.051527001  0.055446508            3 
  164000    1.1698274   -5.2203603    101.50076  0.051575588  0.055416271            2 
  165000    1.1900445   -5.2009957    102.24104  0.051636889  0.055388493            2 
  166000    1.1745346   -5.2332425    102.62478  0.051518462  0.055364656            2 
  167000    1.2003267   -5.2507601    102.84087    0.0513178  0.055331374            2 
  168000    1.1920543   -5.2309931    103.08413  0.051133002  0.055292715            3 
  169000    1.1749196   -5.2333135    104.07045  0.051316789  0.055256176            2 
  170000    1.2016198   -5.2433258    104.03609  0.050998085  0.055213288            2 
  171000    1.1964415   -5.1844651    105.50789  0.051417102  0.055176453            1 
  172000    1.1776593   -5.2194781    105.04849  0.050895584  0.055138515            3 
  173000    1.2015014    -5.225503    106.36727   0.05123664  0.055100918            2 
  174000    1.1844913   -5.1976203    107.14865  0.051316405  0.055062193            2 
  175000    1.2061248   -5.2143049     107.4428   0.05116324  0.055016088            1 
  176000    1.2096781   -5.2354575    107.39252  0.050848731  0.054969539            4 
  177000    1.1681324    -5.201416    108.29224  0.050985045   0.05492011            7 
  178000    1.1925914   -5.2494308     108.7794  0.050926686  0.054870604            5 
  179000    1.1632008   -5.2384854    109.09263  0.050788005  0.054821072            5 
  180000    1.1896487   -5.2256415    109.84658  0.050854896  0.054776003            3 
  181000    1.1825091   -5.1955648    110.31854  0.050791224  0.054737147            3 
  182000    1.1817378   -5.2121153    111.19502  0.050913469  0.054695464            3 
  183000    1.2106183   -5.2391497    111.49748  0.050772985  0.054649487            2 
  184000    1.1993554   -5.2268872    112.48628  0.050944872  0.054605332            3 
  185000    1.1777601   -5.2662103    112.72868  0.050778685  0.054564217            2 
  186000    1.1854706   -5.2100619    113.42532  0.050817795  0.054519849            3 
  187000    1.1959837   -5.2542791    114.07838  0.050837066  0.054476798            2 
  188000    1.2060954   -5.2079067    114.59856  0.050797235  0.054438063            2 
  189000    1.1639168   -5.2517271    115.12692  0.050761427   0.05439762            5 
  190000    1.1980539   -5.2022972    116.31518  0.051015429  0.054361004            4 
  191000    1.2064479   -5.2273692     117.2754  0.051167279  0.054331617            1 
  192000    1.1802634   -5.2579727     116.5858  0.050601475  0.054296809            3 
  193000    1.1834998   -5.1862038    118.36847  0.051109011  0.054258505            3 
  194000    1.1546195   -5.2540593    118.08645  0.050724419  0.054219625            5 
  195000    1.1590589    -5.252336    118.64828  0.050704391  0.054176699            2 
  196000    1.1639405   -5.2502561     119.1716  0.050668196  0.054132942            3 
  197000    1.1867417   -5.2603143    119.19354  0.050420278  0.054090197            2 
  198000    1.1795192   -5.2692458    120.41132  0.050678163   0.05404704            2 
  199000    1.1617295   -5.2142287    120.94987  0.050649025  0.054009212            2 
  200000    1.1710502   -5.2198498    121.10096  0.050458732  0.053967999            3 
  201000    1.1663247   -5.2621474    122.18012  0.050655108  0.053927187            3 
  202000    1.1957678   -5.2071326    123.07523  0.050773609  0.053887832            2 
  203000     1.168245   -5.2389047    123.41472  0.050662858  0.053851585            5 
  204000    1.1870133   -5.2033732    124.26079  0.050760128  0.053817916            3 
  205000    1.1695485   -5.2541424    124.50533  0.050611924  0.053783641            2 
  206000    1.2036509   -5.2916841    125.34393  0.050705472  0.053750468            2 
  207000    1.1760188   -5.2726236    125.55004  0.050543493  0.053715607            2 
  208000    1.1764006   -5.2505364    126.39207  0.050637848  0.053679947            2 
  209000    1.1604741   -5.2434326    126.68052  0.050510575  0.053645536            2 
  210000    1.1655251   -5.2588427    127.46024  0.050579462  0.053613656            3 
  211000    1.1620254   -5.2539313    128.10513  0.050594445   0.05358103            1 
  212000    1.1621973   -5.2233215    129.47405  0.050893886    0.0535508            3 
  213000    1.1672322   -5.2314231    129.88929  0.050817407  0.053522024            2 
  214000     1.182253   -5.2386319    130.57225  0.050845893   0.05349203            3 
  215000    1.1627697   -5.2446306    130.71807  0.050665918  0.053461485            3 
  216000    1.1446082   -5.2345429    131.50046  0.050733202  0.053433312            2 
  217000    1.1387828   -5.2451308    132.01147  0.050695651  0.053403923            3 
  218000    1.1806569   -5.2897205    132.22075    0.0505431  0.053374551            2 
  219000    1.1699743   -5.2993204    132.71815  0.050501577  0.053342806            3 
  220000    1.1723671    -5.307267    133.51315  0.050573162  0.053313854            4 
  221000    1.1701294   -5.2341798    134.60639  0.050756558  0.053282356            1 
  222000    1.1675554   -5.2943243    135.25333  0.050770771  0.053254139            2 
  223000     1.155539   -5.2695313    135.31702  0.050566897   0.05322787            5 
  224000    1.1638387   -5.2358389    136.50246  0.050782165  0.053202742            2 
  225000    1.1782348   -5.2194458    137.87062  0.051063192  0.053180059            5 
  226000    1.1710729   -5.2573824    138.33032  0.051006756  0.053161006            3 
  227000    1.1713103   -5.2646469    138.42843  0.050818072  0.053142494            2 
  228000    1.1647975   -5.2866444    138.85482  0.050751029  0.053125702            7 
  229000    1.1628735   -5.2697408    140.34776  0.051072693  0.053109529            3 
  230000    1.1928881   -5.2883372     140.3702  0.050858767  0.053092801            6 
  231000    1.1485188   -5.2531995    141.18734  0.050933383  0.053074576            7 
  232000    1.1652268   -5.2328212     141.6462  0.050878664  0.053057961            2 
  233000    1.1499779   -5.2627538    141.71468  0.050684794   0.05303721            6 
  234000      1.15901   -5.3033696    141.65513  0.050446982  0.053013396            3 
  235000    1.1600271   -5.2996539    142.98463  0.050703769  0.052990282            3 
  236000    1.1666599   -5.2494953    143.68337  0.050735652   0.05296951            2 
  237000    1.1530326   -5.2434972     144.5289  0.050818881  0.052946954            2 
  238000    1.1531847    -5.267572    145.05258  0.050788718  0.052925543            3 
  239000    1.1572739   -5.2710148    145.39143  0.050694362  0.052904581            3 
  240000    1.1607317   -5.2313289    145.99402  0.050692367  0.052883305            3 
  241000    1.1755403   -5.2904972    146.42676  0.050631659   0.05286229            5 
  242000    1.1753227   -5.2594744     146.7318   0.05052748  0.052838334            2 
  243000    1.1750074   -5.2791605    147.57912  0.050610125  0.052813259            5 
  244000    1.1684384   -5.2819062    147.38497  0.050336395  0.052783462            2 
  245000    1.1505754   -5.3207265    147.68304  0.050232327  0.052753919            2 
  246000    1.1420537    -5.288416    149.17615  0.050533927  0.052726411            4 
  247000    1.1644387   -5.2955099    149.67455  0.050497486  0.052701296            2 
  248000    1.1473419     -5.31415    150.10408  0.050438199  0.052674434            7 
  249000    1.1553285   -5.3056921    150.53672  0.050380427  0.052646741            6 
  250000    1.1360461   -5.2903265     150.6937  0.050231234  0.052620522            2 
  251000    1.1150866   -5.2664478    151.55722  0.050317802  0.052593116            2 
  252000    1.1601146   -5.2462499    151.44024  0.050079443  0.052562497            3 
  253000    1.1594255   -5.3062536    151.93679  0.050045055  0.052531051            2 
  254000    1.1629708   -5.2743105    152.07421  0.049893114  0.052496972            3 
  255000    1.1688326   -5.3177544    153.02486  0.050008123  0.052463593            2 
  256000    1.1634439   -5.3281726    153.81162  0.050068885  0.052434098            2 
  257000    1.1336901   -5.2897819    154.34795  0.050047972  0.052403177            2 
  258000    1.1681401    -5.288393     155.5781  0.050251325   0.05237015            1 
  259000    1.1394093   -5.2857645    155.82405  0.050136438  0.052340412            2 
  260000    1.1409109   -5.3155548    155.64715  0.049886908   0.05231039            4 
  261000    1.1151523   -5.3059253    156.58308  0.049994598  0.052280406            3 
  262000    1.1323034    -5.258974    157.30773  0.050034266  0.052250357            1 
  263000     1.144101     -5.30108    157.37692  0.049865944  0.052219174            3 
  264000     1.156867   -5.3042008    157.89082  0.049839273  0.052188167            2 
  265000    1.1437813   -5.2810865    158.59752  0.049873435  0.052157345            7 
  266000    1.1422809    -5.316902    158.74197  0.049731194  0.052127282            3 
  267000    1.1279141   -5.2928791    159.34117  0.049731951  0.052093797            2 
  268000      1.16992   -5.2840244    160.58597  0.049933448  0.052063809            3 
  269000    1.1187863   -5.2792674    160.86473   0.04983418  0.052034872            2 
  270000    1.1261036   -5.2658209    161.03014   0.04970066  0.052005277            2 
  271000    1.1708364   -5.3018509    161.44209   0.04964394   0.05197409            2 
  272000    1.1563935   -5.3133344    162.03064  0.049641739  0.051941282            2 
  273000    1.1471432   -5.3307916    161.61951  0.049334404   0.05190869            2 
  274000    1.1407704   -5.2987201    163.38503  0.049691312  0.051877311            2 
  275000     1.147137   -5.2924308    163.99399  0.049695147  0.051845212            6 
  276000    1.1231767   -5.3350418    163.86342  0.049475671  0.051811571            5 
  277000    1.1258633   -5.3207734    164.52316  0.049495537  0.051778625            3 
  278000    1.1456428   -5.3263751    164.22545  0.049228253  0.051745277            1 
  279000    1.1434531   -5.3177121    165.94369  0.049565021  0.051712095            1 
  280000    1.1507652   -5.2958775    165.79892  0.049344916  0.051678576            2 
  281000    1.1431458   -5.3065673    167.50794   0.04967614  0.051646862            2 
  282000    1.1672616   -5.2637541    167.77618  0.049579249  0.051615702            2 
  283000    1.1625691   -5.3263351    167.45829  0.049310451  0.051582648            1 
  284000    1.1126763   -5.2764189    168.00591  0.049297508  0.051547138            4 
  285000    1.1359251   -5.2799073    168.93547  0.049396336  0.051511956            3 
  286000    1.1426849   -5.2987628    169.24198  0.049312931  0.051478963            3 
  287000    1.1298139   -5.3373347    169.72822  0.049282293  0.051445964            4 
  288000    1.1271381   -5.3057576    170.71341  0.049396242  0.051411562            2 
  289000    1.1333561   -5.3041509    170.58323  0.049187781  0.051378032            4 
  290000    1.1452236   -5.3508962    170.70818  0.049054076  0.051344094            2 
  291000    1.1323835   -5.2980191    172.21256  0.049316311  0.051309748            2 
  292000    1.1787138   -5.3142309    172.78621  0.049311133  0.051277866            1 
  293000    1.1209027   -5.3248412    172.83156  0.049155735  0.051246051            3 
  294000    1.1377729   -5.3365875    173.49623  0.049176935  0.051214456            2 
  295000    1.1429042   -5.3579653    174.11814  0.049185917  0.051182761            4 
  296000    1.1327216   -5.3125957     174.2884  0.049067681  0.051150849            1 
  297000    1.1378632   -5.3059274     175.0177  0.049107099  0.051119603            2 
  298000    1.1394193   -5.3270574    175.34852   0.04903482  0.051086928            2 
  299000    1.1427914   -5.3304882    176.58878  0.049216493  0.051055939            4 
  300000     1.150205   -5.3005249    176.62198   0.04906166  0.051026612            2 
  301000    1.1253658   -5.3348623    177.27153  0.049078497  0.050998834            3 
  302000    1.1325909   -5.3449685    177.18782  0.048892887   0.05096877            4 
  303000    1.1391634   -5.3568263    178.17607   0.04900332  0.050937197            4 
  304000    1.1459993   -5.3682653    178.20374   0.04884971  0.050906336            3 
  305000    1.1157066   -5.3150767    179.46316  0.049033651  0.050875411            4 
  306000    1.1289301   -5.3513072    179.05847  0.048763201  0.050843115            3 
  307000    1.1261915   -5.3407145    180.16984  0.048906036   0.05081008            4 
  308000    1.1614359   -5.2984185    181.26809  0.049044398   0.05077843            1 
  309000    1.1325119   -5.3446779    181.00162  0.048813813   0.05074578            5 
  310000    1.1424475   -5.3405011    181.13892  0.048693258  0.050713367            2 
  311000    1.1445852    -5.326622    181.65747  0.048675636  0.050679164            2 
  312000      1.11205   -5.3308048    182.33133  0.048699608  0.050645878            2 
  313000    1.1159945   -5.3015146    182.64928  0.048628669  0.050613804            3 
  314000    1.1263288   -5.2921029    182.94454   0.04855216  0.050580159            2 
  315000    1.1400289   -5.3578326    183.40377  0.048519515  0.050547191            2 
  316000     1.149368   -5.3664553    183.46866  0.048383085  0.050513237            2 
  317000    1.1487418   -5.3564939     184.8346  0.048589536   0.05047909            2 
  318000    1.1435452   -5.3698027    184.60188  0.048375754  0.050444465            3 
  319000    1.1298907    -5.325312     185.1017  0.048354675  0.050408723            4 
  320000    1.1223352   -5.3162191    186.50871  0.048569977  0.050376227            2 
  321000    1.1261823    -5.338713    186.66479  0.048459188  0.050343332            3 
  322000    1.1087034   -5.3601628    187.09036   0.04841883   0.05030933            4 
  323000    1.1067919   -5.3471711    187.57238  0.048393287  0.050275905            4 
  324000    1.1295428   -5.3290229    188.01775  0.048358475  0.050241161            3 
  325000    1.1351892   -5.3513937    187.87686  0.048173553  0.050206904            3 
  326000    1.1281644   -5.3627843    188.83234  0.048270026  0.050173685            4 
  327000    1.1596756   -5.3908706    189.11534   0.04819453  0.050139948            5 
  328000    1.1254432   -5.3365406     190.9607  0.048516437   0.05010683            4 
  329000    1.1132905   -5.3630172    191.12526  0.048410654  0.050076445            2 
  330000    1.1373814   -5.3199863    191.83656  0.048443575  0.050046223            2 
  331000    1.1260014   -5.3418788    191.15765  0.048126297  0.050015274            2 
  332000    1.1129954   -5.3580313    192.22532  0.048249327   0.04998401            2 
  333000    1.1369695   -5.3673348    193.17125  0.048341153  0.049952733            4 
  334000    1.1216651   -5.3461089    192.94273  0.048139403  0.049921633            1 
  335000    1.0964977   -5.3370885     194.4282  0.048365223  0.049891456            3 
  336000    1.0960396   -5.3363169     194.3491  0.048201662  0.049860818            3 
  337000     1.128366   -5.3832594    194.53465  0.048104514  0.049829936            3 
  338000    1.1140417    -5.368204    195.26593  0.048142487  0.049799645            3 
  339000    1.1160658    -5.352744    195.70486  0.048108371  0.049768955            3 
  340000    1.1073293   -5.3387457    195.81373  0.047993562  0.049739898            2 
  341000    1.1195968   -5.3693342    196.00161  0.047898732  0.049708577            7 
  342000    1.1258651   -5.3462422    196.67623  0.047923058  0.049675873            2 
  343000     1.130994   -5.3902559    197.19643  0.047909726  0.049643765            2 
  344000    1.1166895   -5.3824383    197.34578  0.047806633  0.049610082            1 
  345000    1.1013434   -5.3571913    197.76764   0.04776996  0.049574889            1 
  346000    1.1065132    -5.355475    198.34124  0.047770048  0.049540697            4 
  347000    1.1002762   -5.3506302    198.88628  0.047763276  0.049506289            3 
  348000    1.1079246   -5.3852721    199.39812  0.047748592  0.049472899            2 
  349000    1.1185729   -5.3417083     200.2052  0.047804488  0.049439488            3 
  350000    1.1154952   -5.3607743    200.49511  0.047736932  0.049406311            2 
  351000    1.1160152   -5.3643486    200.45353  0.047591056  0.049373663            3 
  352000    1.1165952   -5.3833948     201.5913  0.047725214  0.049341115            4 
  353000    1.1400205   -5.3337307    202.13134  0.047717502  0.049308909            4 
  354000    1.1113091    -5.326369    202.18171  0.047594565  0.049276894            5 
  355000    1.1135905   -5.3586502    202.34032  0.047497728  0.049242533            3 
  356000    1.1002314   -5.3661826    203.02537  0.047524666  0.049210038            4 
  357000    1.1046975   -5.3295848     204.2827  0.047685038  0.049176939            2 
  358000    1.1095112   -5.3666282    204.77604  0.047666677  0.049145638            3 
  359000    1.1236212   -5.4181438    204.77154  0.047532855  0.049114119            3 
  360000    1.1100514   -5.3905303    204.53466  0.047345987  0.049084177            3 
  361000    1.1004819   -5.3763747    205.23682  0.047376921  0.049053751            3 
  362000    1.1090217   -5.4082412    206.69189  0.047581005  0.049024889            3 
  363000      1.10882   -5.3981183    207.19004  0.047564288  0.048995797            1 
  364000    1.1167716   -5.3616425    207.67835  0.047545409  0.048967507            4 
  365000    1.1151345   -5.3760937    207.88489  0.047462305  0.048938581            6 
  366000     1.112535    -5.364541    209.17525  0.047626424  0.048909779            2 
  367000    1.1018897   -5.3722182    210.54383  0.047807409  0.048882832            1 
  368000     1.112661   -5.3939451    210.82542  0.047741263  0.048858326            3 
  369000    1.1086925    -5.366993    210.93072  0.047635665  0.048833713            5 
  370000      1.10454   -5.3965823    210.96983  0.047515728  0.048807604            8 
  371000    1.1371888    -5.400569    211.34966  0.047472969  0.048781905            5 
  372000    1.1146629   -5.3837632    213.37277  0.047798559   0.04875752            2 
  373000    1.0964018   -5.3889597     212.6485  0.047508601  0.048732566            4 
  374000     1.099194   -5.4012535    213.59566  0.047592617  0.048706933            4 
  375000    1.0973897   -5.4126666     213.4578  0.047435068  0.048681045            3 
  376000     1.097574   -5.3535893    215.24314  0.047704596  0.048657594            1 
  377000    1.0849551   -5.3485334    216.12021   0.04777193  0.048633818            2 
  378000    1.0893939   -5.4082683    215.80758  0.047576627  0.048611702            3 
  379000    1.1292226   -5.3977149    216.20514  0.047538508  0.048586784            3 
  380000    1.0928292   -5.4071647    216.47767  0.047473172  0.048563976            2 
  381000    1.0815295   -5.3938649    217.42896   0.04755664  0.048541907            3 
  382000    1.1081402   -5.3876788    217.50982  0.047449786  0.048519354            2 
  383000    1.1218773    -5.413424    217.72198  0.047372058  0.048496283            1 
  384000    1.1114539   -5.3890946    217.70949  0.047245984  0.048471025            2 
  385000    1.1014271   -5.3533539    219.39084  0.047487194  0.048446864            2 
  386000    1.0903663   -5.3952173    219.10396  0.047302236  0.048421856            2 
  387000    1.0999984   -5.3917288    219.45243  0.047255045  0.048394817            3 
  388000    1.0826406   -5.4015389    220.08033  0.047268111  0.048368927            3 
  389000    1.0894301   -5.3695237    221.27664   0.04740288   0.04834477            2 
  390000    1.0951914    -5.417021    221.09021  0.047241498  0.048320537            2 
  391000    1.1280801   -5.3956804     221.7364  0.047258397  0.048295844            4 
  392000    1.1159698   -5.4341786    221.85081  0.047162163  0.048270788            3 
  393000    1.0715981   -5.4312882    221.71647   0.04701367  0.048245985            4 
  394000    1.0911829   -5.4062461    222.68986  0.047100224  0.048221052            3 
  395000    1.0906899   -5.4073995    223.71491  0.047197239  0.048195818            2 
  396000    1.0873312   -5.4086705    224.51715  0.047246876  0.048171713            2 
  397000    1.0980157   -5.4151396    224.87629   0.04720325  0.048148685            7 
  398000    1.0976944   -5.4074296    224.49453  0.047004717  0.048125985            4 
  399000    1.1107772   -5.4324933    225.91772  0.047184153  0.048103422            5 
  400000    1.1084249   -5.4105477    227.30859  0.047355957  0.048082327            2 
  401000    1.0770616    -5.396286    228.13376  0.047409344  0.048061687            3 
  402000    1.1174121   -5.4081265     227.0616  0.047069154  0.048040453            2 
  403000    1.0947704   -5.3967334    227.77279   0.04709942  0.048018811            5 
  404000    1.1097442   -5.4385951    228.07351  0.047044866  0.047996213            4 
  405000     1.081282     -5.38664    229.77995  0.047279825  0.047975517            3 
  406000    1.0885664    -5.450745    228.82592  0.046967554  0.047952685            2 
  407000    1.1080825   -5.3897273    229.20688  0.046930156   0.04793069            4 
  408000    1.0709086   -5.3997619    229.24176  0.046822255  0.047908618            3 
  409000    1.0892232   -5.4216045    230.32279  0.046928034  0.047885516            2 
  410000    1.0786384   -5.4177611    231.01299   0.04695386  0.047862632            2 
  411000    1.0857338   -5.4385266    231.34756  0.046907453   0.04783894            3 
  412000    1.1305326   -5.4108012    231.09851  0.046743225  0.047816031            3 
  413000    1.0743227   -5.4634434    231.77153  0.046765845  0.047792063            4 
  414000    1.0962878   -5.4091045    231.81885  0.046662409   0.04776758            2 
  415000    1.1036335   -5.4054568    232.92292  0.046771671  0.047741363            3 
  416000    1.1293001   -5.3849695    233.81327  0.046837594  0.047716085            2 
  417000    1.0820825    -5.433578    232.60903  0.046484618  0.047690604            4 
  418000    1.0887346   -5.4503898    232.92977  0.046437353  0.047662884            4 
  419000    1.0927319   -5.4289118    233.40335  0.046420713   0.04763516            2 
  420000    1.0704516   -5.4294574      233.623   0.04635377  0.047607706            3 
  421000    1.0871025   -5.4110626    235.27978  0.046571611  0.047579827            2 
  422000     1.069566   -5.4084168    235.11537  0.046428785  0.047552914            2 
  423000    1.0922834   -5.3944182    235.96501  0.046486408  0.047526237            2 
  424000    1.0922242   -5.4363808    235.59161  0.046303383  0.047500325            6 
  425000    1.0863474   -5.4461737    236.47692  0.046368024   0.04747218            2 
  426000    1.0836259   -5.4318183    237.08378  0.046377891  0.047446185            3 
  427000    1.0741961   -5.4255847    237.62339  0.046374589  0.047419072            2 
  428000    1.0932752   -5.4028894    237.75037   0.04629096  0.047391777            5 
  429000    1.0750068    -5.411971    237.87478  0.046207222  0.047363494            2 
  430000    1.0964719   -5.4636208     237.2274  0.045974303  0.047334487            3 
  431000    1.0606908   -5.4503604    237.91094  0.045999796  0.047305223            1 
  432000    1.0825353   -5.4365679    238.51438  0.046009718  0.047276413            5 
  433000    1.0989743   -5.4480305    238.71154  0.045941405  0.047246649            5 
  434000    1.0918883    -5.462367    239.07979  0.045906258  0.047216057            2 
  435000    1.0807908    -5.425953    239.02262  0.045789773  0.047184568            3 
  436000    1.0849437   -5.4411295     239.3177   0.04574115  0.047153958            2 
  437000    1.0763143   -5.4152654    240.85525  0.045929681  0.047124093            8 
  438000    1.0868832   -5.4305998    241.02156  0.045856461  0.047094037            4 
  439000    1.0788996   -5.4472924    241.09871  0.045766649  0.047063171            7 
  440000    1.0787124   -5.4557114    240.98003  0.045640158  0.047032062            3 
  441000    1.0616361   -5.4613141     241.5275  0.045640116  0.047001302            3 
  442000    1.0923686   -5.4336852    242.60671   0.04574033  0.046970732            3 
  443000    1.0817022   -5.4526595     242.0201   0.04552673  0.046939894            3 
  444000    1.0546083   -5.4489144    242.40238  0.045495942  0.046908953            4 
  445000    1.0722409   -5.4245847    244.09189  0.045710091   0.04687762            3 
  446000    1.0617625   -5.4470904    242.93765  0.045391937  0.046846224            3 
  447000     1.095554   -5.4598686    243.42462  0.045381175  0.046814093            6 
  448000    1.0773067   -5.4420731    244.50457   0.04548076  0.046782052            4 
  449000    1.0916325   -5.4354361    245.19007  0.045506694  0.046751371            2 
  450000    1.0889278   -5.4649445    245.52944  0.045468415  0.046720262            3 
  451000    1.0758816   -5.4489458    245.30789  0.045326662  0.046689446            3 
  452000    1.0819189   -5.4798125    246.04095  0.045361532  0.046659769            3 
  453000    1.0818337   -5.4861651    246.52062  0.045349636  0.046629982            3 
  454000    1.0832834    -5.477862    247.57506  0.045443293  0.046599537            3 
  455000    1.0753112   -5.4517883     247.7472  0.045374945  0.046570275            3 
  456000    1.0744242   -5.4595042    248.19278  0.045356868  0.046541119            3 
  457000    1.0712473   -5.4706984    248.51439  0.045316264  0.046511531            2 
  458000    1.0828028   -5.4935412    248.66928  0.045245502  0.046482652            3 
  459000    1.0744274    -5.441647    249.43861  0.045286602  0.046453076            4 
  460000    1.0626798   -5.4475884    249.97048  0.045284507  0.046423352            2 
  461000    1.0817338   -5.4381918     250.9264  0.045359074   0.04639419            4 
  462000    1.0833883   -5.4169454    249.82391  0.045062033  0.046363768            1 
  463000    1.0737522   -5.4662538    250.73928   0.04512946  0.046332972            3 
  464000    1.0614323   -5.4924021    250.37911  0.044967513  0.046301847            4 
  465000    1.0848739   -5.4676521    251.80088  0.045125606  0.046270852            4 
  466000    1.0763923   -5.4648798    251.36962  0.044951649  0.046239319            5 
  467000    1.0912453   -5.4604913    251.67297  0.044909523  0.046207531            1 
  468000    1.0618438   -5.4649545    251.53792  0.044789516  0.046176567            4 
  469000    1.0654988   -5.5327618    250.54032  0.044516759  0.046143545            4 
  470000    1.0501188   -5.4624831    251.97918  0.044677159  0.046110077            3 
  471000    1.0601878   -5.4685064    252.12525  0.044608148  0.046077669            2 
  472000    1.0553741   -5.4695132    254.26625   0.04489164  0.046046366            6 
  473000    1.0457971   -5.4632113    255.22524  0.044965687   0.04601585            3 
  474000    1.0195387   -5.4482215    255.84553  0.044979875  0.045985577            2 
  475000    1.0385553   -5.5046924    254.98979  0.044735052  0.045956044            4 
  476000    1.0694749   -5.4337228     256.5933  0.044921796  0.045926622            1 
  477000     1.055603   -5.4371695    255.65661  0.044663978  0.045896193            2 
  478000    1.0625021   -5.4911527    255.50385  0.044543908  0.045865865            4 
  479000    1.0692941   -5.5080168    256.37189   0.04460193  0.045833569            2 
  480000    1.0666062   -5.4500083    257.76731  0.044751269  0.045802124           10 
  481000    1.0492346   -5.4669059    257.04036  0.044532287  0.045770829            2 
  482000    1.0675402   -5.5043964     256.8211  0.044401988  0.045739265            1 
  483000    1.0653515   -5.4934691    257.14865  0.044366572  0.045706832            5 
  484000    1.0597453   -5.5033793    257.50643  0.044336507  0.045674803            5 
  485000    1.0688094   -5.4729821    259.34521  0.044561033  0.045642848            3 
  486000    1.0825361   -5.4956784    258.76009  0.044369015  0.045611732            4 
  487000    1.0485127   -5.4928491     260.3062  0.044542472   0.04558038            3 
  488000    1.0584399   -5.4829902      259.959  0.044391906  0.045549422            4 
  489000    1.0420973    -5.511847    260.18978  0.044340453  0.045518954            1 
  490000    1.0479835   -5.4835622    260.99843  0.044387489  0.045487945            2 
  491000    1.0614526   -5.4755517    261.09042  0.044312699   0.04545734            1 
  492000    1.0680676   -5.5208385     261.4557  0.044284502  0.045426967            3 
  493000     1.072774   -5.4671543    261.88093  0.044266554  0.045396936            3 
  494000    1.0531135   -5.4925819    262.75573  0.044324516   0.04536632            4 
  495000    1.0778765   -5.4672795     263.8612  0.044421077   0.04533558            2 
  496000    1.0435368   -5.4796033    263.89945  0.044337945  0.045306514            3 
  497000      1.03093   -5.4929313    264.03496  0.044271455  0.045276275            3 
  498000    1.0577568   -5.5109264    263.74044  0.044133274  0.045245329            3 
  499000    1.0844856   -5.4690838    264.35982  0.044148267  0.045214196            4 
  500000    1.0563788   -5.4908625    264.03006   0.04400501  0.045182342            3 
  501000     1.040105   -5.4956174     264.5228  0.043999134  0.045149374            6 
  502000    1.0884599   -5.4766237    264.95654   0.04398349  0.045118692            2 
  503000    1.0427972   -5.5021635    266.24438  0.044109407  0.045088227            3 
  504000    1.0332081    -5.494794    266.50335  0.044064707  0.045057751            3 
  505000    1.0588459   -5.4907592    266.02231  0.043898072  0.045027172            4 
  506000    1.0423096   -5.4747258    267.41878  0.044041301  0.044997362            4 
  507000    1.0714899   -5.5150343    267.00617  0.043886616  0.044967487            6 
  508000    1.0611418   -5.4984035    267.44857  0.043872797  0.044937798            4 
  509000    1.0626222   -5.5524001    266.88264  0.043693949  0.044906739            3 
  510000    1.0431841   -5.5173261    268.46656  0.043867084   0.04487631            2 
  511000    1.0351004   -5.5069251    268.28569  0.043751744  0.044845109            5 
  512000     1.051745   -5.5138001    267.88005  0.043600268  0.044813601            3 
  513000    1.0650682   -5.5148624     267.5208   0.04345692  0.044782885            3 
  514000    1.0485681   -5.5132923     268.8526  0.043588294  0.044751205            3 
  515000    1.0663938   -5.4734784    270.09728  0.043705062  0.044720943            3 
  516000    1.0526356    -5.506327    269.69852  0.043555962  0.044690312            4 
  517000    1.0303527   -5.5546238    270.27187  0.043564131  0.044659015            9 
  518000    1.0302903   -5.5323739    270.93629   0.04358692  0.044627968            4 
  519000    1.0578535   -5.5170918    271.89149  0.043656308  0.044597796            4 
  520000    1.0307404   -5.5167819    270.71146  0.043383247   0.04456798            4 
  521000    1.0273073   -5.5207315    272.04524  0.043513314  0.044537406            2 
  522000    1.0579059   -5.4963258    271.91654  0.043409409  0.044506939            2 
  523000    1.0274284    -5.537128    271.90984  0.043325341  0.044476733            4 
  524000     1.035199   -5.5269764     273.9878  0.043573123  0.044447726            6 
  525000    1.0649281   -5.5292349    273.85142  0.043468479  0.044418291            4 
  526000    1.0322231   -5.5159022    274.53893  0.043494761  0.044388448            2 
  527000    1.0589361    -5.503967     275.5962  0.043579412  0.044359472            4 
  528000    1.0583718   -5.4956133    276.10232  0.043576755  0.044331591            5 
  529000    1.0311264   -5.5165589    276.25603  0.043518593  0.044303786            3 
  530000    1.0463858   -5.5431705    276.04824  0.043403811  0.044275422            9 
  531000    1.0447544   -5.5404758    277.12799  0.043491523  0.044246564            4 
  532000    1.0314362   -5.5154235    277.70741  0.043500534  0.044218269            2 
  533000    1.0512793   -5.5144428    277.69974  0.043417721  0.044191598            2 
  534000    1.0291738   -5.5111893    278.72385  0.043496231  0.044163241            2 
  535000    1.0462932   -5.5330297     278.1937  0.043332352  0.044134775            2 
  536000    1.0446469   -5.5525594    278.60618  0.043315637  0.044106997           14 
  537000    1.0308065   -5.4981058       279.41  0.043359714  0.044080374            8 
  538000    1.0513093   -5.5110704    279.68524  0.043321754  0.044053916            3 
  539000    1.0256306    -5.530102    280.28367  0.043333901  0.044027039            4 
  540000    1.0292538   -5.5193376     280.4865  0.043284953  0.044000368            3 
  541000     1.022325   -5.5381501    280.82593  0.043257229  0.043973966            4 
  542000    1.0170222   -5.5387418    280.86209  0.043182977  0.043946626            4 
  543000     1.027327    -5.555588    281.08183  0.043137175  0.043919483            3 
  544000    1.0443195   -5.5409404    282.23029  0.043233806  0.043893222            3 
  545000   0.99682115   -5.4931387    284.33351  0.043476072  0.043867553            3 
  546000    1.0243524   -5.5326127    283.31869  0.043241559  0.043841301            1 
  547000    1.0512424   -5.5097118    283.73964  0.043226635  0.043815675            3 
  548000    1.0471405   -5.5259348    284.49561  0.043262715  0.043790248            5 
  549000    1.0322733   -5.5293245    285.24641  0.043297876  0.043764572            4 
  550000    1.0254111   -5.5339746    285.33754   0.04323296   0.04373822            4 
  551000    1.0521908   -5.5506372    284.40269  0.043013111  0.043711994            5 
  552000    1.0389038    -5.525752    285.69882   0.04313086  0.043685939            3 
  553000    1.0286646   -5.5418607    285.80134  0.043068316  0.043660279            3 
  554000    1.0465812   -5.5325833    285.72059  0.042978428  0.043633986            2 
  555000    1.0357881   -5.5607491    286.46606  0.043012921  0.043606816            5 
  556000      1.03119   -5.5052187    286.08535    0.0428785  0.043579825            6 
  557000     1.042109   -5.5293425    287.02631  0.042942296   0.04355239            3 
  558000    1.0391123    -5.508823    287.58412  0.042948644  0.043525065            3 
  559000    1.0092268   -5.5206621     287.4571  0.042852877  0.043497963            3 
  560000    1.0218853   -5.5596317    287.22756  0.042742197  0.043470479            2 
  561000    1.0335588   -5.5474371    287.72669   0.04274015  0.043443014            3 
  562000    1.0231053   -5.5463043    287.45604  0.042623968  0.043415685            2 
  563000     1.047377   -5.5616882    287.96752  0.042623967   0.04338762            7 
  564000    1.0238001   -5.5666977    288.12032  0.042570969  0.043360102            2 
  565000    1.0528354   -5.5450895    288.87012  0.042606213  0.043333163            4 
  566000    1.0076221   -5.5292128    289.33955  0.042600052  0.043305989            3 
  567000    1.0146669   -5.5580548     288.9094  0.042461699  0.043278508            3 
  568000    1.0022424   -5.5158167    290.91261   0.04268084  0.043250981            4 
  569000    1.0092174   -5.5483318     289.7517  0.042435808  0.043223809            3 
  570000    1.0310943   -5.5152083    292.23076  0.042723795  0.043196401            4 
  571000    1.0089244   -5.5501564    291.38284  0.042525225  0.043169256            1 
  572000    1.0219104   -5.5471763    291.68374  0.042494717  0.043141146            5 
  573000    1.0065271     -5.56787    291.19714  0.042349787  0.043113398            5 
  574000    1.0113772   -5.5617739    292.13276   0.04241184  0.043085581            4 
  575000    1.0399728   -5.5718445    292.83418  0.042439736  0.043058198            5 
  576000    1.0125699   -5.5715029    293.63578  0.042482029  0.043030523           12 
  577000   0.98811431   -5.5629365    292.88527   0.04230001   0.04300284            7 
  578000     1.014612   -5.5433281    291.68907  0.042054364  0.042974768            4 
  579000    1.0262986     -5.52904    294.27584  0.042354035  0.042946956            5 
  580000     1.030488   -5.5310931    294.07194  0.042251716  0.042918918            6 
  581000    1.0261631   -5.5600176    294.92801   0.04230178  0.042891438            7 
  582000    1.0165268   -5.5421033    294.73615  0.042201625  0.042863604            4 
  583000    1.0381187   -5.5406436    295.36324  0.042218873  0.042836502            3 
  584000   0.99863715   -5.5787213    295.51188  0.042167792  0.042808929            3 
  585000    1.0229807   -5.5771787    295.57382  0.042104533  0.042781316            4 
  586000    1.0190216   -5.5815044     295.4604  0.042016554  0.042753746            3 
  587000    1.0221832   -5.5532882    296.51806  0.042095125  0.042725607            3 
  588000   0.99787883   -5.5929457    295.66422  0.041902525  0.042697977            2 
  589000    1.0410295   -5.5733173     295.9977  0.041878566  0.042669414            4 
  590000    1.0157786   -5.5399264    296.86335  0.041929852  0.042641434            4 
  591000    1.0184794   -5.5803375    296.62783  0.041825694  0.042613556            6 
  592000    1.0162972   -5.5515778    298.56773  0.042028116  0.042585677            4 
  593000    1.0153914   -5.5846253    297.22913   0.04176913  0.042557987            2 
  594000    1.0332328   -5.5827981    298.77183   0.04191524  0.042529837            3 
  595000    1.0135055   -5.5829296    299.61592  0.041963014   0.04250286            2 
  596000    1.0184419   -5.5670228     299.5409  0.041882117  0.042475767           11 
  597000     1.002017   -5.5446327    300.20531  0.041904706  0.042449023            4 
  598000    1.0025809   -5.5934181    300.21848  0.041836466  0.042422507            4 
  599000    1.0218591   -5.5909716    300.86028   0.04185591  0.042396236            2 
  600000    1.0214477   -5.5385278    302.43457  0.042004801   0.04237026            2 
  601000    1.0321271   -5.5719168    302.15287   0.04189585  0.042344801            5 
  602000    1.0129375    -5.551842    303.10952  0.041958682   0.04231995            4 
  603000    1.0236092   -5.5667942    303.19903  0.041901469  0.042295368            7 
  604000    1.0021162   -5.6032746    302.46972  0.041731473   0.04227043            3 
  605000   0.98416055   -5.5724703    302.65025  0.041687363  0.042245531            5 
  606000    1.0113789   -5.5799627    303.02655  0.041670317  0.042220492            4 
  607000     1.019782    -5.606662    305.19218  0.041898981  0.042195839            5 
  608000   0.99430565    -5.590128     305.6499  0.041892805  0.042171162            2 
  609000   0.99976369   -5.6124179    304.40301  0.041653395  0.042146713            5 
  610000    1.0012621   -5.6095062    305.38766  0.041719626  0.042121655            5 
  611000    1.0412278   -5.5213437    306.41917   0.04179203  0.042097763            3 
  612000   0.99679183    -5.570069    306.70194  0.041762247  0.042073765            9 
  613000   0.99705572   -5.6227097    306.00276   0.04159907  0.042048963            3 
  614000    1.0077461   -5.5707451    309.13762  0.041956789  0.042025507            3 
  615000    1.0138926   -5.6003788    306.97119  0.041595012  0.042001792            5 
  616000    1.0089358   -5.6140373    308.31168  0.041708831  0.041977318            8 
  617000    1.0006948   -5.5624663    308.91714  0.041723007  0.041953116            3 
  618000   0.99882879   -5.6305486    307.50205  0.041464678   0.04192838            6 
  619000    1.0066267   -5.6313669     308.8606  0.041580587  0.041903776            3 
  620000   0.98238175   -5.6112426    308.73897  0.041497174  0.041878914            4 
  621000    1.0034627   -5.6137853    308.12333  0.041347736   0.04185456            2 
  622000    1.0164074   -5.5864251    310.44998  0.041592977  0.041830476            2 
  623000    1.0006257   -5.5855703    310.55974  0.041540896  0.041806042            6 
  624000   0.99667777   -5.6200341    309.79968   0.04137282  0.041781841            9 
  625000   0.98953793   -5.6251763    310.16456  0.041355275  0.041756939            2 
  626000    1.0016317    -5.615864    310.37577  0.041317328  0.041731798            4 
  627000   0.99989784   -5.6010875    310.50444  0.041268533  0.041707626            5 
  628000   0.97842703   -5.5845479    311.95784   0.04139568  0.041682897            3 
  629000   0.98701071   -5.5950946    312.06892  0.041344585  0.041658698            3 
  630000   0.99040553   -5.6213938    312.38962  0.041321379  0.041634688            2 
  631000   0.98623557   -5.6022724    313.19789  0.041362637  0.041610914            3 
  632000    1.0297402   -5.5976983    312.70014  0.041231558  0.041587054            3 
  633000    1.0029553   -5.6085088     313.0206   0.04120861  0.041563076            3 
  634000   0.98068094   -5.6104604    313.56575  0.041215267  0.041538448            3 
  635000   0.99148855   -5.6331609    314.32347  0.041249799  0.041514257            5 
  636000   0.97946608   -5.6070693    315.48789  0.041337512  0.041491146            4 
  637000     1.017123   -5.5852585    315.80909  0.041314638  0.041468416            2 
  638000   0.99983022    -5.607876     316.4963  0.041339642  0.041445603            3 
  639000   0.99804109   -5.5997864    316.24799  0.041242565  0.041422938            6 
  640000    1.0097037   -5.6325761    316.64325   0.04122959  0.041400237            2 
  641000   0.99521499   -5.6345168     316.0979   0.04109437  0.041377238            3 
  642000   0.98942497   -5.5688844    317.50219  0.041212641  0.041354562            3 
  643000    1.0130755   -5.5939067     318.0631  0.041221241  0.041332105            3 
  644000   0.99176825   -5.6101711    318.00655  0.041149916  0.041309649            4 
  645000   0.99163302   -5.6225549    318.06043  0.041093079  0.041286692            7 
  646000    1.0018236   -5.6195991    318.43084   0.04107725  0.041263481            3 
  647000   0.99406092   -5.6175602    318.97958  0.041084438  0.041240444            2 
  648000    1.0123038   -5.6436383    319.00684  0.041024542  0.041217589            5 
  649000    1.0099125   -5.6376948    319.01766   0.04096272   0.04119415            2 
  650000   0.99842091   -5.6054418    320.36662  0.041072644  0.041171274            4 
  651000   0.98752438   -5.5834874    320.58595  0.041037629  0.041148341            4 
  652000   0.99672615   -5.6409443    320.54729  0.040969746  0.041125783            3 
  653000   0.98942562   -5.6316618     320.9037  0.040952488  0.041103005            6 
  654000   0.98925973   -5.6111248    320.84057  0.040881826  0.041080759            3 
  655000   0.99387341   -5.5996186    322.50935  0.041031724  0.041058048            2 
  656000   0.99579184   -5.6093693    322.46152  0.040963099  0.041035554            2 
  657000    1.0240232   -5.6474927    322.23627  0.040872181  0.041013122            4 
  658000   0.96046485   -5.6676801    321.71775  0.040744396  0.040990131            6 
  659000   0.98834951   -5.6057484    323.12126  0.040860048  0.040967636            4 
  660000   0.98931631   -5.6207446    324.06663  0.040917504  0.040945266            3 
  661000   0.99562191   -5.6615908    322.91145  0.040709966  0.040923213            5 
  662000   0.99800305   -5.6098167    325.02828  0.040914939   0.04090121            3 
  663000   0.99373513   -5.6442055    324.28878  0.040760279  0.040878489            3 
  664000    1.0033857   -5.5903304    324.62291  0.040740827  0.040856238            5 
  665000     1.007158   -5.6211204    325.30313  0.040764803  0.040834091            4 
  666000   0.97396407   -5.6676967    324.63439  0.040619918  0.040811395            3 
  667000   0.99425066   -5.6453124    325.35265  0.040648756  0.040788715            3 
  668000   0.98342727    -5.606543    327.17111  0.040814759  0.040766196            4 
  669000   0.97904446   -5.6404306    326.22512  0.040635914  0.040743761            6 
  670000   0.97298398   -5.6479775    326.02194  0.040549993  0.040721444            6 
  671000   0.96952046   -5.6143272    327.44267  0.040666005  0.040698944            8 
  672000   0.99125265    -5.657538    327.25625  0.040582372  0.040675936            3 
  673000   0.97856295   -5.6352085    327.73345   0.04058116  0.040652686            3 
  674000    0.9857009   -5.6842062    327.61053  0.040505753  0.040629736            3 
  675000   0.98060372   -5.6676124    326.73452  0.040337595  0.040606595            2 
  676000   0.99496708   -5.6265148    327.90342  0.040422019  0.040584077            3 
  677000    1.0056969   -5.6449995    328.11993  0.040388963  0.040561216            3 
  678000   0.98800415   -5.6679725    327.83165  0.040293959  0.040538441            6 
  679000   0.93424943   -5.6125649    329.22464  0.040405577  0.040515757            5 
  680000   0.99571964   -5.6528422    329.29817  0.040355167  0.040492581            3 
  681000   0.99266926   -5.6122863    329.94473  0.040375028  0.040469775            5 
  682000   0.96856485   -5.6433557    330.24846  0.040352939  0.040447516            4 
  683000   0.99957854   -5.6483027    331.04529   0.04039108  0.040425562            8 
  684000    0.9815736   -5.6506158    330.67815  0.040287299  0.040403049            3 
  685000   0.94918387   -5.6911629    329.89053  0.040132667  0.040380316            5 
  686000   0.97072062   -5.6050168    331.85407  0.040312691  0.040357148            3 
  687000   0.97228036    -5.667216    330.89738  0.040137965  0.040333906            6 
  688000   0.98737112   -5.6530048    330.46591  0.040027363  0.040310406            3 
  689000    1.0021034   -5.6392768    332.43432  0.040207344  0.040287023            2 
  690000   0.98753691   -5.6636569    332.18016  0.040118377  0.040263233            5 
  691000   0.97849881   -5.6667639    332.88378  0.040145173  0.040239719            2 
  692000    0.9823904   -5.6523773    332.51142  0.040042319  0.040216546            4 
  693000   0.98639713   -5.6548404    332.63581  0.039999496  0.040193798            2 
  694000   0.99933073   -5.6700736    334.44269  0.040158824  0.040170599            2 
  695000   0.98856429   -5.6459514    334.49561  0.040107388  0.040148302            4 
  696000   0.96243422   -5.6593556    334.41268  0.040039832  0.040125935            4 
  697000   0.99275779   -5.7024746    334.05381   0.03993948  0.040103984            5 
  698000    1.0028233   -5.6775041    335.20804  0.040020062  0.040081218            4 
  699000   0.97314757   -5.6567527    335.84542  0.040038796  0.040058786            7 
  700000   0.97496065   -5.6911721    334.32134  0.039800159  0.040036228            3 
  701000   0.96464648   -5.6411559    337.23951  0.040090289  0.040013803            6 
  702000   0.95974926    -5.642943    336.92523  0.039995872  0.039991623            2 
  703000    0.9643934   -5.6525303    338.36191  0.040109282  0.039969667            2 
  704000   0.97350399    -5.680488    336.05969  0.039779793  0.039947506            3 
  705000    0.9617279   -5.6661311    337.80829  0.039930057  0.039924718            3 
  706000   0.97182259   -5.6886063    337.12653  0.039793027  0.039901856            4 
  707000   0.97675051   -5.6530901    338.41586  0.039888715  0.039879704            2 
  708000   0.98691058   -5.6687063    339.42939   0.03995167  0.039858136            5 
  709000   0.98386079   -5.6563021    338.94807  0.039838748  0.039836548            2 
  710000   0.95600616   -5.6965913    337.40674   0.03960173  0.039814506            5 
  711000   0.97159984   -5.6874084    339.47478  0.039788418  0.039792188            7 
  712000   0.97046669   -5.6842074    339.26746   0.03970827  0.039770058            2 
  713000   0.97173715   -5.6830832    340.31424  0.039774923  0.039747706            3 
  714000   0.96150571   -5.7194567    340.48567  0.039739224  0.039725473            4 
  715000    0.9663024   -5.6761518     340.2015  0.039650524   0.03970329            5 
  716000   0.98700003   -5.6732247    341.17651  0.039708625  0.039681651            3 
  717000   0.95839722    -5.673218    341.56429  0.039698314  0.039659764            3 
  718000   0.95852371   -5.6995854    342.26568  0.039724429   0.03963795            2 
  719000   0.96374095    -5.712552    341.96585  0.039634428  0.039616145            5 
  720000    0.9552961   -5.6668269    342.22844  0.039609773  0.039594087            3 
  721000   0.97885844   -5.6976363     342.8756  0.039629635  0.039572435            6 
  722000   0.97551951   -5.6791399    341.93298  0.039465948  0.039551098            3 
  723000   0.97166545    -5.721678    342.94882  0.039528449  0.039529619            3 
  724000   0.94701369   -5.6887804    343.62103  0.039551224   0.03950823            3 
  725000   0.97202946   -5.6916309     344.1116  0.039553057  0.039486641            4 
  726000   0.96597502   -5.7181739    344.26769  0.039516493  0.039465314            4 
  727000   0.95992996   -5.7319702    343.31433  0.039352857  0.039443959            7 
  728000   0.95731117   -5.6545251    345.52656  0.039552033  0.039422816            2 
  729000    0.9615179   -5.6793012    345.00685  0.039438368  0.039401737            6 
  730000   0.95407059   -5.6779299    346.55544  0.039561123  0.039380577            3 
  731000   0.95521723   -5.6931934    345.47197   0.03938349  0.039358667            5 
  732000    0.9666416   -5.7057013    345.71918   0.03935783  0.039336939            2 
  733000   0.95042906   -5.7276939    345.73207  0.039305601   0.03931534            3 
  734000   0.97975762   -5.6673084    347.50757   0.03945363  0.039293926            3 
  735000   0.96957564   -5.6810666    348.10227  0.039467378  0.039273074            2 
  736000   0.92815198    -5.712679    346.68783  0.039253604  0.039252008            8 
  737000   0.94552255   -5.6947109    347.64231  0.039308266  0.039230805            3 
  738000   0.97431663   -5.6959943    347.86758   0.03928044  0.039209895            3 
  739000   0.98441642   -5.7053481    348.08965  0.039252329   0.03918881            6 
  740000   0.96409743   -5.6682287    348.22885  0.039214961  0.039167595            5 
  741000   0.95945192   -5.7017826    349.23904  0.039275646  0.039146736            3 
  742000   0.94927805   -5.6758897    349.48343   0.03925016  0.039126386            3 
  743000   0.97139118   -5.7294588    348.19791  0.039053153  0.039105387            6 
  744000   0.95081429   -5.7143746    349.97961  0.039200225  0.039083663            2 
  745000   0.96885077   -5.7221301     349.1252  0.039052036   0.03906189            4 
  746000   0.96521002   -5.7458855    349.01897  0.038987821  0.039040159            2 
  747000   0.95409881   -5.7203044     349.0694  0.038941254  0.039017725            4 
  748000   0.94119705   -5.6988639    350.16289  0.039011017  0.038995776            3 
  749000   0.93752377   -5.7010268    349.98063  0.038938655  0.038973864            4 
  750000   0.96462656   -5.7159719    349.37377  0.038819308  0.038951642            9 
  751000   0.95131063   -5.7434795    349.97823   0.03883469  0.038929353            8 
  752000    0.9516376   -5.7119696    350.90555  0.038885811  0.038906895            4 
  753000   0.94099904   -5.7095378    351.30823  0.038878733  0.038884502            5 
  754000   0.95920084    -5.725196    351.39985  0.038837296  0.038862654            5 
  755000   0.95314106   -5.7010759    352.00156   0.03885227  0.038840992            2 
  756000   0.94015139   -5.6995631      352.678  0.038875441  0.038819505            4 
  757000   0.95509746   -5.7183119    353.22587  0.038884398  0.038797923            3 
  758000   0.95131081   -5.7356602    353.46376  0.038859252  0.038776239            5 
  759000   0.95396088   -5.7045356    352.70402   0.03872464  0.038754125            3 
  760000   0.94510004   -5.7442289    352.37937  0.038638088  0.038731726            4 
  761000   0.94164346   -5.7025013    354.21235  0.038788037  0.038709715            5 
  762000   0.96261289   -5.6907769    353.39637  0.038647897  0.038687845            9 
  763000   0.95070965    -5.728636    353.62632  0.038622359   0.03866558            3 
  764000   0.93084895   -5.7086673    352.84893  0.038487013  0.038643501            7 
  765000   0.94636874   -5.7385666    354.22616  0.038586727  0.038621003            7 
  766000   0.93464974   -5.7302325    354.62155  0.038579368  0.038598365            3 
  767000    0.9564544   -5.7395046     353.9621  0.038457421  0.038576098            3 
  768000   0.93185697   -5.7457669    355.00418  0.038520419  0.038553618            4 
  769000   0.93487601   -5.7299035    354.66774  0.038433869   0.03853098            6 
  770000   0.93200974   -5.7533689     353.6338  0.038272056    0.0385081            5 
  771000    0.9517722   -5.7464044    355.37558  0.038410677  0.038485737            5 
  772000   0.95519444   -5.7452427     355.9178  0.038419452   0.03846323            3 
  773000   0.94017889    -5.704442    357.08493  0.038495573  0.038440928            5 
  774000   0.96508727   -5.7379141    356.47192  0.038379837  0.038418234           18 
  775000   0.94948155   -5.7239526    357.24321  0.038413248  0.038395722            8 
  776000   0.94049066   -5.7303833    356.68516  0.038303819   0.03837329            7 
  777000   0.96011692   -5.7357451    358.08537  0.038404694  0.038351161            3 
  778000   0.95352334   -5.7611983    357.43795  0.038285984  0.038328827            3 
  779000   0.95414199   -5.6920648    357.26125  0.038217934  0.038306312            7 
  780000   0.95264021   -5.7289247    357.28494  0.038171468  0.038283519            5 
  781000   0.95767164   -5.7309295    358.22068  0.038222437  0.038260506            3 
  782000   0.92631885   -5.7235599    357.92124  0.038141649  0.038237673            5 
  783000   0.95211578   -5.7370187    357.64613  0.038063658   0.03821468            6 
  784000   0.93350739   -5.7529038    357.16564  0.037964035  0.038191472            6 
  785000   0.94511908   -5.7352139    358.16123  0.038021362  0.038168637            3 
  786000   0.94669131   -5.7586046    358.45787  0.038004439  0.038145646            5 
  787000   0.93107384   -5.7309476    359.98845  0.038118218  0.038122835            4 
  788000   0.94846584   -5.7710755    358.79198  0.037943314  0.038099875            2 
  789000   0.93723809   -5.7415824    358.88693  0.037905252  0.038076892            4 
  790000    0.9324312   -5.7182743    361.00907  0.038081126  0.038054094            6 
  791000   0.92585389   -5.7633144     360.8656  0.038017868  0.038030865            7 
  792000   0.95060605   -5.7620698    359.60957  0.037837708   0.03800773            4 
  793000    0.9265067   -5.7596877    360.22426  0.037854588  0.037984346            2 
  794000   0.96475149    -5.761088    361.02077  0.037890509  0.037961736           11 
  795000    0.9385489   -5.7635562    360.56713  0.037795297  0.037938869            5 
  796000   0.92376835   -5.7611339    361.15884  0.037809762  0.037916016            4 
  797000   0.90960764   -5.7532338    362.22784  0.037874094  0.037893219            4 
  798000   0.93263789    -5.728572    363.04704   0.03791218   0.03787075            4 
  799000   0.90992497   -5.7606111    361.95733  0.037751077  0.037848266            3 
  800000   0.91286735   -5.7444956    362.75479  0.037786957  0.037825793            7 
  801000   0.93831823   -5.7960601    362.46539  0.037709675  0.037803102            6 
  802000    0.9341876   -5.7737624    362.23691  0.037638914  0.037780163            4 
  803000   0.94782851   -5.7549235    362.30996  0.037599622  0.037757232            3 
  804000   0.93444536   -5.7795663    363.58318  0.037684824  0.037734399            3 
  805000   0.91329673   -5.7760976    363.34826  0.037613691   0.03771146           10 
  806000   0.92913139   -5.7587219    364.09433  0.037644161  0.037688683            7 
  807000   0.93895083   -5.7699812    365.01914  0.037693013  0.037666133            6 
  808000   0.92898588   -5.7643485     364.4854  0.037591316   0.03764374            3 
  809000   0.91603242    -5.787789     363.3992  0.037432962  0.037621041            2 
  810000   0.94198192   -5.7624042    365.56805  0.037609881  0.037598562            4 
  811000   0.91357154   -5.7823217     364.4885  0.037452579  0.037576134            5 
  812000     0.918185   -5.7216509    366.15301  0.037577279  0.037553498            5 
  813000    0.9276615    -5.746071     366.0287  0.037518317  0.037531075            3 
  814000   0.93325358   -5.7561733    367.11615  0.037583554  0.037509001            5 
  815000   0.93361664   -5.7545003    366.08894  0.037432407  0.037486803            3 
  816000    0.9174067   -5.8020698    365.31151   0.03730714  0.037463772            2 
  817000   0.93867237   -5.7561001    366.76035  0.037409257  0.037441161            3 
  818000   0.95868036    -5.793957    367.00023  0.037387961  0.037418434            3 
  819000   0.90925398   -5.8004099    366.28962  0.037270006  0.037395943            6 
  820000   0.92342512    -5.767273    367.78144  0.037376163  0.037373478            5 
  821000   0.93845183   -5.7327764    368.41849  0.037395299   0.03735139            7 
  822000   0.91917154   -5.8013063     367.9746  0.037304806  0.037329373            3 
  823000   0.92234848   -5.7649525    367.15444  0.037176432  0.037307107            5 
  824000   0.94171218   -5.7803406    369.29731  0.037348029  0.037285045            2 
  825000   0.92434042   -5.8001563    368.94244  0.037266913  0.037262703            5 
  826000   0.91938656   -5.8020404    367.44324  0.037070545  0.037240347            4 
  827000    0.9103944   -5.8000267    369.29163  0.037211974  0.037217934            5 
  828000   0.91044074   -5.7570564    369.24434  0.037162273  0.037195683            4 
  829000   0.92267263   -5.7974042    368.67383  0.037060095  0.037173021            3 
  830000   0.93474145   -5.7732834    370.03647  0.037152256  0.037150767            4 
  831000   0.92611643   -5.7754106    370.11667   0.03711559  0.037128485            7 
  832000   0.91295402   -5.7565779    371.71738  0.037231308  0.037106161            8 
  833000   0.91718077   -5.8007278    371.61306  0.037176177  0.037084082            5 
  834000   0.90634069   -5.7960581    371.68784  0.037139073  0.037062151            4 
  835000    0.9228725   -5.8170002    371.16456  0.037042371  0.037040097            3 
  836000   0.92882488   -5.8099145    371.93654  0.037075014  0.037018311            4 
  837000   0.92118299   -5.7597973    372.48972  0.037085795   0.03699636            5 
  838000   0.92058879   -5.7639885    373.18998  0.037111176  0.036974666            6 
  839000   0.90944874   -5.7709636    373.15461  0.037063429  0.036953143            4 
  840000   0.92944208   -5.8103841    373.09765  0.037013656  0.036931612            2 
  841000   0.91427056   -5.7863346    373.19847  0.036979634  0.036909738            3 
  842000   0.93616345   -5.7898735    373.41939   0.03695758  0.036888224            4 
  843000   0.91654961   -5.8381582     374.0505  0.036976127  0.036866165            4 
  844000   0.89090895   -5.7655522    374.53075  0.036979735  0.036844546            7 
  845000   0.93370439   -5.7565303    374.62091  0.036944863  0.036822934            3 
  846000   0.91230444   -5.8033881    374.85721  0.036924469   0.03680141            2 
  847000   0.90415264   -5.8200776    373.44088  0.036741527  0.036779394            3 
  848000   0.90839064   -5.7534509    376.07287  0.036956847  0.036757902            3 
  849000   0.92349506   -5.7834419    375.32969   0.03684037  0.036736564            6 
  850000   0.90138777   -5.8046314    375.10861  0.036775354  0.036714673            3 
  851000   0.90603162   -5.8148038    375.40053  0.036760726  0.036692763            4 
  852000   0.91183607   -5.7567967    376.27766  0.036803371  0.036671434            3 
  853000   0.91848024   -5.7693586    375.07387  0.036642621  0.036649896            5 
  854000   0.91535362   -5.8238132    376.31492  0.036720816  0.036628119            6 
  855000   0.93139439   -5.8039953    376.16034  0.036662801  0.036606295            6 
  856000    0.9070612    -5.790417    376.47838  0.036650932  0.036584397            4 
  857000   0.90578793    -5.819098    376.16273  0.036577473  0.036562595            4 
  858000   0.89836544   -5.7767532    379.37625  0.036846955  0.036540908            3 
  859000   0.91210225   -5.8057022    379.44921  0.036811137  0.036519676            3 
  860000   0.91902798    -5.809512     377.7809  0.036606676  0.036498044            4 
  861000   0.91249607   -5.8411805    376.32346  0.036423099  0.036475964            8 
  862000    0.8918328   -5.8004094    378.92796  0.036632633  0.036454254            6 
  863000   0.93146856    -5.838657    377.71943  0.036473487  0.036432666            5 
  864000   0.92783875   -5.8300229     377.2937   0.03639021  0.036410574            7 
  865000   0.90221487   -5.8486089    378.39302  0.036454048  0.036388939            6 
  866000   0.91758963   -5.8130654    379.02517  0.036472784  0.036367362            7 
  867000    0.9345439   -5.8228307    378.74259  0.036403556  0.036345829            4 
  868000   0.89152167   -5.8077196    380.55357  0.036535481  0.036324391            3 
  869000   0.91168001   -5.8379144    379.85151  0.036426114  0.036302579           14 
  870000   0.90820441   -5.8118991    378.70232  0.036274169  0.036280631            6 
  871000   0.92303724   -5.8057001    379.83702  0.036341084  0.036258793            8 
  872000   0.89914205   -5.8401026    380.15985  0.036330261  0.036236871            6 
  873000   0.90029442   -5.8402513    380.21273  0.036293693  0.036214907            6 
  874000   0.91044274   -5.8070743    381.31559  0.036357321  0.036193458            4 
  875000   0.91556573   -5.8359294    380.46462  0.036234725  0.036171832            6 
  876000   0.90812415   -5.8084522     381.7578  0.036316381  0.036150395            2 
  877000   0.91267725   -5.8516347    380.81644  0.036185523  0.036128525            5 
  878000   0.90601447   -5.8422615    380.20647  0.036086415  0.036106823            3 
  879000   0.91793014    -5.833606    381.62518  0.036179861  0.036084972            4 
  880000   0.93240473   -5.8196744    382.79391  0.036249423  0.036063504            3 
  881000   0.89488144    -5.826722     382.7502  0.036204143  0.036042178            4 
  882000   0.88839047   -5.8713842    381.83308  0.036076444  0.036020918            9 
  883000   0.90624106   -5.8140412    384.20686  0.036259613  0.035999668            4 
  884000   0.92402229   -5.8540258    383.07257  0.036111668  0.035978302            6 
  885000   0.89442473   -5.8136991    385.00643   0.03625296  0.035957156            3 
  886000   0.89475677   -5.8353379    384.85981  0.036198251  0.035936032            3 
  887000   0.90267126   -5.8176713    384.33085  0.036107746   0.03591517            6 
  888000    0.8955606   -5.8575622    384.14172  0.036049335  0.035894049            9 
  889000   0.91268794   -5.8355752    384.05922  0.036001052  0.035872412            8 
  890000   0.89617574   -5.8565853    383.51548  0.035909689   0.03585072           10 
  891000   0.91699194   -5.8274856    384.66435  0.035976838  0.035829119            7 
  892000   0.89625664   -5.8509058    383.59656  0.035836749   0.03580743            6 
  893000   0.90450887   -5.8323767     385.1628  0.035942778  0.035785683            4 
  894000   0.88741991   -5.8458296    384.54725  0.035845195  0.035763789            3 
  895000   0.89113212    -5.850567    385.91574  0.035932564   0.03574206            6 
  896000   0.90093517   -5.8512386    384.83455  0.035791904  0.035719814            5 
  897000   0.89244381   -5.8690824    384.14001  0.035687477  0.035697768            5 
  898000   0.89335208   -5.8470681    385.87515  0.035808756   0.03567583           15 
  899000   0.88950031   -5.8503675    385.59902  0.035743328  0.035653547            5 
  900000   0.88356723   -5.8381306    384.60336  0.035611422  0.035631276            2 
  901000   0.90971966   -5.8374744    385.71958  0.035675137  0.035608945            5 
  902000   0.90334277   -5.8350951    386.13843  0.035674282  0.035586644            3 
  903000   0.89500693   -5.8559822    386.07912  0.035629302  0.035564292            3 
  904000   0.88810873   -5.8575663    385.43305  0.035530332  0.035542228            7 
  905000   0.87423901   -5.8616143    386.99613  0.035635003  0.035520259            3 
  906000   0.89617224   -5.8698636    385.70656  0.035477057  0.035498407            7 
  907000   0.90231027   -5.8538565      387.022  0.035558802  0.035476341            3 
  908000   0.90893726   -5.8589681    386.24985  0.035448774  0.035454748            8 
  909000   0.88167366   -5.8550661    386.20453  0.035405623  0.035432903            6 
  910000   0.88621148   -5.8392794    388.91216  0.035614666  0.035411104            6 
  911000   0.89255736   -5.8421802    389.04587  0.035587804   0.03538973            3 
  912000   0.90044901   -5.8742377     388.5707  0.035505363  0.035368437            9 
  913000   0.90377483   -5.8744283    389.82175  0.035580664   0.03534706            6 
  914000   0.89438294   -5.8727847    387.46024  0.035326426  0.035325302           11 
  915000   0.89442618   -5.8567795    387.82435  0.035320979  0.035303636            2 
  916000   0.88064735    -5.870307    389.66245  0.035449641  0.035281946            5 
  917000   0.88048578   -5.8678721    389.15966  0.035365291  0.035260514            9 
  918000   0.89083103   -5.8715008    389.65803  0.035372007  0.035238825            8 
  919000   0.89149607   -5.8752088    389.25598   0.03529706  0.035217338            3 
  920000   0.86926752   -5.8719148    389.57156  0.035287279  0.035195822           10 
  921000   0.89370571   -5.8692457    389.32427  0.035226589  0.035174329            2 
  922000   0.88873766   -5.8855835    390.11553  0.035259899  0.035152606            4 
  923000   0.89645864   -5.8784985    390.03268  0.035214218  0.035131055           10 
  924000   0.87046433   -5.8751726    390.17326  0.035188786  0.035109449           16 
  925000   0.90203367   -5.8451635    391.14813   0.03523857  0.035087879            6 
  926000   0.88302949   -5.8881913    391.11572  0.035197599   0.03506642            7 
  927000   0.89058152   -5.8898754    390.89644  0.035139918  0.035045034            7 
  928000   0.86699855     -5.89179    391.99858  0.035201022   0.03502367            5 
  929000   0.86960885   -5.8449647    392.51908  0.035209821  0.035002805            5 
  930000   0.87206493   -5.9052195    392.16897  0.035140588  0.034982197            6 
  931000   0.89009361   -5.9053205    393.10908  0.035186993  0.034961259            4 
  932000   0.86486766   -5.8894226    393.22127  0.035159269  0.034940388            9 
  933000   0.88109047   -5.8746181    393.22464  0.035121886  0.034919337            4 
  934000   0.87861488   -5.8687201    393.33579  0.035094199  0.034898679           12 
  935000   0.87805722   -5.8969636    392.88765  0.035016724  0.034877864            5 
  936000   0.86270353   -5.8598327    394.53499  0.035125979  0.034857408            3 
  937000   0.88950284   -5.8548574    395.16745  0.035144739  0.034836893            6 
  938000    0.9090113   -5.8740303    394.50436  0.035048361  0.034816192            7 
  939000   0.86289089   -5.9030036    394.58331  0.035018043  0.034795481            4 
  940000   0.87549474   -5.8896878    394.10922  0.034938761  0.034774673            8 
  941000   0.87929524   -5.8843416    395.47928  0.035022961  0.034754244            3 
  942000   0.88608761   -5.8851359    395.76842   0.03501136  0.034734089            7 
  943000      0.85957    -5.867204    396.56173  0.035044338  0.034713805            5 
  944000   0.87033732   -5.8711984    396.03582  0.034960789  0.034693472            5 
  945000   0.87076367   -5.8908284    396.13572  0.034932603  0.034673011            3 
  946000   0.87935981   -5.8808022    395.49148  0.034838926  0.034652416            6 
  947000   0.87916122   -5.8933761    395.76074   0.03482583  0.034631896            5 
  948000   0.89290603   -5.8914749    396.29662  0.034836201   0.03461121            5 
  949000   0.87117606   -5.8778793    397.54127  0.034908787  0.034590737            9 
  950000    0.8796426   -5.8918476    397.99378  0.034911735   0.03457029            4 
  951000   0.86390795   -5.8676436    397.81101  0.034859009  0.034550035            2 
  952000   0.87117276   -5.8835103    397.69996  0.034812671  0.034529683            5 
  953000   0.88436522   -5.9130377    396.53814  0.034674549  0.034509241            6 
  954000   0.88105812   -5.8768575    398.72221  0.034828984  0.034488572            5 
  955000    0.8835106   -5.9117966    397.82367  0.034714108   0.03446807            3 
  956000   0.88493287   -5.9023393    398.08527  0.034700599  0.034447294            3 
  957000   0.88840149   -5.8976901    397.94961  0.034652526    0.0344268            7 
  958000   0.85872313   -5.9351528    398.39906  0.034655451  0.034406279            4 
  959000   0.86259139   -5.9100795    398.98714  0.034670416  0.034385534            8 
  960000   0.85759385   -5.8863544    399.42096  0.034671958  0.034365123            4 
  961000   0.86246814   -5.9159191    398.47329  0.034553702  0.034344612            5 
  962000   0.87526831   -5.8978979    398.21687  0.034495571  0.034323743            7 
  963000   0.87945042   -5.9462324    397.89706  0.034432075  0.034303114            3 
  964000   0.86901943   -5.8714786    399.50356  0.034535232  0.034282347            5 
  965000   0.86588213   -5.8875716    399.94404  0.034537482  0.034261844            6 
  966000   0.87180652   -5.9492346    400.05471  0.034511276  0.034241157            5 
  967000   0.86626464   -5.9364901    399.22669  0.034404231  0.034220046            8 
  968000   0.86336383   -5.9402181    398.29413  0.034288407  0.034198981            6 
  969000    0.8836996   -5.8914847    399.02887  0.034316208  0.034177962            8 
  970000   0.87330454   -5.9181057    399.81819  0.034348641  0.034156575            6 
  971000   0.86629812   -5.9286973    399.83862  0.034315021  0.034135465            6 
  972000    0.8573652   -5.9124134    400.04116  0.034297081  0.034114353            3 
  973000   0.83536321   -5.9052587    401.90952   0.03442185  0.034093165            6 
  974000   0.89112716   -5.9386865    399.73356  0.034200338  0.034072091            6 
  975000   0.85039081   -5.9056676    400.58873  0.034238353  0.034051249            8 
  976000   0.86014164   -5.8831487    402.01062  0.034324677   0.03403054            6 
  977000   0.86488362   -5.9264609    401.88684  0.034278986  0.034009662            4 
  978000   0.84591638   -5.9175407    402.59343  0.034304143  0.033989147            5 
  979000   0.86656336   -5.9256771    402.29907  0.034244048  0.033968224            4 
  980000   0.86475462   -5.9131708    400.88265  0.034088661  0.033947465            6 
  981000   0.84721937   -5.9634992    402.37897   0.03418102  0.033926331            4 
  982000   0.87090298    -5.924539    402.46435  0.034153458  0.033905465            7 
  983000   0.84930837   -5.9366543    402.17033  0.034093788  0.033884549            6 
  984000   0.87101123   -5.9239733     403.6074  0.034180843  0.033863472            8 
  985000   0.85456749   -5.9310374    402.89323  0.034085721  0.033842573            4 
  986000   0.83602175    -5.914349    403.99319  0.034144117  0.033821801            3 
  987000   0.84441663   -5.9050499     403.8962  0.034101334   0.03380115            3 
  988000   0.88197367   -5.9437039     403.7267  0.034052522  0.033780706            7 
  989000   0.84881655    -5.908537    404.70738  0.034100723  0.033760147            2 
  990000   0.85579742   -5.9173639    403.71424   0.03398268  0.033739834            4 
  991000   0.85711681   -5.9141285    404.82436  0.034041739  0.033719565            5 
  992000   0.85618422   -5.9322691    404.29348  0.033962826  0.033698977            5 
  993000   0.85321351    -5.986255    404.03528  0.033906955  0.033678244            8 
  994000   0.87897588   -5.9282483    403.99246  0.033869254  0.033657305            4 
  995000   0.84964495   -5.9190004    403.87826   0.03382565  0.033636389            4 
  996000   0.87068161   -5.9446504    404.24691  0.033822533  0.033615514            6 
  997000   0.85055761    -5.929653    405.41308  0.033886081   0.03359456            9 
  998000   0.85050472   -5.9370177    405.21867  0.033835894  0.033573468            5 
  999000   0.85598472   -5.9307661    405.49826  0.033825347  0.033552493            5 
 1000000   0.84539719   -5.9536451    405.77694  0.033814745  0.033531498            8 
 1001000   0.85532033   -5.9448698    405.66532  0.033771672  0.033510766            9 
 1002000   0.86492112   -5.9469352    405.60467  0.033732923  0.033489778            6 
 1003000   0.85438875   -5.9665373    406.05937  0.033737069   0.03346881            4 
 1004000   0.84727158    -5.960975    406.41239  0.033732768  0.033448284            4 
 1005000   0.85834939   -5.9653306     405.7792    0.0336467  0.033427516           14 
 1006000   0.83142052   -5.9355375    407.25332  0.033735365  0.033406709            3 
 1007000   0.84815524   -5.9395346     407.3901  0.033713182   0.03338607            5 
 1008000   0.87363363    -5.933803    407.64889  0.033701132  0.033365608            4 
 1009000   0.86061673   -5.9739142    407.49777   0.03365525  0.033345254           11 
 1010000   0.84896239   -5.9602402    406.33815   0.03352625  0.033324506            6 
 1011000   0.84703195   -5.9594067    408.44597  0.033666829  0.033303878            7 
 1012000   0.83826324   -5.9423897    407.80886  0.033581098  0.033283339            4 
 1013000   0.84210196   -5.9633327    408.00497  0.033564081  0.033263035           12 
 1014000   0.82633328   -5.9294591    408.81572   0.03359761  0.033242754            4 
 1015000   0.85906529   -5.9498839    408.42503  0.033532432  0.033222425            3 
 1016000   0.84893718   -5.9482099    409.27534  0.033569172  0.033202159            3 
 1017000   0.83983362   -5.9452868    409.78933   0.03357828   0.03318202           10 
 1018000   0.84923285   -5.9522243    408.87715  0.033470624  0.033161674            8 
 1019000   0.85359078   -5.9663573    408.87045   0.03343723  0.033141271            5 
 1020000    0.8288387   -5.9613864    409.31338  0.033440635  0.033120953            8 
 1021000   0.84218258   -5.9196828    410.01043  0.033464775  0.033100682           12 
 1022000   0.84270348   -5.9467505    410.74104  0.033491605  0.033080499            4 
 1023000   0.85261656   -5.9590974    410.64202    0.0334508   0.03306034           12 
 1024000   0.83747891   -6.0093408     409.2036  0.033301074   0.03303993            8 
 1025000   0.84068951   -5.9733257    410.23159  0.033352162  0.033019629           11 
 1026000   0.83669108   -5.9735272    410.49266  0.033340859  0.032999199            9 
 1027000   0.85478917   -5.9959025    409.98314  0.033267051  0.032978606            6 
 1028000   0.84065789   -5.9862267    410.74345  0.033296324  0.032958244            4 
 1029000   0.84314204   -5.9688151    410.53025    0.0332467  0.032937986            6 
 1030000   0.84966766   -5.9790737    411.60274  0.033301192  0.032917924            3 
 1031000   0.85811967   -5.9469145    412.32449   0.03332723   0.03289795           10 
 1032000   0.83577474    -5.956813    411.52579  0.033230441  0.032877985           11 
 1033000   0.82991716   -5.9868384    412.60704  0.033285498  0.032858037            4 
 1034000   0.84875936   -5.9979676    412.21418  0.033221645  0.032837974            6 
 1035000   0.85287498   -5.9735938    412.14504   0.03318398   0.03281819            7 
 1036000   0.83085918   -5.9866803    412.01455  0.033141454  0.032798383            6 
 1037000   0.84913199   -5.9626803    411.92793  0.033102534  0.032778271            8 
 1038000   0.83173889   -5.9875852    413.23648  0.033175697  0.032758453           11 
 1039000   0.84246449    -5.974062     412.4656  0.033081937  0.032738396           15 
 1040000   0.86069072    -5.982606    412.75939  0.033073669  0.032718311            7 
 1041000   0.83623848   -5.9904584    413.27884  0.033083481  0.032698007            6 
 1042000   0.82361155   -5.9837677    412.22519  0.032967465  0.032677806            5 
 1043000   0.85962183   -5.9815526    412.62851  0.032968081  0.032657708            4 
 1044000    0.8376036   -5.9648031    413.83254   0.03303261  0.032637756            7 
 1045000   0.84280934   -5.9731623    413.50244  0.032974676   0.03261781            6 
 1046000    0.8438527   -5.9537284     413.5499  0.032946933    0.0325978            4 
 1047000   0.84204943   -5.9856486    413.77574   0.03293344  0.032577691            9 
 1048000   0.82856901   -6.0000278    413.02114  0.032842012  0.032557526            5 
 1049000    0.8237363   -6.0058831    413.54723  0.032852497  0.032537396            7 
 1050000   0.83927908   -5.9737389    414.11699  0.032866427  0.032516958            6 
 1051000   0.85063903   -5.9837906    413.71382  0.032803189  0.032496912            5 
 1052000   0.85435729   -5.9989653    414.23235  0.032813082  0.032476665            9 
 1053000   0.84416222   -5.9948067    414.66304  0.032816005  0.032456287            6 
 1054000   0.83627949   -6.0111611    413.91848  0.032726003  0.032436281            4 
 1055000   0.83141561    -6.013871    414.38348  0.032731713   0.03241588            8 
 1056000    0.8452534   -5.9960851    415.94442  0.032823896   0.03239553            7 
 1057000   0.83861297   -6.0386504    413.53984  0.032603267  0.032375274            6 
 1058000   0.83222212   -6.0102784    413.62058  0.032578811  0.032354751            4 
 1059000   0.83951094   -6.0023364    414.86622  0.032646067  0.032334371           11 
 1060000   0.85298095   -6.0006097    415.50407  0.032665414  0.032314045           12 
 1061000    0.8264837   -5.9820938    415.21148  0.032611646  0.032293629            7 
 1062000   0.84948619   -5.9859745    414.54159  0.032528373  0.032273128            4 
 1063000   0.81894837   -6.0067247    415.38194  0.032563651  0.032252824           10 
 1064000    0.8186495    -6.013094    415.24277  0.032522147  0.032232363            9 
 1065000    0.8164745   -6.0138014    416.29956    0.0325743  0.032211924            6 
 1066000     0.812412   -6.0377939    416.48391  0.032558154  0.032191764           10 
 1067000   0.82479608   -5.9895503    416.31098  0.032514134  0.032171577           10 
 1068000   0.82984266   -6.0047411    416.99568  0.032537116  0.032151486            4 
 1069000   0.81754115   -5.9980438    416.49062  0.032467308  0.032131231            4 
 1070000   0.84157302   -6.0028534    417.50035  0.032515603  0.032111002            3 
 1071000   0.81850484   -6.0108456    416.07936  0.032374678  0.032090884            8 
 1072000   0.80633142   -6.0239538    416.43103  0.032371815  0.032070917            9 
 1073000   0.83423112    -6.002638    416.28101  0.032329994  0.032050739            7 
 1074000   0.82851686   -6.0195841    417.67564  0.032408104  0.032030646           11 
 1075000   0.81655396   -6.0121116    418.00161  0.032403226  0.032010504            6 
 1076000   0.83556545   -6.0224241    417.44567  0.032330055  0.031990134            6 
 1077000    0.8388573   -6.0240916    418.58667  0.032388321  0.031969779            4 
 1078000   0.82729378   -6.0252842    417.30923  0.032259526  0.031949461            8 
 1079000   0.81568773   -5.9860131    418.05247   0.03228703  0.031929255            3 
 1080000   0.83015848   -6.0305522    417.59829   0.03222209  0.031909014            9 
 1081000   0.82859554   -6.0263589    417.87473  0.032213593  0.031888584            8 
 1082000   0.81951552   -6.0395629    417.78895  0.032177215  0.031868244           10 
 1083000   0.82374097    -6.022649    419.04362  0.032244046  0.031847845            5 
 1084000   0.79775983   -6.0445268    416.84106  0.032044977  0.031827446            4 
 1085000   0.82268419   -6.0192788    418.01469  0.032105583  0.031807006            5 
 1086000   0.81140319   -6.0377194    417.49961  0.032036496  0.031786624            5 
 1087000   0.81828777   -6.0152242    418.48022    0.0320822  0.031766241            3 
 1088000   0.81738361    -6.007828    419.17994  0.032106307  0.031746121            9 
 1089000   0.80673109   -6.0292993    419.49617  0.032101023   0.03172597           13 
 1090000   0.81598585   -6.0283618    419.12393  0.032043114  0.031705901           13 
 1091000   0.81938575   -6.0466625    418.19307  0.031942642   0.03168574            6 
 1092000   0.81664094   -6.0311062     419.1488  0.031986325  0.031665386           16 
 1093000   0.82074135   -6.0675698    417.66483  0.031843918  0.031644982            7 
 1094000   0.81713411   -6.0588414    417.87478  0.031830803  0.031624565            5 
 1095000   0.81281766   -6.0604262    417.63969  0.031783843  0.031604056           12 
 1096000   0.81055745    -6.054154    418.50657  0.031820755  0.031583611            7 
 1097000    0.8065237   -6.0384784    420.32333  0.031929757  0.031563259           13 
 1098000   0.82779781   -6.0391408    418.53823  0.031765197  0.031542927            5 
 1099000   0.81663869   -6.0536452    419.61269  0.031817766  0.031522724            8 
 1100000   0.80828337   -6.0254738    420.31015  0.031841678  0.031502696            5 
 1101000    0.8266531   -6.0479328    420.72951  0.031844498  0.031482424           12 
 1102000   0.80444545   -6.0418282    420.60492  0.031806179   0.03146225            7 
 1103000   0.81588246   -6.0614301    420.81681  0.031793352  0.031441983            6 
 1104000   0.80339359   -6.0461025    420.46194  0.031737767  0.031421727            6 
 1105000   0.79637153   -6.0813286    418.91886  0.031592674  0.031401441            6 
 1106000   0.81448157   -6.0012852    422.45195  0.031830315  0.031381291            7 
 1107000   0.80553638   -6.0508039    421.58022   0.03173594  0.031361373            7 
 1108000   0.80453934   -6.0167715    422.36111  0.031766028  0.031341367            4 
 1109000   0.81276584   -6.0672802    420.53782  0.031600378  0.031321208           13 
 1110000   0.82892044   -6.0469599    421.69908   0.03165909  0.031301166            7 
 1111000   0.81415412    -6.059546    421.59325  0.031622656  0.031281177           11 
 1112000   0.81866078   -6.0393783    422.33202  0.031649582  0.031261286            8 
 1113000    0.8104545   -6.0303383    421.22251  0.031538073  0.031241284            6 
 1114000   0.79829647   -6.0427754    422.28262  0.031589065  0.031221358            6 
 1115000   0.80286938   -6.1086772    421.04142  0.031467968  0.031201266            8 
 1116000   0.82235539   -6.0294803    424.18254  0.031674323  0.031181318            7 
 1117000   0.80566825   -6.0428709    423.62241  0.031604179  0.031161576            4 
 1118000   0.80322775   -6.0525014    423.19453  0.031544017  0.031141888           13 
 1119000   0.79735244   -6.0699994     422.4688  0.031461782  0.031122147            7 
 1120000   0.81744232   -6.0602118    423.18701  0.031487129  0.031102424            4 
 1121000    0.8139468   -6.0694084    422.67588  0.031421044   0.03108265            7 
 1122000   0.80325477   -6.0466113    423.87929  0.031482419  0.031062884            8 
 1123000   0.78955926   -6.0593651    423.84462  0.031451812  0.031043221            9 
 1124000   0.80443977   -6.0426548    424.05925  0.031439743   0.03102351            4 
 1125000   0.81545945   -6.0630323    423.61142  0.031378624  0.031004003           10 
 1126000   0.80232523   -6.0867725    424.46199  0.031413706  0.030984248            7 
 1127000   0.79680407   -6.1088357    423.15563  0.031289236  0.030964484           10 
 1128000   0.81124704   -6.0574687    425.94566  0.031467617  0.030944713            8 
 1129000   0.79727773   -6.0545477    424.62767  0.031342462  0.030925125            6 
 1130000   0.78379047   -6.0602309    424.50121  0.031305399  0.030905263            6 
 1131000   0.79572384   -6.0601158    425.93529  0.031383384  0.030885892           12 
 1132000   0.80253787   -6.0720271    425.26498  0.031306314  0.030866199            9 
 1133000    0.8024451   -6.0712426    425.07798   0.03126493  0.030846609            6 
 1134000   0.79418651   -6.0727972    426.30267  0.031327357  0.030827042            7 
 1135000   0.78437885    -6.066936    426.16441  0.031289604  0.030807438            7 
 1136000   0.80752482   -6.0532439    425.95375  0.031246607  0.030787865           10 
 1137000   0.82210677   -6.0700187    426.48255  0.031257883  0.030768359            7 
 1138000   0.80584998   -6.0955369    425.26743  0.031141435  0.030748691            8 
 1139000   0.80603913   -6.0614979     425.4599  0.031128175  0.030728923            6 
 1140000   0.78999911   -6.0928217    425.66927  0.031116175  0.030709185           11 
 1141000   0.80302601    -6.079968    425.89731  0.031105558  0.030689585           13 
 1142000   0.81198118   -6.0526668    425.59412  0.031056197  0.030669901           14 
 1143000   0.79003955   -6.0890688    426.74898  0.031113224  0.030650244            9 
 1144000   0.79741132   -6.0762551    425.79709  0.031016688  0.030630474            8 
 1145000   0.80449205   -6.0653243    426.67638  0.031053594  0.030610835            9 
 1146000   0.80175401   -6.0665908    427.61481  0.031094736  0.030591197            6 
 1147000   0.79780393   -6.1043676     425.6078  0.030921811  0.030571452            4 
 1148000    0.8054989   -6.1098623    425.03916  0.030853598  0.030551354            3 
 1149000   0.78908355   -6.1140948    425.30211  0.030845816  0.030531393            7 
 1150000   0.80129583   -6.1033961    427.35067   0.03096744  0.030511472           11 
 1151000   0.79825372   -6.1122519    425.82349  0.030829966  0.030491579            8 
 1152000    0.7937739   -6.1140889    426.84471  0.030877077  0.030471626            7 
 1153000   0.78943255   -6.0950133    427.17145  0.030873912   0.03045188           23 
 1154000   0.78668503   -6.0643411    427.09017  0.030841289  0.030432233           11 
 1155000   0.81023788   -6.1023596    427.46187  0.030841405  0.030412561            9 
 1156000   0.78182744   -6.0985219     426.4451  0.030741429  0.030392795            9 
 1157000   0.78676597   -6.0913077    427.36141  0.030780857  0.030373166            9 
 1158000    0.7928782   -6.0834195     427.5382  0.030766998  0.030353515            7 
 1159000   0.78317257    -6.092863    426.65531  0.030676971  0.030333795           13 
 1160000   0.79075242   -6.0940834    427.65721  0.030722501  0.030314197            6 
 1161000   0.81061384   -6.0710057    428.77718  0.030776427  0.030294742            7 
 1162000   0.78843694   -6.0961254    427.75362  0.030676536  0.030275431           18 
 1163000   0.78816123   -6.0931712    428.63781  0.030713515  0.030255959           11 
 1164000   0.79289649   -6.1135664      426.766  0.030553121  0.030236335            6 
 1165000   0.79199922   -6.1359415    428.12673   0.03062423  0.030216759            7 
 1166000   0.79164125   -6.1102326    427.78341  0.030573428  0.030196814            6 
 1167000   0.78703064   -6.1237543     428.0192  0.030564067  0.030177103            8 
 1168000   0.78028165   -6.1216575    428.36863   0.03056283  0.030157197            4 
 1169000   0.78142519   -6.1268501    428.25077  0.030528284  0.030137173           10 
 1170000   0.79081427   -6.1173091    429.38436  0.030582932  0.030117373            8 
 1171000   0.79711709   -6.0896918    429.43704  0.030560563  0.030097664            9 
 1172000   0.79562209   -6.1280637     428.8482  0.030492619   0.03007805            6 
 1173000   0.78459184   -6.1581512    427.75885  0.030389233  0.030058142           14 
 1174000   0.77550998   -6.1322196    429.42529  0.030481636  0.030038501           17 
 1175000   0.75927122   -6.0948196    429.14186  0.030435593  0.030018904            6 
 1176000   0.77268791   -6.1323138    430.06134  0.030474868  0.029999301            5 
 1177000   0.81205217   -6.1403033    429.64031  0.030419167  0.029979854           10 
 1178000     0.800369   -6.1036452    430.74972  0.030471825  0.029960299           12 
 1179000    0.8008715   -6.1249499    430.20637  0.030407575  0.029940656            6 
 1180000   0.77460792   -6.1451488     429.1394  0.030306455  0.029921003            7 
 1181000   0.78400935   -6.1398636    429.06812  0.030275763   0.02990147           15 
 1182000   0.78324356   -6.1076193    431.35212  0.030411176  0.029881932            7 
 1183000   0.76532625   -6.1211438    430.17424  0.030302497  0.029862437           15 
 1184000   0.79036786   -6.1367492    429.84553  0.030253767  0.029843083            6 
 1185000   0.78319981   -6.1081044    429.41315  0.030197831  0.029823584           10 
 1186000   0.78059661   -6.0960546    430.29572  0.030234381  0.029804125            4 
 1187000   0.78940039   -6.1182612    431.69486  0.030307137  0.029784912            5 
 1188000   0.80098389   -6.1100193    430.37564  0.030189088  0.029765734           11 
 1189000    0.7818603   -6.1229249     430.6102  0.030180137  0.029746265           11 
 1190000    0.7827847   -6.1300246    429.98273  0.030110836   0.02972656            7 
 1191000   0.78339506   -6.1373755    431.17232  0.030168788  0.029707024            8 
 1192000   0.78845253   -6.1060488    432.18104  0.030213999  0.029687708           10 
 1193000   0.78662658   -6.1202585    431.74443  0.030158175  0.029668351            9 
 1194000   0.78726389   -6.1140454     432.5107  0.030186397  0.029648965            4 
 1195000   0.77176257   -6.1419762    431.17468  0.030067969  0.029629679            9 
 1196000   0.76756469   -6.1602344    431.49666  0.030065264  0.029610216            5 
 1197000   0.78037777   -6.1133028    432.74262  0.030126888  0.029591032            9 
 1198000   0.76026982   -6.1451462    432.20286  0.030064194  0.029571933            6 
 1199000   0.78023628   -6.1114403    432.04745  0.030028318  0.029552641           13 
 1200000   0.76398998   -6.1403567    430.97861   0.02992907  0.029533143            8 
 1201000   0.77866049   -6.1132636    432.06106  0.029979257  0.029513591            9 
 1202000   0.77801328   -6.1382757    432.52682  0.029986607  0.029494322            8 
 1203000   0.78544535   -6.1699319    431.55589  0.029894423  0.029475125            5 
 1204000   0.76634299   -6.1597868    432.27311  0.029919235  0.029455741            6 
 1205000   0.78167119   -6.1617147     431.2772  0.029825533   0.02943652            7 
 1206000   0.78031287   -6.1497106    432.30163  0.029871588  0.029417322            6 
 1207000   0.76330703   -6.1469082    433.35299  0.029919427  0.029398111           10 
 1208000   0.77398327   -6.1714619    432.46185  0.029833185  0.029378922            4 
 1209000   0.75778185   -6.1615211    433.21989  0.029860759  0.029359763           26 
 1210000   0.77562284   -6.1517471    433.55502  0.029859161  0.029340501           11 
 1211000   0.76853928   -6.1368298    433.09313   0.02980272  0.029321208            9 
 1212000    0.7896333    -6.153499    433.10699  0.029779083   0.02930186            9 
 1213000   0.78020178   -6.1510376    431.46961  0.029642045  0.029282469           12 
 1214000   0.77172139   -6.1491358     432.1081  0.029661456  0.029263027            9 
 1215000   0.76565226    -6.167521    432.26654  0.029647911  0.029243597            9 
 1216000   0.74781592   -6.1454344    432.62005  0.029647756  0.029224221           11 
 1217000    0.7456862   -6.1446733    433.35283  0.029673571  0.029204656           15 
 1218000   0.75260605   -6.1641934    433.62339   0.02966772  0.029185112            8 
 1219000   0.78562459   -6.1286307    432.36054  0.029557051  0.029165701            6 
 1220000   0.76976132   -6.1508359    433.57468  0.029615757  0.029146376           13 
 1221000   0.76020764   -6.1535505    432.50658  0.029518604   0.02912674            8 
 1222000   0.76055361   -6.1378777    433.85254  0.029586235  0.029107328           11 
 1223000   0.79487229   -6.1724283    432.67204  0.029481606  0.029087989           12 
 1224000   0.77824869   -6.1400488    434.24841  0.029564843  0.029068545            9 
 1225000   0.76195278   -6.1695348    433.15598  0.029466393  0.029049131            9 
 1226000   0.77080461   -6.1721714    432.38511  0.029389962  0.029029644            9 
 1227000   0.76617572   -6.1956267    432.69576  0.029387107   0.02901016           10 
 1228000   0.76947648   -6.1674126      432.815  0.029371268  0.028990752            4 
 1229000   0.76971306   -6.1917301    432.46575  0.029323688  0.028971227            8 
 1230000   0.76573543   -6.1746894    433.72315  0.029385037  0.028951772           12 
 1231000   0.77069567   -6.1512398     433.5101  0.029346744  0.028932278            9 
 1232000   0.74938528   -6.1139322    435.85759  0.029481709  0.028913012            7 
 1233000   0.76564873   -6.1554106    434.58822  0.029372007  0.028893865            4 
 1234000   0.74893958    -6.187223    434.75908  0.029359743  0.028874836            6 
 1235000   0.76126706    -6.164619    434.42369   0.02931334  0.028855463            7 
 1236000   0.75896823   -6.1946858    433.32074   0.02921526  0.028836148            5 
 1237000   0.76879698   -6.1908503    434.86736  0.029295834  0.028816747           12 
 1238000   0.73508892   -6.1782767    434.51076  0.029248166  0.028797414            9 
 1239000   0.75676659   -6.1588601    435.39687  0.029284159  0.028778137            4 
 1240000   0.77322955   -6.1815836    434.62135  0.029208424  0.028758785            9 
 1241000   0.77155464   -6.1397115    436.38162   0.02930309  0.028739561            6 
 1242000   0.75674693   -6.1806794    435.79858  0.029240377  0.028720464            7 
 1243000   0.75768284   -6.1588056    435.64108  0.029206294  0.028701408            8 
 1244000   0.74876695   -6.1805997    434.43721  0.029102171  0.028682208           10 
 1245000   0.73745115   -6.1681991    435.16663  0.029127619  0.028662929           24 
 1246000   0.74712509    -6.158988    435.90744  0.029153788  0.028643665            7 
 1247000   0.75070252   -6.1726008    436.70158  0.029183479  0.028624482            6 
 1248000   0.75096325   -6.1676637    436.53671  0.029149086  0.028605456            7 
 1249000   0.76316583   -6.1847056    436.08899  0.029095876  0.028586523            7 
 1250000   0.76293793   -6.2016502    435.88156   0.02905877  0.028567497           10 
 1251000   0.75953715   -6.1934609     436.5161  0.029077811  0.028548551           11 
 1252000   0.74725705   -6.1838061    436.39776  0.029046709  0.028529528           10 
 1253000   0.74876279   -6.1857667     436.0648  0.029001383  0.028510451           11 
 1254000   0.75241615   -6.2091051    437.08121  0.029045801  0.028491451           12 
 1255000   0.75436242   -6.1907275    436.97579  0.029015657  0.028472437            9 
 1256000   0.75249544   -6.2170098    436.46373  0.028958581  0.028453486           15 
 1257000   0.74831735   -6.1955565    436.86793  0.028962339  0.028434531           16 
 1258000   0.74080954   -6.1924594    437.02997  0.028950051  0.028415717           13 
 1259000   0.73709652   -6.1870111     437.3309  0.028946975  0.028396854            6 
 1260000   0.75299317   -6.1663039    438.50623  0.029001735  0.028378107           15 
 1261000   0.76166291   -6.1836717    438.06668  0.028949688  0.028359373            8 
 1262000   0.75778032   -6.1710551    438.23459  0.028937836  0.028340561            5 
 1263000   0.74364911   -6.2056903    437.86102  0.028890276   0.02832188           14 
 1264000   0.74656488   -6.1984376     438.6489  0.028919363  0.028303111            7 
 1265000   0.74356307   -6.2090106     438.7587  0.028903735  0.028284438           15 
 1266000   0.75797967   -6.2039775    437.57116  0.028802735  0.028265783            6 
 1267000   0.75325986   -6.1886499    439.49682  0.028906657  0.028247202            8 
 1268000   0.74272856   -6.1721491    439.50356  0.028884303  0.028228725           13 
 1269000   0.74552365   -6.2126582    437.93735  0.028758691  0.028210279            5 
 1270000   0.74922766   -6.1827524    439.96687  0.028869217  0.028191806           10 
 1271000    0.7553195   -6.2089094    438.80068  0.028770042  0.028173231           15 
 1272000   0.75164148   -6.2020083     439.7212  0.028807731  0.028154642            7 
 1273000   0.76466647   -6.2090269    440.06519  0.028807619  0.028136272            8 
 1274000   0.74393641   -6.2225494    439.42181  0.028742923  0.028117764           13 
 1275000   0.73985582   -6.1958388    439.36791  0.028716857  0.028099312            4 
 1276000   0.74671981   -6.2473938     439.3197  0.028691203   0.02808071            6 
 1277000   0.74544701   -6.2019661    439.19948   0.02866089  0.028062153            8 
 1278000   0.74272445   -6.2340333    440.00143  0.028690756  0.028043669           11 
 1279000   0.73374194   -6.2079703    439.42129  0.028630525  0.028025101           22 
 1280000   0.73843839   -6.2376204    439.05158  0.028584087  0.028006398           13 
 1281000   0.72322684   -6.2240523    439.18356  0.028570359  0.027987666            6 
 1282000   0.74671485    -6.227377    439.33478  0.028557903  0.027968867           15 
 1283000   0.74421432    -6.213732    439.08374  0.028519338  0.027950115            7 
 1284000   0.74241992   -6.2426361    439.49399  0.028523754   0.02793137           14 
 1285000   0.73560337   -6.2479438     438.1999  0.028417633  0.027912451            9 
 1286000   0.75888648   -6.2182116    438.29751  0.028401861  0.027893633           10 
 1287000   0.72906032   -6.2063875    439.26472  0.028442419   0.02787498           12 
 1288000   0.75346519   -6.2198857    439.91923  0.028462683   0.02785646           17 
 1289000   0.73943158   -6.2055794     439.6764  0.028424903  0.027837882           10 
 1290000   0.73117887   -6.2357953    438.77281  0.028344497  0.027819321            8 
 1291000   0.74361049   -6.1981432    439.68622  0.028381501  0.027800739            6 
 1292000   0.72092061   -6.2227919    439.64485  0.028356866  0.027782231            5 
 1293000    0.7456956   -6.2378639    440.31447  0.028378091  0.027763704            6 
 1294000   0.72688296   -6.2511304    439.93011  0.028331408   0.02774515            8 
 1295000   0.75395243   -6.2336278    440.43343  0.028341919  0.027726582            6 
 1296000    0.7323905     -6.23485    439.66498  0.028270639  0.027707951           11 
 1297000   0.74760165   -6.2385385    440.60905    0.0283095  0.027689361            5 
 1298000   0.73741643   -6.2276192    439.60398  0.028223162  0.027670699            9 
 1299000   0.74107989   -6.2163804    440.93587  0.028286879  0.027652145            7 
 1300000    0.7416258   -6.2295039    439.76215  0.028189881  0.027633472           14 
 1301000    0.7348116   -6.2509565    439.32628  0.028140295  0.027614667           13 
 1302000    0.7334127     -6.24214    439.07863  0.028102831  0.027595833            7 
 1303000   0.72423521   -6.2602945    440.79619   0.02819111   0.02757704            8 
 1304000   0.73321162   -6.2546869    439.42198  0.028081671  0.027558296            7 
 1305000    0.7376348   -6.2280337    439.77108  0.028082444  0.027539633           12 
 1306000   0.74380348   -6.2426704    440.00625  0.028075948  0.027520872            9 
 1307000   0.72584068   -6.2429861    440.15556  0.028063986  0.027502186           17 
 1308000   0.73139611   -6.2687395    439.64905  0.028010261  0.027483495           16 
 1309000    0.7314298    -6.247728    440.06854  0.028015568  0.027464788           21 
 1310000   0.70851511   -6.2568319    440.09238  0.027995698  0.027445984            9 
 1311000    0.7290174   -6.2593442    439.74967   0.02795256  0.027427306           12 
 1312000   0.74759368   -6.2577426    440.33628  0.027968514   0.02740855            9 
 1313000    0.7284787   -6.2674552    440.68337  0.027969242  0.027389805           12 
 1314000   0.73981013   -6.2542433    441.40487  0.027993713  0.027371214           11 
 1315000   0.73891645   -6.2764157    439.52463  0.027853272  0.027352444           23 
 1316000   0.72061184    -6.258118    440.50126   0.02789395  0.027333702           11 
 1317000   0.71947496   -6.2809039    439.89412  0.027834353  0.027315106            7 
 1318000   0.73616924   -6.2370382    440.95466  0.027880289   0.02729654           14 
 1319000   0.73681786   -6.2584731    440.82292  0.027850829  0.027277836           15 
 1320000   0.71304392     -6.26572    441.90078  0.027897776  0.027259155           18 
 1321000   0.72644103   -6.2643088    440.57217  0.027792845  0.027240464            9 
 1322000   0.72997415   -6.2848363    440.58227  0.027772458  0.027221923           27 
 1323000   0.71003372    -6.274387    440.95971   0.02777524   0.02720324           25 
 1324000   0.72669169   -6.2856396    441.11635  0.027764121  0.027184652           14 
 1325000   0.71706218   -6.2837762    441.20636  0.027748828  0.027166105           13 
 1326000   0.73497277   -6.2831564    440.66865  0.027694108  0.027147511           12 
 1327000   0.73028963   -6.2812348    441.34928  0.027715981  0.027128893            8 
 1328000   0.72330641   -6.2894269    440.63616  0.027650361  0.027110426           15 
 1329000    0.7150203   -6.2943691    441.30188  0.027671299  0.027091925            8 
 1330000    0.7176512   -6.2965629    442.15356  0.027703857  0.027073553            9 
 1331000   0.71354475   -6.2766631    440.33147  0.027568963  0.027055011            8 
 1332000   0.72407497   -6.2803125    441.90626  0.027646788  0.027036557            7 
 1333000   0.71616529   -6.2818572    441.51081  0.027601326  0.027018145           20 
 1334000    0.7130765   -6.2732212    441.77447  0.027597106  0.026999756            9 
 1335000   0.71675406   -6.2671169    444.32542  0.027735669  0.026981367           19 
 1336000   0.72465146   -6.2788872    442.94822  0.027629005  0.026962994           24 
 1337000   0.72294348   -6.2758842    441.95011   0.02754613  0.026944517            7 
 1338000   0.71159706   -6.2719959    442.53192  0.027561779  0.026926209            7 
 1339000   0.73125393   -6.2575672    443.07025  0.027574698  0.026907894           10 
 1340000   0.70824195   -6.2777661    443.61321  0.027587886  0.026889622           21 
 1341000   0.71520614   -6.3023909    442.42397  0.027493411   0.02687124            8 
 1342000    0.7164913   -6.2730129    442.48787  0.027476892  0.026852892            6 
 1343000   0.72179397   -6.2656032    443.19008  0.027500005  0.026834526            9 
 1344000    0.7022982   -6.2716069    442.79582  0.027455098  0.026816156           11 
 1345000   0.71118334   -6.2789792    442.73219  0.027430743   0.02679773           11 
 1346000   0.70437668   -6.2671123    443.72777  0.027472002    0.0267793           14 
 1347000   0.71902336   -6.2495235    443.84435  0.027458819  0.026760941           20 
 1348000   0.73495251   -6.2978014    443.27177  0.027403052  0.026742572           14 
 1349000   0.72669318   -6.2924275     443.3889  0.027389974  0.026724264            6 
 1350000   0.73374043   -6.3116047    441.77776  0.027270232  0.026705928            9 
 1351000   0.69737532   -6.2821915    442.77523  0.027311573  0.026687573            4 
 1352000   0.70001488   -6.2789738    442.29414   0.02726172  0.026669179           14 
 1353000   0.70744878   -6.2773577    443.34645  0.027306384  0.026650665           16 
 1354000   0.70870354    -6.280005     443.5649  0.027299661  0.026632222           10 
 1355000   0.71213799   -6.2979608     443.1834  0.027256052  0.026613901            6 
 1356000    0.7058784   -6.3154019    442.54774  0.027196887  0.026595527           10 
 1357000   0.72276631   -6.3061244    443.13609  0.027212976  0.026577143           10 
 1358000   0.69668797   -6.2725738      443.051  0.027187715  0.026558844            9 
 1359000   0.72022683   -6.2665331    443.87894  0.027218478   0.02654051           12 
 1360000   0.72864182    -6.273112     442.6903  0.027125631  0.026522184           11 
 1361000   0.71001336   -6.2857396    442.89956  0.027118513  0.026503779           10 
 1362000   0.71517353   -6.3209257    443.48276  0.027134285  0.026485345           22 
 1363000   0.71311448   -6.3335635    442.01838  0.027024846   0.02646683           12 
 1364000   0.71236183   -6.3282479    442.58942  0.027039921  0.026448295           31 
 1365000   0.71185281   -6.3109138    442.18097  0.026995175  0.026429767           11 
 1366000   0.70995835   -6.2969771    442.76028  0.027010754   0.02641133           20 
 1367000   0.69939721   -6.3045471    442.11054  0.026951386  0.026392969           11 
 1368000   0.70450845    -6.286337    443.69451  0.027028175  0.026374707           13 
 1369000   0.70568661   -6.3109329    442.76382  0.026951779  0.026356529           25 
 1370000   0.70108884   -6.2809323     443.8982  0.027001107  0.026338296           13 
 1371000   0.71388353   -6.3055759    442.82799  0.026916362  0.026320036           17 
 1372000   0.70154171   -6.3119533    442.92562  0.026902674  0.026301687           15 
 1373000    0.7226108   -6.3262027    443.17751  0.026898368  0.026283297            8 
 1374000   0.70427344   -6.3105004    444.16417  0.026938632  0.026264885           28 
 1375000   0.71659641   -6.3049045    442.61819  0.026825345  0.026246563           10 
 1376000   0.70405712    -6.313903    443.49483  0.026858941  0.026228293           10 
 1377000   0.70914088   -6.2943024    443.23176  0.026823515  0.026209993            6 
 1378000   0.69829959   -6.3381886    443.80438  0.026838678  0.026191722           26 
 1379000   0.69731834   -6.3228946    443.66398  0.026810731  0.026173412            5 
 1380000   0.70769451   -6.3158783    444.37699  0.026834359  0.026155058            7 
 1381000   0.70055981   -6.3080731    443.84856  0.026783041  0.026136822           14 
 1382000   0.70801464   -6.3285079    444.49188  0.026802453  0.026118666           12 
 1383000   0.71742263   -6.2876016    444.83309  0.026803633  0.026100513            9 
 1384000   0.71195358   -6.3021694    445.38013  0.026817204  0.026082374           16 
 1385000   0.69833516   -6.3159804    444.10431  0.026721077  0.026064201           22 
 1386000   0.69291272   -6.3300352    443.37348  0.026657857  0.026046024           11 
 1387000   0.70802555   -6.3183384    443.40004  0.026640233  0.026027869           14 
 1388000   0.71451107   -6.3302739    444.34234  0.026677614  0.026009681           12 
 1389000   0.69589095   -6.3186426    444.80463  0.026686143  0.025991488           21 
 1390000     0.716382   -6.3509806    443.95143  0.026615793  0.025973484           25 
 1391000   0.69006733   -6.3324047    445.39312  0.026683029  0.025955374           33 
 1392000    0.6983702   -6.3352491    445.14755  0.026649159  0.025937359           20 
 1393000    0.7006224    -6.337448    444.94409  0.026617856   0.02591924            8 
 1394000   0.68861705   -6.3538152    444.14129   0.02655077  0.025901035           11 
 1395000   0.69633883   -6.3173615    444.14069  0.026531702  0.025882896           13 
 1396000   0.68758331   -6.3370427     443.9732  0.026502698  0.025864832            8 
 1397000   0.67372166   -6.3631692    443.76312  0.026471195  0.025846635           30 
 1398000   0.68574419   -6.3127247     444.0805  0.026471179  0.025828427           12 
 1399000   0.68419169   -6.3321315    444.79828  0.026495013   0.02581025           11 
 1400000   0.70881813   -6.3342056    444.79062  0.026475632  0.025791977           27 
 1401000   0.68790187   -6.3429766    444.49704  0.026439272  0.025773769           19 
 1402000   0.68864808   -6.3492115    444.26273  0.026406487  0.025755475           14 
 1403000   0.69456464   -6.3496072    445.16171  0.026441061  0.025737309           16 
 1404000   0.70019305   -6.3526831    444.91221   0.02640742  0.025719072           23 
 1405000   0.67405594   -6.3648901    443.24831  0.026289935  0.025700839           20 
 1406000   0.70354507   -6.3590178    444.85823  0.026366657  0.025682561           21 
 1407000   0.71588321   -6.3707768    445.05077  0.026359321  0.025664336           17 
 1408000   0.70384838   -6.3721324     443.7022  0.026260784  0.025646113            7 
 1409000   0.71066153   -6.3206485    445.11154  0.026325499  0.025627864           11 
 1410000    0.6916109   -6.3453345    445.65494  0.026338945  0.025609783            9 
 1411000   0.67177121   -6.3340238    445.94108  0.026337177   0.02559173           13 
 1412000   0.67797615   -6.3442343    446.19752  0.026333659  0.025573792           15 
 1413000   0.69408097   -6.3885224    443.58251  0.026160799  0.025555812           11 
 1414000   0.69306022   -6.3497804    444.92236  0.026221261  0.025537714           26 
 1415000   0.66869803   -6.3520963    444.77327   0.02619395  0.025519617           11 
 1416000   0.69496039   -6.3396473    444.65264  0.026168352  0.025501517           21 
 1417000   0.68559743   -6.3514598    445.31219  0.026188673  0.025483464           20 
 1418000   0.68659661   -6.3514005    445.79494  0.026198575  0.025465425           11 
 1419000   0.70166072   -6.3593743    445.82914   0.02618212  0.025447413           14 
 1420000    0.6860992   -6.3589379    445.50815  0.026144845  0.025429365           16 
 1421000   0.68462621    -6.356639    444.40904  0.026061989  0.025411292            9 
 1422000   0.67934614    -6.373375     444.0519  0.026022732  0.025393136           16 
 1423000   0.67447054   -6.3585726    444.42762  0.026026447  0.025375029           10 
 1424000   0.68692093   -6.3726132    444.43335  0.026008506  0.025356957           20 
 1425000   0.69002726   -6.3827502    444.39359  0.025987929  0.025338921            8 
 1426000   0.68205929   -6.3793769    444.39962  0.025970057  0.025320859           12 
 1427000   0.67387682   -6.3728845    445.80577  0.026033974  0.025302731            8 
 1428000    0.6882125   -6.3960157    444.42079   0.02593492    0.0252847           33 
 1429000   0.66884362    -6.388444    445.42427   0.02597529   0.02526666           28 
 1430000   0.67862032   -6.3509692    445.55567  0.025964782  0.025248634            8 
 1431000   0.68374673   -6.3716801    446.05497  0.025975715  0.025230782           15 
 1432000   0.67343469   -6.3741059    445.01178  0.025896868  0.025212978           25 
 1433000   0.68593771   -6.3689706     445.5826  0.025911991  0.025195046           11 
 1434000   0.69729889   -6.3632856    447.03542  0.025978348  0.025177202           26 
 1435000   0.67363216   -6.4071498     444.7525  0.025827672   0.02515935           23 
 1436000   0.67902827   -6.3781101     444.8682    0.0258164  0.025141435            8 
 1437000   0.69871303   -6.3653614    446.97921  0.025920854  0.025123704           16 
 1438000   0.66392769    -6.385907    445.56886  0.025821098   0.02510598           13 
 1439000   0.67651015   -6.3832809    446.02825  0.025829757  0.025088158           22 
 1440000   0.68427411   -6.3668528    445.69731  0.025792668  0.025070414           13 
 1441000   0.68434157   -6.3570017    446.32343  0.025810978  0.025052601           13 
 1442000   0.67501117   -6.3681515     446.0403  0.025776716  0.025034815           10 
 1443000   0.67816933   -6.3819746    446.15352  0.025765392   0.02501711            9 
 1444000   0.68337858   -6.4040228    445.50392   0.02571006  0.024999415           16 
 1445000   0.67369581   -6.3902834    446.18464  0.025731525  0.024981658           24 
 1446000   0.66930232   -6.3715333    444.80488  0.025634214  0.024963893            9 
 1447000   0.67260827   -6.3659299    445.75112  0.025670993  0.024946098            9 
 1448000   0.68288291   -6.3757283    446.08608  0.025672542   0.02492838           19 
 1449000   0.69490033   -6.3871502    446.34327  0.025669615  0.024910645            6 
 1450000   0.67278705   -6.4023013    445.59721  0.025609035  0.024892883           19 
 1451000   0.69523676   -6.3824144    445.75416    0.0256004  0.024875136           12 
 1452000   0.67884181   -6.4056441    446.09839  0.025602524  0.024857356           16 
 1453000   0.66549701    -6.377957    446.17625   0.02558937  0.024839483           16 
 1454000   0.67469816   -6.4053685    446.07507  0.025565972  0.024821728           18 
 1455000   0.67064909   -6.3877212    445.63191  0.025523019  0.024803977           29 
 1456000   0.68102878   -6.4023311    446.26852  0.025541925  0.024786278           12 
 1457000   0.66959617   -6.3974533    445.64782  0.025488894  0.024768578            7 
 1458000   0.67718696   -6.3974962    444.39109  0.025399582   0.02475075           10 
 1459000   0.67834617   -6.4108225    444.75936  0.025403208  0.024732936            6 
 1460000   0.68269218   -6.3929284    446.13575  0.025464369  0.024715193           21 
 1461000   0.66594566   -6.3930916    446.62065  0.025474598  0.024697472           12 
 1462000   0.67173894   -6.3742238    446.26624  0.025436972  0.024679834           15 
 1463000   0.67469969   -6.3931111    445.84182   0.02539541  0.024662159           11 
 1464000   0.66419277    -6.414962    445.70606  0.025370336  0.024644466           25 
 1465000   0.68157163   -6.3972562    445.93192  0.025365865  0.024626728           29 
 1466000   0.66051334   -6.4209114    445.23241    0.0253088  0.024609032           20 
 1467000   0.66794234   -6.4079448    447.16888   0.02540155  0.024591359           21 
 1468000   0.66783377   -6.4124095    445.46855  0.025287724  0.024573655           12 
 1469000   0.65569174   -6.4305774    445.85732  0.025292564  0.024555908           15 
 1470000   0.66872008   -6.4076594    445.56925  0.025259028  0.024538242           10 
 1471000   0.66843262   -6.4053013    445.48369  0.025237009  0.024520605           12 
 1472000   0.68397264    -6.417849    445.54914   0.02522357   0.02450286           14 
 1473000   0.66494916   -6.4297491    444.96286  0.025173278  0.024485121           15 
 1474000   0.66870549   -6.4325347    445.62887  0.025193853  0.024467427            8 
 1475000   0.68359941   -6.4279734    446.84839  0.025245672  0.024449746           17 
 1476000   0.66019376   -6.4124872    445.67833  0.025162507  0.024432081           12 
 1477000   0.65233057   -6.4026719    445.11791  0.025113852  0.024414488           13 
 1478000   0.66652091   -6.4155361    446.34979  0.025166316  0.024396902            7 
 1479000   0.65658536   -6.4226233    445.96776  0.025127776  0.024379352           12 
 1480000   0.66773637   -6.4133513    446.10357  0.025118444  0.024361781           25 
 1481000   0.65635665   -6.4383403     446.1693  0.025105182  0.024344187           28 
 1482000   0.65454577   -6.4120612    446.27051  0.025093933  0.024326609           26 
 1483000   0.64315959   -6.4191182    446.39108  0.025083787  0.024308971           11 
 1484000   0.65468604    -6.421477    446.20523  0.025056448  0.024291289           24 
 1485000   0.65457488   -6.4261802    446.65411  0.025064765  0.024273712           23 
 1486000   0.67001335   -6.4474027    446.01567  0.025012094  0.024256126           75 
 1487000   0.65329341   -6.4242001    446.43723  0.025018899  0.024238528           23 
 1488000   0.65715377   -6.4460961    446.22915  0.024990432  0.024220954           18 
 1489000    0.6589306   -6.4373593    445.47987  0.024931714  0.024203392           17 
 1490000   0.66638698   -6.4318494    445.35762  0.024908144  0.024185836           10 
 1491000   0.65078161   -6.4363058    445.26948  0.024886512  0.024168221           18 
 1492000   0.64589606   -6.4566868    445.72062   0.02489503  0.024150633           35 
 1493000   0.65533771   -6.4594396    445.56263  0.024869538  0.024132993           37 
 1494000   0.65661783   -6.4751447    446.05005  0.024880079  0.024115356           46 
 1495000   0.64208798   -6.4342358    445.99547  0.024860394  0.024097722           44 
 1496000   0.65942506   -6.4569723     447.5194  0.024928665  0.024080083           19 
 1497000   0.66149192   -6.4606485    446.00693  0.024827818  0.024062489           45 
 1498000   0.66954967   -6.4341298    446.51377   0.02483944  0.024044875           26 
 1499000   0.65042143   -6.4417073    445.99841  0.024794219  0.024027394           47 
 1500000   0.65876082   -6.4583786    447.09285  0.024838492  0.024009874           19 
 1501000   0.64539336   -6.4503533    446.48575  0.024788238  0.023992412           47 
 1502000   0.65767957   -6.4401135     446.4911  0.024772032  0.023974955           26 
 1503000   0.65667398   -6.4519608    446.79874  0.024772607  0.023957404           20 
 1504000   0.64830774   -6.4675713    445.76497  0.024698857  0.023939913           18 
 1505000   0.64584907   -6.4510077    445.77672  0.024683096  0.023922371           34 
 1506000   0.65829454   -6.4527892    446.47687  0.024705449  0.023904798           22 
 1507000   0.66169244   -6.4558989    446.20157  0.024673832    0.0238872           45 
 1508000   0.66644708   -6.4404828    447.33284  0.024719985  0.023869692           13 
 1509000   0.65138383   -6.4630869    445.58938  0.024607322  0.023852188           40 
 1510000   0.63779466   -6.4673674    446.71343  0.024653059  0.023834762           22 
 1511000   0.65184453   -6.4695102    445.24713  0.024555875  0.023817317            8 
 1512000   0.66604611   -6.4379385    446.33962  0.024599847  0.023799863           25 
 1513000   0.65142007   -6.4504601    446.09316  0.024570013  0.023782412           18 
 1514000   0.65351026   -6.4588787    447.45367   0.02462867  0.023765049           22 
 1515000   0.65814756   -6.4618026    445.17504  0.024487076  0.023747577           13 
 1516000   0.63862856   -6.4678734    446.71204  0.024555411  0.023730132           19 
 1517000   0.63959562   -6.4703927    445.38198   0.02446616  0.023712735           59 
 1518000   0.64186518   -6.4730925    445.92895   0.02448007  0.023695298           56 
 1519000   0.63454741   -6.4823346    445.62516  0.024447288  0.023677938           36 
 1520000    0.6463432   -6.4746954    447.18053  0.024516476  0.023660578           21 
 1521000   0.64401546   -6.4553678    446.67066  0.024472423  0.023643174           26 
 1522000   0.64880221   -6.4913505    446.14657  0.024427648  0.023625852           34 
 1523000   0.64951019   -6.4833468    447.09436  0.024463469  0.023608492           44 
 1524000   0.65545683   -6.4871293    446.44987  0.024412176  0.023591128           19 
 1525000   0.64716503    -6.492293    445.67122  0.024353618  0.023573768           24 
 1526000   0.64169777   -6.4987379    445.50092  0.024328359  0.023556374           39 
 1527000    0.6345564   -6.4682856    446.89826  0.024388685  0.023539028           11 
 1528000   0.64624529   -6.4701917    446.29568  0.024339861  0.023521772           22 
 1529000   0.64486392   -6.4686753    447.02253  0.024363556  0.023504494           25 
 1530000   0.64382227   -6.4641563    445.60446  0.024270396  0.023487188           32 
 1531000   0.64533112   -6.4940296    445.98673   0.02427535  0.023469937           32 
 1532000   0.63073002    -6.482137    446.88831  0.024308546  0.023452647           12 
 1533000    0.6345971   -6.4680639    446.41013  0.024266696  0.023435384           14 
 1534000   0.63192468   -6.4891875    447.22702  0.024295253  0.023418119           27 
 1535000   0.64449921   -6.4989092    447.23474  0.024279845   0.02340091           17 
 1536000   0.64637496   -6.4801521    446.69523  0.024234767  0.023383739           13 
 1537000   0.63355478   -6.4658408    446.86383  0.024228141  0.023366679           14 
 1538000   0.62713383   -6.4988476     446.5907  0.024197589  0.023349595           26 
 1539000   0.62350749   -6.4904955    446.48075  0.024175912  0.023332533           54 
 1540000   0.62910635   -6.4511774    447.67878  0.024225042  0.023315467           41 
 1541000    0.6397495   -6.5053564    448.15515  0.024235083  0.023298416           47 
 1542000   0.63244648   -6.5074623    446.77417  0.024144734  0.023281325           58 
 1543000   0.64929826   -6.5067274    447.46523  0.024166409  0.023264269           41 
 1544000   0.63754662   -6.4981317    446.18258   0.02408153  0.023247199           35 
 1545000   0.64680864   -6.5032346    447.45359  0.024134498    0.0232301           29 
 1546000   0.63558944   -6.4958887     446.6144  0.024073653  0.023212988           48 
 1547000   0.63189579   -6.5118262    446.53301  0.024053707  0.023195818           47 
 1548000   0.66206376   -6.4926768    446.68266  0.024046224  0.023178645           32 
 1549000   0.63985551   -6.5238373    446.06965  0.023997722   0.02316152           34 
 1550000   0.62760882   -6.5089297    446.32548  0.023995994  0.023144372           29 
 1551000    0.6300108   -6.4959051    446.52684  0.023991341   0.02312727           50 
 1552000   0.62380205   -6.5072442    445.83964  0.023938984  0.023110186           40 
 1553000   0.62587595    -6.526737    446.59555  0.023964131  0.023093069           42 
 1554000   0.64028598   -6.5145283    445.53109  0.023891629  0.023075911           15 
 1555000   0.63932454   -6.5188557    446.50936   0.02392869  0.023058809           20 
 1556000   0.62478082   -6.4979382    447.42623  0.023962416   0.02304175           31 
 1557000   0.64714741   -6.4901232    446.42926  0.023893666  0.023024686           18 
 1558000   0.62547853   -6.5282074    446.24119  0.023868271  0.023007566           22 
 1559000   0.63058307   -6.5049179    446.89944  0.023888146  0.022990496           13 
 1560000   0.61772021    -6.518254    446.19126  0.023835003   0.02297343           25 
 1561000   0.62191015   -6.5122147    445.84016  0.023800991  0.022956397           29 
 1562000   0.63298001   -6.5156416    447.07209  0.023851477  0.022939329           20 
 1563000   0.63252519   -6.4944645    447.87025  0.023878772  0.022922272           28 
 1564000   0.64355752   -6.5184677    446.59423  0.023795515  0.022905287           30 
 1565000   0.62737912   -6.5154918    445.35058  0.023714088  0.022888332           39 
 1566000   0.62470758    -6.525456    446.69934  0.023770719  0.022871361           24 
 1567000   0.61218236   -6.5244621    446.05868  0.023721479  0.022854357           14 
 1568000   0.63476466   -6.5177565    446.09856   0.02370847  0.022837361           17 
 1569000   0.62995591    -6.484487    446.28347   0.02370318  0.022820379           31 
 1570000   0.63094706   -6.5231964    446.55513  0.023702502   0.02280347           18 
 1571000   0.63954958   -6.5318947    446.14273  0.023665538  0.022786594           28 
 1572000   0.62409075    -6.520983     446.7951  0.023685067  0.022769775           30 
 1573000   0.62074767   -6.5329611    445.57828  0.023605545  0.022752927           40 
 1574000   0.63352486   -6.5173087    446.20375  0.023623663  0.022736136           10 
 1575000   0.62302318   -6.5304772     446.7945  0.023639921  0.022719299           16 
 1576000   0.62384617   -6.5326341    446.57707  0.023613424  0.022702443           26 
 1577000   0.60640454   -6.5104678    447.82689  0.023664495  0.022685648           18 
 1578000   0.62840455   -6.5112514    447.41069  0.023627518  0.022668908           16 
 1579000   0.62718667   -6.5254058    446.49132  0.023564034  0.022652087           46 
 1580000   0.62187148   -6.5043483    446.06851   0.02352682  0.022635251           12 
 1581000    0.6159912   -6.5213734     447.1562  0.023569271  0.022618457           18 
 1582000   0.62646519   -6.5442078     446.1015  0.023498815   0.02260165           23 
 1583000   0.61495795    -6.541509    446.02028  0.023479695  0.022584798           28 
 1584000   0.62507464   -6.5549136    446.08805  0.023468437  0.022567902           20 
 1585000   0.61135035   -6.5312779    445.40304  0.023417615   0.02255103           14 
 1586000   0.62920306   -6.5420661    446.19047  0.023444224  0.022534248           15 
 1587000   0.61500774   -6.5452603    446.98501  0.023471172  0.022517507           25 
 1588000   0.62422774   -6.5378693    445.99786   0.02340459  0.022500773           26 
 1589000   0.61679036   -6.5403724    445.74034  0.023376355  0.022483977           22 
 1590000   0.61641411   -6.5259771    445.79957  0.023364757  0.022467249           25 
 1591000   0.61156825   -6.5459618     446.6417  0.023394181  0.022450532           60 
 1592000   0.62513097   -6.5418296    447.20793  0.023409125  0.022433807           13 
 1593000   0.61936232    -6.535804    446.76239  0.023371123  0.022417071           25 
 1594000   0.61237837   -6.5450451    446.21626   0.02332791  0.022400321           43 
 1595000   0.60062716   -6.5506844    446.31699  0.023318547  0.022383562           39 
 1596000   0.60703961   -6.5555464    446.80643  0.023329492   0.02236682           34 
 1597000   0.61567131   -6.5508781    447.21702  0.023336309  0.022350108           45 
 1598000   0.61144865   -6.5387213    447.37148   0.02332976  0.022333411           39 
 1599000   0.62523342    -6.559816    447.01475  0.023296578  0.022316809           66 
 1600000   0.61105443   -6.5604279    447.49441  0.023307001  0.022300188          117 
 1601000   0.61163956   -6.5493081    447.77059  0.023306818  0.022283626           67 
 1602000   0.61981912   -6.5672727    447.25263  0.023265326  0.022267047          100 
 1603000   0.62266527   -6.5644754    446.72123  0.023223187   0.02225046           49 
 1604000    0.6270895   -6.5472884    447.73169  0.023261206  0.022233904           16 
 1605000   0.61163148   -6.5515976    448.41918  0.023282408  0.022217363           48 
 1606000   0.61326937   -6.5619444    447.38374  0.023214183  0.022200857           97 
 1607000   0.60684964   -6.5441188    447.52291  0.023206954  0.022184296           47 
 1608000   0.61642978   -6.5552734     447.1528  0.023173342  0.022167732           33 
 1609000   0.61342902   -6.5622804    448.03962  0.023204869  0.022151155           45 
 1610000   0.59495412   -6.5636647    446.75934  0.023124189  0.022134663           51 
 1611000   0.59840389   -6.5667002    446.54775   0.02309889  0.022118088           43 
 1612000   0.61511926   -6.5569152    446.64876  0.023089783  0.022101489           35 
 1613000   0.60966363   -6.5798309    445.49082  0.023015645  0.022084916           75 
 1614000   0.62729935   -6.5905811    446.57641  0.023057435  0.022068401          104 
 1615000   0.61210845   -6.5903233    446.31642  0.023029743    0.0220519           49 
 1616000   0.61129799   -6.5657232     446.0241  0.023000418  0.022035391           82 
 1617000   0.60692028   -6.5423704    446.66634  0.023019292  0.022018928           37 
 1618000   0.61148763   -6.5589869    447.18349    0.0230317  0.022002552           38 
 1619000   0.61677165   -6.5579514    447.08659  0.023012487  0.021986175           71 
 1620000   0.60751975   -6.5759769    446.29235  0.022957426  0.021969782           30 
 1621000   0.62237209   -6.5644639    447.13195  0.022986426  0.021953425           30 
 1622000   0.61751737   -6.5570445    446.77889  0.022954115  0.021937122           45 
 1623000   0.59203477   -6.5770889    445.88116  0.022893878  0.021920771           44 
 1624000   0.60684553   -6.5717488    446.49642  0.022911351  0.021904402           33 
 1625000   0.60458222    -6.579525    446.72382  0.022908914  0.021888083           62 
 1626000   0.60516618   -6.5696015     447.0039  0.022909179  0.021871711          120 
 1627000   0.60836247   -6.5742802    446.37959  0.022863122  0.021855349          112 
 1628000   0.60166648   -6.5601755    447.67619  0.022915448  0.021839042          105 
 1629000   0.60021545   -6.5487402    447.13742   0.02287382  0.021822791          117 
 1630000   0.59523508   -6.5500516    446.90707   0.02284801  0.021806515          140 
 1631000   0.61707993   -6.5500926    446.88711  0.022832982  0.021790245           85 
 1632000   0.59193094   -6.5795014    446.84299  0.022816738  0.021773987          103 
 1633000   0.59431527   -6.5769296    446.29205   0.02277465  0.021757698           60 
 1634000   0.59188161   -6.5822685      446.728  0.022782946  0.021741438           36 
 1635000   0.60003788   -6.5885958    447.65544  0.022816281  0.021725159           32 
 1636000   0.58859527   -6.5799472      446.807  0.022759118  0.021708924           69 
 1637000   0.59865112   -6.5878056    447.47396  0.022779167  0.021692708           26 
 1638000   0.59592305     -6.56442    447.20905  0.022751783  0.021676516           27 
 1639000   0.61359221   -6.5690598    447.20912  0.022737905   0.02166036           91 
 1640000   0.59591265   -6.5853015    447.73237  0.022750628  0.021644239           46 
 1641000   0.60633526   -6.5708335    447.97398  0.022749034  0.021628118           60 
 1642000   0.59899983   -6.5732029    447.13336  0.022692517  0.021611982           74 
 1643000   0.59334771   -6.5895809    446.35659  0.022639308  0.021595822           45 
 1644000   0.59047766    -6.587776    446.42919  0.022629217  0.021579699           28 
 1645000   0.58780757   -6.5810458    448.11464  0.022700843  0.021563594           23 
 1646000   0.58978983   -6.5878815    448.12707  0.022687681  0.021547564           19 
 1647000   0.59786133   -6.5887758     446.4346  0.022588272  0.021531492           29 
 1648000   0.60129076   -6.5919741    446.29445  0.022567478   0.02151536           54 
 1649000   0.60400679   -6.6150974    446.74174  0.022576397  0.021499252           42 
 1650000    0.5950697   -6.6057743    446.84878   0.02256812  0.021483114           20 
 1651000   0.58958082   -6.5910526    446.79863   0.02255192   0.02146696           69 
 1652000   0.59917217   -6.6114731    447.29825  0.022563471  0.021450895           33 
 1653000   0.60641857   -6.6036251    446.75001  0.022522183  0.021434857           47 
 1654000   0.59836128    -6.598104    446.44994  0.022493447  0.021418863           25 
 1655000   0.59370622   -6.5996503    446.91434   0.02250324  0.021402876           65 
 1656000    0.5743761   -6.5935087    447.79054  0.022533743  0.021386844           82 
 1657000   0.58677134   -6.5986438    447.70679  0.022515932  0.021370829          116 
 1658000   0.58713884   -6.6461563     446.3899  0.022436163  0.021354754           92 
 1659000   0.58108916   -6.6078407     447.1228  0.022459453  0.021338708          117 
 1660000     0.593188   -6.6250232    446.72521  0.022425964  0.021322689          163 
 1661000   0.59166601    -6.625938    446.22058  0.022387145  0.021306657           75 
 1662000   0.57436812   -6.6376208    445.80759  0.022352968  0.021290617           81 
 1663000      0.56698   -6.6369526    445.93031  0.022345676  0.021274578           38 
 1664000   0.58548248   -6.6160676    447.34947  0.022403319   0.02125861          124 
 1665000   0.57768817   -6.6298429    447.04871   0.02237481  0.021242582           61 
 1666000   0.59072108   -6.6415505    446.54454  0.022336162  0.021226568           64 
 1667000    0.5792691   -6.6237328    446.77215  0.022334141  0.021210571          181 
 1668000   0.58393593   -6.6384257    445.80904  0.022272634  0.021194635          100 
 1669000   0.59704524   -6.6470431    445.67055  0.022252374  0.021178707           65 
 1670000   0.59290448   -6.6166493    447.21232  0.022315984  0.021162774          179 
 1671000   0.58332678   -6.6399335    446.72597  0.022278375  0.021146879           76 
 1672000    0.5874495   -6.6185389    446.63516  0.022260524  0.021130975           78 
 1673000   0.58308935    -6.623137    446.95696  0.022263248  0.021115056           74 
 1674000   0.59694018   -6.6380479    446.56029  0.022230202  0.021099166          233 
 1675000   0.58060223   -6.6545048    445.29214  0.022153838  0.021083243          227 
 1676000    0.5853491   -6.6482446    446.88602   0.02221987  0.021067357          124 
 1677000   0.58223065   -6.6235757    447.10596  0.022217549  0.021051513           97 
 1678000   0.57237711   -6.6369999    446.88378  0.022193275  0.021035639           99 
 1679000   0.57499226   -6.6263095    446.90821  0.022181269   0.02101978           48 
 1680000   0.57471356   -6.6566713    446.34589  0.022140173  0.021003924          262 
 1681000   0.57962742   -6.6363209     446.6803   0.02214358  0.020988042           59 
 1682000   0.58735529   -6.6587863    445.84664  0.022089112  0.020972178           65 
 1683000   0.58035396   -6.6530124    445.77517  0.022072448  0.020956289           88 
 1684000   0.58253765   -6.6500355     446.3561  0.022088089  0.020940433          193 
 1685000   0.56846346   -6.6479868    446.03451  0.022059076  0.020924622           85 
 1686000   0.58427963   -6.6450907    445.67634  0.022028289  0.020908856           83 
 1687000   0.58478926   -6.6268665    446.44828  0.022053363  0.020893016          133 
 1688000   0.57324645   -6.6569911    445.86299  0.022011403  0.020877187          117 
 1689000   0.58280789   -6.6514179    445.38175  0.021974627   0.02086135          146 
 1690000   0.57316275   -6.6499637    446.05418  0.021994782  0.020845539          134 
 1691000   0.57275729   -6.6800122    444.96534  0.021928117  0.020829726           70 
 1692000   0.57493345   -6.6543411    445.46678  0.021939853  0.020813896           89 
 1693000   0.57914087   -6.6820197    445.88273  0.021947368  0.020798086           70 
 1694000   0.59137772   -6.6558477     445.0814  0.021894992  0.020782292           76 
 1695000    0.5815163   -6.6748007    445.02884  0.021879491  0.020766502           82 
 1696000   0.57256752    -6.652716    445.88085  0.021908454  0.020750759          105 
 1697000   0.58149232   -6.6556431     445.4483  0.021874303  0.020734976           66 
 1698000   0.56816406   -6.6584766    444.72532  0.021825938  0.020719183          119 
 1699000   0.59257003     -6.67334    445.14864  0.021833855  0.020703414           61 
 1700000    0.5818799   -6.6742598    445.34376  0.021830577  0.020687611          104 
 1701000   0.58441707   -6.6661722    445.84642  0.021842368   0.02067185           90 
 1702000   0.58672998   -6.6697289    445.65407  0.021820117  0.020656106          138 
 1703000   0.57989995   -6.6657795    446.59653  0.021853422  0.020640373          151 
 1704000   0.57065576   -6.6666705    445.00766  0.021762894  0.020624697          138 
 1705000   0.57079734   -6.6689635    446.18101  0.021807479  0.020609052          284 
 1706000   0.56504285   -6.6714191     445.7452  0.021773408  0.020593392          192 
 1707000   0.57461857   -6.6903663    445.13385  0.021730807  0.020577696          282 
 1708000   0.59395426   -6.6879054    445.14729   0.02171874  0.020562011          303 
 1709000   0.56672092   -6.6800843    445.55831  0.021726073  0.020546308          315 
 1710000   0.55978191   -6.6673215    445.62261  0.021716501  0.020530661          287 
 1711000   0.56491186   -6.6898745    445.47391  0.021696567  0.020515016          253 
 1712000   0.57523608   -6.6621552    445.62026  0.021691017  0.020499398          159 
 1713000    0.5688553   -6.6833171    445.67728  0.021681129  0.020483793          367 
 1714000   0.57103481   -6.6847657     443.7245  0.021573536  0.020468135          267 
 1715000   0.56241628   -6.6737804    444.67554  0.021607169  0.020452476          396 
 1716000   0.55755512   -6.6849656    444.80581  0.021600904  0.020436852          355 
 1717000   0.56640818   -6.6751268    445.61161  0.021627432  0.020421232          456 
 1718000   0.56426822   -6.6918339    444.52863  0.021562312  0.020405569          509 
 1719000    0.5785732    -6.679172     445.1718  0.021580948  0.020389948          390 
 1720000   0.55965892   -6.6910859    445.13681  0.021566706  0.020374336          456 
 1721000   0.56964402   -6.6672374    444.24491  0.021510987  0.020358741          359 
 1722000   0.57271191   -6.6905142    444.82353  0.021526497  0.020343148          367 
 1723000   0.55449538   -6.7005259    444.38416  0.021492753   0.02032753          485 
 1724000    0.5764203   -6.6834965    445.06483  0.021513188  0.020311952          230 
 1725000   0.57485114   -6.6880554    444.01976   0.02145023  0.020296354          491 
 1726000   0.55974333    -6.684023    445.38815   0.02150387  0.020280766          541 
 1727000   0.57429717   -6.6867939    444.85573  0.021465727  0.020265221          609 
 1728000   0.54984624   -6.6979534    445.05091  0.021462717  0.020249648          384 
 1729000   0.56670228   -6.6887185    444.35721  0.021416869  0.020234127          421 
 1730000   0.56030386   -6.7313866    444.26683  0.021400136  0.020218588          427 
 1731000   0.54734782   -6.6962825    445.82009   0.02146255  0.020203056          396 
 1732000   0.55438744   -6.7014911    444.43445   0.02138349  0.020187537          448 
 1733000   0.56905044   -6.7166472    445.33092  0.021414258  0.020172046          430 
 1734000   0.56354618   -6.7037466    444.63495  0.021368462  0.020156629          326 
 1735000   0.55960424   -6.7199691    444.64042  0.021356408  0.020141169          242 
 1736000   0.55728074   -6.7104201    444.18378  0.021322186   0.02012573          342 
 1737000   0.56295048   -6.7036909     444.2807   0.02131456  0.020110265          339 
 1738000   0.55441491    -6.727473    444.36074  0.021306134  0.020094841          586 
 1739000   0.56438483   -6.7085105    444.56463  0.021303653  0.020079385          636 
 1740000   0.55270589   -6.7217439    444.35947  0.021281584  0.020063927          522 
 1741000   0.57165273   -6.7122157    444.00401  0.021252346  0.020048482          437 
 1742000   0.55300638   -6.7018921    444.59357  0.021268349  0.020033041          418 
 1743000   0.56571412   -6.7062806    444.03975  0.021229669  0.020017612          324 
 1744000   0.56478259   -6.7265157    444.27176  0.021228582  0.020002216          412 
 1745000   0.55729281    -6.723384    444.30475  0.021217992  0.019986826          304 
 1746000   0.56124393   -6.7223694    443.57222  0.021170877  0.019971443          447 
 1747000   0.55874288   -6.7248109     444.4649   0.02120134  0.019956037          443 
 1748000   0.56449249   -6.7284446    444.29036  0.021180891  0.019940675          492 
 1749000    0.5564933   -6.7126387    444.28763   0.02116865  0.019925324          415 
 1750000   0.54287567   -6.7206088    444.16333  0.021150635  0.019910004          495 
 1751000   0.54288881   -6.7241072    443.73407  0.021118126  0.019894672          504 
 1752000   0.54916472   -6.7215527    443.77613  0.021108073  0.019879301          343 
 1753000   0.55842463    -6.713914    443.92107  0.021102922  0.019863954          492 
 1754000   0.55234572   -6.7313478    442.83893  0.021039478  0.019848615          504 
 1755000   0.55392109     -6.71866    443.64921  0.021065965  0.019833289          298 
 1756000   0.55882572   -6.7412509    443.29181  0.021037007  0.019817957          394 
 1757000   0.53991791   -6.7246906     443.4273   0.02103146  0.019802678          493 
 1758000   0.55526003   -6.7408011    443.69449  0.021032162  0.019787394          536 
 1759000   0.55261618   -6.7031574    443.82739  0.021026501  0.019772142          525 
 1760000   0.54654841   -6.7187688    443.74881  0.021010834  0.019756893          546 
 1761000   0.55611328   -6.7344312    443.41117  0.020982925  0.019741647          475 
 1762000   0.56591509   -6.7306095    443.91325  0.020994762  0.019726379          483 
 1763000   0.53822563   -6.7273031    443.24503  0.020951268  0.019711111          571 
 1764000   0.54696864    -6.727876    442.93519  0.020924754   0.01969588          346 
 1765000   0.54515888   -6.7266967    443.93564  0.020960134  0.019680647          626 
 1766000   0.53992004   -6.7242671    443.91937  0.020947498  0.019665419          504 
 1767000   0.54394987   -6.7364274    444.13441  0.020945784  0.019650202          338 
 1768000   0.55262348   -6.7490572    442.83965   0.02087291  0.019634987          613 
 1769000   0.54790366   -6.7267105    444.21537  0.020925917  0.019619827          341 
 1770000   0.54147982   -6.7327009    443.01442  0.020857553  0.019604672          522 
 1771000   0.54572675   -6.7353899     444.1351  0.020898508   0.01958951          620 
 1772000   0.53903419   -6.7442221    443.36157  0.020850337  0.019574376          616 
 1773000   0.52906005   -6.7210363    443.90512  0.020864125  0.019559245          647 
 1774000   0.55422652   -6.7305024    442.66518  0.020794118  0.019544114          493 
 1775000   0.55212735   -6.7319567    443.28119  0.020811323   0.01952902          637 
 1776000   0.55263978   -6.7457212    443.21543   0.02079652  0.019513909          689 
 1777000    0.5498016   -6.7424442    443.45812  0.020796198  0.019498783          441 
 1778000   0.54801677   -6.7478667    442.89522  0.020758119  0.019483651          746 
 1779000    0.5498841   -6.7532703    443.35059  0.020767781  0.019468559          538 
 1780000   0.54017646   -6.7563609    443.71506  0.020773177  0.019453489          616 
 1781000   0.55645376   -6.7608721    442.44501  0.020702087  0.019438426          738 
 1782000   0.54223279   -6.7447469    443.18964  0.020725292  0.019423374          514 
 1783000   0.54788647   -6.7324625    443.25168  0.020716568  0.019408319          420 
 1784000   0.54382359   -6.7613571    443.33293   0.02070875  0.019393264          675 
 1785000   0.53880479   -6.7543051    442.41854   0.02065446  0.019378209          652 
 1786000   0.54867567   -6.7541857    443.90337  0.020712177   0.01936323          628 
 1787000    0.5334352   -6.7501615    442.61262  0.020640395  0.019348277          601 
 1788000   0.54641526   -6.7673899    442.75307  0.020635397  0.019333279          652 
 1789000   0.55297122   -6.7629896    442.85763  0.020628733  0.019318325          663 
 1790000   0.54458427   -6.7672705    443.07387  0.020627275  0.019303364          679 
 1791000   0.53813791    -6.775261    442.56059  0.020591875  0.019288417          773 
 1792000   0.54683872   -6.7680068    443.33184   0.02061625   0.01927348          810 
 1793000   0.53956108   -6.7626447    442.87539  0.020583537  0.019258561          823 
 1794000   0.52675267   -6.7466538    443.47822  0.020600066  0.019243626          739 
 1795000   0.53420541   -6.7666929    442.18065   0.02052835  0.019228695          723 
 1796000   0.53123096   -6.7750086    442.88287  0.020549502  0.019213763          681 
 1797000   0.55152188   -6.7716633    442.75981   0.02053236  0.019198823          488 
 1798000   0.54040298   -6.7870372    442.80277  0.020522932  0.019183878          813 
 1799000   0.54315659   -6.7896096    441.13015  0.020434044  0.019168947          766 
 1800000   0.53025942    -6.787499     442.8138  0.020500639  0.019154035          898 
 1801000   0.53884188   -6.7825783    442.72585  0.020485187  0.019139142          808 
 1802000   0.53823377   -6.7760393    443.27348  0.020499143  0.019124291          820 
 1803000   0.54399491   -6.7759994    442.66351  0.020459582  0.019109449          750 
 1804000   0.53609575   -6.7765835    443.25541  0.020475583  0.019094607          799 
 1805000   0.51981205   -6.7946737    441.52649  0.020384418   0.01907976          890 
 1806000   0.53418163   -6.7691004     441.5757  0.020375402  0.019064924          863 
 1807000   0.53830847   -6.7963937    442.40373  0.020402312  0.019050091          807 
 1808000   0.54291105   -6.7707648    441.34416   0.02034219  0.019035294          916 
 1809000   0.53425017    -6.797258    442.24879  0.020372618  0.019020511          985 
 1810000   0.53463808   -6.7892763    442.28374  0.020362971  0.019005743          884 
 1811000   0.53037544   -6.7831848    442.40396  0.020357259  0.018990981          948 
 1812000   0.53366611   -6.7822476     442.3305  0.020342646   0.01897625          903 
 1813000    0.5255132   -6.7890181    442.04543  0.020318323  0.018961516          903 
 1814000   0.52073886   -6.7948494    443.29034  0.020364312  0.018946782          948 
 1815000   0.53442224   -6.7834293    441.84407  0.020286688  0.018932055          882 
 1816000   0.52796742   -6.7869101    442.03452  0.020284257  0.018917316          890 
 1817000   0.52736077   -6.7988184    441.35038  0.020241716  0.018902577          971 
 1818000   0.52570071   -6.7956235    442.53917  0.020285074  0.018887833          957 
 1819000   0.51192767    -6.812162    441.63729  0.020232605  0.018873122          982 
 1820000   0.52446265   -6.7872147    442.11859  0.020243525  0.018858418          984 
 1821000   0.52980713   -6.7809848    442.26743   0.02023922  0.018843754          991 
 1822000    0.5296145   -6.7951947    442.90675  0.020257352  0.018829102         1005 
 1823000   0.52800857   -6.7839663    442.88114  0.020245069  0.018814438          927 
 1824000   0.51724238   -6.7877421    442.07926  0.020197335  0.018799761          935 
 1825000   0.52860054   -6.8066168    442.06764  0.020185737  0.018785104          917 
 1826000   0.51045947   -6.8199777    441.66319  0.020156224  0.018770436         1001 
 1827000   0.52502993   -6.8172465    442.31176  0.020174775  0.018755802         1018 
 1828000   0.50824824   -6.7998337     440.9451  0.020101436  0.018741174          926 
 1829000   0.52082726   -6.8387153    441.33424  0.020108175  0.018726523         1042 
 1830000   0.51816629   -6.8117696     442.1066  0.020132359  0.018711882          998 
 1831000   0.52381764   -6.8032839    442.51335  0.020139876   0.01869728         1107 
 1832000   0.52176189    -6.806742    441.29287  0.020073366  0.018682668          973 
 1833000   0.51397517   -6.8168399    442.05992  0.020097287  0.018668055         1015 
 1834000   0.50915263   -6.8212815    441.52933   0.02006222  0.018653455         1000 
 1835000   0.51493415    -6.826699    442.45745  0.020093435  0.018638886         1045 
 1836000   0.50858817   -6.8211382    441.27296  0.020028729  0.018624323          966 
 1837000   0.51438165   -6.8259205    441.35393  0.020021499  0.018609767          963 
 1838000   0.52240442   -6.8278321    441.52885  0.020018537  0.018595234         1076 
 1839000   0.52160207   -6.8365033    441.22592  0.019993924  0.018580718         1112 
 1840000   0.51437951   -6.8248057    441.89952  0.020013565  0.018566199         1075 
 1841000   0.52805739   -6.8349322    441.02543  0.019963128  0.018551715         1058 
 1842000   0.51204982   -6.8232094    441.53555  0.019975369  0.018537259         1035 
 1843000   0.52941225   -6.8251052     441.2801   0.01995298  0.018522805         1073 
 1844000   0.52268973    -6.829834    442.10807  0.019979577  0.018508368         1104 
 1845000   0.51452942   -6.8364428    441.32558  0.019933405  0.018493916         1053 
 1846000   0.51702814   -6.8255299    441.13621  0.019914058  0.018479493         1088 
 1847000   0.50526279   -6.8133725    441.11404  0.019902276  0.018465053         1049 
 1848000   0.52144161   -6.8178394     442.2852  0.019944318  0.018450625         1085 
 1849000   0.51328484   -6.8200292    441.74584  0.019909223   0.01843623         1047 
 1850000   0.51769355   -6.8202104    440.38922  0.019837352  0.018421836         1111 
 1851000   0.51630658   -6.8300358    441.16145  0.019861402  0.018407431         1147 
 1852000   0.51571658   -6.8192527    441.33438  0.019858458  0.018393053         1017 
 1853000   0.52327073   -6.8334807    440.96651  0.019831198   0.01837865         1075 
 1854000   0.51099809   -6.8473004    441.18169  0.019830173  0.018364299         1081 
 1855000   0.52037232   -6.8342392    440.73595  0.019799459  0.018349947         1098 
 1856000   0.50594267   -6.8477012    441.02115  0.019801596  0.018335606         1076 
 1857000   0.51729406   -6.8410387    441.02392  0.019791057  0.018321269         1099 
 1858000   0.51438793   -6.8362992    440.81609  0.019771084  0.018306966         1033 
 1859000   0.50238072   -6.8400826    441.27324  0.019780942  0.018292671         1094 
 1860000   0.51152546   -6.8440444    441.64571  0.019786994  0.018278343         1245 
 1861000   0.50477659   -6.8225832     441.2864  0.019760272   0.01826405         1126 
 1862000   0.50143644   -6.8506444    440.52646  0.019715649  0.018249755         1125 
 1863000   0.51887252   -6.8566952     440.8532  0.019719682  0.018235481         1148 
 1864000    0.4979281    -6.820919    440.41556  0.019689537  0.018221225         1062 
 1865000   0.51154049   -6.8564678     440.7579  0.019694276  0.018206988         1172 
 1866000    0.5107158   -6.8529817    440.41949  0.019668609  0.018192751         1173 
 1867000   0.50498556   -6.8497166    440.12525  0.019644941  0.018178533         1155 
 1868000   0.50298215   -6.8351573    440.62288  0.019656624   0.01816431         1152 
 1869000   0.51375926    -6.855121    440.06103  0.019621055  0.018150056         1218 
 1870000   0.50168179   -6.8348653    441.08597  0.019656237  0.018135857         1113 
 1871000   0.51840007   -6.8454204    439.89424  0.019592653  0.018121655         1211 
 1872000   0.50352232   -6.8494616    440.10884   0.01959174   0.01810746         1144 
 1873000   0.50281877   -6.8524403    440.61023  0.019603587  0.018093278         1185 
 1874000   0.50242324   -6.8633638     440.3824  0.019582995  0.018079107         1166 
 1875000   0.51366029   -6.8454786    441.37049  0.019616466  0.018064966         1227 
 1876000   0.50393264   -6.8459036    441.49557  0.019611566  0.018050837         1203 
 1877000    0.5052499   -6.8695341    439.79515  0.019525624  0.018036722         1342 
 1878000   0.51413157    -6.866501    440.45931  0.019544698  0.018022614         1275 
 1879000   0.50793827   -6.8508195    440.57516  0.019539434  0.018008513         1264 
 1880000   0.51699552   -6.8454284    440.41186  0.019521802  0.017994412         1320 
 1881000   0.50648944    -6.846053    440.48518  0.019514672  0.017980352         1186 
 1882000   0.50354781   -6.8480734    440.90468  0.019522878  0.017966298         1175 
 1883000   0.50584342   -6.8376682    440.61537  0.019499707  0.017952248         1288 
 1884000     0.495571   -6.8573622    440.29513  0.019475191  0.017938216         1347 
 1885000   0.51089676   -6.8528312    440.35684  0.019467588   0.01792418         1255 
 1886000   0.50269713   -6.8771934    439.69035  0.019427817  0.017910138         1214 
 1887000   0.49530731   -6.8704762    440.27253  0.019443231  0.017896142         1281 
 1888000   0.49700658   -6.8594839     440.2917  0.019433779  0.017882166         1221 
 1889000    0.5012571   -6.8526206    441.27037  0.019466666  0.017868195         1223 
 1890000   0.50336486   -6.8581996    440.07857  0.019403817  0.017854226         1162 
 1891000   0.50000185   -6.8823627    440.48747  0.019411576  0.017840278         1298 
 1892000   0.49293369   -6.8570806       441.01  0.019424331  0.017826334         1312 
 1893000   0.48876721   -6.8806728    440.76301  0.019403197  0.017812409         1368 
 1894000   0.50121352   -6.8758001    441.12341  0.019408809  0.017798484         1366 
 1895000   0.50387832   -6.8759025    439.81589  0.019341068  0.017784568         1346 
 1896000   0.50475133   -6.8790504    440.12091  0.019344273  0.017770647         1357 
 1897000   0.49524728   -6.8761051    440.05892  0.019331353  0.017756759         1373 
 1898000   0.49959855    -6.876327    440.19888  0.019327313  0.017742876         1356 
 1899000   0.49501882    -6.878137    440.24568  0.019319189  0.017729008         1360 
 1900000   0.48963246   -6.8698137    440.06121   0.01930093  0.017715145         1374 
 1901000   0.49469287   -6.8646959    440.05737  0.019290609  0.017701307         1315 
 1902000   0.48580784   -6.8828768    439.96602  0.019276464  0.017687479         1374 
 1903000   0.49474642   -6.8817959    439.73896  0.019256392  0.017673657         1459 
 1904000   0.48939908    -6.885259    440.00781  0.019258045  0.017659854         1402 
 1905000   0.49136927   -6.8877772     439.3472  0.019219037  0.017646034         1401 
 1906000   0.48899147   -6.8989406      440.506  0.019259619  0.017632246         1283 
 1907000   0.48121951   -6.8886374    440.42362   0.01924592  0.017618463         1351 
 1908000   0.50251935   -6.8830152    440.47735  0.019238179  0.017604728         1313 
 1909000     0.494306   -6.8835737    440.21685   0.01921673  0.017591008         1336 
 1910000   0.49060544   -6.8853191    440.36833  0.019213278  0.017577271         1370 
 1911000   0.48820116   -6.8692696    439.20552  0.019152517  0.017563541         1325 
 1912000    0.4791865    -6.873961    439.67826  0.019163104  0.017549831         1368 
 1913000   0.48605197   -6.8771926      439.443  0.019142838  0.017536126         1344 
 1914000   0.49160028   -6.8973144    440.07306  0.019160269  0.017522437         1330 
 1915000   0.49233969   -6.8873053    439.48456  0.019124654  0.017508781         1387 
 1916000   0.49738279   -6.8951753     439.7525  0.019126326  0.017495117         1437 
 1917000   0.47868359   -6.8721965    440.12593  0.019132583  0.017481465         1306 
 1918000    0.4917174    -6.888696    440.18402  0.019125131   0.01746782         1368 
 1919000   0.48338629   -6.8989314    439.92042  0.019103718   0.01745417         1350 
 1920000   0.49363005   -6.8738327    439.37357  0.019070033  0.017440536         1424 
 1921000   0.48427131   -6.8773967    439.50825  0.019065949  0.017426922         1381 
 1922000    0.4970182   -6.8804824    440.98423  0.019120024  0.017413335         1397 
 1923000   0.49913835   -6.8945937    440.25017   0.01907827  0.017399763         1421 
 1924000   0.48891263   -6.8980315    440.07185  0.019060631  0.017386185         1438 
 1925000   0.49464503   -6.8752337    439.51654   0.01902669  0.017372611         1354 
 1926000   0.48135718   -6.8857341    439.79435  0.019028831  0.017359035         1404 
 1927000   0.47233427   -6.8850772    439.43787  0.019003541  0.017345462         1314 
 1928000   0.48109214   -6.8966134    439.34322  0.018989593   0.01733194         1297 
 1929000   0.48724334   -6.9151092    439.77091  0.018998225   0.01731842         1351 
 1930000   0.48575577   -6.8928877    439.92592  0.018995074  0.017304905         1459 
 1931000   0.48081821   -6.8785782    439.50952  0.018967268  0.017291403         1307 
 1932000   0.46825662   -6.9015526    439.69052  0.018965257  0.017277933         1292 
 1933000    0.4833522   -6.9158236    439.06867  0.018928637  0.017264453         1333 
 1934000   0.48305285   -6.9003423    439.51933  0.018938268  0.017250991         1362 
 1935000   0.48677162   -6.8973912    439.41542  0.018924006  0.017237558         1366 
 1936000   0.48401272    -6.916973    439.65167    0.0189244  0.017224115         1386 
 1937000   0.47133495   -6.9059946    439.84892  0.018923117  0.017210681         1391 
 1938000   0.47403466   -6.9038951    439.10309  0.018881282  0.017197269         1476 
 1939000   0.47787441   -6.9066501    438.75428  0.018856553   0.01718385         1414 
 1940000   0.48043145   -6.8955773    439.25503  0.018868343  0.017170466         1474 
 1941000   0.48482427   -6.9048232    438.71432  0.018835408  0.017157082         1460 
 1942000   0.47532158   -6.8921924    439.42427  0.018856174  0.017143699         1445 
 1943000   0.48203721   -6.9065613    439.41485  0.018846065  0.017130342         1495 
 1944000   0.48984336   -6.9138996    438.79144  0.018809647  0.017116993         1517 
 1945000   0.48002699   -6.9081324    438.98666   0.01880834  0.017103655         1543 
 1946000   0.47048355   -6.8989331    439.05126  0.018801442  0.017090318         1450 
 1947000    0.4747899   -6.9119576    439.37007   0.01880543  0.017076986         1517 
 1948000   0.47780715   -6.9100447    439.22232  0.018789456  0.017063689         1448 
 1949000   0.47225482   -6.9095827    438.72199  0.018758423  0.017050386         1421 
 1950000   0.46056035   -6.9212678      438.876  0.018755385  0.017037092         1407 
 1951000    0.4758844   -6.9121375    438.95821  0.018749283   0.01702381         1504 
 1952000   0.48357854   -6.9095803    439.50959  0.018763217  0.017010552         1490 
 1953000   0.47519303   -6.9260363    438.41619  0.018706955  0.016997292         1389 
 1954000   0.46985151   -6.9180083    438.85443  0.018716071  0.016984041         1522 
 1955000   0.47428157   -6.9087499    439.44399  0.018731628  0.016970809         1517 
 1956000   0.47559975   -6.9340888    438.40953  0.018677979  0.016957586         1559 
 1957000   0.46884417   -6.9207114    438.94645  0.018691298  0.016944352         1507 
 1958000   0.47566801   -6.9144637    438.52436  0.018663788  0.016931149         1558 
 1959000   0.47735409   -6.9193713    439.01577  0.018675165  0.016917951         1481 
 1960000   0.47143755   -6.9194972    438.80272  0.018656578  0.016904769         1552 
 1961000   0.46317658   -6.9210705    439.38686  0.018671888  0.016891589         1498 
 1962000   0.47730294   -6.9328315    438.35462  0.018618528  0.016878426         1548 
 1963000   0.45886845   -6.9160988    439.11061  0.018641136  0.016865272         1540 
 1964000   0.47646268   -6.9239337    438.73107  0.018615541  0.016852144         1479 
 1965000   0.47408806   -6.9153274    438.40396  0.018592195  0.016839023         1511 
 1966000   0.47420055   -6.9261569    438.82719  0.018600678  0.016825909         1558 
 1967000   0.46461511    -6.925606    438.00564  0.018556416  0.016812816         1486 
 1968000   0.47059051   -6.9179116    438.46336  0.018566369  0.016799726         1547 
 1969000   0.47213271    -6.935692    438.08721   0.01854102  0.016786634         1504 
 1970000   0.46757281   -6.9202113    437.70535  0.018515455  0.016773555         1531 
 1971000   0.46392013   -6.9478799    438.35157  0.018533383  0.016760511         1542 
 1972000   0.47150101   -6.9437727    438.07914  0.018512472  0.016747464         1574 
 1973000   0.45622112    -6.927915    439.61073  0.018567779  0.016734429         1541 
 1974000   0.46922295    -6.924118    438.55161  0.018513661  0.016721399         1489 
 1975000   0.46958039   -6.9203122    437.98897  0.018480547  0.016708383         1506 
 1976000   0.45492073   -6.9290797    438.11698  0.018476593  0.016695374         1525 
 1977000   0.45171719   -6.9330519    438.20093  0.018470786  0.016682377         1556 
 1978000   0.47021146   -6.9232643    437.66686  0.018438948  0.016669387         1532 
 1979000   0.46260296   -6.9445316    438.41859  0.018461285   0.01665641         1559 
 1980000   0.45904449   -6.9152425    437.85272  0.018428145  0.016643442         1650 
 1981000   0.46377151   -6.9411835     438.8313  0.018460008  0.016630481         1617 
 1982000   0.46508624   -6.9401574    438.07698  0.018418978  0.016617542         1636 
 1983000   0.44799545   -6.9419022    438.60097   0.01843171  0.016604607         1586 
 1984000   0.47222707   -6.9363919    438.54876  0.018420227  0.016591694         1606 
 1985000   0.46179724   -6.9405078    438.72449  0.018418325  0.016578797         1591 
 1986000   0.44935761   -6.9419395    438.36709  0.018394054  0.016565901         1642 
 1987000   0.44750886   -6.9317416    438.18391  0.018377114  0.016553024         1636 
 1988000   0.44994338   -6.9397422    438.46498  0.018379652  0.016540156         1638 
 1989000   0.45153805   -6.9398607      438.595  0.018375859  0.016527296         1625 
 1990000   0.46078308   -6.9441908    437.98311  0.018341001  0.016514469         1605 
 1991000    0.4674163   -6.9504407    438.11051  0.018337122   0.01650165         1629 
 1992000   0.45226785   -6.9521542    438.63109  0.018349694  0.016488829         1652 
 1993000    0.4665904    -6.927048    438.11475  0.018318897  0.016476033         1634 
 1994000   0.45938969   -6.9431424    438.73677  0.018335706  0.016463245         1593 
 1995000    0.4547235   -6.9417811    438.27091  0.018307055  0.016450451         1592 
 1996000   0.45035698   -6.9438527    437.69162  0.018273698  0.016437676         1575 
 1997000   0.45626503   -6.9521539    438.51552  0.018298929  0.016424913         1546 
 1998000   0.45527967   -6.9552105    438.30818  0.018281122   0.01641216         1560 
 1999000   0.46067904   -6.9528339    438.21448  0.018268071  0.016399419         1611 
 2000000    0.4524868   -6.9387867    437.44186  0.018226744   0.01638669         1612 
 2001000   0.45011563   -6.9492934    437.55179  0.018222214  0.016373958         1668 
 2002000   0.44518066   -6.9311359    437.57998  0.018214285  0.016361234         1606 
 2003000   0.46187988   -6.9465842    438.11897  0.018227616  0.016348525         1602 
 2004000   0.44620926    -6.955537    437.98058  0.018212765  0.016335838         1512 
 2005000   0.44927068   -6.9493753    437.24194  0.018172982  0.016323153         1556 
 2006000   0.46183932   -6.9470123    438.36567  0.018210605  0.016310483         1549 
 2007000   0.45329902   -6.9521904    437.74757  0.018175866  0.016297822         1562 
 2008000   0.44598609   -6.9755445     437.7105  0.018165276  0.016285169         1565 
 2009000   0.44311144      -6.9586    437.73179  0.018157117  0.016272528         1693 
 2010000   0.44891955   -6.9567424    437.60879  0.018142985  0.016259905         1613 
 2011000   0.44998384   -6.9570921    438.86601  0.018186061  0.016247287         1531 
 2012000   0.44856984   -6.9661104    437.41682  0.018116999  0.016234685         1613 
Loop time of 5213.88 on 48 procs for 2000000 steps with 4000 atoms

Performance: 66284.607 tau/day, 383.591 timesteps/s
99.4% CPU use with 48 MPI tasks x no OpenMP threads

MPI task timing breakdown:
Section |  min time  |  avg time  |  max time  |%varavg| %total
---------------------------------------------------------------
Pair    | 374.86     | 409.36     | 434.38     |  75.6 |  7.85
Neigh   | 35.792     | 37.072     | 39.322     |  11.2 |  0.71
Comm    | 342.3      | 364.19     | 401.31     |  78.3 |  6.98
Output  | 4.9319     | 4.9339     | 4.9836     |   0.3 |  0.09
Modify  | 4334       | 4350.1     | 4362.1     |  11.9 | 83.43
Other   |            | 48.19      |            |       |  0.92

Nlocal:        83.3333 ave          90 max          77 min
Histogram: 4 2 5 11 5 2 10 5 0 4
Nghost:        2402.44 ave        2421 max        2383 min
Histogram: 1 2 3 6 7 14 9 5 0 1
Neighs:        16616.9 ave       19100 max       14464 min
Histogram: 1 5 6 10 9 3 5 3 3 3
FullNghs:      33233.8 ave       35802 max       30490 min
Histogram: 3 2 5 5 11 3 5 5 5 4

Total # of neighbors = 1595224
Ave neighs/atom = 398.80600
Neighbor list builds = 107218
Dangerous builds = 0

#clear
#
#next RN
#
#jump SELF
Total wall time: 1:26:57
