
units lj                  # Use reduced LJ style units
atom_style atomic         # Uncharged point particles
atom_modify map hash      # Needed for indexing of clusters etc
                          # Used to be able to find where atoms are in relation to each other.

lattice fcc 1.0 spacing 1 1 1
Lattice spacing in x,y,z = 1.5874011 1.5874011 1.5874011
region box block 0 10 0 10 0 10 units lattice
create_box 2 box
Created orthogonal box = (0.0000000 0.0000000 0.0000000) to (15.874011 15.874011 15.874011)
  3 by 4 by 4 MPI processor grid
create_atoms 1 box
Created 4000 atoms
  using lattice units in orthogonal box = (0.0000000 0.0000000 0.0000000) to (15.874011 15.874011 15.874011)
  create_atoms CPU = 0.027 seconds
set type 1 type/fraction 2 0.9 78393
Setting atom values ...
  3586 settings made for type/fraction
mass 1 1.0
mass 2 1.0
pair_style lj/cut  3.5
pair_modify tail  yes
pair_coeff 1  1  1.0  1.0   # Intearaction between 1 and 1 set with epsilon = 1 and sigma = 1
pair_coeff 1  2  1.5  0.8
pair_coeff 2  2  0.5  0.88

write_data data.0
System init for write_data ...
Neighbor list info ...
  update every 1 steps, delay 10 steps, check yes
  max neighbors/atom: 2000, page size: 100000
  master list distance cutoff = 3.8
  ghost atom cutoff = 3.8
  binsize = 1.9, bins = 9 9 9
  1 neighbor lists, perpetual/occasional/extra = 1 0 0
  (1) pair lj/cut, perpetual
      attributes: half, newton on
      pair build: half/bin/atomonly/newton
      stencil: half/bin/3d
      bin: standard
WARNING: Not all mixed pair coeffs generated from mixing. Use write_data with 'pair ij' option to store all pair coeffs. (../write_data.cpp:312)


#############################
#   M E L T   S Y S T E M   #
#############################

velocity all create 2.4 6229865 mom yes dist gaussian # Assign velocities
                                                    # Temperature 2.4, random number seed, zero linear momentum
                                                                                # Gaussian distribution

timestep 0.002   # simulation timestep
thermo 1000       # output thermodynamic data every 1000 steps bf 100

# Define a fix  in this case with index 1 applied to all
# particles in the simulation. This fix is for simulations
# in the anisotropic NPT ensemble. Note that we use the MTK
# correction.
fix 1 all npt temp 2.4 2.4 0.1 iso 5.68 5.68 0.5 mtk yes tchain 5 pchain 5 # Use NPT ensemble
                                                                         # Set temperature and pressure and damping
                                                                         # Numbers of thermostats in chain and in barostat
run 10000          # run for 10000 steps
Per MPI rank memory allocation (min/avg/max) = 3.642 | 3.644 | 3.648 Mbytes
Step Temp E_pair E_mol TotEng Press Volume 
       0          2.4   -3.1995671            0   0.39953293    -2.596694         4000 
    1000    2.3819426   -2.2184945            0    1.3535262    5.9671444    3976.5622 
    2000    2.4448305    -2.239183            0     1.427146    5.7434292    4013.9986 
    3000    2.4022876   -2.2657254            0    1.3368051    5.6225981    3986.1594 
    4000    2.4218522   -2.2567321            0    1.3751381    5.4313235    4029.3381 
    5000    2.4046167   -2.2273515            0    1.3786718     5.513631    4053.5745 
    6000    2.4513027   -2.2701972            0    1.4058376    5.7491962    3986.5982 
    7000    2.4012932   -2.2648506            0    1.3361888    5.8078681    3973.5571 
    8000    2.3843201   -2.2368526            0    1.3387335    5.9857125    3971.1287 
    9000    2.4114741    -2.247062            0    1.3692448    5.5092198    4026.8982 
   10000    2.3724618   -2.2901213            0    1.2676817    5.5006197    3982.3856 
Loop time of 2.48281 on 48 procs for 10000 steps with 4000 atoms

Performance: 695986.474 tau/day, 4027.700 timesteps/s
99.7% CPU use with 48 MPI tasks x no OpenMP threads

MPI task timing breakdown:
Section |  min time  |  avg time  |  max time  |%varavg| %total
---------------------------------------------------------------
Pair    | 1.0762     | 1.1515     | 1.2766     |   3.6 | 46.38
Neigh   | 0.20017    | 0.21484    | 0.23791    |   1.3 |  8.65
Comm    | 0.71344    | 0.85536    | 0.92954    |   4.5 | 34.45
Output  | 0.00024114 | 0.00024483 | 0.00031024 |   0.0 |  0.01
Modify  | 0.22614    | 0.24581    | 0.29362    |   3.5 |  9.90
Other   |            | 0.01507    |            |       |  0.61

Nlocal:        83.3333 ave          92 max          74 min
Histogram: 3 2 3 5 6 12 7 5 2 3
Nghost:        1644.50 ave        1674 max        1620 min
Histogram: 4 4 7 5 8 7 4 5 1 3
Neighs:        9585.60 ave       11031 max        8042 min
Histogram: 2 2 1 8 10 10 4 7 3 1

Total # of neighbors = 460109
Ave neighs/atom = 115.02725
Neighbor list builds = 907
Dangerous builds = 205

# Equilibrate just above the melting temperature to avoid step fn in T

fix 1 all npt temp 1.25 1.25 0.1 iso 5.68 5.68 0.5 mtk yes tchain 5 pchain 5
run 2000
Per MPI rank memory allocation (min/avg/max) = 3.643 | 3.645 | 3.649 Mbytes
Step Temp E_pair E_mol TotEng Press Volume 
   10000    2.3724618   -2.2901213            0    1.2676817    5.5006197    3982.3856 
   11000    1.2343658   -3.3622034            0   -1.5111176    5.9773951    3078.7705 
   12000     1.254533   -3.3577139            0   -1.4763849    5.4936477    3116.7476 
Loop time of 0.60759 on 48 procs for 2000 steps with 4000 atoms

Performance: 568804.996 tau/day, 3291.696 timesteps/s
99.7% CPU use with 48 MPI tasks x no OpenMP threads

MPI task timing breakdown:
Section |  min time  |  avg time  |  max time  |%varavg| %total
---------------------------------------------------------------
Pair    | 0.27225    | 0.29244    | 0.31681    |   1.9 | 48.13
Neigh   | 0.039565   | 0.041182   | 0.044132   |   0.5 |  6.78
Comm    | 0.19701    | 0.22475    | 0.24525    |   2.5 | 36.99
Output  | 5.1516e-05 | 5.3003e-05 | 6.9403e-05 |   0.0 |  0.01
Modify  | 0.041862   | 0.044351   | 0.047523   |   0.8 |  7.30
Other   |            | 0.004809   |            |       |  0.79

Nlocal:        83.3333 ave          91 max          77 min
Histogram: 7 3 7 2 3 12 5 5 2 2
Nghost:        1942.60 ave        1962 max        1915 min
Histogram: 2 2 1 5 6 7 11 2 7 5
Neighs:        12250.7 ave       13671 max       10997 min
Histogram: 4 3 6 6 5 6 11 4 0 3

Total # of neighbors = 588035
Ave neighs/atom = 147.00875
Neighbor list builds = 142
Dangerous builds = 14

#############################
# L I N E A R  Q U E N C H  #
#############################

# Define solid atoms. This closely follows ten Wolde  Ruiz-Montero and Frenkel  Faraday Discuss  1996  104  93-110
# Compute components of the per-atom q6 vector
compute q6 all orientorder/atom degrees 1 6 components 6 nnn NULL cutoff 1.3 # compute the Q6 parameter.
                                                                             # Use all neighbours within 1.3 unit cell.

# get number of connections
compute coord_number all coord/atom orientorder q6 0.5

# An atom is solid if it has 8 or more connections (of a possible 14)
variable is_solid atom c_coord_number>=8
group solid dynamic all var is_solid    # Must be dynamic to update
dynamic group solid defined

# do clustering
compute cluster solid cluster/atom 1.3 # Create a cluster where all atoms within are solid and max 1.3 units from another member

# define chunks one chunk per cluster
compute clus_chunks solid chunk/atom c_cluster nchunk every compress yes  # Says which atoms are in which chunk

# count the size of each chunk
compute size_chunks solid property/chunk clus_chunks count


# Find the maximum entry in the vector of chunk sizes
variable max_n equal max(c_size_chunks)


# Thermo style which includes this variable
# thermo_style custom step temp pe vol v_max_n

thermo ${N}  # Print the thermo information every 100 steps
thermo 1000  

# Reset the npt fix at a lower temperature (below freezing)
fix 1  all npt temp  ${temp} ${temp}  0.1  iso  5.68  5.68  0.5  mtk yes tchain  5  pchain  5
fix 1  all npt temp  0.45 ${temp}  0.1  iso  5.68  5.68  0.5  mtk yes tchain  5  pchain  5
fix 1  all npt temp  0.45 0.45  0.1  iso  5.68  5.68  0.5  mtk yes tchain  5  pchain  5

dump dmp2 all dcd ${N} traj.dcd
dump dmp2 all dcd 1000 traj.dcd


compute msd all msd com yes
variable twopoint equal c_msd[4]/6/(step*dt+1.0e-6)
fix 9 all vector 10 c_msd[4]
variable fit equal slope(f_9)/6/(10*dt)
thermo_style custom step temp pe c_msd[4] v_twopoint v_fit v_max_n

fix 1 all npt temp 1.25 ${temp} 0.1 iso 5.68 5.68 0.5 mtk yes tchain 5 pchain 5
fix 1 all npt temp 1.25 0.45 0.1 iso 5.68 5.68 0.5 mtk yes tchain 5 pchain 5
run 5000000 # 5000000  # Run for this many steps
Neighbor list info ...
  update every 1 steps, delay 10 steps, check yes
  max neighbors/atom: 2000, page size: 100000
  master list distance cutoff = 3.8
  ghost atom cutoff = 3.8
  binsize = 1.9, bins = 8 8 8
  4 neighbor lists, perpetual/occasional/extra = 1 3 0
  (1) pair lj/cut, perpetual
      attributes: half, newton on
      pair build: half/bin/atomonly/newton
      stencil: half/bin/3d
      bin: standard
  (2) compute orientorder/atom, occasional
      attributes: full, newton on
      pair build: full/bin/atomonly
      stencil: full/bin/3d
      bin: standard
  (3) compute coord/atom, occasional
      attributes: full, newton on
      pair build: full/bin/atomonly
      stencil: full/bin/3d
      bin: standard
  (4) compute cluster/atom, occasional
      attributes: full, newton on
      pair build: full/bin/atomonly
      stencil: full/bin/3d
      bin: standard
Per MPI rank memory allocation (min/avg/max) = 9.823 | 9.828 | 9.834 Mbytes
Step Temp PotEng c_msd[4] v_twopoint v_fit v_max_n 
   12000     1.254533   -3.3577139 5.2630827e-30 3.6549184e-32 8.3333333e+20            2 
   13000    1.2432864   -3.3509983    1.0013302 0.0064187833  0.084436161            2 
   14000    1.2597207    -3.350234    2.0313554  0.012091401  0.086038077            1 
   15000      1.23985   -3.3568395    3.0892364  0.017162424  0.087193202            2 
   16000    1.2573062   -3.3524121    4.1898486  0.021822128  0.088037179            6 
   17000    1.2387224   -3.3657403    5.3439278  0.026195724  0.089132755            1 
   18000    1.2350627   -3.3590729    6.4797119  0.029998666  0.090362146            4 
   19000    1.2648672   -3.3606714    7.4464271  0.032659767  0.090466827            2 
   20000    1.2521373   -3.3626102    8.6368733  0.035986971   0.09068186            3 
   21000    1.2590751   -3.3756652    9.6445859  0.038272165  0.090780017            2 
   22000    1.2457786   -3.3663229     10.77395  0.040810417  0.090891122            1 
   23000    1.2114009   -3.3444181    11.975857  0.043390787  0.091101177            1 
   24000    1.2487817   -3.3831068    13.106567  0.045508913  0.091299877            2 
   25000    1.2273662    -3.363102    14.164167   0.04721389  0.091454115            3 
   26000    1.2656929   -3.3198835    15.253028  0.048887909   0.09142252            1 
   27000    1.2512532   -3.3586027    16.581298  0.051176844  0.091654577            2 
   28000    1.2349701   -3.3554976    17.834071  0.053077592  0.092215502            2 
   29000    1.2699995   -3.3317712    19.029338  0.054682006  0.092767231            2 
   30000    1.2338503   -3.3834507    20.062596  0.055729432  0.093143452            3 
   31000    1.2443627   -3.3387501    21.197738  0.056983165   0.09343445            1 
   32000    1.2337343   -3.3561328    22.245143   0.05793006  0.093627739            1 
   33000    1.2559313    -3.350005    23.294844  0.058825362  0.093737463            2 
   34000    1.2467605   -3.3755456    24.572583  0.060226919  0.093863842            3 
   35000    1.2544537   -3.3555101    25.349143  0.060355102  0.093837544            2 
   36000    1.2547934   -3.3527987    26.584261  0.061537641  0.093692113            2 
   37000    1.2544882   -3.3868801    27.580972  0.062119306  0.093532901            4 
   38000     1.254104   -3.3746789    28.644539  0.062816971  0.093431774            2 
   39000     1.263651   -3.3933241    29.817465  0.063712532  0.093351175            3 
   40000    1.2319702    -3.388055    30.979261  0.064540125   0.09326485            1 
   41000    1.2419794   -3.3704748    32.088033  0.065219579  0.093201815            3 
   42000    1.2497782   -3.3364002    33.117688  0.065709697  0.093100239            3 
   43000    1.2505904   -3.3635291    34.232202  0.066341476  0.093006556            1 
   44000    1.2178507   -3.3730197    35.533958  0.067299163  0.093005978            2 
   45000    1.2477616   -3.3854594     36.63448  0.067841629  0.093031743            2 
   46000     1.272372   -3.3664497    37.413241   0.06777761  0.092967348            2 
   47000    1.2241992   -3.3597714    38.760972  0.068725128  0.092918031            2 
   48000    1.2454066   -3.3361265    40.045577  0.069523571  0.092934796            2 
   49000    1.2295382   -3.3996181    40.791499  0.069373296  0.092902414            2 
   50000     1.228685   -3.3799325    42.276722  0.070461202  0.092882329            1 
   51000    1.2554411   -3.3489805    43.350654  0.070834401  0.092894613            1 
   52000    1.2560031   -3.3902249    44.508875  0.071328324   0.09293965            1 
   53000    1.2381196   -3.3691876    45.817189  0.072039605    0.0930221            1 
   54000    1.2344467   -3.3619551    46.995126  0.072523342   0.09309754            4 
   55000    1.2111136   -3.3840638     48.01185  0.072745227  0.093187239            3 
   56000    1.2458162    -3.381545    49.028673  0.072959335  0.093237657            1 
   57000    1.2358847   -3.3636106     50.32697  0.073577441  0.093291866            1 
   58000    1.2347568   -3.3900355     51.28752  0.073688965  0.093348705            2 
   59000    1.2182356   -3.3622769    52.666374  0.074387533  0.093391447            3 
   60000    1.2599253   -3.4207384    53.289687  0.074013454  0.093398154            4 
   61000    1.2203926   -3.3919959    54.320648  0.074208535   0.09338436            2 
   62000    1.2552189   -3.3949359    55.505159  0.074603707  0.093338498            2 
   63000    1.2450351   -3.3634735     56.36946  0.074562777  0.093288394            4 
   64000    1.2617433    -3.353047    57.637702   0.07504909  0.093209031            2 
   65000    1.2194079   -3.3850897    58.485428  0.074981317  0.093128815            3 
   66000     1.248788   -3.3602897    59.288409  0.074859101  0.093023617            2 
   67000    1.2550217   -3.3350623    60.079426  0.074725654  0.092910153            2 
   68000    1.2077401   -3.3416639     61.78012  0.075710931   0.09279012            1 
   69000    1.2364876   -3.3521611     62.21742  0.075141811  0.092658186            2 
   70000    1.2507283    -3.357364    63.451453  0.075537444  0.092486138            1 
   71000    1.2346273   -3.3654135    64.111667  0.075248435  0.092318075            3 
   72000    1.2275672   -3.3802454    65.208043  0.075472272  0.092169792            2 
   73000    1.2474794   -3.3778986    66.163522  0.075529134  0.092024857            1 
   74000    1.2647313   -3.3522299    66.982835   0.07543112  0.091876217            2 
   75000    1.2434662   -3.3564585    68.240094  0.075822326  0.091743872            1 
   76000    1.2330986   -3.3794491    68.725929  0.075357377  0.091577368            1 
   77000    1.2367227   -3.3828059    69.872653  0.075619754  0.091378462            2 
   78000    1.2551732   -3.4005532    70.818714  0.075661019  0.091198878            1 
   79000    1.2571809   -3.3835159    72.059206   0.07601182   0.09103024            1 
   80000    1.2332681   -3.3446285    72.865225  0.075901276  0.090874113            1 
   81000     1.219762   -3.3568855    73.857908  0.075985501  0.090725364            1 
   82000    1.2576312   -3.3580693    75.150477  0.076372435  0.090587343            3 
   83000    1.2141593   -3.3541996     76.35268  0.076659316  0.090475294            1 
   84000    1.2168696   -3.3743374    77.607031  0.076991102   0.09037295            3 
   85000    1.2155287    -3.400409    78.134393  0.076602346  0.090269512            2 
   86000    1.2504949   -3.3672649     79.48966  0.077024864  0.090146108            2 
   87000    1.2410622   -3.3541854    80.930285  0.077519429  0.090038842            2 
   88000     1.234975   -3.3717624    81.809485  0.077471103  0.089956763            1 
   89000    1.2254635   -3.3657764    83.138552  0.077845086  0.089895031            1 
   90000    1.2607358   -3.3615427    84.081291  0.077853047   0.08985183            2 
   91000    1.2482678   -3.3878617    85.357394  0.078166111  0.089811494            4 
   92000    1.2452984    -3.390688    86.445438  0.078302026  0.089781569            1 
   93000    1.2669583   -3.3791194    87.805239  0.078678529  0.089749937            1 
   94000    1.2479079   -3.4009528    88.777841   0.07870376  0.089732617            1 
   95000    1.2472427   -3.4060545    89.691946  0.078677145  0.089721199            2 
   96000    1.2281323    -3.364803    91.691787  0.079593565  0.089723685            1 
   97000    1.2211119   -3.3648161    92.268874  0.079268791  0.089733847            3 
   98000    1.2544771   -3.3794441    93.332583  0.079364441  0.089736269            1 
   99000    1.2387508    -3.382077    94.616139  0.079643215  0.089743514            2 
  100000    1.2359957   -3.3779758    95.803592  0.079836326  0.089758718            3 
  101000    1.2382876    -3.342007     97.06808  0.080089174  0.089775199            2 
  102000    1.2418744   -3.3932421     97.51075  0.079665645  0.089790522            2 
  103000    1.2321986   -3.3655541      99.1221  0.080195874  0.089820211            1 
  104000    1.2411129   -3.3938319    100.03828  0.080158878  0.089822021            2 
  105000     1.253848   -3.3810421    100.61562  0.079853669  0.089833615            1 
  106000    1.2309721   -3.3741934    101.79627  0.080028515  0.089833753            1 
  107000    1.2106165   -3.3721158    103.19505  0.080369974  0.089827243            2 
  108000    1.2512959   -3.3657922    103.81687  0.080105611  0.089811497            3 
  109000    1.2266827   -3.3701664    104.37967   0.07980097  0.089790002            1 
  110000    1.2310715   -3.3676945    106.15308  0.080419002  0.089772295            1 
  111000     1.250979   -3.3551443    107.38012  0.080615707  0.089760184            2 
  112000    1.2358068   -3.3906559    108.09768  0.080429825  0.089751208            2 
  113000    1.2171732   -3.3901363    109.40688  0.080683539  0.089744318            3 
  114000    1.2303699   -3.3746598    110.57938  0.080832883  0.089740162            1 
  115000    1.2701839   -3.3833913    111.46991  0.080775294  0.089732308            2 
  116000    1.2271692   -3.3638538     112.1069  0.080536566  0.089714528            4 
  117000    1.2331698   -3.3470484     113.7493  0.081018021   0.08969654            1 
  118000    1.2462947   -3.3766731     114.4965  0.080859111  0.089677756            1 
  119000     1.228424   -3.3722282    114.68391   0.08031086  0.089644616            2 
  120000      1.23844   -3.4053661    116.00099  0.080556244  0.089597233            1 
  121000    1.2384482   -3.4453903    117.63546   0.08101616  0.089568929            2 
  122000    1.2345797   -3.3714612    119.08468  0.081341995  0.089566805            3 
  123000    1.2273987   -3.3635987    120.27095  0.081484382   0.08956544            1 
  124000    1.2134609    -3.381449    121.01501  0.081327292  0.089569697            3 
  125000    1.2291108     -3.38758    121.89277  0.081261848  0.089564979            1 
  126000    1.2507493   -3.3753261    123.35689  0.081585245   0.08955781            3 
  127000    1.2449405   -3.4082148    124.09858  0.081429511  0.089556024            1 
  128000    1.2368973   -3.3938043    125.28959  0.081568744  0.089558924            4 
  129000    1.2431465   -3.3927251    126.02327  0.081410378  0.089552455            2 
  130000    1.2044911   -3.4007908     127.1423  0.081501475  0.089550211            2 
  131000    1.2033849   -3.4002511     128.2206  0.081565267  0.089534209            2 
  132000    1.2300556   -3.3837206     129.4267  0.081708775  0.089523586            2 
  133000    1.2003617   -3.3725695    131.29579  0.082265531  0.089522426            2 
  134000    1.2044076   -3.3345102    132.97679  0.082697006  0.089530095            2 
  135000    1.2398657   -3.3790698    133.47534  0.082392184  0.089549365            1 
  136000    1.2282721   -3.4078734    134.39532  0.082350071  0.089562584            2 
  137000    1.2112202   -3.3696412    135.53717  0.082443532  0.089571764            1 
  138000    1.2081112   -3.3735474    136.35044  0.082337224  0.089580581            1 
  139000     1.267299   -3.3910866    137.75479  0.082586807  0.089592803            2 
  140000    1.2267478   -3.3795062     138.7626  0.082596787  0.089593313            1 
  141000    1.2304938   -3.3915153    140.19481  0.082857454  0.089603764            2 
  142000    1.2136147   -3.3732844    140.51089  0.082459443  0.089604317            1 
  143000    1.2241817   -3.3649491    141.44701  0.082428325  0.089616859            2 
  144000    1.2156532   -3.3837314    141.80949  0.082065679  0.089605391            2 
  145000    1.2448213   -3.4054228    142.47247  0.081880732  0.089579643            1 
  146000     1.215852   -3.4151781    143.67185  0.082004478  0.089550332            2 
  147000    1.2407464   -3.3867569    145.83388  0.082672267  0.089527113            1 
  148000    1.1958842   -3.3809178    146.61537    0.0825537  0.089523547            2 
  149000    1.1921839   -3.3780009    146.91747  0.082168605  0.089508121            2 
  150000    1.2107864   -3.3927865    148.27337  0.082374094  0.089489246            1 
  151000    1.2204719   -3.4134201    148.74072  0.082086489  0.089455659            3 
  152000    1.2291995   -3.3629584    149.22534  0.081812139  0.089421002            2 
  153000    1.2500004   -3.3793247     150.3797  0.081906153    0.0893845            1 
  154000    1.2319953   -3.3950829     151.7243  0.082101892  0.089351212            2 
  155000    1.2208686   -3.3828063    152.26019  0.081860319   0.08931277            2 
  156000    1.2363447   -3.4038796    152.52137  0.081475089  0.089276505            1 
  157000    1.2378262    -3.398835     154.8413  0.082187529  0.089229353            4 
  158000    1.2289484    -3.366555    156.00179  0.082279427  0.089193564            2 
  159000    1.2249405   -3.3916243    156.12788  0.081828027  0.089157854            2 
  160000    1.2354348   -3.4163504    157.60935  0.082088203   0.08912956            3 
  161000    1.2244444   -3.3652034    158.79869  0.082193941  0.089104367            3 
  162000    1.1999809   -3.3799194    160.14438  0.082378795  0.089083326            1 
  163000    1.2155215   -3.3986574    161.18038  0.082403057   0.08906156            1 
  164000    1.1976589    -3.419347    161.37055  0.081997232  0.089028403            3 
  165000      1.21879   -3.3831236    162.63791  0.082140359  0.089000996            2 
  166000    1.2069424   -3.3896386    163.97153  0.082315026  0.088970755            2 
  167000    1.2089225   -3.3593362    165.15719  0.082413766   0.08894008            2 
  168000    1.2436097   -3.3836213    165.79629  0.082240222  0.088903213            3 
  169000    1.2353826   -3.3928076    167.18161  0.082436689  0.088863117            3 
  170000    1.2181768   -3.3830619    166.70899  0.081720095  0.088817856            3 
  171000    1.2353849   -3.3800549    167.69453  0.081722479  0.088759826            2 
  172000    1.2313476   -3.3897653     169.3315  0.082040455  0.088716008            1 
  173000    1.2349474   -3.3848335    170.25612  0.082011621  0.088668541            1 
  174000    1.2109024   -3.3886844    171.37414  0.082075736  0.088621457            1 
  175000     1.218756   -3.4364516     171.3394  0.081590189   0.08857221            4 
  176000    1.2012124   -3.4031979    172.61204  0.081729183  0.088523687            1 
  177000    1.2084149   -3.4100335    173.95274  0.081898656  0.088471287            1 
  178000    1.2462956    -3.375902     175.0006  0.081929119  0.088424655            3 
  179000    1.2292477    -3.391659    176.10655  0.081986289  0.088376922            2 
  180000    1.2101205   -3.3860679    176.90809  0.081901893  0.088331635            1 
  181000    1.2222642   -3.3657032    178.02701  0.081964554  0.088284103            1 
  182000     1.206209   -3.3811845    178.92239  0.081924173  0.088239131            4 
  183000    1.2324681   -3.3815897    180.16075  0.082040415  0.088198485            1 
  184000    1.2234608   -3.4067634    181.89317  0.082379151  0.088164748            3 
  185000    1.2156535   -3.4093473      182.188  0.082066666   0.08813491            4 
  186000    1.2203359   -3.3679677    183.42394  0.082179186  0.088101185            6 
  187000    1.2225601   -3.3876898    183.75168  0.081885774  0.088062207            1 
  188000    1.2246885   -3.3759918    185.56354  0.082253343   0.08801811            1 
  189000     1.206539    -3.396613     185.6401  0.081851897  0.087978993            3 
  190000    1.2234335   -3.3867447     187.1595  0.082087502  0.087938338            1 
  191000    1.2232994   -3.3732562    188.91226  0.082422451  0.087904029            1 
  192000      1.21593   -3.3883579    189.74309  0.082353772  0.087870064            1 
  193000    1.2368089    -3.412362    190.43435  0.082225542  0.087839544            3 
  194000    1.2303156   -3.3976985    192.05648   0.08249849  0.087818855            1 
  195000    1.2278145   -3.4327088    192.62041  0.082316414  0.087800175            2 
  196000    1.2301814   -3.3972252    193.81666  0.082405041   0.08777913            3 
  197000     1.210292   -3.4182053    194.86293  0.082429326  0.087752137            2 
  198000    1.2227938   -3.4027048    195.34849  0.082217378  0.087722764            1 
  199000    1.2548071     -3.41389    195.74904   0.08197196  0.087691197            2 
  200000    1.2037993   -3.4127972     196.7704  0.081987665  0.087656538            1 
  201000    1.2425887   -3.3622183    197.86217  0.082032408  0.087620023            1 
  202000    1.2632714   -3.4346524    199.17949  0.082169757  0.087583769            1 
  203000    1.2384502   -3.4350613    200.09258   0.08213981  0.087543283            1 
  204000    1.2052678   -3.3919417    200.65869  0.081968417  0.087504347            2 
  205000    1.2155677   -3.3961196    201.39104  0.081866277  0.087463404            2 
  206000    1.2208435   -3.3966142    202.93917  0.082095135  0.087424184            2 
  207000    1.2159119   -3.4559236    204.60385    0.0823687   0.08738888            2 
  208000    1.2284784   -3.3923566    205.85747  0.082474949   0.08735729            1 
  209000    1.2141445   -3.4480526    205.54001  0.081953751  0.087329409            3 
  210000    1.2035398   -3.3860857     207.8487  0.082479642  0.087303175            1 
  211000    1.2479228   -3.3726156    209.51955  0.082748636  0.087280096            2 
  212000     1.215074   -3.4025133      209.161  0.082217375  0.087254663            2 
  213000    1.2562399   -3.3946966    210.36341  0.082301805  0.087221039            1 
  214000    1.2275745   -3.3627177    211.46357  0.082345626  0.087189611            1 
  215000    1.2176032   -3.4070489     211.1276  0.081832403  0.087160242            1 
  216000    1.2198739   -3.3779457    213.49801   0.08236806  0.087130158            1 
  217000     1.235111   -3.4067265    213.58683  0.082022593  0.087101587            3 
  218000    1.2086841   -3.3854357    215.61443  0.082421417   0.08707096            3 
  219000     1.202831   -3.4015711     215.9336  0.082166515   0.08703812            2 
  220000    1.2159004    -3.404494    216.53082  0.082019248   0.08700335            1 
  221000    1.2491072   -3.4115593    216.07177  0.081475028  0.086964295            2 
  222000    1.2268861   -3.4142605    218.27743  0.081935972  0.086928518            5 
  223000    1.1999616    -3.405508    219.50825  0.082028493  0.086895354            2 
  224000    1.2240489   -3.4154562    219.71737  0.081740092  0.086861691            4 
  225000    1.1979775   -3.3865472    221.15129  0.081907887  0.086822576            1 
  226000    1.2313859   -3.3958338    222.99631  0.082225776  0.086781434            1 
  227000    1.2224569   -3.3858161    223.44286   0.08202748  0.086745556            2 
  228000      1.22605   -3.4269954    224.17361  0.081934799  0.086712548            1 
  229000    1.1848703   -3.4096733     224.1114  0.081554367   0.08667489            1 
  230000    1.2559574   -3.3990755    226.00949  0.081887497  0.086641832            1 
  231000    1.2151458   -3.3991229    227.92769  0.082224998  0.086609675            1 
  232000    1.2177704   -3.4137923    228.40961  0.082043681  0.086582821            2 
  233000    1.2228936   -3.3837575    230.78097  0.082539689  0.086555271            2 
  234000     1.217699   -3.4339781    230.54041  0.082101285  0.086526476            3 
  235000    1.2037731   -3.3988286    232.46425   0.08243413  0.086498588            1 
  236000    1.2262294   -3.3825729     234.0922  0.082659674  0.086479111            2 
  237000    1.2190435   -3.4008798    235.29946  0.082735393  0.086456188            1 
  238000    1.1963553   -3.3898006    235.71472  0.082533163  0.086437835            2 
  239000    1.2504831   -3.3695411    237.15225  0.082689068  0.086423014            1 
  240000    1.2085423   -3.3694707    237.51372  0.082470043  0.086405616            1 
  241000    1.2022958    -3.378444    238.63999  0.082517285  0.086389009            1 
  242000    1.2388094   -3.3938668    239.82978  0.082586011  0.086368689            3 
  243000    1.1756491   -3.4134004       240.07  0.082328533  0.086346663            2 
  244000    1.2085984   -3.4413872    240.54824  0.082154454  0.086325033            3 
  245000    1.2032897   -3.4294577    242.67828  0.082543631  0.086299477            1 
  246000    1.2463778   -3.4153137    243.59821  0.082519719   0.08628024            1 
  247000    1.2093374   -3.4057005    243.57248   0.08217695  0.086258682            2 
  248000    1.1710909   -3.3948631    245.87623  0.082619699  0.086239506            2 
  249000    1.2347791    -3.420606    246.37836  0.082455943  0.086225326            1 
  250000    1.2124568   -3.4356449    247.87837  0.082626122  0.086211587            1 
  251000    1.2275248    -3.376842    249.30715  0.082771298   0.08620046            2 
  252000    1.2172503   -3.3863606    250.35297   0.08278868  0.086190004            2 
  253000    1.1933088   -3.3906127    249.88245  0.082306473  0.086175751            6 
  254000      1.19958   -3.4163513    253.05388  0.083022925  0.086160225            1 
  255000    1.2347653   -3.3956434    252.97235  0.082670701  0.086145335            5 
  256000    1.2249741   -3.4238328    253.60461  0.082553582  0.086133136            1 
  257000    1.2083658   -3.4089577    255.98512  0.083004253  0.086121596            1 
  258000    1.2236946   -3.4033042    256.93036  0.082987843  0.086113927            3 
  259000    1.2248054   -3.3668684    257.61031    0.0828862  0.086103365            3 
  260000    1.1888492   -3.4193615    257.48903  0.082528535  0.086093721            1 
  261000    1.1864026   -3.4257194    257.90966  0.082346633  0.086077417            3 
  262000    1.2190989   -3.4139652    259.54302  0.082551852  0.086060598            2 
  263000    1.2140396   -3.4177667    259.50486  0.082225875  0.086043037            3 
  264000    1.2299324   -3.3870301    261.81816  0.082644621  0.086025141            3 
  265000    1.1862964   -3.4299354    261.49886  0.082232345  0.086006634            3 
  266000     1.227081   -3.3743893    263.14996  0.082440464  0.085987642            1 
  267000    1.2023175   -3.3982268     263.9192  0.082371786  0.085966506            1 
  268000    1.2259162    -3.383079    266.08025  0.082736397   0.08594643            5 
  269000    1.2289692   -3.4226278    265.93986  0.082385335  0.085926419            1 
  270000    1.2199132    -3.383287    268.51185  0.082874026  0.085909546            2 
  271000    1.2145867   -3.4163309    267.62417  0.082295257  0.085894775            2 
  272000    1.2114839   -3.4390079    268.40997  0.082233445  0.085880611            4 
  273000    1.2142766   -3.4019238    272.21537  0.083093824  0.085868139            2 
  274000    1.1972567   -3.4053655    272.09984  0.082755424  0.085857743            1 
  275000    1.2045467    -3.381795    273.82463   0.08297716  0.085847741            2 
  276000    1.2120822   -3.4199028    273.54518  0.082592142  0.085836534            3 
  277000    1.1919356   -3.4616234    273.86435  0.082389996  0.085826251            3 
  278000    1.1910553    -3.405968    276.43544  0.082864341  0.085811454            1 
  279000     1.197285   -3.4247223    276.63804  0.082627848  0.085797195            2 
  280000    1.2180069   -3.4446432    277.63263  0.082628758  0.085783209            2 
  281000    1.2018343   -3.4392269    278.99265  0.082738032  0.085774272            1 
  282000    1.2311232    -3.385016    280.96691  0.083028046  0.085765777            1 
  283000    1.1886442   -3.3999977     280.7091  0.082658744  0.085756257            2 
  284000    1.2109512   -3.4026799    281.84931  0.082702263  0.085746244            1 
  285000    1.2251617   -3.3966557    282.92285  0.082725978  0.085737763            2 
  286000    1.2123265   -3.4467204    284.76534  0.082973582  0.085729338            1 
  287000    1.2355508   -3.4522292    285.11479  0.082785942  0.085722064            3 
  288000    1.2369811   -3.4303358    286.52795  0.082907394  0.085716245            3 
  289000    1.2014871   -3.4559252     287.8399  0.082998819  0.085712291            3 
  290000    1.2261615   -3.4041962    290.18486  0.083386454  0.085707007            2 
  291000    1.1941863   -3.4182845    290.10238  0.083076283  0.085700818            3 
  292000    1.1795899    -3.422975    290.87112  0.083011165   0.08569165            1 
  293000     1.207433   -3.4343713    290.91466  0.082740234  0.085684912            1 
  294000    1.1873793   -3.4180597    293.04841  0.083063608  0.085678539            1 
  295000    1.2088428   -3.4491517    294.07074  0.083070831  0.085671894            2 
  296000    1.1945107   -3.4127239    293.77665   0.08270739   0.08566558            2 
  297000    1.2127516   -3.4090245    296.39267  0.083162926  0.085658249            1 
  298000    1.1889606   -3.4135545    295.36196  0.082595627  0.085648524            3 
  299000     1.193386   -3.3810404    295.82226  0.082447676  0.085637141            2 
  300000    1.1918432   -3.3706274    299.25805  0.083127235  0.085628834            4 
  301000    1.2301285   -3.4546742    297.88711  0.082471513  0.085621039            2 
  302000     1.194672   -3.4245805     299.7281  0.082706428  0.085610153            1 
  303000    1.1989868     -3.41643    300.51496  0.082649878  0.085596118            3 
  304000    1.1929366    -3.385408    301.65343  0.082690084  0.085581133            2 
  305000    1.1687206   -3.4518965    301.47475  0.082370151  0.085566723            2 
  306000    1.1963774   -3.4009636    302.32151  0.082331567   0.08554856            2 
  307000    1.2150249   -3.3813935    305.52607  0.082933244  0.085534634            2 
  308000    1.1991423   -3.4045203    304.94625  0.082507103  0.085523982            2 
  309000     1.189123   -3.4302309    306.17665  0.082571912  0.085512168            1 
  310000    1.2286621    -3.417642    308.69305  0.082982002  0.085502754            2 
  311000    1.1814425   -3.4238846    309.47247  0.082924027  0.085495324            2 
  312000    1.1716134   -3.4199895    308.58626  0.082421545  0.085486981            1 
  313000    1.2083194     -3.44398    310.34566   0.08262664  0.085479905            1 
  314000    1.1937401   -3.4376884    312.12933   0.08283687   0.08546855            2 
  315000     1.198158   -3.4256503    312.29344  0.082617312  0.085458754            2 
  316000    1.2108222   -3.4148595    313.15829  0.082583938  0.085444363            2 
  317000    1.2033068     -3.39752    313.31775  0.082365338  0.085430554            1 
  318000    1.1907694   -3.4370768    314.86226  0.082511075  0.085414103            3 
  319000    1.1958325   -3.4422661    315.79956  0.082497272  0.085399261            5 
  320000    1.2108977   -3.4727276    316.01296  0.082295042   0.08538727            1 
  321000    1.2263341   -3.4406035    318.51935  0.082689344  0.085377296            4 
  322000    1.1753454   -3.4182483    320.12596  0.082848334   0.08536611            2 
  323000    1.2022482   -3.4158484    320.35781  0.082651655  0.085354534            3 
  324000    1.1789294   -3.3894673    322.65404   0.08298715  0.085348204            4 
  325000    1.1956323   -3.4131288    322.09103  0.082587444  0.085339093            1 
  326000    1.2049619    -3.403615    323.82451  0.082777227  0.085329238            8 
  327000    1.1959485   -3.4432347    324.27684  0.082639359   0.08532019            2 
  328000    1.2050595   -3.3876124    325.88139   0.08279507  0.085309749            2 
  329000    1.1957666    -3.434811    327.18967   0.08287479  0.085296743            2 
  330000    1.2157339   -3.4103961    327.28367  0.082647391  0.085285478            2 
  331000    1.1830611    -3.443288    327.10764  0.082353384  0.085271413            1 
  332000    1.2290243   -3.4219965    329.23422  0.082639111  0.085254801            1 
  333000    1.2322673   -3.4122099    328.98815  0.082329366  0.085241772            2 
  334000    1.1987059   -3.4046592    330.76417  0.082525991   0.08522922            1 
  335000     1.190113   -3.4174799    331.72329  0.082518232   0.08521615            4 
  336000    1.1883967   -3.4279145    331.85164  0.082304475  0.085202253            3 
  337000    1.2177475   -3.4230811    332.69257  0.082268193  0.085185294            2 
  338000    1.1997435   -3.4178135    332.27713   0.08192237  0.085169182            2 
  339000    1.1978793    -3.444668    334.60998  0.082254174   0.08515012            2 
  340000     1.207759   -3.4530079    336.79339    0.0825474  0.085131838            2 
  341000    1.2007564   -3.4239434    336.30628  0.082186286  0.085115808            2 
  342000    1.1797312   -3.4310405    338.20231  0.082407971  0.085101222            2 
  343000    1.2128167   -3.4277758     339.4452   0.08246968  0.085086511            4 
  344000    1.1950757   -3.4221743    340.45896  0.082475523  0.085073093            3 
  345000    1.1857891   -3.4075299    342.50102  0.082729714  0.085062316            2 
  346000     1.193649   -3.4627952     341.7215  0.082302867    0.0850518            2 
  347000    1.2057255   -3.4046828    343.60858  0.082518872  0.085040379            3 
  348000    1.2128881   -3.4489545    343.11397  0.082163307  0.085027298            1 
  349000    1.1757983   -3.4458657    346.54317  0.082746697  0.085017056            4 
  350000    1.2070468   -3.4492137    344.88503  0.082115482  0.085005765            1 
  351000    1.1852799   -3.4263304    348.25697  0.082682092  0.084995282            1 
  352000    1.1802413   -3.4406254    348.82501  0.082581679  0.084985876            1 
  353000    1.1882014   -3.4262794    349.18587  0.082432925   0.08497648            1 
  354000    1.1905251   -3.4310565    350.79354  0.082578516  0.084966248            2 
  355000    1.1864266   -3.4361188    351.70357  0.082559522   0.08495627            4 
  356000    1.1920884   -3.4010867    353.87109  0.082834993  0.084943085            3 
  357000    1.2201562   -3.3979673    354.11554  0.082660023  0.084929504            2 
  358000    1.1789331   -3.4127438    354.51294  0.082521634  0.084916359            4 
  359000    1.1787227   -3.3948369    355.14543  0.082438586   0.08490222            2 
  360000    1.1944817    -3.448644    354.77071  0.082122849  0.084886061            1 
  361000    1.2019099   -3.4074564    355.84565  0.082143502  0.084871566            1 
  362000    1.1625617   -3.4132335    359.32745  0.082718106  0.084857573            2 
  363000    1.1985588   -3.4230898    357.99574  0.082184512  0.084845891            3 
  364000    1.1891163   -3.4485104    359.44761   0.08229112  0.084834208            1 
  365000    1.2180653   -3.4174997     361.3579  0.082501803  0.084819488            2 
  366000     1.197332   -3.4238989    361.54521  0.082319037  0.084806076            2 
  367000    1.2179715   -3.4611419    362.04473  0.082208159  0.084789757            2 
  368000    1.1876892   -3.4469958    361.21279  0.081796375  0.084774846            2 
  369000    1.2061321   -3.4357988    363.76755  0.082151661  0.084756046            2 
  370000     1.212857   -3.4114755    365.57111  0.082335836  0.084738227            1 
  371000    1.1882259   -3.4130397    365.66056  0.082133998  0.084716946            1 
  372000    1.2029124   -3.4108239    365.77978  0.081939914  0.084701252            4 
  373000    1.2118856   -3.4313351     366.9138  0.081973593  0.084684445            2 
  374000    1.2044295   -3.4357193    367.91795  0.081978152  0.084665968            2 
  375000    1.2052217   -3.4295135    368.75721  0.081946047   0.08464678            2 
  376000    1.1800568   -3.4155228    369.13013  0.081810755  0.084628181            3 
  377000    1.2183514   -3.4297248    370.44697   0.08188483  0.084610486            1 
  378000    1.1924992   -3.4296996    371.35738  0.081868911  0.084592289            2 
  379000    1.1954166      -3.4412    373.52832  0.082130237  0.084574606            2 
  380000    1.2096908   -3.4385393    372.80552  0.081755596  0.084559545            3 
  381000    1.1746727   -3.4147644    376.25366  0.082295202  0.084545269            1 
  382000    1.1847285   -3.4314971    374.91138  0.081786949  0.084528016            1 
  383000    1.2090502    -3.393944    376.41022  0.081899526  0.084509742            2 
  384000    1.1823233   -3.4308189    376.90873  0.081794428  0.084491247            2 
  385000    1.1996417   -3.4467352    379.52109  0.082147422   0.08447651            2 
  386000    1.2005582   -3.4436653    379.60564  0.081952857   0.08446068            2 
  387000    1.1775062   -3.4533269      381.458  0.082139964  0.084445228            2 
  388000    1.1960965   -3.4354023    382.85293  0.082227862  0.084432619            3 
  389000    1.1917367   -3.4178384    384.86976  0.082448534  0.084418904            2 
  390000    1.2120426   -3.4001986    385.35878   0.08234162  0.084406676            3 
  391000    1.1711326   -3.4124958    384.85253   0.08202313  0.084394887            1 
  392000    1.1694774   -3.4077389    386.36827  0.082136112   0.08438275            2 
  393000    1.1527853   -3.4211344    388.52619  0.082384688  0.084370237            2 
  394000    1.1704466   -3.4215463    387.67403  0.081995353  0.084355367            2 
  395000    1.2177154   -3.4256422    387.90861  0.081837259  0.084340965            3 
  396000    1.1722908   -3.4474067    388.92783  0.081845083  0.084326522            2 
  397000    1.1976067    -3.435162    390.56216  0.081981982   0.08431166            1 
  398000     1.168355   -3.4488064    393.52564  0.082396491  0.084296679            1 
  399000    1.1802561   -3.4542171    392.19725  0.081912541   0.08428352            5 
  400000    1.1753667   -3.4340306    393.78975   0.08203953  0.084271487            4 
  401000     1.184784    -3.416244    397.38188  0.082581438  0.084260293            2 
  402000    1.1805388   -3.4299379    396.76384  0.082247893  0.084250173            2 
  403000    1.2110938   -3.4597224    396.89062  0.082070021  0.084238772            2 
  404000    1.1928438   -3.4400939    397.93699  0.082082713  0.084225436            3 
  405000    1.1864786   -3.4402134    399.80216  0.082263819  0.084214064            1 
  406000    1.2031812   -3.4918866    400.56715  0.082218216  0.084203809            2 
  407000    1.1587932   -3.4356933    401.67072  0.082242161   0.08419266            1 
  408000    1.1585401   -3.4568105    402.16703   0.08214196  0.084181583            3 
  409000    1.1813617   -3.4624132     402.6976  0.082049225  0.084170892            2 
  410000    1.1609841   -3.4303735    406.63383  0.082649152  0.084162318            4 
  411000    1.2110503   -3.4661075    403.55179  0.081823152  0.084154018            2 
  412000    1.1914389   -3.4372141    408.45315  0.082615929  0.084144692            2 
  413000    1.1769184    -3.411285    407.45712  0.082214915  0.084133225            1 
  414000    1.1824795   -3.4337668    407.36177  0.081997135  0.084121308            3 
  415000    1.1859067   -3.4498537    407.78017  0.081883567   0.08410693            4 
  416000    1.1938596   -3.4288793    410.60372  0.082252348  0.084094512            2 
  417000    1.1910879   -3.4386554    411.35766  0.082205767  0.084082472            3 
  418000    1.1879097   -3.4435356    411.95088  0.082127368  0.084073573            2 
  419000    1.1628528   -3.4485259     412.8803  0.082116209  0.084063752            3 
  420000    1.1767257   -3.4088444    414.13919  0.082170474  0.084053132            1 
  421000    1.1758447   -3.4149929    416.90199  0.082522168  0.084042509            2 
  422000    1.1828714   -3.4468594    416.16358  0.082180801  0.084033834            2 
  423000    1.1776497   -3.4364535    417.98157  0.082344675  0.084023109            5 
  424000    1.1877121   -3.4198616    417.76696  0.082108285  0.084011189            5 
  425000    1.1752267   -3.4240392    420.22223  0.082396516  0.084000939            2 
  426000    1.1923498   -3.4594052    420.49267     0.082256  0.083992675            3 
  427000    1.1653733   -3.4310129    421.27191   0.08221544  0.083983685            3 
  428000    1.1788721   -3.4568789    424.92184  0.082734003  0.083977117            1 
  429000    1.1503451   -3.4391892    423.91126  0.082344844  0.083973172            3 
  430000    1.1897036   -3.4529894    425.29631  0.082421766  0.083967424            2 
  431000    1.1533347   -3.4658894    426.77574  0.082516578  0.083958733            1 
  432000    1.1585441   -3.4673026    424.18248  0.081825324  0.083949032            1 
  433000    1.1619915    -3.450383    425.16015  0.081824509  0.083938494            1 
  434000    1.1983683    -3.431707    427.90666  0.082163337  0.083928661            1 
  435000    1.1826107   -3.4546085    429.11587  0.082206105  0.083919714            1 
  436000    1.2078671   -3.4393608    428.55815  0.081910962  0.083909383            2 
  437000    1.2068459   -3.4314379    431.15811  0.082219318  0.083898777            2 
  438000    1.1529154   -3.4403567    430.80779  0.081964953  0.083888783            2 
  439000    1.1698292   -3.4017907    432.43125  0.082086417  0.083878424            1 
  440000    1.1987657   -3.4523451    433.56601  0.082114775  0.083868531            2 
  441000     1.161463   -3.4605298    435.17911  0.082233393   0.08385936            1 
  442000    1.1832657   -3.4555018    433.50492  0.081731697  0.083849254            1 
  443000    1.1716097   -3.4598306    434.63912  0.081760557   0.08383786            1 
  444000    1.1820117   -3.4650583    435.43594  0.081725965  0.083826122            1 
  445000    1.1956372   -3.4534716    438.28136   0.08207516  0.083813528            5 
  446000     1.171551   -3.4287396    439.88433  0.082190645  0.083803583            2 
  447000    1.1725844   -3.4476296    437.50749  0.081563663  0.083791216            2 
  448000    1.1777479   -3.4765593    441.13704  0.082056741  0.083778458            1 
  449000    1.1557518   -3.4358588    442.42245  0.082112555  0.083768118            2 
  450000    1.1712524   -3.4924935     443.2061  0.082075204  0.083758752            2 
  451000     1.208183   -3.3980916    445.06712  0.082237088   0.08375026            2 
  452000     1.173193   -3.4466052    443.77046  0.081816087  0.083743298            2 
  453000    1.1657403   -3.4633083    444.72506  0.081811085  0.083734293            3 
  454000    1.1673311   -3.4268992    449.08866  0.082431838  0.083725261            1 
  455000    1.2143851    -3.459558    447.68603  0.081993778  0.083715139            2 
  456000    1.1631794   -3.4360326    447.21593  0.081728057   0.08370409            2 
  457000    1.1583933   -3.4674376    450.27373  0.082106808  0.083693306            1 
  458000    1.1726495   -3.4643801    449.79807  0.081840988  0.083681626            2 
  459000     1.202838   -3.4547998    451.32798  0.081940446  0.083670626            6 
  460000    1.1880388   -3.4286486    452.07127  0.081896969  0.083661091            3 
  461000    1.2003658   -3.4586025    452.31586  0.081763532  0.083650511            2 
  462000    1.1808991    -3.466414    453.28527  0.081761412   0.08364016            1 
  463000    1.1772577   -3.4587408    454.37584  0.081781108  0.083629158            1 
  464000    1.1685162    -3.470548    455.70292  0.081843196  0.083619564            2 
  465000    1.1504733   -3.4932075    457.18171  0.081932206  0.083610037            2 
  466000    1.1593129   -3.4780363    456.12332  0.081567116  0.083597982            1 
  467000    1.1618048   -3.4534563    458.11687  0.081748192  0.083587897            2 
  468000    1.1787262   -3.4558517    457.95278  0.081544298  0.083577229            3 
  469000    1.1438854   -3.4628925      458.467  0.081461799   0.08356422            1 
  470000    1.1794653   -3.4405759    461.12572   0.08175988  0.083550134            4 
  471000    1.1505436   -3.4531215    462.20219   0.08177675  0.083538232            2 
  472000    1.1640637   -3.4283977    463.66904  0.081862472  0.083527709            1 
  473000    1.1761113    -3.445514    465.47105  0.082006879  0.083515527            1 
  474000    1.1649859   -3.4263376    466.53646  0.082021177  0.083503937            1 
  475000    1.1738393   -3.4243126    467.90594  0.082088762  0.083492255            2 
  476000    1.1725134   -3.4273228    468.66464  0.082049132  0.083479215            2 
  477000    1.1526153   -3.4385715    467.35552  0.081648414  0.083466859            3 
  478000    1.1728275   -3.4015499    468.21353  0.081627184  0.083455129            2 
  479000    1.2023753   -3.4452376    469.52734   0.08168534  0.083441891            3 
  480000    1.1479959   -3.4341032    469.15998  0.081451385  0.083429665            3 
  481000    1.1607311   -3.4578924    469.96702  0.081421868  0.083414991            2 
  482000    1.1576795   -3.4416877      472.703  0.081725969  0.083401565            2 
  483000    1.1698459   -3.4439451    472.31993  0.081490671  0.083387969            5 
  484000    1.1714531   -3.4534859    474.26656  0.081657465  0.083375221            2 
  485000    1.1616221   -3.4601512    475.10655  0.081633428  0.083361587            2 
  486000    1.1789566   -3.4070825    477.59992   0.08189299  0.083347762            1 
  487000    1.1344114   -3.4381578    476.52832  0.081541464  0.083335074            3 
  488000    1.1616907   -3.4459326    476.55066  0.081378186  0.083321693            1 
  489000    1.1682257   -3.4337904    477.28924  0.081337635  0.083307863            2 
  490000    1.1658111   -3.4797376    477.71309  0.081243722  0.083291864            3 
  491000    1.1648715   -3.4758081    477.87238  0.081105292  0.083277159            1 
  492000    1.1828077   -3.4486317    479.92247  0.081287682  0.083262062            2 
  493000    1.1532613   -3.4449158    479.00735  0.080968112  0.083245284            2 
  494000    1.1692254   -3.4516816    479.80699  0.080939101  0.083228694            2 
  495000    1.1713066   -3.4296628    483.01782  0.081316132  0.083213276            1 
  496000    1.1854006   -3.4913467    484.77369  0.081447192  0.083198301            2 
  497000    1.1799172   -3.4684432    486.04567  0.081496591  0.083184244            2 
  498000    1.1783655   -3.4488979    487.16221  0.081519782  0.083170261            2 
  499000     1.176555    -3.463787    489.51491  0.081749317  0.083157954            2 
  500000     1.153754   -3.4596472     489.1574  0.081526233  0.083146793            4 
  501000    1.1760877   -3.4844337    488.50387  0.081254802  0.083133642            1 
  502000    1.1634209   -3.4569816    491.84361  0.081647345  0.083121824            2 
  503000    1.1678163   -3.4132185    491.29513  0.081394157  0.083110325            2 
  504000    1.1903908   -3.4698581    491.58849  0.081281165  0.083100274            1 
  505000    1.1283914   -3.4264357    496.63811  0.081953484  0.083089712            1 
  506000    1.1682919   -3.4431121    494.43963  0.081429451  0.083080091            1 
  507000    1.1678587    -3.482412    494.47487  0.081274634  0.083067459            1 
  508000     1.150386   -3.4855693    495.55525  0.081291872  0.083055191            3 
  509000    1.1495224   -3.4662624    498.25849  0.081574736  0.083043094            1 
  510000    1.1802502   -3.4673152    500.07583  0.081711737  0.083032562            2 
  511000     1.152146   -3.4515566    501.29591    0.0817508  0.083023475            2 
  512000    1.1474178   -3.4504063     502.1445  0.081729248  0.083015487            1 
  513000    1.1584073   -3.4322902    504.94308  0.082024542   0.08300889            2 
  514000    1.1662274   -3.4702946    503.53891  0.081637307  0.083001377            1 
  515000     1.167988    -3.466207     503.8698  0.081532329  0.082993929            3 
  516000    1.1724511   -3.4447763     506.7198  0.081834592  0.082986067            4 
  517000    1.1688684   -3.5002512     505.4315   0.08146865  0.082977913            2 
  518000    1.1742399   -3.5032626     506.0528  0.081411326  0.082969741            2 
  519000    1.1732679    -3.465364     509.4922  0.081806711  0.082962124            1 
  520000    1.1443196   -3.4684599    510.42804  0.081799366  0.082954742            2 
  521000    1.1465553   -3.4308478    511.48413  0.081811281  0.082947344            1 
  522000     1.148528   -3.4256777    512.89963  0.081880528  0.082938182            3 
  523000    1.1904653   -3.4953985    511.21855   0.08145611  0.082929815            2 
  524000    1.1340153   -3.4512732    513.68611  0.081693083  0.082920889            2 
  525000    1.1610944   -3.4691297    512.65487  0.081373788  0.082911281            2 
  526000    1.1580983   -3.4484526    514.79666  0.081558406  0.082900071            2 
  527000    1.2045056   -3.4574911    515.54395  0.081521814  0.082889023            3 
  528000    1.1713173   -3.4944227    519.47671  0.081988117  0.082879444            3 
  529000    1.1488774   -3.4469293    517.83369  0.081574305   0.08286983            4 
  530000    1.1751734   -3.4649531    520.27342  0.081803997  0.082859756            3 
  531000    1.1844463   -3.4429484     520.6395  0.081707391  0.082852894            2 
  532000    1.1769441   -3.4666386     521.2443  0.081648543  0.082844554            1 
  533000    1.1848855   -3.4790504    519.81007  0.081271117  0.082836375            1 
  534000    1.2026361   -3.4553466    521.43149  0.081371955  0.082827639            1 
  535000    1.1802103   -3.4511812    522.06918  0.081319186   0.08281929            1 
  536000     1.154264   -3.4692683    520.75736  0.080963519  0.082808352            2 
  537000    1.1843877   -3.4650435    524.52714  0.081397756  0.082796299            1 
  538000    1.1546647   -3.4607699    522.91069  0.080996079  0.082783268            4 
  539000    1.1557396   -3.4771642    523.85385  0.080991628  0.082771201            2 
  540000    1.1604821    -3.476155    526.68076  0.081277895  0.082758636            2 
  541000    1.1561123   -3.4475837    526.43966  0.081090521  0.082746807            1 
  542000    1.1571245   -3.4312207    529.09774  0.081349591  0.082733027            3 
  543000    1.1731434   -3.4757357    526.65486  0.080824871  0.082718514            1 
  544000    1.1395185   -3.4618167    526.71016  0.080684767  0.082703366            2 
  545000    1.1720556   -3.4788089    529.88303  0.081021869  0.082689948            3 
  546000      1.17746   -3.4628641    528.27688  0.080628339  0.082675018            3 
  547000    1.1414859   -3.4402166    531.31307   0.08094349  0.082660822            1 
  548000    1.1272291   -3.4587941    533.50062  0.081128439  0.082646959            1 
  549000    1.1621628   -3.4956016    531.79396  0.080721609  0.082632072            2 
  550000    1.1545539   -3.4393386    535.77307  0.081177737  0.082618475            2 
  551000    1.1684589   -3.4677982    534.49128  0.080836551  0.082606055            4 
  552000    1.1630997   -3.4651855    537.03349  0.081073897  0.082592681            2 
  553000    1.1685578    -3.479356    537.79966  0.081042745  0.082579887            3 
  554000    1.1611429   -3.4854661     535.3258  0.080524338  0.082564473            2 
  555000    1.1688136    -3.489229    538.88257  0.080913299  0.082547707            4 
  556000    1.1656483   -3.4940486    538.18258  0.080662857  0.082531919            1 
  557000     1.157313   -3.4941633    539.72027  0.080748095  0.082517461            3 
  558000    1.1598287   -3.4787031    540.71923  0.080752573   0.08250323            3 
  559000    1.1592847   -3.5039257     539.7855  0.080468918  0.082489978            1 
  560000    1.1586598   -3.4759059     544.2816  0.080994285  0.082475921            1 
  561000    1.1654713   -3.4733772     544.5281  0.080886526  0.082463658            2 
  562000    1.1441492   -3.4925432    544.40045  0.080723674  0.082451021            1 
  563000    1.1558086   -3.4546387    546.83146  0.080940121   0.08243853            3 
  564000    1.1699712   -3.4597516     548.2756  0.081009988  0.082425901            1 
  565000    1.1655675   -3.4945141    547.53837  0.080757871   0.08241315            2 
  566000    1.1953349   -3.4969769    546.86395  0.080515894  0.082399396            3 
  567000    1.1398842   -3.4937287    549.34663  0.080738776  0.082386494            3 
  568000    1.1681415    -3.485725    553.60414  0.081221265  0.082375098            2 
  569000    1.1929107   -3.4814715    552.53722  0.080922265   0.08236508            2 
  570000    1.1620275   -3.4759925    552.77446   0.08081498  0.082353938            4 
  571000    1.1790288   -3.5042934    554.34896  0.080903234  0.082342226            2 
  572000     1.183878   -3.4583046    554.82973  0.080831837  0.082329408            2 
  573000    1.1442662   -3.4693151    556.87443  0.080988137  0.082316886            2 
  574000    1.1702926   -3.4357339    556.83131  0.080840783  0.082302795            2 
  575000    1.1199577    -3.462924    557.51629  0.080799463  0.082288882            3 
  576000    1.1471826   -3.4517474    558.20881  0.080759377  0.082275539            2 
  577000    1.1721577   -3.4920181    556.81294  0.080417813  0.082260861            4 
  578000    1.1717038   -3.4666242    557.78402  0.080418688  0.082245678            2 
  579000    1.1350439   -3.4837301    557.81803   0.08028469   0.08223088            1 
  580000    1.1692581   -3.5050382    558.40022  0.080229917   0.08221386            2 
  581000    1.1574206   -3.4845574    559.28042  0.080218075  0.082197858            2 
  582000    1.1794532   -3.4717671    562.19775  0.080497959  0.082182032            2 
  583000    1.1439711   -3.5006599    561.75288  0.080296295   0.08216514            2 
  584000    1.1792904   -3.4515241    563.48882  0.080406509   0.08214857            2 
  585000    1.1561766   -3.4451029    565.45064  0.080548524  0.082132215            4 
  586000    1.1596876     -3.47987    564.66696  0.080299625  0.082116398            1 
  587000    1.1740862   -3.4954935    564.42386  0.080128316  0.082102262            4 
  588000    1.1577295   -3.4751543    567.67036  0.080452148  0.082087521            3 
  589000    1.1710365   -3.5284907    566.64453   0.08017042  0.082072892            2 
  590000    1.1683677   -3.4903859    569.22085  0.080398426  0.082059393            1 
  591000    1.1431136   -3.4863706    571.12929  0.080531485  0.082045667            1 
  592000    1.1736852   -3.4690101    570.85872  0.080357365  0.082032165            3 
  593000    1.1427395   -3.4918411    571.40813  0.080299062  0.082017546            1 
  594000    1.1657605   -3.4860022    573.86092  0.080507986  0.082003502            1 
  595000    1.1794534   -3.4318954    576.44935  0.080735203  0.081989998            2 
  596000    1.1467539   -3.4908205    575.03029  0.080401326  0.081976089            2 
  597000    1.1559299   -3.4905799    579.10069  0.080834825  0.081961055            4 
  598000    1.1675083   -3.4720424    577.77856  0.080515406  0.081945382            1 
  599000    1.1294981   -3.4889527    574.20495  0.079883826  0.081930872            1 
  600000     1.152876   -3.4775642    576.89216  0.080123911  0.081915369            1 
  601000    1.1832008   -3.4774568    578.53809  0.080218814  0.081900973            3 
  602000    1.1698884   -3.4935397    578.95953  0.080143899  0.081885989            4 
  603000    1.1476359   -3.4845898    579.37223  0.080068025  0.081870961            1 
  604000    1.1635153   -3.4933695    582.79681  0.080407948  0.081855646            2 
  605000    1.1467555   -3.4966203    581.79311  0.080136792  0.081841444            1 
  606000    1.1559435   -3.4843944    583.64732  0.080259532  0.081827114            2 
  607000    1.1576032   -3.4909281    584.88793  0.080297628  0.081813408            2 
  608000    1.1520185   -3.4861169    588.21321  0.080621328  0.081800292            1 
  609000    1.1281916   -3.4714344     587.2164  0.080352545  0.081787682            2 
  610000     1.169541   -3.4554956    588.40402  0.080383063  0.081774751            3 
  611000    1.1633965   -3.5048255    588.10914  0.080211284  0.081763149            2 
  612000    1.1243967   -3.4642261    592.33169  0.080655186  0.081751323            1 
  613000    1.1781072   -3.4664582    590.97329  0.080338946  0.081739182            2 
  614000    1.1299944   -3.4582174    592.50575   0.08041609  0.081726137            4 
  615000    1.1300915   -3.4656576    592.88371  0.080336546  0.081713961            2 
  616000    1.1576602   -3.4950075    593.76574  0.080325452  0.081702261            1 
  617000    1.1892045   -3.5101127    596.98328  0.080629832   0.08169036            4 
  618000    1.1570827   -3.4839628    596.03539  0.080371547  0.081679071            1 
  619000     1.151439   -3.5014868    595.20939  0.080130504   0.08166724            3 
  620000    1.1627284   -3.4820031     600.5614  0.080720619  0.081655091            1 
  621000    1.1561504   -3.4573614    600.75071  0.080616038  0.081644051            2 
  622000    1.1579903   -3.4653781    600.38256  0.080437106  0.081633066            5 
  623000     1.132538   -3.4929442    602.91114   0.08064622  0.081622341            1 
  624000    1.1627048   -3.4567146    605.62701  0.080879676  0.081610537            2 
  625000    1.1569129    -3.482713    599.96225  0.079994966  0.081599466            2 
  626000    1.1202316   -3.5262145    601.45195  0.080065488  0.081587766            3 
  627000    1.1608775   -3.4997612    603.12931  0.080160727  0.081575298            2 
  628000    1.1434943   -3.4781123    606.71935  0.080509468  0.081563172            6 
  629000    1.1387087   -3.4795587    604.29752  0.080060615  0.081551246            2 
  630000     1.144049   -3.4876852    607.85548  0.080404165  0.081540363            3 
  631000    1.1423078   -3.5069848    607.00144  0.080163952  0.081528656            3 
  632000    1.1284748   -3.4966815    610.00873   0.08043364  0.081517484            1 
  633000    1.1616644   -3.4875892    610.45875  0.080365817  0.081507238            2 
  634000    1.1559416   -3.4767295    612.93851  0.080564999  0.081497377            4 
  635000    1.1441218   -3.4905865    613.12924  0.080463155  0.081486641            2 
  636000    1.1498933   -3.5065132    610.93152  0.080048679  0.081475624            4 
  637000     1.162838   -3.5095995    613.78961  0.080296914  0.081466326            2 
  638000    1.1545366   -3.4606497    617.96336  0.080716217  0.081455615            2 
  639000    1.1599327   -3.4798273     614.3357   0.08011681  0.081445822            1 
  640000    1.1354571    -3.447303    617.21338  0.080366325  0.081435455            1 
  641000    1.1490353   -3.4816754    616.11288  0.080097879  0.081426632            3 
  642000     1.149916   -3.4690373    619.70292  0.080439112  0.081416611            1 
  643000    1.1192344   -3.4741521    619.75372  0.080320596  0.081406691            2 
  644000    1.1637804   -3.4842196    619.69094  0.080187751  0.081397057            1 
  645000    1.1525557    -3.521986    620.79385  0.080205923  0.081387595            3 
  646000    1.1308788   -3.5242022    623.19044  0.080390924   0.08137832            7 
  647000     1.130971   -3.5086553    625.65332  0.080583889  0.081369137            3 
  648000    1.1662184   -3.4722244    625.36962  0.080423048  0.081359946            3 
  649000    1.1311092   -3.4751294    626.31581  0.080420623  0.081352034            2 
  650000     1.145322   -3.4933595      626.867  0.080367564  0.081342017            3 
  651000    1.1652379   -3.4965264    627.04114  0.080266403  0.081332166            4 
  652000    1.1513329   -3.4900256    629.51293  0.080459219  0.081323509            2 
  653000    1.1342186    -3.474877     630.2049  0.080424311  0.081315149            3 
  654000    1.1347101   -3.4682508    634.59718  0.080861006  0.081307316            4 
  655000    1.1266395   -3.4986121    630.48165  0.080213951  0.081297944            1 
  656000     1.134982   -3.4917776    631.42693  0.080211754  0.081289066            3 
  657000    1.1548317   -3.4925518     635.3841   0.08059159  0.081280431            1 
  658000    1.1524964   -3.4891236    636.14728  0.080565765  0.081271842            3 
  659000    1.1497301   -3.4571858    636.41367  0.080477196   0.08126497            2 
  660000    1.1410949   -3.4785994    637.67211  0.080514156  0.081257624            4 
  661000     1.125997   -3.4639597    643.92463  0.081180613  0.081251902            2 
  662000    1.1489853   -3.4784191    640.52581  0.080630138  0.081245314            3 
  663000    1.1317237   -3.4933474    639.00348  0.080317179  0.081239208            1 
  664000    1.1427724   -3.4948651    639.98175  0.080318995  0.081231791            2 
  665000    1.1476904   -3.4820524    644.34543  0.080745041  0.081225771            1 
  666000    1.1496578    -3.461439    640.79799  0.080179929  0.081219884            3 
  667000    1.1598819   -3.5164344    642.84197  0.080315088  0.081212608            1 
  668000    1.1228617   -3.4991905     646.6053  0.080664334  0.081205183            1 
  669000    1.1413288    -3.474361    647.45841  0.080650026  0.081198423            4 
  670000    1.1627725   -3.5110701    648.46089   0.08065434   0.08119159            1 
  671000    1.1353318   -3.4895453    647.30817  0.080390979  0.081185288            4 
  672000    1.1317132    -3.532768    646.90417  0.080221251  0.081178056            3 
  673000    1.1591247   -3.5166698    648.71544   0.08032633  0.081170312            2 
  674000    1.1292122   -3.4947269    650.66138  0.080447747  0.081162781            3 
  675000    1.1426147   -3.5054035     650.4633  0.080304111  0.081153535            1 
  676000    1.1392846   -3.4868377    653.27672   0.08053214  0.081145375            1 
  677000    1.1630354   -3.4800458    655.68896  0.080710114  0.081138104            3 
  678000    1.1706587   -3.4976416    651.22422  0.080042308  0.081130261            2 
  679000    1.1587244   -3.4949263    654.64999  0.080344869  0.081122496            3 
  680000    1.1273187   -3.5138232    656.52046  0.080455938  0.081114594            1 
  681000    1.1597458   -3.4915477    657.20449  0.080421499  0.081106664            1 
  682000    1.1597063   -3.5209196    655.46569  0.080091116  0.081098541            3 
  683000    1.1580759    -3.478712    659.58097   0.08047596  0.081089647            1 
  684000    1.1690429   -3.5109536     659.1839  0.080309929  0.081082005            1 
  685000    1.1201117   -3.5121904    659.78836  0.080266223  0.081075235            6 
  686000    1.1361473   -3.4872314    660.63969  0.080252634  0.081067323            2 
  687000    1.1549785   -3.4932435     661.9596  0.080295924  0.081060181            4 
  688000    1.1320584   -3.4833974     662.6895  0.080267624  0.081053731            1 
  689000     1.145622   -3.4959319    665.33049  0.080470548   0.08104712            2 
  690000    1.1280867   -3.4901479    664.64327  0.080270926  0.081041129            1 
  691000    1.1236372   -3.5164161    667.46142  0.080494623   0.08103444            2 
  692000    1.1466026   -3.4956232    665.76023  0.080173439  0.081028637            2 
  693000    1.1270344    -3.505882    671.09833  0.080699655   0.08102284            2 
  694000    1.1558344   -3.5147831    669.81827  0.080429668  0.081017242            4 
  695000    1.1472738    -3.510479    674.62028  0.080889721  0.081011538            3 
  696000    1.1641359   -3.4869507    672.25126  0.080489854  0.081005882            1 
  697000    1.1292605   -3.5517177     671.0477  0.080230476  0.080999263            4 
  698000    1.1420585   -3.5162403    673.45121  0.080402485  0.080992511            3 
  699000    1.1513442   -3.5120117    673.70795  0.080318068  0.080984712            3 
  700000    1.1361541   -3.5414637     674.0754  0.080247071  0.080976893            2 
  701000    1.1229128   -3.4862639    676.27884  0.080394536  0.080969898            2 
  702000    1.1434816     -3.51504    676.51527   0.08030808  0.080962991            3 
  703000    1.1416694   -3.4803702    682.37158  0.080888049  0.080957817            1 
  704000    1.1207978   -3.4947633    682.78868  0.080822524   0.08095406            2 
  705000    1.1446075   -3.4991722    683.29199  0.080767374  0.080951097            2 
  706000      1.10614   -3.4977013    684.12498  0.080751296   0.08094848            3 
  707000    1.1372218   -3.5153823    683.12617  0.080519351   0.08094553            2 
  708000    1.1397116   -3.5056206    686.89757  0.080849526  0.080941748            2 
  709000     1.178562   -3.5096859    686.67096  0.080708857  0.080938362            1 
  710000    1.1436205   -3.5137919    686.50573   0.08057579  0.080933703            2 
  711000    1.1230224    -3.509804     687.6315  0.080594409  0.080929488            5 
  712000    1.1594313   -3.5196422    688.32576  0.080562472  0.080924993            1 
  713000    1.1461355   -3.5256426    685.78771  0.080152841  0.080919855            3 
  714000    1.1565317   -3.5032199    689.11937  0.080429431  0.080913522            1 
  715000    1.1372763   -3.4957707    688.65577   0.08026291  0.080907419            2 
  716000    1.1309162   -3.4925645    688.44341  0.080126095  0.080900867            1 
  717000    1.1282314   -3.4715377    691.00561  0.080312135  0.080893929            5 
  718000     1.135864   -3.4919559    690.29896  0.080118263  0.080885863            3 
  719000    1.1405269   -3.5098799    689.58827  0.079924464  0.080878329            2 
  720000    1.1494772   -3.4903046    693.04368  0.080213389  0.080870028            1 
  721000    1.1108197   -3.5142388    692.46393  0.080035128  0.080862059            3 
  722000    1.1484779   -3.4929584    695.50506  0.080275284  0.080853857            2 
  723000    1.1454922   -3.5054805    694.83692  0.080087243  0.080845178            3 
  724000     1.140752   -3.5221928    692.51319  0.079709161  0.080836396            2 
  725000    1.1543626   -3.5329106    692.94579  0.079648942  0.080826676            5 
  726000    1.1294864    -3.506093    698.24791  0.080147832  0.080817865            2 
  727000     1.126636   -3.5284379    698.00818  0.080010107  0.080809191            3 
  728000    1.1435082    -3.490961    695.79862  0.079647278  0.080800131            2 
  729000    1.1176004   -3.5311272    697.73837  0.079759759  0.080791171            2 
  730000    1.1247216   -3.4834154    704.21645  0.080390006  0.080782664            2 
  731000    1.1465464   -3.5254624    703.09186  0.080151831  0.080774206            2 
  732000    1.1338937   -3.5218794    701.71283  0.079885341  0.080766036            1 
  733000    1.1414646   -3.4841734    701.22004  0.079720332  0.080757412            2 
  734000    1.1585272   -3.5152623    701.57499   0.07965202  0.080748686            1 
  735000    1.1196671   -3.5143147    704.46968  0.079871846   0.08074011            1 
  736000    1.1265145   -3.4971956    706.96718  0.080046103  0.080732009            2 
  737000    1.1146249   -3.4997272    705.55564  0.079777888  0.080722439            1 
  738000     1.148179   -3.5098395    706.06799  0.079727641   0.08071292            3 
  739000    1.1062546   -3.4988358    708.97145  0.079947164   0.08070374            2 
  740000    1.1000939   -3.5441049    707.86157  0.079714141  0.080694438            3 
  741000     1.125653   -3.5067075     706.2505  0.079425382  0.080684405            3 
  742000     1.135544   -3.5389875    709.00314  0.079627487  0.080674584            7 
  743000    1.1235981    -3.484923    711.50621  0.079801055  0.080664796            4 
  744000    1.1384567   -3.5157183    712.92066  0.079852225  0.080655663            2 
  745000    1.1382069   -3.4942829    711.93405  0.079634681  0.080645208            5 
  746000    1.1288659   -3.5178904    710.51608  0.079369536  0.080634476            2 
  747000    1.1304213   -3.5081771    714.92476  0.079755105  0.080623932            2 
  748000    1.1280174   -3.5317297    715.66449  0.079730892  0.080613259            1 
  749000    1.1259602   -3.5066807    714.40769  0.079484612  0.080602963            2 
  750000    1.1201966   -3.5245863    713.35754  0.079261948  0.080592725            2 
  751000    1.1293095   -3.4987975    718.49648   0.07972664  0.080582414            2 
  752000    1.1355087   -3.5231644    715.78602  0.079320259  0.080572832            2 
  753000    1.1160007   -3.5210509    717.03738  0.079353407  0.080562847            2 
  754000    1.1109167   -3.5268013    723.01792  0.079909142  0.080551617            1 
  755000    1.1420649   -3.5260894    720.24903  0.079497685  0.080541579            3 
  756000     1.122111   -3.5131995    720.08709  0.079374679  0.080530801            1 
  757000    1.1374205   -3.5290616    726.08838  0.079930469  0.080519644            4 
  758000    1.1591672   -3.5403548    720.72532  0.079235413  0.080508836            5 
  759000    1.1249159   -3.5318735    723.69848  0.079457452  0.080497385            3 
  760000    1.1140321   -3.5062464    725.90207  0.079594525  0.080487032            2 
  761000    1.1189049   -3.5236764    727.51227  0.079666259   0.08047745            2 
  762000    1.1440393   -3.5170261    729.43353  0.079771821  0.080468628            2 
  763000    1.1237192   -3.5239561    728.69111  0.079586185  0.080457935            2 
  764000    1.1464183   -3.5154444    724.96679  0.079075785  0.080448367            2 
  765000    1.1142399   -3.5038266    730.51077  0.079576336  0.080438308            3 
  766000    1.1331525   -3.5059233    730.63902  0.079486403  0.080428967            2 
  767000    1.1558736   -3.4946632    732.40359  0.079574488  0.080419055            3 
  768000    1.1246637    -3.521243    730.95202   0.07931337  0.080408815            5 
  769000    1.1588053   -3.5286764    730.77113   0.07919063  0.080398939            2 
  770000    1.1144987   -3.4896279    733.12301  0.079342317   0.08038852            1 
  771000    1.1089447   -3.5334767    732.07585  0.079126227  0.080378073            2 
  772000    1.1405218   -3.5334952    735.41953  0.079384664  0.080367617            1 
  773000    1.1274392   -3.5089327    736.89354  0.079440874  0.080356304            2 
  774000    1.1105817   -3.5152829    733.84189  0.079009678  0.080345585            3 
  775000    1.1186702    -3.529783    737.96748  0.079351342  0.080334253            4 
  776000    1.1252822   -3.5197127    739.96051  0.079463113  0.080322682            2 
  777000    1.1272939   -3.5229537     741.1805  0.079491688  0.080311855            1 
  778000     1.154243   -3.5264759    738.67591  0.079121241  0.080300177            2 
  779000    1.1318593   -3.5149821    742.36605  0.079414426  0.080289602            1 
  780000    1.1118122   -3.5008729    744.04058  0.079491515   0.08027908            6 
  781000    1.1294931   -3.4979807    744.39051  0.079427071  0.080268882            2 
  782000    1.1128108   -3.5169202    742.70286  0.079145658  0.080257858            3 
  783000    1.1075262   -3.5066715      745.264  0.079317156  0.080247716            3 
  784000    1.1409085   -3.5123431    744.70787  0.079156874  0.080238015            2 
  785000    1.1295519   -3.5451644    741.97548  0.078765974  0.080227082            2 
  786000    1.1247595   -3.5206617    749.76713   0.07949185   0.08021805            5 
  787000    1.1058365   -3.5352694     748.4196  0.079248158  0.080207988            1 
  788000    1.1485305   -3.5239627    749.49292  0.079261095  0.080197675            2 
  789000    1.0977505   -3.5229111    748.26318  0.079030754  0.080187488            2 
  790000    1.1299192   -3.5127147    752.22527  0.079348657  0.080176813            2 
  791000    1.1156635   -3.5376552    753.25896  0.079357244  0.080166907            2 
  792000    1.1369213    -3.538564    751.90731  0.079114826  0.080157045            2 
  793000    1.1491035   -3.5716668    753.28848  0.079160202  0.080146184            2 
  794000    1.1254308   -3.5457308    757.38625   0.07949058  0.080135704            2 
  795000    1.1296199   -3.5368008    757.11552  0.079362213  0.080125115            2 
  796000    1.1125373   -3.5482514    754.58441   0.07899753  0.080115868            4 
  797000    1.1223068   -3.5230545    756.10294  0.079057187  0.080106566            4 
  798000    1.1291463   -3.5403472    759.15883  0.079277238  0.080097347            2 
  799000    1.1094312   -3.5511065    760.92974  0.079362718  0.080087186            1 
  800000    1.0987378   -3.5188045     761.5559  0.079328739  0.080078258            2 
  801000      1.14839   -3.5631715    761.22365  0.079195136  0.080069451            2 
  802000      1.11901   -3.5370181    765.71686  0.079563265  0.080061698            1 
  803000    1.0919597   -3.4977255    768.12352   0.07971394  0.080052561            4 
  804000    1.1056024   -3.5322949    765.34189  0.079326481   0.08004262            4 
  805000    1.1423929   -3.5253448    767.54013    0.0794555  0.080033876            1 
  806000     1.106652   -3.5334055    766.60137  0.079259861  0.080025384            4 
  807000    1.1299398   -3.5305763    767.57471  0.079262155  0.080016377            2 
  808000    1.1121884   -3.5066017    770.91742  0.079508809   0.08000761            3 
  809000    1.1207709   -3.5404779    769.48825  0.079263314   0.07999939            2 
  810000    1.1294988   -3.5055851    768.32381  0.079045659   0.07999049            2 
  811000    1.1079548   -3.5038464    772.31085  0.079357876  0.079982647            2 
  812000    1.1232286   -3.5402089    774.81932  0.079517582  0.079974299            1 
  813000    1.1386798   -3.5178952    775.81664  0.079522001  0.079965382            5 
  814000    1.1395032   -3.5370629     775.4886  0.079390725  0.079956585            2 
  815000     1.100134   -3.5656012    769.96332  0.078728355  0.079948761            2 
  816000    1.1249506   -3.5166572    775.69743  0.079217466  0.079940136            3 
  817000    1.1013301   -3.5003984    777.22508  0.079276324  0.079931983            6 
  818000    1.1177228   -3.5154836    780.11595  0.079473915  0.079924779            2 
  819000    1.1175207   -3.5257832    782.06512  0.079575206  0.079916847            2 
  820000    1.1275355   -3.5511357      776.713  0.078934248  0.079908742            2 
  821000    1.1159935   -3.5442732    782.42768  0.079418157  0.079899984            2 
  822000    1.1183391   -3.5233296    783.98374  0.079479293   0.07989218            1 
  823000    1.1212366   -3.5255289    781.84511  0.079166171  0.079884697            1 
  824000     1.149768   -3.5362956    783.52005  0.079239488  0.079878325            2 
  825000    1.1361852   -3.5185188    785.52554  0.079346014  0.079871282            3 
  826000    1.1276459   -3.5292841    786.69765  0.079368205  0.079864209            3 
  827000    1.1360739   -3.5102487    787.85645  0.079389002  0.079857134            3 
  828000    1.1281407   -3.5046501    789.80783  0.079489516  0.079849874            2 
  829000    1.1161925   -3.5570583    788.85367  0.079297715  0.079841986            3 
  830000    1.1006384   -3.5267981    790.82141   0.07939974  0.079834158            2 
  831000     1.111514   -3.5243471    791.42323  0.079364543  0.079826827            2 
  832000    1.1398765   -3.5485257    788.64918  0.078991304  0.079819375            2 
  833000    1.1253831   -3.5242568    789.86695  0.079018302  0.079810447            2 
  834000    1.1232831   -3.5325564    791.81951  0.079118656  0.079801692            2 
  835000    1.1071342   -3.5075377    790.31625  0.078873877   0.07979229            1 
  836000    1.1365899    -3.502498    790.69682  0.078817467  0.079782028            1 
  837000    1.1071392   -3.5466413    793.30119  0.078982596  0.079772908            2 
  838000    1.1253921   -3.5507041    794.72811  0.079030241  0.079763533            3 
  839000    1.1042823   -3.5354034    793.58647  0.078822653  0.079753573            1 
  840000    1.1237294   -3.5060712    800.07245  0.079372267  0.079745596            2 
  841000    1.1123239   -3.5451943    797.03247  0.078976662  0.079737218            4 
  842000    1.0960962   -3.5275172    799.23054   0.07910041  0.079729105            2 
  843000    1.1075163   -3.5147687    800.46079  0.079128192  0.079720729            2 
  844000    1.0940298   -3.5263538    804.72713   0.07945568  0.079712583            2 
  845000     1.141336   -3.5256837    804.26802  0.079316372  0.079704761            5 
  846000    1.1163344   -3.5611577    800.26762  0.078828568  0.079696536            1 
  847000    1.1135075   -3.5505604    805.22171  0.079222915  0.079688316            4 
  848000     1.111255   -3.5275529    804.40884  0.079049611  0.079679505            3 
  849000     1.100529   -3.5463882    800.23668  0.078546984  0.079670624            2 
  850000    1.1252786   -3.5310375     807.5717  0.079173696  0.079661673            2 
  851000    1.1526461   -3.5481899    809.06504  0.079226894  0.079653757            1 
  852000    1.1084285    -3.536067     808.6229  0.079090659  0.079645532            2 
  853000     1.123022   -3.5474856    810.85803  0.079216298  0.079638086            3 
  854000     1.122594   -3.5147172    812.94992  0.079327666  0.079629912            4 
  855000    1.1310638   -3.5304437     810.4925   0.07899537  0.079622036            5 
  856000     1.113186   -3.5196181    813.55576  0.079201301  0.079614525            5 
  857000      1.12062   -3.5423985    811.79422  0.078937594  0.079607296            2 
  858000    1.1234873    -3.544067    818.10342  0.079458374  0.079600789            2 
  859000     1.117442   -3.5273486    818.31946  0.079386831  0.079593557            2 
  860000     1.094193   -3.5581606    815.17558  0.078989882  0.079586825            2 
  861000    1.1106849   -3.5085285    817.95029  0.079166695  0.079579759            2 
  862000    1.1071911   -3.5195747    819.95108  0.079268279  0.079573069            2 
  863000     1.125208   -3.5075273    820.72836  0.079251483   0.07956656            2 
  864000    1.0920333   -3.5135355    819.28545  0.079020588  0.079559933            2 
  865000    1.1030357   -3.5594084     823.3067  0.079316638  0.079552995            2 
  866000    1.1092877   -3.5246796    819.90067  0.078897293  0.079545571            2 
  867000    1.1206334   -3.5350771     821.7351  0.078982612   0.07953872            2 
  868000    1.1145132   -3.5182488    825.05565  0.079210412  0.079530594            1 
  869000    1.1332684   -3.5434439    822.24028  0.078849279  0.079523871            1 
  870000    1.1156783    -3.544375    824.92229  0.079015545   0.07951558            1 
  871000    1.1127651   -3.5245901    827.68809  0.079189446  0.079507921            2 
  872000    1.1133998   -3.5315821    827.54763   0.07908521  0.079499774            1 
  873000    1.1092339   -3.5314725    826.80143   0.07892339  0.079492174            5 
  874000    1.1089789   -3.5497129     826.0547   0.07876189  0.079483887            3 
  875000    1.1191215   -3.5398808    829.36062  0.078986725  0.079475884            2 
  876000    1.1166278   -3.5413637    827.58787  0.078727918  0.079467709            2 
  877000    1.1239501   -3.5415576     829.1437  0.078785984  0.079459329            2 
  878000    1.1105508   -3.5332406    828.36328  0.078622179    0.0794513            1 
  879000    1.1281529   -3.5103263    834.07726  0.079074446  0.079442392            1 
  880000    1.1233071   -3.4982912    833.58441  0.078937918  0.079434547            2 
  881000     1.124817   -3.5855258    833.02167  0.078795088  0.079426469            1 
  882000    1.0849361   -3.5404573     832.9109  0.078695285  0.079419302            2 
  883000    1.1329848   -3.5371142    835.33928  0.078835342  0.079411427            2 
  884000    1.1215728   -3.5647614    836.96905  0.078899797  0.079403395            2 
  885000    1.1240953   -3.5270851    839.65054  0.079063139  0.079396021            2 
  886000    1.1132908   -3.5355119    840.70754   0.07907332  0.079388603            2 
  887000    1.0868787   -3.5631348    837.02983  0.078638653  0.079381019            2 
  888000    1.0973128   -3.5587816    838.94874  0.078730175  0.079372453            3 
  889000    1.1017326   -3.5515251    840.43169  0.078780623  0.079365061            2 
  890000    1.1066674   -3.5171162    841.74953  0.078815499  0.079357488            2 
  891000    1.1046565   -3.5406759    842.80457  0.078825718  0.079349665            1 
  892000    1.1296825   -3.5210329    847.43498  0.079169935  0.079342444            1 
  893000    1.1289153   -3.5352403    846.65232  0.079008241  0.079334769            1 
  894000    1.1029535   -3.5254841     845.0018  0.078766014  0.079326896            5 
  895000    1.1068962   -3.5458077    846.95673   0.07886003  0.079319789            3 
  896000    1.1013332   -3.5620035      844.591  0.078551991  0.079312496            3 
  897000    1.1030736   -3.5468105    847.23088  0.078709669  0.079305248            2 
  898000    1.0848382   -3.5849745    847.98733  0.078692217  0.079297672            4 
  899000     1.101928   -3.5781211    851.02875   0.07888661  0.079290454            2 
  900000    1.1008855    -3.551074    848.65814  0.078579458  0.079283883            4 
  901000    1.1022899   -3.5232175    854.24161  0.079008658  0.079276236            6 
  902000    1.1033079   -3.5511817    854.91496  0.078983274  0.079269188            2 
  903000    1.1166331   -3.5461195    852.15802  0.078641383  0.079262102            4 
  904000    1.1073567   -3.5630934    853.63079  0.078690154  0.079254704            2 
  905000     1.109719   -3.5539909    856.59392  0.078876052  0.079247805            2 
  906000    1.1101857   -3.5351807    856.12032  0.078745431  0.079240203            2 
  907000    1.0932248   -3.5308757    860.58704  0.079069004  0.079232673            4 
  908000    1.1127347   -3.5460345    856.49694  0.078606547  0.079224731            3 
  909000    1.0938399   -3.5411666    856.40273  0.078511435    0.0792163            2 
  910000    1.1066461   -3.5501057    859.10843  0.078672933  0.079207604            3 
  911000    1.0956906   -3.5511825    857.53399  0.078442553  0.079199137            2 
  912000    1.1054922   -3.5643283    862.09929  0.078773692  0.079190681            3 
  913000    1.1096641   -3.5722879    860.11759  0.078506534  0.079182681            2 
  914000    1.0876987   -3.5260791    863.60041  0.078738185  0.079175061            1 
  915000    1.1110168    -3.586775    864.46369  0.078730755  0.079167513            3 
  916000    1.0908161    -3.532815    862.09626  0.078429427  0.079159272            3 
  917000     1.109661   -3.5717712    862.70669  0.078399372  0.079151411            2 
  918000    1.0877054   -3.5543401     867.4325  0.078742964  0.079142983            3 
  919000    1.1116111   -3.5927458    861.85708  0.078151712  0.079134394            4 
  920000    1.1327564   -3.5698815    866.34973  0.078473708   0.07912574            6 
  921000    1.1146133   -3.5354709     864.6713  0.078236636  0.079116736            2 
  922000    1.1187743   -3.5645505    865.78291  0.078252252  0.079108014            3 
  923000    1.1100667   -3.5592266     869.3141  0.078486285  0.079099391            2 
  924000     1.090169   -3.5206547    869.23709  0.078394399  0.079090854            3 
  925000    1.0983862   -3.5530719    870.96693  0.078465489  0.079083028            2 
  926000    1.0973148   -3.5391188    871.94808   0.07846905  0.079074456            1 
  927000    1.1078287   -3.5230013    878.47215  0.078970888  0.079066258            1 
  928000    1.0932748   -3.5739129    876.97468  0.078751318  0.079058482            3 
  929000    1.0467002   -3.5651115    877.20012  0.078686771  0.079050576            1 
  930000    1.1179917   -3.5395329    875.52797  0.078452327  0.079042014            3 
  931000    1.0799476   -3.5413555    876.44819  0.078450428  0.079033656            3 
  932000    1.1110545   -3.5681224    871.49287  0.077923182  0.079025387            5 
  933000    1.0916883   -3.5686956    878.96695  0.078507231  0.079016221            1 
  934000    1.0986403   -3.5892731    878.51941  0.078383245  0.079008049            3 
  935000    1.0949105   -3.5361898    879.65703  0.078400805  0.078998891            2 
  936000    1.1120646   -3.5706522    877.35562  0.078112145  0.078989518            5 
  937000    1.1126324   -3.4938377    882.60863  0.078495965  0.078980465            2 
  938000    1.0905649   -3.5429391    883.39841  0.078482446  0.078971813            4 
  939000    1.1238397   -3.5708552     879.8965  0.078088081  0.078962665            2 
  940000    1.1018688   -3.5594745    884.55704  0.078418177  0.078951892            1 
  941000    1.1085239   -3.5339069    882.21682  0.078127597  0.078942817            3 
  942000     1.104531    -3.599476     884.2669  0.078226017   0.07893327            4 
  943000    1.0840557   -3.5667558    887.52643  0.078431109  0.078923263            1 
  944000    1.0990287   -3.5770123    885.04361   0.07812885  0.078913351            4 
  945000    1.0921864   -3.5608841    887.78167  0.078287625  0.078903405            2 
  946000    1.0953408   -3.5417599    885.93398  0.078042105  0.078893565            2 
  947000    1.1007764     -3.55266    886.87599  0.078042589  0.078883818            3 
  948000    1.0901706   -3.5787205    890.69283  0.078295783   0.07887406            3 
  949000    1.0990627    -3.576276    888.81884  0.078048721  0.078864465            2 
  950000    1.1117515   -3.5474649    890.58537  0.078121523  0.078855245            1 
  951000    1.0557853   -3.5550866    889.91709  0.077980817  0.078847038            2 
  952000    1.0995915   -3.5667136    892.00277  0.078081475  0.078838323            1 
  953000     1.119448   -3.5266748    896.30346  0.078375608  0.078829481            1 
  954000    1.0966282   -3.5634995    893.97454  0.078090019  0.078820554            3 
  955000    1.0834987   -3.5785096    895.59338  0.078149509  0.078811686            3 
  956000    1.1054723   -3.5438138    897.06217  0.078195796    0.0788026            5 
  957000      1.10126   -3.5516369    895.02707  0.077936875  0.078793674            1 
  958000    1.0826445   -3.5564561     896.7718   0.07800729  0.078784385            2 
  959000    1.1167172   -3.5550579    898.44192  0.078071074  0.078774838            3 
  960000    1.0952397   -3.5679791    897.00346  0.077864883  0.078765322            5 
  961000     1.105717    -3.541245    897.89165  0.077860878  0.078756005            4 
  962000     1.094559   -3.5749914    901.71778  0.078111381  0.078746638            2 
  963000    1.1040966   -3.5479837    903.48107  0.078182855  0.078737722            3 
  964000    1.0936218   -3.5631852    902.77806  0.078040981  0.078728737            2 
  965000    1.0961018    -3.557522    901.20801  0.077824526  0.078719274            3 
  966000    1.0834821   -3.5505308    899.95318  0.077635713  0.078709895            1 
  967000    1.0970441   -3.5848878    903.72114  0.077880139   0.07870066            3 
  968000    1.0973226   -3.5595781    906.04695   0.07799991  0.078691807            2 
  969000    1.0962978   -3.5756635    904.22357  0.077762605  0.078682312            3 
  970000     1.090208   -3.5674986    908.85054  0.078079943  0.078673447            3 
  971000    1.0855642   -3.5608504    915.62535   0.07858096   0.07866449            1 
  972000    1.1140674   -3.5820181    908.53757  0.077892453  0.078656009            2 
  973000    1.1011979   -3.5730331    910.86288  0.078011552  0.078646637            5 
  974000    1.0936718   -3.5663447    912.60418   0.07808044  0.078637649            2 
  975000    1.0960881   -3.5436031    909.99853  0.077777652  0.078629088            1 
  976000    1.0865369   -3.5528355    913.50538  0.077997386  0.078620435            2 
  977000    1.0966199   -3.5486286    914.49834  0.078002246   0.07861188            1 
  978000    1.0962255   -3.5662441    914.43383  0.077916993  0.078602234            1 
  979000    1.0968531   -3.5352432    914.32906  0.077828487   0.07859319            2 
  980000    1.0745833   -3.5789495    913.37308  0.077667779  0.078583047            2 
  981000    1.0894798   -3.5774554    916.08708  0.077819154  0.078572571            2 
  982000    1.0638568   -3.5613871    915.90421   0.07772439  0.078562776            2 
  983000     1.074088   -3.5734506     915.2434  0.077589301  0.078551844            2 
  984000    1.1083467    -3.527521    915.83589  0.077560628  0.078541452            3 
  985000     1.093875   -3.5715027    914.85052  0.077398521  0.078530725            2 
  986000    1.0651104   -3.5566048    916.76858  0.077482132  0.078519316            2 
  987000    1.1123316    -3.556012    916.85162   0.07741064  0.078507583            4 
  988000    1.0930097   -3.5680735    917.00338  0.077345089   0.07849676            3 
  989000     1.128608   -3.5656847    919.69584  0.077493751  0.078485519            3 
  990000     1.095628    -3.558288     922.7305  0.077670918  0.078474152            3 
  991000    1.0988275   -3.5564522    920.14639  0.077375243  0.078462451            2 
  992000    1.1031512   -3.5781297    921.27363  0.077391938   0.07845136            1 
  993000    1.0803556   -3.5625747    925.94837  0.077706308  0.078440295            4 
  994000    1.0793769   -3.5576668    925.29545  0.077573394   0.07842995            2 
  995000    1.0692335   -3.5668686    926.49187  0.077595634  0.078419688            3 
  996000    1.0770609    -3.572854    927.72126  0.077620588  0.078409822            2 
  997000    1.0866916   -3.5789173    929.49707  0.077691163  0.078399829            1 
  998000    1.0855662   -3.5757405    928.60335   0.07753869  0.078389579            2 
  999000     1.089256   -3.5693863    928.50221  0.077452637  0.078379601            2 
 1000000    1.0922969   -3.5483901    930.70335  0.077558613  0.078370208            1 
 1001000    1.0686497   -3.5865459    932.56819  0.077636379  0.078360778            3 
 1002000     1.059457   -3.5698491    932.79157  0.077577476  0.078351847            3 
 1003000    1.1119294   -3.5688587    937.85744  0.077921024  0.078343147            3 
 1004000    1.0880944   -3.5640234     935.4704  0.077645286  0.078333533            3 
 1005000    1.0904245   -3.5368537    942.28456  0.078133048  0.078325291            4 
 1006000    1.0804113   -3.5679931    936.99603  0.077617298  0.078316053            2 
 1007000     1.101887   -3.5890089    936.93676  0.077535316  0.078306731            5 
 1008000    1.0707453   -3.5495786    938.35711  0.077575819  0.078296846            3 
 1009000    1.0925733   -3.6143325    932.69204  0.077031057  0.078286964            3 
 1010000    1.1083532   -3.5492494    939.27695  0.077498098  0.078277196            1 
 1011000    1.0865415   -3.5482277    939.54513  0.077443549  0.078267747            3 
 1012000    1.0838639   -3.5717195     940.9739  0.077484675  0.078258126            4 
 1013000    1.0894041   -3.6027394    939.32903  0.077272872  0.078248425            1 
 1014000    1.0991787   -3.5696819    945.21422  0.077680327  0.078238901            2 
 1015000    1.0963553   -3.5766774    943.17393  0.077436283  0.078229471            1 
 1016000    1.1016739   -3.5979897    943.50325  0.077387078  0.078219891            2 
 1017000    1.1096606   -3.5913057    942.72191   0.07724696  0.078209974            2 
 1018000    1.0679379   -3.5560825    948.45634    0.0776405  0.078199345            1 
 1019000    1.0787394   -3.5458206    944.71949  0.077258708  0.078189107            3 
 1020000    1.0818356   -3.6014114    947.49308  0.077409565  0.078178771            6 
 1021000    1.0763439   -3.5669208    947.56376  0.077339517  0.078168644            3 
 1022000    1.0804544   -3.6096409    949.16672  0.077394547  0.078158335            2 
 1023000    1.0823015   -3.5987026    944.28082  0.076920888  0.078147341            5 
 1024000    1.0969245   -3.5575447     950.7327  0.077370825  0.078136492            2 
 1025000    1.0957523   -3.5985647    952.77932  0.077461734  0.078125892            3 
 1026000    1.1007631   -3.5725769    950.74066  0.077220651  0.078115147            4 
 1027000    1.0874807   -3.5691656    951.75069  0.077227417  0.078105349            2 
 1028000    1.0725238   -3.5692041    955.88572  0.077487493   0.07809576            1 
 1029000    1.0752835   -3.5637266    958.55789  0.077628595   0.07808608            2 
 1030000    1.1045452   -3.6010901    953.77269  0.077166075   0.07807698            3 
 1031000    1.1341416    -3.561501    959.79217   0.07757777  0.078068001            5 
 1032000    1.0874326   -3.5927842    958.44604  0.077393899  0.078059574            2 
 1033000    1.0822358   -3.6322692    958.47862  0.077321605  0.078050541            2 
 1034000    1.0790229    -3.556125    961.64686  0.077502165  0.078041336            3 
 1035000    1.0862276   -3.6101429    959.61321  0.077263543  0.078032408            2 
 1036000    1.0725368   -3.5715171    965.91265  0.077695677  0.078023207            3 
 1037000    1.0898439   -3.5818812    961.87618  0.077296382  0.078013793            3 
 1038000    1.0930233   -3.5643271       963.16  0.077324984   0.07800469            2 
 1039000    1.0945413    -3.580479    964.75233  0.077378275    0.0779957            3 
 1040000    1.0591842   -3.5843138    962.32279  0.077109198  0.077985783            2 
 1041000    1.0782234   -3.5534498    965.37817  0.077279712  0.077975966            1 
 1042000    1.0630218   -3.6058328    959.08584  0.076702323  0.077965455            2 
 1043000    1.1039819   -3.5818167    965.13404   0.07711202  0.077954443            3 
 1044000    1.1011193    -3.589041     964.2088  0.076964304  0.077943038            2 
 1045000      1.06745   -3.5835798    965.16349  0.076966785  0.077930805            2 
 1046000    1.0610324   -3.5901715    968.08697  0.077126113  0.077919127            3 
 1047000     1.097203   -3.5635235    968.04271  0.077048926  0.077907464            2 
 1048000    1.0761276   -3.5920965    968.36378  0.077000936  0.077895662            2 
 1049000    1.0698043   -3.5652169    965.18141  0.076674723   0.07788361            2 
 1050000    1.0811294   -3.5787994    966.43496  0.076701187  0.077871011            2 
 1051000     1.055902   -3.5971405    965.06698  0.076519742  0.077857982            3 
 1052000    1.0840936   -3.5870099    969.13864  0.076769538  0.077844819            3 
 1053000    1.0995308   -3.5863324    967.10961  0.076536057  0.077832476            1 
 1054000    1.0939522   -3.5969725    966.93631   0.07644974  0.077819382            1 
 1055000    1.1058216   -3.5953826    971.71161  0.076754472  0.077807371            3 
 1056000    1.0879441   -3.5892655    973.06681  0.076788732  0.077794922            2 
 1057000    1.1073529   -3.5657099     975.0701  0.076874022  0.077784103            3 
 1058000    1.0886527   -3.5795064    974.68748  0.076771226  0.077772574            2 
 1059000    1.0943251   -3.5811426     973.2654  0.076586827  0.077760848            4 
 1060000    1.0495772    -3.557161    976.55731  0.076773373  0.077748964            3 
 1061000    1.0629823   -3.5733102    978.23047  0.076832428  0.077736634            7 
 1062000    1.0862888   -3.5879195    976.48812  0.076623361  0.077725019            2 
 1063000    1.0704244   -3.5767226    973.89253  0.076347799  0.077713171            3 
 1064000    1.0722587   -3.5668716    982.78031  0.076972142  0.077700405            2 
 1065000    1.0602073   -3.5448327    981.33498  0.076786775  0.077688252            4 
 1066000     1.085965   -3.6026247    978.99777  0.076532033  0.077676287            2 
 1067000    1.0841719   -3.5917617    975.14579  0.076159465  0.077663868            2 
 1068000    1.0635584   -3.5980226    981.13176  0.076555225   0.07765098            4 
 1069000    1.0879969   -3.5300724    983.21615  0.076646098  0.077638611            1 
 1070000    1.0619471   -3.6020383    983.81104  0.076620798  0.077626552            2 
 1071000    1.0776255   -3.5715321    986.80293  0.076782052  0.077614413            1 
 1072000    1.1001288   -3.6180707    983.58331  0.076460145  0.077602447            2 
 1073000    1.0815574   -3.5800802    987.67092  0.076706346  0.077589607            3 
 1074000    1.0486701   -3.5663976    986.74216  0.076562862  0.077577711            3 
 1075000    1.0777319   -3.5791765    988.54748  0.076631587  0.077565456            3 
 1076000    1.0857693   -3.5789059    989.27475  0.076616693  0.077553534            2 
 1077000    1.0733763    -3.572692    985.13833  0.076225498  0.077541945            4 
 1078000    1.0756051   -3.5836822    991.63201  0.076656773  0.077529246            1 
 1079000    1.0868072   -3.5895837    991.36371  0.076565007  0.077517225            1 
 1080000    1.0751418   -3.5949121    990.03366  0.076391486  0.077505334            3 
 1081000    1.0646916   -3.5795699    990.53133  0.076359183  0.077492965            1 
 1082000    1.0744316    -3.613867    985.39384  0.075892933   0.07748009            2 
 1083000    1.0574374   -3.5673444    994.69147  0.076538278  0.077467271            3 
 1084000    1.0586144   -3.5920841    991.40818  0.076215266  0.077454233            2 
 1085000    1.0923847   -3.6000168    994.12702  0.076353842  0.077440699            2 
 1086000    1.0665365    -3.590137    993.01883  0.076198498  0.077428053            2 
 1087000    1.0980849   -3.5835496    994.44418  0.076237671  0.077414998            2 
 1088000    1.0702887   -3.5770073    992.13011  0.075990358    0.0774027            1 
 1089000    1.0695672   -3.5874729     1000.044  0.076526169  0.077390189            5 
 1090000    1.0940335   -3.5862716      998.896  0.076368196  0.077377525            5 
 1091000    1.0954474   -3.6033867    996.35863  0.076104386  0.077364951            1 
 1092000    1.0815749   -3.6016671    997.85518    0.0761489  0.077352298            1 
 1093000    1.0780924    -3.561788    999.38832  0.076196121  0.077339645            3 
 1094000    1.0882935   -3.5890523    996.84857  0.075933011  0.077326197            3 
 1095000     1.068442   -3.6111215    999.39488  0.076057449  0.077313003            4 
 1096000       1.0805   -3.5697847    1000.0969  0.076041432  0.077300339            3 
 1097000    1.0947781   -3.6109973    999.52767  0.075928872  0.077287727            2 
 1098000    1.0999526    -3.609523    999.30726  0.075842992   0.07727454            3 
 1099000    1.0662883   -3.5831407    1001.7497  0.075959181  0.077261674            2 
 1100000     1.056597    -3.621981    1000.4889  0.075794613  0.077248534            2 
 1101000    1.0755218   -3.5940093    1005.2045  0.076082688  0.077235484            3 
 1102000    1.0595494   -3.5759483    1002.2326  0.075788915  0.077222293            2 
 1103000    1.0537205   -3.6255259    1003.7784   0.07583699  0.077209026            5 
 1104000    1.0703409   -3.5693082    1005.9447  0.075931816  0.077195652            2 
 1105000    1.0920884   -3.5854144    1011.9439  0.076315531  0.077183036            6 
 1106000    1.0518667   -3.5993614    1008.7188  0.076003526  0.077170205            2 
 1107000    1.0592667    -3.599226    1008.7193   0.07593491  0.077157056            5 
 1108000    1.0557208     -3.60902    1007.4167  0.075768405  0.077143858            2 
 1109000    1.0703683   -3.5847959    1010.8734  0.075959829  0.077131098            2 
 1110000    1.0536233   -3.6019018     1009.969    0.0758235  0.077118175            2 
 1111000    1.0916022   -3.6139996    1015.0141  0.076133672  0.077104749            2 
 1112000    1.0630354   -3.6183489    1015.8008  0.076124162  0.077091805            6 
 1113000    1.0880406    -3.619241    1015.4931  0.076032724  0.077078934            2 
 1114000    1.0652803   -3.6024919    1012.6713  0.075753392  0.077065299            6 
 1115000    1.0658699   -3.5826792    1016.1885  0.075948318  0.077052633            3 
 1116000    1.0289577   -3.6220722    1011.9727  0.075565467  0.077039538            3 
 1117000     1.089142   -3.6207839    1014.0718  0.075654416  0.077025427            1 
 1118000    1.0807335   -3.5818894    1016.6565  0.075779404  0.077011827            4 
 1119000    1.0491658   -3.5869935    1014.7684  0.075571073  0.076997881            2 
 1120000     1.071163   -3.6065643    1016.8479  0.075658329   0.07698442            4 
 1121000     1.045256    -3.623204    1018.4105  0.075706995  0.076971676            3 
 1122000    1.0694013     -3.59548    1016.7165  0.075513701  0.076958194            2 
 1123000    1.0636482   -3.6361603    1018.6321  0.075588613  0.076944718            2 
 1124000    1.0825718   -3.5812686     1024.922  0.075987692  0.076931749            2 
 1125000    1.0813211   -3.6142873    1019.4527  0.075515012  0.076918555            2 
 1126000    1.0940927    -3.601442    1024.0061  0.075784943  0.076905373            5 
 1127000    1.0649549   -3.6152202    1018.1166   0.07528221  0.076891907            2 
 1128000    1.0781329   -3.5735662    1025.2462  0.075742183  0.076878077            3 
 1129000    1.0671988    -3.578005    1019.9395  0.075283399  0.076863543            3 
 1130000    1.0576667   -3.5731766    1028.0977  0.075818414  0.076850022            2 
 1131000    1.0662039   -3.5957104    1022.3895  0.075330789  0.076835849            2 
 1132000    1.0810864   -3.5917296    1023.1154  0.075317684  0.076821678            2 
 1133000    1.0652133   -3.6016829    1025.9668  0.075460929  0.076807858            2 
 1134000    1.0677881   -3.6020265    1022.7181  0.075155652  0.076793805            4 
 1135000    1.0778622   -3.6140142    1029.6288  0.075596827  0.076779752            1 
 1136000    1.0760588   -3.6251579    1023.0455  0.075047349  0.076766244            4 
 1137000     1.046021   -3.5952769    1028.2182  0.075360467  0.076751882            3 
 1138000    1.0562365   -3.6029582     1030.779  0.075481766  0.076738175            3 
 1139000    1.0962681   -3.5971657    1036.4088   0.07582739  0.076724255            4 
 1140000    1.0383525   -3.6025644    1031.2589  0.075384422  0.076710579            2 
 1141000    1.0562227   -3.6009406    1036.8728   0.07572837  0.076696687            2 
 1142000    1.0762231    -3.584929    1033.6703  0.075428365   0.07668325            4 
 1143000    1.0673208   -3.6058767    1037.0855   0.07561137   0.07666953            2 
 1144000    1.0732069   -3.5941384    1036.1649  0.075478215  0.076655628            4 
 1145000    1.0853307   -3.6306625    1035.8192  0.075387133  0.076641323            3 
 1146000    1.1048697    -3.625074    1036.0276  0.075336503  0.076627627            3 
 1147000    1.0885473   -3.6297402    1038.6808  0.075463583  0.076614468            2 
 1148000    1.0743277   -3.6106483    1040.7404  0.075547355  0.076600746            2 
 1149000    1.0874699   -3.5902524    1036.6302  0.075183507  0.076586636            1 
 1150000    1.0441788   -3.5766849    1042.3537  0.075532876  0.076572719            1 
 1151000     1.058773   -3.6009226    1042.9408  0.075509762  0.076559668            1 
 1152000    1.0586802   -3.6331572     1036.094  0.074948927  0.076546205            3 
 1153000    1.0712362   -3.6317156    1040.3018  0.075188049  0.076532128            4 
 1154000    1.0612556   -3.6087873    1041.4212   0.07520373  0.076518156            3 
 1155000    1.0650646   -3.6027783    1042.5211   0.07521797   0.07650468            2 
 1156000    1.0611192   -3.6208657    1044.7692  0.075314967  0.076491161            2 
 1157000    1.0787542   -3.6133383    1042.4171  0.075080457  0.076477763            2 
 1158000    1.0478094   -3.6408246    1043.4691  0.075091328   0.07646421            2 
 1159000    1.0541333   -3.6037931    1048.7137  0.075403628  0.076450475            2 
 1160000     1.077135   -3.5993757    1046.5022  0.075179754  0.076436443            3 
 1161000    1.0498119   -3.5911059     1046.225  0.075095104  0.076422238            4 
 1162000    1.0890174   -3.6280068    1047.6294  0.075131196   0.07640833            3 
 1163000    1.0623944   -3.6195714    1045.3842  0.074905721  0.076393464            2 
 1164000    1.0688618   -3.6059097     1050.533  0.075209983  0.076379058            3 
 1165000    1.0848383   -3.6068515     1047.042  0.074895711  0.076364813            3 
 1166000     1.032154   -3.6170594    1048.8572  0.074961209  0.076350525            1 
 1167000     1.070216   -3.5926839    1050.2814  0.074998675  0.076336099            2 
 1168000     1.051208   -3.6465048    1044.1424   0.07449646  0.076321561            3 
 1169000    1.0886216   -3.5906281    1054.9284  0.075201627  0.076307247            3 
 1170000    1.0511029   -3.5894174    1054.0462  0.075074512  0.076292967            3 
 1171000    1.0596377   -3.5970503    1054.1934  0.075020877  0.076278933            3 
 1172000    1.0362802   -3.6128729    1053.5448  0.074910749  0.076264677            2 
 1173000    1.0756056   -3.6183623    1054.4846  0.074913657  0.076250391            2 
 1174000    1.1019674   -3.6023047    1054.7251  0.074866913  0.076236115            2 
 1175000    1.0690064   -3.6129668    1055.9249  0.074888291    0.0762226            3 
 1176000    1.0649442   -3.6308403    1055.0726  0.074764215  0.076208855            3 
 1177000    1.0362369   -3.5998299     1062.123  0.075199871  0.076195607            2 
 1178000     1.077311   -3.6078242    1060.2827  0.075005851  0.076182929            2 
 1179000    1.0862599   -3.6203385    1058.5443   0.07481936  0.076169814            2 
 1180000    1.0720628   -3.5944498    1068.3606  0.075449196  0.076157193            3 
 1181000    1.0436178   -3.6320319    1059.1381  0.074734554  0.076143849            1 
 1182000    1.0515713   -3.6472998    1063.4145  0.074972825   0.07613084            4 
 1183000    1.0601265   -3.5833751    1066.7977   0.07514777  0.076117848            5 
 1184000    1.0928152   -3.6033253    1070.0116  0.075310499  0.076104817            5 
 1185000    1.0668116   -3.6044468    1067.2684  0.075054035  0.076091687            3 
 1186000    1.0815912   -3.6220559     1069.487  0.075146641  0.076078103            3 
 1187000    1.0483006   -3.5849429    1070.6492  0.075164926  0.076064723            2 
 1188000    1.0756038   -3.6199908    1070.7579  0.075109278  0.076051839            1 
 1189000    1.0799247    -3.607899    1066.7322  0.074763959  0.076038908            2 
 1190000     1.049509   -3.5996278    1070.0006  0.074930017   0.07602559            2 
 1191000    1.0520748   -3.6261047    1070.2698  0.074885939  0.076011658            2 
 1192000    1.0650945   -3.6193503    1068.7868  0.074719434  0.075998114            3 
 1193000    1.0563115   -3.6073825    1074.3745  0.075047115  0.075984394            2 
 1194000    1.0760545   -3.5953924    1078.3521  0.075261869  0.075971068            2 
 1195000    1.0716006   -3.6150781      1076.08  0.075040446  0.075958278            4 
 1196000    1.0509788   -3.6227092    1071.8187  0.074680794  0.075945092            4 
 1197000    1.0852519   -3.6141509    1073.1848  0.074713503  0.075931534            2 
 1198000    1.0329392   -3.6125355    1072.6903  0.074616745  0.075917894            4 
 1199000    1.0529152    -3.651326    1072.0556  0.074510399  0.075904423            4 
 1200000    1.0524361   -3.6384244    1072.0783  0.074449885  0.075890766            3 
 1201000    1.0600186    -3.609843    1076.0968  0.074666722  0.075876884            4 
 1202000    1.0517806   -3.5932201    1078.0324  0.074738795  0.075862925            2 
 1203000    1.0741273   -3.6274372    1071.2716  0.074208341  0.075848349            3 
 1204000     1.040284   -3.6252076    1074.6476   0.07438037  0.075834101            2 
 1205000    1.0575247   -3.6040346    1083.2755  0.074915315  0.075820312            1 
 1206000    1.0556082   -3.6515729    1076.9561  0.074416535  0.075806576            3 
 1207000    1.0874421   -3.6040938    1078.6139   0.07446934  0.075792422            2 
 1208000    1.0336503   -3.6310711    1079.5217  0.074470317  0.075778044            2 
 1209000    1.0639762   -3.6425546    1080.2349  0.074457875  0.075763327            2 
 1210000    1.0576717   -3.6294796    1075.1683  0.074047402  0.075749068            3 
 1211000    1.0642419   -3.6169761    1081.8205  0.074444019  0.075734576            4 
 1212000    1.0549786   -3.6153764    1083.9941   0.07453205  0.075720387            2 
 1213000    1.0499613   -3.5960784    1084.6119  0.074513043  0.075705722            3 
 1214000    1.0432075   -3.6169025    1082.3885  0.074299049  0.075691596            4 
 1215000     1.056685   -3.6293391    1085.6286  0.074460127  0.075677004            4 
 1216000    1.0410597   -3.6053198    1086.7622  0.074476576  0.075661759            2 
 1217000     1.078114   -3.6181916    1085.7165  0.074343776  0.075646992            2 
 1218000    1.0362328   -3.6305995    1084.6825  0.074211991  0.075632069            5 
 1219000    1.0860089   -3.6286696    1085.3797  0.074198776   0.07561725            2 
 1220000    1.0607979   -3.6177767    1089.0809  0.074390771  0.075602617            5 
 1221000    1.0680644    -3.621855    1087.2432  0.074204421  0.075588243            4 
 1222000    1.0650827   -3.6274123    1090.3092  0.074352785  0.075573863            5 
 1223000     1.036512   -3.6179836    1083.6991  0.073841583  0.075559201            2 
 1224000     1.078639   -3.5938787    1093.8121  0.074469779  0.075544722            4 
 1225000    1.0604587   -3.5873574    1094.9729  0.074487955  0.075530431            2 
 1226000    1.0481002   -3.6287038    1092.7566  0.074276552  0.075516152            1 
 1227000    1.0819457   -3.6163933    1093.6839  0.074278991  0.075502057            3 
 1228000    1.0726393   -3.6114973    1093.8774   0.07423164  0.075487643            1 
 1229000    1.0794508   -3.6411406    1091.6898  0.074022905  0.075473307            4 
 1230000    1.0565373   -3.6294377    1095.8833  0.074246833  0.075459183            3 
 1231000    1.0715361    -3.610845    1097.8542  0.074319941  0.075445255            1 
 1232000     1.064389   -3.6558517    1100.3283  0.074426968  0.075431082            2 
 1233000     1.072013   -3.6188652    1101.5509  0.074449236  0.075417257            4 
 1234000    1.0592352   -3.6189654    1097.6367  0.074124576  0.075403332            3 
 1235000    1.0491933    -3.617436    1099.1124  0.074164129  0.075389636            3 
 1236000    1.0478221   -3.6152161    1104.5945  0.074473736  0.075376228            1 
 1237000    1.0425816   -3.6383785    1101.9087    0.0742326  0.075362509            2 
 1238000    1.0324489    -3.629554    1099.7409  0.074026716    0.0753487            2 
 1239000    1.0546068    -3.626316    1106.0815  0.074393432  0.075334951            4 
 1240000    1.0525789   -3.6337927    1103.9887  0.074192791  0.075320908            1 
 1241000    1.0563695    -3.625621    1103.0962  0.074073071  0.075307333            5 
 1242000    1.0471263   -3.6108329    1099.3645  0.073763048  0.075293736            5 
 1243000     1.047673   -3.6204719    1107.6192   0.07425712  0.075279687            3 
 1244000    1.0584671   -3.6394019    1102.4335  0.073850048  0.075265763            4 
 1245000    1.0424126   -3.6209743     1107.392  0.074122622  0.075252085            2 
 1246000    1.0642767   -3.6208199    1107.3737  0.074061912  0.075238749            1 
 1247000    1.0532456   -3.6006788    1109.5311  0.074146691  0.075225108            2 
 1248000    1.0283175    -3.621454    1110.3131  0.074139494  0.075211501            3 
 1249000    1.0498421   -3.6154197    1108.7484  0.073975741  0.075197989            3 
 1250000    1.0530583   -3.6352254    1110.7318  0.074048786  0.075184444            3 
 1251000    1.0535095   -3.6064762    1111.9769  0.074072537  0.075170643            1 
 1252000    1.0427238   -3.6590948     1109.825  0.073870143  0.075156793            5 
 1253000    1.0575176   -3.6286583    1117.1474   0.07429818  0.075142993            3 
 1254000    1.0559246    -3.607321    1114.9173   0.07409073  0.075128763            2 
 1255000    1.0583431   -3.5859518    1121.5483  0.074472001  0.075115079            2 
 1256000    1.0452975   -3.6308021    1117.0162  0.074112009  0.075101209            2 
 1257000    1.0602297   -3.6265865     1115.427  0.073947692  0.075087937            1 
 1258000    1.0559691   -3.6379629    1120.8022  0.074244982   0.07507451            1 
 1259000    1.0281041    -3.637009    1118.8651  0.074057792  0.075061259            2 
 1260000    1.0469725   -3.6526296     1115.124  0.073751588  0.075048256            2 
 1261000    1.0385534   -3.6502153    1117.3725   0.07384169  0.075034667            5 
 1262000     1.037405   -3.6368535     1121.401  0.074049193  0.075021555            2 
 1263000    1.0395478   -3.5988105    1119.5461  0.073868177  0.075008553            3 
 1264000    1.0556737   -3.6220087     1121.702  0.073951875  0.074995459            3 
 1265000    1.0397117   -3.6209676    1124.7917   0.07409695   0.07498209            2 
 1266000    1.0502494    -3.619819    1122.1881  0.073867045  0.074968351            5 
 1267000     1.049452   -3.6347165    1122.7362  0.073844793  0.074954682            3 
 1268000    1.0493736   -3.6334249    1121.8358  0.073727382  0.074941805            1 
 1269000     1.059328   -3.6460771    1125.6102  0.073917139  0.074928747            2 
 1270000    1.0356124    -3.636314    1125.5623  0.073855794  0.074915281            3 
 1271000    1.0654613   -3.6247694     1126.957  0.073889129  0.074902454            3 
 1272000    1.0313091   -3.6335382    1128.2556  0.073916116  0.074889086            3 
 1273000    1.0369685   -3.6727591    1129.1501  0.073916605   0.07487586            7 
 1274000    1.0318032   -3.6541566    1128.3091  0.073803581  0.074862466            3 
 1275000    1.0496909   -3.6195717    1130.6054  0.073895775   0.07484877            1 
 1276000    1.0430471   -3.6332151    1133.8963  0.074052791   0.07483567            4 
 1277000      1.03559   -3.6324221    1131.2599  0.073822757  0.074822804            3 
 1278000    1.0276483   -3.6480358    1132.0157  0.073814274  0.074809503            2 
 1279000    1.0375438   -3.6173254    1139.6075  0.074251208  0.074796524            3 
 1280000    1.0403093   -3.6551317    1132.9332  0.073758672  0.074783556            3 
 1281000    1.0600748   -3.6027994    1136.2384  0.073916106   0.07477052            2 
 1282000    1.0475627   -3.6296948    1136.9398  0.073904041  0.074757499            2 
 1283000    1.0196482   -3.6254678    1138.6933  0.073960334  0.074743885            2 
 1284000    1.0361123   -3.6464965    1135.7364  0.073710827  0.074731057            3 
 1285000    1.0248597   -3.6255928    1138.2803  0.073818435  0.074717378            2 
 1286000    1.0539665   -3.6389798    1137.9101  0.073737047   0.07470437            3 
 1287000    1.0416126   -3.6324833    1138.0284  0.073687411  0.074691068            3 
 1288000    1.0419091   -3.6200833    1139.4345  0.073721175  0.074677639            3 
 1289000    1.0356996   -3.6596383    1136.2748  0.073459712  0.074664598            2 
 1290000     1.039182     -3.65414    1144.6501  0.073943808  0.074651342            2 
 1291000    1.0446272     -3.62623    1144.6388  0.073885799  0.074638734            3 
 1292000    1.0495056   -3.6354707    1142.5976  0.073696955  0.074625947            5 
 1293000    1.0417895   -3.6186559    1146.6525  0.073901297  0.074612926            3 
 1294000     1.060075   -3.6354766     1142.074  0.073549332  0.074599998            2 
 1295000    1.0224812   -3.6507489    1142.0386  0.073490256  0.074586782            3 
 1296000    1.0373687    -3.613586    1146.8917  0.073745609  0.074574163            5 
 1297000    1.0521761   -3.6566904    1148.1287  0.073768229   0.07456084            2 
 1298000    1.0433255   -3.6502291    1151.9272  0.073955261  0.074547381            4 
 1299000    1.0650046   -3.6717934    1147.5585   0.07361807  0.074534291            3 
 1300000    1.0359221   -3.6383819    1144.2975  0.073352405  0.074521173            2 
 1301000    1.0559048   -3.6041226    1148.9647  0.073594973  0.074508256            2 
 1302000     1.059581   -3.6278894    1152.5816  0.073769942  0.074495208            1 
 1303000    1.0263573   -3.6498722    1145.5898  0.073266168  0.074482018            2 
 1304000    1.0416699   -3.6392741    1148.8138  0.073416012  0.074468444            2 
 1305000    1.0496923   -3.6427576    1149.3131   0.07339164  0.074455021            1 
 1306000    1.0538839   -3.6378797    1150.1324  0.073387725  0.074441614            2 
 1307000    1.0178022   -3.6868143     1150.688  0.073366995  0.074427791            3 
 1308000    1.0630105   -3.6327324    1152.4207  0.073421301  0.074413938            4 
 1309000    1.0515958   -3.6337963    1153.0716  0.073406644  0.074400252            3 
 1310000    1.0177184   -3.6307634    1150.0752      0.07316  0.074386299            1 
 1311000    1.0515764   -3.6291825     1153.804  0.073341217  0.074372528            2 
 1312000    1.0287528   -3.6394761    1153.2572  0.073250586  0.074358877            2 
 1313000    1.0507784   -3.6636263    1155.3751  0.073329213  0.074345002            2 
 1314000    1.0394509   -3.6554513    1155.8281  0.073302137  0.074330964            2 
 1315000     1.022817   -3.5953108    1155.3983  0.073219159  0.074317079            2 
 1316000    1.0319623   -3.6303844     1155.142  0.073147293  0.074303365            3 
 1317000    1.0510563   -3.6430092    1154.0082  0.073020008  0.074289502            3 
 1318000    1.0416234   -3.6622892    1153.5556  0.072935986  0.074275498            1 
 1319000     1.040251   -3.6262092    1163.4001  0.073502661   0.07426192            1 
 1320000     1.027004   -3.6616243    1155.2625  0.072933241  0.074248009            2 
 1321000    1.0539415    -3.596452     1154.882  0.072854024  0.074233748            3 
 1322000    1.0496402   -3.6612672    1158.6195  0.073034513  0.074219493           11 
 1323000     1.054707   -3.6418117    1158.6359  0.072980339  0.074205403            1 
 1324000    1.0181819   -3.6313475    1159.5998   0.07298589  0.074191263            3 
 1325000     1.047275   -3.6145239      1161.21  0.073032076  0.074177724            4 
 1326000    1.0403735   -3.6388693    1156.9411  0.072708719  0.074163468            2 
 1327000    1.0450864    -3.661347    1164.9226  0.073155149  0.074149288            4 
 1328000    1.0331112   -3.6333287    1167.7347  0.073276526  0.074135242            1 
 1329000    1.0237131   -3.6755889    1166.5073  0.073144427  0.074121659            2 
 1330000     1.038573   -3.6731939    1162.9233  0.072864871  0.074108112            5 
 1331000    1.0457796   -3.6250228    1169.3475  0.073212341  0.074094344            1 
 1332000    1.0446889   -3.6699864    1164.7177  0.072867721  0.074080855            3 
 1333000    1.0302817   -3.6389325    1165.6406  0.072870756  0.074066803            1 
 1334000    1.0425329   -3.6363651    1168.1704  0.072974164  0.074053051            2 
 1335000    1.0502635   -3.6475776    1166.6917  0.072827194  0.074039417            2 
 1336000    1.0549731   -3.6602898    1168.5173  0.072886556  0.074025392            2 
 1337000    1.0359821   -3.6904337    1162.9582  0.072485552  0.074011186            3 
 1338000    1.0511093   -3.6639675    1172.6615  0.073035718  0.073997128            4 
 1339000    1.0439742   -3.6210619    1170.0784  0.072820415  0.073983078            4 
 1340000    1.0347681   -3.6662973    1172.5957   0.07292262  0.073969504            2 
 1341000    1.0349175   -3.6461561    1167.0256  0.072522098  0.073955607            3 
 1342000    1.0531751   -3.6547087     1173.629  0.072878103  0.073941292            2 
 1343000      1.02547    -3.628914    1169.8434   0.07258894  0.073927452            3 
 1344000    1.0216464   -3.6326097    1170.9601  0.072604171  0.073913215            4 
 1345000    1.0243915   -3.6687624    1175.8113  0.072850765  0.073899114            2 
 1346000    1.0193993   -3.6268895    1175.4045   0.07277145  0.073885331            3 
 1347000    1.0492464     -3.63234    1180.4191  0.073027659  0.073871787            3 
 1348000    1.0427413   -3.6651269    1179.7308  0.072930936  0.073858021            2 
 1349000    1.0224082   -3.6528355    1181.2176  0.072968717  0.073844264            4 
 1350000    1.0560372   -3.6215353    1180.4422  0.072866803  0.073830824            3 
 1351000    1.0369879   -3.6033739    1185.4415  0.073121236  0.073817711            2 
 1352000    1.0256861   -3.6631658    1183.0905  0.072922245  0.073804131            7 
 1353000    1.0429721   -3.6906665    1178.5902  0.072591168  0.073790852            2 
 1354000    1.0418936   -3.6516725    1183.4119  0.072834314  0.073777662            2 
 1355000    1.0220539   -3.6423139    1185.8268   0.07292908  0.073764138            3 
 1356000    0.9901703   -3.6602775    1184.8216   0.07281352  0.073751127            3 
 1357000     1.044946   -3.6365089    1193.7276  0.073306778  0.073738229            3 
 1358000    1.0330444   -3.6649481    1184.2115  0.072668844  0.073725622            2 
 1359000     1.020419   -3.6713438    1188.6884  0.072889897  0.073712554            4 
 1360000    1.0176916    -3.637149    1188.3131  0.072813301  0.073699563            4 
 1361000    1.0350747    -3.644115    1190.6928  0.072905511  0.073686468            3 
 1362000     1.044197   -3.6290122    1197.5268  0.073270119  0.073673681            2 
 1363000    1.0389976   -3.6422474    1193.0971  0.072945528  0.073660979            3 
 1364000    1.0511257    -3.672593    1192.2377  0.072839547  0.073648335            2 
 1365000    1.0283566   -3.6284768    1190.9076   0.07270498  0.073635691            4 
 1366000    1.0208618   -3.6619165    1190.9903    0.0726568  0.073623005            2 
 1367000    1.0275439   -3.6837527    1192.1541    0.0726746  0.073610454            3 
 1368000    1.0528618   -3.6182049     1196.221  0.072869214  0.073597878            3 
 1369000    1.0360678    -3.662855    1196.4249  0.072828399  0.073585403            3 
 1370000    1.0581105   -3.6178807    1198.8392  0.072922095  0.073573097            3 
 1371000    1.0564319   -3.6350648    1199.0537   0.07288194  0.073561417            2 
 1372000    1.0384184   -3.6573834    1197.8212  0.072753961   0.07354902            5 
 1373000    1.0279464   -3.6674657    1196.4828   0.07261974   0.07353659            4 
 1374000    1.0309005   -3.6521713    1201.1816  0.072851868  0.073524191            2 
 1375000    1.0239726     -3.66512    1200.4535  0.072754755  0.073511778            2 
 1376000    1.0291643   -3.6360155    1201.3201  0.072754366  0.073499479            3 
 1377000    1.0245907   -3.6346703    1200.7879  0.072669323  0.073486819            4 
 1378000     1.026129   -3.6846659    1201.7488  0.072674699  0.073474339            2 
 1379000    1.0428675    -3.659652    1201.4083  0.072601423  0.073461734            3 
 1380000    1.0437213   -3.6754442    1204.9523  0.072762823  0.073449589            3 
 1381000    1.0294938   -3.6703324    1205.5161  0.072744154  0.073437611            1 
 1382000    1.0212684    -3.679999    1203.6056  0.072576316  0.073425565            4 
 1383000    1.0354418   -3.6360501    1211.2667   0.07298546  0.073413669            5 
 1384000   0.99981456   -3.6741119    1206.5374  0.072647963  0.073401805            2 
 1385000    1.0100092   -3.6439463    1208.7274  0.072727278  0.073389737            2 
 1386000    1.0435287   -3.6562353    1212.6817  0.072912561  0.073377683            3 
 1387000    1.0222474   -3.7017885    1207.2186  0.072531762  0.073365222            3 
 1388000    1.0416322   -3.6580302    1205.2156  0.072359246  0.073352941            1 
 1389000      1.03796   -3.6408808    1208.0916  0.072479695  0.073340124            1 
 1390000   0.99999793    -3.648527    1212.4121  0.072686575  0.073327847            5 
 1391000     1.032628   -3.6629825    1210.2824  0.072506735  0.073315777            5 
 1392000    1.0225559   -3.6548492    1212.6178  0.072594454  0.073303773            3 
 1393000     1.029372   -3.6395563    1212.7443  0.072549908  0.073291402            3 
 1394000    1.0346808    -3.649158    1211.5969  0.072429271  0.073279452            1 
 1395000   0.99386426   -3.6438108    1219.0936  0.072825184  0.073267347            1 
 1396000    1.0293992   -3.6576123    1219.2338  0.072781385  0.073255423            3 
 1397000    0.9991493   -3.6822209     1215.014  0.072477569   0.07324344            2 
 1398000    1.0409733   -3.6315523     1218.344  0.072624226    0.0732309            2 
 1399000    1.0196468   -3.6401201    1218.0674  0.072555838  0.073218219            3 
 1400000    1.0268861   -3.6700076    1216.3894   0.07240413  0.073205929            3 
 1401000    1.0152684   -3.6846446    1214.2908  0.072227622  0.073193119            4 
 1402000    1.0184784   -3.6777457    1218.4011  0.072420418   0.07318054            5 
 1403000    1.0150942   -3.6314675    1227.3827  0.072902277  0.073168534            2 
 1404000    1.0390942   -3.6556146    1219.9004  0.072406246   0.07315641            4 
 1405000    1.0359793   -3.6954086    1218.4483  0.072268581     0.073144            4 
 1406000    1.0250551   -3.6746773    1223.5414   0.07251905  0.073132096            4 
 1407000    1.0131086   -3.6616735    1223.5545  0.072468285  0.073119808            2 
 1408000    1.0123387    -3.643518    1225.2003  0.072514223  0.073107455            2 
 1409000     1.028077   -3.6535559    1228.4198  0.072653169  0.073095519            3 
 1410000     1.039642   -3.6655712    1227.7747  0.072563517  0.073083604            4 
 1411000     1.012745   -3.6704577    1224.1243  0.072296496   0.07307161            3 
 1412000    1.0333149   -3.6740195     1223.532  0.072210339  0.073059303            1 
 1413000    1.0279869   -3.6673106    1227.6964  0.072404837  0.073047049            2 
 1414000    1.0191258   -3.6559447    1229.5269  0.072461508  0.073035266            1 
 1415000    1.0262955   -3.6563839    1225.0107  0.072144329  0.073022649            2 
 1416000    1.0252564   -3.6451435    1227.4251  0.072235468  0.073010495            1 
 1417000    1.0209173   -3.6826679    1229.5708   0.07231068  0.072997932            2 
 1418000     1.024409   -3.6854133    1231.2203  0.072356622  0.072985312            3 
 1419000    1.0210221   -3.6780535    1227.3916  0.072080782  0.072972383            2 
 1420000    1.0468437   -3.6483162    1232.2789  0.072316836  0.072960076           15 
 1421000    1.0065586   -3.6506396    1233.5436  0.072340113  0.072947428            2 
 1422000    1.0203841   -3.6529627    1231.3546  0.072160961  0.072934691            2 
 1423000    1.0067654   -3.6251407     1228.632  0.071950809  0.072921968            3 
 1424000    1.0220594   -3.6727292    1232.9335  0.072152006   0.07290931            3 
 1425000    1.0209949   -3.6779169    1229.3043  0.071889143  0.072896306            3 
 1426000    1.0326477   -3.6668963    1230.1233  0.071886588  0.072883567            2 
 1427000    1.0145526   -3.6572865    1236.4108  0.072203385  0.072870689            2 
 1428000   0.99868585   -3.6627299    1228.8558  0.071711942  0.072857625            2 
 1429000     1.026722   -3.6891642    1232.6843  0.071885019    0.0728443            6 
 1430000    1.0191246   -3.6727631    1236.4623   0.07205491  0.072830874            3 
 1431000     1.022521   -3.6929733    1231.9296  0.071740602   0.07281756            4 
 1432000    1.0079002   -3.6503801    1238.5691  0.072076878  0.072804672            3 
 1433000    1.0102597   -3.6386984    1240.7482  0.072153304  0.072792292            2 
 1434000    1.0124583    -3.691779    1241.3856  0.072140031  0.072779208            3 
 1435000    1.0290516   -3.6778468     1238.446  0.071919049  0.072766272            2 
 1436000    1.0218307   -3.7019806    1239.3628  0.071922166  0.072753087            3 
 1437000    1.0134294   -3.6493328    1239.9623  0.071906885  0.072740301            4 
 1438000     1.037012   -3.6437499    1241.3296  0.071936114  0.072727511            2 
 1439000    1.0157752   -3.6587622    1241.6097  0.071902348  0.072714183            3 
 1440000    1.0091448   -3.6774907    1242.7691  0.071919511  0.072700775            3 
 1441000    1.0344364   -3.6742977    1242.3994  0.071848221  0.072687393            3 
 1442000   0.99843795   -3.6701115    1244.5629  0.071923425  0.072674335            2 
 1443000    1.0354077   -3.6753318    1244.1006   0.07184688  0.072661178            2 
 1444000    1.0417903   -3.6706763    1241.5193  0.071648159  0.072648246            1 
 1445000    1.0086188    -3.682126    1244.7895  0.071787171  0.072635121            3 
 1446000    1.0048709   -3.6802791    1244.8426   0.07174058  0.072622268            3 
 1447000    1.0550572   -3.6574521    1250.1045  0.071994041  0.072609049            2 
 1448000    1.0046719   -3.6819072    1244.1757  0.071603112  0.072596157            4 
 1449000    1.0219864   -3.6507023    1249.6214  0.071866882  0.072583352            2 
 1450000     1.017029   -3.6567778     1251.788  0.071941837  0.072570785            5 
 1451000     1.007355   -3.6871815    1251.2562  0.071861715  0.072558467            4 
 1452000    1.0224225   -3.6829058    1252.1118  0.071861328  0.072545885            5 
 1453000    1.0352083   -3.7008662    1247.2589  0.071533544  0.072533295            1 
 1454000   0.99975079   -3.6992821    1253.7121  0.071854202  0.072520684            3 
 1455000   0.99976748   -3.7262772    1248.8533  0.071526533  0.072507992            2 
 1456000    1.0230161   -3.6746575    1254.2401  0.071785722   0.07249507            1 
 1457000    1.0191717   -3.6884169    1252.4235   0.07163255  0.072482582            4 
 1458000    1.0032333   -3.6723241    1255.1498  0.071739242  0.072470359            2 
 1459000    1.0082335   -3.6968911    1253.7138  0.071608052  0.072458002            2 
 1460000    1.0119129   -3.6886817    1257.0488  0.071749361  0.072445894            5 
 1461000    1.0207379   -3.6670778     1264.657   0.07213421  0.072433643            2 
 1462000    1.0460626   -3.6995547    1255.7261  0.071575814   0.07242137            5 
 1463000    1.0232615   -3.6900513    1258.1407  0.071664427  0.072409043            5 
 1464000    1.0079912   -3.6959176    1257.1522  0.071559209   0.07239659            1 
 1465000    1.0386003    -3.681898    1258.4472  0.071584028  0.072384156            4 
 1466000    1.0168345   -3.7052445    1262.0354  0.071739166  0.072371687            7 
 1467000    1.0205458   -3.6828468    1260.6692  0.071612658   0.07235923            2 
 1468000    1.0237973   -3.6864272    1257.5555  0.071387118  0.072346734            5 
 1469000    1.0331124   -3.6823074    1255.5735   0.07122609  0.072333856            3 
 1470000    1.0265889   -3.7006784    1260.5688  0.071460816  0.072320932            1 
 1471000    1.0040836   -3.6649089    1264.4943  0.071634618  0.072307983            3 
 1472000    1.0099009   -3.6969723      1260.09  0.071336614  0.072294876            2 
 1473000     1.013304   -3.6669444    1264.8333  0.071556536  0.072281981            4 
 1474000    1.0101947   -3.6842246    1263.3438   0.07142378   0.07226945            2 
 1475000    1.0067062   -3.6695838    1266.8673  0.071574423  0.072256805            3 
 1476000    1.0239178   -3.6977269    1264.9427  0.071417273  0.072243814            2 
 1477000    1.0238588   -3.6713396    1270.7165  0.071694678  0.072231195            1 
 1478000    1.0298569   -3.6964901      1266.72  0.071420839  0.072219365            3 
 1479000    1.0289743   -3.6994711     1266.689    0.0713708  0.072206994            2 
 1480000    1.0339432   -3.6703433    1275.9578  0.071844472  0.072194558            3 
 1481000    1.0189507   -3.6653903    1269.6784  0.071442631  0.072182164            6 
 1482000    1.0018222   -3.6977254     1273.178  0.071591204  0.072169828            3 
 1483000   0.99661045   -3.6856406    1271.6571  0.071457467  0.072157582            2 
 1484000    1.0182633   -3.6562326    1276.2819   0.07166902  0.072145183            4 
 1485000    1.0210236   -3.6832336    1276.7617   0.07164768   0.07213299            4 
 1486000    1.0175243    -3.678149    1273.2891  0.071404728  0.072120804            3 
 1487000    1.0176577   -3.6689814     1277.302  0.071581595  0.072108483            3 
 1488000    1.0225698   -3.6763858    1276.3179  0.071478377  0.072096693            6 
 1489000    1.0203047   -3.6913865    1276.2469  0.071426401   0.07208455            2 
 1490000    1.0099891   -3.7106988    1276.1069  0.071370635  0.072071971            3 
 1491000    1.0223886   -3.6798973    1276.1117  0.071323031  0.072059703            4 
 1492000    1.0083909     -3.67187     1279.502  0.071464591  0.072047431            3 
 1493000    1.0433069   -3.6677156     1278.678  0.071370731  0.072035367            3 
 1494000    1.0122181   -3.7234793    1272.7983  0.070994998  0.072022924            5 
 1495000    1.0233464   -3.6583655    1277.3304  0.071200136  0.072009986            3 
 1496000    1.0025286    -3.688338    1282.0027  0.071412804  0.071997304            3 
 1497000    1.0170663   -3.6741801    1281.6888  0.071347627  0.071984839            2 
 1498000    1.0178548    -3.656555    1281.2106  0.071273401  0.071972355            2 
 1499000    1.0107119   -3.6578118    1277.6047  0.071025392  0.071960206            4 
 1500000    1.0159552   -3.6641109    1278.9187  0.071051041  0.071947551            5 
 1501000    1.0049289   -3.6976545    1282.2041  0.071186102  0.071934693            4 
 1502000    1.0278409   -3.7332671    1280.2176  0.071028493  0.071921746            8 
 1503000   0.99251692   -3.6930566    1285.3063  0.071263377   0.07190891            3 
 1504000    1.0027226   -3.6626474    1283.4091  0.071110879  0.071896272            2 
 1505000    1.0311792   -3.6844304    1287.4858  0.071289356  0.071883984            2 
 1506000    1.0032239   -3.6977001    1290.0481  0.071383804  0.071871585            2 
 1507000    1.0104474     -3.67628    1287.3829  0.071189057  0.071859471            5 
 1508000    1.0117363   -3.7119777    1284.3123  0.070972164  0.071847049            2 
 1509000    1.0070115    -3.691723    1291.8369  0.071340671  0.071834737            3 
 1510000    1.0023104   -3.6569961    1287.7288  0.071066711  0.071822523            3 
 1511000    1.0117863   -3.7080175      1285.42  0.070892343  0.071810333            3 
 1512000   0.99642521   -3.6652451    1289.9735  0.071096425  0.071798128            3 
 1513000   0.99623549   -3.6860622    1298.7233  0.071531358  0.071786271            2 
 1514000    1.0003004   -3.6661035    1296.7988  0.071378179  0.071774461            4 
 1515000    1.0192178   -3.6931967     1294.326  0.071195048  0.071762094            2 
 1516000    1.0133008   -3.6983879    1295.9593  0.071237867  0.071749878            4 
 1517000    1.0334046   -3.6705117    1296.3782   0.07121392  0.071737727            3 
 1518000    1.0024583    -3.690624    1291.3853  0.070892913  0.071725515            2 
 1519000    1.0031107   -3.6915782    1296.8315  0.071145025  0.071713528            3 
 1520000   0.98579032   -3.7106086       1291.4  0.070800436  0.071701569            3 
 1521000    1.0078535   -3.6994435    1292.3496  0.070805917  0.071689311            4 
 1522000    1.0236593   -3.6733777    1301.8007  0.071276867  0.071677663            3 
 1523000   0.99714448   -3.7296448    1298.4298  0.071045625  0.071666021            2 
 1524000    1.0124781   -3.6625398    1302.1151  0.071200517  0.071654297            5 
 1525000     1.000187   -3.6814936    1311.7219  0.071678794  0.071642595            5 
 1526000   0.99181163   -3.7002692    1304.3471  0.071229092  0.071631213            1 
 1527000    1.0061207   -3.6877916    1301.6416  0.071034798  0.071619754            3 
 1528000    1.0096342    -3.662072    1310.2671  0.071458719  0.071608323            1 
 1529000    1.0075987   -3.6989647    1308.1213  0.071295033  0.071596859            4 
 1530000    1.0032349   -3.6696458    1312.0202  0.071460796  0.071585813            2 
 1531000    1.0141851   -3.6709616    1314.1912  0.071532288  0.071575063            4 
 1532000    1.0076375    -3.683134    1309.7902  0.071246206    0.0715638            2 
 1533000    1.0142838   -3.7122978    1305.0475  0.070941918  0.071552581            4 
 1534000    1.0190319   -3.6864821    1312.1642  0.071282278  0.071541463            4 
 1535000    1.0228421   -3.6909154    1316.4809  0.071470193  0.071530395            3 
 1536000   0.99482988   -3.6845238    1314.1036  0.071294681  0.071519418            3 
 1537000    1.0030545   -3.6839887    1318.6493  0.071494759  0.071508305            6 
 1538000     1.006708   -3.6974388    1312.6145  0.071121286  0.071497182            1 
 1539000    1.0033173   -3.6856812     1318.348  0.071385532  0.071486441            2 
 1540000     1.021016   -3.6871428    1311.0493  0.070944226  0.071475288            3 
 1541000   0.99597317   -3.6842603    1319.0282  0.071329665  0.071464274            4 
 1542000    1.0254254     -3.68673    1318.3966  0.071249276   0.07145324            3 
 1543000    1.0048129   -3.6929875    1317.4818  0.071153693  0.071442457            2 
 1544000     1.007131   -3.7050056    1317.1868  0.071091687  0.071431376            2 
 1545000   0.98873409   -3.7036542    1319.3643  0.071163125  0.071420036            3 
 1546000    1.0020359   -3.7062103    1317.2878  0.071005165  0.071408908            2 
 1547000    1.0021487   -3.7420303    1318.5789  0.071028814  0.071397841            2 
 1548000    1.0160608   -3.6639822    1324.4179   0.07129726  0.071387148            3 
 1549000    1.0045312   -3.6933201    1321.4087  0.071089345  0.071375965            5 
 1550000   0.98167942   -3.6939383    1326.3301   0.07130807  0.071364706            3 
 1551000   0.98128954    -3.697745    1326.1265  0.071251156  0.071353449            2 
 1552000   0.98850623   -3.7136416    1318.8672  0.070815466  0.071342382            4 
 1553000    1.0084008   -3.6785933    1321.9446  0.070934998  0.071330791            2 
 1554000   0.98539179   -3.7074787    1323.7448  0.070985884  0.071319321            3 
 1555000    1.0039119   -3.7158976    1326.4085  0.071082985  0.071307879            2 
 1556000    0.9961517   -3.6973256    1326.7027  0.071053057   0.07129665            2 
 1557000    1.0030752   -3.6938114    1321.8397  0.070747145  0.071285164            1 
 1558000    1.0073087   -3.7353312    1321.8909  0.070704479  0.071273737            2 
 1559000   0.99783052   -3.6933498    1325.6062  0.070857717  0.071262276            3 
 1560000   0.97318647    -3.712677    1325.8116  0.070823269  0.071250763            2 
 1561000   0.98967652   -3.6962923    1321.4509  0.070545103  0.071238792            1 
 1562000   0.99458385   -3.7008445    1323.7531  0.070622763  0.071227134            2 
 1563000    1.0006633   -3.7053353    1328.9201  0.070853066  0.071215607            4 
 1564000    1.0064528   -3.7037053    1325.0334  0.070600673  0.071203544            4 
 1565000    1.0192232   -3.7281277    1328.2669  0.070727736  0.071192313            3 
 1566000    1.0002433   -3.6825527     1330.715  0.070812846  0.071180936            3 
 1567000    1.0048875   -3.6878324    1332.6271  0.070869343  0.071169889            3 
 1568000   0.98630501   -3.7030768    1333.5521  0.070873306  0.071158313            1 
 1569000   0.98849028   -3.7149842    1332.4783  0.070771101  0.071146996            2 
 1570000   0.97622605   -3.7165032    1330.0872  0.070599107  0.071135772            4 
 1571000    1.0097933   -3.6918099    1335.1386   0.07082212  0.071124382            2 
 1572000    1.0164992   -3.6837095    1337.3233  0.070892883  0.071113697            2 
 1573000    0.9845805   -3.6869506    1340.0894  0.070994351  0.071102803            5 
 1574000      1.00389    -3.719336     1337.029  0.070787219  0.071092093            3 
 1575000    1.0012942   -3.7061806    1332.9475  0.070526324   0.07108185            4 
 1576000    1.0054627   -3.6885252    1341.6618  0.070942354  0.071071057            3 
 1577000    1.0059394   -3.7374641    1340.8733  0.070855703  0.071060351            3 
 1578000    0.9905186   -3.7052446    1343.2115  0.070934276  0.071049718            6 
 1579000    1.0054676   -3.7068079     1345.052  0.070986489  0.071038733            3 
 1580000    1.0069768   -3.7042672    1339.5593   0.07065186   0.07102801            3 
 1581000    1.0179608    -3.707801    1340.1346  0.070637497  0.071017038            1 
 1582000   0.99016412   -3.7144788     1342.877  0.070737305  0.071006477            6 
 1583000    1.0070307   -3.7186917    1347.0593  0.070912787   0.07099551            3 
 1584000    1.0307995   -3.7087549    1346.4889  0.070838008  0.070984917            3 
 1585000   0.98568171   -3.6998009    1345.4189  0.070737061  0.070974258            2 
 1586000    1.0273558   -3.7083313    1345.9159  0.070718575  0.070963726            2 
 1587000   0.98258464    -3.717982    1348.0289  0.070784967  0.070952821            3 
 1588000    1.0184471   -3.6884213    1350.5874  0.070874655  0.070941919            4 
 1589000   0.99985886   -3.6980772    1350.4187  0.070821202  0.070931482            4 
 1590000   0.99255047   -3.7222792    1348.2548  0.070663251  0.070920829            2 
 1591000    0.9912452   -3.6746629     1351.845   0.07080688  0.070910029            2 
 1592000     1.010723   -3.7259283    1347.2846  0.070523692  0.070899195            2 
 1593000   0.98944736   -3.7433429    1350.3671  0.070640672  0.070888097            3 
 1594000   0.98960343   -3.7315154    1346.4304   0.07039055  0.070877139            3 
 1595000   0.99510077   -3.7006224    1351.9717  0.070635932  0.070865949            5 
 1596000   0.98592651   -3.7163194    1350.0261  0.070490087  0.070854891            2 
 1597000    1.0132022   -3.7269042    1350.2037   0.07045521  0.070843648            1 
 1598000   0.99214265   -3.7217662    1347.5369  0.070272054  0.070832262            5 
 1599000    1.0214268   -3.7272569    1352.4658  0.070484978  0.070821215            1 
 1600000    1.0019046   -3.7413636    1355.7692  0.070612978  0.070809896            3 
 1601000    0.9997307   -3.6974334    1358.0629  0.070688265    0.0707991            4 
 1602000    0.9961769   -3.6873164    1362.4082  0.070870172  0.070788281            5 
 1603000   0.99904934   -3.7036608    1352.3686  0.070304045  0.070777648            4 
 1604000    0.9741552   -3.7202656    1354.1869  0.070354682  0.070766926            3 
 1605000     1.015586   -3.7152036    1359.0547  0.070563588   0.07075594            2 
 1606000   0.99178689   -3.7163596    1357.9779  0.070463777  0.070744921            6 
 1607000    1.0101429   -3.7160408    1357.0772   0.07037322  0.070734032            2 
 1608000   0.98147458   -3.6971024    1361.8479  0.070576695  0.070723187            2 
 1609000   0.99677253   -3.7000237    1361.0365  0.070490809   0.07071213            2 
 1610000   0.98043341   -3.7283859    1359.6696  0.070376274  0.070701176            6 
 1611000   0.99407966   -3.7184361    1361.0858  0.070405845  0.070690265            2 
 1612000   0.99412387   -3.7062613    1356.2076  0.070109985  0.070679438            6 
 1613000    1.0144691   -3.7218549    1362.8124  0.070407747  0.070668354            3 
 1614000    1.0072847   -3.7121845    1367.4862  0.070605443  0.070657376            4 
 1615000    0.9979724   -3.7386081    1363.5678  0.070359536  0.070646468            6 
 1616000   0.99234147   -3.7060608     1369.821   0.07063846  0.070635408            2 
 1617000    1.0191059   -3.7046145    1367.3188   0.07046582  0.070624736            2 
 1618000   0.99356774   -3.7449186    1367.1236  0.070412219   0.07061336            2 
 1619000   0.98343401    -3.753185    1367.9004  0.070408708  0.070602147            3 
 1620000   0.97143057    -3.694482    1365.9176  0.070263252  0.070590942            4 
 1621000   0.99569249   -3.7241717     1360.377  0.069935072  0.070579649            6 
 1622000    1.0102709   -3.7113199     1364.371  0.070097155  0.070568137            2 
 1623000   0.96668152   -3.7164098    1369.7661  0.070330977  0.070556748            3 
 1624000   0.98010945   -3.7156764    1366.0986  0.070099479  0.070545197            1 
 1625000   0.97993714   -3.6926993    1363.9386  0.069945568  0.070533928            3 
 1626000    1.0077808   -3.7010301    1364.8679  0.069950178  0.070522316            2 
 1627000    0.9868909    -3.705923    1369.7007  0.070154719  0.070510404            3 
 1628000    1.0087016    -3.743233    1364.7713    0.0698593  0.070498804            4 
 1629000   0.96996508   -3.7290487    1365.8767  0.069872962  0.070486887            6 
 1630000   0.98096864   -3.7034514    1370.0575   0.07004384  0.070474788            6 
 1631000   0.98887157   -3.7332843    1362.8912  0.069634746  0.070462742            3 
 1632000   0.98080827   -3.7117698    1365.7862  0.069739899  0.070450344            5 
 1633000   0.99550708    -3.696563    1368.2944  0.069825187  0.070437976            3 
 1634000   0.97119428    -3.715642    1369.6579  0.069851996  0.070425968            5 
 1635000   0.99681323   -3.7064027    1369.7009  0.069811463  0.070413829            3 
 1636000   0.98972771   -3.7019611    1376.3639  0.070108186  0.070401377            3 
 1637000   0.98701476   -3.7256749    1368.1834  0.069648921   0.07038933            3 
 1638000   0.97699298   -3.7402406    1370.5129  0.069724914  0.070377012            2 
 1639000   0.96052389   -3.7145731    1373.3151  0.069824846  0.070364795            5 
 1640000   0.97745743   -3.6991127     1371.076  0.069668497  0.070353143            3 
 1641000   0.97915849   -3.6950953    1378.9102  0.070023876  0.070341552            2 
 1642000   0.97672741    -3.720895    1376.9975   0.06988416  0.070329567            2 
 1643000   0.97166398   -3.7121704     1376.985  0.069840993  0.070317747           11 
 1644000   0.99346516   -3.7325072    1375.0705  0.069701466  0.070305806            3 
 1645000   0.98517001   -3.7327678    1380.5553  0.069936945  0.070293734            3 
 1646000   0.96939518   -3.7377214    1386.6476  0.070202896  0.070282082            5 
 1647000    1.0013634   -3.7436762    1380.6735  0.069858001  0.070270271            2 
 1648000   0.97703438   -3.7263778    1379.2335  0.069742796  0.070258461            4 
 1649000    1.0091361   -3.7004547    1382.6008  0.069870668    0.0702465            3 
 1650000   0.98830933   -3.7148887    1381.6035  0.069777954  0.070234639            3 
 1651000   0.97612903   -3.7319306    1377.6696  0.069537128  0.070222673            4 
 1652000   0.99248766   -3.7153186    1381.1912  0.069672681  0.070210849            2 
 1653000    1.0124825   -3.7355983    1383.7235  0.069758191  0.070199002            4 
 1654000   0.99111559   -3.7036116    1380.7367  0.069565532  0.070186775            2 
 1655000   0.96068445   -3.6991932     1384.333   0.06970458  0.070174786            2 
 1656000   0.96959366   -3.7287615    1383.9723  0.069644338  0.070162572            4 
 1657000    1.0191887   -3.7095439    1385.6797  0.069688178  0.070150423            3 
 1658000   0.99617636   -3.7138968     1390.574   0.06989214  0.070138231            4 
 1659000   0.98381176   -3.7542825    1383.3723   0.06948826  0.070125854            3 
 1660000   0.98271477   -3.7090895    1383.3071  0.069443126  0.070113567            3 
 1661000   0.98515771   -3.7201059    1385.6106  0.069516887  0.070101519            6 
 1662000   0.98679485   -3.7320405    1386.3319  0.069511228  0.070089456            4 
 1663000   0.97555038    -3.746138    1384.4838  0.069376817  0.070077119            3 
 1664000   0.99158998   -3.7495399    1383.8655  0.069304161  0.070064594            7 
 1665000   0.98330215   -3.7294222    1386.0049  0.069369613  0.070052239            3 
 1666000    1.0018301   -3.7230708    1386.9793  0.069376714   0.07003973            2 
 1667000   0.99972224    -3.730724    1384.9168  0.069231994  0.070027522            4 
 1668000    1.0034225   -3.7263376    1389.1357  0.069401264  0.070014866            3 
 1669000   0.98973985   -3.7283157    1388.6408  0.069334973  0.070002282            4 
 1670000   0.97736311   -3.7546776    1389.8017  0.069351384  0.069989986            3 
 1671000   0.99449148   -3.7362357    1390.8513  0.069362225  0.069977135            2 
 1672000   0.98963925   -3.7371662    1390.4431  0.069300392  0.069964627            4 
 1673000   0.99662754   -3.7505911    1388.1715  0.069145821   0.06995177            3 
 1674000   0.99418642   -3.7018719    1390.2341  0.069207191   0.06993926            3 
 1675000   0.97395049   -3.7416627    1389.9346  0.069150977  0.069927056            2 
 1676000   0.98130332   -3.7889356    1392.5286  0.069238693  0.069914776            4 
 1677000   0.98814839   -3.7346239    1389.1988  0.069031941  0.069902773            2 
 1678000   0.96084148   -3.7124399    1397.7197  0.069413969  0.069890553            3 
 1679000   0.98158148   -3.7526777    1392.0848  0.069092951   0.06987836            3 
 1680000    1.0053211   -3.7475499     1397.345  0.069312749  0.069866353            5 
 1681000    0.9834403   -3.7435152    1393.8409  0.069097803  0.069854386            2 
 1682000    1.0002966    -3.741271    1395.1147  0.069119832   0.06984262            2 
 1683000   0.98030644   -3.7338368    1399.0297  0.069272615  0.069831008            3 
 1684000   0.97720854   -3.6966752    1407.8008  0.069665519  0.069819163            3 
 1685000   0.99859267   -3.7380859    1400.4582  0.069261038  0.069807382            4 
 1686000   0.97632729   -3.7329262    1403.3097  0.069360897  0.069795221            3 
 1687000   0.98149255   -3.7302856    1400.7126  0.069191493  0.069783247            3 
 1688000    0.9660415   -3.7260017    1404.0422  0.069314879  0.069771263            8 
 1689000    0.9812472   -3.7314354    1409.3541  0.069535923  0.069759058            3 
 1690000   0.97137555   -3.7173463    1404.4914  0.069255001  0.069746591            3 
 1691000   0.98533709    -3.719532    1406.6087  0.069318387  0.069734464            3 
 1692000   0.96897833   -3.7417323    1402.5722  0.069078614  0.069722127            2 
 1693000   0.97885148   -3.7202513    1403.3435   0.06907578  0.069709582            2 
 1694000   0.98659852     -3.75776    1403.5258  0.069043968  0.069697108            3 
 1695000   0.97331004   -3.7049788    1407.4992  0.069198583   0.06968468            1 
 1696000   0.98999119   -3.7565018    1406.2322  0.069095531  0.069672434            2 
 1697000   0.96387149   -3.7246603     1405.121  0.069000247  0.069659605            2 
 1698000   0.98665459   -3.7447379    1405.0043  0.068953882  0.069647117            4 
 1699000   0.97791211   -3.7249683    1410.1197  0.069164201  0.069634509            2 
 1700000    0.9880231   -3.7377963    1406.9855  0.068969876  0.069622006            3 
 1701000   0.98100752   -3.7607598     1408.178  0.068987753   0.06960988            2 
 1702000   0.98780778   -3.7589199    1407.9415  0.068935638  0.069597552            3 
 1703000   0.97264145   -3.7583817    1405.7909  0.068789924  0.069584874            2 
 1704000    0.9773336   -3.7236675    1408.8959  0.068901405  0.069572475            2 
 1705000    0.9817786   -3.7432998    1414.3141   0.06912581  0.069560371            3 
 1706000   0.97134237   -3.7282279     1413.019  0.069022029  0.069548066            2 
 1707000   0.97781007   -3.7515016    1411.8405  0.068924065  0.069535629            2 
 1708000   0.97114952   -3.7284478    1408.4573  0.068718644  0.069523507            3 
 1709000   0.99149916   -3.7417279    1414.0138  0.068949377  0.069511237            5 
 1710000   0.96059363   -3.7041333    1412.1704  0.068819218  0.069498663            4 
 1711000   0.98755309   -3.7336598    1412.7005  0.068804819  0.069486584            4 
 1712000   0.96522365   -3.7339492    1417.9041  0.069017916  0.069474453            2 
 1713000   0.99226317   -3.7890876    1408.2769  0.068509287  0.069462308            5 
 1714000   0.99380172    -3.748431    1410.9455  0.068599064  0.069449924            2 
 1715000   0.96475199   -3.7307748    1418.0483  0.068904196  0.069437809            2 
 1716000   0.96893513   -3.7186344    1420.8744  0.069001282  0.069425663            2 
 1717000   0.97721233   -3.7113934    1422.8509  0.069057022  0.069413521            2 
 1718000   0.95248564   -3.7534735    1417.5643  0.068760397  0.069401535            3 
 1719000   0.98514359   -3.7283428    1422.0855  0.068939571  0.069389815            9 
 1720000   0.97786373    -3.723053    1421.3853  0.068865565  0.069377859            2 
 1721000   0.98039019   -3.7001847    1427.8206  0.069137157  0.069366291            3 
 1722000   0.98370752   -3.7434781    1422.8181  0.068854924  0.069354484            3 
 1723000   0.99060251   -3.7719985    1420.2697  0.068691704  0.069342774            4 
 1724000   0.98104398   -3.7331778    1427.7862  0.069015185  0.069330947            3 
 1725000   0.96384052   -3.7330337    1425.9212  0.068885083  0.069319153            1 
 1726000   0.98009818   -3.7465325    1421.2329  0.068618813  0.069307306            3 
 1727000   0.96344513   -3.7365475    1427.0595  0.068860235  0.069295411            4 
 1728000   0.97531684   -3.7606331    1425.8959  0.068764272  0.069283582            2 
 1729000   0.97579125   -3.7710765    1421.2488  0.068500518  0.069271659            4 
 1730000   0.96963656   -3.7501256    1427.6265  0.068768136   0.06925965            5 
 1731000   0.98972617   -3.7310244    1430.0599  0.068845555   0.06924779            2 
 1732000   0.95621349   -3.7447468    1424.9212  0.068558562  0.069235853            2 
 1733000   0.96581012   -3.7197709    1424.5549  0.068501388   0.06922381            3 
 1734000   0.96046764   -3.7386758    1431.4205  0.068791836  0.069211859            4 
 1735000   0.95935478   -3.7123623    1430.9545  0.068729804  0.069199552            6 
 1736000   0.95791766   -3.7523848    1423.2239  0.068319122  0.069187282            1 
 1737000   0.96776217   -3.7365253    1438.4983  0.069012586  0.069175176            1 
 1738000   0.97988043   -3.7515612    1429.6833  0.068550217  0.069163081            5 
 1739000   0.97668928   -3.7371599    1430.2099  0.068536031  0.069150575            2 
 1740000   0.97913036   -3.7606954    1428.0979  0.068395495  0.069138127            3 
 1741000   0.99615821   -3.7179771    1435.0093  0.068687023  0.069125661            3 
 1742000    1.0054801   -3.7761377    1431.6548  0.068487123  0.069113012            2 
 1743000   0.97750046   -3.7565852     1425.894  0.068172405  0.069100107            5 
 1744000   0.96280308   -3.7657199    1425.3955  0.068109496  0.069087205            2 
 1745000   0.95144927   -3.7477951    1429.5203  0.068267446  0.069074193            3 
 1746000   0.96176366   -3.7473406    1429.1882  0.068212497  0.069061462            4 
 1747000   0.98878071    -3.761428    1431.5135  0.068284371  0.069048672            3 
 1748000    0.9640109   -3.7675045    1434.0598  0.068366696  0.069035974            2 
 1749000   0.97528794   -3.7525224    1431.9087  0.068225113  0.069022838            2 
 1750000   0.97495492   -3.7523185     1433.601  0.068266713  0.069009991            2 
 1751000   0.97453205   -3.7786529    1431.4297  0.068124391  0.068997112            2 
 1752000   0.96849682   -3.7555552    1433.5718  0.068187393  0.068984002            3 
 1753000   0.95561431   -3.7566538    1429.2871  0.067944811  0.068970929            5 
 1754000    0.9828276   -3.7248738    1436.0036  0.068225181  0.068957845            2 
 1755000   0.97223975   -3.7601936    1433.5704   0.06807077  0.068945058            2 
 1756000   0.98174838   -3.7449904    1436.1457  0.068154219  0.068931761            3 
 1757000   0.95409865   -3.7617878    1433.6847  0.067998706  0.068918273            3 
 1758000   0.96547355   -3.7557903    1432.8947  0.067922579  0.068904943            2 
 1759000    1.0044973   -3.7580351     1434.909  0.067979391  0.068891919            3 
 1760000   0.97536264   -3.7468946    1437.0462  0.068041961  0.068878288            7 
 1761000   0.97225583    -3.751158    1440.2951  0.068157064  0.068865148            2 
 1762000   0.96752916    -3.728275    1440.2713  0.068117256  0.068851963            4 
 1763000    0.9892771   -3.7411293    1433.9443  0.067779556  0.068838634            3 
 1764000   0.96297118   -3.7286358    1442.3548  0.068138456  0.068825388            2 
 1765000   0.99213513   -3.7307047    1441.5486  0.068061784  0.068812266            3 
 1766000   0.96049598   -3.7413065    1441.1973  0.068006667  0.068799138            8 
 1767000   0.96648495   -3.7661314     1438.007  0.067817724  0.068785933            4 
 1768000   0.95251779   -3.7714178    1442.0329  0.067969122  0.068772842            2 
 1769000   0.97838139   -3.7379765    1443.6511  0.068006929  0.068759489            2 
 1770000   0.97534434   -3.7705195    1443.9621   0.06798315  0.068746187            3 
 1771000   0.97963442   -3.7461318    1443.1734  0.067907653  0.068732539            3 
 1772000   0.95249048   -3.7508941     1444.847  0.067948034   0.06871934            5 
 1773000    0.9654247   -3.7878611    1440.1579  0.067689315   0.06870591            3 
 1774000   0.97923265   -3.7345612    1444.3697   0.06784901  0.068692605            2 
 1775000   0.97081097   -3.7334613    1447.2555  0.067946267  0.068678915            2 
 1776000   0.97726463   -3.7471272    1444.8982  0.067797399  0.068665695            2 
 1777000   0.95048262   -3.7448013    1448.7749  0.067941047  0.068652453            4 
 1778000   0.96970994    -3.770357    1444.2872  0.067692502  0.068638979            3 
 1779000   0.96240596   -3.7349273    1447.7379   0.06781609  0.068625541            7 
 1780000   0.97778303   -3.7608678     1445.476  0.067672095  0.068612409            2 
 1781000   0.99292966   -3.7887021    1445.8528   0.06765173  0.068598948            4 
 1782000   0.95794008   -3.7531219    1451.5237  0.067878959  0.068585807            3 
 1783000   0.96414414   -3.7691332    1452.6719  0.067894557  0.068572404            2 
 1784000    0.9793891   -3.7606517    1450.7599  0.067767183  0.068559039            1 
 1785000   0.94929993   -3.7576246    1454.3713  0.067897822  0.068545779            2 
 1786000   0.96352846   -3.7356567    1452.6575  0.067779841  0.068532423            5 
 1787000   0.96398099   -3.7430053     1452.579  0.067738248  0.068519121            6 
 1788000   0.97911176    -3.763951    1449.6057  0.067561789  0.068505683            2 
 1789000   0.95612593   -3.7680923    1451.9839  0.067634799  0.068492271            2 
 1790000   0.96196105   -3.7329017    1453.0702  0.067647591  0.068478934            3 
 1791000   0.96164696   -3.7634517    1451.6831  0.067545279  0.068465651            2 
 1792000   0.95966053   -3.7487048    1451.1812  0.067484245  0.068452269            6 
 1793000   0.97613264   -3.7432142    1451.0663  0.067441269  0.068438668            2 
 1794000   0.93888214   -3.7965248    1445.1239  0.067127643  0.068425152            4 
 1795000   0.96823259     -3.72839    1456.2458  0.067606585  0.068411867            2 
 1796000   0.94812748   -3.7836681    1454.0141   0.06746539  0.068398462            3 
 1797000    0.9621022   -3.7323315    1457.1742  0.067574393  0.068385057            3 
 1798000   0.96750661   -3.7513399    1456.7692  0.067518039  0.068371567            1 
 1799000   0.95530252   -3.7300188      1459.04  0.067585694  0.068358089            2 
 1800000   0.94745528   -3.7863242    1460.8384  0.067631409  0.068344491            1 
 1801000   0.96400328   -3.7806994    1453.7069  0.067263875  0.068330681            3 
 1802000   0.94304538   -3.7606383    1460.2816  0.067530594  0.068317051            4 
 1803000   0.97832344   -3.7635862    1455.2474  0.067260466  0.068303337            2 
 1804000   0.94874139   -3.7747382    1461.3907  0.067506963  0.068289306            6 
 1805000    0.9368641   -3.7555655    1455.3673  0.067191471  0.068275342            1 
 1806000   0.94684264   -3.7232269    1465.3462   0.06761472  0.068261457            3 
 1807000   0.94322284   -3.7685657    1456.6807  0.067177675  0.068247598            2 
 1808000   0.97480695   -3.7587757    1459.1411  0.067253922  0.068233604            2 
 1809000   0.97874619   -3.7848974    1457.2154  0.067128038  0.068219593            4 
 1810000   0.96459543   -3.7825655    1458.0241  0.067128181  0.068205316            3 
 1811000   0.97034992   -3.7798619    1457.3958  0.067062202   0.06819086            3 
 1812000   0.95105749   -3.7816995    1458.6033  0.067080726  0.068176564            4 
 1813000   0.93604164   -3.7325776    1466.0528  0.067386136   0.06816244            2 
 1814000    0.9520041   -3.7329538    1459.4016   0.06704344    0.0681481            4 
 1815000   0.96193664   -3.7681327    1460.2765  0.067046671  0.068133847            3 
 1816000   0.94264418   -3.7789071    1457.9841  0.066904556  0.068119603            5 
 1817000   0.96277688   -3.7697127    1461.1292  0.067011978  0.068105295            2 
 1818000   0.96739974   -3.7647627    1460.1984  0.066932455  0.068090942            2 
 1819000   0.97369974   -3.7607635    1459.6792  0.066871873  0.068076714            3 
 1820000   0.96859501   -3.7596717    1465.6288  0.067107546  0.068062398            5 
 1821000   0.95771802   -3.7890078    1465.5734   0.06706816  0.068048155            5 
 1822000   0.94401743   -3.7434498    1463.3974  0.066931825  0.068034035            3 
 1823000   0.96546736   -3.7609816    1467.2621  0.067071771  0.068020102            3 
 1824000    0.9691127   -3.7709404    1463.5748  0.066866537  0.068006295            5 
 1825000   0.97516299    -3.758839    1467.1477  0.066993046  0.067992043            4 
 1826000   0.96774208   -3.7745904    1468.5369  0.067019756  0.067977837            2 
 1827000   0.95475309   -3.7475985    1469.9795  0.067048874  0.067963533            3 
 1828000   0.95347378   -3.7768621    1466.9458  0.066873898   0.06794975            2 
 1829000   0.97305793   -3.7643955    1472.4927  0.067090063  0.067936063            3 
 1830000   0.96529192   -3.7672084    1468.6281  0.066877418  0.067922427            3 
 1831000   0.95702292   -3.7934391    1472.1742  0.067002287  0.067908749            4 
 1832000   0.97687624    -3.760424    1470.6464  0.066896217  0.067894851            3 
 1833000   0.96703391   -3.7530974     1475.573  0.067083695  0.067880985            4 
 1834000   0.96539397   -3.7632057    1474.9987  0.067021024  0.067867292            2 
 1835000    0.9710151   -3.7165357    1473.7968   0.06692992  0.067853674            2 
 1836000    0.9370106    -3.766198    1472.6892   0.06684319  0.067840223            3 
 1837000   0.94828702   -3.7836404    1478.4304  0.067067247  0.067826687            2 
 1838000   0.94753786   -3.7816257    1475.8726  0.066914789  0.067813103            3 
 1839000   0.94664248   -3.7498673    1481.8002  0.067147011  0.067799801            4 
 1840000   0.96386416   -3.7620039    1480.4161  0.067047832  0.067786616            2 
 1841000   0.94375895   -3.7650953    1479.7091  0.066979407  0.067773751            2 
 1842000   0.97081953   -3.7616798    1482.9669  0.067090431  0.067760637            2 
 1843000   0.94648555   -3.7872303    1474.8424  0.066686669  0.067747307            1 
 1844000   0.95931143    -3.769425    1479.0588   0.06684105  0.067734172            3 
 1845000   0.97686748   -3.7873551    1481.2974  0.066905933  0.067720569            4 
 1846000   0.95007381   -3.7564531    1486.8003  0.067118105   0.06770742            3 
 1847000   0.96766105   -3.7622122    1483.2355  0.066920932  0.067694243            1 
 1848000   0.96227722   -3.7850508    1482.5337  0.066853069  0.067681234            6 
 1849000    0.9515882   -3.7656815    1483.0773  0.066841415   0.06766817            2 
 1850000   0.96947151    -3.765547    1489.5142  0.067095234  0.067655111            3 
 1851000   0.94193129   -3.7513057    1490.2083  0.067090236  0.067642166            7 
 1852000   0.94395731   -3.7721161    1484.5419  0.066799042  0.067628735            2 
 1853000   0.92922326   -3.7750162     1485.312  0.066797624  0.067615612            4 
 1854000   0.96206282   -3.8012952    1483.7433  0.066691086  0.067602345            2 
 1855000   0.93893074    -3.748481     1489.879  0.066930771  0.067588997            2 
 1856000   0.96240116   -3.7690411    1488.9101  0.066851207   0.06757592            2 
 1857000    0.9444153   -3.7801538    1487.8369  0.066767049  0.067562666            3 
 1858000   0.95295763     -3.76805    1489.3104    0.0667972  0.067549397            3 
 1859000   0.97314998   -3.7828761    1486.5639  0.066638152  0.067536287            3 
 1860000   0.94116421   -3.7452552    1494.6862  0.066966226  0.067522987            1 
 1861000   0.98298025   -3.7595928    1489.9043  0.066716118  0.067509935            3 
 1862000   0.95233616   -3.7699426     1497.229  0.067008099  0.067496901            2 
 1863000    0.9505959   -3.8014962      1488.96  0.066602255  0.067483675            5 
 1864000   0.95012936   -3.7633135    1491.3344  0.066672676   0.06747026            2 
 1865000   0.96515459   -3.7726599    1493.3354  0.066726335  0.067456952            2 
 1866000   0.95226039   -3.7847199    1492.7018  0.066662279  0.067443708            2 
 1867000   0.95994654   -3.7698186    1490.4484  0.066525997  0.067430533            5 
 1868000   0.95383352   -3.7821529    1491.2851  0.066527708  0.067417221            2 
 1869000   0.98570785   -3.7792179    1494.2963  0.066626372  0.067403942            2 
 1870000   0.95185659   -3.7657408    1491.1854  0.066452112  0.067390567            2 
 1871000   0.93537124   -3.7738907    1492.8819  0.066492156  0.067377003            7 
 1872000   0.96065221    -3.772296    1495.8812  0.066590154  0.067363644            2 
 1873000   0.97598716   -3.7845896    1494.8628   0.06650929  0.067350599            3 
 1874000   0.94839412   -3.7839502    1498.6713  0.066643155  0.067337307            4 
 1875000   0.95190531   -3.7578182    1497.2004  0.066542238  0.067324165            2 
 1876000   0.93461916   -3.8118684    1497.5466  0.066522147  0.067311041            3 
 1877000    0.9561768   -3.7851845    1505.8576   0.06685569  0.067297944            2 
 1878000   0.97102526    -3.759523    1503.8218  0.066729758  0.067284984            3 
 1879000   0.92815361   -3.8047585    1500.8572  0.066562764  0.067271753            4 
 1880000   0.92960576   -3.7642661    1507.6184  0.066827055  0.067258469            3 
 1881000   0.95092503     -3.76824    1502.1435  0.066548978   0.06724529            3 
 1882000   0.94860335   -3.7837901    1500.2694  0.066430633  0.067232066            7 
 1883000   0.95471922   -3.7456657    1507.6791  0.066723273  0.067219248            3 
 1884000   0.96542733   -3.7684996    1502.5887    0.0664627  0.067206137            3 
 1885000   0.91809211   -3.8124007    1497.5119  0.066203001  0.067192815            4 
 1886000   0.95708735   -3.7918891    1498.0915   0.06619351  0.067179106            2 
 1887000   0.96128257   -3.7887682    1500.6277  0.066270432  0.067165814            3 
 1888000   0.96511305   -3.7435809    1508.6466  0.066589273  0.067152569            1 
 1889000   0.94587336   -3.7738831     1511.011  0.066658328   0.06713956            4 
 1890000   0.96021304   -3.7893937    1507.6321  0.066474078  0.067126585            4 
 1891000   0.94343027   -3.7682849    1505.2873  0.066335593   0.06711343            2 
 1892000   0.93074236   -3.7590466      1504.09    0.0662478  0.067100342            4 
 1893000   0.94567926   -3.7659058    1502.5168  0.066143547  0.067087443            2 
 1894000   0.95739832   -3.7832256    1506.3874  0.066278925  0.067074296            3 
 1895000   0.94672699   -3.7868143    1510.4222  0.066421379  0.067061161            3 
 1896000   0.96503761   -3.7798163    1511.6528  0.066440436  0.067048248            2 
 1897000   0.94677026   -3.8108611    1509.9682  0.066331408  0.067035072            2 
 1898000   0.95861464   -3.7561946    1516.5568  0.066585741  0.067021902            1 
 1899000    0.9553199   -3.7905206    1511.6474  0.066335237  0.067008895            2 
 1900000    0.9379716   -3.7724077    1507.1797  0.066104372  0.066995697            2 
 1901000    0.9415625   -3.8003576    1511.9197  0.066277385  0.066982242            2 
 1902000   0.96574986   -3.8035067     1507.857  0.066064536  0.066968934            1 
 1903000   0.94794049   -3.8129265    1510.7438  0.066156238  0.066955425            3 
 1904000   0.93894155   -3.7569538    1514.6401  0.066292021  0.066942499            4 
 1905000   0.92747241   -3.8039794    1510.1751  0.066061904  0.066929214            3 
 1906000   0.95104592   -3.7730269    1518.2974  0.066382361  0.066915951            2 
 1907000   0.93679331   -3.7933718    1512.0588  0.066074935  0.066902884            2 
 1908000    0.9527674   -3.7658811    1520.4298  0.066405912  0.066889856            2 
 1909000   0.96253301   -3.7878019    1512.8193  0.066038909  0.066876743            2 
 1910000   0.95044589   -3.7861849     1517.475  0.066207462  0.066863728            2 
 1911000   0.97510824   -3.8031932    1516.7319  0.066140412   0.06685063            1 
 1912000   0.95270938    -3.797602    1518.6259  0.066188366  0.066837623            5 
 1913000   0.94999072   -3.7451022    1522.0589  0.066303316  0.066824811            7 
 1914000   0.94005681   -3.7855238    1520.9687  0.066221207   0.06681196            2 
 1915000   0.93270793   -3.8155193    1519.8355  0.066137314  0.066799012            4 
 1916000    0.9386269   -3.7893264    1519.3182  0.066080299  0.066785975            4 
 1917000   0.93004708   -3.7558514     1518.894  0.066027385  0.066772938            3 
 1918000   0.94513656   -3.8056637    1516.8664  0.065904868  0.066759983            6 
 1919000   0.92900599   -3.7840472    1520.7657  0.066039851  0.066747187            2 
 1920000   0.92848356   -3.7727045     1519.017  0.065929556  0.066734165            4 
 1921000    0.9526671   -3.8056076    1521.5127  0.066003501  0.066720932            3 
 1922000   0.97655061    -3.746657    1529.2116  0.066302964  0.066707969            4 
 1923000   0.93122734   -3.7776737    1519.9128  0.065865522  0.066695158            2 
 1924000     0.938301    -3.759871    1524.8785  0.066046365  0.066682246            2 
 1925000   0.92253221   -3.7565379    1525.9526  0.066058556  0.066669404            3 
 1926000   0.94866149   -3.7979576    1522.9767  0.065895494  0.066656464            3 
 1927000   0.95512088   -3.8013475    1525.2402  0.065959184   0.06664341            3 
 1928000   0.94670968   -3.7900564    1525.1385  0.065920579  0.066630557            3 
 1929000   0.93944203   -3.7558096    1524.5817  0.065862349  0.066617602            2 
 1930000    0.9437086   -3.8104454    1527.0394  0.065934343  0.066604471            6 
 1931000   0.94535431   -3.8003599    1531.2355  0.066081285  0.066591094            2 
 1932000   0.93000473   -3.7897062    1525.0686   0.06578108  0.066577881           11 
 1933000   0.93760691   -3.8009644    1524.9826  0.065743344  0.066564503            2 
 1934000   0.95401079   -3.7784849    1523.8592  0.065660943  0.066551088            2 
 1935000   0.93266093   -3.8194438    1524.6716  0.065661999  0.066537807            3 
 1936000   0.94371961   -3.8324428    1525.4229  0.065660421  0.066524148            7 
 1937000   0.92701011   -3.8498166    1523.9181  0.065561785  0.066510514            4 
 1938000   0.94602494   -3.8065584    1524.5296  0.065554246  0.066496743            2 
 1939000   0.93448823   -3.8050576    1521.9232  0.065408424  0.066483031            2 
 1940000   0.90887979   -3.8065497    1525.4176  0.065524812  0.066469179            2 
 1941000   0.96488258   -3.7779751    1528.5026    0.0656235   0.06645533            3 
 1942000   0.92191617   -3.7986236    1532.2261  0.065749488  0.066441549            3 
 1943000   0.93670946   -3.7779595    1532.9571  0.065747001  0.066428029            2 
 1944000   0.92437568   -3.8041108    1528.9104   0.06553971  0.066414412            2 
 1945000    0.9400381   -3.7889108    1533.5128  0.065703203  0.066401004            4 
 1946000   0.92516541   -3.8406974    1530.5497  0.065542555  0.066387327            3 
 1947000   0.92036328   -3.8017612    1525.2666   0.06528277  0.066373921            2 
 1948000   0.94634586   -3.8097173    1533.9369  0.065620163  0.066360124            8 
 1949000   0.92169191   -3.7942859    1532.4681  0.065523693   0.06634647            2 
 1950000    0.9170146   -3.7610227    1531.4887  0.065448236  0.066332736            1 
 1951000   0.93768202   -3.8095861    1533.5745   0.06550378  0.066318918            3 
 1952000   0.94301581   -3.7928332    1535.2628  0.065542297  0.066305127            7 
 1953000   0.93622817   -3.7752004    1529.9662  0.065282736  0.066291065            2 
 1954000   0.93816342    -3.783128    1541.0076  0.065720215  0.066277173            4 
 1955000   0.92606551   -3.7986052    1530.9805  0.065259186  0.066263452            4 
 1956000   0.94953277   -3.8078129    1534.1693  0.065361678  0.066249735            3 
 1957000   0.93703498   -3.8097176    1535.8899  0.065401547  0.066236076            4 
 1958000   0.93429148   -3.8014171    1538.8055  0.065492233   0.06622229            2 
 1959000   0.93008456   -3.8208906    1531.3631  0.065142212   0.06620857            2 
 1960000   0.91780045   -3.7913717    1538.6821  0.065420157  0.066194757            3 
 1961000   0.93276351   -3.8035024    1541.5734  0.065509664  0.066181177            3 
 1962000   0.93112197   -3.8039912    1537.3515  0.065296955  0.066167419            2 
 1963000   0.92527091   -3.8020602    1536.7362  0.065237568  0.066153679            4 
 1964000   0.93242024   -3.8034164    1541.7342  0.065416422  0.066139979            1 
 1965000   0.91575801   -3.7872501    1540.5706  0.065333785  0.066126166            2 
 1966000   0.93813573    -3.804346    1542.5064  0.065382604  0.066112625            5 
 1967000   0.93811051   -3.8386505    1532.9563   0.06494477  0.066099063            4 
 1968000   0.94493085   -3.7898564    1537.7623  0.065115274  0.066085505            6 
 1969000   0.95605324   -3.7416084    1542.3784  0.065277568  0.066071776            2 
 1970000   0.92431225   -3.7815423    1543.6076   0.06529643  0.066058214            3 
 1971000   0.91942399   -3.7865189    1538.7399  0.065057495  0.066044573            2 
 1972000   0.94737107    -3.779804    1543.0019  0.065204612  0.066030866            5 
 1973000   0.93424422   -3.7910481    1541.2047  0.065095652   0.06601705            5 
 1974000   0.95015755   -3.7754631    1547.3399  0.065321676  0.066003301            2 
 1975000   0.93462411   -3.8058559    1542.8732  0.065100133  0.065989638            4 
 1976000   0.93970826   -3.7817052    1546.7656  0.065231342  0.065975729            6 
 1977000   0.92118591   -3.8094013    1544.2626  0.065092843  0.065961929            3 
 1978000   0.93251915   -3.8207619     1545.841  0.065126431   0.06594825            4 
 1979000    0.9313234   -3.7944913    1545.0673  0.065060945  0.065934189            5 
 1980000   0.93909387   -3.8364499    1541.2003  0.064865331  0.065920412            3 
 1981000   0.92635526   -3.8199639    1546.5156  0.065056183  0.065906653            4 
 1982000   0.95405238   -3.8184838     1544.558  0.064941053  0.065892647            2 
 1983000   0.94294497   -3.8098441     1548.448  0.065071777  0.065878593            4 
 1984000   0.95081671   -3.8281518    1543.6798  0.064838703  0.065865006            3 
 1985000   0.93388027   -3.8266041    1543.7655  0.064809634  0.065851375            3 
 1986000    0.9255506   -3.7704748    1550.2779  0.065050264   0.06583764            4 
 1987000   0.92745413   -3.8087318    1549.7552  0.064995607  0.065823869            2 
 1988000   0.93625664   -3.7999889     1545.609  0.064789108  0.065810102            3 
 1989000   0.95112708   -3.8238684    1546.6394  0.064799706  0.065796322            4 
 1990000   0.91207885   -3.7857925    1551.0465  0.064951696  0.065782446            4 
 1991000   0.95012055   -3.7961347     1555.866  0.065120794   0.06576899            4 
 1992000   0.92513627   -3.8171479    1550.8474  0.064878155  0.065755073            2 
 1993000   0.93913503   -3.8033758    1553.8737  0.064972141    0.0657415            3 
 1994000   0.93973829   -3.8210187    1550.5392  0.064800199  0.065727458            3 
 1995000   0.92797005   -3.8480854    1543.9635  0.064493043  0.065713486            6 
 1996000   0.92406356   -3.8212553    1554.1409  0.064885642  0.065699625            3 
 1997000   0.95727834   -3.8133308    1550.8372   0.06471529  0.065685706            3 
 1998000   0.93771639   -3.8159188    1553.2887  0.064785149  0.065672153            3 
 1999000   0.93760742   -3.7903837    1556.7173   0.06489567  0.065658465            4 
 2000000   0.93993228   -3.8062982    1556.9063  0.064871098  0.065644611            2 
 2001000   0.93836064   -3.8258956    1552.3294  0.064648066  0.065630946            5 
 2002000   0.94615901   -3.8036113    1554.2704  0.064696569  0.065617038            2 
 2003000   0.93179391   -3.8002545    1551.4891  0.064548557  0.065603075            3 
 2004000   0.91216861   -3.8120463    1555.5297   0.06468437  0.065589239            1 
 2005000    0.9135122   -3.8010435    1557.2497  0.064723595  0.065575479            5 
 2006000   0.95004549   -3.8001768    1558.1683  0.064729492  0.065561637            4 
 2007000   0.92116828   -3.8150762    1557.5488  0.064671517  0.065547825            3 
 2008000   0.93980851   -3.7953856     1561.599  0.064807395  0.065534251            3 
 2009000   0.93324731    -3.813845    1557.6121  0.064609761  0.065520743            2 
 2010000   0.92253039   -3.8050848    1560.8371  0.064711323  0.065507237            2 
 2011000   0.93028532   -3.8297062    1561.5403  0.064708285  0.065493707            3 
 2012000   0.93756142   -3.8046145    1566.9812  0.064901473  0.065480164            5 
 2013000   0.91568224   -3.8107028    1563.7546  0.064735658  0.065466773            3 
 2014000   0.93478256   -3.7977419    1568.3632  0.064894208  0.065453241            3 
 2015000   0.94878134   -3.8191283     1562.331   0.06461253  0.065439776            3 
 2016000   0.91824731   -3.8218499    1566.2836  0.064743867  0.065426379            3 
 2017000   0.93632716   -3.8431559    1563.6136  0.064601455  0.065413031            4 
 2018000   0.92048513    -3.808429    1563.2448  0.064554213  0.065399466            4 
 2019000   0.90776452   -3.8106925    1561.1251  0.064434751  0.065386162            5 
 2020000   0.92203778   -3.8077038    1569.0277  0.064728866  0.065372771            1 
 2021000   0.90240132   -3.8473029     1567.449  0.064631741  0.065359362            4 
 2022000   0.94356716   -3.8075866    1566.8916  0.064576807  0.065346058            4 
 2023000   0.94417672   -3.8294731     1566.586  0.064532296  0.065332729            5 
 2024000   0.92478195   -3.8050253    1569.3326  0.064613497   0.06531906            4 
 2025000   0.91793918   -3.8260803    1564.0093  0.064362522  0.065305602            3 
 2026000   0.93911423   -3.8184789    1567.0445  0.064455597  0.065292143            2 
 2027000   0.92948472   -3.8192221    1569.1954  0.064512225  0.065278635            4 
 2028000   0.93472107    -3.820979    1573.9124  0.064674244  0.065265102            3 
 2029000   0.94002757   -3.8334521    1569.3373  0.064454464  0.065251568            4 
 2030000   0.90712861   -3.8236176    1569.4585  0.064427687  0.065238024            3 
 2031000   0.95044832   -3.8266408    1567.2011  0.064303346  0.065224663            3 
 2032000   0.91425529   -3.8065688     1573.648  0.064536087  0.065211517            6 
 2033000    0.9149191   -3.8319952    1575.1991  0.064567925   0.06519849            5 
 2034000   0.93221695    -3.847077    1570.9256  0.064361094  0.065185375            4 
 2035000   0.94440087   -3.8132433    1574.6397  0.064481561   0.06517217            2 
 2036000   0.93245572   -3.8241049    1573.4488  0.064401145  0.065158852            5 
 2037000   0.93795926   -3.8189916    1574.7203  0.064421549  0.065145409            3 
 2038000   0.92156281   -3.8348852    1575.5245   0.06442282   0.06513235            2 
 2039000   0.92354642   -3.8252781    1581.6173  0.064640238  0.065119022            6 
 2040000   0.92392632    -3.784402    1579.7822  0.064533585   0.06510607            5 
 2041000   0.90975273   -3.8271797    1577.2795  0.064399783  0.065092831            4 
 2042000   0.92664214   -3.8424846     1576.695  0.064344392  0.065079644            2 
 2043000   0.94743484   -3.8269525    1577.1501   0.06433146  0.065066554            8 
 2044000   0.92254205   -3.8014003    1581.0311  0.064458216  0.065053559            3 
 2045000   0.93549349   -3.8398024     1577.848  0.064296984  0.065040357            3 
 2046000   0.91228793   -3.8227196    1581.1831  0.064401398  0.065026867            4 
 2047000   0.92485319   -3.8050688     1584.849  0.064519175  0.065013603            4 
 2048000   0.91813496   -3.8330474    1578.4361  0.064226728   0.06500038            4 
 2049000   0.94226738   -3.8577989    1578.3154  0.064190476  0.064986788            2 
 2050000   0.90746951   -3.8153298    1581.1629  0.064274916  0.064973237            2 
 2051000   0.92179647   -3.8540159    1579.3592  0.064170289  0.064959781            3 
 2052000   0.95410768   -3.8335271    1578.9941  0.064124192  0.064946331            4 
 2053000   0.92516465   -3.8381709    1578.1136  0.064057217  0.064932978            5 
 2054000   0.91044277   -3.8203594    1578.3896  0.064037227   0.06491966            3 
 2055000   0.92571582   -3.8304676    1582.7401  0.064182486  0.064906397            2 
 2056000   0.91542149   -3.8489882    1583.5954  0.064185937   0.06489274            5 
 2057000   0.92966902   -3.8130473    1580.7602  0.064039873  0.064878981            1 
 2058000   0.92016881   -3.8453451    1583.5245  0.064120687  0.064865374            5 
 2059000   0.93448456   -3.8074694    1587.2626  0.064240837  0.064851772            2 
 2060000   0.92544759   -3.8265505    1578.6579  0.063861565  0.064838114            6 
 2061000   0.91156056   -3.8336006    1585.4505   0.06410523   0.06482468            9 
 2062000   0.93811319   -3.8247722    1580.2908  0.063865616  0.064811142            4 
 2063000   0.94144426   -3.8187865    1589.2494  0.064196535  0.064797376            6 
 2064000    0.9131845   -3.8077747    1590.2705  0.064206659  0.064783781            4 
 2065000   0.93052824   -3.8105922    1585.9337  0.064000552  0.064770505            3 
 2066000   0.93133824   -3.8289746    1580.7384   0.06376002   0.06475664            3 
 2067000   0.91816051   -3.8147473    1582.6509  0.063806276  0.064742921            3 
 2068000   0.92399525   -3.8233966    1586.9391  0.063948221  0.064729117            6 
 2069000   0.90696144   -3.8361411    1583.5356  0.063780233  0.064715305            4 
 2070000   0.93565675   -3.8375436    1583.2847   0.06373932  0.064701616            5 
 2071000   0.91813987   -3.8450194    1582.3106  0.063669345  0.064687695            7 
 2072000   0.92038809   -3.8479933    1583.0987  0.063670316  0.064673881            2 
 2073000   0.92492988   -3.8169176    1588.4335  0.063854055  0.064660028            2 
 2074000   0.94445865   -3.8348429    1587.4329  0.063783064  0.064646315            2 
 2075000   0.93116442   -3.8095476    1588.8113  0.063807683  0.064632642            3 
 2076000   0.92612536   -3.8359791    1589.6524   0.06381071  0.064618917            3 
 2077000   0.91665563   -3.7977684    1590.8189   0.06382679  0.064605035            3 
 2078000   0.92597167   -3.8381103    1592.4727  0.063862395  0.064591124            8 
 2079000   0.91659059   -3.8390961    1591.1125  0.063777157  0.064577317            3 
 2080000   0.90382025   -3.8486436    1596.2227   0.06395123  0.064563599            6 
 2081000   0.92759132   -3.8515599    1590.5344  0.063692712  0.064549963            2 
 2082000   0.93686368   -3.8378572     1591.489  0.063700329  0.064536094            3 
 2083000   0.90802435   -3.8426345    1586.3009   0.06346219  0.064522281            4 
 2084000   0.92872985     -3.82482    1587.0435  0.063461434  0.064508247            3 
 2085000   0.91146676   -3.8344304    1587.7241  0.063458197  0.064494233            6 
 2086000   0.91364332   -3.8128658    1590.1903    0.0635263  0.064480324            3 
 2087000   0.93949692   -3.8641063     1587.978  0.063407523  0.064466137            3 
 2088000   0.90894917   -3.8210837     1594.763  0.063647949   0.06445192            2 
 2089000   0.92299501   -3.8047055    1595.4889  0.063646437  0.064438107            6 
 2090000   0.90806616   -3.8594314    1593.9005  0.063552651  0.064424212            3 
 2091000   0.89519204   -3.8348756    1590.2577   0.06337708  0.064409977            3 
 2092000   0.90056968   -3.8138258     1597.829  0.063648385  0.064396027            3 
 2093000   0.91670917   -3.8461645    1593.0449  0.063427492  0.064382034            3 
 2094000   0.91834478    -3.834683    1599.0395  0.063635764   0.06436805            4 
 2095000   0.92266517   -3.8119199    1602.3402  0.063736683  0.064354288            3 
 2096000   0.92264568   -3.8267589    1598.4724  0.063552499  0.064340085            6 
 2097000    0.9127003   -3.8132232    1597.7835  0.063494814   0.06432597            2 
 2098000    0.9212018   -3.8230068    1598.5846   0.06349637  0.064312085            3 
 2099000   0.90777316   -3.8244948    1594.2107  0.063292468  0.064298114            5 
 2100000   0.91914283   -3.8250774    1597.0436  0.063374748  0.064284294            3 
 2101000   0.90649056   -3.8412238    1592.2316   0.06315372  0.064270549            8 
 2102000   0.91295028   -3.8379726    1597.6216  0.063337362  0.064256633            3 
 2103000   0.93382937   -3.8057698    1606.3155  0.063651747   0.06424285            3 
 2104000   0.90224782    -3.846777    1598.0184  0.063292869  0.064229023            6 
 2105000   0.93096518   -3.8427619    1601.2472  0.063390626  0.064214951            2 
 2106000   0.92371091   -3.8583815    1599.9786  0.063310328  0.064200938            3 
 2107000   0.93487787   -3.8437097    1601.2858  0.063331982  0.064186994            6 
 2108000   0.93276665   -3.8197458     1598.162  0.063178446   0.06417316            3 
 2109000   0.92418018   -3.8265561    1603.0749  0.063342616  0.064159291            4 
 2110000   0.88285177   -3.8407683    1603.6085  0.063333671  0.064145318            2 
 2111000   0.91580381    -3.828868    1608.2879  0.063488389  0.064131719            2 
 2112000   0.91314141   -3.8453452    1607.5724  0.063430097  0.064118014            4 
 2113000   0.91749061   -3.8058557    1606.8236  0.063370546  0.064104461            3 
 2114000   0.90311323   -3.8199021    1609.1378  0.063431797  0.064090837            2 
 2115000   0.88385828   -3.8436538    1605.4369  0.063255986  0.064077131            4 
 2116000   0.92305355   -3.8481183    1607.1926  0.063295235  0.064063506            4 
 2117000   0.92395548   -3.8545651    1605.4312     0.063196  0.064049729            2 
 2118000    0.9058292   -3.8435491    1608.5804  0.063290069   0.06403606            4 
 2119000   0.91451398   -3.8397155    1614.0847  0.063476667  0.064022567            3 
 2120000   0.92026606   -3.8498299    1605.0474  0.063091486  0.064008925            3 
 2121000    0.9378899   -3.8571849    1608.4907  0.063197024  0.063994983            4 
 2122000   0.90402042   -3.8217875    1612.0339   0.06330639  0.063981369            3 
 2123000   0.90668186   -3.8616947    1606.9395  0.063076601  0.063967808            3 
 2124000   0.89947529   -3.8668432    1608.6962  0.063115825  0.063953972            2 
 2125000    0.9208455   -3.8181061    1610.6192  0.063161539  0.063940293            5 
 2126000   0.92051207   -3.8420809    1608.6477  0.063054549   0.06392669            2 
 2127000   0.91288641   -3.8296971    1610.6214  0.063102235  0.063912734            3 
 2128000   0.92662358   -3.8368516    1611.0157  0.063088021  0.063898924           11 
 2129000   0.92451378   -3.8526753    1602.8167  0.062737463  0.063885043            4 
 2130000   0.92078282   -3.8680738    1608.6064  0.062934522  0.063871325            2 
 2131000   0.89876592   -3.8473251    1610.5263  0.062980067  0.063857514            6 
 2132000   0.92657688   -3.8265858    1615.7695  0.063155469  0.063843812            2 
 2133000   0.91297333   -3.8541382     1613.776  0.063047975  0.063829946            2 
 2134000   0.89695359   -3.8498129    1616.6049  0.063128901  0.063816062            4 
 2135000   0.89277961   -3.8481438    1615.0341  0.063038023  0.063802186            5 
 2136000   0.89923018   -3.8532198    1614.0282  0.062969267  0.063788366            3 
 2137000   0.91297067   -3.8593962    1611.6606  0.062847475  0.063774416            5 
 2138000   0.92441654   -3.8432527    1613.8153  0.062902063  0.063760457            1 
 2139000    0.9093548   -3.8357345    1612.8643  0.062835605  0.063746724            5 
 2140000   0.88665526   -3.8446265     1612.982  0.062810827  0.063732761            2 
 2141000   0.90907308   -3.8486534    1613.9611  0.062819599  0.063718602            2 
 2142000   0.90026082   -3.8308238    1614.3705  0.062806196  0.063704565            3 
 2143000   0.90604617   -3.8544208    1611.5008  0.062665299  0.063690576            2 
 2144000   0.90405752   -3.8571214    1617.5362  0.062870653  0.063676686            3 
 2145000   0.90097473   -3.8371478    1621.2708  0.062986432  0.063662704            2 
 2146000   0.90275112   -3.8421151    1612.1442   0.06260268  0.063648751            3 
 2147000   0.91039864    -3.885758    1615.8947  0.062719091  0.063634593            3 
 2148000   0.90435275   -3.8302425    1617.1811  0.062739802  0.063620551            2 
 2149000   0.91427734    -3.835425     1618.832  0.062774622  0.063606711            2 
 2150000    0.8943973   -3.8384533    1616.6545  0.062661028  0.063592919            4 
 2151000   0.91181023   -3.8467077     1620.496  0.062780722  0.063579164            9 
 2152000   0.88966875   -3.8864094    1620.5135  0.062752227  0.063565423            6 
 2153000   0.90301517   -3.8038631    1627.0933  0.062977755  0.063551681            1 
 2154000   0.90824517   -3.8645011    1619.0695  0.062638095  0.063538059            4 
 2155000   0.90628949   -3.8456994    1620.3283  0.062657706  0.063524322            4 
 2156000    0.9053758   -3.8572792    1619.8343   0.06260955  0.063510668            3 
 2157000   0.91559208   -3.8622742    1619.2548  0.062558137  0.063496903            2 
 2158000   0.89602193   -3.8508276    1623.8004  0.062704681  0.063482835            3 
 2159000   0.91240359   -3.8415646    1629.4146  0.062892336  0.063469018            2 
 2160000   0.92203393   -3.8611614    1620.8631  0.062533299  0.063455357            2 
 2161000    0.9012134     -3.82685    1626.3135  0.062714541  0.063441605            3 
 2162000   0.91631341   -3.8232959    1625.4641  0.062652793   0.06342787            4 
 2163000    0.9191636   -3.8469191    1627.5015  0.062702324  0.063414456            2 
 2164000   0.89889121    -3.856512    1630.0761  0.062772494  0.063401087            3 
 2165000   0.91646705   -3.8287258    1632.0786  0.062820578  0.063387695            5 
 2166000   0.91680296   -3.8361945    1633.9998  0.062865488  0.063374171            2 
 2167000   0.93354978   -3.8288561    1626.8155  0.062560203  0.063360545            1 
 2168000   0.93673742   -3.8394335    1624.7461  0.062451802  0.063346865            3 
 2169000   0.90677564    -3.832044    1629.6624  0.062611896  0.063333345            4 
 2170000   0.90077409   -3.8609068    1629.4008  0.062572995  0.063319701            5 
 2171000   0.89394586   -3.8696123    1632.6431  0.062668627  0.063305709            3 
 2172000   0.91428395   -3.8437346    1630.1265   0.06254322  0.063291999            5 
 2173000   0.90742905   -3.8599433    1630.4353  0.062526279  0.063278175            4 
 2174000   0.91073236   -3.8495376    1631.2347  0.062528163  0.063264261            5 
 2175000   0.90514449   -3.8537003    1628.2518  0.062385126  0.063250582            6 
 2176000   0.90668146   -3.8374076    1627.8927  0.062342704  0.063236779            2 
 2177000   0.91608487   -3.8700847    1626.9807  0.062279157   0.06322285            6 
 2178000   0.91725076   -3.8390385    1636.3414  0.062608716  0.063209044            3 
 2179000   0.88976336    -3.836949    1635.3452  0.062541885  0.063195172            4 
 2180000   0.89903723   -3.8659617    1633.8827  0.062457291   0.06318128            4 
 2181000   0.90090178   -3.8541207    1635.8776  0.062504874  0.063167241            2 
 2182000   0.90091286   -3.8562491    1629.1662  0.062219915  0.063153471            4 
 2183000   0.88166115    -3.847004    1636.2055  0.062460129  0.063139592            2 
 2184000   0.89557388   -3.8628519    1633.8598  0.062342027  0.063125777            1 
 2185000   0.90823531   -3.8578456    1634.0664  0.062321371   0.06311189            3 
 2186000    0.9088869    -3.844751    1636.0815  0.062369683  0.063097856            4 
 2187000   0.90612419   -3.8621269    1636.4137  0.062353823  0.063084159            2 
 2188000   0.89528363   -3.8509152     1637.167  0.062354014  0.063070404            4 
 2189000   0.91359126   -3.8753222    1634.3869  0.062219691   0.06305655            7 
 2190000    0.8911906   -3.8572549    1635.8987   0.06224881  0.063042866            7 
 2191000   0.91244524   -3.8771783    1628.8038  0.061950549  0.063029008            4 
 2192000   0.89984581   -3.8811772    1634.9402  0.062155574  0.063014976            3 
 2193000   0.90214508   -3.8568709    1641.3375  0.062370325  0.063001375            5 
 2194000   0.89518667   -3.8562017    1639.6337  0.062277185    0.0629877            7 
 2195000   0.89965554   -3.8660157    1640.3836   0.06227728  0.062974086            5 
 2196000   0.89546887   -3.8672102    1638.2724  0.062168808   0.06296041            2 
 2197000   0.89523649   -3.8300883    1644.6602  0.062382801   0.06294672            4 
 2198000   0.89555086   -3.8305256    1639.8237  0.062171052  0.062933049            2 
 2199000    0.9074778    -3.874932    1636.9205  0.062032762  0.062919466            6 
 2200000   0.89354633   -3.8504875    1638.4088  0.062060941  0.062905715            5 
 2201000   0.89377334   -3.8798402    1640.2343  0.062101859  0.062892026            5 
 2202000   0.87429214   -3.8684235     1643.115  0.062182674  0.062878164            3 
 2203000   0.92027386   -3.8287642    1645.5632  0.062247058  0.062864543            5 
 2204000   0.89963306   -3.8678759    1642.2243   0.06209257  0.062850947            5 
 2205000   0.89588489   -3.8659227    1644.2041  0.062139234  0.062837375            5 
 2206000   0.90505132   -3.8556253    1642.2489  0.062037204  0.062823555            4 
 2207000   0.91085607   -3.8746337    1636.7699  0.061802216  0.062809842            3 
 2208000   0.89604512   -3.8422889    1644.5432  0.062067604  0.062796365            3 
 2209000   0.88389675   -3.8642521    1644.8019  0.062049266  0.062782659            4 
 2210000   0.87332841   -3.8753325    1646.3975  0.062081353  0.062768846            2 
 2211000   0.89475029     -3.86689    1641.2845  0.061860564  0.062755118            2 
 2212000   0.89587096   -3.8991511    1644.5199  0.061954488   0.06274108            4 
 2213000   0.88004932   -3.8946251    1642.7144  0.061858504  0.062727193            2 
 2214000   0.90045157   -3.8835709    1646.3849  0.061968717  0.062713453            9 
 2215000   0.88399388   -3.8503206    1649.1852  0.062046094  0.062699833            3 
 2216000   0.90765801   -3.8449929     1646.745  0.061926333   0.06268642            3 
 2217000   0.90907534   -3.8698103     1650.225  0.062029206  0.062672989            5 
 2218000   0.90358688   -3.8695985    1650.3964   0.06200768  0.062659332            5 
 2219000   0.88888494   -3.8601034    1647.0827  0.061855292  0.062645876            1 
 2220000   0.89273121   -3.8680637    1654.1764  0.062093708  0.062632451            2 
 2221000    0.9098807   -3.8645087     1655.818  0.062127345  0.062619083            3 
 2222000   0.89583985     -3.86284    1657.1228  0.062148319  0.062605802            2 
 2223000   0.90585898    -3.873343    1653.9121  0.062000003  0.062592485            3 
 2224000   0.89624026   -3.8360149    1661.8981  0.062271364  0.062579173            5 
 2225000   0.89082687   -3.8697665    1656.6788  0.062047896  0.062566092            3 
 2226000   0.87796589   -3.8611786    1656.9073  0.062028575  0.062553073            5 
 2227000   0.88891576   -3.8716192    1650.7451  0.061770135  0.062539939            4 
 2228000   0.90864914   -3.8529756    1657.1752  0.061982915  0.062526883            5 
 2229000   0.90822662   -3.8868618    1654.8758  0.061869143  0.062513684            4 
 2230000   0.90876673   -3.8855643    1656.4497  0.061900212  0.062500383            3 
 2231000   0.91186827   -3.8478536    1656.6667  0.061880572  0.062487248            3 
 2232000   0.88937296   -3.8757389    1659.7162  0.061966706  0.062473823            5 
 2233000   0.90517303   -3.9017448    1661.3729   0.06200078  0.062460549            6 
 2234000    0.9211133   -3.8760956    1660.8334  0.061952902  0.062447091            5 
 2235000   0.89091639   -3.8761012    1658.1264  0.061824249  0.062433836            3 
 2236000   0.90629346   -3.8337895    1661.7265  0.061930774  0.062420831            2 
 2237000   0.88932384   -3.8900213    1655.7972  0.061682208    0.0624077            2 
 2238000   0.90147878   -3.9213057    1656.7039  0.061688407  0.062394502            3 
 2239000   0.88612245   -3.8755206     1667.468  0.062061486   0.06238145            4 
 2240000   0.90716112   -3.8650258    1667.5962   0.06203855  0.062368471            5 
 2241000   0.90504308   -3.8656597    1662.3173  0.061814567  0.062355569            3 
 2242000   0.91497903   -3.8768757    1663.5349  0.061832253  0.062342682            4 
 2243000   0.89657605   -3.8829192    1662.3466  0.061760538  0.062329643            6 
 2244000   0.90556308   -3.8678212    1666.6586  0.061893144  0.062316591            2 
 2245000   0.90707321   -3.8834318    1665.5849  0.061825721   0.06230323            3 
 2246000   0.88227399   -3.8969291    1658.1055  0.061520684  0.062289956            4 
 2247000   0.88678202   -3.8605301     1667.299   0.06183426  0.062276725            5 
 2248000    0.8826291   -3.8920393     1664.947  0.061719566  0.062263615            6 
 2249000   0.89933241   -3.8719982     1663.828  0.061650658  0.062250401            7 
 2250000   0.88672382   -3.8432056    1666.1902  0.061710747  0.062237683            2 
 2251000   0.89182195   -3.8752836    1669.1982  0.061794689  0.062224519            3 
 2252000   0.89927822   -3.8519321    1667.8163  0.061716114  0.062211418            5 
 2253000   0.89866947   -3.8626941      1668.58  0.061716968  0.062198324            2 
 2254000   0.90368506   -3.8608869    1668.8167   0.06169834  0.062185429            4 
 2255000   0.87395902   -3.8654585     1663.887  0.061488803  0.062172541            3 
 2256000   0.88489904   -3.8496776    1672.7396  0.061788548  0.062159414            5 
 2257000   0.88787611   -3.8853578    1671.3426  0.061709591  0.062146418            2 
 2258000   0.89505995   -3.8604998    1667.3637   0.06153542  0.062133124            5 
 2259000   0.89932723   -3.8877025    1668.1771  0.061538185  0.062119941            3 
 2260000   0.89164703   -3.8970732    1674.8328  0.061756371  0.062106746            2 
 2261000   0.88122957   -3.8643392    1674.3892  0.061712707  0.062093614            3 
 2262000   0.88504905   -3.8673184    1676.7574  0.061772671  0.062080425            4 
 2263000   0.88730258   -3.8899822    1670.1857  0.061503377  0.062067229            2 
 2264000   0.88943169   -3.8535205    1676.1303  0.061695021   0.06205419            2 
 2265000   0.89299074   -3.8870073    1674.1461  0.061594778  0.062041367            4 
 2266000   0.88897812   -3.8845259    1672.6916  0.061514105  0.062028441            3 
 2267000   0.89130473   -3.8794247    1676.2743  0.061618672  0.062015548            2 
 2268000   0.86825782   -3.8736244     1672.922  0.061468329  0.062002608            3 
 2269000   0.88952788   -3.8643229     1677.482  0.061608713  0.061989775            4 
 2270000   0.90951999   -3.8720971     1681.706  0.061736638  0.061976812            2 
 2271000   0.88517458    -3.911176    1669.6328  0.061266432    0.0619638            4 
 2272000   0.89057189   -3.8598143    1680.2735  0.061629751   0.06195095            2 
 2273000   0.90078168   -3.8762764    1681.1185  0.061633616  0.061938069            4 
 2274000   0.89127781   -3.8507752    1683.8523  0.061706694  0.061925126            3 
 2275000   0.89029856   -3.8683354    1674.6261  0.061341616  0.061912302            3 
 2276000   0.89677946   -3.8895002    1679.0117  0.061475237  0.061899472            2 
 2277000   0.89619102   -3.9018982    1675.1017  0.061305141    0.0618866            4 
 2278000   0.87275574   -3.8798017    1683.6263  0.061590075  0.061873748            5 
 2279000   0.89979991   -3.8983369    1680.7749  0.061458785  0.061861062            3 
 2280000   0.88412417   -3.8737911    1682.5606  0.061497099  0.061848165            2 
 2281000   0.88061832   -3.8894128     1679.997  0.061376481  0.061835441            3 
 2282000   0.90323728   -3.8649013    1678.0624  0.061278935  0.061822566            4 
 2283000   0.89768549   -3.8468089    1684.9024  0.061501765  0.061809882            3 
 2284000   0.88658305   -3.9002126    1682.3187   0.06138057  0.061797107            3 
 2285000   0.86509604   -3.8536886    1687.1145  0.061528609  0.061784168            3 
 2286000   0.89538928   -3.8700508    1686.9325  0.061495059  0.061771497            5 
 2287000   0.89509768   -3.8885646    1684.3906   0.06137555  0.061758737            2 
 2288000   0.87916468   -3.8921009    1690.4456   0.06156926  0.061746064            5 
 2289000   0.87639219   -3.8829764     1679.682  0.061150504  0.061733281            5 
 2290000   0.87850757   -3.9102781     1684.025   0.06128184   0.06172064            3 
 2291000   0.89361253   -3.8836769    1688.7995  0.061428761  0.061707879            4 
 2292000   0.89856586   -3.8933108    1680.6154  0.061104401  0.061695149            3 
 2293000   0.87366377    -3.886363    1687.2709  0.061319629  0.061682371            2 
 2294000   0.87259328   -3.8792607    1692.0637  0.061467004  0.061669578            4 
 2295000    0.8724915   -3.8953873    1687.6038   0.06127828  0.061656846            3 
 2296000   0.88006069   -3.8799313     1688.849  0.061296785  0.061644114            2 
 2297000    0.8703746   -3.8724776    1688.8604  0.061270512  0.061631539            5 
 2298000   0.88054374   -3.8750486    1688.7507  0.061239873  0.061618821            2 
 2299000   0.88282413   -3.8939632    1693.9659  0.061402271  0.061606202            7 
 2300000   0.87845225   -3.8683011    1695.7948  0.061441841   0.06159342            7 
 2301000   0.87331375    -3.905768    1692.4902  0.061295457  0.061580782            3 
 2302000   0.87883136   -3.8762898    1689.2873  0.061152886  0.061567934            3 
 2303000   0.87481054   -3.8456667     1700.171  0.061520155  0.061555217            6 
 2304000   0.88827872   -3.9021486    1687.7789  0.061045243  0.061542601            3 
 2305000   0.89639037   -3.8827481    1689.7605  0.061090402  0.061529806            3 
 2306000   0.87612192   -3.8965243    1688.9825  0.061035795  0.061516979            2 
 2307000   0.87007013   -3.8839719    1685.8288   0.06089542  0.061504019            3 
 2308000   0.88624954   -3.8879448    1687.2804  0.060921448  0.061490936            3 
 2309000   0.87155258   -3.8943364    1692.2866  0.061075739   0.06147814            3 
 2310000   0.89945078    -3.871663    1696.1781  0.061189685   0.06146539            5 
 2311000   0.87398861   -3.8977726    1692.5037  0.061030711  0.061452413            4 
 2312000    0.8922831   -3.8682379    1695.3741  0.061107776  0.061439593            5 
 2313000   0.86835794   -3.8718787    1693.0463  0.060997489  0.061426666            3 
 2314000   0.88297069   -3.8879984    1696.4742  0.061094575  0.061413862            6 
 2315000   0.89284286   -3.8902515    1697.3129  0.061098376  0.061401123            3 
 2316000    0.8837454   -3.8529869    1696.7911  0.061053219  0.061388368            3 
 2317000   0.88392638   -3.8963617    1690.9155  0.060815546   0.06137544            5 
 2318000   0.89604181   -3.8887774    1699.3389  0.061092139  0.061362623            4 
 2319000   0.88635017   -3.8998791    1692.2998  0.060812843  0.061349782            5 
 2320000   0.88088075   -3.8924201    1691.1871  0.060746662  0.061337036            3 
 2321000   0.86497714   -3.8886669    1700.3464  0.061049346  0.061324267            2 
 2322000   0.86983804   -3.8696386    1694.4372  0.060810983   0.06131122            4 
 2323000   0.87890436   -3.9041063    1695.9389  0.060838676  0.061298141            2 
 2324000   0.85982446   -3.8818264    1694.6972  0.060767971  0.061284919            2 
 2325000   0.88347661   -3.8795428    1694.9892    0.0607523   0.06127174            5 
 2326000   0.87772799   -3.9065258    1693.0223  0.060655714  0.061258478            2 
 2327000   0.86874788   -3.9102416    1688.3932  0.060463873   0.06124537            2 
 2328000   0.89005447   -3.8915818    1696.3095  0.060721272  0.061232043            6 
 2329000   0.87474365   -3.8816931    1699.0131  0.060791938   0.06121865            2 
 2330000   0.88846398   -3.8825674     1697.914   0.06072654  0.061205378            4 
 2331000    0.8878128   -3.8941572    1692.7811  0.060516984  0.061192038            5 
 2332000   0.88789682   -3.9007193    1693.7704  0.060526386  0.061178385            4 
 2333000   0.87952056   -3.9048361    1693.7879  0.060501068  0.061164573            5 
 2334000   0.87696989   -3.8939703    1690.1663  0.060345839  0.061150933            2 
 2335000   0.87394525   -3.8909863    1696.5589   0.06054814  0.061137357            2 
 2336000   0.87498583   -3.9078542    1690.2524  0.060297245   0.06112371            2 
 2337000   0.88590946   -3.8867426    1700.7943  0.060647351  0.061110319            4 
 2338000   0.87932456   -3.8936247    1694.6824  0.060403566  0.061096897            6 
 2339000   0.88708612    -3.904725    1696.5358  0.060443771  0.061083438            7 
 2340000   0.87673227    -3.885848    1701.2664  0.060586411  0.061069728            4 
 2341000   0.85760794   -3.8770885    1708.0705  0.060802739  0.061056268            4 
 2342000   0.86684263   -3.9417192    1691.1247  0.060173808  0.061042704            3 
 2343000   0.86445209   -3.8939467    1696.3701  0.060334689  0.061029175            2 
 2344000   0.89052888   -3.9206085    1702.7182  0.060534633  0.061015907            2 
 2345000   0.87927523   -3.9047573     1703.181  0.060525267  0.061002669            2 
 2346000   0.87371234    -3.875661    1695.9854  0.060243868  0.060989254            1 
 2347000   0.88633057   -3.8776593    1702.8517  0.060461996  0.060975785            4 
 2348000   0.88681094   -3.8907673    1693.7192  0.060112125  0.060962232            8 
 2349000   0.89402145   -3.9110998     1699.415  0.060288599  0.060948682            5 
 2350000   0.86549828    -3.910329    1702.5234  0.060373171  0.060935141            2 
 2351000    0.8586348    -3.908162    1700.7298  0.060283913  0.060921893            5 
 2352000   0.87723807   -3.8850581    1706.9254  0.060477799  0.060908472            3 
 2353000   0.86640343   -3.9191968    1706.2901  0.060429595  0.060895174            4 
 2354000   0.88501631   -3.9144293    1701.8737  0.060247583  0.060881793            4 
 2355000   0.88293468   -3.8565576    1707.5984  0.060424572  0.060868442            4 
 2356000   0.87912852   -3.8761823    1709.7783  0.060476029  0.060855204            3 
 2357000   0.87443895   -3.8943798    1705.6967  0.060306063  0.060841863            4 
 2358000   0.87337009   -3.9015135    1701.2406  0.060123005  0.060828418            4 
 2359000   0.89040601   -3.9003909    1706.5231  0.060284128  0.060815213            4 
 2360000   0.85130845   -3.8858037     1708.084  0.060313701  0.060802071            4 
 2361000    0.8780294   -3.8969772    1708.5629   0.06030506  0.060788974            3 
 2362000   0.86744614   -3.9024296    1710.8471  0.060360116  0.060775839            3 
 2363000   0.87486724   -3.8884614    1708.6301  0.060256386  0.060762567            5 
 2364000   0.86745913   -3.9201319    1705.1594   0.06010855  0.060749361            3 
 2365000   0.87103447   -3.9176237    1704.2105    0.0600497  0.060736073            3 
 2366000   0.88427872   -3.9117573    1706.1246  0.060091736  0.060722759            3 
 2367000   0.87667965   -3.9113604    1706.2937  0.060072303  0.060709321            6 
 2368000   0.88696075   -3.9049425    1706.8195  0.060065437  0.060695794            5 
 2369000   0.86633973   -3.9041866    1711.3995  0.060201194  0.060682409            2 
 2370000   0.85925203   -3.8714318    1713.0491  0.060233794  0.060669138            5 
 2371000   0.88034615   -3.8996924    1703.8242  0.059884163  0.060655755            7 
 2372000   0.85102214   -3.9183065    1707.9489  0.060003825  0.060642416            3 
 2373000   0.88457752   -3.9075526    1709.6413  0.060037972  0.060629107            3 
 2374000   0.87903904   -3.9269406    1709.0577  0.059992195  0.060615759            5 
 2375000   0.88190188   -3.8832879    1706.3788  0.059872941  0.060602289            2 
 2376000   0.87314782   -3.9133842    1711.9206  0.060042108  0.060588901            2 
 2377000   0.87994586   -3.9001677    1714.2506  0.060098535  0.060575592            2 
 2378000   0.87197621    -3.894008    1708.5585  0.059873793  0.060562267            6 
 2379000    0.8798083   -3.8899836    1717.7952  0.060172174  0.060549033            3 
 2380000   0.86908698    -3.908755     1717.191  0.060125735  0.060535815            4 
 2381000   0.86971401   -3.9030817    1717.6501  0.060116553  0.060522634            2 
 2382000   0.86633712   -3.9237117    1706.7088  0.059708536  0.060509397            4 
 2383000   0.86677458   -3.8877766    1721.7812  0.060210561  0.060496352            2 
 2384000   0.85836594   -3.9203703    1718.6999  0.060077596  0.060483346            4 
 2385000   0.88029381   -3.8981123    1717.3729  0.060006043  0.060470284            6 
 2386000   0.86144521   -3.9123313    1713.2655  0.059837436  0.060457006            3 
 2387000   0.87224033   -3.9327056    1712.2197  0.059775858  0.060443823            2 
 2388000   0.86728186   -3.9099468    1716.1273  0.059887189  0.060430498            3 
 2389000   0.85663824   -3.9386792    1708.3529  0.059590933  0.060417178            7 
 2390000   0.87133209   -3.8946299     1721.346  0.060019039  0.060404074            4 
 2391000   0.86805051   -3.9273579    1723.8784  0.060082198  0.060391036            5 
 2392000   0.86755778   -3.9340677    1709.3923  0.059552408    0.0603779            3 
 2393000   0.86828656    -3.932327    1721.7387  0.059957471  0.060364684            6 
 2394000   0.86227593   -3.9208868    1719.2352  0.059845282  0.060351476            3 
 2395000   0.86447395   -3.9307904    1719.9677  0.059845778  0.060338186            5 
 2396000   0.85072526   -3.9117049    1718.8645  0.059782432  0.060324791            3 
 2397000   0.83943707   -3.9039885    1714.9806  0.059622465  0.060311407            6 
 2398000   0.86991828   -3.9294668    1713.2514   0.05953751   0.06029798            3 
 2399000    0.8596649   -3.8735994    1722.7473  0.059842549   0.06028471            8 
 2400000    0.8721444   -3.8922261    1720.7273  0.059747475  0.060271509            6 
 2401000   0.88257023   -3.8933851    1719.1896   0.05966922  0.060258209            3 
 2402000    0.8653835   -3.9056897    1718.6726  0.059626443  0.060244983            6 
 2403000   0.87643591   -3.9047228     1721.855  0.059711992   0.06023161            7 
 2404000   0.87137565   -3.9359182    1716.9292  0.059516404  0.060218105            7 
 2405000   0.87042939   -3.9108615    1719.9595  0.059596656  0.060204654            5 
 2406000   0.86121401    -3.901844    1717.1759  0.059475474  0.060191169            3 
 2407000   0.86309935   -3.9027731    1718.3307  0.059490745  0.060177734            2 
 2408000   0.87115211   -3.9074438    1727.3658  0.059778718  0.060164413            3 
 2409000   0.85275245    -3.926218    1716.6657   0.05938376  0.060150964           10 
 2410000   0.87229885   -3.8799193     1726.287  0.059691806   0.06013748            7 
 2411000   0.85049938   -3.9265826    1718.0424  0.059382084  0.060124186            3 
 2412000   0.86345088   -3.9395107    1720.7612  0.059451397  0.060110782            3 
 2413000   0.87659024   -3.9216514    1722.1252  0.059473865  0.060097328            5 
 2414000    0.8586935   -3.9309881    1722.7912  0.059472219  0.060083977            4 
 2415000   0.85043058   -3.9166671    1724.4599  0.059505172  0.060070544            4 
 2416000   0.85883145   -3.9337545    1728.8128  0.059630684  0.060057086            2 
 2417000   0.85798198   -3.9228821     1720.875  0.059332334  0.060043839            4 
 2418000    0.8682374     -3.90972    1729.7732  0.059614463  0.060030578            3 
 2419000   0.85819063   -3.9481078    1727.2248  0.059502024  0.060017338            9 
 2420000   0.85632553   -3.8982495    1730.1898  0.059579537  0.060004184            3 
 2421000   0.86413916   -3.9309752     1723.438  0.059322526  0.059991006            7 
 2422000   0.87677942   -3.9108808    1732.1231  0.059596859  0.059977862            3 
 2423000   0.86469051   -3.9047122    1726.3822  0.059374818  0.059964847            4 
 2424000   0.86399498   -3.9102687    1728.3468  0.059417864  0.059951655            2 
 2425000   0.87043018   -3.9436595    1732.9105  0.059550188  0.059938506            4 
 2426000   0.86481339   -3.9350318    1736.3497  0.059643779   0.05992538            3 
 2427000    0.8642158   -3.9457506    1726.8168  0.059291884  0.059912265            8 
 2428000   0.86770628   -3.9302605    1729.2899  0.059352344  0.059898955            6 
 2429000   0.87858909   -3.8871378    1735.6174   0.05954499  0.059885805            3 
 2430000   0.86262815   -3.9494081    1729.5663  0.059312972  0.059872727            9 
 2431000   0.87441211   -3.9166788    1729.3383  0.059280761  0.059859539            4 
 2432000   0.84250811   -3.8860209    1729.8187  0.059272844  0.059846374            4 
 2433000     0.841789   -3.9480487    1730.7549  0.059280549  0.059833315            6 
 2434000   0.86629883   -3.9313626    1730.7463  0.059255898  0.059820295            2 
 2435000   0.86699239   -3.9187905    1732.8469  0.059303453  0.059807116            4 
 2436000   0.84400433    -3.890233    1742.7943  0.059619402  0.059794089            2 
 2437000   0.88578342   -3.9144221    1740.0967  0.059502692   0.05978136            5 
 2438000   0.85881356     -3.92423    1737.0801  0.059375175  0.059768327            4 
 2439000   0.85086965   -3.9077613    1742.5798  0.059538739  0.059755266            3 
 2440000   0.88742788   -3.9118118    1738.9561  0.059390579  0.059742532            2 
 2441000   0.86874689   -3.9554039    1735.8372  0.059259769  0.059729721            6 
 2442000   0.85695916   -3.9115957    1743.8593  0.059509257  0.059717029            6 
 2443000     0.872566    -3.892471    1745.3168  0.059534617  0.059704544            4 
 2444000   0.85481604   -3.9446002    1743.4187  0.059445536  0.059691889            3 
 2445000   0.85580363   -3.9296865    1744.8382  0.059469604  0.059679171            3 
 2446000   0.85984981   -3.9293662    1734.9214  0.059107435   0.05966631            3 
 2447000   0.86064616   -3.9242366    1742.8169  0.059352164   0.05965332            5 
 2448000   0.85215151    -3.926704    1742.2847    0.0593098  0.059640324            2 
 2449000   0.86050905   -3.9291826    1744.8076   0.05937143  0.059627432            2 
 2450000   0.86479282   -3.9348629    1740.4914  0.059200389   0.05961437            2 
 2451000   0.86651196    -3.931582    1739.5486  0.059144178  0.059601461            3 
 2452000   0.84490113   -3.9231653    1739.6764    0.0591244  0.059588575            7 
 2453000   0.87072899   -3.9411984    1743.0505  0.059214922  0.059575549            5 
 2454000   0.87778752   -3.9304927    1738.8085  0.059046745  0.059562425            3 
 2455000   0.85457044   -3.9105312    1743.6415  0.059186746   0.05954947            3 
 2456000   0.85302031    -3.918318    1742.2914  0.059116836  0.059536448            4 
 2457000   0.86086187   -3.9293363    1738.3234  0.058958193  0.059523577            2 
 2458000   0.85955031   -3.9716129    1737.2654  0.058898337  0.059510774            5 
 2459000   0.84249051   -3.9107913    1747.7573  0.059229949  0.059497936            2 
 2460000   0.87837275   -3.9401607    1748.6906  0.059237485  0.059485246            5 
 2461000   0.85619004   -3.9390373    1743.1302  0.059025131  0.059472534            7 
 2462000   0.86387382   -3.8951212    1750.5041  0.059250749  0.059459827            4 
 2463000   0.88249216   -3.9498325     1744.093  0.059009777  0.059447002            7 
 2464000   0.85657651   -3.9307059    1750.1646  0.059191173  0.059434336            6 
 2465000    0.8693122   -3.9266125    1752.1324  0.059233686   0.05942163            3 
 2466000    0.8708978   -3.9510121    1749.2057  0.059110764  0.059408926            7 
 2467000   0.83142197   -3.9440671    1747.4737  0.059028297  0.059396331            2 
 2468000   0.86180967   -3.9083436    1751.3725  0.059136023  0.059383625            3 
 2469000   0.86267382   -3.9770518    1748.3342  0.059009526  0.059370832            4 
 2470000   0.84980202   -3.9352472    1748.7684  0.059000284  0.059358177            4 
 2471000   0.85296332   -3.9320601     1745.165  0.058854883   0.05934561            3 
 2472000    0.8711955   -3.9067972    1760.7791  0.059357441  0.059333175            2 
 2473000   0.85867428   -3.9548378    1750.2346  0.058978118  0.059320645            5 
 2474000    0.8595234   -3.9289963    1752.5877   0.05903354  0.059308044            6 
 2475000   0.84675672    -3.954849    1754.6413  0.059078833  0.059295358            4 
 2476000   0.84881111   -3.9227606    1759.5278  0.059219433  0.059282733            3 
 2477000   0.85626282   -3.9144763    1758.8015   0.05917109  0.059270263            2 
 2478000   0.88088154   -3.9119292    1751.8848  0.058914608   0.05925766            4 
 2479000   0.84713057   -3.9110185      1758.42  0.059110527  0.059245136            4 
 2480000    0.8640447   -3.9375192    1753.8966  0.058934697  0.059232601            2 
 2481000   0.86250269   -3.9438671    1755.9749  0.058980751   0.05922001           10 
 2482000   0.85663782   -3.9159773    1761.1319  0.059130134  0.059207505            4 
 2483000   0.85638613   -3.9336528    1754.5588  0.058885717  0.059194983            5 
 2484000    0.8576439   -3.9173268    1754.5689   0.05886235  0.059182341            3 
 2485000   0.84506532    -3.913868    1757.7621  0.058945746  0.059169649            5 
 2486000   0.85568673   -3.9343588    1758.8132  0.058957266  0.059156941            4 
 2487000   0.85815212   -3.9398081    1752.9164  0.058735974  0.059144288            3 
 2488000   0.86412555   -3.9355733    1756.8246  0.058843268  0.059131757            4 
 2489000    0.8579858   -3.9284812    1756.2131  0.058799152  0.059119051            3 
 2490000   0.86749696    -3.956346    1751.4069   0.05861469  0.059106551            2 
 2491000   0.86588617   -3.9535074    1759.8934  0.058875064  0.059093921            4 
 2492000   0.85648927   -3.8996066     1754.726  0.058678638  0.059081413            6 
 2493000   0.83759403   -3.9340406     1761.263  0.058873613  0.059068913            9 
 2494000   0.85122025   -3.9421732    1764.0834  0.058944248  0.059056477            6 
 2495000    0.8543983   -3.9361391     1760.028   0.05878517  0.059044057            5 
 2496000   0.85935649   -3.9414406    1766.1296  0.058965332  0.059031612            2 
 2497000   0.84521794   -3.9471981    1765.4492   0.05891901  0.059019195            4 
 2498000   0.84563701   -3.9579333    1768.8755  0.059009726  0.059006566            5 
 2499000    0.8494125   -3.9178756    1764.0359  0.058824725   0.05899422            3 
 2500000   0.84581822   -3.9492585    1765.6542  0.058855141  0.058981895            4 
 2501000   0.85469432   -3.9518965    1763.5389  0.058761126  0.058969667            6 
 2502000   0.84113524   -3.9487884    1764.0598  0.058754991  0.058957273            7 
 2503000   0.83589908   -3.9020786    1764.9446  0.058760974  0.058945172            6 
 2504000   0.83382534    -3.937831    1768.5314  0.058856875  0.058932986            4 
 2505000   0.83553336   -3.9256383    1768.7606  0.058841004  0.058920935            5 
 2506000   0.84326863   -3.9450973    1766.0593  0.058727697   0.05890882            6 
 2507000   0.83913686   -3.9147992    1768.3537  0.058780538  0.058896595            4 
 2508000   0.83912123   -3.9236116    1767.8004  0.058738717  0.058884415            3 
 2509000   0.86855165   -3.9336663     1767.026  0.058689584  0.058872206            9 
 2510000   0.84181796   -3.9685634    1760.3265  0.058443775  0.058859835            6 
 2511000   0.85137136   -3.9426026    1767.4218  0.058655974  0.058847552            2 
 2512000   0.85117433   -3.9344042    1766.3633   0.05859751  0.058835316            4 
 2513000   0.85812427   -3.9390414     1772.155  0.058766249  0.058822961            4 
 2514000   0.87255014   -3.9552871    1772.7405  0.058762282   0.05881071            4 
 2515000   0.83724294   -3.9245065    1774.0409  0.058782005  0.058798588            4 
 2516000   0.84790192   -3.9544767    1776.1294  0.058827815  0.058786534            4 
 2517000   0.82538368   -3.9595631    1775.0059  0.058767247  0.058774349            3 
 2518000   0.84426589   -3.9493498    1774.5352   0.05872833  0.058762344            5 
 2519000   0.84005365   -3.9334476     1777.737  0.058810936  0.058750403            5 
 2520000   0.86256445   -3.9464243    1774.6809  0.058686537  0.058738254            9 
 2521000   0.84710598   -3.9480862    1782.6083  0.058925304  0.058726294            7 
 2522000   0.85806746    -3.926449    1778.6646   0.05877163  0.058714123            5 
 2523000   0.83662393   -3.9421274    1780.4252  0.058806487  0.058702177            3 
 2524000   0.84453846   -3.9331585    1783.1541  0.058873285  0.058690242            4 
 2525000   0.84678192   -3.9521131    1777.2967  0.058656657  0.058678327            9 
 2526000   0.86233998   -3.9337744    1782.0426  0.058790003  0.058666382            6 
 2527000   0.84849654   -3.9457168    1778.5365  0.058651119  0.058654506            9 
 2528000   0.84189953   -3.9431197     1781.449  0.058723924  0.058642543            3 
 2529000   0.82308916    -3.978888    1773.1248  0.058426412  0.058630342            3 
 2530000   0.85099671    -3.958982    1774.9756  0.058464281  0.058618335            4 
 2531000   0.84724987   -3.9811351    1774.4653  0.058424382  0.058606468            3 
 2532000   0.84879537   -3.9391273    1779.6739  0.058572731  0.058594502            5 
 2533000   0.87169384   -3.9429711    1781.7623  0.058618317  0.058582567            3 
 2534000   0.83767619   -3.9414446    1787.5667  0.058786066  0.058570449            6 
 2535000   0.83680816   -3.9500636    1777.1547    0.0584206  0.058558521            6 
 2536000   0.84497192   -3.9201555    1781.1729  0.058529604  0.058546308            3 
 2537000   0.85894021   -3.9285615    1786.6639  0.058686897  0.058534476            3 
 2538000    0.8526812   -3.9438483    1783.9662  0.058575196  0.058522605           11 
 2539000   0.84023099   -3.9877451    1780.1543  0.058427016  0.058510608            6 
 2540000   0.84687724    -3.929959    1789.4435  0.058708777   0.05849874            3 
 2541000   0.84303156   -3.9576361    1787.3095  0.058615687  0.058486998            4 
 2542000   0.84346819   -3.9535501    1797.2003  0.058916872   0.05847513           12 
 2543000   0.82967834     -3.93678    1788.2458  0.058600268  0.058463308            4 
 2544000   0.85094152   -3.9696012    1781.2422  0.058347817  0.058451387            4 
 2545000   0.83919832   -3.9808716    1785.7231  0.058471614   0.05843963            3 
 2546000   0.84328736   -3.9247584    1793.1377  0.058691336  0.058427971            2 
 2547000   0.85561583   -3.9489967    1792.0228  0.058631814  0.058416203            8 
 2548000    0.8451872   -3.9496761    1791.2332   0.05858298   0.05840452            3 
 2549000   0.84174102   -3.9413105    1787.2517  0.058429832  0.058392884            4 
 2550000   0.83807231   -3.9426555    1793.7955  0.058620769  0.058381358            2 
 2551000   0.83841511   -3.9541251    1788.3715  0.058420602  0.058369796            3 
 2552000    0.8541975    -3.951088    1793.0678  0.058551063  0.058358083            4 
 2553000   0.84958508   -3.9597532    1792.4652   0.05850846  0.058346433           10 
 2554000   0.85501161   -3.9633141    1789.4307  0.058386542  0.058334667            3 
 2555000   0.82382333   -3.9620641    1789.8218  0.058376443  0.058323095            7 
 2556000   0.83544268   -3.9679732     1791.119  0.058395898  0.058311583            2 
 2557000   0.84478539   -3.9392883    1797.0408  0.058566055  0.058299915            3 
 2558000   0.83654471   -3.9381569    1794.4778  0.058459664  0.058288336            5 
 2559000   0.84819993   -3.9589374    1795.0165   0.05845436  0.058276702            4 
 2560000   0.85297245   -3.9790135     1784.576  0.058091667  0.058265087            4 
 2561000   0.83718728    -3.955025    1793.2894  0.058352512  0.058253392            5 
 2562000   0.85595457   -3.9290995    1795.7924  0.058411152  0.058241789            5 
 2563000   0.83727981   -3.9309744    1793.5465  0.058315335  0.058230123            4 
 2564000   0.83988935   -3.9367797    1791.2443  0.058217768  0.058218373            5 
 2565000   0.83424674   -3.9477323    1798.3563   0.05842613  0.058206704            4 
 2566000   0.83890209   -3.9596681     1791.272  0.058173291   0.05819488            2 
 2567000   0.83748859   -3.9612833    1795.1997  0.058278135  0.058183145            3 
 2568000   0.84296591   -3.9784973    1792.0139  0.058152062  0.058171473            5 
 2569000   0.83169703   -3.9575824    1799.0167   0.05835658  0.058159742            3 
 2570000   0.83998425   -3.9416214    1794.0161  0.058171727  0.058147985            2 
 2571000   0.84885453   -3.9599369    1799.9166  0.058340353  0.058136294            5 
 2572000    0.8207905   -3.9376378     1802.328  0.058395802   0.05812457            8 
 2573000   0.85155015   -3.9576548    1797.3333  0.058211337  0.058112889            3 
 2574000   0.86570648   -3.9779431    1798.0353   0.05821145  0.058101257            5 
 2575000   0.84016422   -3.9295704    1800.6719   0.05827417  0.058089638            5 
 2576000    0.8288103    -3.976775    1798.0018  0.058165171  0.058077852            3 
 2577000   0.86158764   -3.9659187    1798.9658  0.058173774  0.058066208            3 
 2578000   0.85507505   -3.9502563    1803.7328  0.058305301  0.058054491            3 
 2579000    0.8665859   -3.9747075    1797.4166  0.058078601   0.05804263            5 
 2580000     0.850706   -3.9604291    1798.0866  0.058077731  0.058030834            2 
 2581000   0.84366003   -3.9746194    1805.5871    0.0582974   0.05801907            4 
 2582000    0.8419766   -3.9432815    1803.6643  0.058212764  0.058007356            3 
 2583000   0.83829751   -3.9652531    1801.2892  0.058113603  0.057995497            9 
 2584000   0.82336954   -3.9682716     1806.097  0.058246163  0.057983838            6 
 2585000   0.83198845   -3.9764644    1803.8077  0.058149828  0.057971939            6 
 2586000   0.84338756   -3.9686937    1809.9629  0.058325692  0.057960136            4 
 2587000   0.84762227   -3.9816923    1802.7103  0.058069525  0.057948478            4 
 2588000   0.85219392   -3.9380131    1808.9292  0.058247335  0.057936822            4 
 2589000   0.83918768   -3.9581258    1804.1791  0.058071941  0.057925141           10 
 2590000   0.84926869    -3.957061    1804.1424   0.05804834   0.05791339            2 
 2591000   0.84948259   -3.9620276    1803.5776  0.058007769  0.057901635            3 
 2592000   0.84267014   -4.0003113    1802.7291  0.057958111  0.057889911            3 
 2593000   0.82598841   -3.9373716    1801.5258  0.057897088  0.057878288            4 
 2594000   0.83160603   -3.9432232    1803.3571  0.057933601  0.057866608            4 
 2595000   0.84602758   -3.9383828    1804.9261  0.057961662  0.057854838            5 
 2596000   0.82742507   -3.9553088    1802.9396  0.057875566  0.057843116            4 
 2597000   0.84460772   -3.9531728    1806.7714  0.057976236  0.057831343            3 
 2598000   0.84201286   -3.9775133    1807.1605  0.057966402  0.057819524           10 
 2599000   0.83483975   -3.9613281    1808.9605  0.058001811  0.057807858            4 
 2600000   0.85153812   -3.9806535    1808.5006  0.057964764  0.057796179            5 
 2601000   0.84889263   -3.9674387    1808.9252  0.057956082  0.057784394            5 
 2602000   0.82591956   -3.9632488    1810.0862   0.05797099  0.057772786            5 
 2603000   0.83659056   -3.9593722    1812.0921  0.058012938  0.057761118            3 
 2604000   0.83029724   -3.9380203    1811.4504  0.057970124  0.057749389            3 
 2605000   0.82701705   -3.9443415    1810.5785  0.057919977   0.05773773            3 
 2606000   0.84461734   -3.9828337    1806.6796  0.057773076  0.057725984            4 
 2607000   0.82706011   -3.9658746    1812.2715  0.057929661  0.057714214            3 
 2608000   0.83688568   -3.9866789    1807.8969  0.057767666  0.057702592            9 
 2609000   0.85233796   -3.9797703    1811.7545  0.057868741  0.057690766            3 
 2610000   0.82641425   -3.9585941    1818.9201  0.058075354  0.057679228            3 
 2611000    0.8490216    -3.983635    1812.2626  0.057840628  0.057667606            7 
 2612000   0.84778682   -3.9742081    1811.9295  0.057807858  0.057655925            4 
 2613000   0.83912688   -3.9713539    1812.1935  0.057794154   0.05764424            9 
 2614000   0.82833837   -3.9726415     1814.843   0.05785651  0.057632732            3 
 2615000   0.84256468   -3.9561279    1811.0931  0.057714885  0.057621132            7 
 2616000   0.84575251   -3.9672684    1815.9565  0.057847746   0.05760951            3 
 2617000   0.84556948   -3.9921286    1813.5898  0.057750279  0.057597763            2 
 2618000    0.8297772   -3.9696598    1815.8562  0.057800362  0.057585893            4 
 2619000   0.84841142   -3.9892492    1808.8948  0.057556791  0.057574141            2 
 2620000   0.82497212     -3.97022    1814.4562   0.05771171  0.057562188            5 
 2621000   0.84586054   -3.9620631    1813.6651  0.057664538  0.057550475            3 
 2622000   0.82399171   -3.9609509    1811.0765  0.057560275   0.05753869            5 
 2623000   0.82631806    -3.964129    1814.6754  0.057652668  0.057526899            4 
 2624000   0.82652887   -3.9744106     1810.144  0.057486788  0.057515199            4 
 2625000   0.84270504   -3.9905392    1809.4544  0.057442997  0.057503474            3 
 2626000   0.82524654    -3.986064     1814.075  0.057567751  0.057491727            2 
 2627000   0.84287123   -3.9700707     1815.294  0.057584508      0.05748            7 
 2628000   0.83523302   -3.9679979     1813.328  0.057500254  0.057468306            4 
 2629000   0.81434518    -3.951163    1812.6254  0.057456112  0.057456437            5 
 2630000   0.83459486   -3.9948408    1813.9535  0.057476346  0.057444702            7 
 2631000   0.83067918   -3.9698067    1818.2629  0.057590995  0.057432813            9 
 2632000   0.82628927   -3.9455183    1823.4496  0.057733335  0.057421019            4 
 2633000   0.82727066   -3.9668137    1817.4576  0.057521761  0.057409242            7 
 2634000   0.81939432   -4.0060916    1814.5306   0.05740732  0.057397402            4 
 2635000   0.82358365   -3.9878057    1810.3068  0.057251956  0.057385604            3 
 2636000   0.82450109   -3.9579386     1820.884  0.057564618  0.057373836            5 
 2637000   0.82034544   -3.9581652    1819.0473  0.057484746  0.057362154            2 
 2638000   0.82814675    -3.974601    1817.2399  0.057405859  0.057350319            6 
 2639000   0.84601597    -3.968381    1812.9916  0.057249955  0.057338581            8 
 2640000   0.81182269   -3.9944881    1819.8951  0.057446183  0.057326762            6 
 2641000   0.82519571    -3.967714    1825.8796  0.057613267  0.057315061            6 
 2642000   0.82331661     -3.94408    1821.5917   0.05745621  0.057303333            2 
 2643000   0.83118102   -3.9783991    1823.9599  0.057509139  0.057291666            3 
 2644000   0.83193027   -3.9590115    1828.1121  0.057618258  0.057279988            4 
 2645000   0.83182051   -3.9881055    1822.2212  0.057410876  0.057268427            7 
 2646000   0.83380517   -3.9813243    1823.0264  0.057414538  0.057256898            2 
 2647000   0.83907887   -3.9626245    1824.8142  0.057449131  0.057245502            2 
 2648000   0.82832272   -3.9939314     1828.069  0.057529865  0.057233931            3 
 2649000   0.82838615   -3.9771759     1822.598  0.057336038  0.057222425            6 
 2650000   0.84481114   -3.9631309    1829.4603  0.057530197  0.057210913            5 
 2651000   0.83191612   -3.9519172    1828.5875  0.057481059  0.057199346            4 
 2652000   0.84979771   -3.9752422    1825.6209  0.057366167  0.057187754            4 
 2653000   0.82942084   -3.9852505    1825.2638  0.057333328  0.057176073            4 
 2654000   0.84144592   -3.9793194    1830.1847  0.057466236  0.057164503            5 
 2655000   0.81690686    -3.991702    1822.1439  0.057192212  0.057152873            8 
 2656000   0.82175505   -3.9596017    1823.6725  0.057218639  0.057141085            5 
 2657000    0.8148088   -3.9468132    1821.4519  0.057127458  0.057129474            6 
 2658000   0.84400422    -3.958782    1825.5886  0.057235658  0.057117872            2 
 2659000   0.84465874   -3.9916842    1827.0871  0.057261099  0.057106268            4 
 2660000   0.81185785   -4.0026314    1830.6073  0.057349852  0.057094537            8 
 2661000   0.82406996   -3.9843953    1826.3155  0.057193896  0.057083089            4 
 2662000   0.83463387    -4.000098    1829.7868  0.057281081  0.057071611            4 
 2663000   0.81078222   -3.9908342    1827.2491  0.057180158  0.057060055            4 
 2664000   0.83073859   -3.9697452    1833.7256  0.057361288  0.057048407            3 
 2665000   0.81525757   -3.9891531    1837.3336  0.057452584  0.057037058            3 
 2666000    0.8356116   -3.9863553    1834.7729  0.057350992  0.057025556            6 
 2667000    0.8176997   -3.9778141    1832.9393  0.057272193  0.057014028            5 
 2668000   0.81483959   -3.9868746    1829.4967    0.0571432  0.057002371            7 
 2669000   0.83225965   -3.9562332    1831.9893  0.057199616  0.056990866            8 
 2670000   0.82984323   -3.9784496    1827.0428  0.057023808  0.056979207            2 
 2671000   0.81339115   -4.0119719    1833.4595  0.057202657   0.05696759            2 
 2672000   0.83491989   -3.9650913    1834.6554  0.057218546  0.056955874            3 
 2673000   0.82071076   -3.9703064    1838.4154  0.057314359  0.056944363            6 
 2674000   0.84975162   -4.0275611    1831.1276  0.057065806  0.056932721            8 
 2675000   0.82564264   -3.9769931    1834.0046    0.0571341   0.05692106            8 
 2676000   0.80969395    -3.974351    1835.0924  0.057146623  0.056909404            7 
 2677000   0.81019298   -4.0021686     1834.414  0.057104159  0.056897858            3 
 2678000   0.81937039   -3.9725329    1830.7912  0.056970103   0.05688608            3 
 2679000   0.82538951    -4.012654    1833.4098  0.057030292  0.056874277            2 
 2680000   0.80970617   -4.0063641    1831.6194  0.056953338  0.056862453            9 
 2681000   0.81725834   -3.9887353    1828.0856  0.056822255  0.056850963            4 
 2682000   0.82836475   -3.9962487     1832.855  0.056949261    0.0568392            7 
 2683000   0.82116191   -3.9937947    1834.8807  0.056990952  0.056827536            4 
 2684000   0.84069341   -4.0004338    1838.3409   0.05707715  0.056815952            3 
 2685000   0.81566688    -3.988903    1834.4455  0.056934993  0.056804376            5 
 2686000   0.81319044    -3.991647    1835.8041  0.056955948  0.056792731            3 
 2687000   0.82298916   -3.9929156    1834.2647  0.056887008  0.056780975            3 
 2688000   0.80225772   -3.9821509    1839.9597  0.057042401  0.056769352            4 
 2689000   0.80927047   -3.9922505    1834.4045  0.056849031  0.056757681            6 
 2690000   0.82421959   -3.9846653    1837.8847  0.056935709  0.056746089            4 
 2691000   0.82223866   -3.9952514    1837.3284  0.056897323  0.056734526            5 
 2692000   0.82617571   -3.9886262    1836.7469  0.056858189  0.056722986            4 
 2693000   0.81383009   -4.0000854    1840.7467  0.056960846  0.056711501            8 
 2694000   0.83167309   -3.9859863    1840.7039  0.056938379  0.056699884            4 
 2695000   0.81831379   -3.9875692    1843.8443  0.057014357  0.056688274           14 
 2696000   0.83156522   -4.0066162    1837.4056   0.05679419  0.056676775            5 
 2697000   0.81246209   -3.9959475    1843.4615  0.056960251  0.056665227            3 
 2698000   0.81988766   -3.9888588    1839.2587  0.056809326   0.05665375            3 
 2699000   0.82271541   -3.9601201    1843.1468  0.056908325    0.0566424            3 
 2700000   0.83831175   -3.9600945    1846.5659  0.056992776  0.056631089            7 
 2701000    0.8072106   -4.0158933    1839.8909  0.056765732  0.056619633            7 
 2702000   0.82007165   -4.0070791    1842.1651  0.056814863  0.056608026            6 
 2703000   0.82362288   -3.9784919    1843.4676  0.056833999  0.056596417            6 
 2704000   0.83470384   -3.9692794    1840.1841  0.056711787  0.056584998            4 
 2705000   0.82082565   -3.9813958    1846.2194  0.056876754  0.056573631            4 
 2706000   0.81833228   -3.9902293    1845.6298  0.056837577  0.056562117            4 
 2707000   0.81298532   -3.9947736    1843.7174  0.056757708  0.056550459            4 
 2708000   0.81975825   -4.0059623    1842.0482  0.056685384  0.056538976            5 
 2709000   0.80757597   -4.0084884    1847.8023  0.056841465  0.056527521            4 
 2710000   0.81946261   -3.9645147    1852.0386  0.056950756  0.056516087            3 
 2711000     0.819769   -3.9913899    1840.0889  0.056562428  0.056504758            5 
 2712000   0.82817639   -4.0095175    1846.9593  0.056752683   0.05649343            9 
 2713000   0.80235396   -4.0046874     1841.218  0.056555412  0.056481943            4 
 2714000   0.81719212   -3.9958191    1850.0534  0.056805864  0.056470657            4 
 2715000   0.82316867   -3.9796101    1845.8131  0.056654791  0.056459119            5 
 2716000   0.82031319   -4.0170043     1844.761   0.05660165   0.05644766            5 
 2717000    0.8196473   -3.9969761    1843.4083  0.056539328  0.056436174            6 
 2718000   0.83234622    -4.024551    1846.1386  0.056602238  0.056424816            4 
 2719000   0.79627141   -4.0093784    1845.3119  0.056556084  0.056413322            3 
 2720000   0.81243942     -4.00429    1842.5407   0.05645039  0.056401863            3 
 2721000   0.83263911   -3.9823097    1847.4424  0.056579764  0.056390554            4 
 2722000   0.81304759   -4.0273927    1847.1322  0.056549479  0.056379183            5 
 2723000   0.82546404   -3.9850409    1848.2309  0.056562336  0.056367793            4 
 2724000   0.80537428   -3.9900151    1849.9605  0.056594485   0.05635641            4 
 2725000    0.8112122   -3.9622458      1853.53  0.056682875  0.056345056            4 
 2726000   0.81635303   -3.9963607    1850.8772  0.056580986  0.056333661            9 
 2727000    0.8166544   -4.0019181    1845.5271  0.056396747  0.056322036            3 
 2728000   0.80822549   -3.9872293    1853.4601  0.056618406  0.056310594            6 
 2729000   0.80895266   -3.9953554    1854.6984  0.056635469  0.056299113            7 
 2730000   0.83322983   -4.0140105    1847.9469  0.056408634  0.056287656            5 
 2731000   0.82502362   -3.9895747    1850.9758  0.056480404  0.056276135            4 
 2732000   0.82804166   -4.0059752    1853.1711  0.056526692  0.056264565            2 
 2733000   0.80957393    -3.984838    1857.1723  0.056628014  0.056253106            3 
 2734000   0.83084472   -3.9837646    1856.0165   0.05657207   0.05624164            3 
 2735000    0.7970668   -4.0110191    1851.9599  0.056427785  0.056230211            3 
 2736000   0.80893471   -4.0170752    1846.4604  0.056239656  0.056218788            3 
 2737000   0.80170718   -4.0265576    1850.6898   0.05634788  0.056207188            3 
 2738000   0.82380161   -4.0135934    1853.1161  0.056401146   0.05619566            4 
 2739000   0.80979729   -4.0122644    1852.7097  0.056368192  0.056184283            5 
 2740000    0.8267537   -3.9806419    1858.8434  0.056534168   0.05617289           11 
 2741000   0.81058217   -4.0072308    1853.3901  0.056347749  0.056161602            5 
 2742000   0.81074055   -4.0188279    1855.8846  0.056403008  0.056150155            6 
 2743000   0.81916127   -3.9950511    1859.0478  0.056478544  0.056138892            3 
 2744000   0.82782627    -4.026837    1856.1979  0.056371412  0.056127646            3 
 2745000   0.82266715   -4.0228964    1857.4779  0.056389737  0.056116179            3 
 2746000   0.81067356    -4.021482    1859.2142  0.056421892  0.056104768            2 
 2747000   0.82169109   -3.9896329    1858.4961   0.05637957  0.056093327            3 
 2748000   0.79931635   -4.0127412    1858.5212  0.056359814  0.056081946            2 
 2749000   0.82929345   -3.9989662    1860.8502  0.056409912  0.056070581            2 
 2750000   0.80444262   -4.0198116    1856.2047  0.056248628  0.056059123            6 
 2751000   0.81235114   -4.0089323    1852.6672  0.056121024  0.056047692            5 
 2752000   0.80258734   -3.9869657    1861.2069  0.056359219  0.056036295            2 
 2753000   0.82412221    -4.029966    1862.0228  0.056363447   0.05602499            3 
 2754000   0.79288891   -4.0042945    1857.3353  0.056201141  0.056013686            3 
 2755000   0.82823199   -4.0297985    1859.7735  0.056254493  0.056002326            4 
 2756000   0.81648886   -4.0136493     1861.101   0.05627422  0.055990808            4 
 2757000   0.80288689   -3.9935192    1853.6701  0.056029201  0.055979412            8 
 2758000   0.82083103   -4.0060536    1849.9056  0.055895143  0.055967827            5 
 2759000   0.81270711   -4.0089108    1858.4233  0.056132152  0.055956197            5 
 2760000    0.8100183   -4.0105903    1861.0785  0.056191983  0.055944706            6 
 2761000   0.81129078     -4.05192     1852.739  0.055919927  0.055933087            3 
 2762000   0.79437243   -3.9918261    1861.8338  0.056174082  0.055921405            5 
 2763000   0.80182989   -4.0098849    1857.7506  0.056030602  0.055909807            3 
 2764000   0.80053249   -4.0198463    1858.3313  0.056027836  0.055898184            5 
 2765000   0.81647662   -4.0095213    1860.3235  0.056067617  0.055886657            5 
 2766000   0.80136339   -4.0109199    1861.9793  0.056097232  0.055875157            4 
 2767000   0.79357842    -4.019831    1861.9636  0.056076486  0.055863596            2 
 2768000   0.80869868   -4.0277348    1854.4952  0.055831383  0.055852089            8 
 2769000   0.80268284   -4.0025603    1865.1413  0.056131614   0.05584043            8 
 2770000   0.80987878   -4.0006878    1863.2069  0.056053156  0.055828899            3 
 2771000   0.79744915   -4.0189879    1864.3113  0.056066141  0.055817374            3 
 2772000   0.80855565   -4.0390362    1866.8857  0.056123308  0.055805851            4 
 2773000   0.80950588   -4.0182842    1860.6858  0.055916752  0.055794235            6 
 2774000   0.82482127   -4.0231175    1861.1008   0.05590906  0.055782707            3 
 2775000   0.78743926   -3.9942696    1873.2295  0.056253138  0.055771074            4 
 2776000   0.82371476   -4.0128498     1861.436  0.055878844  0.055759511            3 
 2777000   0.78673183   -4.0211788    1863.0774  0.055907975  0.055747724            5 
 2778000    0.7917895   -4.0373641    1862.3164  0.055865024  0.055736093           11 
 2779000   0.81051671   -4.0092501    1862.2266  0.055842227  0.055724373            8 
 2780000   0.80247729   -3.9952411    1863.2229  0.055852004  0.055712699            6 
 2781000   0.80871119   -4.0157959    1862.5227  0.055810941  0.055701048            2 
 2782000   0.79994317   -3.9989831    1859.5419   0.05570159  0.055689364            5 
 2783000    0.7951072   -4.0007743    1863.3728  0.055796286   0.05567767            2 
 2784000   0.80154033   -4.0138151    1865.7532  0.055847497  0.055665957            3 
 2785000   0.80480477   -4.0107203    1868.4245  0.055907377  0.055654238            5 
 2786000   0.81150447   -4.0017722    1864.8455  0.055780254  0.055642472            8 
 2787000   0.82853207   -4.0133956    1869.7228  0.055906077    0.0556307            6 
 2788000   0.81722516   -4.0381658     1864.136  0.055719035  0.055618936            4 
 2789000     0.781304   -4.0050721    1865.4638  0.055738731  0.055607126            8 
 2790000   0.78936493   -4.0265181    1865.4909  0.055719561  0.055595248            7 
 2791000   0.82051595   -4.0344306    1863.7463  0.055647506  0.055583207            5 
 2792000   0.82462073   -4.0575695    1857.9765  0.055455365  0.055571197            4 
 2793000   0.82507308   -4.0074423     1864.193  0.055620986  0.055559369            3 
 2794000   0.80377311   -3.9829286    1863.3604  0.055576246  0.055547398            5 
 2795000   0.81526779   -4.0117445    1865.1784  0.055610566  0.055535527            4 
 2796000   0.79616496   -4.0238705    1861.2385   0.05547325  0.055523609           10 
 2797000   0.81272593   -4.0480682    1862.5572  0.055492706  0.055511696            4 
 2798000   0.79970549   -4.0362483    1859.9568  0.055395426  0.055499716            6 
 2799000   0.80459861    -4.038449    1869.6659  0.055664699  0.055487854            4 
 2800000   0.79862086   -4.0216469    1869.2169  0.055631456  0.055476035            3 
 2801000   0.79194197   -4.0019397    1866.1968  0.055521743  0.055464308            5 
 2802000   0.82066836   -4.0341323    1866.4333  0.055508961  0.055452508            5 
 2803000   0.79313388   -4.0372154    1865.0797  0.055448914  0.055440593            2 
 2804000   0.80316334   -4.0243389    1859.6002  0.055266292  0.055428772            2 
 2805000   0.79242109   -4.0497555    1867.2998  0.055475337  0.055416916            8 
 2806000   0.80848932   -4.0362197    1866.3218  0.055426522  0.055405122           10 
 2807000   0.80280135   -4.0274559    1869.5922  0.055503867  0.055393352           10 
 2808000   0.82007972   -3.9990763    1872.6654  0.055575303   0.05538164            7 
 2809000   0.80653402   -4.0137474     1872.112  0.055539101  0.055369887           10 
 2810000   0.79879494    -4.036512    1875.0358  0.055606045  0.055358057            4 
 2811000   0.78878722   -4.0060385    1871.2253  0.055473298  0.055346338            6 
 2812000    0.8003342   -4.0099614    1866.9907   0.05532808  0.055334546            5 
 2813000   0.80884881   -4.0379629    1874.8404  0.055540951  0.055322749           11 
 2814000   0.81316984   -4.0265227    1867.9426  0.055316945  0.055310907            4 
 2815000   0.80380942   -4.0342332    1865.1542  0.055214749  0.055299116            4 
 2816000   0.79017504   -4.0252743    1869.4643  0.055322688   0.05528719            9 
 2817000    0.8071251   -4.0253525    1872.9565  0.055406358  0.055275315            3 
 2818000   0.80496276   -4.0126883    1870.6022  0.055317075  0.055263501            7 
 2819000   0.80726095    -4.036948    1865.6822   0.05515201  0.055251595            3 
 2820000   0.79427563   -4.0203109    1870.2763  0.055268212  0.055239704            6 
 2821000    0.8002733   -4.0413749    1869.8737  0.055236729   0.05522796            9 
 2822000   0.80082796   -4.0366016    1872.5702  0.055296781  0.055216061            2 
 2823000   0.79831783   -4.0278143    1875.0684   0.05535094  0.055204246            8 
 2824000   0.81167277   -4.0281553    1879.5684  0.055464128  0.055192456            4 
 2825000   0.80765543   -4.0066279    1885.0203   0.05560532  0.055180745            8 
 2826000   0.82431476   -4.0494318    1876.4776  0.055333735  0.055168917            8 
 2827000   0.78712759    -4.027049    1873.8784  0.055237544  0.055157199            4 
 2828000   0.79265699   -4.0179233     1876.806  0.055304279  0.055145476            5 
 2829000   0.77845403      -4.0377    1876.1729   0.05526608  0.055133687            5 
 2830000   0.79591939   -4.0317864    1871.2758   0.05510235  0.055121912            5 
 2831000   0.79357261   -4.0270889    1874.4373  0.055175948  0.055110118            7 
 2832000   0.80231889   -4.0304874    1873.2559    0.0551217  0.055098292            2 
 2833000   0.79107671    -4.034318      1875.94  0.055181197  0.055086504            6 
 2834000   0.78892534   -4.0162231    1878.5684  0.055239015  0.055074702            9 
 2835000   0.81857877   -4.0362292    1877.5834  0.055190576  0.055062912            4 
 2836000   0.78778917   -4.0484139    1871.7336  0.054999225  0.055051206            4 
 2837000   0.79622128    -4.051823    1872.0259  0.054988424  0.055039467            3 
 2838000   0.83065947   -4.0322664    1874.2105  0.055033196   0.05502768            3 
 2839000   0.80259326   -4.0047191    1881.8987  0.055239483  0.055015998            5 
 2840000   0.79854833   -4.0435769    1875.1629  0.055022385  0.055004184            3 
 2841000   0.81343076   -4.0179767    1882.8813  0.055229417  0.054992449            4 
 2842000   0.80452493   -4.0422627     1878.276  0.055074948  0.054980695            3 
 2843000   0.79023909   -4.0539158    1878.5245  0.055062859  0.054968877            7 
 2844000   0.79841858   -4.0282844    1878.0864  0.055030662  0.054957153            4 
 2845000   0.80516116   -4.0426315    1876.1009   0.05495316  0.054945359            4 
 2846000   0.78095896   -4.0500146    1877.7014  0.054980715  0.054933621            4 
 2847000   0.80037652   -4.0388112    1879.0632  0.055001264   0.05492191            6 
 2848000   0.78542943   -4.0406234    1876.0884  0.054894909  0.054910194            3 
 2849000   0.80564906    -4.045731    1877.0728  0.054904433  0.054898474            6 
 2850000   0.79305391   -4.0398954    1877.9439  0.054910641  0.054886695            4 
 2851000   0.80622185   -4.0371671    1879.3275  0.054931823  0.054874927            3 
 2852000   0.79542166   -4.0222994    1879.8311  0.054927275  0.054863167            4 
 2853000   0.80403778   -4.0103846    1883.5434  0.055016455  0.054851504            5 
 2854000   0.80513311   -4.0467801    1884.0015  0.055010555  0.054839712            6 
 2855000    0.7846284   -4.0757235    1875.1505  0.054732939  0.054827811           13 
 2856000   0.82007166   -4.0361567    1882.0868  0.054916166  0.054815931            8 
 2857000   0.77885838   -4.0466198    1877.5037  0.054763264   0.05480417            6 
 2858000   0.76698919   -4.0227002    1883.6189  0.054922406   0.05479241            5 
 2859000   0.80283723   -4.0276898    1880.4695    0.0548114  0.054780769            5 
 2860000   0.80594848   -4.0311593     1887.591  0.054999737  0.054769218            3 
 2861000   0.81024816    -4.034109    1882.2974  0.054826324  0.054757578            3 
 2862000   0.79441106   -4.0228199    1891.5978  0.055077971   0.05474602           10 
 2863000   0.78493222   -4.0405992    1886.5588  0.054912062  0.054734412            3 
 2864000   0.79383082   -4.0440084     1886.503  0.054891264  0.054722869            2 
 2865000   0.80792576   -4.0463747    1893.3878  0.055072362  0.054711265            7 
 2866000   0.79274141   -4.0410421    1886.0312  0.054839243   0.05469967            4 
 2867000   0.80152272   -4.0432686    1886.6844  0.054839101  0.054688076            7 
 2868000   0.78282299   -4.0495531     1886.329  0.054809653  0.054676536            3 
 2869000   0.82745414   -4.0510161    1888.7938  0.054862142  0.054664953            3 
 2870000   0.78087613    -4.049581    1890.1296  0.054881812  0.054653309            5 
 2871000   0.77262206   -4.0571057    1883.1978  0.054661495  0.054641689            5 
 2872000   0.79991052   -4.0668273    1886.0116  0.054724107  0.054630072            2 
 2873000   0.80693021   -4.0555523    1893.4208  0.054919967  0.054618576            4 
 2874000   0.79288062   -4.0533052    1888.6097  0.054761357  0.054606992            5 
 2875000   0.77791945   -4.0236489    1893.0547  0.054871151  0.054595502            8 
 2876000   0.78794936   -4.0387015    1895.2566  0.054915872  0.054583927            4 
 2877000    0.7975053   -4.0310774    1891.7342  0.054794756   0.05457252            4 
 2878000   0.79040778   -4.0111363     1896.548  0.054915102  0.054561063            7 
 2879000   0.78939883   -4.0400953    1889.1503    0.0546819   0.05454961            5 
 2880000   0.79497052   -4.0333458    1898.7283  0.054940055  0.054538186            4 
 2881000   0.78524044   -4.0518761    1895.3099  0.054822108  0.054526822            4 
 2882000   0.76924785   -3.9845101    1905.3486  0.055093357  0.054515415            3 
 2883000     0.785345   -4.0312124    1902.4611  0.054990783  0.054503967            6 
 2884000   0.79828238   -4.0215919    1888.8838  0.054579399  0.054492429            3 
 2885000   0.80062729   -4.0381273    1892.9638  0.054678331  0.054480958            4 
 2886000   0.78927237   -4.0078483    1895.8691  0.054743276  0.054469405            4 
 2887000   0.78498286   -4.0405833    1892.1881   0.05461806  0.054457801            6 
 2888000   0.80986447   -4.0445759    1887.8437   0.05447379  0.054446143            6 
 2889000    0.7979651   -4.0468337    1891.5638  0.054562242  0.054434514            4 
 2890000   0.79533959   -4.0461682    1890.7913  0.054521086  0.054422768            4 
 2891000   0.79389431   -4.0610727    1888.6062  0.054439242  0.054411259            5 
 2892000    0.7880466   -4.0559015     1890.824  0.054484324  0.054399494            4 
 2893000   0.77039437   -4.0626446    1895.8808  0.054611154  0.054387892            5 
 2894000   0.78774346   -4.0603299    1891.0572  0.054453387  0.054376252           16 
 2895000    0.7946115   -4.0507707    1894.3092  0.054528187  0.054364585            3 
 2896000   0.77607118   -4.0448466    1888.3131  0.054336818  0.054352881           10 
 2897000   0.77441161   -4.0413534    1891.0348  0.054396354  0.054341308            3 
 2898000   0.77243295   -4.0694625    1889.8153  0.054342515  0.054329761            4 
 2899000   0.78200133   -4.0280878     1893.746  0.054436759  0.054318123            7 
 2900000   0.79017665   -4.0688857    1898.1337  0.054544073  0.054306615            9 
 2901000   0.77976673   -4.0421669    1899.0573  0.054551801  0.054295069            5 
 2902000   0.77315424   -4.0472723    1896.0349  0.054446213  0.054283595            4 
 2903000   0.79409135   -4.0583939    1895.9007  0.054423606  0.054272052            6 
 2904000   0.77215069   -4.0516787     1899.267  0.054501463  0.054260545            7 
 2905000   0.77980369   -4.0557114    1899.6872  0.054494755  0.054249102            4 
 2906000   0.79777504   -4.0648932    1904.6833  0.054619272  0.054237532            8 
 2907000   0.80805487   -4.0668964     1900.364  0.054476665  0.054226023            4 
 2908000   0.78725029   -4.0609527    1900.1818  0.054452711  0.054214588            4 
 2909000    0.7995277    -4.056363    1903.5404  0.054530205   0.05420315            7 
 2910000   0.78982107   -4.0480024    1895.8194  0.054290362  0.054191688            4 
 2911000   0.76581672   -4.0758257    1904.6401  0.054524221  0.054180203            4 
 2912000   0.78553974   -4.0661162    1902.6436  0.054448364  0.054168738            6 
 2913000   0.80848413    -4.073117    1902.9798  0.054439289   0.05415723           15 
 2914000   0.78812885   -4.0576954    1903.2376   0.05442798  0.054145684            7 
 2915000   0.79364209   -4.0326742    1903.5178  0.054417318  0.054134259            3 
 2916000   0.78118718   -4.0402684    1907.4703   0.05451161  0.054122787            4 
 2917000   0.77778565   -4.0593325    1905.0675  0.054424281  0.054111431            2 
 2918000   0.77042429   -4.0586012    1909.3629  0.054528298  0.054100056            8 
 2919000   0.77674995   -4.0598753    1898.1647  0.054189926  0.054088604            7 
 2920000     0.783179   -4.0844785    1901.1242  0.054255827  0.054077056           10 
 2921000   0.78434995   -4.0365952    1908.1256  0.054436997  0.054065622            4 
 2922000    0.7777554   -4.0590292    1901.8086  0.054238211  0.054054338            4 
 2923000   0.77756086   -4.0809756    1904.8476  0.054306295  0.054042944            4 
 2924000   0.79415209   -4.0613669    1908.6725  0.054396732  0.054031528            5 
 2925000    0.7719408   -4.0245389    1909.3715  0.054398049  0.054020352            6 
 2926000   0.78395814   -4.0921106    1904.4551  0.054239436  0.054009061            6 
 2927000   0.79459465   -4.0413114    1913.4565  0.054477182  0.053997838            5 
 2928000   0.77551659   -4.0652784     1902.948  0.054159494  0.053986538            3 
 2929000   0.77677725   -4.0414562    1910.9938  0.054369914  0.053975188            6 
 2930000   0.78576591   -4.0710027    1905.4267  0.054193024  0.053963734           10 
 2931000   0.79275528   -4.0337935    1913.1309  0.054393578   0.05395242            2 
 2932000   0.78159179   -4.0469091    1907.7532  0.054222181  0.053941195            6 
 2933000   0.78417944   -4.0367062    1909.5912  0.054255915  0.053929983            4 
 2934000   0.79731951    -4.051558    1902.5888  0.054038538  0.053918663            8 
 2935000   0.77338149   -4.0785991    1900.7169  0.053966976  0.053907345            8 
 2936000   0.78541338   -4.0332751    1907.3816  0.054137761  0.053895976            9 
 2937000   0.78555474   -4.0481233    1906.5317  0.054095212  0.053884615            3 
 2938000   0.78120592   -4.0443272    1912.7228  0.054252406  0.053873185            4 
 2939000   0.78193375   -4.0640923    1911.2946  0.054193451  0.053861707           11 
 2940000   0.77452358   -4.0837741    1903.4445  0.053952508  0.053850147            4 
 2941000   0.77797529   -4.0610481    1909.7558  0.054112994  0.053838708            6 
 2942000   0.77074249   -4.0741891    1905.9218  0.053986002  0.053827185            5 
 2943000   0.76823949   -4.0710385    1907.9838  0.054026045  0.053815707            6 
 2944000   0.77641403   -4.0857873    1908.1321  0.054011892  0.053804312            6 
 2945000   0.79026397   -4.0545502    1913.7908  0.054153672  0.053792836            3 
 2946000   0.79717858   -4.0707436    1913.8327  0.054136477  0.053781437            4 
 2947000   0.78236372   -4.0643047    1912.1179  0.054069617  0.053769942            5 
 2948000   0.77046926   -4.0490554    1911.0927  0.054022294   0.05375851            4 
 2949000    0.7764406   -4.0870438    1912.0749  0.054031732  0.053746892            4 
 2950000   0.76366863   -4.0603854    1908.1478  0.053902479  0.053735335            8 
 2951000    0.7780963   -4.0493608    1911.0166  0.053965227   0.05372389            6 
 2952000   0.77455991   -4.0907403    1908.6405  0.053879869  0.053712391            4 
 2953000   0.77647203   -4.0522655    1911.9861  0.053956037  0.053700926            8 
 2954000   0.78437928   -4.0585001    1912.5777  0.053954459   0.05368943            7 
 2955000   0.77574723   -4.0449267    1912.8525  0.053943951  0.053677993            2 
 2956000   0.78827381   -4.0389324    1912.4922  0.053915546  0.053666465            5 
 2957000   0.77235799   -4.0616712    1909.0033  0.053798988  0.053655007            3 
 2958000   0.79044472   -4.0805198    1908.7661  0.053774119  0.053643506           12 
 2959000   0.79875097   -4.0588879    1906.6394  0.053696052   0.05363185            6 
 2960000   0.76392886   -4.0655724    1910.0527  0.053774005  0.053620252            4 
 2961000   0.77814878   -4.0612201    1916.6718  0.053942132  0.053608742            4 
 2962000   0.77422621    -4.068808     1920.439  0.054029908   0.05359724            5 
 2963000   0.78639315   -4.0513902    1912.2927   0.05378256   0.05358586            4 
 2964000   0.77830803   -4.0756786    1913.7727  0.053806025  0.053574308            5 
 2965000   0.78924678   -4.0781547    1913.8359  0.053789653  0.053562911            3 
 2966000   0.78580037   -4.0713908    1917.3269  0.053869601  0.053551452            3 
 2967000   0.76629051   -4.0713439    1913.8657  0.053754233  0.053540154            4 
 2968000   0.76991464   -4.0568212    1917.0705  0.053826103  0.053528778            6 
 2969000   0.78125206    -4.053351    1910.1212  0.053612922  0.053517393            5 
 2970000   0.77544816    -4.087137    1912.7676  0.053669123  0.053506005            4 
 2971000   0.77867722   -4.0458579    1919.5339  0.053840848  0.053494652            8 
 2972000   0.78482705   -4.0752499    1914.6165  0.053684849  0.053483276            7 
 2973000   0.79323811   -4.0973747    1911.6116  0.053582564  0.053471844            7 
 2974000   0.76463893   -4.0777128     1911.762  0.053568764  0.053460287            3 
 2975000    0.7766197   -4.0681344    1913.3146  0.053594246  0.053448848            8 
 2976000   0.77938993   -4.0694795     1921.711  0.053811353   0.05343739            5 
 2977000   0.77606473   -4.0659313     1915.881  0.053630081  0.053426009            6 
 2978000   0.77727436   -4.0658048     1922.687  0.053802525  0.053414559            7 
 2979000   0.77264365   -4.0745182    1917.3416  0.053634933  0.053403158           10 
 2980000   0.75982501   -4.0689959    1921.0467  0.053720545   0.05339165            4 
 2981000   0.76844854    -4.073349    1917.0554  0.053590949  0.053380144            5 
 2982000   0.75599423    -4.058364    1914.5438  0.053502789  0.053368695            5 
 2983000   0.77373274   -4.0790137    1911.4499  0.053398421  0.053357196            5 
 2984000   0.76630061   -4.0830674    1917.3728  0.053545933  0.053345622            5 
 2985000   0.78005225    -4.068603    1927.2008  0.053802367  0.053334151            2 
 2986000   0.76253465   -4.0568085     1918.253  0.053534635  0.053322603            6 
 2987000   0.78942535     -4.07769    1917.5656  0.053497532  0.053311117            7 
 2988000   0.78828093   -4.0691612    1920.9691   0.05357455  0.053299621           16 
 2989000   0.77033396   -4.0795272    1918.9753   0.05350104   0.05328806            3 
 2990000   0.78158483   -4.0992163    1920.7614  0.053532925  0.053276486           10 
 2991000   0.77851553   -4.0727883    1918.3379  0.053447507  0.053264858            4 
 2992000   0.77403018   -4.0729615     1917.209  0.053398202  0.053253418            3 
 2993000   0.75855272   -4.0690224    1922.3401  0.053523224  0.053241873            9 
 2994000   0.78499316   -4.0792019    1917.0857  0.053359098  0.053230408            7 
 2995000   0.78664636   -4.0562223    1918.7075  0.053386407   0.05321895           10 
 2996000    0.7766849   -4.0564656    1922.3664  0.053470359  0.053207351            9 
 2997000   0.78090132   -4.0561979     1923.708  0.053489824  0.053195871           10 
 2998000   0.77911268   -4.0697234    1918.4571  0.053326026  0.053184351            5 
 2999000   0.77491865   -4.0851595    1920.9695  0.053378057  0.053172767            5 
 3000000   0.78376818   -4.0732031    1916.9141  0.053247613  0.053161216           12 
 3001000   0.77594897   -4.0846885    1922.6504  0.053389158  0.053149668            6 
 3002000   0.78372206   -4.0839238    1925.4949  0.053450337  0.053138233            5 
 3003000    0.7763244   -4.1028369    1915.2373  0.053147887  0.053126728            5 
 3004000   0.76601626   -4.0789687    1921.6543  0.053308209  0.053115099           10 
 3005000   0.77415232    -4.056819     1923.583  0.053343955  0.053103575            5 
 3006000   0.76641119   -4.0762442    1929.8526  0.053500016  0.053092136            5 
 3007000   0.77195305   -4.0678128    1930.8501  0.053509869  0.053080726            5 
 3008000   0.76461643   -4.0574654    1920.6253  0.053208811  0.053069238            6 
 3009000   0.77931956   -4.0801436    1927.7292  0.053387869   0.05305776            6 
 3010000   0.76079743    -4.102511    1924.1809  0.053271895  0.053046277            9 
 3011000    0.7561105   -4.0879845    1926.1561  0.053308871  0.053034693            3 
 3012000   0.77595066   -4.0795164     1931.275  0.053432796  0.053023168            7 
 3013000   0.76443726   -4.0850131    1921.3455  0.053140434  0.053011768            3 
 3014000   0.77148875   -4.0640904    1926.7821  0.053273116  0.053000298            8 
 3015000   0.74585955   -4.1010442    1916.0955  0.052960076  0.052988932            6 
 3016000   0.75735432   -4.0731676    1930.0608  0.053328381  0.052977459            4 
 3017000   0.75226805   -4.0971096    1926.6232  0.053215756  0.052966059            3 
 3018000   0.75939772   -4.1047355    1924.4438  0.053137945  0.052954392            4 
 3019000   0.75384558   -4.0900437    1929.0336  0.053247035  0.052942791            8 
 3020000   0.77497226   -4.0989769    1924.5653  0.053106106  0.052931392            5 
 3021000   0.77670466   -4.0773991    1930.9169  0.053263735  0.052919955           14 
 3022000   0.76216717   -4.0779573     1927.285  0.053145958  0.052908448            8 
 3023000   0.77663999   -4.1057339     1923.491  0.053023791  0.052896937            5 
 3024000   0.77012467   -4.0834385    1926.0457  0.053076657  0.052885435            5 
 3025000   0.77369226    -4.083804    1921.7697  0.052941314  0.052873966            2 
 3026000    0.7661105   -4.0817768    1930.4415  0.053162631  0.052862479            5 
 3027000   0.78837366   -4.0815561    1930.5099  0.053146953  0.052851056            3 
 3028000   0.77205341   -4.0874654    1924.0892  0.052952696  0.052839639            5 
 3029000   0.76104652   -4.1002948       1929.1  0.053073072  0.052828219            4 
 3030000   0.76977755   -4.0806516    1933.6897  0.053181786  0.052816945            8 
 3031000   0.75144023    -4.107141    1927.6636   0.05299856  0.052805635            7 
 3032000   0.76495511    -4.074966    1924.9882  0.052907549  0.052794296            3 
 3033000   0.76353731   -4.0954438    1927.9722  0.052972091  0.052782781           11 
 3034000   0.76173942   -4.1173312    1928.0069  0.052955583  0.052771275            4 
 3035000   0.77592052   -4.1037461    1928.9016  0.052962701  0.052759801            6 
 3036000   0.76864107   -4.0922521    1929.9388  0.052973727   0.05274839            3 
 3037000   0.78107256   -4.1056912    1929.6058  0.052947146  0.052737062            5 
 3038000   0.78058423   -4.0963524    1933.4789  0.053035958  0.052725679            6 
 3039000   0.76590488   -4.0890411    1941.2315  0.053231094  0.052714371            7 
 3040000    0.7715668   -4.1003384    1929.1861  0.052883392  0.052702929            5 
 3041000   0.76615806   -4.0827595    1933.4413  0.052982608  0.052691426            6 
 3042000    0.7512878   -4.0798464    1930.7446  0.052891316  0.052680106            3 
 3043000   0.75653996   -4.0821231    1930.3356  0.052862735  0.052668684            5 
 3044000   0.77856768   -4.1366947    1926.1765  0.052731508  0.052657279            5 
 3045000   0.75824946   -4.0731218    1935.7321  0.052975702  0.052645744            3 
 3046000   0.78107818   -4.0954817    1926.7197  0.052711746  0.052634258            5 
 3047000   0.76059936   -4.0871025    1931.4831  0.052824722  0.052622858            8 
 3048000    0.7529516   -4.1027466    1928.4422  0.052724251  0.052611477            5 
 3049000   0.75523079   -4.1023774    1934.1413  0.052862723  0.052599934            3 
 3050000   0.76207173   -4.0910851    1934.4438  0.052853655  0.052588532           14 
 3051000    0.7653459   -4.0816822    1938.7725  0.052954565  0.052577202            4 
 3052000    0.7518266    -4.071487    1937.4879  0.052902139  0.052565854            3 
 3053000   0.77612286   -4.1003655     1932.414  0.052746314  0.052554578            4 
 3054000   0.76760782   -4.1066215    1934.5551  0.052787466  0.052543095            9 
 3055000   0.76258007   -4.0820215    1933.3441  0.052737156  0.052531701            5 
 3056000   0.76564422   -4.0837364    1936.7573   0.05281297  0.052520217            5 
 3057000   0.76333012   -4.1044622    1938.3905  0.052840218  0.052508877            6 
 3058000   0.75793171   -4.1131762    1935.6253  0.052747584  0.052497397            4 
 3059000   0.77879701   -4.0887197    1937.7641  0.052788604  0.052486004            8 
 3060000    0.7620769   -4.0847981    1936.3791  0.052733637  0.052474613            4 
 3061000    0.7734627   -4.0909764     1936.154   0.05271028  0.052463142            5 
 3062000    0.7718316    -4.088837    1939.1566  0.052774783  0.052451688            5 
 3063000   0.77834545   -4.1091973    1934.7054   0.05263645  0.052440395            7 
 3064000   0.76679097   -4.0902241    1941.0205  0.052791028  0.052429069            3 
 3065000   0.79029678     -4.11155    1938.8637  0.052715164  0.052417728            6 
 3066000   0.77136107    -4.086027    1939.9993  0.052728835  0.052406428            5 
 3067000   0.76980305   -4.0743065    1937.1061   0.05263303  0.052395143            7 
 3068000   0.75643211   -4.1017958    1941.7406  0.052741758  0.052383993            8 
 3069000   0.76279394   -4.0825349     1948.034  0.052895459  0.052372703            4 
 3070000   0.75922805   -4.0993592    1943.6386   0.05275892  0.052361434            5 
 3071000   0.76420908   -4.1154109    1940.4157  0.052654284  0.052350066            4 
 3072000   0.76446709   -4.1195682    1939.1504  0.052602822  0.052338671            7 
 3073000    0.7542538   -4.0987121    1945.4474  0.052756465  0.052327329            4 
 3074000   0.75206137   -4.1003741    1944.2229  0.052706108  0.052316008            5 
 3075000   0.76694445   -4.1285811    1942.3655  0.052638632  0.052304647           10 
 3076000   0.77153252   -4.1029934    1943.7321  0.052658541  0.052293261            7 
 3077000   0.75285753   -4.1017366    1938.7462  0.052506396   0.05228191            5 
 3078000   0.76640297   -4.1042822    1937.4849  0.052455191  0.052270489            5 
 3079000   0.76619948   -4.1062661    1940.4367  0.052518045  0.052259029            9 
 3080000    0.7720473   -4.1048457    1942.8147  0.052565332  0.052247554            7 
 3081000   0.75394573   -4.1263161    1935.7289  0.052356619  0.052236074            6 
 3082000   0.77378881   -4.1026887    1938.8471  0.052423942  0.052224671            3 
 3083000   0.76190941   -4.0969807    1942.3713  0.052502197  0.052213186            3 
 3084000   0.76138655   -4.0838781    1942.5313  0.052489496  0.052201644            6 
 3085000   0.75450743   -4.1144455    1942.8026  0.052479811   0.05219017            4 
 3086000   0.75059381   -4.0971398    1939.9172  0.052384889  0.052178819            8 
 3087000   0.73824513   -4.1326173    1935.3138  0.052243652  0.052167313            8 
 3088000   0.76820851   -4.1005287    1941.5316  0.052394526  0.052155783            5 
 3089000    0.7487196   -4.1001694    1940.9364  0.052361509  0.052144325           16 
 3090000   0.76587994   -4.1093914    1941.3485  0.052355676  0.052132761           11 
 3091000   0.75661279   -4.1072788    1937.4869  0.052234631  0.052121229            5 
 3092000    0.7523226   -4.1085466    1936.3349  0.052186689   0.05210962            5 
 3093000   0.76162746   -4.0784351    1950.5007  0.052551479  0.052098118            3 
 3094000    0.7628495   -4.1001922    1948.6389  0.052484349    0.0520867            4 
 3095000   0.78056118   -4.1120133    1947.9238  0.052448138  0.052075332           11 
 3096000    0.7424018   -4.0756212    1947.5417  0.052420911  0.052063909           12 
 3097000   0.77584836   -4.1082064    1951.8345  0.052519495  0.052052577            4 
 3098000   0.75420933   -4.1083308    1943.9821  0.052291319  0.052041186            5 
 3099000   0.75572075   -4.1224916    1944.7328  0.052294632  0.052029759            9 
 3100000   0.75379294   -4.0818062    1946.2395  0.052318265  0.052018394            5 
 3101000    0.7547807   -4.0914331    1947.7229  0.052341258  0.052007034            4 
 3102000   0.77090035   -4.0963276    1941.8395  0.052166331   0.05199566            9 
 3103000   0.77074573   -4.1343276    1943.9393  0.052205912  0.051984098            6 
 3104000   0.74286675   -4.1201614    1942.8385  0.052159538  0.051972485            6 
 3105000    0.7581094   -4.1157151    1943.1062  0.052149926  0.051961091            3 
 3106000    0.7389175   -4.1087879    1954.3231  0.052434082  0.051949629            4 
 3107000   0.76222151   -4.1171408     1946.499  0.052207355   0.05193822            4 
 3108000   0.76497446   -4.0935515    1947.2452  0.052210565  0.051926913           13 
 3109000   0.75456546   -4.1133319    1947.3249  0.052195907  0.051915567            7 
 3110000   0.74691844   -4.1117634    1945.1182  0.052119995  0.051904187            4 
 3111000   0.74416225   -4.1429858    1951.0121  0.052261119   0.05189284            3 
 3112000   0.74422399    -4.109456    1946.0631  0.052111801  0.051881589            5 
 3113000   0.76243151   -4.0973385    1944.2557  0.052046678   0.05187028            5 
 3114000   0.74241134   -4.0936433    1949.6447  0.052174178  0.051858886            6 
 3115000   0.74838763   -4.0678521    1953.8373  0.052269591  0.051847509            4 
 3116000   0.75211743   -4.1103663    1946.4563  0.052055422   0.05183616            3 
 3117000     0.749854   -4.1212669    1939.8426  0.051861901  0.051824749            4 
 3118000   0.76567715   -4.1107638     1946.904  0.052033997  0.051813267            4 
 3119000   0.75746127   -4.0892235    1951.7145  0.052145839  0.051801889           11 
 3120000   0.74627358   -4.1022084    1950.2748  0.052090672  0.051790553           10 
 3121000    0.7484047    -4.109831    1943.6686  0.051897592  0.051779123            5 
 3122000   0.75792896   -4.1113326    1949.6499  0.052040623  0.051767779            6 
 3123000   0.76622437   -4.1022753    1946.9182  0.051951067  0.051756409            4 
 3124000   0.76002592   -4.1196614    1946.9702  0.051935825  0.051745005            4 
 3125000   0.75255308   -4.1235337    1954.7422  0.052126458  0.051733566            7 
 3126000   0.74237642   -4.1095069    1958.0718  0.052198545  0.051722176            4 
 3127000   0.74277912   -4.0874059    1953.1325  0.052050221  0.051710681            3 
 3128000   0.75232748   -4.1464778    1951.9276  0.052001482  0.051699255            8 
 3129000   0.74630942   -4.1040776    1947.6653  0.051871345  0.051687813           13 
 3130000    0.7422947    -4.130321    1948.9437   0.05188881  0.051676387            3 
 3131000   0.75333115   -4.1403795    1945.8337  0.051789462  0.051664879            5 
 3132000   0.73717069   -4.1112843    1947.0825  0.051806155  0.051653476            7 
 3133000   0.75194474   -4.1230651    1953.3445   0.05195618   0.05164208           10 
 3134000     0.746182   -4.1049542    1945.6804  0.051735812  0.051630684            5 
 3135000   0.73879668   -4.1364641    1951.4104   0.05187162  0.051619296            9 
 3136000   0.75333114   -4.1113827    1956.9349  0.052001884   0.05160793            6 
 3137000   0.74133509   -4.1066199    1956.3696   0.05197029  0.051596524            9 
 3138000   0.74668928   -4.1275233    1950.7721   0.05180508  0.051585125           10 
 3139000   0.73971523    -4.101128    1957.2345  0.051960138  0.051573738            4 
 3140000   0.74958395     -4.12663    1953.4617  0.051843463  0.051562442            6 
 3141000   0.75001246   -4.1156147    1956.2483  0.051900888  0.051550991            4 
 3142000    0.7403098   -4.1319038     1949.581  0.051707539  0.051539559            5 
 3143000   0.74032246   -4.1320133    1959.2331  0.051947002  0.051528199            4 
 3144000   0.76486112   -4.1373432    1962.0655  0.052005552  0.051516983            6 
 3145000   0.74259374   -4.1265188     1954.459  0.051787466  0.051505721            2 
 3146000   0.74956673    -4.144165    1953.1033  0.051735095  0.051494363            4 
 3147000   0.74474724   -4.1069667    1960.3204  0.051909766  0.051483085           10 
 3148000   0.74594155   -4.0929626    1961.3963  0.051921758   0.05147182            6 
 3149000   0.74811842    -4.121431     1958.935  0.051840133  0.051460526            6 
 3150000   0.76193029   -4.1309643    1959.0871    0.0518277   0.05144923            9 
 3151000    0.7374543   -4.1105651    1956.8725  0.051752683  0.051437918            6 
 3152000   0.74217564   -4.1097005    1960.6699  0.051836661   0.05142655            7 
 3153000   0.73766422   -4.1509631    1957.9927  0.051749464  0.051415223            5 
 3154000   0.74995899   -4.1237021    1950.9165  0.051546093  0.051403844            6 
 3155000   0.75149861   -4.1411916    1957.3299  0.051699151   0.05139254            9 
 3156000   0.74209216   -4.0992402     1960.464  0.051765526  0.051381265            5 
 3157000   0.73221425   -4.1143563    1959.7529  0.051730359  0.051369953            2 
 3158000   0.74618231   -4.1275712    1957.5239   0.05165516  0.051358557            4 
 3159000   0.74761534   -4.1156811    1953.7552  0.051539389  0.051347213           10 
 3160000   0.74841764    -4.131012    1956.3668  0.051591952  0.051335818            4 
 3161000   0.73542379   -4.1248914    1954.1233  0.051516486  0.051324503            6 
 3162000   0.75256417    -4.111338    1965.4416  0.051798481  0.051313151            5 
 3163000   0.75228699   -4.1440778    1959.6243  0.051628842  0.051301956            4 
 3164000   0.75322579   -4.1501752    1957.0599  0.051544982  0.051290688            5 
 3165000   0.73976892   -4.1410629    1960.7224  0.051625129  0.051279477            7 
 3166000   0.74668879   -4.1199376     1956.944  0.051509371  0.051268085            6 
 3167000   0.74799176     -4.12205    1953.6728   0.05140703  0.051256776            4 
 3168000   0.74575074   -4.1128992    1966.3794  0.051725046  0.051245445            6 
 3169000   0.74776336   -4.1291151    1958.9132  0.051512391  0.051234153            7 
 3170000   0.75725205   -4.1363677    1958.2909  0.051479782   0.05122268           11 
 3171000   0.73649151   -4.1268375    1959.8376  0.051504193  0.051211274            5 
 3172000   0.75109149   -4.1337118    1960.9613   0.05151748  0.051199957            8 
 3173000   0.73472756   -4.1296357    1960.4677  0.051488278  0.051188574            7 
 3174000   0.73320533   -4.1098641    1962.5796  0.051527505  0.051177253            4 
 3175000   0.70645096   -4.1454009    1958.4075  0.051401772  0.051165836            4 
 3176000   0.75370846   -4.1243965    1964.6666  0.051549818  0.051154569            4 
 3177000   0.75901334   -4.1377379    1966.6996  0.051586917  0.051143363            6 
 3178000    0.7400346    -4.120448    1962.0375  0.051448434  0.051132156           14 
 3179000   0.73130428   -4.1376489    1961.4939  0.051418001  0.051120849            7 
 3180000   0.75444284   -4.1187637    1959.9104  0.051360334  0.051109428            5 
 3181000    0.7326111   -4.1176404    1966.4197  0.051514716  0.051098076            9 
 3182000   0.73317626   -4.1231774    1961.4797  0.051369151  0.051086737            3 
 3183000   0.73487894    -4.116442    1966.5044  0.051484563  0.051075344            9 
 3184000   0.75225703   -4.1165481    1969.1227  0.051536921  0.051064083            4 
 3185000   0.73218663   -4.1280011    1971.8511  0.051592128  0.051052825            5 
 3186000   0.74772789   -4.1171119    1964.3726  0.051380325  0.051041528            2 
 3187000   0.74074249   -4.1246369     1963.475  0.051340733  0.051030214            3 
 3188000   0.75665128   -4.1416852    1959.8308  0.051229371   0.05101892            7 
 3189000   0.72722271   -4.1439431    1954.6642  0.051078296   0.05100753            4 
 3190000    0.7558779   -4.1355827    1962.2506  0.051260464  0.050996178            3 
 3191000   0.74278547   -4.1101027    1965.8662  0.051338823   0.05098495           14 
 3192000   0.74863045   -4.1497412    1963.1389  0.051251536  0.050973605            4 
 3193000   0.75701175   -4.1345743    1969.1907  0.051393431   0.05096239            4 
 3194000   0.73771367   -4.1473828      1956.79    0.0510538  0.050951057            8 
 3195000   0.74224708   -4.1294019    1962.9086  0.051197407  0.050939715            5 
 3196000   0.75021301    -4.150675    1969.4897  0.051352984  0.050928504            8 
 3197000   0.72642735   -4.1364626    1967.6931  0.051290093  0.050917227            6 
 3198000   0.71228575    -4.164227    1960.1459  0.051077388  0.050905766           12 
 3199000   0.73249367   -4.1475535    1965.1696  0.051192289  0.050894375           10 
 3200000   0.73069957    -4.161523    1960.9812   0.05106722  0.050883039            5 
 3201000   0.74638755   -4.1408539    1963.9441  0.051128401  0.050871688           13 
 3202000   0.75049544   -4.1095708     1967.652  0.051208931    0.0508604            4 
 3203000   0.74784439   -4.1316371    1963.6266  0.051088214    0.0508491            6 
 3204000   0.74382214   -4.1413415    1964.7479  0.051101433  0.050837731            6 
 3205000   0.73565551   -4.1334923    1960.5749  0.050976986  0.050826254            7 
 3206000   0.76030298   -4.1336974    1965.1312  0.051079517   0.05081483            9 
 3207000   0.74840029   -4.1445487    1960.9973  0.050956171  0.050803387            2 
 3208000   0.73240964   -4.1495546    1961.3882  0.050950441  0.050791897            7 
 3209000   0.73684974   -4.1467089    1964.6066  0.051018142   0.05078039            4 
 3210000   0.73277932    -4.121842    1968.4214  0.051101283   0.05076891            7 
 3211000   0.72874978   -4.1434785    1962.5516  0.050933032  0.050757423            6 
 3212000   0.73255237    -4.130591    1967.4559  0.051044413  0.050745974            6 
 3213000   0.73521855   -4.1432288    1964.9355  0.050963157  0.050734485            5 
 3214000   0.72948144   -4.1229234    1964.9282  0.050947112  0.050723099            4 
 3215000   0.73512861   -4.1580231    1962.7521  0.050874861  0.050711563            4 
 3216000   0.75675866   -4.1641075    1960.7998  0.050808452  0.050700011            4 
 3217000   0.73871986   -4.1215815    1961.1396   0.05080146   0.05068853            5 
 3218000   0.74946285   -4.1517788    1961.5073  0.050795197  0.050676956            6 
 3219000   0.72729158   -4.1575066    1969.0793  0.050975441  0.050665381            6 
 3220000   0.72999826   -4.1162972    1965.5076  0.050867173  0.050653841            3 
 3221000   0.74084374   -4.1153514    1964.2265  0.050818236  0.050642293            5 
 3222000   0.74223567   -4.1430601     1965.359  0.050831754  0.050630783            3 
 3223000   0.73653415    -4.157754    1961.3758  0.050712995  0.050619295           10 
 3224000   0.74676039   -4.1450564    1970.0316  0.050920999  0.050607722            3 
 3225000   0.72921295     -4.13331    1968.9355  0.050876887  0.050596249            6 
 3226000   0.72657106   -4.1322579    1961.4261  0.050667135  0.050584814            2 
 3227000   0.73905567   -4.1289433    1969.6562  0.050863967  0.050573325            3 
 3228000   0.73888094    -4.161359    1960.4584  0.050610759  0.050561795           12 
 3229000   0.71955456   -4.1526715    1965.1415  0.050715947  0.050550265            7 
 3230000   0.72997435   -4.1449132    1960.6353  0.050583985  0.050538743            9 
 3231000    0.7204504   -4.1331536     1967.103  0.050735143  0.050527264            6 
 3232000   0.73017589   -4.1385373    1968.8854  0.050765402  0.050515817            7 
 3233000   0.75390691   -4.1191292    1965.4892  0.050662161  0.050504375            9 
 3234000   0.73137113   -4.1386312    1966.6966  0.050677608  0.050492849           12 
 3235000   0.73230679   -4.1510843    1965.2828  0.050625523  0.050481332            5 
 3236000   0.74275641   -4.1359728    1963.6564  0.050567995   0.05046971            4 
 3237000   0.72381037   -4.1451253    1967.3313  0.050646979  0.050458105            7 
 3238000   0.73008667   -4.1718122    1966.5581  0.050611439  0.050446462            8 
 3239000   0.73410101   -4.1497608    1968.4783  0.050645217  0.050434972            6 
 3240000   0.72783059    -4.130224    1969.2758  0.050650097  0.050423491            3 
 3241000   0.74862418   -4.1503492    1967.7579   0.05059544  0.050412067            6 
 3242000   0.73221608   -4.1348296    1969.7364   0.05063069  0.050400553            5 
 3243000   0.73434035   -4.1340593    1965.2639   0.05050015   0.05038906            7 
 3244000   0.73934148   -4.1534859    1967.7435  0.050548281  0.050377645            8 
 3245000   0.74078148   -4.1511831    1970.2582  0.050597282   0.05036627            7 
 3246000    0.7327502   -4.1451321    1973.4216  0.050662908  0.050354762            3 
 3247000   0.72515586   -4.1645209    1968.4599  0.050519965  0.050343357            6 
 3248000   0.73736661   -4.1414628    1967.4148  0.050477596  0.050331894            5 
 3249000   0.72608681    -4.165373     1966.662  0.050442752  0.050320443            3 
 3250000   0.73745738   -4.1366272    1974.7175  0.050633782  0.050309058            5 
 3251000   0.72667859   -4.1582778    1969.5797   0.05048651  0.050297632           12 
 3252000   0.72473642   -4.1544754    1962.1307  0.050280102  0.050286137            3 
 3253000   0.72597908    -4.134162    1975.6611  0.050611259  0.050274714           13 
 3254000   0.73139579   -4.1574932    1977.1982  0.050635069  0.050263323           11 
 3255000   0.72977183   -4.1664314    1967.2473  0.050364753  0.050251937            4 
 3256000   0.72906381    -4.164915    1971.3391   0.05045401  0.050240499            7 
 3257000   0.72276209   -4.1547872    1976.9499  0.050582076  0.050229123            5 
 3258000   0.73187039   -4.1345053    1973.4705  0.050477555  0.050217743            4 
 3259000   0.70619168   -4.1507956     1974.143  0.050479262  0.050206363            5 
 3260000   0.74230637   -4.1656273    1971.1511  0.050387299  0.050194915            8 
 3261000   0.73419528   -4.1411316    1972.4492  0.050405018  0.050183514           13 
 3262000   0.73820205   -4.1449435    1972.0397  0.050379106  0.050172156           12 
 3263000   0.71749703   -4.1514092     1979.736   0.05056022  0.050160709            4 
 3264000   0.73284054   -4.1618191     1977.995  0.050500281   0.05014935           10 
 3265000   0.73536228   -4.1573188    1969.8114  0.050275941   0.05013794            4 
 3266000   0.73027718   -4.1901195    1971.8064  0.050311451  0.050126559            4 
 3267000   0.73094093   -4.1357216    1972.3009  0.050308666  0.050115153            6 
 3268000   0.72013903   -4.1504893    1976.9123  0.050410859  0.050103791            5 
 3269000   0.74755426   -4.1786272    1976.6537  0.050388847  0.050092372            5 
 3270000   0.71411285   -4.1263158    1977.1882  0.050387059  0.050080982            4 
 3271000   0.71589446   -4.1489134    1978.9357  0.050416176  0.050069608            6 
 3272000   0.72300381   -4.1364263    1976.2575  0.050332557  0.050058222            3 
 3273000   0.74082111   -4.1608285    1973.4552  0.050245829  0.050046754            5 
 3274000   0.73349818   -4.1566174    1977.5869  0.050335646  0.050035354            3 
 3275000   0.72419605   -4.1668502    1981.0836  0.050409251  0.050023942            6 
 3276000   0.74574249   -4.1515278    1980.1781   0.05037083  0.050012535            6 
 3277000   0.73008585   -4.1725595    1978.3262  0.050308367  0.050001111            7 
 3278000   0.72740444   -4.1375078    1977.2823  0.050266482  0.049989757           10 
 3279000   0.73997615   -4.1730519     1980.038  0.050321186  0.049978369           10 
 3280000   0.72496535   -4.1606142    1971.7963   0.05009645  0.049967027            7 
 3281000   0.72371475   -4.1518109    1982.7576  0.050359584  0.049955706            5 
 3282000   0.70483232   -4.1736977    1978.5309  0.050236921  0.049944329            7 
 3283000   0.73889001     -4.16536    1978.0406  0.050209175  0.049932939            5 
 3284000   0.73046825   -4.1749761    1973.5027  0.050078734  0.049921596            6 
 3285000   0.70495498   -4.1514735    1980.2765  0.050235325  0.049910188            4 
 3286000   0.72682855   -4.1495851    1977.9949  0.050162175   0.04989888            4 
 3287000   0.74559853   -4.1710302    1978.9646  0.050171499  0.049887515            6 
 3288000   0.71825897   -4.1536524    1979.8501  0.050178682  0.049876155            8 
 3289000   0.72041186   -4.1513027    1978.8473  0.050138018  0.049864713            5 
 3290000     0.729487   -4.1503716    1975.5781  0.050039972  0.049853203            8 
 3291000   0.72112293    -4.170494    1977.3287  0.050069096  0.049841788            4 
 3292000   0.73809996   -4.1516072    1973.2595  0.049950878  0.049830363            7 
 3293000   0.74230686      -4.1615    1978.9862  0.050080631  0.049818979            5 
 3294000   0.72169231   -4.1612937    1975.7655  0.049983949  0.049807548           12 
 3295000   0.73969759   -4.1769508    1983.7049  0.050169572  0.049796167            6 
 3296000   0.74506135   -4.1533097    1974.4789  0.049921089  0.049784818            6 
 3297000   0.73133053   -4.1653533    1979.6101  0.050035642  0.049773386            7 
 3298000      0.72262   -4.1628434    1979.1728   0.05000942  0.049762038            9 
 3299000   0.72084278   -4.1641667    1982.0211  0.050066211   0.04975061            4 
 3300000   0.72927711   -4.1778024    1982.3653   0.05005973  0.049739231            4 
 3301000   0.73957069   -4.1516525    1975.2863  0.049865857  0.049727914            4 
 3302000   0.71361018   -4.1547131     1976.341  0.049877373  0.049716506            5 
 3303000   0.73061455   -4.1653208    1977.3262  0.049887128  0.049705124            6 
 3304000   0.70841651    -4.141708    1985.6875  0.050082918  0.049693754           12 
 3305000    0.7268738   -4.1620848    1982.6885  0.049992147  0.049682429            4 
 3306000   0.71321736   -4.1482666    1983.7421  0.050003581  0.049671094            5 
 3307000   0.71140185   -4.1483076    1977.9884  0.049843474  0.049659763            7 
 3308000   0.71560475   -4.1638262    1984.8799  0.050002013  0.049648359            5 
 3309000    0.7104403    -4.162968     1983.523  0.049952731  0.049636992            4 
 3310000   0.71071837   -4.1627251    1982.1838  0.049903922   0.04962572            9 
 3311000   0.72329053   -4.1812624    1984.9416   0.04995826  0.049614365            3 
 3312000   0.72778949   -4.1826456    1988.7222    0.0500383  0.049602986            8 
 3313000   0.71734232   -4.2081658    1978.3747  0.049762922  0.049591641            8 
 3314000    0.7150735   -4.1400964     1987.667  0.049981568  0.049580248            7 
 3315000   0.71043123   -4.1492204    1981.7604  0.049818008  0.049569004            7 
 3316000   0.71473065   -4.1895366    1978.7982  0.049728543  0.049557609            8 
 3317000   0.71168835   -4.1518687    1986.2905   0.04990178  0.049546303            4 
 3318000   0.71330537   -4.1825538    1978.2526  0.049684867  0.049534947           10 
 3319000    0.7177589   -4.1602388    1982.4738  0.049775882  0.049523597            6 
 3320000    0.7206764   -4.1696128    1980.6353  0.049714743  0.049512318            3 
 3321000   0.72273466   -4.1635092    1990.2547  0.049941149  0.049500986            8 
 3322000   0.72301647   -4.1778138     1979.181   0.04964833  0.049489744            7 
 3323000   0.72564472   -4.1602808    1989.6731  0.049896507  0.049478461           10 
 3324000   0.71846615   -4.1817108    1980.9696  0.049663298  0.049467107            8 
 3325000   0.72206752   -4.1837035    1983.1026  0.049701821  0.049455816           14 
 3326000   0.72462052   -4.1782237    1985.5667  0.049748615  0.049444477            7 
 3327000   0.71556599    -4.159926    1988.1721   0.04979892  0.049433225            4 
 3328000   0.72071126   -4.1983648    1985.2022  0.049709591  0.049421867            7 
 3329000   0.71365806   -4.1892683    1982.6677  0.049631214  0.049410456            3 
 3330000   0.72616726   -4.1502006    1990.4912  0.049812092  0.049399177            5 
 3331000   0.71591312   -4.1639653    1993.1345  0.049863266  0.049387918            6 
 3332000    0.7159244    -4.178621     1986.408  0.049680071  0.049376646            4 
 3333000   0.71162278   -4.1824095    1988.7309  0.049723245  0.049365517            4 
 3334000   0.72500086   -4.1956075    1990.8561  0.049761451  0.049354257            5 
 3335000   0.71666776   -4.1775496    1986.8584  0.049646636  0.049343056            4 
 3336000   0.73660135    -4.174211     1986.179  0.049614783   0.04933187            3 
 3337000   0.70884624   -4.1625446    1991.0041   0.04972041  0.049320734            8 
 3338000   0.72617807   -4.1665386    1993.6382  0.049771276  0.049309621            5 
 3339000   0.71600185   -4.1729884    1992.3307  0.049723738   0.04929849            6 
 3340000   0.72393164   -4.1954932    1990.2187  0.049656156  0.049287313            5 
 3341000   0.72280814   -4.1823766    1992.1408  0.049689235  0.049276124            3 
 3342000   0.70608488   -4.1615592    1992.7091  0.049688538  0.049265025            7 
 3343000    0.7331211   -4.1849404    1998.4249  0.049816157   0.04925398           14 
 3344000    0.7026751    -4.181621    1993.5326   0.04967934  0.049242907            6 
 3345000   0.70026138   -4.1704081    1993.3453  0.049659823  0.049231718            4 
 3346000   0.71376703   -4.1902823    1991.5792  0.049600995  0.049220478            4 
 3347000    0.7168707   -4.1856365    1989.1964   0.04952685  0.049209237            5 
 3348000    0.7296947   -4.1723618     1994.452  0.049642872  0.049198155            3 
 3349000   0.70875104   -4.1655641    1992.6998  0.049584448  0.049187009            6 
 3350000   0.72029177   -4.1846747     1986.107  0.049405646  0.049175853            7 
 3351000   0.70151298   -4.1549068    1990.3499  0.049496417  0.049164537            4 
 3352000   0.72061731    -4.179296    1989.9717  0.049472247  0.049153335            6 
 3353000   0.71825996   -4.1555178    1988.4901  0.049420669  0.049142194            6 
 3354000   0.71971743   -4.1879032    1991.3364  0.049476654  0.049131023            6 
 3355000   0.72876385    -4.177723    1990.6272  0.049444292  0.049119794            5 
 3356000   0.71573497   -4.1903012    1992.9186  0.049486457   0.04910858            7 
 3357000    0.6974491   -4.1550822    1991.4907  0.049436271  0.049097385            4 
 3358000   0.70527224    -4.176494    1990.5079  0.049397159  0.049086234            6 
 3359000   0.70417692   -4.1897816    1987.7387  0.049313752  0.049075071            4 
 3360000        0.701    -4.179405    1995.9413  0.049502513  0.049063798           10 
 3361000   0.72518228   -4.1913113    1986.7207  0.049259166  0.049052578            6 
 3362000   0.71809917   -4.1713271    1993.5981  0.049414985  0.049041402            5 
 3363000   0.70310309   -4.2020957    1995.7141  0.049452724  0.049030188            5 
 3364000   0.72703048   -4.1972608    1997.8798  0.049491672  0.049019001            7 
 3365000   0.71460058   -4.2004921    1985.2771  0.049164862  0.049007738            9 
 3366000   0.69727512   -4.1907199    1995.5962  0.049405728  0.048996552            5 
 3367000   0.71205371   -4.1798696    1994.6713  0.049368164  0.048985341            5 
 3368000   0.71598167   -4.1918668    1990.7844  0.049257335  0.048974216            7 
 3369000   0.71765512   -4.2155836    1994.3572  0.049331088  0.048962966           11 
 3370000    0.7101432   -4.1740968    1989.9675  0.049207901  0.048951772            3 
 3371000    0.7237401   -4.1931595    1997.0542   0.04936849  0.048940605           20 
 3372000   0.71501898   -4.1913501    1999.2272  0.049407552  0.048929443            4 
 3373000   0.70540085   -4.1899088    2001.4683  0.049448272  0.048918239            6 
 3374000   0.72014178   -4.1894152    1995.4452  0.049284855  0.048907063            8 
 3375000   0.71493717    -4.186499    1990.3478   0.04914439  0.048895936            9 
 3376000   0.72490173   -4.2174445    1990.6933  0.049138362  0.048884761            5 
 3377000   0.71825944   -4.2117303    1993.1482  0.049184389  0.048873519           23 
 3378000   0.70891312   -4.1840554    1995.4143  0.049225732  0.048862261            9 
 3379000   0.71663527   -4.1782392    1995.8299  0.049221415  0.048851032            8 
 3380000   0.71306351   -4.1748375    1998.8842  0.049282156  0.048839829           11 
 3381000   0.71430359   -4.2058816    1996.8824  0.049218238  0.048828596            3 
 3382000   0.71017016   -4.2055102    1998.6583  0.049247445  0.048817418            6 
 3383000   0.72803495   -4.1828509    1992.8452  0.049089694  0.048806247            6 
 3384000   0.70113229   -4.1943784     1998.951  0.049225546  0.048795096            5 
 3385000   0.70413911   -4.1791855    2002.8353  0.049306629  0.048783939            6 
 3386000   0.70401263   -4.1468806     1991.582  0.049015112  0.048772814            4 
 3387000   0.72110566   -4.1581347    1995.9357  0.049107757  0.048761637            4 
 3388000   0.71460734   -4.1959133    1994.1834  0.049050162  0.048750413            6 
 3389000   0.70582441   -4.2200702    1992.8052  0.049001801  0.048739069            6 
 3390000   0.71223486   -4.1665002    2002.7562  0.049231963  0.048727811            2 
 3391000   0.70086523   -4.1976394    1998.8254  0.049120843  0.048716577            8 
 3392000   0.71494391   -4.1837884      2000.35  0.049143818  0.048705328            7 
 3393000   0.69940857   -4.2118148    1999.5056  0.049108595  0.048694153            4 
 3394000   0.70894781    -4.166884    2002.5495  0.049168863   0.04868295            6 
 3395000   0.71230625   -4.1953341    1998.7458  0.049061016  0.048671786           10 
 3396000    0.7117908   -4.1918757    2000.3835  0.049086757  0.048660605           12 
 3397000   0.71916202   -4.1832297    2000.8931  0.049084808  0.048649411            7 
 3398000   0.71111514   -4.1866397    1998.0547  0.049000754  0.048638267            3 
 3399000   0.72428992   -4.1769066    2000.9695  0.049057799  0.048627189            4 
 3400000   0.70379861   -4.1931613    1998.7162  0.048988143     0.048616            5 
 3401000   0.70933494   -4.2199072    1998.2042  0.048961193  0.048604697            5 
 3402000   0.70938764   -4.2065962    1998.7692  0.048960641  0.048593509            7 
 3403000   0.73344283   -4.1993513     1993.017  0.048805391  0.048582292           10 
 3404000   0.70653013   -4.1942073    1999.6759   0.04895407  0.048571137            4 
 3405000   0.71938334   -4.1964986    2002.7423   0.04901474  0.048559985            3 
 3406000   0.71334593    -4.180832     2000.626  0.048948571  0.048548823            5 
 3407000   0.71723711   -4.1974264    1996.5951   0.04883561  0.048537665           11 
 3408000   0.69833632    -4.202078    2000.6456  0.048920324  0.048526455            4 
 3409000   0.70492743     -4.17538    1993.4191  0.048729322  0.048515288            4 
 3410000   0.70254703    -4.186246    2004.3338  0.048981765  0.048504138            4 
 3411000   0.70073593   -4.1939282     2001.061  0.048887448  0.048492974            5 
 3412000   0.70386493   -4.2068718    1996.6387  0.048765112  0.048481778           10 
 3413000   0.69623752    -4.196798     1998.303   0.04879146  0.048470579            9 
 3414000   0.71006002   -4.1857302    1999.5661     0.048808  0.048459476            9 
 3415000   0.68346017   -4.2031319     2001.641  0.048844338  0.048448272            7 
 3416000   0.70371719   -4.1877834    2003.4812  0.048874931  0.048437152            4 
 3417000   0.69726363   -4.2043911    2003.1789  0.048853255  0.048426001            6 
 3418000   0.71082323   -4.2220369     2002.775  0.048829115  0.048414844           10 
 3419000   0.71115822   -4.2083186    1996.9882  0.048673789  0.048403708            4 
 3420000   0.70651727   -4.2081921    2001.4953   0.04876938  0.048392636            4 
 3421000   0.72292144   -4.1777752    1999.6287  0.048709654  0.048381558           15 
 3422000   0.71454771   -4.1923147    2008.1893   0.04890389  0.048370483            3 
 3423000   0.70575066   -4.1827453    2004.0844  0.048789668  0.048359475            8 
 3424000   0.71933605   -4.1966777     2002.091  0.048726902  0.048348376            7 
 3425000   0.70189825   -4.2040631    1996.4776  0.048576097  0.048337226            7 
 3426000   0.69878328   -4.1960919    2006.1256  0.048796594  0.048326116            9 
 3427000   0.70534737   -4.1959195    2003.6378  0.048721862  0.048315035            4 
 3428000   0.71482935   -4.2120819    2000.7612  0.048637719  0.048303901            6 
 3429000   0.71841842   -4.2003999    2000.9895  0.048629084  0.048292797            6 
 3430000   0.70991911   -4.2021299    1997.5678  0.048531773  0.048281608            6 
 3431000   0.70773311   -4.1880017    2005.9171  0.048720419  0.048270439            4 
 3432000   0.71076389   -4.2058571    2009.2385   0.04878687  0.048259335            5 
 3433000   0.70339936   -4.1981788    2009.1899   0.04877148  0.048248324            7 
 3434000   0.69288795   -4.1950143    2003.9976  0.048631276  0.048237261            7 
 3435000   0.70735878   -4.1980465    2006.3532  0.048674266  0.048226116            9 
 3436000   0.69159211   -4.2253389    2005.4179  0.048637415  0.048215007           14 
 3437000   0.69711545   -4.2261191    1999.7883  0.048486768  0.048203961            6 
 3438000   0.69423693   -4.2230986    2010.5187  0.048732758  0.048192878            8 
 3439000   0.69228711   -4.1952321    2005.8084  0.048604449  0.048181861            6 
 3440000   0.70796594   -4.2042269    2012.4692  0.048751676  0.048170809            6 
 3441000    0.7030321   -4.1886594    2010.1695  0.048681816  0.048159806            6 
 3442000   0.70746469   -4.1935111    2009.4407  0.048650026  0.048148831           11 
 3443000   0.70453981   -4.2099634     2003.646  0.048495644  0.048137856            7 
 3444000    0.7167498    -4.179928    2005.2712  0.048520886  0.048126853            5 
 3445000   0.70497431   -4.1918792    2005.4943    0.0485122  0.048115875            4 
 3446000   0.70362747   -4.2051183    2011.8753  0.048652431  0.048104829           17 
 3447000   0.69780883   -4.2218958    2010.7548  0.048611227  0.048093845           10 
 3448000   0.70495338   -4.2048485    2006.6844  0.048498754  0.048082872           10 
 3449000   0.71330521   -4.2052622    2004.6418  0.048435339  0.048071873            5 
 3450000    0.6973067   -4.2120739    2005.7658   0.04844845    0.0480608            6 
 3451000   0.69417025   -4.2014243    2009.4287  0.048522861  0.048049814            8 
 3452000    0.6774109   -4.1980529    2015.0175   0.04864372  0.048038898            4 
 3453000   0.69526445   -4.1876479    2010.3594  0.048517216  0.048028024           11 
 3454000   0.70553699   -4.2121547    2009.3715  0.048479337  0.048017134            6 
 3455000   0.69376814   -4.2132369    2009.3812  0.048465538  0.048006191            9 
 3456000   0.68140267   -4.2121787    2012.7438  0.048532597  0.047995238            5 
 3457000   0.70201908   -4.2322706    2011.3626  0.048485263  0.047984345           11 
 3458000   0.69446496   -4.2233581    2017.6171  0.048621965  0.047973484            4 
 3459000   0.69864049   -4.2378801    2010.6121  0.048439148  0.047962521            5 
 3460000   0.70018093      -4.1998    2010.4773    0.0484219  0.047951581           15 
 3461000   0.69936697   -4.2210938    2012.3938  0.048454054  0.047940729            9 
 3462000   0.70107446   -4.2302178    2005.1941  0.048266755  0.047929743           10 
 3463000   0.69290396   -4.2231008    2014.5401   0.04847772  0.047918721            7 
 3464000   0.69880829   -4.1896099    2014.1357  0.048453995   0.04790785            3 
 3465000   0.70258181   -4.1820256    2016.8972  0.048506426  0.047896962            6 
 3466000   0.69080577   -4.2313272    2014.2916  0.048429785  0.047886079            5 
 3467000    0.6875616   -4.2255367    2007.8014  0.048259816  0.047875128            4 
 3468000   0.69105678   -4.2178998    2013.8172  0.048390455  0.047864154            4 
 3469000   0.68870899    -4.196204    2020.9772  0.048548505  0.047853301            4 
 3470000   0.68174232   -4.1986524    2013.5321  0.048355719  0.047842346            5 
 3471000   0.68566434   -4.2300729    2014.0186  0.048353466  0.047831373           12 
 3472000   0.70031241   -4.2339678    2007.1565  0.048174839  0.047820403            7 
 3473000    0.6831768   -4.2110394    2012.7241  0.048294561  0.047809442            3 
 3474000   0.69139433   -4.2331384    2016.2859  0.048366098  0.047798479            6 
 3475000   0.71463543   -4.2260839    2015.8951  0.048342809  0.047787575            9 
 3476000   0.69428542   -4.1990999    2014.3184  0.048291101  0.047776653            6 
 3477000   0.68778059   -4.2169722    2011.7797  0.048216367   0.04776573           11 
 3478000   0.70086176    -4.248952     2014.761  0.048273937  0.047754762            7 
 3479000    0.6806372   -4.1996745    2020.4797  0.048397041  0.047743889            5 
 3480000   0.69126182   -4.2077442     2017.716  0.048316954  0.047733035            7 
 3481000   0.67898952   -4.1858407    2020.1043  0.048360249   0.04772212            6 
 3482000   0.67747634   -4.2023977    2008.4929   0.04806847  0.047711242            3 
 3483000   0.70431955   -4.1884865    2019.5876  0.048320116  0.047700375            5 
 3484000   0.69335286   -4.2354216    2005.8184  0.047976903  0.047689466            5 
 3485000   0.69518014   -4.2115663    2013.3511  0.048143258  0.047678529            4 
 3486000   0.69997672   -4.2199557    2010.5184  0.048061732   0.04766754            4 
 3487000   0.71422916   -4.2072174    2019.1539  0.048254324   0.04765658            8 
 3488000    0.7057261   -4.2283597    2006.6697  0.047942224  0.047645647            5 
 3489000    0.7010022   -4.1981121    2009.2244    0.0479895   0.04763471            7 
 3490000   0.69782412    -4.201797    2012.4159  0.048051956   0.04762383            9 
 3491000   0.70061052   -4.2354405    2017.3983  0.048157124  0.047612918            7 
 3492000   0.67967768   -4.2010712    2016.2031  0.048114813  0.047601897            6 
 3493000   0.69394655   -4.2310998    2014.5978  0.048062739  0.047590909            5 
 3494000   0.67741989   -4.2236005    2016.3226  0.048090121  0.047579897            5 
 3495000   0.68654562   -4.2126978    2014.5339  0.048033713  0.047568975            6 
 3496000   0.70208722   -4.2197897    2012.4432  0.047970137  0.047557999            6 
 3497000   0.69640479   -4.2206304    2014.4894  0.048005181  0.047547131            6 
 3498000   0.70709553   -4.2122157    2019.2197  0.048104147  0.047536192            8 
 3499000   0.69675374   -4.2180844       2016.6  0.048028008  0.047525336            5 
 3500000    0.6882228   -4.2092815    2020.8063  0.048114437  0.047514507            3 
 3501000   0.69150973   -4.2378102    2018.8971  0.048055249  0.047503665           11 
 3502000   0.69478017   -4.2261405    2019.6447  0.048059317  0.047492762           10 
 3503000   0.70391048   -4.2426818    2016.6701  0.047974834  0.047481856            5 
 3504000   0.68310115     -4.21028    2014.0363  0.047898505  0.047470916            5 
 3505000   0.68308765   -4.2194189    2014.4287  0.047894168  0.047459979            4 
 3506000    0.6898821   -4.2073717    2022.7903  0.048079251  0.047449141           15 
 3507000   0.69929277    -4.193723    2022.6777  0.048062868  0.047438299            4 
 3508000   0.68321896   -4.2391279    2020.4538  0.047996338  0.047427479            7 
 3509000   0.69080832   -4.2261185    2018.2212  0.047929637  0.047416593            8 
 3510000   0.68837461   -4.2353903    2020.4651  0.047969257   0.04740571            5 
 3511000   0.69559875   -4.2096498     2017.322  0.047880993  0.047394833           10 
 3512000   0.69614013   -4.2207191    2016.8974  0.047857284   0.04738393            5 
 3513000   0.68926624   -4.2120951     2018.971  0.047892849  0.047373098           10 
 3514000   0.70011961   -4.2165439    2016.7763  0.047827176  0.047362196            6 
 3515000   0.68239164   -4.2078031    2019.7149  0.047883237  0.047351333           11 
 3516000   0.67697549   -4.2276603    2022.0604  0.047925208  0.047340462            4 
 3517000   0.68092793   -4.2227859    2013.4849  0.047708391  0.047329558            5 
 3518000   0.68576143   -4.2228627    2015.7278  0.047747958   0.04731866            5 
 3519000   0.67801605   -4.2194895    2023.4094  0.047916297  0.047307875            3 
 3520000    0.6911595   -4.2305952    2024.4157  0.047926507  0.047296991           11 
 3521000   0.69390425   -4.2252303    2020.0671  0.047809976  0.047286074            5 
 3522000   0.69780344   -4.2419956    2023.1164   0.04786855  0.047275187            5 
 3523000   0.69822977   -4.2362604    2023.8168   0.04787153  0.047264392            9 
 3524000   0.69113265   -4.2121484    2024.8585   0.04788258  0.047253645            4 
 3525000   0.68472438   -4.2460316    2018.3884  0.047716037  0.047242813            5 
 3526000   0.71029785   -4.2348414    2024.5281  0.047847611  0.047231922           12 
 3527000   0.70081963   -4.2392003    2019.8975  0.047724636  0.047221142            6 
 3528000    0.6891048   -4.2049401    2019.3238  0.047697559  0.047210305            8 
 3529000   0.68578345   -4.2578351    2021.1379   0.04772688  0.047199459            5 
 3530000   0.69442451    -4.232888    2016.0435  0.047593094  0.047188614            5 
 3531000   0.69177839    -4.233916    2023.2212  0.047749013  0.047177787            5 
 3532000   0.68260075   -4.2500291     2024.885  0.047774751  0.047166986           10 
 3533000   0.68616383   -4.2220992    2025.8825  0.047784755  0.047156128           12 
 3534000   0.68870017   -4.2284728    2032.5725  0.047928989  0.047145373            7 
 3535000   0.69715364   -4.2124364    2026.1739   0.04776459  0.047134563            4 
 3536000   0.69860059   -4.2271463    2025.3632  0.047731975  0.047123833            5 
 3537000   0.68623802   -4.2266944    2020.4233  0.047602094  0.047113102           10 
 3538000   0.69072838   -4.1945273    2024.4013  0.047682337  0.047102405            7 
 3539000   0.69070367   -4.2209387    2021.5222   0.04760107  0.047091681            7 
 3540000   0.68901913   -4.2365663    2026.5295  0.047705497  0.047080917            6 
 3541000     0.680369   -4.2295885    2026.9303  0.047701458   0.04707011            9 
 3542000   0.68023818   -4.2525006    2024.6657  0.047634711  0.047059402            5 
 3543000   0.68665508   -4.2359719    2027.4493  0.047686736   0.04704857            4 
 3544000   0.68035582   -4.2525673    2018.9347   0.04747307  0.047037762            3 
 3545000   0.69974064   -4.2482242    2026.7315   0.04764296  0.047026919            9 
 3546000   0.66748279   -4.2353886    2024.3289  0.047573062  0.047016153            7 
 3547000    0.6803113   -4.2334462    2030.9385  0.047714936  0.047005427            5 
 3548000   0.69384284   -4.2539939    2028.7862  0.047650936  0.046994657            6 
 3549000   0.67604785   -4.2417407    2027.2322  0.047601018  0.046983974            7 
 3550000   0.69474742   -4.2371844    2026.1537  0.047562293  0.046973231            8 
 3551000   0.68959135   -4.2362144    2027.5972  0.047582774  0.046962521            5 
 3552000   0.68858065   -4.2142371    2032.4143  0.047682394   0.04695188           13 
 3553000   0.69065862   -4.2172693    2033.5586   0.04769581   0.04694125           11 
 3554000   0.68975524   -4.2203208    2032.6414  0.047660884  0.046930529            5 
 3555000   0.66918066    -4.239925    2029.9412  0.047584182  0.046919871           17 
 3556000   0.69654342    -4.224275    2034.0367  0.047666778  0.046909192            5 
 3557000   0.68048994    -4.238915    2029.8532  0.047555366  0.046898557            6 
 3558000   0.68443819   -4.2304862    2029.1689  0.047525973  0.046887902            4 
 3559000   0.67777056   -4.2425486     2029.278  0.047515173    0.0468772           11 
 3560000   0.67958441   -4.2214321    2024.8001  0.047397005   0.04686649            5 
 3561000   0.67723238   -4.2385577    2030.5858  0.047519091  0.046855804            7 
 3562000   0.68535862   -4.2467377    2025.6299  0.047389807   0.04684511            5 
 3563000   0.67966727   -4.2394602    2026.7992  0.047403853  0.046834447            9 
 3564000   0.67761873   -4.2249592    2035.4696  0.047593286  0.046823807            3 
 3565000   0.68833927   -4.2445307    2031.7922  0.047493975  0.046813091           18 
 3566000   0.67579939   -4.2717383    2024.9822  0.047321513   0.04680236            8 
 3567000   0.67562353   -4.2690072    2026.9557  0.047354353  0.046791581            9 
 3568000   0.68527181   -4.2522631    2029.8224  0.047408034  0.046780808            5 
 3569000   0.67194625    -4.235866    2031.6375  0.047437133   0.04677004            8 
 3570000   0.67779122   -4.2326956    2022.5042  0.047210649  0.046759338           30 
 3571000   0.66951664   -4.2423208    2025.6545  0.047270945  0.046748619            6 
 3572000   0.67250784   -4.2611539    2027.5085  0.047300963   0.04673792            4 
 3573000   0.68573151   -4.2274854    2029.7515  0.047340039  0.046727201            6 
 3574000   0.68759244   -4.2430191    2030.7116   0.04734918  0.046716438           11 
 3575000   0.67854925   -4.2433145    2029.3042  0.047303128  0.046705744            9 
 3576000    0.6810206   -4.2597471    2029.2209   0.04728796  0.046695056            6 
 3577000   0.68550833   -4.2487617    2031.1418  0.047319491   0.04668428           18 
 3578000   0.68555592   -4.2352443     2035.937  0.047417947  0.046673583            6 
 3579000    0.6748058   -4.2447004    2022.6323  0.047094912  0.046662828            5 
 3580000   0.68526316   -4.2489531    2030.5669  0.047266456  0.046652077            8 
 3581000   0.66910482   -4.2366272    2031.4768   0.04727443    0.0466414           10 
 3582000   0.66884303   -4.2396328    2029.5646  0.047216746  0.046630681            9 
 3583000   0.67159575   -4.2458009    2034.5714  0.047320016   0.04662003            5 
 3584000   0.67392129   -4.2461317    2032.2797  0.047253527  0.046609292           15 
 3585000   0.67773609   -4.2398526    2031.3527  0.047218797  0.046598568           15 
 3586000   0.69044274   -4.2771322    2029.9647  0.047173377  0.046587823            7 
 3587000   0.66907848   -4.2615995    2032.1901  0.047211924  0.046577027           11 
 3588000   0.67127458   -4.2533823    2028.5967  0.047115307  0.046566254            4 
 3589000   0.66670368   -4.2694932    2026.1815  0.047046101  0.046555473            8 
 3590000   0.67995331   -4.2439968    2032.0675  0.047169627  0.046544724           14 
 3591000   0.68325719    -4.255803    2028.9144  0.047083319  0.046533889           13 
 3592000   0.67442941   -4.2391136    2028.1853  0.047053297  0.046523147            9 
 3593000   0.68063866   -4.2736104    2027.2928  0.047019501  0.046512413            5 
 3594000   0.67294322   -4.2381436    2033.8548  0.047158569  0.046501773            6 
 3595000   0.66527041   -4.2691229    2028.1044  0.047012156  0.046491044            5 
 3596000   0.67655123   -4.2589309    2031.0574  0.047067514   0.04648023            7 
 3597000   0.68560194   -4.2287941    2037.0366  0.047192953  0.046469524           13 
 3598000   0.64577409   -4.2637608     2029.055  0.046994975  0.046458806            5 
 3599000    0.6797241   -4.2409614     2034.473  0.047107368  0.046448058            6 
 3600000   0.67731684   -4.2424692    2036.0561  0.047130929  0.046437417           12 
 3601000   0.66922167   -4.2242382    2035.6933  0.047109444  0.046426711            5 
 3602000   0.67937226   -4.2383523    2037.9134  0.047147728  0.046415974            7 
 3603000   0.67161223   -4.2506968    2025.1336  0.046839059  0.046405179            9 
 3604000   0.68787591   -4.2559693    2031.9338  0.046983302  0.046394456            7 
 3605000    0.6728198   -4.2351792    2029.0269  0.046903071  0.046383729            5 
 3606000    0.6891491   -4.2371854    2035.6178  0.047042378  0.046372947            6 
 3607000   0.67538706   -4.2877281    2031.4305  0.046932596  0.046362154            6 
 3608000   0.66292457   -4.2578026    2031.8079  0.046928304  0.046351348            9 
 3609000   0.66288019     -4.24729    2035.0275  0.046989644  0.046340643           18 
 3610000   0.68477781   -4.2583241    2032.2988  0.046913638    0.0463299            6 
 3611000    0.6758209   -4.2730421    2028.9151  0.046822559  0.046319162           10 
 3612000   0.68261123   -4.2550065    2029.9661  0.046833843  0.046308385            5 
 3613000   0.68233821   -4.2382045    2038.9521  0.047028142  0.046297726           18 
 3614000   0.67802318   -4.2487138     2035.617  0.046938227  0.046287022            8 
 3615000   0.69097172   -4.2590573    2036.1084  0.046936571  0.046276304           12 
 3616000   0.67242844   -4.2612021    2030.0822  0.046784712  0.046265592            2 
 3617000   0.68365956   -4.2240567    2032.1997  0.046820563  0.046254844            7 
 3618000    0.6722692   -4.2285331    2036.6262  0.046909578  0.046244124            7 
 3619000   0.66935279   -4.2422841    2034.5905  0.046849741  0.046233418            9 
 3620000   0.67325243   -4.2678375    2030.9188  0.046752275  0.046222732            5 
 3621000   0.66734861   -4.2691841    2029.1097  0.046697727   0.04621194           17 
 3622000   0.66536849   -4.2509598    2033.7361  0.046791277  0.046201234           12 
 3623000   0.67039003   -4.2500768    2037.8638  0.046873305  0.046190559            8 
 3624000    0.6784494   -4.2565489    2040.7788    0.0469274  0.046179869            5 
 3625000   0.66312052   -4.2390378    2038.4486  0.046860887  0.046169197            6 
 3626000   0.67057157   -4.2768873     2032.021  0.046700244   0.04615853            6 
 3627000   0.67635524   -4.2489452    2032.6026  0.046700731  0.046147826            4 
 3628000   0.67375958   -4.2495541    2039.2008  0.046839415   0.04613709            7 
 3629000   0.65691635   -4.2618219    2033.8675  0.046704039  0.046126327            7 
 3630000   0.66486404   -4.2627698    2035.5895  0.046730705  0.046115586            7 
 3631000   0.68553312   -4.2571689    2039.6344  0.046810668  0.046104924            7 
 3632000   0.68370044   -4.2566929    2038.9091  0.046781137  0.046094276            6 
 3633000   0.68868165   -4.2703825    2044.1062  0.046887472  0.046083627            3 
 3634000   0.67705985   -4.2659379    2039.4378  0.046767516  0.046073002            6 
 3635000    0.6765632    -4.290284    2036.9378  0.046697336   0.04606233            5 
 3636000   0.67730878    -4.271015    2038.5537  0.046721529  0.046051632           10 
 3637000   0.67336038   -4.2894174    2036.5676  0.046663174   0.04604091            7 
 3638000   0.67475322   -4.2540264     2039.176  0.046710098  0.046030176            6 
 3639000   0.64584315   -4.2635915    2039.0902  0.046695297  0.046019529            8 
 3640000   0.66341171   -4.2867578    2028.5765   0.04644177  0.046008823           13 
 3641000   0.66909021   -4.2754379    2037.8479  0.046641215  0.045998125            6 
 3642000   0.67112982   -4.2858439    2034.8116  0.046558933  0.045987477            7 
 3643000     0.679154   -4.2475405    2037.6113  0.046610196  0.045976795            7 
 3644000   0.67011733   -4.2874439    2035.5661  0.046550633  0.045966126            5 
 3645000   0.65898089   -4.2468122     2043.559    0.0467206  0.045955447            5 
 3646000   0.66278881   -4.2705616    2037.5442  0.046570311  0.045944828            5 
 3647000   0.66730173   -4.2595593    2035.4255  0.046509129  0.045934123            5 
 3648000   0.67635947   -4.2710667    2034.6962   0.04647972  0.045923454            4 
 3649000   0.66546539   -4.2669482    2039.4668   0.04657593  0.045912743            6 
 3650000    0.6605083   -4.2562557     2041.777  0.046615913  0.045902068           10 
 3651000   0.68014123   -4.2658738    2042.1198   0.04661097  0.045891472            7 
 3652000    0.6809606   -4.2690554     2034.524  0.046424881  0.045880768            6 
 3653000   0.67210199   -4.2600482    2036.8197  0.046464542  0.045870072            5 
 3654000    0.6559259   -4.2482707    2044.1799  0.046619683  0.045859426            9 
 3655000   0.66038143   -4.2764187    2037.9329  0.046464499  0.045848716            7 
 3656000   0.66017566   -4.2737179    2038.0465  0.046454378  0.045838026            4 
 3657000   0.66831594   -4.2766058    2033.6643  0.046341816  0.045827368            8 
 3658000   0.67072469   -4.2480632    2041.9886  0.046518786  0.045816748            4 
 3659000   0.66111413   -4.2585789    2037.8278  0.046411309  0.045806192            6 
 3660000   0.67423329   -4.2426259    2038.1125  0.046405111  0.045795611            9 
 3661000   0.65640862   -4.2588308    2042.0816  0.046482782  0.045785019            7 
 3662000   0.67124478   -4.2465177    2041.2892  0.046452058  0.045774433            6 
 3663000   0.65999653   -4.2772995    2036.6829  0.046334582    0.0457638            7 
 3664000   0.66275722   -4.2647098    2036.7019  0.046322369  0.045753147            6 
 3665000    0.6636409   -4.2747354    2043.6627  0.046468002  0.045742425           13 
 3666000   0.66675381   -4.2761057    2038.9361  0.046347885  0.045731663            9 
 3667000   0.65434669   -4.2997169    2038.8833  0.046334046  0.045720914           13 
 3668000   0.66629278   -4.2547338    2043.0671  0.046416464  0.045710305            9 
 3669000   0.67579379   -4.2930404    2034.9693   0.04621989  0.045699677           16 
 3670000   0.66323967   -4.2956194    2043.2681  0.046395733  0.045689033           12 
 3671000   0.65441551   -4.2728044     2042.677  0.046369676  0.045678367           10 
 3672000   0.66725378   -4.2541038    2041.5759   0.04633206  0.045667765            7 
 3673000   0.66788613   -4.2889591     2040.012  0.046283963  0.045657077            7 
 3674000   0.67259824   -4.2761127     2041.694  0.046309518  0.045646446            9 
 3675000   0.66319127   -4.2827939    2047.8413   0.04643631  0.045635795           11 
 3676000   0.66186418   -4.2597183    2042.2765  0.046297526  0.045625138            5 
 3677000   0.64490885     -4.27555    2039.4887  0.046221756  0.045614492            6 
 3678000   0.65359589   -4.2937247    2031.1477  0.046020204  0.045603849            9 
 3679000   0.65180678   -4.2815191    2045.5986  0.046335023  0.045593217            5 
 3680000   0.65907662   -4.2879179      2039.41  0.046182291  0.045582551            4 
 3681000   0.66448311   -4.2760712    2038.3251  0.046145184  0.045571886            6 
 3682000   0.67308778    -4.297375     2037.242  0.046108138  0.045561231            9 
 3683000    0.6635794   -4.2907871    2039.5555  0.046147966  0.045550537           10 
 3684000   0.66773235    -4.271907    2044.3175  0.046243157  0.045539834            4 
 3685000   0.66315816   -4.2658657    2039.4281  0.046120038  0.045529221            6 
 3686000   0.64650865   -4.2491636    2037.1551  0.046056138  0.045518618            6 
 3687000   0.65614669   -4.2942207    2038.6018  0.046076344   0.04550798            8 
 3688000   0.66935594    -4.266364    2047.9183  0.046274365  0.045497308            7 
 3689000   0.65086917   -4.2845671    2046.3738  0.046226932  0.045486696           13 
 3690000   0.66773508   -4.2763266    2040.4336  0.046080253  0.045476057            8 
 3691000   0.66186767   -4.2893795    2038.2414  0.046018274  0.045465489            3 
 3692000   0.64567074   -4.2747007    2043.5988  0.046126733   0.04545483            3 
 3693000   0.66011311   -4.2666999    2042.1064  0.046080566  0.045444216           15 
 3694000   0.67105898   -4.2595512    2039.8625  0.046017472  0.045433593            7 
 3695000   0.65668767   -4.2752749    2048.4733  0.046199218   0.04542297            6 
 3696000   0.65198885   -4.2809981    2048.5294  0.046187983  0.045412333           14 
 3697000   0.66411492   -4.2804114    2044.2055  0.046078024  0.045401698           15 
 3698000   0.65857361   -4.2848314    2045.3312  0.046090931  0.045391063            5 
 3699000   0.65665505   -4.2963702    2046.1864  0.046097737  0.045380456            7 
 3700000   0.68009239   -4.2859801    2047.8057  0.046121749  0.045369879            5 
 3701000   0.64433097   -4.2789757    2044.2663  0.046029593  0.045359294            7 
 3702000   0.64874713   -4.2763876    2049.3373  0.046131309  0.045348783            7 
 3703000    0.6525476   -4.2683548    2044.4072  0.046007903  0.045338242            6 
 3704000   0.65324336   -4.2847212    2048.1306  0.046079253  0.045327673            7 
 3705000   0.66047641    -4.257414    2050.3311  0.046116309  0.045317253            8 
 3706000   0.66905438   -4.2637371    2046.3876  0.046015191  0.045306814            6 
 3707000   0.65941829   -4.2496302    2049.8643  0.046080934  0.045296363            8 
 3708000   0.65016473   -4.3133517    2048.4699   0.04603717   0.04528587           15 
 3709000   0.65922128   -4.2843298    2042.7245  0.045895671  0.045275342            9 
 3710000   0.65545516   -4.2805999    2054.1617  0.046140201  0.045264879            6 
 3711000   0.64914917   -4.3003818    2050.5388   0.04604641  0.045254433            7 
 3712000    0.6596233   -4.2912229    2044.8904  0.045907201  0.045243969            8 
 3713000   0.66726547   -4.3076852    2049.4889  0.045998045  0.045233503            6 
 3714000   0.69259456   -4.2733472    2046.0036  0.045907457  0.045222988            7 
 3715000   0.66165992   -4.3215123    2044.2183  0.045855053  0.045212494           16 
 3716000   0.66649151   -4.2768238    2044.4859  0.045848716  0.045202051            6 
 3717000   0.66025656    -4.272299    2049.3468  0.045945359   0.04519167            8 
 3718000   0.67722266   -4.2927281    2049.5333  0.045937182  0.045181283            4 
 3719000   0.65681546   -4.2969875    2045.9131   0.04584371  0.045170788            6 
 3720000   0.64998846   -4.2703661    2051.0903  0.045947363  0.045160354            7 
 3721000   0.63815972   -4.2971049    2051.1083  0.045935419  0.045149876            5 
 3722000   0.65686664   -4.2860037     2049.058  0.045877172  0.045139391            5 
 3723000   0.67199056   -4.2695622    2049.4942  0.045874613  0.045128983            4 
 3724000   0.65125071   -4.2794556    2045.8315  0.045780333  0.045118547           12 
 3725000   0.65369651   -4.2926355    2049.2318  0.045844112  0.045108078           10 
 3726000   0.64928442   -4.2999122    2049.6284  0.045840677  0.045097623           11 
 3727000   0.65112719   -4.2960318    2050.5519  0.045849026  0.045087155            7 
 3728000   0.64356884   -4.2760539     2050.413  0.045833625  0.045076765            8 
 3729000   0.65193617   -4.2719387    2050.6018  0.045825551  0.045066344            9 
 3730000   0.66322241   -4.2855482     2055.193  0.045915839  0.045055934            7 
 3731000   0.64356312   -4.3163728    2054.7025  0.045892579  0.045045527            7 
 3732000   0.67645228   -4.2927167    2058.0767  0.045955624  0.045035079            5 
 3733000   0.67685906   -4.3239663    2053.8328  0.045848577  0.045024665           13 
 3734000   0.63582695   -4.3184621    2045.9693  0.045660804  0.045014183            4 
 3735000   0.64987121   -4.3044146    2049.9942  0.045738381  0.045003706           13 
 3736000   0.65449783   -4.3069751    2052.6014  0.045784292  0.044993223            3 
 3737000   0.65087614   -4.3120907    2044.4451   0.04559016  0.044982723           13 
 3738000     0.652492   -4.2917126    2053.0707  0.045770259  0.044972272            8 
 3739000   0.65460527   -4.2797654    2049.3772  0.045675697  0.044961816            5 
 3740000   0.65040034   -4.2874557    2046.7823  0.045605666  0.044951382            6 
 3741000   0.64844233   -4.2695509    2052.6705  0.045724639  0.044940954           30 
 3742000   0.66252533   -4.2985517    2054.0338  0.045742781  0.044930601            7 
 3743000   0.64682239   -4.3029157    2056.8962  0.045794288  0.044920189            5 
 3744000   0.65462275   -4.2869719    2056.1459  0.045765356  0.044909799            7 
 3745000   0.66223368   -4.2808295    2057.3808  0.045780614  0.044899409            7 
 3746000   0.64603219   -4.2888002     2047.728  0.045553658  0.044888991            8 
 3747000   0.65195259   -4.3003449    2055.3984  0.045712091  0.044878506           17 
 3748000   0.64333265   -4.3118537    2046.9069  0.045511092  0.044868036           11 
 3749000   0.65037841   -4.2891628    2051.0124  0.045590211  0.044857595            3 
 3750000    0.6481397   -4.2874018    2059.5775  0.045768388  0.044847217            5 
 3751000    0.6442699   -4.2819599     2055.424  0.045663912   0.04483685           10 
 3752000   0.64181942   -4.3100082    2053.9726  0.045619505  0.044826441            5 
 3753000    0.6457253    -4.277285     2045.022  0.045408606  0.044816037           12 
 3754000   0.66016448   -4.3090462    2051.7418   0.04554568  0.044805488            8 
 3755000   0.64840234    -4.275246      2054.07   0.04558522   0.04479501            9 
 3756000    0.6563783    -4.285102    2049.0665  0.045462073  0.044784517           21 
 3757000   0.63809644   -4.3325626    2047.9094  0.045424305  0.044773943            9 
 3758000   0.65411103   -4.2935149    2057.4204  0.045623123   0.04476344           17 
 3759000   0.64102128   -4.3081863    2050.7926  0.045464055  0.044752944            9 
 3760000   0.64282325   -4.2961801    2053.8111  0.045518862  0.044742516           17 
 3761000   0.63869845    -4.297957    2055.0041  0.045533194   0.04473203           14 
 3762000   0.64785226   -4.2911891    2053.2153  0.045481465  0.044721525            5 
 3763000   0.65120283   -4.2998715    2049.9367  0.045396773  0.044711043           11 
 3764000    0.6504957    -4.297998    2051.3174   0.04541528   0.04470055            5 
 3765000    0.6481976    -4.302941    2055.1363  0.045487745  0.044690128            5 
 3766000   0.65146463   -4.2855787    2051.6645  0.045398843  0.044679682            7 
 3767000   0.63980828   -4.3202996    2048.2988  0.045312335  0.044669175           11 
 3768000   0.65248585   -4.2905193    2058.2812  0.045521082  0.044658763           18 
 3769000   0.65198204    -4.292331    2052.4862  0.045380876  0.044648319           11 
 3770000   0.64898604   -4.3166688     2051.449   0.04534591  0.044637865            5 
 3771000   0.66138641   -4.2926667    2053.4265  0.045377586  0.044627373            6 
 3772000   0.65048763   -4.3006937    2053.3627  0.045364146  0.044616886           10 
 3773000   0.65114347   -4.3017168    2050.1228  0.045280563  0.044606468            5 
 3774000   0.65580094   -4.2995129    2054.7694  0.045371166  0.044595965            6 
 3775000   0.64070517   -4.2945725    2056.7341  0.045402519  0.044585551            9 
 3776000   0.64699917   -4.2890756    2055.6428  0.045366411  0.044575098            6 
 3777000   0.65203567   -4.3058561    2049.4335    0.0452174  0.044564706           14 
 3778000   0.66963746   -4.3056794    2055.8487  0.045346936  0.044554241            7 
 3779000   0.66610407   -4.3309423    2052.6414   0.04526421  0.044543793           11 
 3780000   0.64333711   -4.2992833    2057.2184  0.045353139  0.044533329            4 
 3781000   0.64987491   -4.3035068    2054.0858  0.045272102  0.044522875           14 
 3782000   0.65008486   -4.3171059    2054.0065  0.045258385  0.044512415           12 
 3783000    0.6365186   -4.3013322    2055.4491  0.045278198  0.044501995           10 
 3784000   0.64823016   -4.2977982    2050.7783   0.04516337  0.044491531            4 
 3785000   0.65555821   -4.2980173    2058.7769   0.04532754  0.044481123            3 
 3786000   0.64346378   -4.3094486    2060.4766  0.045352981  0.044470708            8 
 3787000    0.6462824   -4.3223641    2055.8581  0.045239375  0.044460325           12 
 3788000   0.65183101   -4.3059689    2059.4443  0.045306325  0.044449922            6 
 3789000   0.66001251   -4.2916328    2060.5117  0.045317843  0.044439591           10 
 3790000   0.64242982   -4.3348952    2058.2283   0.04525568  0.044429273           11 
 3791000   0.66133393   -4.2908554    2057.0923   0.04521877  0.044418871            7 
 3792000   0.64199711   -4.3115747    2057.2179  0.045209605  0.044408498           10 
 3793000   0.63750643    -4.293665    2059.2882  0.045243171  0.044398114            8 
 3794000   0.64716066   -4.3315342    2056.9277    0.0451794  0.044387706            6 
 3795000   0.64027262    -4.319753    2051.8272  0.045055494  0.044377283            5 
 3796000   0.64713666    -4.319271    2054.7742   0.04510832  0.044366906            4 
 3797000   0.64483599   -4.3123942    2057.7226  0.045161148  0.044356428            6 
 3798000   0.64736765   -4.3090769    2055.8895  0.045109038  0.044346067           13 
 3799000   0.63711482   -4.3138155    2051.5268  0.045001466  0.044335696           14 
 3800000   0.64742021    -4.307779    2063.0443  0.045242199  0.044325272            9 
 3801000   0.63771359   -4.2999518    2055.7468  0.045070305  0.044314861            6 
 3802000   0.64802494   -4.3173546    2059.5805  0.045142479  0.044304522            5 
 3803000    0.6445145   -4.3091017    2059.6756  0.045132694  0.044294144           16 
 3804000   0.63305674   -4.3053698    2061.8884  0.045169303  0.044283754            5 
 3805000   0.64211295   -4.3144894    2058.9523   0.04509313  0.044273378            8 
 3806000   0.64571976   -4.3241053    2059.4182  0.045091482  0.044263002            7 
 3807000   0.62717557   -4.3262843    2053.6172  0.044952658  0.044252642            8 
 3808000   0.64319802   -4.3379731    2053.2607  0.044933051  0.044242196            7 
 3809000    0.6453371   -4.3187535    2052.6122  0.044907067  0.044231745            9 
 3810000   0.64120683   -4.3168623    2055.6829  0.044962443  0.044221359            9 
 3811000   0.63654013   -4.3355107    2061.2473   0.04507232  0.044210946           15 
 3812000   0.64835048   -4.3108902      2056.99  0.044967428  0.044200521            7 
 3813000   0.64650888   -4.3038257     2052.582  0.044859297  0.044190175            6 
 3814000   0.65080297   -4.3026523    2060.4203  0.045018797  0.044179748            5 
 3815000   0.64007014   -4.3076635    2049.3018  0.044764128  0.044169266           17 
 3816000   0.64546799    -4.299348    2058.6408  0.044956341  0.044158886            9 
 3817000   0.64283458   -4.3086601    2060.0935  0.044976279  0.044148492            5 
 3818000   0.63553695   -4.2984877    2052.4427  0.044797509  0.044138029           17 
 3819000   0.65124541   -4.3168469    2050.3994  0.044741193  0.044127545            9 
 3820000    0.6439908   -4.3058567    2056.4007  0.044860399   0.04411709           12 
 3821000    0.6410166   -4.3090197    2052.3572  0.044760474  0.044106564           24 
 3822000   0.64275005   -4.3274845    2052.4835  0.044751516  0.044095989           16 
 3823000   0.64389277   -4.3261914    2049.9701  0.044685022  0.044085499            8 
 3824000   0.63081469   -4.3142982    2060.5737  0.044904412  0.044075035           20 
 3825000    0.6452316   -4.3225737    2053.7206  0.044743368  0.044064577           12 
 3826000   0.63220708   -4.3098515    2050.9737  0.044671843  0.044054106           13 
 3827000   0.63859828   -4.3098548    2053.2236  0.044709163  0.044043697            6 
 3828000    0.6324804   -4.3453092    2053.3709  0.044700689  0.044033276            8 
 3829000   0.64039356   -4.3082477    2058.5804  0.044802393  0.044022768            4 
 3830000   0.63963886   -4.3324168    2051.8548  0.044644361  0.044012306            8 
 3831000   0.63953458   -4.3116904    2056.2433  0.044728167  0.044001889           18 
 3832000    0.6459461   -4.3165432    2060.5168   0.04480943  0.043991494           14 
 3833000   0.65505224   -4.2885866    2061.5681  0.044820595  0.043981122            7 
 3834000   0.64096705   -4.3113227    2055.9442  0.044686668  0.043970711            7 
 3835000   0.63133253   -4.3092073    2054.3249  0.044639828  0.043960301            8 
 3836000   0.65352057   -4.3279058    2061.2651   0.04477896   0.04394991            7 
 3837000    0.6501422   -4.3012077    2059.3234  0.044725119  0.043939546           12 
 3838000   0.63141669   -4.3055839    2062.6836  0.044786424  0.043929225            8 
 3839000   0.64536782   -4.3172173    2058.4199  0.044682206   0.04391877            4 
 3840000   0.64123774   -4.3315378    2055.6709  0.044610913  0.043908338            4 
 3841000   0.64649118   -4.3003782    2059.3081  0.044678211  0.043897912            9 
 3842000   0.63772833   -4.3422918    2058.3966  0.044646811  0.043887492            6 
 3843000   0.63120567   -4.3370801    2058.5169  0.044637802  0.043877064            7 
 3844000   0.63255639   -4.3316035    2056.3526  0.044579271  0.043866615           17 
 3845000   0.64890967   -4.3226505    2057.6799  0.044596443  0.043856197            7 
 3846000   0.64115291   -4.3467608    2060.6257  0.044648676  0.043845778           13 
 3847000   0.63129045    -4.316617    2061.8569   0.04466374  0.043835389           11 
 3848000   0.63160456   -4.3299996    2059.3128  0.044597038  0.043825009            8 
 3849000    0.6366576   -4.3374741    2055.1141  0.044494546  0.043814542           15 
 3850000   0.63286632   -4.3214925    2057.9803  0.044545028  0.043804115            8 
 3851000   0.63117459   -4.3468357    2063.0291  0.044642714  0.043793716           13 
 3852000    0.6430787   -4.3475801     2059.517  0.044555145  0.043783299            9 
 3853000   0.62668451    -4.353594    2052.8065  0.044398445  0.043772891           13 
 3854000   0.62080376   -4.3267487    2064.2594  0.044634565  0.043762496           17 
 3855000   0.64293131   -4.3185363    2057.8116  0.044483605  0.043752074           24 
 3856000    0.6531743   -4.3097246    2063.9556   0.04460485   0.04374175            9 
 3857000   0.64239502   -4.3129929    2060.8331  0.044525821   0.04373141           11 
 3858000   0.63227395   -4.3462149    2058.6193  0.044466462  0.043721025            4 
 3859000   0.64565977   -4.3349655    2051.8755  0.044309309  0.043710553           14 
 3860000   0.61770532   -4.3424531    2056.0902   0.04438882  0.043700098            7 
 3861000   0.62687602   -4.3251227    2062.4428  0.044514435  0.043689697            8 
 3862000   0.63231824   -4.3417291    2060.8089  0.044467653  0.043679308           12 
 3863000   0.64400454   -4.3210168    2062.8748  0.044500708  0.043668927            7 
 3864000   0.63776329   -4.3211784    2058.4526   0.04439382  0.043658542            7 
 3865000   0.63442401   -4.3221888     2056.027  0.044330034  0.043648171            7 
 3866000   0.64145884   -4.3227917    2057.0865  0.044341406   0.04363773            7 
 3867000   0.63304229   -4.3296404    2059.0143  0.044371483  0.043627358            4 
 3868000   0.62483677   -4.3305472    2063.4397  0.044455354  0.043616986            9 
 3869000   0.65138087     -4.33914    2052.6266  0.044210963  0.043606624           18 
 3870000   0.64901796   -4.3225236    2060.2146  0.044362932  0.043596235            9 
 3871000   0.62529564   -4.3356079    2059.9347  0.044345447  0.043585843            7 
 3872000   0.63461093   -4.3350855     2063.423   0.04440907  0.043575417           13 
 3873000   0.65606671   -4.3344792    2058.6623   0.04429517  0.043565068            8 
 3874000   0.63504342   -4.3334584    2060.1744  0.044316261  0.043554748            6 
 3875000   0.63432869    -4.319052    2056.5482  0.044226843  0.043544365           11 
 3876000   0.62450671   -4.3336881    2061.3125  0.044317863   0.04353398           11 
 3877000   0.64809638   -4.3453087    2061.3196  0.044306585  0.043523617            5 
 3878000   0.64240049   -4.3183408    2063.0921  0.044333251  0.043513233           21 
 3879000   0.61669134   -4.3374965    2061.7151  0.044292238  0.043502869           19 
 3880000   0.63207113    -4.341629    2063.8208  0.044326049  0.043492494            8 
 3881000   0.62539606   -4.3487805    2060.2194  0.044237297  0.043482077            7 
 3882000   0.61249991   -4.3470928    2061.5995  0.044255528   0.04347176            5 
 3883000   0.63000054   -4.3252044    2061.5573  0.044243225  0.043461424           16 
 3884000   0.61352831   -4.3413387    2063.5685  0.044274986  0.043451054           11 
 3885000   0.62860212   -4.3389594    2065.8309  0.044312118  0.043440731            5 
 3886000   0.62294647   -4.3422823    2064.6603  0.044275611  0.043430447           11 
 3887000   0.62860109   -4.3258416     2067.438  0.044323771  0.043420222           19 
 3888000   0.62448599   -4.3414898    2062.6928  0.044210664  0.043409969            6 
 3889000   0.63592451   -4.3416536    2061.4106  0.044171821  0.043399723            5 
 3890000   0.63780245   -4.3492074    2063.5621  0.044206558  0.043389418           11 
 3891000   0.63612924   -4.3473126    2064.4718   0.04421468  0.043379137            7 
 3892000   0.61419342   -4.3397718    2063.9031  0.044191143  0.043368889           12 
 3893000   0.63214109   -4.3185652    2066.2322  0.044229648  0.043358699            7 
 3894000   0.62184285   -4.3404809    2068.0174  0.044256493  0.043348483           11 
 3895000   0.63244282    -4.354556    2060.0646  0.044074982   0.04333823           13 
 3896000   0.63605106   -4.3474892    2065.1697  0.044172864  0.043328016           19 
 3897000   0.62365276   -4.3383778    2064.6256  0.044149893  0.043317825           11 
 3898000   0.64188647   -4.3466393    2063.7332  0.044119488  0.043307618           13 
 3899000   0.62118231   -4.3554069    2064.5866  0.044126412  0.043297392            4 
 3900000   0.62692524   -4.3543415    2058.4559  0.043984101  0.043287081            5 
 3901000   0.61574949    -4.330415    2067.5346  0.044166764   0.04327681            9 
 3902000   0.63759623   -4.3499184    2071.7056  0.044244524  0.043266564           11 
 3903000   0.62077066   -4.3583522    2059.0989   0.04396402  0.043256275           11 
 3904000   0.62052905    -4.371639    2062.3926  0.044023066  0.043245984           15 
 3905000    0.6234545   -4.3422685    2066.1924   0.04409288  0.043235736           12 
 3906000   0.63271875   -4.3402164    2066.3693  0.044085366  0.043225479            6 
 3907000   0.63574247   -4.3287871    2066.2461  0.044071454  0.043215254           14 
 3908000   0.63063149   -4.3414114    2065.2594  0.044039137  0.043205022            9 
 3909000   0.62646418   -4.3359466    2067.0176  0.044065354  0.043194781            5 
 3910000   0.63552931   -4.3544164    2068.2324  0.044079975  0.043184558            8 
 3911000   0.63384174   -4.3146503    2069.6571  0.044099061  0.043174393           10 
 3912000     0.638861   -4.3596987    2062.7706  0.043941091  0.043164174            7 
 3913000   0.62980268   -4.3449679    2070.1365   0.04408673  0.043153994           10 
 3914000    0.6264356   -4.3379459    2064.4278  0.043953921  0.043143833           12 
 3915000   0.62269062   -4.3422598    2066.2903  0.043982339  0.043133594            7 
 3916000   0.63169851   -4.3649717    2061.7535  0.043874564  0.043123363           14 
 3917000   0.61802082    -4.353243    2066.2177  0.043958337  0.043113154           16 
 3918000   0.61161815   -4.3424331    2070.8291  0.044045199  0.043102947            7 
 3919000   0.60666439   -4.3391676     2070.172  0.044019989  0.043092721           13 
 3920000   0.61284505   -4.3452139    2066.4246  0.043929095  0.043082482            3 
 3921000   0.61773969   -4.3676676    2067.8629  0.043948458  0.043072295            8 
 3922000   0.63535157   -4.3305725    2070.1382  0.043985599  0.043062107            5 
 3923000    0.6223358   -4.3614327    2064.0932  0.043845977  0.043051897           10 
 3924000   0.62612469   -4.3535447    2068.1763  0.043921515  0.043041666           11 
 3925000   0.64023921    -4.361757     2066.926   0.04388378  0.043031431           23 
 3926000   0.61710747   -4.3507128    2060.8267  0.043743137  0.043021212            5 
 3927000   0.62351132   -4.3573406     2066.194  0.043845896   0.04301093            5 
 3928000   0.60440049   -4.3451798    2065.6695  0.043823606  0.043000659            8 
 3929000   0.62163752   -4.3485116    2063.7215  0.043771136  0.042990395           13 
 3930000   0.62783335   -4.3555347    2064.0497  0.043766957  0.042980099           10 
 3931000   0.61821445   -4.3654568    2065.8605   0.04379421  0.042969866            7 
 3932000   0.63285268   -4.3571635    2063.7214  0.043737737   0.04295958            6 
 3933000   0.61694686   -4.3525372    2066.5222   0.04378596  0.042949331            7 
 3934000   0.61776883    -4.356794    2069.8147  0.043844574  0.042939017           12 
 3935000   0.62817377   -4.3398793    2068.8718  0.043813465   0.04292872            7 
 3936000   0.62186122   -4.3588959    2069.7394  0.043820702  0.042918501            9 
 3937000   0.62276172   -4.3583997    2066.3261  0.043737323  0.042908284            9 
 3938000   0.62368212   -4.3764848    2061.9976  0.043634621  0.042898044           10 
 3939000    0.6248665   -4.3669521    2065.8599  0.043705253  0.042887747           12 
 3940000   0.61206572   -4.3450033    2069.4413  0.043769909  0.042877466           13 
 3941000    0.6217818   -4.3606071    2065.8745  0.043683381  0.042867215            8 
 3942000   0.62609432   -4.3702066    2066.5522  0.043686628   0.04285693           12 
 3943000   0.61494821   -4.3556834    2064.6689  0.043635745  0.042846662            6 
 3944000   0.61899158   -4.3715911    2066.7604  0.043668873  0.042836452           21 
 3945000   0.61275038   -4.3441724    2072.0572  0.043769692  0.042826244            6 
 3946000   0.61765592    -4.370613    2068.2322  0.043677821  0.042815975           10 
 3947000   0.62277576   -4.3562654    2069.0004  0.043682975  0.042805722           22 
 3948000   0.61622408   -4.3556577    2064.0323  0.043567044  0.042795519            7 
 3949000   0.63235748   -4.3337147    2072.4112  0.043732826  0.042785318            7 
 3950000   0.62757065   -4.3514379    2065.5232  0.043576439   0.04277508            8 
 3951000   0.62984653   -4.3600642    2068.0468  0.043618637   0.04276487            9 
 3952000   0.63320188   -4.3529144    2068.3974  0.043614993  0.042754596           10 
 3953000   0.61552247   -4.3610121    2070.6622  0.043651704  0.042744356            8 
 3954000      0.62051   -4.3688549    2072.2117   0.04367332  0.042734148           12 
 3955000   0.61414067   -4.3440916    2071.8923  0.043655548  0.042723986            9 
 3956000   0.61642515   -4.3857006     2066.096  0.043522414  0.042713788            7 
 3957000   0.60643074   -4.3520434    2069.0563  0.043573758  0.042703559           13 
 3958000   0.62099453   -4.3735442    2066.5722  0.043510447  0.042693286            6 
 3959000   0.61691033   -4.3774894    2077.3565  0.043726456  0.042683108           12 
 3960000    0.6067303     -4.36122    2064.3772  0.043442281  0.042672892           10 
 3961000    0.6261394   -4.3546343    2067.3321   0.04349348  0.042662663            9 
 3962000   0.62596003   -4.3734959    2067.4506  0.043484995  0.042652484           12 
 3963000   0.62321264   -4.3834145    2069.0834  0.043508355  0.042642225           13 
 3964000   0.62183627   -4.3523889      2069.58   0.04350782  0.042632043            5 
 3965000    0.6218994   -4.3523134    2069.1274  0.043487335  0.042621794            8 
 3966000    0.6027565    -4.368707    2066.0395  0.043411487  0.042611519           12 
 3967000   0.62682125   -4.3754773    2064.0805  0.043359393  0.042601257           13 
 3968000   0.59568098   -4.3583591     2074.898  0.043575648  0.042591038           10 
 3969000   0.61615298   -4.3738203    2068.0641  0.043421184  0.042580794            5 
 3970000   0.61886692   -4.3718288     2070.535  0.043462111  0.042570561           10 
 3971000    0.6137908   -4.3634768     2070.135  0.043442773  0.042560314            8 
 3972000   0.61084839   -4.3552023    2067.6672  0.043380061  0.042550075           10 
 3973000   0.61797231   -4.3549691    2069.2934  0.043403251   0.04253984            9 
 3974000   0.60909098   -4.3585014    2072.9654   0.04346933  0.042529646           14 
 3975000   0.61136598   -4.3800995    2069.3975  0.043383595  0.042519498           15 
 3976000   0.61979706   -4.3584431     2063.247  0.043243776  0.042509292            9 
 3977000   0.61383469   -4.3540929     2067.844  0.043329226  0.042499089           10 
 3978000   0.61963226   -4.3587975    2071.5106  0.043395144  0.042488968           11 
 3979000   0.60805217   -4.3582873    2073.7355  0.043430836  0.042478759           10 
 3980000   0.60949361   -4.3765762     2073.774  0.043420728  0.042468574           14 
 3981000   0.62165404   -4.3499197    2073.3281  0.043400488  0.042458418           12 
 3982000   0.62720233   -4.3700685    2068.1392  0.043280998  0.042448309            6 
 3983000   0.61932031   -4.3796246    2068.6055  0.043279888  0.042438146           14 
 3984000   0.61405075   -4.3752977    2074.9816  0.043402392  0.042427983           14 
 3985000   0.62705394    -4.379913    2069.0641  0.043267756  0.042417793            8 
 3986000   0.60209355   -4.3648975     2073.572  0.043351146  0.042407615           20 
 3987000   0.61070962   -4.3782826     2068.924  0.043243123  0.042397447            9 
 3988000   0.60804463   -4.3689588    2074.5596  0.043350042  0.042387291            7 
 3989000   0.62376773   -4.3678732    2071.3171  0.043271436  0.042377108            6 
 3990000   0.60086224   -4.3542739    2075.6193  0.043350445  0.042366946            4 
 3991000   0.61099281   -4.3787568    2071.8875  0.043261662  0.042356794            4 
 3992000   0.59822111   -4.3759513    2070.7123  0.043226292  0.042346615            8 
 3993000   0.61784545   -4.3360501    2082.2188  0.043455606  0.042336431           11 
 3994000   0.59803667   -4.3705897    2072.3019  0.043237812  0.042326279            7 
 3995000   0.61169864   -4.3819363    2073.9289  0.043260929   0.04231612           14 
 3996000   0.61257233   -4.4068073    2069.5381  0.043158535  0.042305898            8 
 3997000   0.61878513   -4.3934864    2069.3443  0.043143698  0.042295706           16 
 3998000   0.61065335   -4.4025033    2072.3413  0.043195376  0.042285477            6 
 3999000   0.60606625   -4.3818616    2068.9854  0.043114642  0.042275305            8 
 4000000   0.61937736   -4.3856791    2073.3781  0.043195377  0.042265161            5 
 4001000   0.60922973     -4.37139    2073.9889  0.043197304  0.042255048            4 
 4002000   0.61418925   -4.3796723    2067.4534  0.043050422  0.042244905            7 
 4003000   0.61564756   -4.3890633    2072.5203  0.043145147  0.042234739            7 
 4004000    0.6124336   -4.3850455    2072.3807  0.043131467  0.042224573            7 
 4005000   0.60155792   -4.3816023    2074.3979   0.04316267   0.04221447           10 
 4006000   0.62143477   -4.4048183    2068.7637  0.043034691   0.04220435           16 
 4007000    0.6211046   -4.3821109    2072.0469  0.043092233  0.042194227            6 
 4008000   0.60575719   -4.3909607     2068.727  0.043012454  0.042184102           11 
 4009000   0.61049379   -4.3666819    2071.2857  0.043054912  0.042173939            5 
 4010000   0.61845728   -4.3759396    2078.6465  0.043197143  0.042163817            8 
 4011000   0.59136767   -4.3806173    2072.3218  0.043054971  0.042153699            8 
 4012000   0.60508795   -4.3577463    2074.0848  0.043080858  0.042143611           14 
 4013000   0.60901779    -4.384191    2080.8829   0.04321129  0.042133519            5 
 4014000   0.59806742    -4.361644    2071.7813   0.04301157  0.042123434           12 
 4015000   0.61180542   -4.3646708    2071.8656  0.043002606  0.042113288            9 
 4016000   0.61442732    -4.390522    2078.4849  0.043129253  0.042103161            7 
 4017000   0.61538672   -4.3738976    2073.2298  0.043009498  0.042093034           12 
 4018000   0.61700422   -4.3990481    2074.3913  0.043022882  0.042082901           12 
 4019000   0.61236996   -4.3656642    2073.9184  0.043002373  0.042072827           23 
 4020000   0.60353748   -4.3673361    2077.7697  0.043071511  0.042062733           11 
 4021000   0.60896344   -4.4070219    2071.9002  0.042939157  0.042052579           12 
 4022000   0.61551994   -4.3913995     2072.826  0.042947664  0.042042456           11 
 4023000   0.60693276   -4.3961843    2076.2131  0.043007148  0.042032313           12 
 4024000   0.60583872   -4.4073128    2072.7078   0.04292387  0.042022222           13 
 4025000   0.61984193    -4.398764    2070.2257  0.042861815  0.042012074           14 
 4026000   0.59385064   -4.3888973    2076.9367   0.04299008   0.04200196           11 
 4027000   0.61372818   -4.3917671    2075.2597    0.0429447  0.041991933            5 
 4028000   0.59564423   -4.4083444    2074.6871  0.042922194  0.041981926            7 
 4029000   0.60707892   -4.3968625    2076.8208  0.042955672  0.041971888            7 
 4030000   0.60638226   -4.3709526    2079.4694  0.042999781   0.04196188           19 
 4031000   0.62564139   -4.4069855    2075.0208  0.042897146  0.041951848           19 
 4032000   0.59733691   -4.3781616    2077.1473  0.042930459  0.041941759            9 
 4033000   0.60235297   -4.3639996    2076.1142  0.042898466  0.041931688           12 
 4034000   0.60967201   -4.3678104    2075.1114  0.042867117  0.041921645           11 
 4035000   0.61266586   -4.3749876    2082.8332  0.043015969  0.041911607           17 
 4036000   0.59012249   -4.3781945    2075.5868  0.042855691  0.041901592           16 
 4037000   0.59621184   -4.3924783    2080.4542  0.042945549  0.041891555           10 
 4038000   0.60152915   -4.3836743    2074.9832  0.042822008  0.041881426            6 
 4039000   0.59896881   -4.3782758    2075.5082  0.042822236  0.041871338            8 
 4040000   0.59602432   -4.3815333     2077.504  0.042852805  0.041861281           13 
 4041000   0.60300242   -4.3928364    2073.8823  0.042767515  0.041851194           11 
 4042000   0.60228196   -4.3927489    2076.5339  0.042811601  0.041841139           16 
 4043000   0.60846411   -4.3818067    2080.1465  0.042875473  0.041831086            7 
 4044000   0.61514399   -4.3925461    2078.3093  0.042827014   0.04182104            6 
 4045000   0.60691156   -4.4015743    2077.3095  0.042795829  0.041810987            7 
 4046000   0.58922267   -4.3782393    2080.2911  0.042846662  0.041800932            4 
 4047000   0.60307018   -4.3785215    2081.2315  0.042855439  0.041790908            6 
 4048000   0.59895024   -4.3696721    2085.9214  0.042941399  0.041780911           10 
 4049000   0.61194483   -4.3881373    2081.4704  0.042839188  0.041770919           22 
 4050000   0.59406764   -4.4031641    2075.2088  0.042699769  0.041760883           23 
 4051000   0.58963593   -4.4026192    2075.2224  0.042689508   0.04175081           18 
 4052000   0.59939765   -4.4049974    2072.4266  0.042621474  0.041740746            4 
 4053000   0.60515518   -4.4123388    2073.6789  0.042636708  0.041730723            6 
 4054000   0.59243438   -4.3829249    2078.6102  0.042727558  0.041720702            9 
 4055000   0.60179751   -4.3933934    2080.5015  0.042755888  0.041710716            8 
 4056000   0.60253318   -4.3992789    2077.7278  0.042688359  0.041700712           19 
 4057000   0.59193177   -4.3877166    2078.8907  0.042701724  0.041690737           14 
 4058000   0.59940893   -4.4119578    2072.6752  0.042563563  0.041680712           16 
 4059000   0.60551681    -4.403176    2069.4256  0.042486359  0.041670626           13 
 4060000   0.60185657   -4.4276841    2076.4531  0.042620138  0.041660512            7 
 4061000    0.5931537   -4.3956679    2077.2786  0.042626581  0.041650469            9 
 4062000   0.61379821   -4.4050238     2077.921  0.042629266  0.041640492            8 
 4063000   0.60447896   -4.4119509    2069.7864  0.042451933  0.041630458           14 
 4064000    0.6079266   -4.3880125    2079.1566  0.042633625  0.041620411            6 
 4065000   0.59464672   -4.4141208    2077.1945  0.042582913  0.041610404            7 
 4066000   0.58859365   -4.3916061    2083.3363  0.042698318   0.04160038            6 
 4067000   0.58422479   -4.4129153    2076.7441  0.042552745   0.04159034           15 
 4068000   0.60180107    -4.398655    2070.5331  0.042415049   0.04158039           12 
 4069000   0.60375615    -4.397282    2080.8751  0.042616431  0.041570425            9 
 4070000    0.6250117   -4.3837331    2087.0951  0.042733316  0.041560506           18 
 4071000   0.61376553   -4.4262643    2076.2743  0.042501315  0.041550573           14 
 4072000   0.60563134   -4.3940858    2085.4971  0.042679622  0.041540621           15 
 4073000   0.59217376   -4.3902106    2080.1191  0.042559111  0.041530662           16 
 4074000   0.60377777   -4.4138431    2081.0907  0.042568537  0.041520745            8 
 4075000   0.57502295    -4.412163    2080.4375  0.042544734  0.041510815            4 
 4076000   0.60258922   -4.3703605    2084.1109  0.042609398  0.041500913            7 
 4077000   0.59798992   -4.4101093    2078.8835  0.042492099  0.041491009           12 
 4078000    0.5877795   -4.3967102    2078.3005  0.042469766  0.041481107           19 
 4079000   0.60473375   -4.3877998    2077.5898  0.042444834  0.041471207           13 
 4080000   0.58654106    -4.385601     2084.145  0.042568322  0.041461247            9 
 4081000   0.59192153   -4.4163718    2078.9474  0.042451756  0.041451262           12 
 4082000   0.59230254   -4.3904773    2080.9228  0.042481683  0.041441325            8 
 4083000   0.60054666   -4.4009025    2085.6148  0.042567043  0.041431421            6 
 4084000   0.58225582    -4.383692    2082.4715   0.04249248  0.041421568           25 
 4085000   0.59054917   -4.4117971    2078.9817  0.042410888  0.041411634           20 
 4086000   0.59670923   -4.4064464    2081.8793  0.042459604  0.041401757            7 
 4087000   0.59937568   -4.3867812    2086.2716  0.042538773  0.041391867           11 
 4088000   0.59992236   -4.4138106    2083.9264  0.042480561  0.041382008           10 
 4089000   0.59769347   -4.4177696    2079.5317  0.042380609  0.041372161           13 
 4090000   0.59853093   -4.3901963    2079.4669  0.042368927  0.041362294           17 
 4091000   0.57273864    -4.416923    2084.9365  0.042469985  0.041352398            8 
 4092000   0.59478428   -4.3969912    2080.8427  0.042376236  0.041342506            8 
 4093000   0.59301241   -4.4007529    2081.7888  0.042385145  0.041332663           21 
 4094000    0.5975697   -4.3823679    2082.7047  0.042393435  0.041322813            9 
 4095000   0.59600481   -4.3856582    2084.5274  0.042420176  0.041313008           12 
 4096000   0.59815406   -4.3786066    2084.0169  0.042399431  0.041303171           13 
 4097000   0.61211018   -4.4320296    2084.8422  0.042405871  0.041293298           10 
 4098000    0.5935182   -4.3996359      2083.38  0.042365788  0.041283364           10 
 4099000   0.59907172   -4.4201065    2082.4295  0.042336129  0.041273507           18 
 4100000    0.5799446   -4.4051705    2079.1264  0.042258666  0.041263669            8 
 4101000   0.60333468   -4.4052609    2086.5751  0.042399721  0.041253791            8 
 4102000   0.58800679   -4.4174589    2083.2459  0.042321751  0.041243941            9 
 4103000   0.60107875   -4.3924965     2087.949  0.042406959  0.041234113            9 
 4104000   0.60167779   -4.4096183    2084.2628  0.042321776  0.041224338            5 
 4105000   0.60310772    -4.387769    2089.9312  0.042426536  0.041214523           11 
 4106000    0.5898182   -4.4014452    2088.6659  0.042390525  0.041204666            8 
 4107000   0.59334094   -4.4107524    2082.1894  0.042248791  0.041194814            6 
 4108000   0.59227958   -4.3850058    2083.4441  0.042263959  0.041184971           14 
 4109000   0.58583985   -4.4150288    2080.6909  0.042197836  0.041175127            8 
 4110000   0.59297618   -4.4173647    2083.3178  0.042240831  0.041165223           10 
 4111000   0.62092578   -4.4335746    2084.0034  0.042244454  0.041155322            6 
 4112000   0.58930786   -4.4205435    2088.1941  0.042319109  0.041145505           10 
 4113000   0.59696725   -4.4180761    2078.7833  0.042118147  0.041135634            7 
 4114000   0.60326558   -4.4012469    2080.8435  0.042149641  0.041125804           10 
 4115000   0.59686515   -4.4344876    2084.1038  0.042205422   0.04111598           11 
 4116000   0.59853607   -4.4144914    2080.1437  0.042114992  0.041106129           31 
 4117000    0.5873347   -4.4235352    2081.7562  0.042137402  0.041096314            7 
 4118000   0.59316588   -4.4166604    2082.5699  0.042143636  0.041086459            6 
 4119000   0.60047432   -4.4224685    2084.7448  0.042177405  0.041076635            7 
 4120000   0.58787885   -4.4123759     2083.342  0.042138795  0.041066792            8 
 4121000   0.58204707   -4.4159449    2085.1115  0.042164352   0.04105702            9 
 4122000   0.60346134   -4.4283689    2083.5586  0.042122729  0.041047154            9 
 4123000   0.59169816   -4.4350258    2081.2807   0.04206647  0.041037276            7 
 4124000   0.58859963   -4.4198631    2089.7644  0.042227701  0.041027391            7 
 4125000   0.60465609   -4.4031851    2081.1047  0.042042518  0.041017565            7 
 4126000    0.5922068   -4.4260576    2082.4316  0.042059129  0.041007754            8 
 4127000   0.58664052   -4.4462298    2085.0632  0.042102075  0.040997943            9 
 4128000   0.58698168   -4.4100961    2082.1885  0.042033843  0.040988085           19 
 4129000   0.59419844   -4.4036828    2086.7457  0.042115639  0.040978257           11 
 4130000   0.58424874   -4.4303024    2091.2239  0.042195802  0.040968432            9 
 4131000   0.59748298   -4.4078328    2088.1652  0.042123884  0.040958645           15 
 4132000   0.59022212   -4.4203675     2083.393  0.042017445  0.040948823           10 
 4133000    0.5967663   -4.4236459    2080.2521   0.04194395  0.040939037           11 
 4134000   0.59227624   -4.4255118    2085.1385  0.042032304    0.0409292            9 
 4135000   0.58002584   -4.4207145    2079.8861  0.041916285  0.040919353           18 
 4136000   0.58948978   -4.4067491    2078.7487  0.041883234  0.040909522            5 
 4137000   0.59734378   -4.4078338      2085.98  0.042018774  0.040899693           14 
 4138000   0.59393604   -4.4298222    2084.4562  0.041977931  0.040889854            8 
 4139000   0.59969608   -4.4252099    2083.4391  0.041947312  0.040880014           11 
 4140000   0.58955306   -4.4138395    2084.7203  0.041962969   0.04087018           19 
 4141000   0.59137365   -4.4089709    2085.2633  0.041963763  0.040860376           20 
 4142000   0.58828558   -4.4335426    2086.2236  0.041972951  0.040850547            5 
 4143000   0.58624499   -4.4200733    2088.2258  0.042003094  0.040840742           15 
 4144000    0.6061861   -4.4161173    2085.2515  0.041933146  0.040830889           11 
 4145000   0.58542855   -4.4324563    2085.1925  0.041921844  0.040821075            7 
 4146000   0.59163848   -4.4506431    2083.5122  0.041877959  0.040811199            7 
 4147000    0.5943406    -4.429327    2079.9689  0.041796659  0.040801305            8 
 4148000   0.57696563   -4.4253887    2077.2938  0.041732839  0.040791397           11 
 4149000   0.57839722   -4.4471922    2080.5159  0.041787496  0.040781498            6 
 4150000   0.58575764   -4.4433292    2081.5387  0.041797966   0.04077163           10 
 4151000    0.5904509   -4.4267486     2079.074  0.041738417  0.040761741            8 
 4152000   0.60395793    -4.422477    2085.3501  0.041854329  0.040751904           11 
 4153000   0.58766285    -4.404567    2085.6884   0.04185104  0.040742106            6 
 4154000   0.58153886   -4.4231003    2086.1911  0.041851049  0.040732325            7 
 4155000   0.58701126   -4.4435185    2075.7652  0.041631874  0.040722476           12 
 4156000   0.58405378   -4.4295357    2081.4744  0.041736333  0.040712616           13 
 4157000   0.59816918   -4.4082305    2081.2984  0.041722766  0.040702787            7 
 4158000   0.57963876   -4.4250375    2087.4027   0.04183507  0.040692961            8 
 4159000   0.58083004   -4.4175577    2087.4551  0.041826063   0.04068313           11 
 4160000    0.5890533   -4.4204688    2080.4517  0.041675716   0.04067328           11 
 4161000   0.57753622   -4.4488615    2083.9613  0.041735987  0.040663401           15 
 4162000   0.58915952   -4.4265108     2084.631  0.041739368  0.040653521           13 
 4163000   0.59081189   -4.4200942    2082.1758  0.041680195  0.040643714           25 
 4164000   0.59268149   -4.4369379    2084.3225  0.041713147  0.040633859           17 
 4165000   0.57837334   -4.4252767     2081.307  0.041642796  0.040624061           10 
 4166000   0.58534291   -4.4350637     2086.595  0.041738578  0.040614202            7 
 4167000   0.57647096   -4.4401592    2079.2494  0.041581661  0.040604351           12 
 4168000   0.59434193   -4.4349944     2081.517  0.041617023  0.040594468           16 
 4169000   0.58382813   -4.4265891    2081.6303  0.041609305  0.040584612            7 
 4170000   0.59027365    -4.421802     2079.318  0.041553118   0.04057475           11 
 4171000   0.59931951   -4.4114545    2086.7803  0.041692246  0.040564924            7 
 4172000   0.57210305   -4.4118572    2083.8452  0.041623626  0.040555074           15 
 4173000   0.57860404   -4.4230665    2081.7735  0.041572281  0.040545254           21 
 4174000   0.58579421   -4.4531607    2084.4948  0.041616651  0.040535392           39 
 4175000    0.5784552   -4.4471314    2082.8312  0.041573476  0.040525493           25 
 4176000   0.58666808   -4.4411902    2080.2958  0.041512927  0.040515624           26 
 4177000   0.58606347   -4.4120638    2088.0236  0.041657162  0.040505789           14 
 4178000   0.60048003   -4.4521382    2080.0389  0.041487931  0.040495973           39 
 4179000    0.5926424   -4.4275044    2085.7241  0.041591372  0.040486113            9 
 4180000    0.5766824   -4.4313211    2082.6726  0.041520587  0.040476289           10 
 4181000   0.58321034   -4.4316966    2083.5444  0.041528031   0.04046648            9 
 4182000   0.58396589   -4.4473844    2085.6493  0.041560045  0.040456626            8 
 4183000   0.59422112   -4.4406274    2086.7552   0.04157214  0.040446831           18 
 4184000   0.58267377   -4.4311314    2087.3727  0.041574505  0.040437016           14 
 4185000   0.56849243   -4.4282259    2083.7497  0.041492427  0.040427218           10 
 4186000   0.58320283   -4.4559004    2077.6341  0.041360769  0.040417382           17 
 4187000   0.57362738   -4.4462024    2085.3467  0.041504392  0.040407558            5 
 4188000   0.58711222   -4.4527464    2084.2811  0.041473279  0.040397712            7 
 4189000   0.59232987   -4.4357217    2083.8236  0.041454277  0.040387864           10 
 4190000   0.58244611   -4.4664672    2079.9466  0.041367275  0.040377985           13 
 4191000   0.59056401   -4.4583575     2083.938  0.041436769  0.040368143           19 
 4192000   0.56479526   -4.4359448    2082.8532  0.041405319  0.040358333            8 
 4193000   0.57709295   -4.4451296    2087.0699   0.04147925  0.040348536           15 
 4194000   0.57517049   -4.4338152    2087.5787  0.041479469  0.040338763            8 
 4195000   0.58254229   -4.4425851     2084.637  0.041411143  0.040328944           18 
 4196000    0.5824305   -4.4355564    2085.1048  0.041410566  0.040319113           18 
 4197000   0.58065605   -4.4316696    2088.1666  0.041461492  0.040309305            8 
 4198000   0.58754789    -4.458549    2082.4023   0.04133719   0.04029945           11 
 4199000   0.58161713   -4.4398239    2088.0265  0.041438964  0.040289591            9 
 4200000   0.57931833   -4.4275312    2090.5682  0.041479527  0.040279804            8 
 4201000   0.59736609   -4.4110386    2088.6974  0.041432544  0.040270064            7 
 4202000   0.59062497   -4.4363549    2083.6294  0.041322176   0.04026031            7 
 4203000   0.57430132   -4.4366636    2089.9399  0.041437464  0.040250537            8 
 4204000   0.57484781   -4.4612092    2083.6965  0.041303848   0.04024079           16 
 4205000   0.59175394   -4.4490193    2088.2095  0.041383462  0.040231041           12 
 4206000   0.56248385   -4.4319764    2091.5287  0.041439387  0.040221295           22 
 4207000   0.56532832   -4.4362519    2086.4778  0.041329487  0.040211566           17 
 4208000   0.57964984   -4.4349538    2087.4819   0.04133955  0.040201852           14 
 4209000   0.58787999   -4.4482118    2088.2665  0.041345262  0.040192134           11 
 4210000   0.57602594   -4.4573379    2087.5697  0.041321649  0.040182395           12 
 4211000   0.57437706   -4.4500427    2082.7607  0.041216668  0.040172659           13 
 4212000   0.59288476   -4.4441902    2083.5605  0.041222707  0.040162894           10 
 4213000   0.57733511   -4.4562966    2085.2974  0.041247278  0.040153109           13 
 4214000    0.5864816   -4.4468914    2085.5642  0.041242766  0.040143339           14 
 4215000   0.57462754   -4.4507484    2086.2484  0.041246509  0.040133576           12 
 4216000   0.57573297   -4.4513603     2092.003  0.041350471  0.040123854           17 
 4217000   0.57630074   -4.4463966    2090.1478  0.041304004   0.04011411           18 
 4218000   0.58209085   -4.4062957    2094.2131  0.041374528  0.040104428            4 
 4219000   0.56187723    -4.449248     2088.712  0.041256063  0.040094697           23 
 4220000   0.56987948   -4.4233106    2085.6998  0.041186804  0.040084978            9 
 4221000   0.56969311   -4.4643726    2087.6059  0.041214679  0.040075236           19 
 4222000     0.590215   -4.4361508    2085.7063  0.041167422  0.040065505           18 
 4223000   0.58205057   -4.4600507    2085.5347  0.041154288  0.040055766           17 
 4224000   0.58411326   -4.4356114    2085.2176  0.041138288  0.040045972            9 
 4225000   0.57155395   -4.4628392      2087.25   0.04116864  0.040036178           16 
 4226000   0.57282559   -4.4573814    2086.1296  0.041136804   0.04002643           21 
 4227000   0.56671522   -4.4583139    2083.9178  0.041083467  0.040016677           20 
 4228000   0.57571762   -4.4524612    2083.6208  0.041067897  0.040006901           14 
 4229000   0.58036712   -4.4440798    2082.1202  0.041028616  0.039997139            5 
 4230000   0.58506814   -4.4218592    2084.7162  0.041070058  0.039987393           11 
 4231000   0.57425357   -4.4342726     2087.031  0.041105945  0.039977651           11 
 4232000   0.57158056   -4.4452963     2085.942  0.041074787  0.039967877            8 
 4233000   0.57634624   -4.4516952    2091.2779   0.04117013  0.039958141           11 
 4234000   0.56910893   -4.4636739     2085.149  0.041039777  0.039948377            5 
 4235000   0.57640104   -4.4344194    2087.2389   0.04107121  0.039938624           12 
 4236000   0.56665186   -4.4499541    2082.0666  0.040959762  0.039928853           24 
 4237000   0.57830209   -4.4690172    2085.6236  0.041020053  0.039919084           14 
 4238000   0.57578242    -4.464288     2081.318  0.040925712  0.039909332            6 
 4239000   0.57940097   -4.4543821    2083.4721  0.040958405  0.039899598           25 
 4240000   0.57950363    -4.450327    2089.0012  0.041057413  0.039889847           14 
 4241000   0.56655178   -4.4714249    2084.9134  0.040967409  0.039880135           11 
 4242000   0.57178052   -4.4276145    2091.4078  0.041085333  0.039870398            9 
 4243000    0.5776943   -4.4420374    2082.8494  0.040907562  0.039860678            7 
 4244000   0.58051641   -4.4636077    2083.8426  0.040917424  0.039850982            5 
 4245000   0.57720958   -4.4443006    2087.6993  0.040983496  0.039841244           11 
 4246000   0.57329827   -4.4314582    2087.4459   0.04096887  0.039831536            8 
 4247000   0.57231755   -4.4382534    2084.3973  0.040899406  0.039821837            4 
 4248000   0.57240963   -4.4515837    2086.1043  0.040923265   0.03981209           11 
 4249000   0.56215028   -4.4507856    2092.8126    0.0410452   0.03980236           19 
 4250000   0.57898487     -4.46555    2085.1275  0.040884854  0.039792617           10 
 4251000   0.57403714   -4.4606621    2084.1491  0.040856055  0.039782844           10 
 4252000   0.57160553   -4.4516225    2086.0754    0.0408842  0.039773022           14 
 4253000   0.58438173   -4.4611154    2086.6838  0.040886508  0.039763252           11 
 4254000   0.57902816   -4.4600971    2083.1791  0.040808241  0.039753429           12 
 4255000   0.56064358   -4.4443619    2088.2645  0.040898247  0.039743661           10 
 4256000   0.56680274   -4.4426258    2089.0664  0.040904339   0.03973392           17 
 4257000   0.57235792   -4.4637822      2088.13    0.0408764  0.039724184           12 
 4258000   0.57708019   -4.4639979    2080.5886  0.040719207  0.039714434           24 
 4259000   0.57505445   -4.4422749     2089.324  0.040880566  0.039704726           25 
 4260000    0.5691261   -4.4442239    2081.3548  0.040715079  0.039695005           17 
 4261000   0.57456785   -4.4721271    2084.8208  0.040773309  0.039685251           41 
 4262000   0.57265424   -4.4570811     2085.965  0.040786114  0.039675513           10 
 4263000   0.57246853   -4.4611356    2082.9594  0.040717792  0.039665742           11 
 4264000   0.57685072   -4.4656319     2080.162  0.040653572  0.039655979           11 
 4265000   0.56561409   -4.4776849    2087.2446  0.040782427  0.039646268           11 
 4266000   0.56422842   -4.4518311    2084.9558  0.040728157   0.03963652           14 
 4267000   0.56911104   -4.4817959    2082.0415  0.040661696  0.039626749           14 
 4268000   0.56207049   -4.4606515     2080.023  0.040612758  0.039616961            9 
 4269000   0.54997223   -4.4595776    2090.5933  0.040809583  0.039607201           11 
 4270000   0.55570065     -4.46265    2086.0004  0.040710391  0.039597459            8 
 4271000   0.56254189    -4.466466     2086.083   0.04070247  0.039587752           16 
 4272000   0.57117915   -4.4603409    2084.6766  0.040665507  0.039577992           15 
 4273000   0.56000098   -4.4692277    2084.7535  0.040657491  0.039568264           13 
 4274000   0.56337493   -4.4795585    2085.8422  0.040669206  0.039558497           10 
 4275000    0.5523629    -4.458837    2086.6751  0.040675928  0.039548749           17 
 4276000   0.55869927   -4.4546753    2087.5062  0.040682612  0.039539057           14 
 4277000   0.57197781   -4.4661953    2086.4066  0.040651675  0.039529352           34 
 4278000   0.57285055   -4.4594899    2088.2207  0.040677511  0.039519623           14 
 4279000   0.56388984     -4.47799    2085.9411   0.04062361  0.039509897           17 
 4280000   0.56401604   -4.4497307    2085.0393  0.040596559  0.039500224           14 
 4281000   0.57438364   -4.4636304    2082.1235  0.040530318  0.039490535            5 
 4282000   0.57306183   -4.4569939    2088.4843  0.040644643  0.039480821           22 
 4283000   0.57067547   -4.4497407    2088.0678  0.040627048  0.039471141            5 
 4284000   0.57037425   -4.4549934     2088.554  0.040627023   0.03946144            8 
 4285000   0.57226865   -4.4688491    2090.8375  0.040661951    0.0394518           17 
 4286000   0.57362959   -4.4664861    2083.6287  0.040512302  0.039442164            6 
 4287000   0.56915662   -4.4585806    2089.3408  0.040613887  0.039432514           24 
 4288000   0.57048096   -4.4674147    2093.8433  0.040691918  0.039422856           15 
 4289000   0.56093657   -4.4787578    2089.8036   0.04060394  0.039413196           15 
 4290000   0.56582956   -4.4562096    2090.4762  0.040607541  0.039403568           20 
 4291000   0.56386097   -4.4360236    2080.6088  0.040406448  0.039393905            8 
 4292000   0.56493345   -4.4762307     2089.385  0.040567432  0.039384225           22 
 4293000   0.56081642   -4.4822143    2089.4338  0.040558929  0.039374594           34 
 4294000   0.56222716   -4.4603376    2090.0978  0.040562371  0.039364945           22 
 4295000   0.57740299   -4.4965735    2092.0283  0.040590383  0.039355301            8 
 4296000   0.56299771   -4.4873226    2087.2611  0.040488461  0.039345634           17 
 4297000   0.56408353   -4.4844346     2088.059  0.040494511     0.039336           23 
 4298000   0.56915828   -4.4885365    2085.5562  0.040436564  0.039326258           28 
 4299000   0.55835082   -4.4692978    2087.7364  0.040469419  0.039316586           19 
 4300000   0.55786236   -4.4856797    2087.7644   0.04046055  0.039306951           22 
 4301000   0.55467436   -4.4887982    2089.7869  0.040490329  0.039297321           19 
 4302000   0.55213046    -4.485808    2084.4059  0.040376682  0.039287705            8 
 4303000    0.5679219   -4.4850321     2092.156  0.040517391  0.039278109           20 
 4304000   0.54776107   -4.4493386    2088.7704  0.040442425  0.039268536           15 
 4305000   0.57622141   -4.4745477    2083.2991  0.040327121  0.039258944            8 
 4306000   0.55683661   -4.4725686    2092.2729  0.040491425  0.039249351           19 
 4307000   0.56692765   -4.4734451    2089.5589  0.040429513  0.039239707           26 
 4308000    0.5500227   -4.4784589    2086.0807  0.040352846  0.039230061            4 
 4309000   0.55775044   -4.4757563    2089.9312  0.040417947   0.03922041           12 
 4310000   0.55181994   -4.4783692    2091.6423  0.040441652  0.039210819           12 
 4311000   0.56501562   -4.4772618    2086.9982  0.040342499   0.03920117           19 
 4312000   0.55160875   -4.4636145    2093.8685  0.040465918  0.039191593           16 
 4313000   0.56476138   -4.4777545    2090.5866  0.040393126  0.039181992           14 
 4314000   0.56998511   -4.4681601    2091.3885  0.040399252   0.03917236           14 
 4315000   0.56696922   -4.4632371    2083.4883  0.040237317  0.039162765           19 
 4316000   0.55688827   -4.4625702    2090.3679  0.040360826  0.039153179           15 
 4317000   0.55530755   -4.4713914    2089.5253  0.040335211  0.039143613            9 
 4318000   0.56179819   -4.4530517    2091.2998  0.040360116  0.039134048           11 
 4319000   0.56606479   -4.4755039    2092.4031  0.040372059  0.039124464           10 
 4320000   0.54810087   -4.4654647    2092.8148  0.040370656  0.039114921            7 
 4321000   0.55458753   -4.4668974     2090.335  0.040313489  0.039105354            7 
 4322000   0.55465807   -4.4617711    2096.6186  0.040425316  0.039095845           12 
 4323000   0.55960892   -4.4658285    2093.4103   0.04035412  0.039086319           23 
 4324000   0.56124216   -4.4782029    2092.3369  0.040324099  0.039076745           30 
 4325000   0.56417404   -4.4814391    2094.5393  0.040357212  0.039067133           18 
 4326000   0.56317236   -4.4734051    2090.3505  0.040267193  0.039057536            5 
 4327000   0.55799051   -4.4529857     2088.683  0.040225773  0.039047945            8 
 4328000    0.5539201   -4.4606556    2091.3683  0.040268182  0.039038371           11 
 4329000   0.56293793   -4.4756938     2095.009  0.040328963  0.039028811            7 
 4330000   0.57165126   -4.4865568    2085.1728  0.040130347  0.039019258            9 
 4331000   0.56704136   -4.4768186    2092.5547  0.040263117  0.039009666            9 
 4332000   0.56816539   -4.4669875    2093.4707  0.040271443  0.039000146           15 
 4333000   0.55466053   -4.4660558    2094.3342  0.040278756  0.038990578            7 
 4334000   0.55091424    -4.491997    2090.0949  0.040187951  0.038981021           12 
 4335000   0.56007417   -4.4673632    2096.4686  0.040301204  0.038971468           19 
 4336000   0.55375038   -4.4909679    2093.0957  0.040227086  0.038961895           11 
 4337000   0.56369025   -4.4922364    2093.5556  0.040226646   0.03895233           10 
 4338000    0.5687276   -4.4953599    2090.0568  0.040150161  0.038942691           17 
 4339000   0.56260216   -4.5045047     2086.873  0.040079761  0.038933111           21 
 4340000   0.56361737   -4.4900522    2093.0608   0.04018934  0.038923522           33 
 4341000   0.55622132   -4.4847663    2092.4062  0.040167515  0.038913988           11 
 4342000   0.55916154    -4.483394    2088.4534    0.0400824  0.038904428           17 
 4343000   0.55107292   -4.4720969     2093.615  0.040172212  0.038894881           18 
 4344000   0.54925396   -4.4840978    2094.3227   0.04017654   0.03888533           29 
 4345000   0.56657407   -4.5079719    2088.0488  0.040046965  0.038875762           21 
 4346000   0.54523766   -4.4839902    2094.2711  0.040157062  0.038866197           39 
 4347000   0.56653665   -4.4940237    2087.6019  0.040019973  0.038856626           28 
 4348000    0.5588063   -4.4954697    2090.2773  0.040062046  0.038847014           22 
 4349000   0.55617743   -4.4863356    2084.4401  0.039940985  0.038837387           17 
 4350000   0.56186308   -4.4876017    2086.1028  0.039963655  0.038827816           10 
 4351000    0.5534104    -4.505898    2091.3719  0.040055389  0.038818256           19 
 4352000   0.55260818   -4.4817212    2091.5403  0.040049408  0.038808692            8 
 4353000   0.55605769   -4.4992663    2089.6434  0.040003893  0.038799099           14 
 4354000   0.55519111   -4.4917913    2094.7269  0.040092002  0.038789535           14 
 4355000   0.54974382   -4.4790031    2088.3612  0.039960987   0.03878001           11 
 4356000    0.5480516   -4.4864986    2095.2699  0.040083981  0.038770488           60 
 4357000   0.55748471    -4.500994    2093.5868   0.04004259  0.038760964           11 
 4358000   0.55403959   -4.4998563     2091.973  0.040002542  0.038751445           18 
 4359000   0.55414623   -4.5077572    2092.5359  0.040004128  0.038741898            9 
 4360000   0.55306091     -4.48735    2086.9709  0.039888588  0.038732349           14 
 4361000   0.55596465   -4.4737095    2091.8125  0.039971959  0.038722819           11 
 4362000   0.55052211   -4.4895353    2095.3753   0.04003086  0.038713327           16 
 4363000    0.5636066   -4.4861998    2092.2851  0.039962662   0.03870385           32 
 4364000   0.55421551   -4.4811509    2094.0902  0.039987974  0.038694336           25 
 4365000   0.55717467   -4.4875068    2097.8749  0.040051067  0.038684851            9 
 4366000   0.54907498   -4.4854294    2089.6272   0.03988447  0.038675369            7 
 4367000   0.53842428    -4.480548    2094.8962  0.039975884  0.038665852           11 
 4368000   0.55154566   -4.4949248     2091.936  0.039910257  0.038656356           18 
 4369000   0.55440563   -4.4744907    2092.4444   0.03991082  0.038646892           11 
 4370000    0.5596305   -4.4844759    2091.0615  0.039875314  0.038637453            9 
 4371000   0.54924222   -4.5005693    2093.4665  0.039912043  0.038627947            6 
 4372000    0.5441333   -4.5208491    2093.4054  0.039901749  0.038618452           10 
 4373000   0.54517746   -4.5009242    2088.9359  0.039807454  0.038608889           19 
 4374000   0.55783975   -4.4867456    2091.7067  0.039851141  0.038599346           14 
 4375000   0.55560134   -4.4909905      2092.66   0.03986019  0.038589842            8 
 4376000    0.5439474   -4.5086361    2089.8486  0.039797544  0.038580354           26 
 4377000   0.55567702   -4.5133811    2088.2179  0.039757405  0.038570872           16 
 4378000   0.55267159   -4.5111834     2090.323  0.039788394   0.03856134           28 
 4379000   0.55421968   -4.4892272    2088.9832   0.03975381  0.038551822           19 
 4380000   0.54577847   -4.5127477    2088.2849  0.039731447  0.038542312            8 
 4381000   0.54792066   -4.4967092    2092.7318  0.039806965  0.038532765           15 
 4382000   0.54601868    -4.510534    2089.7595  0.039741357  0.038523252            9 
 4383000   0.54446279   -4.4968512    2089.8133  0.039733313   0.03851371            6 
 4384000   0.55308447   -4.5079852    2088.8122   0.03970522  0.038504188           19 
 4385000    0.5493525   -4.4992105    2089.3088  0.039705603  0.038494667           16 
 4386000    0.5510736   -4.4973352    2093.5456  0.039777049   0.03848514            8 
 4387000    0.5614917   -4.4960447    2097.1781  0.039836983  0.038475664           20 
 4388000   0.55315433   -4.4869082    2093.2605  0.039753503  0.038466206            9 
 4389000   0.54787502   -4.4897636    2093.8015  0.039754718  0.038456742            9 
 4390000   0.54785971   -4.4886246    2091.2336  0.039696917  0.038447247           11 
 4391000   0.56281858   -4.4945031     2090.169  0.039667672  0.038437736           14 
 4392000   0.55474284   -4.5277379    2090.4054  0.039663127  0.038428236           23 
 4393000   0.54887633   -4.5162426    2088.7464  0.039622628  0.038418732           15 
 4394000   0.54566931     -4.48905    2095.7248  0.039745956  0.038409237           43 
 4395000   0.55675326   -4.5099923    2094.7907  0.039719202   0.03839977            6 
 4396000   0.54429055   -4.5199717    2091.4479  0.039646798  0.038390264           18 
 4397000   0.55438835   -4.5184781    2095.2972  0.039710735  0.038380738           10 
 4398000   0.53960714    -4.508767    2093.5616   0.03966882  0.038371224           27 
 4399000   0.54871493   -4.4925915    2095.2791  0.039692338  0.038361724           21 
 4400000    0.5512398   -4.5047909    2097.6894  0.039728965  0.038352229            8 
 4401000   0.54769497   -4.5142596    2094.0242  0.039650539  0.038342721           10 
 4402000   0.54195582   -4.4878095     2093.003  0.039622197  0.038333216           17 
 4403000   0.55481333   -4.4818558    2093.3803  0.039620341   0.03832376            7 
 4404000   0.54384583   -4.5047279    2093.4289  0.039612263  0.038314303           11 
 4405000   0.54767506    -4.509302    2089.1777  0.039522846   0.03830481           20 
 4406000   0.55435655   -4.5078783    2092.3991  0.039574804   0.03829532           19 
 4407000   0.54814545   -4.5175612    2087.9987  0.039482617  0.038285869           16 
 4408000   0.53873599   -4.5116895    2093.0303  0.039568783  0.038276387            6 
 4409000   0.53037047   -4.5230036    2094.3339  0.039584446   0.03826692           14 
 4410000   0.55895475   -4.5155567    2092.4868  0.039540567  0.038257453           25 
 4411000   0.53434047   -4.5003288    2091.0472  0.039504406  0.038248007           19 
 4412000   0.54883475   -4.4884552    2090.8786  0.039492267   0.03823857           15 
 4413000   0.54747242   -4.5314651    2094.4819  0.039551362  0.038229058           15 
 4414000   0.55071399   -4.5155062    2095.1614  0.039555229  0.038219574           19 
 4415000   0.53936715   -4.4956086    2092.3106  0.039492462  0.038210158           23 
 4416000   0.53780456   -4.4991749    2092.2692  0.039482737  0.038200725           10 
 4417000   0.54176175   -4.4843802    2094.6085  0.039517933  0.038191317           17 
 4418000   0.54413927   -4.5026334    2093.4324  0.039486805  0.038181879           20 
 4419000   0.55031236   -4.4947227     2092.091  0.039452573  0.038172446           10 
 4420000   0.55852277   -4.4928341    2093.5683  0.039471498  0.038162999           21 
 4421000   0.53474793   -4.5074703    2092.4481  0.039441456  0.038153582           11 
 4422000   0.54404513   -4.4933757    2090.6265  0.039398208  0.038144162           12 
 4423000   0.54259622   -4.5076781    2096.1701  0.039493747  0.038134759           12 
 4424000   0.55345665   -4.5204836    2094.4475  0.039452371  0.038125357            8 
 4425000   0.54732799   -4.5182537    2092.0812  0.039398892  0.038115891            6 
 4426000   0.53822931    -4.511662    2090.2526  0.039355563   0.03810645            7 
 4427000   0.54147921   -4.5012456    2091.1682  0.039363907   0.03809701            9 
 4428000   0.54968777   -4.5177859    2097.9027  0.039481758  0.038087609            7 
 4429000    0.5369447   -4.5048189    2095.0968   0.03942005  0.038078207            5 
 4430000   0.53257279   -4.4995266    2097.0519  0.039447928  0.038068796            8 
 4431000   0.54396534    -4.524453    2092.6938  0.039357065  0.038059372           16 
 4432000   0.53653571   -4.4998364     2092.368  0.039342059  0.038049977           11 
 4433000   0.53188812   -4.4933217    2089.6043  0.039281229  0.038040576           23 
 4434000   0.54225283   -4.4949595    2092.4627  0.039326091  0.038031151           25 
 4435000   0.53951409   -4.5278974    2087.4099  0.039222283  0.038021701           16 
 4436000   0.54251685   -4.5287413    2091.5222  0.039290694  0.038012256           13 
 4437000   0.54523502   -4.5297528    2090.7814  0.039267926  0.038002808            7 
 4438000   0.54039423   -4.5093793    2096.1155  0.039359237  0.037993372            7 
 4439000   0.54291236    -4.528545    2090.7539  0.039249717  0.037983969           17 
 4440000   0.53836577   -4.5183057    2087.8864  0.039187058  0.037974563            9 
 4441000   0.53591535   -4.5149223    2093.4165  0.039282003  0.037965165           17 
 4442000   0.53874979   -4.5247121     2093.729  0.039279022  0.037955741           10 
 4443000   0.53481044   -4.5194219    2093.0506  0.039257457   0.03794635           19 
 4444000   0.53813362   -4.5176134    2096.8521   0.03931991  0.037936933           17 
 4445000   0.53724645   -4.5285615    2090.7413    0.0391965  0.037927532           13 
 4446000   0.54427057   -4.5106654    2095.4499   0.03927594  0.037918144           14 
 4447000   0.54491691   -4.5312534    2096.5383  0.039287502  0.037908788           37 
 4448000   0.53965986   -4.5223677    2094.0252  0.039231588  0.037899414           18 
 4449000   0.53943269     -4.52914    2093.9311  0.039221007  0.037889981            9 
 4450000   0.53527725   -4.5296598    2085.2961  0.039050488  0.037880584           12 
 4451000   0.53538141   -4.5230659      2088.57  0.039103011  0.037871174           15 
 4452000   0.53180028   -4.5145791    2093.2272  0.039181402  0.037861743           18 
 4453000   0.53999447   -4.5166221    2095.6021  0.039217047  0.037852389            8 
 4454000    0.5339366   -4.5354311    2099.1604  0.039274817  0.037843014           14 
 4455000   0.52996615    -4.533788    2090.7914  0.039109454  0.037833651           19 
 4456000   0.55652368   -4.5251502    2097.2488   0.03922144  0.037824278           13 
 4457000   0.54103302    -4.512036    2092.7999  0.039129457  0.037814892           10 
 4458000   0.53280343   -4.5286744    2099.2889  0.039241979  0.037805548           10 
 4459000   0.53591662   -4.5434264    2093.5053  0.039125089  0.037796185           13 
 4460000   0.53066619   -4.5180957    2088.5276  0.039023312  0.037786832           13 
 4461000   0.53808748   -4.5184928    2093.6317  0.039109911  0.037777485           28 
 4462000   0.54326795   -4.5336971    2087.7905  0.038992053  0.037768115           19 
 4463000   0.53308919   -4.5268484    2091.5772  0.039054023  0.037758771           10 
 4464000   0.53807391   -4.5245136    2096.9935  0.039146385  0.037749415           17 
 4465000   0.54048562   -4.5292006    2090.9043  0.039023971  0.037740082           17 
 4466000   0.53273319   -4.5053238    2102.1736  0.039225511  0.037730774           15 
 4467000   0.52978803   -4.5323774    2096.6929  0.039114485  0.037721461           16 
 4468000   0.54446458   -4.5217024    2096.8792  0.039109206  0.037712126           12 
 4469000   0.54309871   -4.5295789    2094.0814  0.039048284  0.037702785           22 
 4470000    0.5263784   -4.5388403    2098.7137  0.039125908  0.037693446           10 
 4471000   0.53136309   -4.5346644    2094.5911  0.039040317  0.037684092           14 
 4472000   0.53878816   -4.5422703    2093.9429  0.039019508  0.037674701           12 
 4473000   0.54256664   -4.5272883    2091.2501  0.038960616  0.037665302            7 
 4474000   0.53406366   -4.5455934    2094.0413  0.039003898   0.03765593           11 
 4475000   0.53709269   -4.5266943    2091.1945  0.038942169  0.037646569           18 
 4476000   0.54054183   -4.5288285    2094.0075   0.03898584  0.037637252            7 
 4477000   0.54183355   -4.5207295    2097.2775     0.039038  0.037627918           10 
 4478000    0.5258552   -4.5329385    2095.3664  0.038993717  0.037618617           13 
 4479000    0.5368386   -4.5210394    2092.2741  0.038927477  0.037609306           11 
 4480000   0.52981063   -4.5196979    2092.7472  0.038927589  0.037599982            9 
 4481000   0.52553808   -4.5352011    2095.0531  0.038961785  0.037590698           18 
 4482000   0.53908323   -4.5370422    2094.3114  0.038939301  0.037581378           12 
 4483000   0.54486586   -4.5294876    2096.9303  0.038979297  0.037572049           14 
 4484000   0.52516381   -4.5309544    2097.5821  0.038982718  0.037562723           10 
 4485000   0.52911928   -4.5197834    2097.4097  0.038970823  0.037553427           10 
 4486000   0.52963485   -4.5263625    2093.4767  0.038889075  0.037544156            9 
 4487000    0.5277489   -4.5176672    2095.2012  0.038912435  0.037534895           10 
 4488000   0.53145082    -4.542718     2098.876     0.038972  0.037525622            5 
 4489000   0.52489903   -4.5209837    2094.8448  0.038888484  0.037516336           13 
 4490000    0.5337641   -4.5400571     2094.758   0.03887821  0.037507061           22 
 4491000   0.53914437   -4.5441149    2092.8245  0.038833677  0.037497737           24 
 4492000   0.52202672   -4.5542465    2092.2494  0.038814362  0.037488387           29 
 4493000   0.53296056   -4.5304403    2093.5209  0.038829306  0.037479031           24 
 4494000    0.5244779   -4.5289925    2095.8584  0.038864011  0.037469736           15 
 4495000   0.52682584   -4.5359706    2093.1453  0.038805068  0.037460446           20 
 4496000   0.52853298   -4.5510399    2094.5129  0.038821785   0.03745112            9 
 4497000   0.53160364   -4.5330266     2088.062  0.038693611   0.03744177           15 
 4498000   0.52916446   -4.5360799    2091.9067  0.038756238  0.037432419            7 
 4499000   0.53393774   -4.5285944    2092.2529  0.038754035  0.037423059           12 
 4500000   0.53562509   -4.5334594    2091.9965  0.038740676  0.037413741           18 
 4501000   0.53272157   -4.5352073     2097.575  0.038835351  0.037404457           17 
 4502000   0.54299441   -4.5612978    2093.0876  0.038743661  0.037395148           12 
 4503000   0.53460152   -4.5114118    2094.7397  0.038765633  0.037385851           14 
 4504000    0.5204886   -4.5314166    2096.6404  0.038792192  0.037376571           34 
 4505000    0.5351362   -4.5444673    2089.7842  0.038656755  0.037367243           35 
 4506000   0.53301778   -4.5406086    2092.4255  0.038697025  0.037357924           14 
 4507000   0.53937609   -4.5635143    2093.4736  0.038707818  0.037348569           17 
 4508000   0.54097304   -4.5232097    2086.2926  0.038566486  0.037339222           14 
 4509000   0.52548213   -4.5374103    2094.2731  0.038705424  0.037329906           14 
 4510000   0.52963522   -4.5657001    2093.2318  0.038677602  0.037320567           14 
 4511000   0.52890449   -4.5491464    2093.4358  0.038672796  0.037311197           19 
 4512000   0.54018912      -4.5465    2092.7181   0.03865097  0.037301841           16 
 4513000   0.52952703   -4.5404792    2092.9635  0.038646936  0.037292522           23 
 4514000   0.52110197   -4.5336085    2095.5512  0.038686146  0.037283222           41 
 4515000   0.52522572   -4.5254974    2096.3447  0.038692223  0.037273926           31 
 4516000   0.53359958   -4.5360741    2094.5844  0.038651173  0.037264613           16 
 4517000   0.53640951   -4.5452815     2093.836  0.038628809  0.037255299           12 
 4518000   0.53692531   -4.5451146    2093.4687  0.038613485  0.037246001           14 
 4519000   0.54283364    -4.551496    2092.2437   0.03858235  0.037236713           15 
 4520000   0.52555081   -4.5609824    2092.1192  0.038571518  0.037227397           10 
 4521000   0.52756502   -4.5278583    2099.2566  0.038694548  0.037218093           33 
 4522000   0.51933191   -4.5318738    2093.6755  0.038583139  0.037208805           23 
 4523000   0.53672316   -4.5534286    2094.4338   0.03858858  0.037199498           14 
 4524000   0.52986891   -4.5489632    2093.5207  0.038563231  0.037190194           26 
 4525000   0.52113492   -4.5539188    2095.1647  0.038584986  0.037180905           12 
 4526000   0.53123434   -4.5572291    2091.7728  0.038514008  0.037171592           30 
 4527000   0.52538482   -4.5399353    2094.2694  0.038551458  0.037162289           17 
 4528000   0.52642629   -4.5354969    2091.5748  0.038493353  0.037153039           20 
 4529000   0.52147219   -4.5464385    2095.7016  0.038560787  0.037143748           11 
 4530000   0.53464852   -4.5522666    2092.4673  0.038492775  0.037134461           16 
 4531000   0.53111804   -4.5376901    2088.6875  0.038414762  0.037125182           11 
 4532000   0.52697112   -4.5397345    2094.7144  0.038517109   0.03711593            9 
 4533000   0.52660662   -4.5435114    2098.8479  0.038584599  0.037106659            7 
 4534000   0.51827141   -4.5424829    2097.1876  0.038545575  0.037097344           14 
 4535000   0.52692929    -4.550755    2089.4033  0.038394034  0.037088025           35 
 4536000   0.52279849   -4.5730433    2087.3913  0.038348606  0.037078676           21 
 4537000   0.52841471   -4.5440477    2090.6607  0.038400204  0.037069355           25 
 4538000   0.53538138   -4.5469441     2092.284  0.038421551  0.037060017           36 
 4539000   0.51647668   -4.5714574     2092.548  0.038417934  0.037050734           30 
 4540000   0.52482589   -4.5554109    2089.0847  0.038345902  0.037041446           37 
 4541000   0.52437463   -4.5565049    2088.7475  0.038331269  0.037032142           23 
 4542000   0.51860064   -4.5618344    2093.6209  0.038412244  0.037022822           12 
 4543000   0.52725565   -4.5433585    2088.2857  0.038305923  0.037013526           17 
 4544000    0.5327286   -4.5553963    2097.0547  0.038458309  0.037004244           17 
 4545000   0.53084234   -4.5513508    2089.5639  0.038312503  0.036994963           24 
 4546000   0.51889754   -4.5492485    2094.1343  0.038387856  0.036985687           10 
 4547000   0.54229731   -4.5556837    2088.4001  0.038274322  0.036976407           24 
 4548000   0.51596637   -4.5596252    2092.4459  0.038340037  0.036967112           17 
 4549000   0.51973527   -4.5590863    2092.2162  0.038327402  0.036957825           51 
 4550000   0.52431017   -4.5540766    2092.8403  0.038330408  0.036948564           18 
 4551000   0.52441009   -4.5598732    2091.9808  0.038306247  0.036939323           24 
 4552000   0.52427053   -4.5667316    2098.0856  0.038409593  0.036930065            9 
 4553000   0.51612296   -4.5654066    2095.7654   0.03835869  0.036920783           12 
 4554000   0.51313338   -4.5549198    2101.0272  0.038446553  0.036911539           23 
 4555000    0.5244499   -4.5404334    2093.5566  0.038301438  0.036902312           23 
 4556000   0.51224709   -4.5332427    2091.8251  0.038261361  0.036893074           28 
 4557000   0.52974435   -4.5608449    2094.7858  0.038307106  0.036883849           22 
 4558000   0.52580329   -4.5377433    2097.8194  0.038354165  0.036874597           21 
 4559000   0.52957682   -4.5424235     2091.936   0.03823821  0.036865356           24 
 4560000   0.51924487    -4.564538    2091.6576  0.038224737  0.036856073           16 
 4561000   0.52738053   -4.5593642    2093.6067  0.038251967  0.036846795           18 
 4562000   0.52483699   -4.5506092    2093.5504  0.038242554  0.036837533           11 
 4563000   0.51893253   -4.5537919    2090.3876  0.038176412  0.036828257           18 
 4564000   0.50558393   -4.5560644    2095.9018   0.03826873  0.036819037           65 
 4565000   0.51938027   -4.5645276     2091.534  0.038180613  0.036809757           18 
 4566000    0.5193499   -4.5391875    2090.5622  0.038154514  0.036800508           18 
 4567000   0.51776251   -4.5614171    2089.0604  0.038118758  0.036791257           10 
 4568000   0.51698408   -4.5661124    2094.0881  0.038202132  0.036781973           10 
 4569000   0.52490167   -4.5466587     2090.099  0.038121015  0.036772718           25 
 4570000   0.53237203   -4.5592239    2089.4024  0.038099972  0.036763433           28 
 4571000   0.52585094   -4.5427298    2091.0305  0.038121317  0.036754164           28 
 4572000   0.51013026   -4.5486049    2090.1512  0.038096953  0.036744878           81 
 4573000   0.51456436   -4.5538219    2094.0711  0.038160053  0.036735635           42 
 4574000   0.52785895   -4.5629505    2088.9594  0.038058581  0.036726405           43 
 4575000   0.52026092   -4.5495814    2097.4237  0.038204439  0.036717186           27 
 4576000    0.5257216   -4.5542642    2087.5671  0.038016592  0.036707947           19 
 4577000   0.50876885    -4.563786    2095.0551   0.03814462  0.036698677           11 
 4578000   0.51853334   -4.5564837    2089.7524  0.038039763  0.036689406           19 
 4579000   0.52176041   -4.5535033    2096.8794  0.038161159  0.036680169           21 
 4580000   0.52754399   -4.5739175    2094.2878  0.038105674  0.036670922           34 
 4581000   0.52834053   -4.5596138    2089.9951  0.038019267  0.036661672           16 
 4582000   0.51498511   -4.5596696    2090.3545  0.038017506  0.036652408           20 
 4583000   0.53019062   -4.5889633    2091.5482  0.038030915  0.036643122           21 
 4584000   0.51426025   -4.5881676    2089.1336  0.037978723  0.036633849           11 
 4585000   0.50636812   -4.5582765    2092.3933  0.038029686   0.03662459           15 
 4586000   0.52009279   -4.5787037    2086.6973  0.037917889  0.036615329           10 
 4587000   0.52850858   -4.5677792    2094.1076  0.038044249  0.036606065           15 
 4588000   0.51503738    -4.584785     2089.013  0.037943422  0.036596803           18 
 4589000    0.5091773   -4.5948451    2094.8316  0.038040816  0.036587535           11 
 4590000   0.51831212   -4.5650364    2092.7517  0.037994765  0.036578275           18 
 4591000   0.51909342   -4.5587306    2090.5595  0.037946698  0.036569052            8 
 4592000   0.51659288   -4.5594588    2092.5614  0.037974764  0.036559806           26 
 4593000   0.50857129   -4.5584504    2088.4687  0.037892239  0.036550549           21 
 4594000   0.52328387   -4.5559173    2091.0241  0.037930345  0.036541322           18 
 4595000   0.51606896   -4.5602108    2093.5473  0.037967852  0.036532092           10 
 4596000   0.50536879   -4.5860767    2090.3732  0.037902039  0.036522826           18 
 4597000   0.52038792    -4.571764    2089.5393  0.037878677  0.036513563           15 
 4598000   0.52195319   -4.5705642     2092.851  0.037930459  0.036504334           15 
 4599000   0.52258537    -4.557371    2091.9019  0.037905013  0.036495101           26 
 4600000   0.52039761   -4.5688956    2089.6072  0.037855203  0.036485848           24 
 4601000   0.51194262   -4.5461752     2089.503  0.037845088  0.036476582           17 
 4602000   0.51847252   -4.5709516    2089.8717  0.037843541  0.036467268           16 
 4603000   0.52121946   -4.5713884    2085.6019  0.037758018  0.036457996           16 
 4604000   0.52405887   -4.5612319    2092.7475  0.037879154  0.036448716           57 
 4605000   0.51847341   -4.5835779    2088.5858  0.037795617   0.03643943           20 
 4606000   0.51689972   -4.5705432    2084.6924   0.03771697  0.036430143           16 
 4607000   0.51170796   -4.5704292    2087.4337   0.03775837  0.036420879           29 
 4608000   0.51261394   -4.5876901    2087.8896   0.03775842  0.036411623           13 
 4609000   0.51782539    -4.577045    2091.0352  0.037807102  0.036402375           13 
 4610000   0.51744232   -4.5842387    2083.2357  0.037657912  0.036393095           16 
 4611000     0.506728   -4.5804863    2085.5524  0.037691614  0.036383807            9 
 4612000   0.51398338   -4.5923246    2090.4603  0.037772122  0.036374526           13 
 4613000   0.51887101   -4.5708233    2089.4252  0.037745234  0.036365264           11 
 4614000   0.50631951   -4.5754958    2088.4968  0.037720287  0.036356011           18 
 4615000   0.50836986   -4.5850825    2085.3554  0.037655389  0.036346719           15 
 4616000   0.50534708   -4.5699451    2088.6668  0.037707012  0.036337432           19 
 4617000   0.52542554   -4.5688483    2087.7677  0.037682617  0.036328192            8 
 4618000   0.51045051   -4.5734674    2087.4393  0.037668531  0.036318944           11 
 4619000   0.51057409   -4.5626061    2090.8964  0.037722747  0.036309695           28 
 4620000   0.50543155   -4.5735377    2089.0612  0.037681479  0.036300476           21 
 4621000   0.50991246   -4.5794588    2091.4125  0.037715727   0.03629125           15 
 4622000   0.51488193   -4.5603102    2090.7104  0.037694908  0.036282025           44 
 4623000   0.51177232    -4.571035    2092.6719  0.037722112  0.036272805           13 
 4624000   0.51990849   -4.5764692    2087.1357  0.037614181  0.036263549           14 
 4625000    0.5022805   -4.5824615    2084.2237  0.037553581  0.036254298           16 
 4626000   0.51465907   -4.5691299      2089.07  0.037632764  0.036245025            9 
 4627000   0.51077096   -4.5790102    2083.0198  0.037515666  0.036235711           49 
 4628000   0.50951078   -4.5686621    2090.5748  0.037643597  0.036226456           34 
 4629000   0.50783074   -4.5884264    2088.5157  0.037598395  0.036217208           23 
 4630000   0.52072894   -4.5645595    2083.9985  0.037508972  0.036207917           31 
 4631000   0.50985157   -4.5923802    2087.4442  0.037562877  0.036198651           17 
 4632000   0.50483694   -4.5824624    2091.3792  0.037625562  0.036189432           13 
 4633000   0.52377218   -4.5791573    2088.2508  0.037561171  0.036180178           31 
 4634000   0.51292328   -4.5698342    2092.5572  0.037630507  0.036170946           33 
 4635000   0.50812052   -4.5887505    2093.2428  0.037634715  0.036161702           17 
 4636000   0.50964534   -4.5802903    2086.0063  0.037496518  0.036152464           15 
 4637000   0.49921533   -4.5760998    2083.4117  0.037441802  0.036143227           23 
 4638000   0.51671904   -4.5796766    2084.6075  0.037455216  0.036133939           29 
 4639000    0.5133413   -4.5842516    2083.4249  0.037425898  0.036124662           14 
 4640000   0.49788245   -4.5704947     2084.547  0.037437985  0.036115391           13 
 4641000   0.50883454   -4.5851653    2083.1423  0.037404696  0.036106121           10 
 4642000   0.50979648   -4.5731391    2086.8124  0.037462524  0.036096852           12 
 4643000   0.51021803   -4.5945521    2083.8341     0.037401  0.036087587           50 
 4644000   0.51525656     -4.58463    2085.2878  0.037419032  0.036078303           28 
 4645000   0.50355926   -4.5834332    2084.5847  0.037398362  0.036069017           12 
 4646000   0.50557408   -4.5799416    2088.8657  0.037467099  0.036059781           20 
 4647000   0.50445637   -4.5769065    2084.1626  0.037374697  0.036050517           13 
 4648000   0.50146708   -4.6048764    2088.6832  0.037447706  0.036041205           12 
 4649000   0.51107717   -4.5839581    2083.5176  0.037347056   0.03603188           21 
 4650000    0.5067772   -4.5964614    2089.3026  0.037442698  0.036022598           10 
 4651000   0.51284447   -4.5978451    2082.5877  0.037314335  0.036013344           16 
 4652000   0.49136189   -4.5829362    2084.7489   0.03734503  0.036004077           10 
 4653000    0.5212865   -4.5832999     2085.944  0.037358406  0.035994808            7 
 4654000   0.49759666    -4.591706     2090.921  0.037439496  0.035985561            8 
 4655000   0.51338386   -4.5978225    2090.3703  0.037421594  0.035976317           14 
 4656000    0.5142636   -4.5832101     2091.232  0.037428981  0.035967048           11 
 4657000   0.49980818    -4.590094    2089.1961  0.037384512  0.035957832           15 
 4658000   0.50840967   -4.5895883    2088.5536  0.037364992    0.0359486           44 
 4659000   0.50784522   -4.5821096    2084.2001  0.037279104  0.035939349           36 
 4660000    0.5084224   -4.5806103    2084.4025  0.037274723  0.035930131           18 
 4661000   0.50887403   -4.5943887    2086.4071  0.037302566  0.035920891           13 
 4662000   0.49632902   -4.6018636    2084.2224  0.037255513  0.035911637           26 
 4663000   0.51156611   -4.5945361    2090.5634  0.037360844  0.035902409           24 
 4664000   0.50439093   -4.5869688    2083.7355  0.037230838   0.03589315           15 
 4665000   0.50336384   -4.5884569    2087.3184   0.03728686  0.035883887           37 
 4666000   0.49537175   -4.5869086    2087.0606  0.037274264  0.035874652           53 
 4667000   0.50019094   -4.5849798    2083.2484  0.037198207  0.035865431           17 
 4668000   0.51323897   -4.5888567    2085.4994  0.037230423  0.035856234           15 
 4669000    0.5202742   -4.5724221     2092.397   0.03734556   0.03584706           11 
 4670000   0.50737622   -4.5811465    2084.7616  0.037201314  0.035837849           10 
 4671000   0.50103988   -4.5709757    2086.3217  0.037221182  0.035828631           10 
 4672000   0.50156271   -4.5894577    2089.0779  0.037262377  0.035819442           33 
 4673000   0.51496043   -4.5832947    2089.2148  0.037256844  0.035810247           12 
 4674000   0.49066671   -4.5857021     2085.925  0.037190218  0.035801035           28 
 4675000   0.50421297   -4.5603613    2091.0691  0.037273958  0.035791848           13 
 4676000   0.49843698   -4.5752244    2083.7736   0.03713597  0.035782676           12 
 4677000     0.494744    -4.567923    2090.2019  0.037242569  0.035773517           30 
 4678000   0.49534946   -4.5853291    2083.5649  0.037116377  0.035764344           22 
 4679000    0.5127781   -4.5868499     2087.953  0.037186596  0.035755174           19 
 4680000   0.50436001   -4.5621408    2087.2511  0.037166152  0.035746014            9 
 4681000   0.50704472   -4.5955576    2084.7082  0.037112943  0.035736843            9 
 4682000   0.50780971    -4.589154    2087.9651  0.037162984  0.035727704            6 
 4683000   0.49559153     -4.60421    2092.0986  0.037228603  0.035718544           12 
 4684000   0.50063142   -4.6056371    2081.2323  0.037027333  0.035709348           10 
 4685000   0.49949828   -4.6023256    2090.4578  0.037183525  0.035700169           11 
 4686000   0.49707046   -4.5907611    2086.9652  0.037113479  0.035691012            8 
 4687000     0.494394   -4.6069734    2090.7211  0.037172341  0.035681832           15 
 4688000   0.49142912   -4.5892973    2085.4527   0.03707076  0.035672663           11 
 4689000    0.5024614   -4.5844102    2086.4337  0.037080288  0.035663509           14 
 4690000   0.50420478   -4.5865133    2090.2033  0.037139361  0.035654351           14 
 4691000   0.50357252   -4.5940492    2084.2477  0.037025647  0.035645173           17 
 4692000   0.49783254   -4.5847515    2081.3251  0.036965847  0.035636024           24 
 4693000   0.49567078   -4.5882259    2088.4611  0.037084684  0.035626882           11 
 4694000   0.50071732   -4.5963451    2087.8162  0.037065335  0.035617767           20 
 4695000   0.49545453   -4.6081954    2083.7652  0.036985538  0.035608606           16 
 4696000   0.51228852    -4.595259     2084.729  0.036994765  0.035599454           30 
 4697000   0.50296992   -4.5855859    2087.9136  0.037043389  0.035590305           20 
 4698000   0.49949354   -4.5949233    2089.5539  0.037064601  0.035581162           11 
 4699000    0.5131234   -4.5936101    2088.4244  0.037036681  0.035572016           27 
 4700000   0.49666679   -4.5982598    2088.9935  0.037038893  0.035562872           15 
 4701000   0.49822265   -4.6083472    2091.8533  0.037081707  0.035553781           17 
 4702000   0.49625915   -4.5929523    2085.0462  0.036953179  0.035544649           17 
 4703000   0.51200386   -4.6014534    2088.5253  0.037006969  0.035535498           17 
 4704000   0.48784066   -4.6121704    2084.5575  0.036928811  0.035526344           47 
 4705000   0.49580416   -4.6015848    2086.1845  0.036949778  0.035517188           21 
 4706000   0.50457558   -4.6088483    2082.9139  0.036884012  0.035508014           32 
 4707000   0.50306213   -4.5781373    2086.7643  0.036944343  0.035498872           11 
 4708000   0.50677077   -4.6001096    2088.1173  0.036960444  0.035489712           23 
 4709000   0.49328393   -4.5871844    2088.1093  0.036952455  0.035480561           21 
 4710000   0.49874482   -4.5905257    2087.4159  0.036932341  0.035471408           52 
 4711000   0.49832916   -4.5874556    2086.5178  0.036908615  0.035462277           24 
 4712000   0.49684118   -4.6040736    2084.2202  0.036860147  0.035453156           20 
 4713000   0.50668286   -4.5840506    2089.1322  0.036939179  0.035444033           15 
 4714000   0.49433206   -4.6033322    2086.8175  0.036890423  0.035434902           14 
 4715000   0.49739154   -4.6149755    2082.5519   0.03680721  0.035425745           10 
 4716000     0.488192   -4.6024331    2088.6196  0.036906622  0.035416571           16 
 4717000   0.50127076   -4.5957188    2087.9014  0.036886111  0.035407457           20 
 4718000   0.49847189   -4.5932472    2085.8604  0.036842242  0.035398354           20 
 4719000   0.50121511   -4.5884701    2087.5717  0.036864654  0.035389245           21 
 4720000   0.49947359   -4.6054773    2086.2756  0.036833962  0.035380102           21 
 4721000   0.49761624   -4.6210657    2087.6115  0.036849741  0.035370943           14 
 4722000   0.49551816   -4.6234475     2084.129  0.036780478  0.035361796           31 
 4723000   0.49468585   -4.6049396    2084.2579  0.036774964  0.035352644           25 
 4724000   0.48455347   -4.5942461    2088.9917  0.036850686    0.0353435           24 
 4725000   0.49235636    -4.614335    2082.1127  0.036721564  0.035334372           24 
 4726000   0.49522728   -4.6208048    2083.3575  0.036735743  0.035325237           16 
 4727000   0.49420757   -4.5991337    2083.6423  0.036732994  0.035316098            8 
 4728000   0.48895121   -4.6056056    2089.7022  0.036832032  0.035306982           25 
 4729000   0.49612454   -4.6222309    2087.7465  0.036789781  0.035297852           22 
 4730000   0.49136886   -4.6123224    2085.0789  0.036735006   0.03528873           49 
 4731000   0.49861588   -4.6317629    2084.5709  0.036718292  0.035279601           36 
 4732000   0.49088835   -4.6098904    2084.4408  0.036708241   0.03527045           16 
 4733000     0.500493   -4.6005449    2085.0027   0.03671038  0.035261325           18 
 4734000   0.48856842   -4.6207379    2079.8423  0.036611785  0.035252188           25 
 4735000    0.4991493   -4.6265985    2085.8053  0.036708999  0.035243055           16 
 4736000   0.49446054   -4.5970877    2081.6926  0.036628882  0.035233916           29 
 4737000   0.49618075   -4.6332769    2081.5395  0.036618455  0.035224796           25 
 4738000   0.48960988   -4.6135097    2085.4726  0.036679903  0.035215694           31 
 4739000    0.4938576   -4.6172332    2083.1238  0.036630861  0.035206591           23 
 4740000   0.48769273    -4.612219    2082.9085  0.036619348  0.035197511           54 
 4741000   0.49127752   -4.6188152    2079.4508  0.036550848   0.03518839           22 
 4742000   0.49961357   -4.6003859    2086.7297  0.036671055  0.035179304           29 
 4743000   0.48634486   -4.6101199    2084.4045  0.036622469  0.035170217           32 
 4744000   0.49540472   -4.6213314    2083.7983  0.036604101  0.035161117           21 
 4745000   0.50382585   -4.5967352    2084.9025   0.03661578  0.035152029           14 
 4746000    0.4955755   -4.6182528    2081.4832  0.036548027  0.035142945           11 
 4747000   0.48502567   -4.6136791     2085.493  0.036610718  0.035133853           28 
 4748000   0.49223276   -4.6369936    2082.0268  0.036542173  0.035124721           22 
 4749000   0.49344906   -4.6244462    2082.7532  0.036547224   0.03511559           51 
 4750000   0.49520344   -4.6173213    2084.4574  0.036569428  0.035106447           38 
 4751000    0.4848125   -4.6107234    2086.3439   0.03659482  0.035097326           16 
 4752000   0.50668622   -4.6259238    2083.7085  0.036540904  0.035088228           62 
 4753000   0.48883139   -4.6122657    2079.7304  0.036463468  0.035079133           53 
 4754000   0.48404636   -4.6155261    2084.2298  0.036534668   0.03507003           41 
 4755000   0.49383784   -4.6204476    2085.8009   0.03655452  0.035060936           25 
 4756000   0.47957873   -4.6232455    2083.6805  0.036509681  0.035051851           12 
 4757000   0.49559372   -4.6122643    2088.9409  0.036594158  0.035042773           19 
 4758000   0.47438411   -4.6145784    2087.1607  0.036555288  0.035033666           40 
 4759000    0.4911157   -4.6203794    2085.8845  0.036525259  0.035024573           17 
 4760000   0.50350259   -4.6158193    2080.5815  0.036424746  0.035015488           21 
 4761000    0.4935878   -4.6364401    2082.3489  0.036448032  0.035006412           12 
 4762000   0.48932582   -4.6136613    2085.9008  0.036502533  0.034997319           12 
 4763000   0.49008374   -4.6097433    2080.2507  0.036396016  0.034988225           10 
 4764000   0.49736967   -4.6248948    2086.7589   0.03650222  0.034979156           15 
 4765000   0.48526913   -4.6261243    2080.5401  0.036385801   0.03497009           16 
 4766000   0.48511917   -4.6129862    2086.7787  0.036487248   0.03496102           15 
 4767000   0.48608257   -4.6326743    2090.0583  0.036536925  0.034951958           12 
 4768000    0.4966107   -4.6339279    2084.7722  0.036436875  0.034942914           16 
 4769000   0.47176938   -4.6194831    2091.7256  0.036550737  0.034933865           49 
 4770000   0.48813802   -4.6079902    2085.4121  0.036432775  0.034924838           21 
 4771000   0.48748605   -4.5970343    2082.4705   0.03637376  0.034915794           26 
 4772000   0.49783976   -4.6143446    2085.8305  0.036424814  0.034906786           32 
 4773000   0.49746914   -4.6351082    2084.3404  0.036391165  0.034897756           42 
 4774000   0.48897546   -4.6266482    2087.6199  0.036440789    0.0348887           39 
 4775000    0.4989377   -4.6479939    2080.0732  0.036301452  0.034879606           64 
 4776000     0.477428   -4.6298553    2084.0022  0.036362405  0.034870526           67 
 4777000    0.4914493   -4.6307046    2086.3457  0.036395675  0.034861491           60 
 4778000   0.49936919   -4.6442511     2084.034  0.036347739  0.034852444           26 
 4779000   0.49112174   -4.6320188    2079.7002  0.036264565  0.034843408           36 
 4780000   0.48505429    -4.638641    2086.7215  0.036379385  0.034834384           23 
 4781000    0.4806136   -4.6327208    2084.2137  0.036328064   0.03482534           51 
 4782000   0.49043012   -4.6286496    2084.7718  0.036330193  0.034816346           26 
 4783000   0.49962194   -4.6414164    2085.7894  0.036340327  0.034807323           14 
 4784000   0.48967524   -4.6343895    2084.2735  0.036306325  0.034798314           14 
 4785000   0.48680727     -4.62636    2088.1475  0.036366206  0.034789335           10 
 4786000   0.48770274   -4.6312418    2085.5948   0.03631416   0.03478036           35 
 4787000   0.48391307   -4.6279797    2084.6302  0.036289781  0.034771381           24 
 4788000   0.48027092   -4.6250983    2089.2866  0.036363245  0.034762389           11 
 4789000    0.4860879    -4.625857    2086.9461  0.036314925  0.034753397           14 
 4790000   0.48218501    -4.620127    2087.4908   0.03631682  0.034744406           17 
 4791000   0.48042077   -4.6355075    2088.0676  0.036319272  0.034735424           15 
 4792000   0.48069786   -4.6388081    2081.2529  0.036193184  0.034726423           19 
 4793000   0.48758141   -4.6239901    2083.7302  0.036228705  0.034717429           14 
 4794000   0.49005011   -4.6258303    2087.8531  0.036292816  0.034708438           25 
 4795000   0.47818424   -4.6291287     2081.352  0.036172263  0.034699445           29 
 4796000   0.48511751   -4.6203324    2086.2498  0.036249823  0.034690461           34 
 4797000   0.49354751   -4.6325503    2087.1845  0.036258503  0.034681477           22 
 4798000   0.48780957   -4.6370776    2083.4909  0.036186795  0.034672497           52 
 4799000   0.49566484   -4.6568591    2082.8834  0.036168705  0.034663496           69 
 4800000   0.48803984   -4.6405299     2081.737  0.036141268  0.034654482           41 
 4801000   0.47965763   -4.6209946    2079.2397  0.036090392  0.034645458           68 
 4802000   0.47954962   -4.6376008    2088.1282  0.036237126  0.034636471           53 
 4803000   0.47977563   -4.6516824    2080.8486  0.036103279  0.034627491           35 
 4804000    0.4899932   -4.6454374    2081.8406  0.036112972  0.034618451           36 
 4805000   0.48072776   -4.6617299    2082.3836  0.036114873  0.034609457           24 
 4806000    0.4734023   -4.6204457     2082.998  0.036118013  0.034600482           62 
 4807000   0.47680115    -4.631374    2083.8801   0.03612579  0.034591514           54 
 4808000   0.48773987   -4.6406622    2088.5959  0.036200013  0.034582567           33 
 4809000   0.48639475   -4.6185019    2086.8336  0.036161946  0.034573603           39 
 4810000   0.48174933   -4.6202011    2085.1261  0.036124846  0.034564651           15 
 4811000   0.48601228   -4.6152311    2084.8149  0.036111947  0.034555685           20 
 4812000   0.48152118   -4.6382842    2087.7765  0.036155731  0.034546723           15 
 4813000    0.4907661    -4.626107     2082.039  0.036048878  0.034537756           18 
 4814000   0.48490337   -4.6326878    2082.9647  0.036057414  0.034528794           30 
 4815000   0.48939466   -4.6343976    2086.3043  0.036107724  0.034519809           19 
 4816000   0.48439237   -4.6380888    2081.8237  0.036022697  0.034510835           58 
 4817000   0.47789724    -4.640154    2087.5686  0.036114604  0.034501891           68 
 4818000   0.47108245   -4.6235343    2081.6878  0.036005393  0.034492925           39 
 4819000   0.47141497   -4.6344401    2083.8527  0.036035359  0.034483945           32 
 4820000   0.48733732   -4.6390988    2082.8849  0.036011149  0.034474976          139 
 4821000   0.48306179   -4.6267788    2079.8151  0.035950617  0.034465998           35 
 4822000    0.4726925   -4.6386229    2084.4051  0.036022486  0.034457007           21 
 4823000   0.46892294   -4.6413534    2081.8812  0.035971407  0.034448031           46 
 4824000   0.48851084   -4.6376143    2081.5936  0.035958983  0.034439029           41 
 4825000   0.47809504   -4.6526465    2078.4435  0.035897124  0.034430029           17 
 4826000    0.4846505   -4.6318211    2081.0999  0.035935555   0.03442104           34 
 4827000   0.47882336   -4.6506618    2077.3986  0.035864212  0.034412055           14 
 4828000   0.48152161   -4.6459011    2083.9003  0.035969006  0.034403066           13 
 4829000   0.47870744   -4.6474164    2079.8829   0.03589223  0.034394068           19 
 4830000   0.47872041   -4.6281449    2079.9848  0.035886557  0.034385048           17 
 4831000   0.47899329   -4.6532317    2080.4131  0.035886515  0.034376045           14 
 4832000   0.48118581   -4.6624677     2083.611  0.035934241  0.034367028            9 
 4833000   0.47715927   -4.6508697    2076.9739  0.035812365  0.034358013           19 
 4834000   0.49350928   -4.6488547    2084.7126  0.035938364  0.034349029           26 
 4835000   0.47793193   -4.6440654    2079.2924  0.035837511  0.034340052           33 
 4836000   0.47913286   -4.6482525    2078.9126  0.035823557   0.03433108           19 
 4837000    0.4837335   -4.6462665    2081.8916  0.035867472  0.034322158           22 
 4838000   0.47811051   -4.6245299    2084.2558  0.035900782  0.034313206           20 
 4839000   0.47865666   -4.6350319    2082.9223  0.035870398  0.034304272           19 
 4840000   0.48437631   -4.6471211    2081.7186  0.035842263  0.034295349           25 
 4841000   0.46600144   -4.6422805    2085.0669  0.035892497   0.03428642           20 
 4842000   0.47714547   -4.6479067    2081.4607  0.035823019  0.034277472           21 
 4843000   0.46970315   -4.6552007    2085.5839  0.035886569  0.034268534           16 
 4844000    0.4844786   -4.6650758    2077.1433  0.035733954  0.034259601           16 
 4845000   0.47561459   -4.6593923    2080.3448  0.035781645  0.034250659           33 
 4846000   0.47975678   -4.6529834    2083.4233  0.035827199   0.03424171           11 
 4847000   0.47714323   -4.6523483    2079.6709  0.035755294  0.034232767           17 
 4848000   0.46622139   -4.6514774    2083.2807  0.035809967  0.034223837           18 
 4849000    0.4644077   -4.6290988    2082.2055  0.035784105  0.034214924           30 
 4850000   0.48046977   -4.6376769    2088.5096  0.035885046  0.034206049           21 
 4851000    0.4728608   -4.6449925    2083.5471  0.035792398  0.034197165           30 
 4852000   0.47567525   -4.6353839    2081.0924  0.035742863  0.034188269           41 
 4853000   0.47256172   -4.6523712    2081.9666  0.035750509  0.034179407           43 
 4854000   0.47171443   -4.6533992    2080.2609  0.035713859  0.034170495           29 
 4855000   0.46968202   -4.6560386    2082.1791  0.035739428  0.034161585           41 
 4856000   0.47815146   -4.6651365    2072.4485  0.035565083  0.034152682           26 
 4857000   0.47063727   -4.6394723    2077.6643   0.03564725  0.034143761           47 
 4858000   0.48058091   -4.6487196    2083.7495  0.035744296  0.034134869           30 
 4859000   0.47817699   -4.6617454    2084.0617  0.035742294  0.034125988           15 
 4860000    0.4670704   -4.6586493    2082.8514  0.035714187  0.034117109           42 
 4861000   0.48752784   -4.6537972    2085.2551  0.035748047  0.034108222           32 
 4862000   0.46553982   -4.6621522    2083.8792  0.035717112  0.034099332           10 
 4863000   0.47534996   -4.6334513    2083.6517   0.03570587  0.034090451           19 
 4864000   0.47370992   -4.6645328     2080.176   0.03563898  0.034081562           28 
 4865000   0.46445462   -4.6622047    2082.1362  0.035665232  0.034072641           19 
 4866000   0.46428476    -4.663586    2084.5994  0.035700085  0.034063769           21 
 4867000   0.48620039    -4.647772    2084.8713  0.035697406  0.034054902           22 
 4868000   0.48082602   -4.6402846    2085.1722  0.035695225  0.034046031           11 
 4869000   0.47647587   -4.6438807    2080.6835  0.035611069  0.034037177           26 
 4870000   0.46880924   -4.6702852    2080.1648   0.03559488  0.034028302           17 
 4871000    0.4789584   -4.6547579    2083.7672  0.035649202  0.034019441           17 
 4872000   0.49380294   -4.6568381    2083.2169  0.035632473   0.03401059           17 
 4873000   0.47727018    -4.639987    2082.4759  0.035612489  0.034001733           14 
 4874000    0.4700497    -4.660529    2083.0039  0.035614209  0.033992879           23 
 4875000   0.47324045   -4.6471716    2084.7847  0.035637346  0.033984041           21 
 4876000   0.46531782    -4.648767    2083.1606  0.035602281  0.033975182           20 
 4877000   0.48047955   -4.6701579    2080.2718  0.035545619  0.033966306           49 
 4878000   0.46577052   -4.6581357    2080.8251  0.035547784  0.033957458           43 
 4879000   0.46585159   -4.6522002    2083.6393  0.035588565  0.033948608           31 
 4880000   0.46555872    -4.654205    2084.2559  0.035591802  0.033939756           26 
 4881000   0.47185391    -4.655981     2080.743  0.035524533  0.033930886           21 
 4882000   0.46709352   -4.6565584    2081.0861  0.035523113  0.033922032           16 
 4883000   0.47524934   -4.6767889     2083.033  0.035549065  0.033913177           24 
 4884000   0.47096159   -4.6580487     2083.829  0.035555368  0.033904326           47 
 4885000   0.47059405   -4.6659121    2079.4777  0.035473861  0.033895465           16 
 4886000   0.47651809   -4.6675627    2081.8375  0.035506848  0.033886608           41 
 4887000   0.46862303   -4.6635373    2081.0264  0.035485751  0.033877734           70 
 4888000   0.47165102   -4.6628367    2081.8163  0.035491959  0.033868837           49 
 4889000   0.47069596   -4.6755125    2080.4566  0.035461522  0.033859978          106 
 4890000   0.45538389   -4.6605914    2080.7988  0.035460102  0.033851094           69 
 4891000    0.4625586   -4.6802325    2082.3348  0.035479023  0.033842207           54 
 4892000   0.46151907   -4.6809994    2078.9928   0.03541484  0.033833318           30 
 4893000   0.46170718   -4.6628085    2077.6219  0.035384254  0.033824441           17 
 4894000   0.46335194   -4.6507488    2077.0019  0.035366467  0.033815575           41 
 4895000   0.46912037   -4.6723064    2080.0886  0.035411792  0.033806726           36 
 4896000   0.45812036   -4.6448293    2079.9469  0.035402146  0.033797879           52 
 4897000   0.45872944   -4.6628292    2080.7762  0.035409029  0.033789041           34 
 4898000   0.47664548   -4.6435334    2086.7848  0.035504029  0.033780221           12 
 4899000   0.48124381   -4.6597462    2081.9175  0.035413987  0.033771396           22 
 4900000    0.4671241   -4.6613349    2076.0557   0.03530707  0.033762559           14 
 4901000   0.47352303   -4.6781193     2081.373  0.035390278  0.033753689           31 
 4902000   0.47201778   -4.6648596    2076.0952  0.035293337  0.033744822           21 
 4903000   0.46735044   -4.6717861    2081.5582  0.035378989  0.033735965           19 
 4904000   0.47400928   -4.6792404    2083.8801   0.03541123  0.033727117           19 
 4905000   0.47092625   -4.6850544    2084.3535  0.035412055   0.03371827           38 
 4906000   0.46780554   -4.6828846    2075.4532  0.035253656   0.03370942           17 
 4907000   0.47017198   -4.6678992    2083.4512  0.035382297  0.033700576           21 
 4908000   0.47596038   -4.6665708    2083.6587  0.035378611  0.033691746           20 
 4909000   0.45008512    -4.663343    2084.1693  0.035380073  0.033682933           16 
 4910000   0.46277298   -4.6723271    2080.9218  0.035317749  0.033674134           37 
 4911000   0.46632202   -4.6820902    2077.5153  0.035252754  0.033665328           29 
 4912000   0.47002172   -4.6438457    2086.1455  0.035391991  0.033656523           98 
 4913000   0.47156488   -4.6628649    2084.0632  0.035349467  0.033647721           50 
 4914000     0.483324   -4.6760294    2083.3614  0.035330372  0.033638927           41 
 4915000   0.46364716   -4.6572599    2084.8731  0.035348816  0.033630116           41 
 4916000   0.46689961   -4.6548242     2083.901  0.035325145  0.033621327           72 
 4917000   0.47489916   -4.6642326    2082.7762  0.035298898  0.033612552           40 
 4918000   0.47474395   -4.6765882     2082.059  0.035279569  0.033603757           72 
 4919000   0.46360317   -4.6723842    2081.0192  0.035254781  0.033594978          116 
 4920000   0.45706806   -4.6863386    2076.6575  0.035173739  0.033586161          104 
 4921000   0.46066508   -4.6694653    2079.9916  0.035223051  0.033577357           55 
 4922000   0.46927948   -4.6821737    2080.8311  0.035230108  0.033568532           81 
 4923000   0.45833667   -4.6630137     2081.371  0.035232092  0.033559706           48 
 4924000    0.4689029   -4.6952479    2083.4439  0.035260017  0.033550904          102 
 4925000   0.45732526   -4.6774109    2082.3973  0.035235148  0.033542096          125 
 4926000   0.46606102   -4.6797194    2080.0949  0.035189047  0.033533296           66 
 4927000   0.45592781   -4.6710954    2077.9966  0.035146415  0.033524502          102 
 4928000   0.45141767   -4.6773473    2079.1286  0.035158425  0.033515718           79 
 4929000   0.46055348   -4.6864994    2080.6339  0.035176742  0.033506918           37 
 4930000   0.46002365    -4.679078    2075.0976  0.035076024  0.033498141           67 
 4931000   0.46630348   -4.6980445    2077.6055  0.035111294  0.033489326           66 
 4932000   0.45801115   -4.6712661    2078.3316  0.035116444  0.033480518           76 
 4933000   0.46340256   -4.6860964     2077.899  0.035102016  0.033471715          102 
 4934000   0.46732235   -4.6943597    2076.7527  0.035075543  0.033462903           75 
 4935000   0.47043237   -4.6873871    2080.9834  0.035139875  0.033454128          102 
 4936000   0.45892601   -4.6842304    2078.8258  0.035096329  0.033445345          104 
 4937000   0.44879653   -4.6780144    2081.4703  0.035133858  0.033436552           86 
 4938000   0.47148412   -4.6853423    2080.0026  0.035101975  0.033427773           21 
 4939000   0.46297702   -4.6759963    2084.6238  0.035172838  0.033418996           55 
 4940000   0.45882263   -4.6962739    2080.5265    0.0350966  0.033410221           59 
 4941000   0.45886192   -4.6871594    2080.5982  0.035090706  0.033401457           58 
 4942000    0.4507946   -4.6934869    2080.4782  0.035081583   0.03339268           51 
 4943000   0.45891793   -4.6995788    2081.3834  0.035089746  0.033383907           52 
 4944000   0.46327984   -4.6826872    2079.3344  0.035048112   0.03337514           67 
 4945000   0.45524966   -4.6934502    2078.6018  0.035028678  0.033366377           49 
 4946000   0.46394274   -4.6959216    2083.7393  0.035108156  0.033357629           56 
 4947000   0.45361968   -4.6682752    2079.5131  0.035029867  0.033348895           16 
 4948000   0.46545442   -4.6782725    2078.2605  0.035001692  0.033340142           29 
 4949000   0.45747796   -4.6935875    2078.6838  0.035001748  0.033331392           45 
 4950000   0.46134454   -4.6948175    2077.9696  0.034982654  0.033322662           54 
 4951000   0.46149188    -4.686521    2078.9902  0.034992766  0.033313889           33 
 4952000    0.4604579   -4.6958262    2079.4988  0.034994258  0.033305137           21 
 4953000   0.45699489   -4.6821293    2079.0817  0.034980175  0.033296398           38 
 4954000   0.45163506   -4.6875167    2081.5207  0.035014141  0.033287666           51 
 4955000   0.46156418   -4.6780145    2078.8742  0.034962566  0.033278896           46 
 4956000    0.4527346   -4.7053172    2079.6931  0.034969282  0.033270121           57 
 4957000   0.46879586   -4.6909845    2076.6213  0.034910586  0.033261372           76 
 4958000   0.45767113   -4.6774831    2079.2792  0.034948219  0.033252633           61 
 4959000   0.45780348   -4.6899603     2079.726  0.034948679  0.033243866           81 
 4960000    0.4644095   -4.6857774    2082.6426  0.034990635  0.033235132           33 
 4961000   0.45582302   -4.6930245    2077.0143  0.034889039  0.033226388           47 
 4962000   0.45247262   -4.6947267    2072.0047  0.034797875  0.033217638           47 
 4963000   0.46600692   -4.6823187    2078.8122  0.034905168  0.033208906           25 
 4964000   0.44960069   -4.6767191    2075.8498  0.034848405  0.033200186           42 
 4965000   0.45656427   -4.6925561    2077.6413  0.034871456  0.033191474           30 
 4966000    0.4627721   -4.7070708    2077.6068  0.034863854  0.033182723          142 
 4967000   0.45724254   -4.6895087    2074.3028  0.034801403  0.033173987           49 
 4968000   0.44433977   -4.6834639    2080.9604  0.034906072  0.033165229           27 
 4969000   0.44411084   -4.6902096    2076.4285  0.034823045  0.033156472           45 
 4970000   0.46235827   -4.6726123    2075.2538  0.034796341  0.033147727           68 
 4971000   0.45705379   -4.6943288    2077.6147   0.03482892  0.033138981           23 
 4972000   0.45692005   -4.6970975    2075.7821    0.0347912  0.033130226           38 
 4973000   0.44841491   -4.6993235    2077.1561  0.034807228  0.033121484           34 
 4974000   0.46024003   -4.6989179    2075.3123  0.034769338  0.033112751           39 
 4975000   0.46087577   -4.7016247    2075.9117  0.034772391  0.033104008           48 
 4976000   0.44892902   -4.6876887    2081.2671   0.03485509  0.033095287           73 
 4977000   0.44883022   -4.6870461     2076.815  0.034773542  0.033086555          102 
 4978000    0.4484234   -4.6912616    2077.8015   0.03478307  0.033077838           32 
 4979000   0.45602296   -4.6909742    2081.3343  0.034835213  0.033069125           41 
 4980000   0.46169113   -4.6759058    2073.7383  0.034701109  0.033060415           93 
 4981000   0.46157176   -4.6778597    2074.8743  0.034713149  0.033051685           80 
 4982000   0.46096586   -4.6967239    2077.1254  0.034743834  0.033042965          136 
 4983000   0.45366308   -4.6972578    2076.3175  0.034723351  0.033034252           55 
 4984000   0.45420433   -4.6898793    2078.2212  0.034748214  0.033025531           67 
 4985000   0.44581324   -4.6857025    2077.5107  0.034729367  0.033016802           76 
 4986000   0.45975862   -4.6998406    2074.1133  0.034665618  0.033008078           58 
 4987000   0.45382502   -4.7123217    2073.5655  0.034649514  0.032999331           93 
 4988000   0.45924037   -4.7146146    2078.7564   0.03472929  0.032990591           63 
 4989000   0.44719407    -4.708446     2076.991   0.03469284  0.032981881           20 
 4990000   0.46406906   -4.7036887    2080.7514  0.034748688  0.032973171           59 
 4991000   0.45695123   -4.6785683    2077.1544  0.034681667  0.032964475           85 
 4992000   0.44784868   -4.6934532    2077.7597  0.034684825  0.032955792           64 
 4993000   0.44882259    -4.688405    2079.0806  0.034699923  0.032947111           76 
 4994000   0.45973224   -4.6985301     2077.052  0.034659125  0.032938419          103 
 4995000    0.4537628   -4.7051205    2077.7031  0.034663048  0.032929726           90 
 4996000   0.45507936   -4.7138484     2075.271  0.034615542  0.032921038           53 
 4997000   0.44557265    -4.713806    2076.2403  0.034624781  0.032912319           77 
 4998000   0.45457132   -4.7078498     2072.692  0.034558689  0.032903622           47 
 4999000   0.45451693   -4.7030267    2075.6044  0.034600326  0.032894933           34 
 5000000    0.4495692   -4.7059449    2076.7028  0.034611714  0.032886236           23 
 5001000   0.45254783   -4.7072619    2078.5277  0.034635202  0.032877566           52 
 5002000   0.46167013   -4.6982933    2080.7614  0.034665491  0.032868903           25 
 5003000   0.45426988   -4.6918012    2074.6966  0.034557542  0.032860257           31 
 5004000   0.44655676   -4.7042214    2078.6069  0.034615756  0.032851593           45 
 5005000   0.45289804   -4.7031236    2078.0835  0.034600125  0.032842919           38 
 5006000   0.45602803   -4.6989215     2077.556  0.034584432  0.032834241           24 
 5007000    0.4488099   -4.7199151    2075.6054   0.03454506  0.032825545           36 
 5008000   0.46413661   -4.7007881    2076.9468  0.034560483  0.032816859           34 
 5009000   0.44698966   -4.7161581    2073.1562  0.034490521  0.032808206           28 
 5010000   0.45658949    -4.689272    2075.4771  0.034522241  0.032799556           35 
 5011000   0.44669883    -4.721846    2076.0468  0.034524826  0.032790905           24 
 5012000   0.44577044   -4.7095705    2078.0777  0.034551705  0.032782255           31 
Loop time of 12364.1 on 48 procs for 5000000 steps with 4000 atoms

Performance: 69879.572 tau/day, 404.396 timesteps/s
99.4% CPU use with 48 MPI tasks x no OpenMP threads

MPI task timing breakdown:
Section |  min time  |  avg time  |  max time  |%varavg| %total
---------------------------------------------------------------
Pair    | 833.31     | 908.55     | 986.85     | 124.4 |  7.35
Neigh   | 83.446     | 86.506     | 89.719     |  18.3 |  0.70
Comm    | 785.22     | 864.26     | 931.29     | 129.1 |  6.99
Output  | 38.949     | 38.953     | 39.045     |   0.2 |  0.32
Modify  | 10332      | 10352      | 10393      |  12.7 | 83.73
Other   |            | 113.9      |            |       |  0.92

Nlocal:        83.3333 ave          91 max          75 min
Histogram: 1 1 1 12 2 13 12 2 2 2
Nghost:        2265.35 ave        2280 max        2243 min
Histogram: 1 2 3 2 5 10 6 9 8 2
Neighs:        15184.5 ave       17044 max       13772 min
Histogram: 4 5 3 6 11 13 1 2 1 2
FullNghs:      30369.3 ave       33125 max       27154 min
Histogram: 1 1 2 9 6 11 10 2 3 3

Total # of neighbors = 1457726
Ave neighs/atom = 364.43150
Neighbor list builds = 270274
Dangerous builds = 0

#clear
#
#next RN
#
#jump SELF
Total wall time: 3:26:07
