
units lj                  # Use reduced LJ style units
atom_style atomic         # Uncharged point particles
atom_modify map hash      # Needed for indexing of clusters etc
                          # Used to be able to find where atoms are in relation to each other.

lattice fcc 1.0 spacing 1 1 1
Lattice spacing in x,y,z = 1.5874011 1.5874011 1.5874011
region box block 0 10 0 10 0 10 units lattice
create_box 2 box
Created orthogonal box = (0.0000000 0.0000000 0.0000000) to (15.874011 15.874011 15.874011)
  3 by 4 by 4 MPI processor grid
create_atoms 1 box
Created 4000 atoms
  using lattice units in orthogonal box = (0.0000000 0.0000000 0.0000000) to (15.874011 15.874011 15.874011)
  create_atoms CPU = 0.003 seconds
set type 1 type/fraction 2 0.71 78393
Setting atom values ...
  2865 settings made for type/fraction
mass 1 1.0
mass 2 1.0
pair_style lj/cut  3.5
pair_modify tail  yes
pair_coeff 1  1  1.0  1.0   # Intearaction between 1 and 1 set with epsilon = 1 and sigma = 1
pair_coeff 1  2  1.5  0.8
pair_coeff 2  2  0.5  0.88

write_data data.0
System init for write_data ...
Neighbor list info ...
  update every 1 steps, delay 10 steps, check yes
  max neighbors/atom: 2000, page size: 100000
  master list distance cutoff = 3.8
  ghost atom cutoff = 3.8
  binsize = 1.9, bins = 9 9 9
  1 neighbor lists, perpetual/occasional/extra = 1 0 0
  (1) pair lj/cut, perpetual
      attributes: half, newton on
      pair build: half/bin/atomonly/newton
      stencil: half/bin/3d
      bin: standard
WARNING: Not all mixed pair coeffs generated from mixing. Use write_data with 'pair ij' option to store all pair coeffs. (../write_data.cpp:312)


#############################
#   M E L T   S Y S T E M   #
#############################

velocity all create 2.4 3143649 mom yes dist gaussian # Assign velocities
                                                    # Temperature 2.4, random number seed, zero linear momentum
                                                                                # Gaussian distribution

timestep 0.002   # simulation timestep
thermo 1000       # output thermodynamic data every 1000 steps bf 100

# Define a fix  in this case with index 1 applied to all
# particles in the simulation. This fix is for simulations
# in the anisotropic NPT ensemble. Note that we use the MTK
# correction.
fix 1 all npt temp 2.4 2.4 0.1 iso 5.68 5.68 0.5 mtk yes tchain 5 pchain 5 # Use NPT ensemble
                                                                         # Set temperature and pressure and damping
                                                                         # Numbers of thermostats in chain and in barostat
run 10000          # run for 10000 steps
Per MPI rank memory allocation (min/avg/max) = 3.642 | 3.644 | 3.648 Mbytes
Step Temp E_pair E_mol TotEng Press Volume 
       0          2.4   -4.1166387            0   -0.5175387   -3.7043072         4000 
    1000    2.3905708   -3.7757411            0  -0.19078136    5.7162237    3629.4494 
    2000    2.4224432   -3.7274835            0 -0.094727121    5.8403493    3640.4438 
    3000    2.3728564   -3.7408103            0  -0.18241546    5.5892086    3663.7984 
    4000    2.4122645    -3.745235            0  -0.12774282    5.7224212    3642.8068 
    5000    2.4091442   -3.6956014            0 -0.082788474    5.3556788    3704.5457 
    6000    2.4330789    -3.699459            0 -0.050753052    5.8838236    3659.0929 
    7000    2.3870312   -3.7680597            0  -0.18840797    5.5843533    3653.7689 
    8000    2.4588868   -3.7254822            0 -0.038074136    5.7001598    3669.4801 
    9000    2.3117002   -3.7083902            0  -0.24170678    5.6112577    3659.4572 
   10000    2.3667683   -3.6890763            0   -0.1398114    5.6621248    3678.0336 
Loop time of 2.92792 on 48 procs for 10000 steps with 4000 atoms

Performance: 590179.649 tau/day, 3415.391 timesteps/s
99.3% CPU use with 48 MPI tasks x no OpenMP threads

MPI task timing breakdown:
Section |  min time  |  avg time  |  max time  |%varavg| %total
---------------------------------------------------------------
Pair    | 1.1748     | 1.2504     | 1.3148     |   2.7 | 42.71
Neigh   | 0.21544    | 0.22208    | 0.234      |   0.8 |  7.58
Comm    | 0.84989    | 0.91791    | 1.0503     |   4.7 | 31.35
Output  | 0.0002649  | 0.00026983 | 0.00035394 |   0.0 |  0.01
Modify  | 0.46931    | 0.52172    | 0.56378    |   4.0 | 17.82
Other   |            | 0.01555    |            |       |  0.53

Nlocal:        83.3333 ave          93 max          69 min
Histogram: 1 0 1 7 6 11 5 9 5 3
Nghost:        1729.90 ave        1773 max        1690 min
Histogram: 3 3 7 7 4 9 5 4 4 2
Neighs:        10377.7 ave       11878 max        8063 min
Histogram: 1 0 3 6 6 10 4 5 10 3

Total # of neighbors = 498131
Ave neighs/atom = 124.53275
Neighbor list builds = 905
Dangerous builds = 211

# Equilibrate just above the melting temperature to avoid step fn in T

fix 1 all npt temp 1.25 1.25 0.1 iso 5.68 5.68 0.5 mtk yes tchain 5 pchain 5
run 2000
Per MPI rank memory allocation (min/avg/max) = 3.644 | 3.646 | 3.649 Mbytes
Step Temp E_pair E_mol TotEng Press Volume 
   10000    2.3667683   -3.6890763            0   -0.1398114    5.6621248    3678.0336 
   11000    1.2364465   -5.4439988            0   -3.5897927    5.8401415    2802.1005 
   12000    1.2572179   -5.5301502            0   -3.6447949    5.3740539    2794.3781 
Loop time of 0.652166 on 48 procs for 2000 steps with 4000 atoms

Performance: 529926.495 tau/day, 3066.704 timesteps/s
99.6% CPU use with 48 MPI tasks x no OpenMP threads

MPI task timing breakdown:
Section |  min time  |  avg time  |  max time  |%varavg| %total
---------------------------------------------------------------
Pair    | 0.2873     | 0.3194     | 0.36187    |   2.5 | 48.98
Neigh   | 0.040547   | 0.043171   | 0.04962    |   0.7 |  6.62
Comm    | 0.19646    | 0.23984    | 0.27888    |   3.2 | 36.78
Output  | 5.1585e-05 | 5.3117e-05 | 6.8161e-05 |   0.0 |  0.01
Modify  | 0.038847   | 0.044874   | 0.049671   |   1.4 |  6.88
Other   |            | 0.004826   |            |       |  0.74

Nlocal:        83.3333 ave          90 max          74 min
Histogram: 2 2 2 2 6 10 10 2 8 4
Nghost:        2098.52 ave        2116 max        2082 min
Histogram: 3 2 7 6 7 5 6 8 3 1
Neighs:        13664.8 ave       15348 max       11051 min
Histogram: 1 1 0 3 7 11 9 8 6 2

Total # of neighbors = 655910
Ave neighs/atom = 163.97750
Neighbor list builds = 143
Dangerous builds = 14

#############################
# L I N E A R  Q U E N C H  #
#############################

# Define solid atoms. This closely follows ten Wolde  Ruiz-Montero and Frenkel  Faraday Discuss  1996  104  93-110
# Compute components of the per-atom q6 vector
compute q6 all orientorder/atom degrees 1 6 components 6 nnn NULL cutoff 1.3 # compute the Q6 parameter.
                                                                             # Use all neighbours within 1.3 unit cell.

# get number of connections
compute coord_number all coord/atom orientorder q6 0.5

# An atom is solid if it has 8 or more connections (of a possible 14)
variable is_solid atom c_coord_number>=8
group solid dynamic all var is_solid    # Must be dynamic to update
dynamic group solid defined

# do clustering
compute cluster solid cluster/atom 1.3 # Create a cluster where all atoms within are solid and max 1.3 units from another member

# define chunks one chunk per cluster
compute clus_chunks solid chunk/atom c_cluster nchunk every compress yes  # Says which atoms are in which chunk

# count the size of each chunk
compute size_chunks solid property/chunk clus_chunks count


# Find the maximum entry in the vector of chunk sizes
variable max_n equal max(c_size_chunks)


# Thermo style which includes this variable
# thermo_style custom step temp pe vol v_max_n

thermo ${N}  # Print the thermo information every 100 steps
thermo 1000  

# Reset the npt fix at a lower temperature (below freezing)
fix 1  all npt temp  ${temp} ${temp}  0.1  iso  5.68  5.68  0.5  mtk yes tchain  5  pchain  5
fix 1  all npt temp  0.45 ${temp}  0.1  iso  5.68  5.68  0.5  mtk yes tchain  5  pchain  5
fix 1  all npt temp  0.45 0.45  0.1  iso  5.68  5.68  0.5  mtk yes tchain  5  pchain  5

dump dmp2 all dcd ${N} traj.dcd
dump dmp2 all dcd 1000 traj.dcd


compute msd all msd com yes
variable twopoint equal c_msd[4]/6/(step*dt+1.0e-6)
fix 9 all vector 10 c_msd[4]
variable fit equal slope(f_9)/6/(10*dt)
thermo_style custom step temp pe c_msd[4] v_twopoint v_fit v_max_n

fix 1 all npt temp 1.25 ${temp} 0.1 iso 5.68 5.68 0.5 mtk yes tchain 5 pchain 5
fix 1 all npt temp 1.25 0.45 0.1 iso 5.68 5.68 0.5 mtk yes tchain 5 pchain 5
run 5000000 # 5000000  # Run for this many steps
Neighbor list info ...
  update every 1 steps, delay 10 steps, check yes
  max neighbors/atom: 2000, page size: 100000
  master list distance cutoff = 3.8
  ghost atom cutoff = 3.8
  binsize = 1.9, bins = 8 8 8
  4 neighbor lists, perpetual/occasional/extra = 1 3 0
  (1) pair lj/cut, perpetual
      attributes: half, newton on
      pair build: half/bin/atomonly/newton
      stencil: half/bin/3d
      bin: standard
  (2) compute orientorder/atom, occasional
      attributes: full, newton on
      pair build: full/bin/atomonly
      stencil: full/bin/3d
      bin: standard
  (3) compute coord/atom, occasional
      attributes: full, newton on
      pair build: full/bin/atomonly
      stencil: full/bin/3d
      bin: standard
  (4) compute cluster/atom, occasional
      attributes: full, newton on
      pair build: full/bin/atomonly
      stencil: full/bin/3d
      bin: standard
Per MPI rank memory allocation (min/avg/max) = 9.843 | 9.849 | 9.853 Mbytes
Step Temp PotEng c_msd[4] v_twopoint v_fit v_max_n 
   12000    1.2572179   -5.5301502 4.997631e-30 3.470577e-32 8.3333333e+20            3 
   13000    1.2686201   -5.4793068   0.64170654 0.0041135033  0.052626141            1 
   14000    1.2695035   -5.4810947    1.2904495 0.0076812468  0.053873087            2 
   15000    1.2497748   -5.5450685    1.8969505  0.010538614  0.053572898            3 
   16000    1.2785628   -5.5118054    2.5570917  0.013318185  0.052945908            2 
   17000    1.2150605   -5.5233086    3.2571567  0.015966454  0.053695755            1 
   18000    1.2660158   -5.4919518     3.907903  0.018092143   0.05407821            2 
   19000    1.2395043   -5.5054082    4.5681122  0.020035579  0.054261726            3 
   20000     1.219808   -5.4945792    5.1193738  0.021330724  0.053988647            2 
   21000    1.2582269   -5.4859196    5.7630533  0.022869258  0.053709704            4 
   22000    1.2278311   -5.5113535    6.4192295  0.024315263  0.053546907            2 
   23000    1.2633032   -5.4165698     7.134088  0.025848144  0.053510899            3 
   24000    1.2366261   -5.4960758    7.7581288  0.026937947  0.053551435            3 
   25000    1.2465787   -5.5106811    8.2939267  0.027646422  0.053466711            1 
   26000    1.2460874   -5.5346453     8.918075  0.028583573  0.053343532            4 
   27000    1.2530002   -5.5296948    9.4858246  0.029277236  0.053130357            3 
   28000    1.2543644    -5.515123    10.121651  0.030123962   0.05296525            2 
   29000     1.245024   -5.5196287    10.688744  0.030714781  0.052802143            2 
   30000    1.2396216   -5.5058829    11.234297   0.03120638  0.052488954            3 
   31000    1.2207605    -5.515599    11.783401  0.031675809  0.052217313            2 
   32000    1.2683236   -5.5570002    12.520126  0.032604494  0.052044969            4 
   33000    1.2413558   -5.4826941    13.343651  0.033696089  0.052052775            3 
   34000    1.2626338    -5.509657    13.919536  0.034116508  0.052134188            2 
   35000    1.2682324   -5.5249715    14.504321  0.034534097  0.052194912            1 
   36000    1.2497535   -5.5370236    15.068895  0.034881701  0.052188671            2 
   37000    1.2427184    -5.515086    15.673358  0.035300354  0.052161337            2 
   38000    1.2459338   -5.5116238    16.472001  0.036122809  0.052197499            1 
   39000    1.2574409   -5.5186688    17.088219  0.036513288  0.052279029            2 
   40000    1.2537445   -5.4750918    17.619392  0.036707066  0.052252171            3 
   41000    1.2520167   -5.5060315    17.956014  0.036495963  0.052137954            2 
   42000    1.2401499   -5.5016608    18.487499  0.036681546  0.051931347            1 
   43000    1.2362123   -5.5192661    19.080933  0.036978552  0.051762285            6 
   44000    1.2597464   -5.5139083     19.68638  0.037284811   0.05159326            3 
   45000    1.2279051   -5.5384112    20.252831  0.037505243  0.051444395            2 
   46000     1.229901   -5.5407298    20.945024  0.037943884  0.051342023            2 
   47000    1.2452896   -5.5454733    21.515671  0.038148352  0.051255257            1 
   48000    1.2445018   -5.4938458    22.280092  0.038680714  0.051212885            3 
   49000    1.2516362   -5.5509949    22.778268   0.03873855   0.05115901            4 
   50000    1.2380852   -5.5175658    23.403061  0.039005102  0.051104151            1 
   51000    1.2343564   -5.4933981    24.043088  0.039286092  0.051070305            3 
   52000    1.2534094   -5.5112046    24.776682   0.03970622  0.051047862            3 
   53000     1.220285   -5.5558648    25.395671    0.0399303  0.051054597            1 
   54000    1.2772459   -5.5290712    26.028435  0.040167338   0.05109522            2 
   55000    1.2422048   -5.5314579    26.612366  0.040321766  0.051102133            2 
   56000    1.2379777   -5.5071241    27.166142  0.040425806  0.051099061            1 
   57000     1.241161    -5.506665    27.649424  0.040423134  0.051072676            3 
   58000    1.2461367   -5.5177644    28.297731  0.040657659  0.051062107            2 
   59000    1.2198527   -5.5487901    28.878476  0.040788807    0.0510456            2 
   60000     1.232172   -5.5234865    29.488127  0.040955732  0.051034545            2 
   61000    1.2653499    -5.548711    30.329645  0.041433941  0.051029419            4 
   62000    1.2526149   -5.5313847    30.957398  0.041609406  0.051043645            2 
   63000    1.2105035   -5.4937243    31.518193  0.041690731  0.051051398            2 
   64000    1.2646897   -5.4929809    32.283597  0.042035933  0.051070757            1 
   65000    1.2456009    -5.586907    32.820229  0.042077216  0.051101252            2 
   66000    1.2325336   -5.5337903    33.693679  0.042542524  0.051151728            2 
   67000     1.229733    -5.548724    34.352709  0.042727249  0.051216616            3 
   68000    1.2513147   -5.5077583    35.094005  0.043007359  0.051281312            3 
   69000    1.2553723   -5.5755726    35.488112  0.042860039  0.051327763            2 
   70000    1.2227142   -5.5099031      36.5404  0.043500476  0.051381062            2 
   71000    1.2602146   -5.5095886    37.292335  0.043770346  0.051459691            2 
   72000     1.244386   -5.5523461    37.589961  0.043506899  0.051532574            2 
   73000    1.2569156    -5.520767    38.083114  0.043473874  0.051570935            4 
   74000    1.2603223   -5.5749495    38.554152  0.043416837  0.051590247            2 
   75000    1.2429747   -5.5341203     39.26384  0.043626488  0.051599923            2 
   76000    1.2227548   -5.5297943    39.802404  0.043642987  0.051602911            1 
   77000    1.2292856   -5.5315594    40.354409  0.043673603  0.051600256            2 
   78000    1.2085304    -5.516979    40.853366  0.043646758  0.051594491            2 
   79000    1.2297563   -5.5133031    41.437698  0.043710652  0.051577199            2 
   80000    1.2285741    -5.552109    41.829822  0.043572731  0.051553068            2 
   81000    1.2019825   -5.5267288    42.622707  0.043850521  0.051530702            2 
   82000    1.2158924   -5.5566675    43.072202  0.043772562  0.051508363            2 
   83000     1.229205    -5.491988    43.669948  0.043845329  0.051483314            2 
   84000    1.2674809   -5.5434911      44.0368  0.043687301  0.051442054            3 
   85000    1.2332792   -5.5087087    44.776715   0.04389874  0.051393773            2 
   86000    1.2447569   -5.5376874    45.354039  0.043947712   0.05133785            2 
   87000    1.2250006   -5.5493128     45.69064  0.043764981  0.051292932            2 
   88000    1.2135921   -5.5192095     46.10056  0.043655833  0.051237568            2 
   89000    1.2366895   -5.5054932    46.811711   0.04383119  0.051168273            1 
   90000    1.2699844   -5.5072507    47.454353  0.043939216  0.051106375            2 
   91000    1.2211471   -5.4990142    48.200599  0.044139742  0.051052308            2 
   92000    1.2474303   -5.5433434    48.776102  0.044181251  0.051012396            3 
   93000    1.2127028    -5.523229    49.395641  0.044261327  0.050969606            2 
   94000    1.2416356   -5.5443095    49.954816  0.044286184  0.050926706            2 
   95000    1.2498831   -5.5371067    50.572413  0.044361765  0.050884106            2 
   96000    1.2482677   -5.5410297    51.117992  0.044373257  0.050840896            4 
   97000    1.2436701   -5.5381098    51.715873  0.044429444  0.050807471            1 
   98000    1.2406185    -5.543151    52.495259  0.044638826  0.050775506            3 
   99000    1.2239389     -5.51014    53.282603  0.044850676   0.05075468            2 
  100000     1.255379   -5.5704883    53.752518  0.044793764  0.050741765            4 
  101000    1.2365511    -5.532675    54.475423  0.044946719  0.050728578            5 
  102000    1.2413672   -5.5152532       55.116  0.045029412  0.050722256            3 
  103000     1.228471   -5.5545007    55.734632  0.045092744  0.050730661            5 
  104000    1.2360416   -5.5259313    56.354148  0.045155567  0.050726222            2 
  105000    1.2317141    -5.553173     56.64164  0.044953682  0.050713156            3 
  106000    1.2487691   -5.5380964    57.129424  0.044913069  0.050693013            1 
  107000    1.2182636   -5.5660106    57.750314   0.04497688  0.050672176            2 
  108000    1.2308957   -5.5687391    58.311453  0.044993405  0.050646555            3 
  109000    1.2405502   -5.5577543    58.773606  0.044933949  0.050613277            3 
  110000    1.2347264   -5.5252019    59.102011  0.044774251  0.050576184            1 
  111000    1.2438402   -5.5460285     59.77822  0.044878543  0.050537143            2 
  112000    1.2192089    -5.510832    60.195885  0.044788605  0.050491291            2 
  113000    1.2095122   -5.5408395    60.849477  0.044874245  0.050451985            2 
  114000    1.2335879   -5.4955749    61.248268  0.044772126  0.050400634            1 
  115000    1.2260592   -5.5400051    61.819032    0.0447964  0.050351934            1 
  116000     1.233966   -5.5556286    62.557367  0.044940637  0.050308453            1 
  117000     1.237794   -5.5462187    62.864849  0.044775533  0.050261743            2 
  118000     1.223654   -5.5234633    63.574402  0.044897176  0.050214142            2 
  119000    1.2225679   -5.5594389    64.137892   0.04491449  0.050173482            2 
  120000    1.2254682   -5.5417907    64.711024  0.044938211  0.050133338            4 
  121000    1.2132869   -5.5378585    64.880228  0.044683352  0.050091558            3 
  122000    1.2350326   -5.5496793    65.897572  0.045012002  0.050048475            2 
  123000    1.2248667   -5.5708935    66.225021    0.0448679  0.050007491            2 
  124000    1.2270552   -5.5544464    66.833569  0.044915033  0.049960817            2 
  125000    1.2392774   -5.5323775    67.522913  0.045015275  0.049913027            3 
  126000      1.24047   -5.5528041    67.464218  0.044619192  0.049862335            2 
  127000    1.2290984   -5.5816812    68.367098    0.0448603   0.04981645            5 
  128000    1.2588455   -5.5561837    69.176249   0.04503662  0.049777219            4 
  129000    1.2322346   -5.5894393     69.58534   0.04495177  0.049742917            2 
  130000    1.2064927   -5.5705875    70.248023  0.045030784  0.049704131            4 
  131000    1.2181619   -5.5530619    70.739918  0.044999948  0.049665484            3 
  132000    1.2121882   -5.5376369    71.447784  0.045105924   0.04963006            1 
  133000    1.2567034   -5.5525527    71.687318  0.044916866  0.049591841            3 
  134000    1.2216356   -5.6034204    72.072432  0.044821164  0.049552569            2 
  135000    1.2414989   -5.5687468     72.82467    0.0449535  0.049516594            2 
  136000    1.2222173   -5.5479109    73.649303  0.045128249  0.049483738            6 
  137000    1.2218746   -5.5399282    73.889287  0.044944822  0.049452749            3 
  138000    1.2213873   -5.5280986    74.983958  0.045280167  0.049422693            3 
  139000    1.2405146   -5.5769339    75.087167  0.045016287  0.049393695            2 
  140000    1.2478052   -5.4997779    76.206988  0.045361302  0.049369504            2 
  141000    1.2378803   -5.5264927    76.348755  0.045123377  0.049341897            2 
  142000    1.2082996   -5.5155162    76.966111  0.045167906  0.049316817            2 
  143000    1.2358726   -5.5795656    77.095388  0.044927382  0.049284533            2 
  144000    1.2551175   -5.5774622    77.727787  0.044981358  0.049251227            3 
  145000    1.2348338   -5.5446586     78.74752  0.045257195  0.049222205            1 
  146000    1.2327958   -5.5878664    79.587196  0.045426482  0.049196599            1 
  147000    1.2110549    -5.558249    80.188092  0.045458102  0.049180627            3 
  148000     1.240431   -5.5518441    81.018307  0.045618416  0.049169095            2 
  149000    1.2466829    -5.545528    81.792297  0.045745133   0.04915946            3 
  150000    1.2245423    -5.535106    81.663092  0.045368384  0.049148044            4 
  151000    1.2472628   -5.5643903    82.450374  0.045502414  0.049135152            2 
  152000    1.2348249   -5.5730586    83.047487   0.04553042  0.049118882            3 
  153000    1.2242654   -5.6069674    83.685183  0.045580165  0.049110748            4 
  154000    1.2101933   -5.5109178    84.350043  0.045643962  0.049098162            3 
  155000     1.252632   -5.5451495    84.665571  0.045519124  0.049080897            5 
  156000    1.2401661   -5.5729189    85.580145  0.045715889  0.049063724            3 
  157000     1.231964   -5.5898298    85.989713  0.045642098  0.049051145            2 
  158000    1.2749636   -5.5561201    86.314359  0.045524451  0.049039447            4 
  159000      1.24856   -5.5462199    87.155444  0.045678954  0.049023974            4 
  160000    1.2067656   -5.5696499    87.234425  0.045434596  0.049009652            1 
  161000    1.2296574   -5.5252296    88.153412   0.04562806  0.048994923            2 
  162000    1.2183769   -5.5388509    88.080585  0.045308943  0.048976972            1 
  163000    1.2401575   -5.5478086    89.344591  0.045677194   0.04895492            3 
  164000    1.2126308   -5.5484062    89.938255  0.045700333  0.048936639            2 
  165000    1.2155437    -5.560989     90.24254   0.04557704  0.048921146            2 
  166000    1.2397751   -5.5180022    91.112866   0.04573939  0.048902986            3 
  167000    1.2362788   -5.5951354    91.215741  0.045516837  0.048887888            2 
  168000    1.2196872    -5.548262     91.84496  0.045558016  0.048872439            3 
  169000    1.2305409   -5.5217329    93.062871  0.045888989  0.048861254            4 
  170000     1.242598    -5.563317    93.475859  0.045821499   0.04884826            1 
  171000    1.1973515   -5.5768909    94.010679  0.045814171  0.048838407            1 
  172000     1.241911   -5.6244122    94.071842  0.045577443  0.048825804            1 
  173000    1.2205927   -5.5948908    94.467484  0.045504568  0.048815087            2 
  174000    1.2517602   -5.5805556    95.220757  0.045603811  0.048800066            4 
  175000    1.2346275   -5.5674563     96.28182  0.045848486  0.048786745            1 
  176000    1.2320613   -5.5586017    96.416746  0.045651868  0.048770956            2 
  177000     1.209959   -5.5344317    97.440023  0.045875717  0.048759779            3 
  178000    1.2237048   -5.5990327    98.022281  0.045890581  0.048751411            2 
  179000    1.2251318   -5.5381588    98.711594  0.045955118  0.048742923            2 
  180000    1.2535265   -5.5802442     99.63583  0.046127699  0.048741933            3 
  181000    1.2486383   -5.5733308    100.45361  0.046249358   0.04874005            1 
  182000     1.211904   -5.5578571    100.48373  0.046009032  0.048736774            2 
  183000    1.2213023    -5.489059    101.58919  0.046261014  0.048735101            2 
  184000    1.2401848   -5.5726837    101.17456  0.045821811  0.048732775            3 
  185000    1.2306993   -5.5779836    101.90443  0.045902896  0.048727027            3 
  186000    1.2452707   -5.5413892    103.11174  0.046197014  0.048723023            1 
  187000    1.2475641   -5.5385791     102.9821  0.045892203  0.048715899            2 
  188000    1.2131984   -5.5818827    103.36705  0.045818729  0.048703145            1 
  189000    1.2181924   -5.5637405    104.30496  0.045989841  0.048692594            3 
  190000    1.2127134   -5.5863367    104.74631  0.045941365  0.048682109            1 
  191000    1.2095048   -5.5483433    105.32528  0.045953437  0.048669867            2 
  192000    1.1770176   -5.5916637    105.51363  0.045795848  0.048657131            1 
  193000    1.2283213   -5.5571502    106.46488  0.045969291  0.048643321            5 
  194000    1.1858395   -5.5637976    106.98684  0.045956548  0.048631488            3 
  195000    1.2263583   -5.5830672    107.26932  0.045841589  0.048618229            1 
  196000    1.2479148   -5.5357527    108.01845   0.04592621  0.048604966            3 
  197000    1.2204871   -5.5600441    108.37123  0.045842312   0.04859424            1 
  198000    1.2334176   -5.5505631    109.58703  0.046122487  0.048582883            3 
  199000    1.2186966   -5.5257035    110.38676   0.04622561  0.048574815            1 
  200000    1.2201687   -5.5697238    110.52749  0.046053123  0.048565823            3 
  201000    1.2136714   -5.5583228    111.33656  0.046159435  0.048561935            2 
  202000    1.2183112   -5.5822052    112.10044  0.046246055  0.048557988            5 
  203000    1.2163618   -5.5506399    112.48407  0.046175727  0.048552763            2 
  204000    1.1855186   -5.5654088    113.25079  0.046262577  0.048547685            4 
  205000     1.213908   -5.5445529    113.46778  0.046125116  0.048546933            3 
  206000    1.2103263   -5.5443642    114.51809  0.046326087  0.048543487            3 
  207000    1.2131577   -5.6116371    114.82118  0.046224307   0.04854129            4 
  208000    1.2157738   -5.5797128    115.23623  0.046168362  0.048536773            5 
  209000    1.2288043   -5.5416954    116.25571  0.046353953  0.048536088            1 
  210000    1.2103185   -5.5628914    116.67451  0.046299409  0.048535845            2 
  211000    1.2193016   -5.5870484     117.4837  0.046399567   0.04853665            2 
  212000    1.2298336   -5.5565494    117.73602  0.046279882  0.048539207            3 
  213000    1.1985548   -5.5890344    118.70305  0.046440944  0.048540736            3 
  214000    1.1967737   -5.5832306    119.82417  0.046660501   0.04854416            5 
  215000    1.1994008   -5.6017613    119.85544  0.046455595  0.048548378            2 
  216000    1.2166081    -5.565806    120.71816  0.046573365  0.048555403            5 
  217000    1.2623982   -5.5989163     121.1568  0.046527189  0.048562245            3 
  218000    1.1941417   -5.6049968    121.46617  0.046432022  0.048565201            3 
  219000    1.2081086   -5.5659753    122.46491  0.046600041  0.048569097            3 
  220000    1.2308016   -5.5754792    123.20221  0.046667503   0.04857111            5 
  221000     1.216021   -5.5824579    123.95612  0.046740618  0.048571435            3 
  222000    1.1926674   -5.6100931    123.94774  0.046526929  0.048572228            3 
  223000    1.2122436   -5.5435801    124.96274  0.046697585  0.048575071            3 
  224000     1.199019   -5.5730036    125.66968  0.046752114   0.04858246            2 
  225000    1.2182341   -5.6241461    126.11575  0.046709536  0.048587275            4 
  226000    1.2063842   -5.5417241    127.11059  0.046869685  0.048592126            3 
  227000    1.2469688   -5.6000558     126.8419  0.046564572   0.04859522            9 
  228000    1.2017014   -5.5642945    127.57289  0.046627518  0.048596379            2 
  229000    1.2329685   -5.5925968    128.28473  0.046682945  0.048599719            4 
  230000    1.2384509   -5.5711019    128.85552  0.046686782  0.048602133            4 
  231000    1.2124752   -5.5507333    129.47224  0.046707156  0.048605236            3 
  232000    1.1779443   -5.5960769    129.65263  0.046570627  0.048605495            2 
  233000    1.2248997   -5.5484575     130.1394  0.046544851  0.048604235            3 
  234000    1.2208289   -5.5326488    130.52662  0.046483839  0.048601989            2 
  235000    1.1909854   -5.5505966    131.49398  0.046629069  0.048599184            2 
  236000    1.2390167   -5.5582032    131.77475  0.046530633  0.048595585            2 
  237000    1.1874064   -5.5997031    131.44096  0.046216935  0.048589313            2 
  238000    1.1876217   -5.5755949    132.08669   0.04624884  0.048581268            2 
  239000    1.2182668   -5.5794075    132.70071  0.046269423   0.04857083            1 
  240000    1.2000689   -5.5344088    133.96803  0.046516678  0.048560691            2 
  241000    1.1824788   -5.5618727    133.78994  0.046262083   0.04855135            3 
  242000    1.2223994   -5.5651566    134.21449  0.046217112  0.048539126            2 
  243000     1.234553   -5.6102239    135.23318  0.046376261  0.048532299            2 
  244000     1.210221   -5.5782733    136.12926  0.046492235  0.048524708            2 
  245000    1.2492099   -5.5848668    137.04668  0.046614518  0.048519458            4 
  246000    1.2276759   -5.5547252    137.51474  0.046583585   0.04851582            1 
  247000     1.211863   -5.5708283    137.83393  0.046502674  0.048511171            2 
  248000    1.2249662   -5.5776979     139.0864  0.046736022  0.048507744            2 
  249000    1.2224013   -5.5890637    139.44283  0.046667612   0.04850763            4 
  250000    1.2019882   -5.5702301    140.42528  0.046808428  0.048508844            1 
  251000    1.2167057   -5.5488347    141.00497    0.0468144   0.04851092            2 
  252000    1.2211518   -5.6211733    140.93557  0.046605679  0.048511406            2 
  253000    1.1960379   -5.5954619     141.8668  0.046728194  0.048509938            3 
  254000    1.2230029   -5.6042588    142.62667  0.046793525  0.048510967            3 
  255000    1.1962547   -5.6026006    143.29804  0.046829425  0.048511102            4 
  256000    1.1999876   -5.5989137    143.79741  0.046809052  0.048510852            3 
  257000    1.2183093   -5.5613213    144.67492  0.046911451  0.048513734            2 
  258000    1.1967811   -5.5865219     145.0876  0.046862919   0.04851332            2 
  259000    1.2238202   -5.5967161    145.33004  0.046759987  0.048514339            2 
  260000    1.1768866    -5.607983    146.40937  0.046926078  0.048516233            3 
  261000    1.2358094   -5.5978406    146.89243  0.046900519  0.048520091            3 
  262000    1.2122357   -5.5937166    147.24269  0.046832916  0.048522448            2 
  263000    1.2190039   -5.6084198    147.86038  0.046850563  0.048525735            3 
  264000    1.2073955   -5.6147929    148.45867  0.046861954  0.048528911            3 
  265000    1.2186607   -5.6114268    148.92442   0.04683158  0.048532671            4 
  266000    1.2415794    -5.610891    149.45962   0.04682319  0.048535954            3 
  267000    1.2173096   -5.5805493    149.81684  0.046759314  0.048537915            4 
  268000    1.1986014   -5.6146118     151.0553  0.046969932  0.048537964            6 
  269000    1.1770309   -5.5991125    151.62261   0.04697107  0.048538143            2 
  270000    1.1830176   -5.5916745    152.17937  0.046968942  0.048539201            2 
  271000    1.1976972   -5.6088249    152.20924  0.046804811  0.048538622            4 
  272000    1.1895093   -5.5923845    153.06294  0.046894283  0.048537934            3 
  273000    1.2044251   -5.6197606     154.3307  0.047109494  0.048539431            3 
  274000     1.210924   -5.6311279    154.55699  0.047006383  0.048543404            2 
  275000    1.2240092   -5.5817527    154.83894  0.046920891  0.048547815            2 
  276000    1.1858985   -5.6264643    155.19202  0.046857493  0.048549191            3 
  277000    1.2263438    -5.577279    156.40454  0.047053111   0.04854866            2 
  278000    1.2024245   -5.6047471    156.33929  0.046864295   0.04854763            2 
  279000    1.2041933    -5.597279     156.8924  0.046861529  0.048546938            1 
  280000    1.1949393   -5.5996638    157.36557  0.046834991  0.048547392            2 
  281000    1.1996134   -5.6182407    157.60045  0.046737975   0.04854593            2 
  282000    1.2230174   -5.5771525    157.80238   0.04663191  0.048542586            2 
  283000    1.2071611   -5.5924474    158.42927  0.046651728  0.048537719            1 
  284000    1.1958186   -5.5875459    159.30676  0.046744942  0.048532467            1 
  285000    1.1812377    -5.559998    159.71255  0.046699576  0.048526515            2 
  286000    1.1965552   -5.5325763    160.74784  0.046837948  0.048520759            4 
  287000     1.208262   -5.5763933    160.79428  0.046688235  0.048513505            2 
  288000    1.2183531   -5.6298478     161.0168  0.046590509  0.048506838            4 
  289000    1.1903535   -5.5955966    161.61761  0.046602541  0.048501076            4 
  290000    1.1961733   -5.5594543    162.14998  0.046594822  0.048493029            2 
  291000    1.2261993   -5.6125859    162.43734  0.046516992  0.048484739            2 
  292000     1.178802    -5.594918    163.34654  0.046617164  0.048477309            2 
  293000    1.2198002   -5.5922317    163.78694  0.046583315  0.048468741            8 
  294000    1.2105779   -5.6081863    164.27835  0.046564158   0.04846095            1 
  295000    1.2261887   -5.6340773    164.46823   0.04645995  0.048451959            2 
  296000    1.1891345   -5.6190228    165.74785  0.046663245  0.048444862            5 
  297000     1.224745   -5.6058237    166.71528  0.046777577  0.048438573            1 
  298000    1.2176942   -5.6065947    166.31018  0.046507322  0.048430921            2 
  299000    1.1699552   -5.5831638    167.42811  0.046663352  0.048422594            2 
  300000    1.2377408   -5.6160108     167.4412  0.046511444  0.048414517            3 
  301000    1.1665528   -5.6011303    168.24069  0.046578263  0.048407003            3 
  302000    1.1994654    -5.612756    167.85025  0.046316294  0.048396848            3 
  303000    1.2157848   -5.6294092    168.22008  0.046265147  0.048384692            2 
  304000    1.2248316   -5.6079149    169.21452   0.04638556  0.048375472            4 
  305000    1.1952351   -5.6108116    169.58753   0.04633539  0.048363322            3 
  306000    1.2280122   -5.6168764    170.47297  0.046425102  0.048352736            3 
  307000    1.1727817   -5.6266511    171.04816   0.04643001  0.048341935            4 
  308000    1.2316544    -5.594963    172.01207  0.046540061  0.048332619            1 
  309000    1.1920722   -5.5694781    172.48276  0.046516385  0.048323548            2 
  310000     1.210415   -5.6119152    171.97124  0.046228829  0.048313955            4 
  311000    1.1895528   -5.6005235    172.67514  0.046268794  0.048302871            7 
  312000    1.2018978   -5.6059546      173.472  0.046333334  0.048291616            2 
  313000      1.17483   -5.6332244    173.92665   0.04630635  0.048280207            1 
  314000    1.2154636   -5.6010743    174.48705  0.046307605   0.04826856            2 
  315000    1.1822086   -5.5614771    175.94645  0.046546681  0.048259123            2 
  316000     1.209357   -5.6434126    175.56625  0.046299115  0.048251581            3 
  317000    1.2028582   -5.6150426    177.06628  0.046547393   0.04824355            2 
  318000    1.1925742   -5.6129528    177.33601    0.0464717  0.048235854            3 
  319000    1.1941757   -5.6049585    178.20945  0.046554193  0.048227001            4 
  320000    1.2150693   -5.5888246    178.83034  0.046570401  0.048219837            4 
  321000    1.2216025   -5.6116816     178.3624  0.046303843  0.048212118            1 
  322000    1.2074953   -5.6140247     180.0269  0.046590813  0.048203068            2 
  323000    1.1967877   -5.5888203    179.88686  0.046410438  0.048195186            2 
  324000    1.2154148   -5.6356347    180.64792  0.046462943  0.048188571            2 
  325000    1.1942455   -5.5975811    181.90171  0.046641463  0.048182884            2 
  326000    1.1978005   -5.5879372    182.59403  0.046675365  0.048176821            3 
  327000    1.2005687   -5.6403339    182.24979  0.046444901  0.048169918            2 
  328000    1.1895684   -5.5839713    183.92158  0.046728044  0.048163612            3 
  329000    1.1968495   -5.5842106    184.19297  0.046654754  0.048157391            2 
  330000    1.2019698   -5.5869537    184.79068  0.046664313  0.048154424            2 
  331000    1.1618423   -5.5955286    186.37297  0.046921695  0.048152469            5 
  332000     1.209468   -5.6335864    185.84108  0.046646857  0.048148879            2 
  333000    1.2073309   -5.6120372    186.87566  0.046765682    0.0481458            3 
  334000    1.1956488   -5.6227118    186.88362  0.046627651  0.048142332            1 
  335000    1.1708784   -5.6434327    187.35065   0.04660464  0.048136444            2 
  336000    1.2077619   -5.5852293    187.82063  0.046582499  0.048130353            4 
  337000    1.1867129   -5.6227602    187.99603  0.046487643  0.048125202            1 
  338000    1.1886158   -5.5695115    190.41149  0.046945635  0.048120939            1 
  339000     1.218149   -5.6258891    189.42306  0.046564173  0.048117092            4 
  340000     1.204241   -5.6233912    190.61138  0.046718475  0.048112714            2 
  341000    1.2015051   -5.6446363    190.72392  0.046608974  0.048107914            2 
  342000    1.2115184   -5.6425995    191.43804  0.046646695  0.048102473            2 
  343000    1.2061102   -5.6012019    192.47307  0.046762164  0.048097891            1 
  344000    1.1568117   -5.5852702    192.59705  0.046656263  0.048094521            4 
  345000    1.1946101   -5.6024734    192.78546  0.046566537   0.04808872            3 
  346000    1.2264354   -5.6354397    193.62035  0.046633032  0.048083066            3 
  347000    1.1944398   -5.6206173    194.06425  0.046605246  0.048077833            2 
  348000    1.1862472   -5.6495047    194.25896   0.04651795  0.048071027            2 
  349000    1.2112342   -5.6285031    195.49382  0.046679517  0.048064333            2 
  350000    1.2150474   -5.6205027    195.16688  0.046468305  0.048056744            3 
  351000    1.2148532   -5.6409679    195.31671  0.046371488  0.048049515            1 
  352000    1.1769917   -5.5805409    196.53037  0.046527076  0.048041189            4 
  353000    1.1870371   -5.6084405    196.79827  0.046458515  0.048033461            3 
  354000    1.1797573     -5.65352    197.33916  0.046454604  0.048025447            2 
  355000    1.1981178   -5.6077253    198.47612  0.046590638  0.048017974            5 
  356000    1.2141024   -5.6217828    198.48257  0.046461275  0.048010033            2 
  357000    1.1538161   -5.6224144    200.01721  0.046689358   0.04800406            2 
  358000    1.1631881     -5.64051    200.13609  0.046586613  0.047999416            3 
  359000    1.1930469   -5.6369996    200.55277  0.046553568  0.047995629            2 
  360000    1.1833843   -5.6360885    201.68089  0.046685392  0.047992468            2 
  361000    1.1782243   -5.6507481    202.08359  0.046649028  0.047988922            1 
  362000    1.1965303   -5.6121647     202.7638   0.04667675  0.047985246            3 
  363000    1.1741402   -5.6216293    203.23809  0.046657045  0.047981642            1 
  364000     1.174135    -5.632652    204.63005  0.046847539  0.047978996            2 
  365000     1.199377   -5.6141021    204.08969  0.046595819  0.047975487            2 
  366000    1.1997511   -5.6372249      204.245  0.046503872  0.047971111            1 
  367000    1.1889706   -5.6335564    205.82315  0.046735503  0.047966505            1 
  368000    1.2021725   -5.5847038    206.75074  0.046818556  0.047964155            6 
  369000    1.1926418   -5.6161536    207.49554  0.046859879   0.04796307            6 
  370000    1.1957907   -5.6517646     207.4814  0.046730045  0.047961981            2 
  371000    1.1892796   -5.6235091    208.08554  0.046739788  0.047958367            3 
  372000    1.1960723   -5.6283235    208.99422    0.0468177  0.047954928            2 
  373000    1.2415152   -5.5745479    209.36859  0.046775825  0.047952153            3 
  374000     1.189434   -5.6372374    209.61547  0.046705764  0.047950002            3 
  375000     1.179734   -5.6151596    210.90065  0.046866811  0.047948755            6 
  376000    1.2040705   -5.6137931    211.25489  0.046820676  0.047946234            2 
  377000    1.2034281   -5.6598103    211.12456  0.046667674  0.047945212            3 
  378000     1.193055   -5.6626747    211.47819  0.046622176  0.047943032            1 
  379000    1.2047301    -5.585857    213.53529  0.046951471  0.047939764            6 
  380000    1.2036061   -5.6164042    213.90263  0.046908472   0.04793723            2 
  381000    1.1971981    -5.634828    213.48994  0.046695088  0.047935472            1 
  382000    1.1878935    -5.635022    214.58965  0.046812751  0.047934564            4 
  383000     1.177977   -5.6447749    215.27028  0.046838617   0.04793381            3 
  384000    1.1918058   -5.6395537    215.99845  0.046874664  0.047932549            4 
  385000    1.2046172   -5.6495545    217.06005  0.046982695  0.047931771            3 
  386000    1.1945916    -5.654963    217.09305  0.046868103  0.047932602            2 
  387000    1.1891017   -5.6212463    218.41807  0.047032314  0.047932461            2 
  388000    1.1919185   -5.6385041     217.8901  0.046797701   0.04793239            5 
  389000    1.2023299   -5.5966822     219.2424  0.046967096  0.047931913            1 
  390000     1.212517   -5.6303113    219.42159  0.046884955  0.047932482            4 
  391000    1.1603409   -5.6304303    220.25815  0.046943339  0.047933196            1 
  392000    1.2028154    -5.641648     221.0792  0.046998129   0.04793432            1 
  393000    1.2003106   -5.6533885    221.20714  0.046905669  0.047935582            3 
  394000    1.1871801   -5.6483862    221.98544  0.046951235  0.047934409            1 
  395000    1.2158554   -5.6242008    222.81348  0.047007063  0.047934533            1 
  396000    1.1835382   -5.6161327    223.15935  0.046961142  0.047935722            2 
  397000    1.1861796   -5.6416783    223.70107  0.046956565  0.047935624            2 
  398000    1.2305118   -5.6476624    224.41283  0.046987611  0.047934397            1 
  399000    1.2125883   -5.6434125    224.22827  0.046831302  0.047933393            2 
  400000    1.1718718   -5.5993088    225.53664    0.0469868  0.047931064            2 
  401000    1.1847326     -5.61884    225.50931  0.046863946  0.047928779            4 
  402000    1.2107126   -5.6055589    226.62847  0.046979367   0.04792718            3 
  403000    1.2204139   -5.6705331    225.95376  0.046723276   0.04792516            3 
  404000    1.1754947   -5.5978281    227.32474  0.046890416   0.04792253            3 
  405000    1.1934627   -5.6466665    228.10773  0.046935747  0.047920583            3 
  406000    1.1563433   -5.6221454    229.17101  0.047038385  0.047919312            2 
  407000    1.1874615   -5.6181345    229.66423  0.047023798  0.047917945            5 
  408000    1.1627138   -5.6324461    229.78363  0.046932931  0.047916398            2 
  409000    1.1789481   -5.6136628    230.70626  0.047006166  0.047914983            2 
  410000     1.218589   -5.6401525    230.07954  0.046764133  0.047913536            3 
  411000    1.1826572   -5.6359941     231.2851   0.04689479  0.047911813            2 
  412000    1.1822865    -5.577114    233.27227  0.047182901  0.047911672            3 
  413000     1.176453   -5.6874488      231.406   0.04669209  0.047911236            4 
  414000    1.1999843   -5.6258179    233.03069  0.046906339  0.047909114            3 
  415000     1.185341   -5.6465521    233.17139  0.046821565  0.047906587            2 
  416000    1.1577715    -5.651072    233.31156  0.046737092  0.047903662            2 
  417000    1.1934461   -5.6614098    233.27558  0.046617822  0.047900087            2 
  418000    1.1926764   -5.6394521    234.23759  0.046698083  0.047896607            1 
  419000    1.1612064   -5.6170269    235.90284  0.046917829  0.047893535            5 
  420000    1.1913516   -5.6314226    236.20806  0.046866679  0.047890788            4 
  421000    1.1646121   -5.6177967     236.0141  0.046716963  0.047887374            1 
  422000    1.1848682   -5.6446517    235.73253  0.046550658  0.047883211            2 
  423000    1.1644124   -5.5872769    238.02729  0.046892689  0.047878955            2 
  424000     1.217731   -5.6428158    237.03088  0.046586258  0.047873387            1 
  425000    1.1791466   -5.6052756    237.69478  0.046606819  0.047867465            5 
  426000      1.17746   -5.6446074    238.45348  0.046645829  0.047861996            2 
  427000    1.1784024   -5.6293462    238.42864   0.04653174  0.047855912            2 
  428000    1.1893632   -5.6154948    239.36232  0.046604813  0.047850759            2 
  429000    1.1723748   -5.6032596    240.36313  0.046690585  0.047844565            2 
  430000    1.1740213   -5.6190626    240.31166  0.046572027  0.047838455            2 
  431000    1.1929128   -5.6318872    242.15538  0.046820452  0.047833488            2 
  432000    1.1701351   -5.6098567    242.66215  0.046809828  0.047827367            2 
  433000    1.2019291    -5.621619    242.54202  0.046678602  0.047822187            2 
  434000    1.2040614   -5.6618173     242.9327  0.046646063  0.047817134            3 
  435000    1.1800529   -5.6663808    242.94904  0.046541961  0.047812906            2 
  436000    1.1825754   -5.6552367    243.35524  0.046512852  0.047808132            4 
  437000    1.1825205   -5.6450917    244.11822   0.04655191  0.047802845            1 
  438000    1.2005433   -5.6825941    244.42377  0.046503761  0.047798253            2 
  439000    1.1890831   -5.6516633    245.27648  0.046559696  0.047793315            3 
  440000    1.1894763   -5.6937443    245.49512  0.046495289  0.047787167            3 
  441000    1.1810305   -5.6263652    246.43441   0.04656735  0.047780782            3 
  442000    1.1988518     -5.65083    246.42231  0.046459712  0.047774022            4 
  443000    1.1878248   -5.6883957    246.41253  0.046352997  0.047767212            3 
  444000    1.1776418   -5.6488258    246.91017  0.046341999  0.047759998            1 
  445000    1.1678465    -5.626772    249.07117  0.046642542  0.047753193            4 
  446000    1.2101124   -5.6785975    248.43729  0.046419524  0.047746233            2 
  447000    1.1790835   -5.6606218      249.374  0.046490305  0.047738697            1 
  448000    1.1706915   -5.6742476    249.47965  0.046406185  0.047730835            2 
  449000    1.1920288   -5.6624281    250.96194   0.04657794  0.047723736            5 
  450000    1.1873647   -5.6604329    250.27816  0.046347807   0.04771676            2 
  451000     1.177087   -5.6462379    250.50104  0.046286224  0.047709567            1 
  452000    1.1534803   -5.6735848    250.96991  0.046270264  0.047702266            3 
  453000    1.1898386   -5.6635199    252.81585  0.046507698  0.047696089            3 
  454000    1.1977127   -5.6664316    253.33843   0.04650118  0.047689414            3 
  455000    1.1877894   -5.6653774    253.29641  0.046391284  0.047682455            4 
  456000    1.1898455   -5.6496023    254.40077  0.046491369  0.047675785            2 
  457000    1.1681503   -5.6540449    254.29394  0.046370156  0.047669356            4 
  458000    1.1647187   -5.6667095    253.77373  0.046174259  0.047660942            2 
  459000    1.1712302   -5.6255628    255.01803  0.046299569  0.047652054            1 
  460000     1.156894   -5.6184283     255.6991  0.046322301  0.047644416            2 
  461000    1.1989705   -5.6362371    255.80745  0.046241404  0.047636264            2 
  462000     1.167297   -5.6558694    256.34297   0.04623791  0.047627487            2 
  463000    1.1815988   -5.6313692    257.06755  0.046268457  0.047619665            1 
  464000    1.1462308   -5.6775963     256.6874  0.046100466  0.047611546            2 
  465000    1.1543062   -5.6253865    259.57469  0.046518761  0.047603923            3 
  466000    1.1898271   -5.6626356    258.84934  0.046289224   0.04759654            2 
  467000    1.1837664   -5.6421281    260.23339  0.046437079  0.047590273            3 
  468000    1.1649819   -5.6242164    262.34666  0.046714148  0.047584427            1 
  469000    1.1771305   -5.6500154    261.96507  0.046546743  0.047578935            2 
  470000     1.170644   -5.6814168    262.21482   0.04649199  0.047573943            2 
  471000    1.1862826   -5.6957146    261.59446  0.046283521  0.047567911            2 
  472000    1.1646225   -5.6602919    262.84715   0.04640663  0.047561565            5 
  473000     1.168069   -5.6685005    263.39667  0.046405333  0.047556882            3 
  474000    1.1671237   -5.6808573    264.40713  0.046485079  0.047551292            5 
  475000    1.1766403   -5.6515128    264.17157  0.046345889  0.047546235            4 
  476000    1.2032978   -5.6345661    264.08474  0.046233322   0.04754029            2 
  477000    1.1578369   -5.6341935    265.55623  0.046393472  0.047533369            2 
  478000    1.1988566   -5.6593215    266.09937  0.046391103  0.047526066            5 
  479000    1.1769927   -5.6509483    267.49475  0.046537013  0.047519569            2 
  480000    1.1652793   -5.6781304    266.50147  0.046267616  0.047513214            1 
  481000    1.1510371   -5.7099171    267.32787    0.0463146  0.047507334            2 
  482000    1.1768419   -5.6581162    269.03424  0.046513526   0.04750108            2 
  483000    1.1796164   -5.6935697    268.14255   0.04626338  0.047495829            2 
  484000    1.1658848   -5.6542861     269.7796  0.046449655   0.04749082            1 
  485000    1.1730716   -5.6680022    270.29101  0.046441755  0.047485144            2 
  486000    1.1738971   -5.6188101    271.61945   0.04657398  0.047481399            2 
  487000    1.1596692   -5.7194474    269.72142  0.046153562  0.047475255            2 
  488000    1.1812081    -5.713215    271.32312  0.046332501  0.047469065            1 
  489000    1.1735254   -5.6505467    272.49758  0.046437897  0.047463685            7 
  490000    1.2094668   -5.6899417    271.80796  0.046225843  0.047458454            3 
  491000    1.1819337   -5.6759186     272.4465   0.04624007  0.047452599            6 
  492000    1.1655506   -5.6379176    273.72102  0.046361961  0.047447337            3 
  493000    1.1526639   -5.6783117    274.64079  0.046423392  0.047441882            2 
  494000    1.1614121   -5.6290332    276.39973  0.046626136  0.047437169            2 
  495000    1.1774058   -5.6832017    274.63017  0.046234036  0.047432042            2 
  496000    1.1580214   -5.5976155     277.8602  0.046683501  0.047427229            4 
  497000    1.1738009   -5.6542926    276.14888  0.046302629  0.047422542            3 
  498000      1.16732   -5.6874906    277.14381  0.046376139  0.047416217            3 
  499000    1.1651967   -5.6747962    277.59635  0.046358776  0.047410478            2 
  500000    1.1751707   -5.6554391    277.59696   0.04626616   0.04740416            2 
  501000     1.150373   -5.7028613    278.04898  0.046248998  0.047397369            2 
  502000    1.1670903   -5.6773303    278.48099  0.046228584  0.047390888            3 
  503000    1.1826593     -5.66503    279.28944  0.046270616  0.047383622            5 
  504000    1.1914161   -5.6444254    279.06397  0.046141529  0.047375435            4 
  505000     1.152843    -5.635291    279.37925  0.046102186  0.047367198            2 
  506000    1.1749777   -5.6747405    279.53363    0.0460365  0.047358686            4 
  507000     1.190352   -5.6848035    279.62422  0.045960588  0.047349832            2 
  508000    1.1738665   -5.6660234    280.20888  0.045966024  0.047339966            2 
  509000    1.1620798   -5.6996001     280.3592  0.045900327  0.047328604            3 
  510000    1.1744378   -5.6973257    279.47792  0.045666327  0.047316238            3 
  511000    1.1546781   -5.6627077    280.87145  0.045804216  0.047304425            2 
  512000    1.1695855   -5.6614443    281.15976  0.045761679  0.047292219            4 
  513000    1.1753615   -5.7159909    280.79488  0.045613204  0.047280392            2 
  514000    1.1875143   -5.6640878    282.51627  0.045803546  0.047268199            3 
  515000    1.1969205   -5.6868936    281.71674  0.045585234  0.047256238            5 
  516000    1.1749648   -5.6827246    282.99879  0.045703938   0.04724412            1 
  517000    1.1511565   -5.6971907    282.47702  0.045531434  0.047230862           10 
  518000    1.1629543   -5.6798864    283.33561  0.045581661  0.047217267            2 
  519000    1.1821303   -5.6807026     283.4058  0.045505107   0.04720413            3 
  520000    1.1510838   -5.6819344    284.28746  0.045558887  0.047190944            2 
  521000    1.1789501   -5.6623682    285.41448  0.045651708  0.047177716            2 
  522000    1.1411947   -5.7095723    285.97019  0.045652968  0.047165731            4 
  523000    1.1532933   -5.6813521    287.46789  0.045804316  0.047153519            2 
  524000    1.1803993   -5.6490893    287.32978  0.045694939  0.047141751            2 
  525000    1.1887927    -5.679219     287.5866  0.045648667  0.047129128            2 
  526000    1.1562397   -5.6915365    287.67327  0.045575613  0.047116405            3 
  527000    1.1860882   -5.6934381    288.16288  0.045566552   0.04710431            2 
  528000    1.1679213   -5.6893372    286.69822  0.045249087  0.047091157            4 
  529000    1.1603721   -5.6629937    288.34089  0.045422321  0.047077275            4 
  530000    1.1693844   -5.6951234    288.96139  0.045434181  0.047063608            2 
  531000    1.1508816   -5.6442694    290.37268  0.045570101  0.047051114            3 
  532000    1.1859533   -5.6984426    289.19779  0.045300406  0.047038171            4 
  533000    1.1594891   -5.6763993    291.15327  0.045521149  0.047025468            5 
  534000    1.1641977   -5.6734832     292.8808  0.045705493   0.04701253            5 
  535000    1.1685886   -5.6812617    291.36753   0.04538435  0.047000417            2 
  536000    1.1721327   -5.6923864    292.11063   0.04541521  0.046987744            5 
  537000    1.1607997   -5.6966653    293.32493  0.045519076  0.046974947            2 
  538000    1.1608845   -5.6945622    293.13443  0.045404961  0.046961734            2 
  539000    1.1727815   -5.7113424    292.95549  0.045293057  0.046948576            2 
  540000    1.1611976   -5.7031095    293.35512  0.045270852   0.04693534            2 
  541000    1.1732749   -5.6683032    295.58451  0.045530578  0.046922523            2 
  542000    1.1949517   -5.6471542    295.91897  0.045497996  0.046910359            4 
  543000    1.1541726   -5.7497803    295.05349  0.045281382  0.046897345            3 
  544000    1.1698693    -5.717967    296.76306  0.045460027  0.046884611            3 
  545000    1.1481294    -5.645144    296.53716  0.045342074  0.046872417            3 
  546000    1.1612104   -5.6865744    298.26506  0.045522751  0.046860402            4 
  547000    1.1912014   -5.6946491    297.80908  0.045370061  0.046848499            8 
  548000    1.1761259   -5.7140469    297.97678   0.04531277   0.04683608            1 
  549000    1.1427712   -5.6408137    299.19131  0.045414589  0.046823704            2 
  550000    1.1698937   -5.7032063    300.01441  0.045456728  0.046811619            2 
  551000    1.1946314   -5.7177952    299.44626  0.045288303   0.04679905            3 
  552000    1.1623649   -5.7273576    301.38644   0.04549916  0.046787098            3 
  553000    1.1634768   -5.7208171    301.69903  0.045463989   0.04677512            2 
  554000     1.139675   -5.6854074    302.75068  0.045540115  0.046762646            2 
  555000    1.1539454   -5.7161556    302.51817  0.045423149  0.046751531            2 
  556000    1.1898443   -5.7087389    302.82762  0.045387833  0.046739598            3 
  557000    1.1465445   -5.7352518    302.86294  0.045311631  0.046727855            4 
  558000    1.1456479   -5.6934814    303.34966  0.045303116  0.046715759            2 
  559000    1.1377489   -5.6949898    303.47822  0.045241237  0.046704012            2 
  560000    1.1767414   -5.6953592    305.11821  0.045404496   0.04669252            2 
  561000    1.1899834   -5.6463853    305.85903  0.045433606  0.046681175            2 
  562000    1.1380013   -5.6784097    306.00485  0.045374384  0.046670124            2 
  563000    1.1570005   -5.6809634    306.28361  0.045335052  0.046659045            2 
  564000    1.1836222   -5.6900827    306.94785  0.045352815  0.046647535            3 
  565000    1.1670267   -5.6963958    307.86723  0.045408146  0.046636625            4 
  566000    1.1666202   -5.7087083    307.22772  0.045233763  0.046625782            4 
  567000    1.1257507   -5.6835986    308.16451  0.045291667   0.04661481            2 
  568000    1.1601932   -5.6630606    308.71599  0.045292839  0.046603331            2 
  569000    1.1581314   -5.7366879     308.8889  0.045238562  0.046591917            2 
  570000    1.1432087   -5.6526804    311.09295  0.045481426  0.046580914            3 
  571000    1.1711074     -5.73251    309.95469  0.045235652  0.046569478            2 
  572000    1.1939468   -5.7261188    310.04303  0.045169439  0.046557996            3 
  573000    1.1480508   -5.7086017    312.16911  0.045399812  0.046547401            7 
  574000    1.1496164   -5.6896357     311.2998  0.045194512  0.046536351            2 
  575000    1.1626381   -5.7068937    311.93288  0.045207664  0.046525322            3 
  576000    1.1707503   -5.6759896    311.83204  0.045114589  0.046513375            3 
  577000    1.1429268   -5.7013338    312.21814  0.045092164   0.04650157            1 
  578000    1.1667069   -5.7019234    312.27869  0.045022879  0.046488863            3 
  579000    1.1507022   -5.7031049    312.83427  0.045025082  0.046475657            3 
  580000    1.1486152     -5.68957    313.35636  0.045022465  0.046462227            2 
  581000    1.1469954   -5.6686085    315.02758  0.045184678  0.046449249            6 
  582000    1.1572572   -5.7208834    314.88395  0.045086476   0.04643716            3 
  583000    1.1736312   -5.7469049     315.3503    0.0450758  0.046424561            3 
  584000    1.1600943   -5.6628601    317.15153  0.045255641  0.046412397            3 
  585000    1.1487392   -5.7126292    316.36356  0.045066035  0.046400403            2 
  586000    1.1668651    -5.724501    315.71908   0.04489748  0.046388051            2 
  587000    1.1562103   -5.7409752    316.73544  0.044965281   0.04637623            3 
  588000    1.1565341   -5.6614971    318.15912  0.045090579  0.046364785            4 
  589000    1.1490639   -5.7096316     318.3473  0.045040648  0.046353178            3 
  590000    1.1365988   -5.6822831    319.90329   0.04518408  0.046341089            3 
  591000    1.1531343   -5.6884466    319.21596   0.04501071  0.046330164            3 
  592000     1.166473   -5.6834806    319.83438  0.045021731  0.046318051            3 
  593000    1.1654002   -5.7033003    319.90899  0.044956294  0.046306347            3 
  594000    1.1509687   -5.6971345     320.6191  0.044980232  0.046293307            9 
  595000     1.178009   -5.6874452    321.24069  0.044991693  0.046281469            2 
  596000    1.1409405   -5.7065553    321.04337  0.044888614  0.046268131            1 
  597000    1.1749614   -5.7354202    321.11004  0.044822731  0.046256004            2 
  598000     1.155967   -5.6802603    322.00432  0.044872397  0.046243368            3 
  599000    1.1493134   -5.6651036    322.75717  0.044902222  0.046230482            2 
  600000    1.1472151    -5.697102    322.30487  0.044764565  0.046216715            4 
  601000     1.161844   -5.6736857    323.06149  0.044794993  0.046203168            3 
  602000    1.1560125   -5.7180153    324.17324   0.04487448  0.046190294            2 
  603000    1.1658896    -5.701149    324.50525  0.044845943  0.046177273            3 
  604000    1.1424847   -5.7189959    324.09774  0.044715472  0.046163797            3 
  605000    1.1566973   -5.7243736     323.5703  0.044568911  0.046150253            2 
  606000    1.1641466   -5.7626152    324.06343  0.044563178   0.04613618            6 
  607000    1.1467887   -5.7097506    325.96954  0.044751447  0.046122849            2 
  608000    1.1648661   -5.6796879    326.63104  0.044768509  0.046109787            2 
  609000    1.1601784    -5.709318    326.95809  0.044739749  0.046097342            5 
  610000    1.1588685    -5.692043    328.38216  0.044860951  0.046084508            3 
  611000    1.1534673   -5.7027889    327.57342  0.044677226  0.046071951            3 
  612000     1.160161   -5.6799711    329.59715  0.044879786  0.046059703            4 
  613000    1.1600884   -5.7214053    329.60888  0.044808168  0.046047649            2 
  614000    1.1379899   -5.7233427    330.17168  0.044811574  0.046035489            3 
  615000    1.1513119   -5.7201232    330.64131  0.044802346  0.046022991            2 
  616000    1.1407339    -5.716625    330.46887  0.044706286   0.04601041            4 
  617000    1.1602826   -5.7212357    331.34456  0.044752102  0.045998015            6 
  618000    1.1552026   -5.7061868    330.88507  0.044617727  0.045986197            6 
  619000    1.1615113    -5.708095    332.14936  0.044715854  0.045973897            2 
  620000    1.1576261     -5.72286    332.57147  0.044700467  0.045962048            2 
  621000    1.1496134   -5.7360431     332.8781  0.044669632  0.045949727            2 
  622000     1.156897   -5.7123234    332.29812  0.044520112   0.04593717            2 
  623000    1.1562787   -5.7465505    333.78264  0.044647223  0.045924899            2 
  624000    1.1351738   -5.7190357     334.5084  0.044672597  0.045912423            4 
  625000    1.1715185   -5.7241654    334.64251  0.044619002  0.045900502            4 
  626000    1.1603181    -5.717987    336.10743  0.044742736  0.045889483            2 
  627000    1.1652819   -5.7560325     337.0623  0.044798286  0.045878005            2 
  628000    1.1458318   -5.7263457    337.06216  0.044726932  0.045865991            2 
  629000    1.1488305   -5.7173242    337.11481    0.0446628  0.045854002            7 
  630000    1.1393413   -5.7371685    337.60116  0.044656239  0.045841259            2 
  631000    1.1353506   -5.6898591    338.27199  0.044674062  0.045828962            3 
  632000    1.1812689   -5.7357416    338.17215  0.044590209   0.04581617            3 
  633000    1.1679755   -5.7185782    338.73571  0.044593959  0.045803742            3 
  634000    1.1631988   -5.7174205     338.7387  0.044524014  0.045791493            2 
  635000    1.1567379   -5.7250777    340.02608  0.044622845   0.04577974            2 
  636000    1.1028098   -5.7653536    339.05495  0.044425439  0.045766395            4 
  637000    1.1540434   -5.6835142    340.57979  0.044555179  0.045753159            3 
  638000    1.1147425   -5.7384767    339.51972  0.044346881  0.045740277            3 
  639000    1.1401822   -5.7228988    339.78536  0.044312123   0.04572723            4 
  640000    1.1739137   -5.7240012     340.7719  0.044371342  0.045713995            3 
  641000    1.1333247   -5.7373394    341.26876  0.044366714  0.045700687            3 
  642000    1.1614771    -5.648717    344.01805  0.044654472  0.045687826            2 
  643000    1.1434742   -5.6920195    342.89595  0.044439599  0.045675329            2 
  644000    1.1616105   -5.7697987    342.26054  0.044288372  0.045662783            3 
  645000    1.1636532   -5.7195137    342.50503  0.044251296  0.045649685            3 
  646000    1.1837475   -5.7270852    342.96085  0.044241596   0.04563579            5 
  647000    1.1615305   -5.7233397    344.03319  0.044311333  0.045622372            2 
  648000    1.1557186   -5.7066188    345.69758  0.044456994  0.045609846            3 
  649000    1.1472719   -5.7078298    344.76914  0.044269278  0.045597243            1 
  650000    1.1404775   -5.7087567    345.67603   0.04431744  0.045584199            4 
  651000     1.157809    -5.738156    345.35941  0.044208833   0.04557113            3 
  652000    1.1409515   -5.7440168    347.19684  0.044375875  0.045558448            4 
  653000     1.129481   -5.7518287    347.23422  0.044312688  0.045545792            2 
  654000    1.1706259   -5.7335426    349.11941  0.044485144  0.045532693            2 
  655000    1.1567195   -5.7397528    347.23421   0.04417738  0.045520018            3 
  656000     1.158439   -5.7335996    349.26785  0.044368376  0.045507196            2 
  657000    1.1306952   -5.7540862    349.11703  0.044281713   0.04549381            3 
  658000    1.1452958   -5.7329618    347.86904  0.044056363  0.045480622            4 
  659000    1.1558439   -5.7597992    348.98264  0.044130329  0.045467246            1 
  660000    1.1566703   -5.7284437    348.73279  0.044031917  0.045453627            8 
  661000    1.1590401   -5.7469859    349.11134  0.044013028  0.045439974            3 
  662000    1.1585874   -5.7246281    349.79156  0.044032171  0.045426352            3 
  663000     1.160752   -5.7153366    350.67719  0.044077073  0.045412591            4 
  664000    1.1454695    -5.754564    351.04714  0.044057121  0.045398712            2 
  665000    1.1480485   -5.7392477    350.88911  0.043971067  0.045384895            4 
  666000    1.1642728   -5.6841986    353.58683  0.044242596   0.04537166            2 
  667000    1.1481821    -5.710295    354.21022   0.04425415  0.045358933            3 
  668000    1.1288717   -5.7112799     354.3649  0.044207198  0.045346375            4 
  669000    1.1413593   -5.7194112    354.06615  0.044103905  0.045332657            5 
  670000    1.1589828   -5.7518874    352.94738  0.043898928  0.045319531            4 
  671000    1.1255328   -5.7023142    355.15775  0.044108016  0.045306485            2 
  672000    1.1257749   -5.7217665    356.16443  0.044167216  0.045293563            2 
  673000    1.1706804   -5.7574671    354.62253  0.043910664  0.045280336            3 
  674000    1.1525112   -5.7349311    355.97815  0.044013124  0.045266783            3 
  675000    1.1540882   -5.7452002    356.89986  0.044061712  0.045253371            5 
  676000    1.1679554   -5.7455171    356.96912  0.044005069  0.045240456            3 
  677000    1.1681089   -5.7750792    357.34652  0.043986523  0.045227681            3 
  678000    1.1420417   -5.6946823    359.47572  0.044183349  0.045214982            3 
  679000    1.1436473   -5.7229611    359.59838   0.04413333  0.045202879            2 
  680000    1.1214604   -5.7522272     359.6435  0.044073959  0.045189786            6 
  681000    1.1414991   -5.7566672    359.11116  0.043944097  0.045177167            3 
  682000     1.133307   -5.7249913    360.34554  0.044030491  0.045164349            3 
  683000    1.1388422    -5.721808    360.28107  0.043958159  0.045151351            2 
  684000    1.1376073    -5.736509     360.4507  0.043914559  0.045138516            4 
  685000    1.1348251   -5.7620284    360.35055  0.043838266   0.04512568            2 
  686000    1.1378794   -5.7146482    361.65977  0.043933402  0.045112487            4 
  687000    1.1094206   -5.7609973    360.62375  0.043743784  0.045098471            4 
  688000    1.1529939   -5.6849912    362.95305  0.043962336  0.045085154            5 
  689000    1.1560779   -5.7307289    364.52128  0.044088205  0.045072062            2 
  690000    1.1322907    -5.698177     363.9134  0.043950893  0.045058549            1 
  691000     1.152356    -5.738792     363.1708  0.043797733  0.045044944            1 
  692000    1.1365387   -5.7084645    363.96376  0.043829933  0.045031268            3 
  693000    1.1336084   -5.7335831    364.01012  0.043772261  0.045017362            4 
  694000    1.1634556    -5.738524     364.1674  0.043728074  0.045003601            4 
  695000    1.1515262   -5.7580617     364.9992  0.043764893  0.044989413            2 
  696000    1.1367836   -5.7854296    365.09197  0.043713118  0.044976296            5 
  697000    1.1447889   -5.7649356    366.07177  0.043767548  0.044962867            3 
  698000    1.1271846   -5.7513143    366.24223  0.043725195  0.044950195            3 
  699000     1.122385   -5.7488273    367.06258  0.043760441  0.044937234            2 
  700000     1.127138    -5.763011    367.88302  0.043795598  0.044924439            4 
  701000     1.137002   -5.7471627    369.57337  0.043934067  0.044912566            1 
  702000    1.1647338   -5.7839777    369.36126  0.043846304  0.044900606            3 
  703000    1.1638186   -5.7527102    371.20998   0.04400308  0.044888806            3 
  704000    1.1584405   -5.7554038    371.10778  0.043928478  0.044877774            3 
  705000    1.1333487   -5.7865371    371.29171  0.043887909  0.044866333            2 
  706000    1.1394998   -5.7350144    372.24448  0.043938206  0.044854717            5 
  707000    1.1215768    -5.766508    371.14123  0.043746019  0.044842687            3 
  708000    1.1425943    -5.753322    372.32288  0.043823314  0.044831108            2 
  709000    1.1662488   -5.7285575    373.42053  0.043890518  0.044819519            3 
  710000    1.1245526   -5.7141511    373.74689  0.043867006   0.04480786            1 
  711000    1.1365973   -5.7322773    374.98578  0.043950514  0.044796731            5 
  712000      1.18803   -5.7545186    374.59512  0.043843062  0.044785936            4 
  713000     1.125729   -5.7583827    375.48421  0.043885485  0.044774524            4 
  714000    1.1513955   -5.7785287    375.50634  0.043826604  0.044762888            3 
  715000    1.1524008   -5.7519434    376.13675  0.043838782  0.044751273            1 
  716000    1.1548823   -5.7633738    375.49477  0.043702836   0.04473982            6 
  717000     1.130694   -5.7902492    376.05052  0.043706476  0.044727741            2 
  718000    1.1274172   -5.7646252    375.28702   0.04355699  0.044714949            2 
  719000    1.1392061   -5.8142639    375.07159   0.04347144  0.044702019            8 
  720000    1.1682923   -5.7852008    377.65851  0.043710476  0.044688965            3 
  721000    1.1534175   -5.7468588    377.51931  0.043633763  0.044676299            3 
  722000    1.1259061   -5.7162827    378.31574  0.043665252  0.044663619            2 
  723000     1.126143   -5.7594621    378.35551  0.043609441  0.044650994            1 
  724000    1.1485787    -5.760405    378.70524  0.043589462  0.044638483            2 
  725000    1.1040037   -5.7279645    378.69975  0.043528707  0.044625972            3 
  726000    1.1322244   -5.7600281    378.91588  0.043493558  0.044613713            4 
  727000     1.127976   -5.7732381    378.47924  0.043383682  0.044600809            5 
  728000    1.1604022   -5.7342666    380.11824  0.043511703  0.044587524            3 
  729000    1.1418635   -5.6995924    381.33572  0.043591189  0.044574499            2 
  730000    1.1320508   -5.8052236    377.47715  0.043090999  0.044560783            5 
  731000    1.1245188   -5.7531165    379.07751  0.043214491  0.044547261            6 
  732000    1.1393321   -5.7749241    380.15864  0.043278534  0.044533741            5 
  733000    1.1272695   -5.7810808    382.04783  0.043434269  0.044520769            5 
  734000    1.1187622   -5.7438856    382.70714  0.043449947  0.044507716            5 
  735000    1.1248241   -5.7870425    382.05699  0.043317119  0.044495044            3 
  736000    1.1047996   -5.7255435    383.90939  0.043468001  0.044481996            3 
  737000    1.1273038   -5.7769721    383.38838  0.043350111  0.044469577            3 
  738000    1.1385179   -5.7769482    383.83345  0.043341627  0.044456848            4 
  739000    1.1230112   -5.7643151    385.20133  0.043437227   0.04444493            2 
  740000    1.1312568   -5.7652861    385.80316  0.043446302  0.044432568            2 
  741000     1.101941   -5.7594075    385.45765  0.043348813  0.044420465            3 
  742000    1.1072103   -5.7610196    387.27721  0.043494745  0.044408508            3 
  743000    1.1388495   -5.7707455     386.4497  0.043343394  0.044396084            6 
  744000     1.148503   -5.7614538    387.19808   0.04336896  0.044383413            3 
  745000    1.1216623   -5.7472018      388.454  0.043451231   0.04437162            1 
  746000    1.1515985   -5.7451204    388.95865  0.043449357  0.044359563            6 
  747000    1.1489171    -5.765632    388.47918  0.043337704  0.044348746            1 
  748000    1.1436676   -5.7210414    391.36774  0.043601575  0.044337354            2 
  749000    1.1376881   -5.7536342    390.63022  0.043461306  0.044325802            1 
  750000    1.1337669    -5.770014    390.68841  0.043409824  0.044314666            4 
  751000    1.1333372   -5.7374321    392.00347  0.043497943  0.044303232            5 
  752000    1.1033864   -5.7459301    391.34902  0.043367578  0.044291487            8 
  753000      1.11962   -5.8073021    389.23955  0.043076533  0.044279077            3 
  754000    1.1287438   -5.7784282    389.81251  0.043082727  0.044266809            2 
  755000    1.1242148   -5.7690374    391.09895  0.043167654  0.044253799            6 
  756000    1.1004435   -5.7382964    393.57184   0.04338314  0.044241841            3 
  757000    1.1251312   -5.7689087    393.46583   0.04331416  0.044229835            2 
  758000    1.1445792   -5.7330382     393.9354  0.043308641    0.0442186            3 
  759000    1.1299204   -5.7340094    394.55197  0.043319276  0.044207205            3 
  760000    1.1405693   -5.7391412    395.58942  0.043376033  0.044195693            1 
  761000    1.1214632   -5.7719332    395.85429  0.043348039  0.044184593            4 
  762000    1.1186578   -5.7760475    395.69769  0.043274026  0.044173653            5 
  763000    1.1296981    -5.766211    397.50728   0.04341495  0.044162426            5 
  764000    1.1226495   -5.7767697    395.47324  0.043136261  0.044151518            2 
  765000    1.1035473   -5.7827575     398.0811  0.043363954  0.044140285            3 
  766000    1.1263901   -5.7877702     398.2582   0.04332661  0.044129141            6 
  767000    1.1435197   -5.7327332    399.66881  0.043423382  0.044117547            2 
  768000    1.1500465   -5.7453183     401.0083  0.043512185  0.044106829            3 
  769000    1.1352987   -5.6977569    401.56813  0.043516269  0.044097034            5 
  770000    1.1195616   -5.7401715    400.81861  0.043378638   0.04408695            5 
  771000    1.1123853    -5.736422    402.67928  0.043523484   0.04407684           11 
  772000    1.1251184   -5.7386871    402.30383   0.04342658  0.044066581            1 
  773000    1.1188156   -5.7452841    403.35598  0.043483827   0.04405666            1 
  774000    1.1028981     -5.75475    402.00116  0.043281778  0.044046861            4 
  775000    1.1405419   -5.7175282    404.01049  0.043441988  0.044036827            3 
  776000    1.1217291   -5.7581845    404.54837  0.043443769  0.044027271            5 
  777000    1.1391196   -5.7809552    403.66514   0.04329313  0.044017895            4 
  778000     1.129139   -5.7528457    406.04883  0.043492805  0.044008393            5 
  779000    1.1419727   -5.7546582    405.79483  0.043409802  0.043999381            4 
  780000    1.1321578   -5.7759365    405.47715  0.043320208  0.043989707            1 
  781000    1.1366849   -5.7735006    407.46036   0.04347635  0.043980273            3 
  782000    1.1434809   -5.7774045     407.7584  0.043452515  0.043971052            2 
  783000     1.145656   -5.7934684    407.48591  0.043368019  0.043962006            2 
  784000    1.1092993   -5.8023946    406.97238  0.043258118  0.043952305            1 
  785000    1.1339017   -5.7723566    406.78581  0.043183207  0.043942113            2 
  786000    1.1294088   -5.7755296     407.8542   0.04324154  0.043932457            2 
  787000    1.1189958   -5.7444529    409.06916  0.043315244  0.043922697            5 
  788000    1.1472259    -5.786913    410.12219  0.043371636  0.043912854            4 
  789000    1.1356415   -5.7225942    411.77751  0.043491499  0.043903406            2 
  790000    1.1203578   -5.7913683    409.95199  0.043243881  0.043893772            4 
  791000    1.1408194   -5.7334423    411.60609  0.043363474  0.043884023            5 
  792000    1.1261692    -5.741332    411.07392  0.043252727  0.043874421            4 
  793000    1.1119541   -5.8050673    409.41585  0.043023944  0.043864891            3 
  794000    1.1132661   -5.7609479    413.23475  0.043370566  0.043855226            2 
  795000    1.1007267   -5.7296823    412.58277   0.04324767  0.043846644            2 
  796000    1.1187098   -5.7355388    414.10087  0.043352268  0.043837552            2 
  797000    1.1086479   -5.7712456    414.43062  0.043332353  0.043828333            4 
  798000    1.1367318   -5.7740707     414.1755  0.043251409  0.043818983            3 
  799000    1.1292327   -5.7537022    414.13862  0.043193432   0.04380948            1 
  800000    1.1216639   -5.8070188    414.19051  0.043144845  0.043799939            5 
  801000    1.1079583   -5.7419237    415.46166  0.043223227  0.043790662            3 
  802000    1.1098328   -5.8055276    415.90151  0.043215037   0.04378101            3 
  803000    1.0895723    -5.762491    416.97187  0.043272299  0.043771495            2 
  804000    1.1148503   -5.7594329    415.51307  0.043067275  0.043761252            3 
  805000    1.0887022   -5.7705748    417.07124  0.043175076   0.04375181            3 
  806000    1.1166956   -5.7778657    416.08864  0.043019917  0.043741961            5 
  807000    1.1281506    -5.779534    415.89588  0.042946704  0.043731119            5 
  808000    1.1215143   -5.7570859    416.74355  0.042980977  0.043720564            3 
  809000    1.1022274   -5.7686996    417.71308  0.043027717  0.043710491            4 
  810000    1.1321659   -5.7806702    417.62003  0.042965024  0.043699747            3 
  811000    1.1269727   -5.7808153    417.49365  0.042899059  0.043688642            2 
  812000    1.1121446   -5.7972307    418.82967   0.04298334  0.043678125            1 
  813000     1.113281   -5.7577166    418.63172  0.042910181  0.043667412            2 
  814000    1.1102595   -5.7898984    418.74798  0.042869367  0.043656659            2 
  815000    1.1149935   -5.8142037    418.28229  0.042769151  0.043645417            4 
  816000    1.0982839   -5.8384769    419.55947  0.042847168  0.043634602           11 
  817000    1.1154869   -5.7601934    420.65023  0.042905981  0.043623858            6 
  818000     1.128375    -5.785998    419.96205   0.04278342  0.043612696            3 
  819000    1.1203639   -5.8397426    420.58365   0.04279443  0.043601448            3 
  820000    1.0932001   -5.7657642    422.64707  0.042951938  0.043590633            5 
  821000    1.1426154   -5.8172759    421.11831  0.042744449  0.043579572            2 
  822000    1.1096391   -5.7804848    421.47295  0.042728402  0.043568763            5 
  823000    1.1187539   -5.7550489    424.02923  0.042935321  0.043558323            3 
  824000     1.126348   -5.8118604     421.9145  0.042669347  0.043547772            2 
  825000    1.1053437    -5.802753    423.67472  0.042795427  0.043537281            4 
  826000    1.0981359   -5.8135732     424.2858  0.042805266  0.043526508            5 
  827000    1.1355208   -5.7829456     424.5532  0.042780451  0.043515699            2 
  828000    1.1013995   -5.8081606    426.05893  0.042880327  0.043505274            8 
  829000    1.1179275   -5.7914708    426.48094  0.042871023  0.043494931            5 
  830000    1.1054793   -5.7837495    426.98119  0.042869597  0.043484708            3 
  831000    1.1178331   -5.7971928    426.92347  0.042812221   0.04347436            2 
  832000    1.0897985   -5.8163915    426.34547  0.042702872  0.043464045            1 
  833000    1.1268492   -5.7535299    427.17939  0.042735033  0.043453458            2 
  834000    1.1354007   -5.8304015    426.66762  0.042632656  0.043442623            8 
  835000    1.1091792   -5.8061405    428.89722  0.042804114  0.043431943            5 
  836000    1.1231039   -5.7836799    428.94095  0.042757272  0.043421587            4 
  837000    1.1210123   -5.8062438     428.7326  0.042685444  0.043410609            3 
  838000    1.1382385   -5.7704825    429.52344   0.04271315  0.043399435            3 
  839000    1.1178556   -5.8197666     428.6863  0.042579092  0.043388376            2 
  840000    1.1201732   -5.8186455    428.73654  0.042533387  0.043377383            4 
  841000    1.1383855   -5.7883149    432.15804  0.042821843  0.043366635            2 
  842000    1.0918266   -5.7715692    429.66181  0.042523932  0.043355663            5 
  843000    1.1012435   -5.7744717    431.09864  0.042615524  0.043345436            2 
  844000    1.1185992   -5.7533144    432.26174  0.042679872  0.043334623            4 
  845000    1.1033028    -5.790553     431.7405  0.042577959  0.043323686            3 
  846000    1.1417756   -5.7919124    432.22342  0.042575199  0.043312895            2 
  847000    1.1155476   -5.7880308     432.1934   0.04252198  0.043301832            2 
  848000    1.1334962   -5.8410277    430.93704  0.042348373  0.043290338            4 
  849000    1.1151107    -5.804252    432.26805  0.042429137  0.043279276            3 
  850000    1.1213395   -5.7702449    434.08627  0.042557477   0.04326846            2 
  851000    1.1002156   -5.8356446    433.08773  0.042409687  0.043257632            3 
  852000    1.1295004   -5.7859551    435.34986  0.042581167  0.043246407            1 
  853000    1.1042034   -5.7693915    435.59387  0.042555087  0.043235821            2 
  854000    1.1237435   -5.8287964    435.74477  0.042519981  0.043225115            8 
  855000    1.1221479   -5.8144331    434.96918  0.042394657  0.043214394            4 
  856000    1.1093778   -5.8142597    436.39822  0.042484251  0.043203414            4 
  857000    1.1149845   -5.7760499    438.18812  0.042608725   0.04319275            2 
  858000    1.1196901   -5.7640243    436.79466  0.042423724  0.043182266            3 
  859000    1.1156674   -5.8223782    436.75872   0.04237085  0.043171676            5 
  860000    1.1266082   -5.7944784    438.04376  0.042446101  0.043160951            3 
  861000     1.107723   -5.8066656    438.01283  0.042393808  0.043149842            3 
  862000    1.1212811   -5.7755346    439.64267  0.042502192  0.043139341            3 
  863000    1.1078056   -5.7710594    440.41367  0.042527392  0.043128958            1 
  864000    1.1178839   -5.8064688    440.71784  0.042507508  0.043118499            3 
  865000    1.0758316   -5.7691175    440.29902  0.042418017   0.04310808            2 
  866000    1.1374507   -5.7713378    442.43084  0.042574177  0.043097715            2 
  867000    1.1234342    -5.750745    442.94316  0.042574314  0.043087644            3 
  868000    1.0776697   -5.8229821    440.63696  0.042303855  0.043077386            3 
  869000    1.1084687   -5.7725298    442.80395  0.042462979   0.04306718            5 
  870000    1.0940092   -5.8595927    442.94047  0.042427248  0.043056771            3 
  871000    1.1005545   -5.7837749    444.19907  0.042498954  0.043046687            2 
  872000     1.126037   -5.8009286    443.51075  0.042384437  0.043036429            1 
  873000     1.102036   -5.8422713    444.14903  0.042396814  0.043025915            5 
  874000    1.1309218    -5.810823    445.09597  0.042438593  0.043015694            1 
  875000    1.1063853   -5.8008345    445.58496  0.042436663  0.043005315            2 
  876000    1.1236152   -5.7783734    446.32752  0.042458858  0.042995202            4 
  877000    1.1100528   -5.7967158    446.20131  0.042398452  0.042984928            6 
  878000    1.1042531   -5.8230269    444.71852  0.042209427  0.042974428            3 
  879000    1.1188344   -5.8169476     447.4887  0.042424033  0.042963833            4 
  880000    1.0848058   -5.8088109    447.69096  0.042394978  0.042953491            7 
  881000      1.07576   -5.7883227    446.17484  0.042203447   0.04294291            2 
  882000    1.1073018    -5.787095     448.4982  0.042375114   0.04293256            4 
  883000    1.0899934   -5.8345923    446.62868  0.042150687  0.042922541            2 
  884000    1.1205627   -5.8359741    448.65509  0.042294032  0.042912165            4 
  885000    1.1142975    -5.820084    449.60912  0.042336076  0.042901892            3 
  886000    1.1083985   -5.7967601    448.57874  0.042191379   0.04289169            5 
  887000    1.1231912   -5.8589998    448.68186    0.0421535  0.042881077            1 
  888000    1.1186229   -5.8380875    449.41373  0.042174712  0.042870833            3 
  889000    1.1342827   -5.7788947    451.35841  0.042309562  0.042860961            2 
  890000    1.0708557   -5.8336865    449.91714  0.042127073  0.042850677            2 
  891000    1.1222039   -5.7979818    452.80454  0.042349845  0.042840359            1 
  892000    1.1097315   -5.8155277    453.02162  0.042322648    0.0428304            3 
  893000     1.111475    -5.808569    452.53978   0.04223029  0.042820202            2 
  894000    1.1342336   -5.7855161    455.36615  0.042446509   0.04281007            2 
  895000    1.1170883   -5.8439375     452.9815  0.042177048  0.042800063            3 
  896000    1.1391906   -5.8167861    452.82787  0.042115687  0.042790247            5 
  897000    1.1053777   -5.8044546    455.38889   0.04230666  0.042780161            3 
  898000    1.1148817   -5.8017641    454.59287  0.042185678  0.042770335            3 
  899000    1.1155265   -5.7887564    455.77105  0.042247966  0.042760068            2 
  900000    1.1051088   -5.8370813    456.25583   0.04224591  0.042749803            3 
  901000    1.0843885   -5.7999326    456.01555  0.042176799  0.042739418            4 
  902000    1.1197586   -5.7910711    456.53796  0.042178304  0.042729274            5 
  903000    1.0898083   -5.8043263    456.75547  0.042151668  0.042719202            5 
  904000    1.1171735   -5.7889814    458.59902  0.042274983  0.042709017            4 
  905000    1.0909522   -5.8385365    457.07291  0.042087745  0.042698761            2 
  906000    1.1069211   -5.8090428     459.9199  0.042303155  0.042689144            3 
  907000    1.1182639   -5.8543482     457.5761  0.042041171  0.042678872            3 
  908000    1.1199057   -5.7951552     459.7446  0.042193888  0.042668689            2 
  909000    1.0899877   -5.8057494    459.33049  0.042109506  0.042659322            3 
  910000     1.111305   -5.8157569    461.05001  0.042220697  0.042649634            2 
  911000    1.1071186   -5.7701525    462.25139  0.042284247  0.042640085            3 
  912000    1.1017515   -5.7999661    461.32107  0.042152876  0.042630799            5 
  913000    1.1257563   -5.8207883    462.25224  0.042191697  0.042620823            3 
  914000    1.1421427   -5.7951096    462.17545  0.042138534  0.042611086            4 
  915000    1.1101107   -5.7649084    464.45538  0.042300126  0.042601214            2 
  916000    1.0957126   -5.7703611    464.31917  0.042241555  0.042591173            3 
  917000    1.1239957   -5.8215675    461.85093  0.041971186  0.042581059            4 
  918000    1.0951407   -5.8051865     462.5903  0.041992583  0.042571094            4 
  919000    1.1123005   -5.8249839     462.7413  0.041960582  0.042560725            2 
  920000    1.1042462   -5.8318903    463.07211  0.041944937  0.042550631            4 
  921000    1.1028733   -5.8460863    462.81727  0.041876336  0.042540671            2 
  922000    1.1086174   -5.8196824    464.76295  0.042006774  0.042530115            2 
  923000    1.1113676   -5.8453439    462.12032  0.041722673  0.042519393            5 
  924000    1.1025122   -5.8145711    464.75485   0.04191512  0.042509062            3 
  925000    1.1179958   -5.8415801    464.94203   0.04188667  0.042498574            2 
  926000    1.1397179   -5.7805226    465.60057  0.041900699  0.042488274            6 
  927000    1.0860722   -5.8183477    465.87281  0.041879972  0.042477794            1 
  928000     1.106433   -5.8285579    466.27416  0.041870883  0.042467423            4 
  929000    1.1117342     -5.81507    466.85248  0.041877689  0.042457468            2 
  930000    1.0870462   -5.8051412    470.10429   0.04212404  0.042447396            4 
  931000     1.107861   -5.8334309     467.9798  0.041888633  0.042437415            2 
  932000    1.1028988   -5.8265316    468.82942  0.041919655  0.042427615            4 
  933000     1.091755   -5.8469232    469.87368  0.041967996  0.042417514            3 
  934000     1.094683    -5.784557    471.04123  0.042027234  0.042407724            2 
  935000    1.0988511   -5.8850423    467.53309  0.041669616  0.042397819            6 
  936000    1.0949298    -5.789302    471.26676   0.04195751   0.04238781            3 
  937000    1.1022854   -5.7870135    471.67007  0.041948601  0.042377672            3 
  938000    1.1091279    -5.832412    470.98626  0.041843129   0.04236764            3 
  939000    1.1130535   -5.8226214    470.47143  0.041752878  0.042357566            1 
  940000    1.1035621   -5.8656947     470.0737  0.041673201  0.042347513            4 
  941000    1.0958816   -5.8123715    472.42724   0.04183734  0.042337014            7 
  942000    1.0875581   -5.8400413    472.29582  0.041781301  0.042326761            3 
  943000    1.0981294   -5.8453579     472.7975  0.041781327  0.042316512            3 
  944000    1.1159882   -5.8088318    474.73633  0.041908221   0.04230643            5 
  945000    1.1182252   -5.8186751    473.71823  0.041774095    0.0422965            5 
  946000    1.1155418   -5.8448823     473.6897  0.041727423  0.042286402            2 
  947000    1.0898204   -5.8261632    474.07415   0.04171719  0.042276019            3 
  948000    1.0816192   -5.8301615    474.34109   0.04169665  0.042266071            5 
  949000    1.0876304   -5.8275098    474.96235  0.041707267  0.042255537            3 
  950000     1.108707   -5.8418557     474.7034  0.041640649  0.042245294            2 
  951000    1.1038406   -5.8178041    476.70219  0.041772011  0.042235198            2 
  952000    1.0880888   -5.8399521    474.19413   0.04150859  0.042224965            5 
  953000    1.0965485   -5.8613917    474.85956  0.041523221  0.042214411            4 
  954000     1.111069   -5.8197176    475.86953  0.041567919  0.042203737            3 
  955000    1.0805018   -5.8066028    475.62914  0.041503416  0.042193489            3 
  956000    1.1059444   -5.8288227    477.36108  0.041610973  0.042182997            2 
  957000    1.0887398   -5.8365484    478.11256  0.041632929  0.042172305            2 
  958000    1.1205115   -5.8552722    477.74539  0.041557532  0.042161363            2 
  959000    1.1129745   -5.8538318    477.12545  0.041460327  0.042150775            8 
  960000    1.1088171   -5.8039154    479.05525  0.041584657  0.042140221            2 
  961000    1.0964553   -5.7859694     479.4917  0.041579232  0.042129854            2 
  962000    1.0818618    -5.845946    481.26637  0.041689741   0.04211948            2 
  963000    1.0764682   -5.8517874     479.4803  0.041491892  0.042109251            4 
  964000    1.0882922   -5.8431314    478.90222  0.041398878  0.042098751            3 
  965000    1.0864352   -5.8469045    479.55008  0.041411924  0.042088261            3 
  966000    1.1184071   -5.8501575    482.27778  0.041604363   0.04207773            1 
  967000    1.0894673   -5.8434929    481.51858  0.041495913  0.042067315            3 
  968000    1.0957095   -5.7889284    485.16141   0.04176665  0.042057665            3 
  969000    1.1022281   -5.8601358    482.51154   0.04149566  0.042047881            6 
  970000    1.0917861   -5.8317413    484.16064  0.041594556  0.042037989            4 
  971000    1.0937392   -5.8068071    485.21654  0.041642339  0.042028276            3 
  972000    1.0981814   -5.8483181     484.8135  0.041564944   0.04201887            4 
  973000    1.1087609   -5.8387864    485.96528   0.04162087  0.042009262            5 
  974000    1.1055981    -5.871191    485.19816  0.041512505  0.041999778            3 
  975000    1.1062191   -5.8932138    483.28016  0.041305996  0.041990156            4 
  976000    1.1096716   -5.8409431    488.34967  0.041696522  0.041980233            5 
  977000    1.0920057   -5.8656642    485.18196  0.041383654  0.041970747            3 
  978000    1.1007589   -5.8923805    486.70921  0.041471473  0.041960925            3 
  979000    1.0734507    -5.858192    487.77422  0.041519766  0.041951474            2 
  980000    1.0810312   -5.8385457    488.11055  0.041505999  0.041942019            3 
  981000     1.102275    -5.853415    488.48546  0.041495537   0.04193234            4 
  982000    1.0912274   -5.8305956    489.19608  0.041513584  0.041922749            2 
  983000    1.1304014    -5.859892    488.92641  0.041448492  0.041913078            2 
  984000    1.0779863   -5.8387883    488.78601  0.041394479   0.04190394            3 
  985000    1.0974467   -5.8437114     490.5865   0.04150478    0.0418946            3 
  986000    1.1154591   -5.8881675     488.5206  0.041288083  0.041884797            6 
  987000    1.1133692   -5.8394502    492.96005  0.041621078   0.04187457            2 
  988000    1.0841936    -5.840575    490.43733  0.041366172  0.041865344            5 
  989000    1.0877543   -5.8095671    491.29774  0.041396844  0.041855866            2 
  990000    1.0930501   -5.8541492    492.00268  0.041414367  0.041846505            2 
  991000     1.074574   -5.8398878      491.266  0.041310629  0.041836855            5 
  992000    1.0914588   -5.8395733    492.75841  0.041394356  0.041827339            3 
  993000     1.102847    -5.843713    493.40371  0.041406824  0.041818003            8 
  994000    1.1159844   -5.8262746    493.45705  0.041369639  0.041808438            2 
  995000    1.1075594   -5.8672265    493.51354  0.041332792  0.041798797            3 
  996000    1.0909565   -5.8170902    497.96361  0.041663622  0.041789534            2 
  997000    1.0799027   -5.8087277    496.55052  0.041503721  0.041780427            3 
  998000    1.1082836   -5.8117587    496.39009  0.041448738  0.041771408            4 
  999000    1.0751319   -5.8445133    497.06994  0.041463959  0.041762674            4 
 1000000    1.0793841   -5.8393517    497.25276   0.04143773  0.041753649            3 
 1001000    1.0761402   -5.8567327    497.09659  0.041383332  0.041744303            4 
 1002000    1.0898035   -5.8160011    498.64755  0.041471021  0.041735211            3 
 1003000    1.1049089   -5.8360483     498.6546  0.041430259  0.041726493            4 
 1004000    1.1275467   -5.8393589    498.60374  0.041384773  0.041717554            4 
 1005000    1.0957259   -5.9019734    497.63093  0.041262929   0.04170853            3 
 1006000    1.0952367   -5.8538212    497.77213   0.04123361  0.041699315            3 
 1007000    1.1137205   -5.8232756    500.01605  0.041378356  0.041690287            4 
 1008000    1.0905631   -5.8580041    497.58743  0.041136527  0.041680934            4 
 1009000    1.0677475   -5.8391589    502.06077  0.041465211  0.041672124            3 
 1010000    1.0741547   -5.8788898     500.7457  0.041315652  0.041662835            5 
 1011000    1.0740249   -5.8779645    501.10968  0.041304787  0.041653716            6 
 1012000    1.0810527   -5.8594624    502.92757  0.041413667  0.041644934            2 
 1013000    1.0876954   -5.8004166    506.28707   0.04164915  0.041636495            5 
 1014000    1.0748459   -5.8535946    502.78667  0.041320404  0.041627983            2 
 1015000    1.0842693   -5.8634661    504.47638  0.041418422  0.041619557            5 
 1016000    1.0799266   -5.8302813    508.04208  0.041670118   0.04161112            2 
 1017000    1.0876676   -5.7937173    505.68544  0.041436041  0.041603282            2 
 1018000    1.0823622   -5.8605435    504.94178  0.041334461  0.041595215            9 
 1019000    1.0778295   -5.8672135    508.56142   0.04158991  0.041587264            4 
 1020000     1.094786   -5.8516322    507.74671  0.041482574  0.041579292            4 
 1021000     1.095772   -5.8591279     506.2605  0.041320642  0.041571141            5 
 1022000    1.1151835   -5.8725069     508.5162  0.041464139  0.041563212            3 
 1023000    1.1033734   -5.8596245    508.33241  0.041408636  0.041555168            5 
 1024000    1.0674862    -5.873785    508.00178  0.041341291  0.041547156            3 
 1025000    1.0974997   -5.8276269    510.88894  0.041535686  0.041539234            2 
 1026000    1.0708062   -5.8544765    510.27365  0.041445228    0.0415316            3 
 1027000    1.0885054   -5.8465045    510.07034  0.041388375  0.041524019            5 
 1028000    1.0711783   -5.8419675    510.85546  0.041411759  0.041516187            2 
 1029000    1.0789684   -5.8671764    509.66513  0.041275116  0.041507794            5 
 1030000     1.111546   -5.8430737    511.98671  0.041422873  0.041499872            7 
 1031000    1.0769028   -5.8662164    511.05267  0.041307199  0.041491574            2 
 1032000    1.0553497   -5.8456084    511.59619  0.041311062  0.041483536            3 
 1033000    1.0857911   -5.8287869    512.93886  0.041379385  0.041475651            3 
 1034000    1.0661492   -5.8401482    512.08732  0.041270738   0.04146759            3 
 1035000    1.0756204   -5.8570633    513.73902  0.041363851  0.041459666            4 
 1036000    1.0967937   -5.8535285    513.25253  0.041284792  0.041451496            2 
 1037000    1.0737003   -5.9259677    514.12444  0.041315047  0.041443674            2 
 1038000    1.1219704   -5.8839212    514.57999  0.041311817  0.041435653            3 
 1039000    1.0874881   -5.8536117    515.04512  0.041309361  0.041427448            3 
 1040000     1.097748   -5.8635716    515.47141  0.041303799  0.041419791            6 
 1041000    1.1147377   -5.8469656    516.05037  0.041310469  0.041411696            4 
 1042000    1.0540671   -5.8649647    516.25579  0.041287251  0.041403854            2 
 1043000    1.0924314   -5.8678388     516.4687  0.041264677  0.041396133            3 
 1044000    1.0941752   -5.8548518     516.8704  0.041257216  0.041388397            2 
 1045000    1.1008039   -5.8398778    517.08993  0.041235241  0.041380568            6 
 1046000    1.0953905   -5.9059957     516.0799  0.041115352  0.041372845            3 
 1047000    1.0469807   -5.8240461    518.00546  0.041229342  0.041364953            6 
 1048000    1.0608468   -5.8893135    516.41613  0.041063624  0.041356758            3 
 1049000    1.0834446   -5.8984287    517.84825  0.041138246  0.041348189            4 
 1050000    1.0772009   -5.8710988    519.90703  0.041262463  0.041340035            3 
 1051000    1.0821796    -5.881729    519.74159  0.041210085  0.041331895            4 
 1052000    1.0498784   -5.8714439    518.25726  0.041053331  0.041323863            4 
 1053000    1.0815573   -5.8997899     519.4729  0.041110549  0.041315742            6 
 1054000    1.1094203   -5.8584121    521.10506   0.04120059  0.041307689            3 
 1055000    1.0877908   -5.8619227    521.24012  0.041172205  0.041299822            2 
 1056000    1.0834555   -5.8840599    519.81873  0.041021049  0.041291922            4 
 1057000    1.0799111   -5.8673285    521.30743  0.041099608  0.041283746            3 
 1058000    1.0825464   -5.8814292    520.27671  0.040979577  0.041275448            6 
 1059000    1.0640528    -5.901753    520.68289  0.040972843   0.04126717            4 
 1060000    1.0962129   -5.8778255     521.3943  0.040990118  0.041258905            2 
 1061000    1.0694981    -5.852864    522.96071  0.041074513  0.041250628            5 
 1062000    1.0928732   -5.8901642     522.4183  0.040993275  0.041242142            2 
 1063000    1.0716018   -5.9105288     520.9954  0.040843164  0.041233646            7 
 1064000    1.0967133   -5.8518371    523.76501  0.041021696  0.041224984            3 
 1065000    1.0721103   -5.9147256    523.00564  0.040923759  0.041216466            5 
 1066000    1.1025323   -5.8608956    526.10522  0.041127675  0.041207826            4 
 1067000    1.0823156    -5.889243    523.92255  0.040918662  0.041199158            5 
 1068000    1.0655872   -5.8644697    527.39731  0.041151476  0.041190615            2 
 1069000    1.0746634   -5.8508119    527.47368  0.041118934  0.041182328            4 
 1070000    1.0823986   -5.8723276    527.21023  0.041059987  0.041174027            1 
 1071000    1.0816162   -5.8925367    525.69595  0.040903824  0.041165554            2 
 1072000    1.0896686   -5.8410152    528.02347  0.041046601  0.041157436            2 
 1073000    1.0990758   -5.8901742    525.93633  0.040846251  0.041148963            3 
 1074000    1.0695035    -5.889187    527.60415  0.040937628  0.041140598            2 
 1075000    1.0585067   -5.8927309    527.49987  0.040891463  0.041132151            6 
 1076000    1.0908189   -5.8587632    529.40078   0.04100068  0.041124073            2 
 1077000    1.0739658    -5.905558     527.2168  0.040793624  0.041115788            3 
 1078000    1.0530629   -5.8930232    530.40025  0.041001874  0.041107341            2 
 1079000    1.0871437   -5.8774249     530.7832   0.04099345  0.041098746            9 
 1080000    1.0733262   -5.8773241    530.83428  0.040959435  0.041090471            5 
 1081000    1.0971007   -5.8805749    532.58238  0.041056305  0.041082243            3 
 1082000    1.0772923   -5.9076028     532.3224  0.040998336   0.04107409            3 
 1083000    1.0836057   -5.9007286    530.46792  0.040817784  0.041065918            3 
 1084000    1.0849266   -5.8924667    531.37095   0.04084955  0.041057751            5 
 1085000    1.0482066   -5.8748911    532.26993  0.040880947  0.041049805            4 
 1086000    1.0897482   -5.8407989    533.72536  0.040954984  0.041041874            6 
 1087000    1.0861994   -5.8527772    535.47578  0.041051501  0.041033959            3 
 1088000    1.0791653   -5.8812327    534.30097  0.040923788  0.041025631            1 
 1089000    1.0736473   -5.8665798    535.16801  0.040952556   0.04101756            1 
 1090000    1.0772433   -5.8773203    533.12556  0.040758835  0.041009422            5 
 1091000    1.0802945   -5.8834958    535.64889  0.040914214  0.041001367            1 
 1092000    1.0738759   -5.8664147    535.78694  0.040887281  0.040993322            9 
 1093000     1.064924   -5.8949074    535.13179  0.040799923  0.040985184            7 
 1094000    1.0837326   -5.8838335    536.89524  0.040896956   0.04097722            5 
 1095000    1.0648761   -5.8859429    534.80263  0.040700352  0.040969118            2 
 1096000    1.0996204   -5.8966534    536.80078  0.040815144  0.040960811            2 
 1097000     1.079951    -5.849772    538.01922  0.040870497  0.040953064            3 
 1098000     1.073957   -5.8429583    538.78353  0.040891282  0.040945407            3 
 1099000     1.084195   -5.8921413    537.54554  0.040760202  0.040937443            4 
 1100000    1.0797934   -5.8537263    539.56825  0.040876383  0.040929567            3 
 1101000    1.0815347   -5.8606828    538.87727  0.040786956  0.040921527            3 
 1102000    1.0562987   -5.8956179    538.69878  0.040736447  0.040913402            6 
 1103000    1.0595929   -5.8837928    540.25354   0.04081698  0.040905466            7 
 1104000    1.0821584   -5.8789314     539.4663  0.040720584  0.040897417            3 
 1105000    1.0575056   -5.8888944    540.89575  0.040791535   0.04088924            3 
 1106000    1.0864326     -5.90467    540.93851  0.040757874    0.0408809            3 
 1107000    1.0929117   -5.8687858    540.96791  0.040723269  0.040872644            4 
 1108000    1.0676693   -5.8729422    542.56851  0.040806897  0.040864705            4 
 1109000    1.0610553   -5.9061139    541.90857  0.040720511  0.040856692            1 
 1110000    1.0622172   -5.8897359    542.81642  0.040751984  0.040848669            8 
 1111000    1.0854216   -5.9002058    543.88749  0.040795641  0.040841072            2 
 1112000    1.0675662   -5.8745718     544.1145  0.040775967    0.0408333            4 
 1113000    1.0901648   -5.8650933    542.37821   0.04060933  0.040825414            2 
 1114000    1.0667865    -5.870119    545.58655  0.040812878  0.040817609            5 
 1115000    1.0524097   -5.8805446    543.31602  0.040606579  0.040809729            4 
 1116000    1.0487968   -5.9115997    544.21898  0.040637618  0.040801673            2 
 1117000     1.079315   -5.8556092    546.82003  0.040795287  0.040793943            4 
 1118000    1.0480485   -5.8969268    545.19488  0.040637663  0.040786073            4 
 1119000    1.0716613   -5.8703048    546.04094  0.040664353  0.040778487            4 
 1120000    1.0694417   -5.9133825    545.12906  0.040560198  0.040770506            5 
 1121000    1.0728189   -5.9203703    545.76635  0.040571391  0.040762076            3 
 1122000    1.1100129   -5.8852089    547.78663  0.040685281  0.040753935            3 
 1123000    1.0797188   -5.8699217    548.37231  0.040692513  0.040745971            3 
 1124000    1.0757927   -5.8850252    549.45377   0.04073649   0.04073802            2 
 1125000    1.0857838   -5.8771635    547.01773  0.040519832  0.040730011            2 
 1126000    1.0848182   -5.8975173    549.47891  0.040665994  0.040722013            3 
 1127000    1.0983628   -5.8676993    549.41852  0.040625445  0.040714245            2 
 1128000    1.0960507   -5.8732929    551.41987  0.040737284  0.040706445            5 
 1129000    1.0648476   -5.8637226    550.88695  0.040661865  0.040698691            3 
 1130000    1.0749059    -5.839061    550.68897  0.040611281   0.04069082            3 
 1131000     1.071368   -5.9109478    551.19483  0.040612646  0.040682871            1 
 1132000    1.0706658   -5.8792643    551.57817  0.040604989  0.040674734            3 
 1133000    1.0906434   -5.9064689    551.43962   0.04055896  0.040666743            5 
 1134000    1.0853445   -5.8938144    552.35485  0.040590451  0.040658867            3 
 1135000    1.0971326   -5.8973632    550.10041  0.040389164  0.040650643            2 
 1136000    1.0664703   -5.8371494    553.29303  0.040587811  0.040642368            4 
 1137000    1.0689644   -5.8494472    554.08394  0.040610081  0.040634282            3 
 1138000    1.0574442    -5.868814    553.30505  0.040517359  0.040625883            1 
 1139000    1.0487165   -5.9245526    551.01373  0.040314145  0.040617271            5 
 1140000    1.0465476   -5.8857422    553.79179  0.040481856  0.040608958            5 
 1141000    1.0623338   -5.9117992    552.77484  0.040372103  0.040600795            5 
 1142000    1.0598168   -5.8742562    553.93003  0.040421047   0.04059254            4 
 1143000     1.066032   -5.8953514    553.47167  0.040352265   0.04058425            3 
 1144000    1.0466391   -5.9022107    554.90175  0.040421165  0.040575702            3 
 1145000    1.0796602   -5.8862268    553.44909  0.040280137  0.040567509            2 
 1146000    1.0569283   -5.8883695     555.2639  0.040376956  0.040558956            6 
 1147000    1.0455718   -5.8873653    554.31087  0.040272513  0.040550265            4 
 1148000    1.0610339   -5.9239617    553.80954  0.040201041  0.040541614            4 
 1149000      1.06761   -5.9101237    554.41413  0.040209902  0.040532836            2 
 1150000     1.093668     -5.89937    556.11772  0.040298385  0.040524682            2 
 1151000    1.0799965   -5.9324892    556.32507  0.040278386  0.040516276            4 
 1152000     1.083799   -5.9455996    555.29252   0.04016873  0.040507838            4 
 1153000    1.0758462   -5.8968945    560.10035  0.040481378  0.040499259            5 
 1154000    1.0636399   -5.8941642    558.64854   0.04034146   0.04049079            2 
 1155000    1.0547338   -5.8805502    559.29702   0.04035332   0.04048251            3 
 1156000    1.0730029   -5.8994474    558.50178  0.040261086  0.040473906            2 
 1157000    1.0787803   -5.9029987    558.33633  0.040214371  0.040465206            5 
 1158000    1.0763748   -5.9218286    555.86736  0.040001969  0.040456481            6 
 1159000    1.0746301   -5.9161947    560.04657  0.040267944  0.040447695            2 
 1160000    1.0660296   -5.9096067    559.58876  0.040200342  0.040438638            3 
 1161000    1.0626295   -5.8807955    560.02801  0.040197244  0.040429608            5 
 1162000    1.0618748   -5.9243042    557.93966  0.040012884  0.040420631            3 
 1163000    1.0776776   -5.9279259    558.84473  0.040043331  0.040411471            2 
 1164000    1.0679489   -5.9167771    558.53512  0.039986764  0.040402502            8 
 1165000     1.061008   -5.9145991    559.65456  0.040032515  0.040393511            3 
 1166000    1.0756989   -5.9661928    560.53374  0.040061017  0.040384624            2 
 1167000    1.0900756   -5.9266867    561.04892  0.040063476  0.040375685            3 
 1168000    1.0495373   -5.9288963     561.7548  0.040079538  0.040366829            3 
 1169000    1.0733686   -5.9553159    561.64823  0.040037655  0.040358037            5 
 1170000    1.0546719    -5.924752    561.40036  0.039985781  0.040349408            3 
 1171000    1.0723694   -5.8975518     564.5232  0.040173868  0.040340656            3 
 1172000    1.0665474   -5.8920314    564.93361  0.040168772  0.040332272            1 
 1173000    1.0714095   -5.8974441    564.22733  0.040084351  0.040323731            4 
 1174000    1.0759693   -5.9167226    563.15147  0.039973841  0.040314987            4 
 1175000    1.0796035   -5.9048186    565.85533  0.040131584   0.04030619            2 
 1176000    1.0617182   -5.8963509    565.25901  0.040055202  0.040297292            3 
 1177000    1.0803554   -5.9275784    565.42637   0.04003302  0.040288086            3 
 1178000    1.0572691   -5.9348217    565.04093  0.039971769  0.040278975            5 
 1179000    1.0584867   -5.9233719    565.24648  0.039952394  0.040270138            4 
 1180000    1.0775491   -5.9047541    565.60683  0.039943985  0.040261194            4 
 1181000    1.0640889   -5.8858458    567.55913   0.04004792  0.040252275            4 
 1182000    1.0419196   -5.9124049    567.26015   0.03999296  0.040243735            3 
 1183000     1.067931   -5.9343268    567.06682  0.039945536  0.040235017            5 
 1184000    1.0565562   -5.9071229    570.21185  0.040133153  0.040226338            2 
 1185000    1.0649249   -5.8936981    570.46967  0.040117417  0.040217552            1 
 1186000    1.0635698   -5.9448896    568.40739  0.039938687   0.04020872            2 
 1187000    1.0452523    -5.963647    569.00438  0.039946952  0.040199626            3 
 1188000    1.0714674   -5.9235696    570.25074  0.040000753  0.040190921            4 
 1189000    1.0623206    -5.953202    569.59031  0.039920823  0.040182286            4 
 1190000     1.066216   -5.9155885    571.14846  0.039996391  0.040173811            3 
 1191000    1.0592566   -5.9405663    569.89884  0.039875374  0.040165049            3 
 1192000    1.0536539   -5.9271182    571.27532  0.039938151  0.040156665            2 
 1193000    1.0664604   -5.9077015     573.3226  0.040047681  0.040148118            3 
 1194000    1.0534414   -5.9149719    572.47592  0.039955048   0.04013958            2 
 1195000    1.0549421   -5.9193902    573.56243   0.03999738  0.040131023            4 
 1196000    1.0634247   -5.9185569    573.65971  0.039970715  0.040122356            2 
 1197000    1.0734128   -5.9530304    573.01642  0.039892538  0.040113899            6 
 1198000    1.0659293    -5.936578    572.73681  0.039839789  0.040105208            2 
 1199000    1.0751966   -5.8631621    576.49081  0.040067474  0.040096829            4 
 1200000    1.0503913   -5.8827714    576.38177  0.040026512  0.040088557            4 
 1201000    1.0687943   -5.9325641    573.86678  0.039818678  0.040079934            7 
 1202000    1.0454693   -5.9261282    574.35248  0.039819224  0.040071256            2 
 1203000    1.0382038   -5.9313707     576.3176   0.03992225  0.040062911            2 
 1204000    1.0611002   -5.8972131    576.61835  0.039909908  0.040054662            3 
 1205000    1.0968117   -5.8841758    578.41653  0.040001143  0.040046562            3 
 1206000     1.073787   -5.9140792    579.55364  0.040046548  0.040038661            7 
 1207000     1.060052   -5.9208566    579.35825  0.039999879  0.040030644            5 
 1208000    1.0485854   -5.9418782    579.17022  0.039953795  0.040022649            5 
 1209000    1.0491971   -5.9389325     580.0046   0.03997826  0.040014412            2 
 1210000    1.0600881   -5.9210745    579.01278  0.039876913  0.040006356            4 
 1211000    1.0633544   -5.9223938    578.11364  0.039782111  0.039998341            4 
 1212000    1.0458964   -5.8989601    581.83369  0.040005066  0.039990794            6 
 1213000    1.0628472   -5.9114928    581.43462  0.039944671  0.039982913            3 
 1214000    1.0374514   -5.9205914     581.9992  0.039950521  0.039975031            3 
 1215000    1.0665535   -5.9393523    582.00926  0.039918331  0.039967269            3 
 1216000    1.0834495    -5.945233    581.73631  0.039866798  0.039959477            5 
 1217000    1.0389956    -5.929189    582.92885  0.039915698  0.039951837            3 
 1218000    1.0514974   -5.8922655    585.17211  0.040036406  0.039944207            4 
 1219000    1.0704327   -5.9491321    583.72572  0.039904684  0.039936675            4 
 1220000    1.0453305   -5.9398253     584.7477  0.039941783  0.039929205            3 
 1221000    1.0395832   -5.9286762     585.5462  0.039963568  0.039921797            2 
 1222000    1.0704785   -5.9369605    583.65053  0.039801591  0.039914229            3 
 1223000    1.0455453   -5.9348407      585.772  0.039913601  0.039906541            2 
 1224000    1.0518262   -5.9384388    585.57894  0.039867848  0.039899039            2 
 1225000    1.0552694   -5.9704822    585.76877  0.039848216  0.039891332            2 
 1226000    1.0600168   -5.9514134    585.43788  0.039793222  0.039883681            3 
 1227000     1.076194   -5.8922958    589.09702  0.040009306  0.039876262            3 
 1228000    1.0639208   -5.9445895    585.37062  0.039723847  0.039868734            3 
 1229000    1.0347789   -5.9307997    587.00662  0.039802456  0.039861197            5 
 1230000    1.0740264   -5.9146873     588.6297  0.039880061  0.039853368            3 
 1231000     1.067951   -5.8969854    586.32241  0.039691471  0.039845521            5 
 1232000    1.0526695   -5.9294722    588.59986  0.039813302  0.039837712            2 
 1233000    1.0673127   -5.8948493    590.86544  0.039934134   0.03983015            5 
 1234000    1.0566737   -5.9343285    589.92058  0.039837965   0.03982265            3 
 1235000    1.0845765   -5.9203661    588.77542  0.039728436  0.039814926            2 
 1236000     1.047524   -5.9193325    587.61418     0.039618  0.039807045            3 
 1237000    1.0377602   -5.8904793    591.36442  0.039838616  0.039799485            3 
 1238000    1.0525077   -5.9365294    589.54478  0.039683951  0.039791668            5 
 1239000    1.0442237   -5.9458981    591.08772  0.039755698  0.039783977            4 
 1240000    1.0503266   -5.9467253    589.22599  0.039598521   0.03977606            2 
 1241000    1.0504703   -5.9190536    591.74175  0.039735546  0.039768258            2 
 1242000    1.0661702   -5.9735144    589.09354  0.039525869  0.039760159            4 
 1243000    1.0391701    -5.921297    591.77955  0.039674145  0.039751958            5 
 1244000    1.0496129   -5.9212664     591.5156  0.039624572  0.039743706            1 
 1245000    1.0480835    -5.926636    592.38074  0.039650652  0.039735624            3 
 1246000    1.0547477    -5.907137     592.5011  0.039626879  0.039727465            4 
 1247000     1.047121    -5.935797    592.31084  0.039582387  0.039719119            4 
 1248000    1.0412068   -5.9252006    593.68661  0.039642535  0.039711063            4 
 1249000    1.0512514   -5.9268862    594.94913  0.039695031  0.039703261            4 
 1250000    1.0558369   -5.9514049    592.52169  0.039501446  0.039695239            4 
 1251000    1.0767078   -5.9030878    594.55525  0.039605332  0.039687371            2 
 1252000    1.0554147   -5.9334197    593.77813  0.039521974    0.0396793            6 
 1253000    1.0711798   -5.9740759    593.18223    0.0394508  0.039671076            3 
 1254000     1.032022   -5.9559339    593.00075   0.03940728  0.039662727            4 
 1255000     1.044344   -5.9521153    596.28895   0.03959422  0.039654372            2 
 1256000    1.0434493   -5.9419635    593.70132  0.039391011  0.039646258            2 
 1257000    1.0517114    -5.963844    595.15461   0.03945602  0.039638063            3 
 1258000    1.0716672   -5.9475257    597.04877   0.03955013  0.039630076            4 
 1259000    1.0484717   -5.9147378    598.39872   0.03960807  0.039622154            3 
 1260000    1.0542927   -5.9527271    598.02918  0.039552194  0.039614225            3 
 1261000    1.0429653    -5.925328    598.40394  0.039545595  0.039606437            3 
 1262000    1.0332082   -5.9490517    598.76858  0.039538337  0.039598793            4 
 1263000    1.0652595   -5.9488176     600.3536  0.039611612  0.039591054            2 
 1264000     1.042566   -6.0254766    597.97196  0.039423257  0.039583125            4 
 1265000    1.0522824   -5.9266835    600.05539   0.03952934  0.039575509            2 
 1266000    1.0400712   -5.9535835     599.2406  0.039444484  0.039567789            5 
 1267000    1.0730564   -5.9739639    600.59897  0.039502694  0.039560092            4 
 1268000    1.0667627   -5.9444659    601.27254  0.039515809  0.039552472            3 
 1269000     1.045581   -5.9339145    601.74915  0.039515967  0.039544844            4 
 1270000    1.0518098   -5.9699467    600.47523  0.039401262  0.039537156            4 
 1271000    1.0853419    -5.965224    603.57172  0.039573284  0.039529316            3 
 1272000    1.0463459   -5.9308672     603.7973  0.039556951  0.039521886            4 
 1273000    1.0411341   -5.9453657    602.86378  0.039464767  0.039514179            4 
 1274000    1.0600622   -5.9383754    603.94721  0.039504658  0.039506477            4 
 1275000    1.0212471   -5.9370636    605.24624  0.039558578  0.039499115            5 
 1276000    1.0562653   -5.9524995    604.30292  0.039465969  0.039491394            1 
 1277000    1.0403965   -5.9323249    606.12449  0.039553934  0.039483629            3 
 1278000    1.0607911   -5.9416012    604.41195  0.039411316  0.039476242            3 
 1279000    1.0429424   -5.9543433    607.01416  0.039550049  0.039468981            5 
 1280000    1.0245907   -5.9798252    604.25508  0.039339523  0.039461559           10 
 1281000     1.067724   -5.9753718    607.45929  0.039517258   0.03945403            4 
 1282000    1.0380141   -5.9380707     606.1328  0.039400208  0.039446689            4 
 1283000     1.040597   -5.9461484    608.06387  0.039494925  0.039439568            2 
 1284000    1.0663208   -5.9121876    608.72701  0.039507205  0.039432321            2 
 1285000    1.0732746    -5.970546    608.40003  0.039455255   0.03942523            5 
 1286000    1.0521457   -5.9452603    609.31038  0.039483565  0.039417997            3 
 1287000    1.0399871   -5.9410999    609.47084  0.039463276  0.039410715            6 
 1288000    1.0230004   -5.9415983    610.85053  0.039521903  0.039403198            2 
 1289000    1.0684108   -5.9437616     611.1522  0.039510744  0.039395956            3 
 1290000    1.0389311   -5.9672478    609.77916  0.039391419  0.039388567            6 
 1291000    1.0514304   -5.9532915    611.79404  0.039490966  0.039381175            3 
 1292000    1.0606993   -5.9389643    610.80756  0.039396773  0.039373876            2 
 1293000    1.0449209   -5.9672993    612.45358  0.039472388   0.03936635            5 
 1294000    1.0294876   -5.9888146    612.21229  0.039426345  0.039358486            2 
 1295000    1.0447518   -5.9462109    613.47165   0.03947694  0.039350874            4 
 1296000     1.059823   -5.9635844    611.11198  0.039294752   0.03934346            3 
 1297000    1.0397166   -5.9347932    613.52863  0.039419727  0.039336029            6 
 1298000    1.0475954    -5.957684    613.22357  0.039369772  0.039328818            3 
 1299000    1.0434565   -5.9909352     613.0082  0.039325648  0.039321485            5 
 1300000    1.0564012   -5.9304038    614.31188  0.039378966  0.039314285            2 
 1301000    1.0305486    -5.983737    612.18179  0.039212259  0.039307127            3 
 1302000    1.0451534   -5.9598351     614.3402  0.039320289  0.039299743            3 
 1303000    1.0187059   -5.9879088    615.63926  0.039373194  0.039292335            4 
 1304000    1.0288396   -5.9689394     614.2553  0.039254557  0.039285022            3 
 1305000    1.0535329    -5.938293    614.93102  0.039267626  0.039278064            5 
 1306000    1.0551312   -5.9495872    614.87988  0.039234296  0.039270751            4 
 1307000    1.0531646   -5.9787668    612.76527  0.039069451  0.039263493            3 
 1308000    1.0333814   -5.9650233    616.72031  0.039291559  0.039256055            3 
 1309000    1.0391654   -5.9614192    617.28585  0.039297546  0.039248429            4 
 1310000    1.0401551   -5.9804746    617.73221  0.039295942  0.039240974            4 
 1311000     1.026469   -5.9081072    617.94762   0.03927966  0.039233495            3 
 1312000    1.0371516    -5.951678    617.94956  0.039249845  0.039225905            6 
 1313000    1.0176252   -5.9383355    618.02639  0.039224828  0.039218557            4 
 1314000    1.0697813   -5.9980292    617.96654  0.039191181  0.039211038            2 
 1315000    1.0711825   -5.9362866    619.73823  0.039273652  0.039203171            3 
 1316000    1.0335888    -5.954349    620.04049  0.039262949  0.039195552            4 
 1317000    1.0494973   -5.9856449    620.29267  0.039249093  0.039187857            4 
 1318000    1.0195928   -5.9581429    619.02618  0.039139237  0.039179808            5 
 1319000    1.0621237   -5.9566771    620.74009  0.039217847  0.039171957            3 
 1320000    1.0278269   -5.9830164     618.2556  0.039031288  0.039163921            2 
 1321000    1.0250704   -5.9685852    619.37493  0.039072352  0.039155645            4 
 1322000    1.0381717   -5.9462129    619.24236   0.03903444  0.039147642            3 
 1323000    1.0184954    -5.961973    619.70551  0.039034109  0.039139474            4 
 1324000     1.030381   -6.0154488    618.32294  0.038917607  0.039131123            3 
 1325000    1.0441594   -5.9749594    621.50372  0.039088284  0.039122675            2 
 1326000    1.0485375   -6.0039667    619.08606  0.038906866  0.039114304            4 
 1327000    1.0303193    -5.935379     622.0888  0.039066114  0.039106048            4 
 1328000    1.0346208   -5.9876905    620.02426  0.038907145  0.039097473            2 
 1329000     1.039661   -5.9689533    622.36773  0.039024814  0.039089249            3 
 1330000    1.0442295   -5.9286638    623.59974  0.039072665  0.039080971            2 
 1331000    1.0354805   -5.9508187    622.59797  0.038980589  0.039072719            3 
 1332000    1.0312946   -5.9825985    621.64009  0.038891397  0.039064446            6 
 1333000    1.0251467   -5.9652225    622.21223  0.038897989   0.03905626            3 
 1334000    1.0619649   -5.9762238    623.68513   0.03896084  0.039048011            2 
 1335000      1.05623   -5.9364317    623.78212   0.03893771  0.039039874            4 
 1336000    1.0520996   -5.9899616    622.11986  0.038804881  0.039031726            3 
 1337000    1.0513396   -5.9973856    622.86845  0.038822516  0.039023261            3 
 1338000    1.0044422   -5.9854706     625.1069  0.038932916  0.039014894            3 
 1339000    1.0585929   -5.9824791    625.11219  0.038904169  0.039006715            4 
 1340000    1.0636633   -5.9418891    626.52534  0.038963019   0.03899869            5 
 1341000    1.0428832    -5.991932    624.02641  0.038778673  0.038990335            4 
 1342000    1.0557676   -5.9546005    625.95324  0.038869426  0.038981879            5 
 1343000      1.02888   -5.9113878     624.9577  0.038778711  0.038973635            3 
 1344000    1.0512736   -6.0152346    625.27951  0.038769811  0.038965301            4 
 1345000    1.0197318   -5.9458717    624.77736  0.038709874  0.038956643            2 
 1346000    1.0318528   -5.9516614    627.82679   0.03886991  0.038948296            2 
 1347000   0.99811038   -5.9718301    625.03948  0.038668614  0.038939689            4 
 1348000    1.0411138    -5.962666    625.61026  0.038675214  0.038931328            3 
 1349000     1.041757   -5.9384285    627.01395  0.038733256  0.038922788            4 
 1350000    1.0370262   -5.9794567    628.21584  0.038778755  0.038914339            4 
 1351000    1.0520027   -6.0109279    627.03601  0.038677276  0.038905702            6 
 1352000    1.0511781   -5.9941412    626.99753  0.038646298  0.038897119            5 
 1353000    1.0184034   -5.9672727    629.36923  0.038763811  0.038888694            3 
 1354000    1.0305608   -6.0130601    627.25862  0.038605282  0.038880439            5 
 1355000    1.0159829   -5.9927862    627.65886  0.038601406  0.038871684            3 
 1356000    1.0538979   -6.0042071    628.64488  0.038633535  0.038863122            4 
 1357000    1.0415706   -5.9907755    630.82276  0.038738808  0.038855072            4 
 1358000     1.042569    -5.940001    632.56246  0.038817039  0.038846719            7 
 1359000    1.0424564   -5.9690862    630.93057  0.038688409  0.038838554            3 
 1360000    1.0550316    -5.994276    631.07162  0.038668604  0.038830459            8 
 1361000    1.0385842    -6.008629    630.61201   0.03861205   0.03882193            3 
 1362000    1.0296992   -5.9698643    631.66048  0.038647851  0.038813394            4 
 1363000    1.0455674   -5.9576069    631.67138  0.038620163  0.038804989            4 
 1364000    1.0172057   -5.9806139    632.28866  0.038629562  0.038796642            4 
 1365000    1.0160271   -5.9818545    632.42584  0.038609636   0.03878823            4 
 1366000    1.0306671   -5.9599026     634.1213  0.038684804  0.038780121            4 
 1367000     1.003777   -5.9735352    633.52268  0.038620012  0.038772112            3 
 1368000    1.0115705   -5.9555226    636.37962  0.038765815   0.03876392            4 
 1369000    1.0399656   -5.9784724    633.55226  0.038565392  0.038755881            2 
 1370000    1.0309648   -5.9896184    634.54099  0.038597384  0.038747875            5 
 1371000    1.0598582   -5.9869608    635.21474  0.038610184  0.038739653            9 
 1372000     1.024683   -5.9764801    636.22098   0.03864316  0.038731434            4 
 1373000    1.0375059   -6.0208224    635.33464  0.038561219  0.038723502            3 
 1374000    1.0318404   -5.9841975    636.84137  0.038624537  0.038715673            3 
 1375000    1.0416297   -5.9984181     638.6195  0.038704212  0.038707652            5 
 1376000    1.0271522   -6.0142774    637.11974  0.038585255  0.038699588            6 
 1377000    1.0389183   -5.9789461    637.01523   0.03855091   0.03869147            3 
 1378000    1.0204773   -5.9640764    638.68241  0.038623755   0.03868333            4 
 1379000    1.0284788   -5.9857908    637.88628  0.038547636   0.03867527            4 
 1380000    1.0247495   -6.0161172    638.41517  0.038551641  0.038667308            4 
 1381000     1.056685   -5.9831364    640.10083  0.038625442  0.038659041            3 
 1382000    1.0397706   -5.9897595    638.31821  0.038490003   0.03865088            6 
 1383000    1.0360535   -5.9890448    639.60148  0.038539496  0.038642662            4 
 1384000    1.0280215   -5.9971721    638.98876  0.038474757  0.038634525            3 
 1385000    1.0126005   -5.9760287    640.21096  0.038520515  0.038626485            4 
 1386000    1.0377297   -6.0140625    640.96984   0.03853835  0.038618514            5 
 1387000    1.0471055   -5.9917053    640.92936  0.038508133  0.038610259            3 
 1388000    1.0169078   -5.9988172    640.75342  0.038469826  0.038602183            2 
 1389000    1.0524773   -6.0017486    639.51699   0.03836795  0.038593963            4 
 1390000    1.0143046   -6.0012941    642.33703  0.038509414  0.038585891            3 
 1391000    1.0136124   -5.9715603    644.28066  0.038598171  0.038577938            9 
 1392000    1.0189695   -5.9784569    641.55204  0.038407091  0.038570089            6 
 1393000     1.028708   -5.9772643    643.03609  0.038468299  0.038561986            2 
 1394000    1.0144462   -5.9938381    643.62991  0.038476202  0.038554095            2 
 1395000    1.0364673   -5.9710975    644.73466  0.038514616  0.038546143            4 
 1396000    1.0269009   -6.0090792    643.04915   0.03838641  0.038538345            5 
 1397000    1.0453649   -5.9931471    643.99022  0.038415069  0.038530367            6 
 1398000    1.0187245   -5.9990536    645.24673   0.03846249  0.038522232            2 
 1399000    1.0701951   -6.0051142    645.01719  0.038421324   0.03851419            4 
 1400000    1.0074656   -5.9637053    648.28265  0.038588253  0.038506119            5 
 1401000    1.0412053   -5.9890122    646.21386  0.038437655  0.038498165            4 
 1402000    1.0444088   -5.9789052    647.60834  0.038493125  0.038490298            3 
 1403000    1.0414146   -5.9546252    648.75739  0.038533939  0.038482475            3 
 1404000    1.0298857   -6.0105335    647.05847  0.038405655  0.038474691            3 
 1405000    1.0129568   -6.0162321    645.79758  0.038303534  0.038466553            5 
 1406000    1.0256146   -5.9871057    645.29071  0.038246249  0.038458571            6 
 1407000    1.0181083   -5.9988549    646.36219  0.038282527   0.03845043            4 
 1408000    1.0482472   -6.0202009     648.6427  0.038390311  0.038442412            3 
 1409000    1.0540711   -5.9941349     647.5851  0.038300515  0.038434369            5 
 1410000    1.0106772   -6.0296332    648.03498   0.03829994  0.038426116            2 
 1411000     1.042092   -6.0204651    649.35824  0.038350947   0.03841788            3 
 1412000    1.0313666   -6.0017193    649.30576  0.038320689  0.038409651            4 
 1413000    1.0273594   -5.9591955    649.68671  0.038316036  0.038401612            2 
 1414000    1.0324967   -5.9771719    648.71795  0.038231845  0.038393534            6 
 1415000    1.0182996   -5.9916265    649.76309  0.038266377  0.038385253            5 
 1416000    0.9991994   -6.0402856    646.75803  0.038062502   0.03837671            3 
 1417000    1.0379758   -6.0186159    647.76016  0.038094575  0.038368113            4 
 1418000    1.0194322   -5.9999163    648.42901  0.038107017  0.038359642            4 
 1419000     1.047564   -6.0118221    650.37502  0.038194446  0.038351037            4 
 1420000    1.0187767   -5.9582897    651.83745  0.038253371  0.038342443            3 
 1421000    1.0263827   -5.9964407    652.16651  0.038245749  0.038334243            6 
 1422000    1.0337955   -6.0095728    652.56181  0.038242019  0.038326077            5 
 1423000    1.0371601   -5.9859638    652.90292   0.03823512  0.038318047            3 
 1424000    1.0347255   -6.0124242    652.94983  0.038211015  0.038309832            3 
 1425000    1.0229127   -6.0168524      654.222  0.038258596  0.038301846            5 
 1426000    1.0223777   -5.9947683    654.67968  0.038258513  0.038293657            3 
 1427000    1.0344478   -6.0128554    653.85118  0.038183321  0.038285586            8 
 1428000    1.0124035   -5.9880535    654.44482  0.038191225  0.038277506            2 
 1429000    1.0209368   -5.9850805    654.95706   0.03819437  0.038269384            5 
 1430000    1.0072057   -6.0267309    655.56624  0.038203161  0.038261264            4 
 1431000    1.0052421   -6.0562542    654.24547   0.03809955  0.038252898            3 
 1432000    1.0248915   -5.9903486    655.57031  0.038150041  0.038244774            3 
 1433000    1.0378354   -6.0144691    655.82601  0.038138288  0.038236775            3 
 1434000    1.0350759   -6.0452141    654.01686  0.038006558  0.038228957            3 
 1435000    1.0280977   -6.0515109    657.17872  0.038163689  0.038220855            8 
 1436000    1.0219647   -6.0317302    655.05433   0.03801383  0.038212668            3 
 1437000    1.0135951   -6.0301498     658.2029  0.038169966  0.038204452            7 
 1438000    1.0331022   -5.9824215    659.50925  0.038219127  0.038196365            7 
 1439000    1.0181828   -6.0276061    657.91308  0.038100132   0.03818863            3 
 1440000    1.0217802   -6.0389234    657.42636  0.038045507  0.038180718            2 
 1441000    1.0156796   -5.9920309    658.41704  0.038076396  0.038172613            4 
 1442000    1.0214405   -6.0212282    661.02954  0.038200968  0.038164663            3 
 1443000    1.0360451   -6.0193148    660.87039  0.038165303  0.038156661            4 
 1444000    1.0187087   -6.0185724    658.22028  0.037985935   0.03814884            2 
 1445000    1.0612512   -6.0302059    659.22999  0.038017877  0.038140987            4 
 1446000    1.0161991   -5.9978183    661.04164  0.038095991  0.038133242            4 
 1447000    1.0037818   -6.0167876    662.38284  0.038146904  0.038125312            1 
 1448000    1.0437035    -5.998669     662.3113  0.038116442  0.038117456            4 
 1449000    1.0066744   -6.0325908    661.57094  0.038047558  0.038109471            4 
 1450000    1.0067798   -5.9975898    662.09244   0.03805129  0.038101253            3 
 1451000   0.99470861   -6.0488793    661.40835  0.037985777  0.038092876            9 
 1452000    1.0269065   -6.0070927    662.70492  0.038034029  0.038084834            5 
 1453000    1.0332367   -6.0040939    663.05832  0.038028121  0.038076873            2 
 1454000     1.012109   -6.0229624    662.09321  0.037946654  0.038068707            4 
 1455000   0.99801246   -6.0001279    661.34806  0.037877896  0.038060479            6 
 1456000    1.0150417   -6.0082667    662.71009  0.037929836  0.038052204            5 
 1457000     1.023053   -6.0081174    659.79631  0.037737149  0.038043753            7 
 1458000    1.0205442   -6.0554228    662.00759  0.037837654  0.038035321            7 
 1459000    1.0065272   -6.0273018    664.66737  0.037963637   0.03802705            5 
 1460000    1.0273212   -6.0422454    661.23608  0.037741785  0.038018573            3 
 1461000    1.0104417    -6.041091    662.26123  0.037774425  0.038010017            6 
 1462000    1.0155711   -6.0212559     663.1092  0.037796922  0.038001557            2 
 1463000    1.0303889   -6.0031988    665.40209  0.037901691  0.037993047            2 
 1464000     1.028702   -5.9922619    664.31556  0.037813955  0.037984831            4 
 1465000    1.0312324   -6.0327578    665.33008  0.037845852  0.037976232           11 
 1466000    1.0052077   -6.0293859    665.11352  0.037807726  0.037967794            5 
 1467000    1.0246603   -6.0402607    665.41526  0.037799095  0.037959478            3 
 1468000     1.009975   -6.0387868    666.19356  0.037817527  0.037950967            2 
 1469000    1.0211871   -6.0227625    665.52309  0.037753749   0.03794244            6 
 1470000   0.99524822   -6.0400276    664.98879  0.037697777  0.037933771            6 
 1471000    1.0474889   -6.0372343    668.12646  0.037849901  0.037925041            7 
 1472000    1.0161989   -6.0291273    666.78378  0.037748176  0.037916553            5 
 1473000    1.0159611   -6.0221627    668.74394  0.037833443  0.037908355            3 
 1474000    1.0015415   -6.0776958    663.71649  0.037523547  0.037899859            9 
 1475000    1.0034975   -6.0047353    669.27414  0.037812098  0.037891375            5 
 1476000    1.0202397   -6.0534294    668.12781   0.03772176  0.037883145            4 
 1477000    1.0117945   -6.0724398    666.59939  0.037609986  0.037874775            3 
 1478000    1.0316674   -6.0563021    667.22547  0.037619839  0.037866245            6 
 1479000    1.0147975   -6.0190563    669.83815  0.037741613  0.037857757            6 
 1480000    1.0320133   -5.9917521    671.53873  0.037811865  0.037849408            8 
 1481000    1.0041396   -6.0166321      670.688  0.037738465  0.037840895            3 
 1482000    1.0250007   -6.0493877     669.0511  0.037620957  0.037832261            4 
 1483000    1.0268338   -6.0500527    670.05272  0.037651872   0.03782383            6 
 1484000     1.001239   -6.0344243    670.00566  0.037623858  0.037815282            2 
 1485000    1.0289792   -6.0163729    670.58613  0.037631096  0.037806694            3 
 1486000    1.0356034   -6.0683576    668.55161  0.037491679   0.03779824            5 
 1487000     1.014606   -6.0160436    670.21977  0.037559951   0.03778965            5 
 1488000    1.0079764   -6.0172574    671.42829  0.037602391  0.037781219            2 
 1489000    1.0166813   -6.0450606    671.63205  0.037588541  0.037772839            3 
 1490000    1.0067865     -6.04306    669.69641  0.037455056  0.037764318            5 
 1491000   0.99683408   -6.0262503    673.88278  0.037663916  0.037755849            8 
 1492000    1.0205216   -6.0379991    675.27562  0.037716466  0.037747334            2 
 1493000    1.0114482   -6.0431947    673.29944  0.037580902  0.037738952            3 
 1494000    1.0358038   -6.0293785    671.64778   0.03746362   0.03773061            3 
 1495000    1.0209738   -6.0214859    672.29934   0.03747488  0.037722053            5 
 1496000     1.016727   -6.0302003    674.24587  0.037558259  0.037713573            3 
 1497000    1.0017528   -6.0356739    673.73333  0.037504639  0.037705217            3 
 1498000     0.995671   -6.0687985    673.47667  0.037465324  0.037696642            5 
 1499000    1.0127406   -6.0204912    675.41154  0.037547895  0.037688158            3 
 1500000   0.99114847   -6.0335264    674.65183  0.037480657   0.03767968            4 
 1501000   0.99950649   -6.0591433      675.864  0.037522984  0.037671241            6 
 1502000     1.006773   -6.0469975    676.93307  0.037557316  0.037662875            8 
 1503000   0.99084218   -6.0302633     676.7143  0.037520199  0.037654686            3 
 1504000    1.0068697   -6.0229238    677.85399  0.037558399  0.037646344            7 
 1505000    1.0209083   -6.0451455    676.72808  0.037471101  0.037637846            6 
 1506000    1.0146511   -6.0326503    678.04427   0.03751905  0.037629468            6 
 1507000   0.99140249   -6.0341997    679.03416  0.037548892  0.037621172            4 
 1508000     1.021797   -6.0435987    681.45553  0.037657799  0.037613092            4 
 1509000    1.0163074   -6.0392142    681.13388  0.037615081  0.037604853            3 
 1510000    1.0128601   -6.0115624    680.23506  0.037540566  0.037596642            5 
 1511000    1.0174666   -6.0400121    678.79572   0.03743634  0.037588387            6 
 1512000    1.0162535   -6.0198959    678.64669  0.037403367  0.037579867            4 
 1513000    1.0154842   -6.0425563    678.94455  0.037395051   0.03757151            5 
 1514000    1.0008787   -6.0564187    680.36971  0.037448795  0.037562942            3 
 1515000    1.0340401   -6.0292199    680.53498  0.037433167  0.037554558            3 
 1516000   0.99377121    -6.055069    678.97618  0.037322789  0.037546098            4 
 1517000     1.013869   -6.0717072    677.72824  0.037229633  0.037537455            3 
 1518000     1.026215   -6.0674543    678.46379  0.037245487  0.037528772            5 
 1519000    1.0057534   -6.0144928    680.15411  0.037313699  0.037520116            4 
 1520000    1.0200246   -6.0175033    681.82193  0.037380588  0.037511586            7 
 1521000    1.0049078      -6.0483    681.36797   0.03733114  0.037502887            6 
 1522000    1.0273877   -6.0448879    681.24298  0.037299769  0.037494472            2 
 1523000    1.0082785   -6.0506783    680.83437   0.03725292  0.037485591            3 
 1524000    1.0097383   -5.9947193     681.6173  0.037271287  0.037476995            8 
 1525000   0.98397207   -6.0684893    681.86731  0.037260509  0.037468271            2 
 1526000   0.99114904   -6.0472378    682.31299   0.03726043   0.03745953            2 
 1527000    1.0077734   -6.0486622    684.45814  0.037353096   0.03745091            3 
 1528000    1.0009502   -6.0348597    683.52117  0.037277551  0.037442475            4 
 1529000    1.0069795   -6.0360358    684.47945  0.037305398  0.037434249            5 
 1530000    1.0219943    -6.019411     685.8944  0.037358083   0.03742595            6 
 1531000    1.0155718    -6.071933     682.4458  0.037145972  0.037417351            3 
 1532000   0.98755358    -6.029161    684.47471  0.037232088  0.037408743            4 
 1533000    1.0144604   -6.0802258    683.97882  0.037180845  0.037400132            3 
 1534000    1.0067492   -6.0161207    685.37498  0.037232452  0.037391491            4 
 1535000    1.0168452   -6.0635966    684.65955  0.037169356  0.037382953            3 
 1536000    1.0007967   -6.0749037    683.67386  0.037091681  0.037374313            2 
 1537000    1.0238296   -6.0711985    683.80648  0.037074738  0.037365884            9 
 1538000   0.98862357    -6.052121    685.99372  0.037169144  0.037357377            7 
 1539000    1.0002237   -6.0033901    688.84656  0.037299467   0.03734928            4 
 1540000    1.0065268   -6.0721946     686.0762  0.037125336  0.037341071           11 
 1541000   0.99910757   -6.0981171     687.6691  0.037187384  0.037332362            4 
 1542000    1.0110552   -6.0421777    688.19367  0.037191616  0.037324008            2 
 1543000    1.0019993   -6.0637151    687.06177  0.037106382  0.037315482            2 
 1544000   0.99348927   -6.0540494    688.30747  0.037149583  0.037307027            4 
 1545000    1.0021501   -6.0729429    686.35576  0.037020267  0.037298373           10 
 1546000    1.0087128   -6.0084256    690.95354  0.037244154  0.037289768            4 
 1547000    1.0065783   -6.0489003    686.13817  0.036960686  0.037281005            4 
 1548000    1.0070998   -6.0166645    691.53501  0.037227337  0.037272521            5 
 1549000    1.0013416   -6.0356151    690.63541  0.037154907  0.037264148            2 
 1550000    1.0351573   -6.0400511    690.38677  0.037117568  0.037255859            3 
 1551000   0.99649187   -6.0577286    691.21921  0.037138363  0.037247648            5 
 1552000    0.9963813   -6.0787525    690.44473  0.037072849   0.03723924            3 
 1553000    1.0158881   -6.0563487    691.99076  0.037131936  0.037230663            4 
 1554000    1.0121623   -6.0903221    689.46111  0.036972389  0.037222279            3 
 1555000    1.0070946   -6.0367827    691.17215  0.037040308  0.037213872            3 
 1556000   0.99244789   -6.0688483     692.3942  0.037081952  0.037205365            5 
 1557000    1.0011603   -6.0722544    691.09072  0.036988371  0.037197023            2 
 1558000     1.012634   -6.0441769    692.78109  0.037055043  0.037188742            6 
 1559000   0.97454627   -6.0242561    694.42297  0.037119039  0.037180358            6 
 1560000    1.0021168    -6.057056     692.5411  0.036994717  0.037171884            4 
 1561000   0.99476808   -6.0486594    692.97469  0.036994164  0.037163531            2 
 1562000   0.99575572   -6.0268373      693.172  0.036981007  0.037155111            5 
 1563000    1.0100645   -6.0168712    696.26207  0.037122098  0.037146797            3 
 1564000    1.0114239   -6.0688584    693.54667   0.03695368  0.037138359            5 
 1565000   0.98947977   -6.0683063    695.40285  0.037028906  0.037129884            2 
 1566000   0.99899181   -6.0472107    693.50653  0.036904349  0.037121402            3 
 1567000    1.0051272   -6.0808664    695.62264  0.036993333  0.037113051            3 
 1568000    1.0043858   -6.0935319    692.81223  0.036820378   0.03710444            2 
 1569000    1.0013116   -6.0298747    695.87453  0.036959557  0.037095983            6 
 1570000    1.0101858    -6.055862    694.77673  0.036877746  0.037087549            4 
 1571000    1.0073628   -6.0909999    693.04765  0.036762553  0.037078825            4 
 1572000    1.0102573   -6.0289713    697.93264  0.036998126  0.037070156            3 
 1573000    1.0040691   -6.0642362    696.45333  0.036896235  0.037061584            4 
 1574000     1.007187   -6.0596559    697.23179  0.036914009  0.037053213            4 
 1575000    1.0217061   -6.0442066      698.002  0.036931323  0.037044653            5 
 1576000   0.98955445   -6.0786337    694.20256  0.036706988  0.037036126            6 
 1577000    1.0103034   -6.0655104    699.20744  0.036948184  0.037027659            4 
 1578000   0.99182454   -6.0633413    695.82242  0.036746009  0.037019138            3 
 1579000    1.0287307   -6.0787949    696.27683  0.036746719  0.037010297            4 
 1580000   0.99782997   -6.0370381    698.73885  0.036853315  0.037001688            4 
 1581000    1.0124733   -6.0476186    697.15133  0.036746328  0.036993109            7 
 1582000   0.98198227   -6.0834813    696.57996  0.036693003  0.036984572            4 
 1583000     1.004688   -6.0959652    697.86652  0.036737551  0.036975977            3 
 1584000   0.97398135   -6.0832433    700.63937  0.036860236  0.036967264            3 
 1585000   0.99974661    -6.043847     700.1724  0.036812429  0.036958665           11 
 1586000    1.0181028   -6.0460575    698.93124  0.036724004  0.036950185            3 
 1587000    0.9982255   -6.0747818    700.46886  0.036781604  0.036941602            9 
 1588000   0.98914398   -6.0620925    699.33241  0.036698804   0.03693307            3 
 1589000    1.0181868   -6.0817117    701.75089  0.036802543  0.036924682            5 
 1590000   0.99560439   -6.0465075    703.59568  0.036876084  0.036916512            2 
 1591000    1.0038933   -6.0423776    703.15623  0.036829889  0.036908071            4 
 1592000   0.99305902   -6.0913195    700.69078    0.0366777  0.036899555            6 
 1593000    1.0186079   -6.0508269    702.67446  0.036758446  0.036891046            6 
 1594000   0.98401677   -6.0700396    701.14848  0.036655609  0.036882713            4 
 1595000   0.98255377    -6.048493    704.45731  0.036805502  0.036874266            3 
 1596000    1.0100772   -6.0580057    705.40371  0.036831856  0.036865893            4 
 1597000     1.017219   -6.0464008    702.09978   0.03663639   0.03685769            6 
 1598000   0.98535083   -6.0929882    703.24466  0.036673167   0.03684945            2 
 1599000    1.0167934   -6.0590653    705.78765  0.036782763  0.036841113            2 
 1600000   0.98678484   -6.0643599    707.19802   0.03683323  0.036832878            5 
 1601000   0.99951983   -6.0299658    707.84413  0.036843854  0.036824642            7 
 1602000   0.99239633     -6.07627    705.74996   0.03671192  0.036816524            5 
 1603000   0.98184896   -6.0995042    705.30271  0.036665768  0.036808134            4 
 1604000   0.98781985   -6.0893652    705.87937  0.036672868  0.036799612            4 
 1605000   0.98393636   -6.0930054    704.69402  0.036588475  0.036791247            7 
 1606000   0.98022875    -6.089722    705.19165  0.036591514  0.036782874            3 
 1607000    1.0028717      -6.0513    705.38867   0.03657896   0.03677454            3 
 1608000    1.0041183   -6.0627265    706.91333  0.036635226  0.036766303            3 
 1609000   0.99301381   -6.1038989    704.94434   0.03651048  0.036758255            5 
 1610000   0.97988803   -6.0578293    709.44691  0.036720855  0.036750091            4 
 1611000    1.0032586   -6.1230813    708.44806  0.036646393  0.036741867            5 
 1612000   0.98363566   -6.0643281    711.07684  0.036759555  0.036733625            3 
 1613000   0.97441711   -6.0402214    711.87698  0.036778104  0.036725701            5 
 1614000    1.0072212   -6.0783508    710.76984  0.036698154  0.036717608            3 
 1615000   0.98687613   -6.1013282    706.18551  0.036438881  0.036709752            4 
 1616000   0.99507385   -6.0685913    711.56697  0.036693841  0.036701702            2 
 1617000    1.0066854   -6.0811651    711.75266  0.036680718  0.036693736            7 
 1618000    0.9808454   -6.0894188    712.62913   0.03670319   0.03668588            4 
 1619000   0.96507603   -6.0987514    711.44743  0.036619695   0.03667789            7 
 1620000   0.98855527   -6.0518854    715.01208  0.036780457  0.036669972            5 
 1621000   0.95901949   -6.0682308    713.09007  0.036658959  0.036662286            9 
 1622000    1.0200556   -6.1031159    710.48009  0.036502265   0.03665444           10 
 1623000   0.98151779   -6.0441751    714.74066  0.036698535  0.036646706            2 
 1624000   0.98246471   -6.0708139    714.72062  0.036674908  0.036638861            8 
 1625000    0.9755685   -6.0910113    712.39052  0.036532847  0.036630867            3 
 1626000    1.0016728   -6.0497797    715.34304  0.036661697  0.036622981            2 
 1627000   0.99009383   -6.0785809    714.64227  0.036603271  0.036614933            5 
 1628000    1.0073543   -6.0804353    715.30286  0.036614602  0.036607033            4 
 1629000   0.97851405   -6.0917436    713.38414  0.036493971  0.036599061            3 
 1630000    1.0079757   -6.1025006    715.69797  0.036589876  0.036590993            3 
 1631000    1.0046295   -6.0848584     715.8384  0.036574617   0.03658297            6 
 1632000   0.99166887   -6.1030757    715.39476  0.036529553  0.036574933            3 
 1633000     0.989597   -6.1083159    716.40216  0.036558591  0.036566796            4 
 1634000   0.99402264   -6.0410265    716.59743  0.036546176  0.036558807            4 
 1635000   0.99799895   -6.1127248     717.9175  0.036591106  0.036550993            6 
 1636000    1.0050767   -6.1012222    714.46238  0.036392746  0.036542902            2 
 1637000   0.99886364   -6.0977199    717.78379  0.036539594  0.036534721            5 
 1638000   0.97783359   -6.0599998    716.01166   0.03642713   0.03652666            4 
 1639000    0.9934968   -6.0800906     716.9208  0.036451129  0.036518661            8 
 1640000   0.98174438   -6.0369451    718.79688  0.036524232  0.036510753            5 
 1641000    1.0047915   -6.0311978    720.42906   0.03658486  0.036502865            3 
 1642000   0.99517633   -6.0854671    718.86545  0.036483224  0.036495291            4 
 1643000   0.97523386   -6.1134176    716.85097  0.036358844  0.036487357            3 
 1644000    0.9981428   -6.0764832     720.2653  0.036509798  0.036479358            5 
 1645000   0.99982485   -6.0631979    719.78929   0.03646349  0.036471558            3 
 1646000   0.97401932   -6.1046267    720.25602  0.036464967  0.036463756            7 
 1647000   0.99892313   -6.0618736    720.93797  0.036477331  0.036455898            6 
 1648000   0.97955639    -6.122618    716.98131  0.036255123  0.036447802            5 
 1649000   0.99161182   -6.0845473    721.14334  0.036443468  0.036439731            2 
 1650000    1.0035367   -6.0823852    721.75088  0.036452064  0.036431656            4 
 1651000   0.98537178   -6.1180418    718.87926  0.036285042  0.036423592            3 
 1652000    0.9701348   -6.0840258    721.44707  0.036392609  0.036415445            5 
 1653000   0.98388999   -6.0904546    721.86597   0.03639171  0.036407382           10 
 1654000    1.0018876   -6.0956579    720.50637  0.036301208  0.036399154            6 
 1655000   0.98926502   -6.0785942    721.34142   0.03632132   0.03639099            4 
 1656000   0.98000588    -6.097548    722.28987  0.036347115  0.036382603            3 
 1657000   0.98259432   -6.0824208    720.95561  0.036258077  0.036374481            9 
 1658000   0.99161602   -6.0969899     721.5617  0.036266672  0.036366287            3 
 1659000    0.9979842    -6.122768    721.23596  0.036228449  0.036358064            4 
 1660000   0.98974568   -6.0747874    724.51718  0.036371345   0.03634987            2 
 1661000     1.016425   -6.0500932    721.43284  0.036194704   0.03634174            8 
 1662000    1.0055267    -6.124381    719.90244  0.036096192   0.03633324            3 
 1663000    1.0001941   -6.0915148    723.31325  0.036245402  0.036324726            6 
 1664000   0.98583544   -6.0959296     721.9398  0.036154838   0.03631622            5 
 1665000   0.98465356   -6.0909844    722.69432  0.036170887  0.036307641            6 
 1666000   0.99857883   -6.0619528    723.38629  0.036183788   0.03629935            6 
 1667000   0.96302992   -6.0668983    721.96424  0.036090994  0.036290843            3 
 1668000   0.99237084   -6.1052376     722.7303  0.036107629  0.036282232            5 
 1669000    1.0016362    -6.087113     722.3698  0.036067995  0.036273545            7 
 1670000   0.97635063   -6.0994249    720.54629  0.035955404  0.036265089            4 
 1671000    1.0027082   -6.0843779    722.20089  0.036016402  0.036256455            5 
 1672000   0.96636024   -6.1242868    721.39239  0.035954565  0.036247744            7 
 1673000    1.0113227   -6.0527177    722.94719  0.036010519  0.036238949            3 
 1674000   0.99343014   -6.1002654    721.37329  0.035910657  0.036230212           10 
 1675000    1.0014709    -6.098699    724.78426  0.036058919  0.036221463            5 
 1676000   0.97809539   -6.0624265    723.87985  0.035992435   0.03621283            4 
 1677000   0.98738294   -6.0697498    723.35121  0.035944703  0.036204281            5 
 1678000   0.97463214   -6.0668353    723.73379  0.035942282  0.036195604            3 
 1679000    1.0050722   -6.1174103    722.83668  0.035876349  0.036187007            3 
 1680000    0.9654658   -6.0916578    724.82629  0.035953685  0.036178264            2 
 1681000   0.98430719   -6.1036343      724.198   0.03590115  0.036169548            3 
 1682000    1.0006082   -6.0986311    725.41113  0.035939909  0.036160731            3 
 1683000   0.96180514   -6.1020903    726.73051  0.035983883  0.036152002            3 
 1684000   0.95931587   -6.1103814    726.68931  0.035960476  0.036143146            2 
 1685000   0.98843616   -6.1433957    724.92013  0.035851639  0.036134513            3 
 1686000   0.98164259   -6.1294287    726.15937  0.035891626   0.03612584            5 
 1687000   0.97781352    -6.109523    726.14843   0.03586981  0.036117117            3 
 1688000   0.98327975   -6.1208747    727.03077  0.035892119  0.036108324            3 
 1689000   0.97141268   -6.1265309    725.81085  0.035810679  0.036099672            5 
 1690000   0.99231139   -6.0621487    728.76791  0.035935301  0.036091027            6 
 1691000    0.9667654   -6.1439077    725.39959  0.035748058  0.036082271            2 
 1692000   0.98434278   -6.1196194    727.40837  0.035825866  0.036073416            3 
 1693000    1.0081453   -6.1038919    726.83092  0.035776281  0.036064723            4 
 1694000   0.97933019   -6.1102526    728.34894  0.035829838  0.036056132           12 
 1695000   0.98782274   -6.0901644    729.76896  0.035878513  0.036047298            5 
 1696000    0.9910509   -6.1316536    729.63541  0.035850796  0.036038527            6 
 1697000   0.95215772   -6.0843008    729.29045  0.035812731  0.036029697            7 
 1698000   0.98239712   -6.1478623    727.62851  0.035710076  0.036020938            5 
 1699000   0.97609143   -6.0648622    732.58349  0.035932092  0.036012251            4 
 1700000   0.98597049   -6.0629681    731.62196  0.035863822  0.036003522            4 
 1701000   0.96960632   -6.1164382    729.49037  0.035738309  0.035994775            3 
 1702000   0.98464465   -6.1172215    729.47199  0.035716411  0.035986081            4 
 1703000    1.0019711   -6.1180166    729.33884  0.035688923  0.035977528            6 
 1704000   0.98309607   -6.1303831    731.12048   0.03575511  0.035968912            8 
 1705000   0.98934552   -6.0655175    732.18715  0.035786273   0.03596039            3 
 1706000   0.98435083   -6.1143872    731.71481  0.035742224    0.0359517            3 
 1707000   0.98333413   -6.0951079    731.85357  0.035728059  0.035943138            9 
 1708000   0.97031062   -6.0636223    735.67892   0.03589378  0.035934556            2 
 1709000   0.99562354   -6.1038904    733.15388  0.035749653  0.035926133            4 
 1710000   0.98358732   -6.1347962     732.5653  0.035700063  0.035917494            4 
 1711000   0.97758646   -6.1170224    735.14702   0.03580494  0.035908906            5 
 1712000   0.98264493   -6.1091411    732.66553  0.035663237  0.035900328            8 
 1713000   0.97985438   -6.0972583    735.69059  0.035789579  0.035891812            5 
 1714000   0.97204207   -6.1283346    734.32965   0.03570253  0.035883551            2 
 1715000   0.98814763   -6.1470094    733.07576  0.035620785  0.035874918            3 
 1716000   0.97757285   -6.1473763     735.7655  0.035730648   0.03586653            5 
 1717000     1.003268   -6.1059537    736.74045  0.035757156  0.035858249            4 
 1718000   0.97690114     -6.14297    735.47535  0.035674978  0.035849903            7 
 1719000   0.99199804   -6.0936765    734.87136  0.035624945  0.035841601            5 
 1720000   0.99291465   -6.1198579    737.72808  0.035742639  0.035833236            3 
 1721000   0.97876117   -6.1212322    740.23389  0.035843206  0.035825013            3 
 1722000   0.96406036   -6.1291138    741.03053  0.035860943  0.035816721            8 
 1723000    0.9725154   -6.1154017    735.59846  0.035577407  0.035808398            7 
 1724000   0.97668981   -6.1141173    739.21663  0.035731662  0.035800154            2 
 1725000   0.98523774   -6.1629898    738.45971  0.035674382  0.035791901            8 
 1726000   0.98309752   -6.1129904    739.61604  0.035709542  0.035783614            6 
 1727000    0.9806961   -6.0830904    742.71878  0.035838582  0.035775484            3 
 1728000   0.96108445   -6.1286014    737.59786  0.035570884  0.035767117            6 
 1729000   0.98417728   -6.1184255    739.75339  0.035654202   0.03575879            3 
 1730000   0.97114138   -6.1354777    739.12786  0.035603461  0.035750347            5 
 1731000   0.97333305   -6.1386672    737.89218  0.035523406  0.035741844            4 
 1732000   0.99102867   -6.1334486    737.81057  0.035498969  0.035733393           11 
 1733000   0.96991655   -6.1499509    737.21911  0.035450044  0.035724924            5 
 1734000   0.96095976   -6.1424374    740.33144  0.035579173  0.035716263            2 
 1735000   0.95423405   -6.1283319    738.65244  0.035478023  0.035707772            4 
 1736000   0.96389149   -6.1561311    738.38479  0.035444738  0.035699424            5 
 1737000   0.95829466   -6.1179044    741.71357  0.035584032  0.035690941            4 
 1738000   0.96990155   -6.1539231    739.14203  0.035440258  0.035682435            9 
 1739000   0.98243106   -6.1127783    741.78036  0.035546308   0.03567407            5 
 1740000   0.97781595   -6.1465593    738.64888  0.035375904   0.03566563            3 
 1741000   0.97379785   -6.1163889    739.79907  0.035410639  0.035656926            4 
 1742000   0.98469666   -6.1178753    740.47717   0.03542275  0.035648277            7 
 1743000   0.96171105   -6.1149164    742.51933  0.035500064   0.03563962            3 
 1744000   0.95790755   -6.0946885     744.3861  0.035568908  0.035631005            3 
 1745000   0.99541871     -6.14828    740.96641  0.035385215  0.035622472            4 
 1746000   0.97757051   -6.1502903    741.62321  0.035396297  0.035613739            6 
 1747000   0.98071007   -6.1257535    741.90122  0.035389297  0.035605124            9 
 1748000   0.97404871   -6.1393739    742.49044  0.035397141  0.035596409            2 
 1749000   0.97947741   -6.1550302    742.19576  0.035362862  0.035587878            5 
 1750000   0.94834604   -6.1004037    744.93226  0.035472965  0.035579235            5 
 1751000   0.98028256   -6.1352516    740.82955   0.03525745  0.035570651            3 
 1752000   0.97586616   -6.1122678     744.5486  0.035414222   0.03556196            5 
 1753000   0.96007152   -6.1198156    744.70947  0.035401667   0.03555327            7 
 1754000    0.9828655   -6.1118478     744.9101  0.035391016  0.035544557            3 
 1755000   0.97762881   -6.1202015    744.86624  0.035368767  0.035535816            4 
 1756000    0.9753217   -6.1393226    742.46105  0.035234484  0.035527032            4 
 1757000   0.94691587   -6.1536209    742.88443  0.035234511  0.035518214            3 
 1758000   0.97884439   -6.1186857    744.03366  0.035268945  0.035509458            6 
 1759000   0.96605245   -6.1342704     742.4419  0.035173484  0.035500832            4 
 1760000   0.98066072    -6.143182    744.39308  0.035245885  0.035492147            5 
 1761000   0.97047404   -6.1342892    744.56168  0.035233848  0.035483479            4 
 1762000   0.96095403   -6.1302609    744.56323  0.035213925  0.035474629            3 
 1763000   0.94810233   -6.1024764    746.91022  0.035304888  0.035465917            7 
 1764000    1.0004901   -6.1057343     746.5899  0.035269742  0.035457271            9 
 1765000   0.97334904   -6.1457218    744.18079  0.035136015  0.035448551            4 
 1766000   0.94547171    -6.144418    745.67333  0.035186548  0.035439711            8 
 1767000   0.96617876   -6.1423457     744.8328  0.035126995  0.035430882            7 
 1768000   0.95817239   -6.1418657    746.66327  0.035193405  0.035421999            5 
 1769000   0.96880903   -6.1208525     748.4907  0.035259596  0.035413253           17 
 1770000   0.95431391    -6.128407    750.26613  0.035323264  0.035404509            3 
 1771000   0.96241803   -6.1185584    748.24109  0.035208032  0.035395946            5 
 1772000   0.97596701   -6.1599116    749.14525  0.035230683  0.035387402            4 
 1773000    0.9732925   -6.1256173    748.01048  0.035157477  0.035378758            4 
 1774000   0.95616749   -6.1375911    750.35002  0.035247558  0.035370101            6 
 1775000   0.96302079   -6.1365097    750.14918  0.035218271  0.035361544            4 
 1776000   0.97409861   -6.1259175    751.35665  0.035255098  0.035353035            4 
 1777000   0.97154848    -6.128349    750.83597  0.035210841  0.035344597            6 
 1778000     0.983688   -6.1211663    751.22003  0.035209038  0.035336033            6 
 1779000   0.96359571   -6.1029579    750.23356  0.035143037  0.035327291            8 
 1780000   0.97116713   -6.1317105     750.7513  0.035147533  0.035318513            2 
 1781000   0.97171893   -6.1739982    750.39192  0.035110982  0.035309734           10 
 1782000   0.98029269   -6.1558623    750.97563  0.035118576  0.035300959            3 
 1783000   0.94922393   -6.1400557    751.23739  0.035111114  0.035292326            7 
 1784000   0.95554656   -6.1256891    751.76982  0.035116303  0.035283602            4 
 1785000   0.97980531   -6.1677494    749.93069   0.03501077  0.035274855            7 
 1786000   0.99477478   -6.1548604    749.80499  0.034985302  0.035266239            6 
 1787000   0.97328794   -6.1356333    751.16226  0.035029018  0.035257464            5 
 1788000    0.9766416   -6.1309114    753.45549  0.035116307  0.035248688            7 
 1789000   0.95462589   -6.1055637    751.71885  0.035015784  0.035240075            5 
 1790000   0.97966945   -6.1990247    753.47437   0.03507795  0.035231152            6 
 1791000   0.96645889   -6.1358864    753.05116  0.035038673   0.03522242            8 
 1792000   0.95463585   -6.1572496    751.65169   0.03495404  0.035213671            5 
 1793000   0.95935114   -6.1387779    754.76589  0.035079285  0.035204974            5 
 1794000   0.97763776   -6.1725386    753.63079  0.035007004  0.035196296            4 
 1795000   0.96053983   -6.1453301    751.39286  0.034883606  0.035187626            4 
 1796000   0.96546864    -6.140413    754.59991  0.035012988  0.035179039            5 
 1797000   0.95325263   -6.1589771     753.5112  0.034943016  0.035170474            7 
 1798000   0.94847399   -6.1656843      752.894  0.034894976  0.035161686            8 
 1799000   0.95456165   -6.1459048     752.9858  0.034879831  0.035153019            5 
 1800000    1.0055894    -6.138661    755.38914  0.034971719  0.035144307            3 
 1801000   0.98335475   -6.1366004    757.16149  0.035034309  0.035135761            3 
 1802000   0.96982132   -6.1144789    757.50906  0.035030941  0.035127147            3 
 1803000   0.96475296   -6.1258262     756.4663  0.034963316  0.035118678            3 
 1804000   0.96981804   -6.1678042    757.10918  0.034973632  0.035110065            2 
 1805000   0.97751162   -6.1186785    757.30631  0.034963357  0.035101416            6 
 1806000   0.96822051   -6.1742688    755.42677  0.034857271  0.035092669            5 
 1807000   0.96548332    -6.135267    757.29467  0.034924122  0.035083774            4 
 1808000   0.98015361    -6.139018    757.89232  0.034932352  0.035074986            5 
 1809000   0.98800682    -6.176101    756.92505  0.034868484  0.035066194            4 
 1810000   0.98611608   -6.1716514    757.92538  0.034895275  0.035057514            6 
 1811000   0.94509977   -6.1746167    756.16562  0.034795031  0.035048878            3 
 1812000   0.98118802    -6.168015    756.10374  0.034772983  0.035040191           13 
 1813000   0.98161817   -6.1859326    756.20588  0.034758498  0.035031605            7 
 1814000   0.96125793   -6.2017363      756.154  0.034736954  0.035022697            7 
 1815000   0.96881177   -6.1399332    759.11674  0.034853845  0.035013679            7 
 1816000   0.96606249   -6.1403223    758.46203  0.034804609  0.035004952            2 
 1817000   0.97780936   -6.1517222    758.30542  0.034778271  0.034996124            2 
 1818000   0.96827279   -6.1858644    758.76483  0.034780199  0.034987397            3 
 1819000   0.98865825   -6.1705362    759.30144  0.034785663  0.034978767            4 
 1820000   0.94007046   -6.1917171    758.10624  0.034711824  0.034969987            4 
 1821000   0.96371927   -6.1751725    757.25038  0.034653596  0.034961158            2 
 1822000   0.96908431   -6.1772556    759.58718  0.034741455  0.034952273            2 
 1823000   0.94137311   -6.1357055      758.756  0.034684403  0.034943491            5 
 1824000   0.97008748   -6.1561272     758.7026  0.034662948   0.03493467            5 
 1825000   0.97951471   -6.1642268    758.64659  0.034641397  0.034925884            5 
 1826000   0.95893525   -6.1937282    758.57843  0.034619315  0.034916864            5 
 1827000   0.96680004   -6.1404433    763.40141  0.034820353  0.034907982            4 
 1828000    0.9347026   -6.1335761    761.05585  0.034694377  0.034899431            5 
 1829000   0.96371585   -6.1796936    764.47028  0.034830977  0.034890799            3 
 1830000   0.95227426   -6.1530461    762.08132  0.034703156  0.034882154            4 
 1831000   0.97089567   -6.1725849    762.41427  0.034699357  0.034873441            3 
 1832000   0.95064441   -6.1707571    759.05711  0.034527707  0.034864779            3 
 1833000   0.96841616   -6.1343306    764.83482  0.034771541  0.034856114           12 
 1834000   0.99848245   -6.1530908     764.1645  0.034722124  0.034847488            4 
 1835000   0.94519908   -6.1765598    761.84381  0.034597812  0.034838718            3 
 1836000   0.96005427   -6.1312654    765.09464  0.034726518  0.034829992            9 
 1837000   0.98736477   -6.1554222    764.06224   0.03466078  0.034821317            3 
 1838000     0.941369   -6.1321878    763.94503  0.034636608  0.034812674            2 
 1839000   0.96616169    -6.170043    764.58185  0.034646631  0.034804034            5 
 1840000   0.96684094   -6.1580663     764.9771  0.034645702   0.03479527            4 
 1841000   0.93465639   -6.1259232     765.7806  0.034663254  0.034786639            5 
 1842000   0.95290042   -6.1613602    764.94157  0.034606477  0.034778023            4 
 1843000   0.96230269   -6.1263964    764.42486  0.034564336  0.034769478            3 
 1844000   0.93404303   -6.1334893    767.11916  0.034667352  0.034760902            2 
 1845000   0.96390027   -6.1428819    766.93895  0.034640422   0.03475218            6 
 1846000   0.95407816   -6.1503059    766.82558  0.034616539  0.034743464            3 
 1847000    0.9596407   -6.1175571    768.24642  0.034661903  0.034734973            5 
 1848000   0.96053794   -6.1646053    766.46979  0.034563032  0.034726268            9 
 1849000   0.92850935   -6.1657974    766.44085  0.034543034  0.034717464            2 
 1850000   0.96334974   -6.1534677    765.64119  0.034488342  0.034708678            6 
 1851000   0.96189071   -6.1972665    765.90128  0.034481419  0.034699861            4 
 1852000   0.94678238   -6.1877844    767.38684  0.034529646  0.034691168            5 
 1853000   0.97146623   -6.1722555    768.67216  0.034568815  0.034682351            6 
 1854000   0.97101755   -6.1421734    766.77428  0.034464863   0.03467368            2 
 1855000   0.95566272   -6.1833432    767.13262  0.034462382  0.034665099            8 
 1856000   0.95162134   -6.1633566    766.70274  0.034424512  0.034656399            4 
 1857000   0.95242297   -6.1384663    769.82797   0.03454622  0.034647754            2 
 1858000   0.95776692   -6.1479821    768.94531  0.034488039  0.034639183            6 
 1859000   0.97478735   -6.1759987    768.05444  0.034429552  0.034630432            4 
 1860000   0.94533823   -6.2062042    768.19984  0.034417556  0.034621713            8 
 1861000   0.97293046   -6.1844821     768.3829  0.034407259  0.034612956            8 
 1862000   0.98562663   -6.1779491    767.11288  0.034331941  0.034604168            4 
 1863000   0.96272119   -6.1914631    767.12064  0.034313859  0.034595269            4 
 1864000   0.96477184    -6.127888    770.76739  0.034458485  0.034586553            9 
 1865000   0.94629792    -6.158208    768.24309  0.034327216  0.034577852            3 
 1866000   0.96169823   -6.1780648    772.03696  0.034478249  0.034569068            6 
 1867000   0.93367172   -6.1368093    772.09705  0.034462464  0.034560453            4 
 1868000   0.94936991    -6.177457    770.20387  0.034359559  0.034551705            4 
 1869000   0.94440415   -6.2028189    769.24634  0.034298481  0.034542991            8 
 1870000   0.95054679    -6.165098    769.46388  0.034289834  0.034534401            3 
 1871000   0.95108354   -6.1325769    771.59659  0.034366497  0.034525688            3 
 1872000   0.95622486   -6.1750668    769.55649  0.034257323  0.034517065            4 
 1873000   0.95392673   -6.1808961    771.33333  0.034318087  0.034508211            3 
 1874000   0.92359936   -6.1764256    769.26246  0.034207687  0.034499195            2 
 1875000   0.94685084   -6.1871595    769.34956  0.034193314  0.034490166            6 
 1876000   0.95889716   -6.1829609    767.16679  0.034078127  0.034481069            3 
 1877000   0.96041602   -6.1310099    770.30559  0.034199325  0.034472137            4 
 1878000   0.94480109   -6.1999548    770.37881  0.034184363  0.034463195            6 
 1879000   0.94435093   -6.1554075    772.82429  0.034274627   0.03445427            4 
 1880000   0.96068278   -6.2018254    770.78453  0.034165981  0.034445435            4 
 1881000   0.95050826   -6.2093416    769.44531  0.034088486  0.034436517            5 
 1882000   0.96539761   -6.1722811    771.57453  0.034164653  0.034427648            3 
 1883000   0.95150155   -6.1671883    771.00153  0.034121151  0.034418881            4 
 1884000   0.95331643   -6.1530646    776.05332  0.034326492  0.034410093            5 
 1885000    0.9468716   -6.1957794    774.92628  0.034258456  0.034401319            6 
 1886000   0.94902615    -6.159027    774.58681  0.034225292  0.034392492            6 
 1887000   0.92929895   -6.1814035     774.0525  0.034183559  0.034383816            4 
 1888000   0.95225151   -6.2008791    771.34182  0.034045808  0.034375062            6 
 1889000   0.94463027   -6.1789046    774.47473  0.034165993  0.034366057            9 
 1890000   0.96918973   -6.1920322    773.14631  0.034089343  0.034357131            4 
 1891000   0.95197011   -6.1918421    774.10309   0.03411348  0.034348221           11 
 1892000   0.95733172   -6.1854105    773.06017  0.034049514  0.034339369            6 
 1893000   0.93828367   -6.1989084     774.5862  0.034098706  0.034330404            7 
 1894000   0.95279641   -6.1986148    772.09737  0.033971197  0.034321488            4 
 1895000    0.9611086   -6.1721763    775.88323  0.034119755  0.034312629            3 
 1896000   0.95082634   -6.2131453    774.17234  0.034026562  0.034303744            3 
 1897000   0.97076565   -6.2069414    774.79637  0.034036038  0.034294751            3 
 1898000   0.94685566   -6.1790229     775.5052  0.034049227  0.034285959            8 
 1899000   0.94263865   -6.1752958    775.83005  0.034045553  0.034277195            9 
 1900000   0.92455305   -6.1827768    775.24101  0.034001799  0.034268345            2 
 1901000    0.9376183   -6.2077057    776.27754   0.03402935   0.03425944            5 
 1902000   0.94757749   -6.1788575    778.53532   0.03411038  0.034250638            3 
 1903000   0.92698134   -6.2080105    777.33992  0.034040109  0.034241796            5 
 1904000   0.97306714   -6.1684975    779.28019  0.034107151  0.034232954            5 
 1905000   0.98660142   -6.1820424    779.14332   0.03408326  0.034224103            5 
 1906000   0.95097333   -6.1953476    776.98353  0.033970948  0.034215172           10 
 1907000    0.9757339   -6.1909019    777.34537  0.033968946   0.03420622            5 
 1908000   0.92427495   -6.1849274    778.19729  0.033988351  0.034197261            7 
 1909000   0.96293986   -6.1716176    779.28402  0.034017986  0.034188352            4 
 1910000   0.95008863   -6.1828666    779.63271  0.034015389  0.034179569            7 
 1911000   0.95752605   -6.1759702    778.92785  0.033966852  0.034170666            7 
 1912000   0.93395062   -6.2003245     778.4403  0.033927837  0.034161775            4 
 1913000   0.94492312   -6.1794745    779.95714  0.033976178  0.034152979            6 
 1914000   0.92446361   -6.1976498    779.43443  0.033935668  0.034143993            3 
 1915000   0.93423584   -6.2079092    778.63176  0.033883018  0.034135018           10 
 1916000   0.96154962   -6.1905615    779.53908  0.033904796  0.034126229            8 
 1917000   0.94403947    -6.149868    781.29658   0.03396351  0.034117402            4 
 1918000   0.94023415    -6.213106     777.5857  0.033784572  0.034108617            9 
 1919000   0.94678318   -6.1968715    782.83662  0.033994989  0.034099822            3 
 1920000   0.95246978   -6.2209759    780.57942  0.033879315  0.034091021            4 
 1921000   0.94739031   -6.2104531    782.39855  0.033940593  0.034082357            4 
 1922000    0.9303789   -6.2282647     782.0548   0.03390803  0.034073616            5 
 1923000   0.95650636   -6.2303926    778.83507   0.03375087  0.034064832            3 
 1924000   0.96098662   -6.2240162    782.57032  0.033895111  0.034056202            3 
 1925000   0.93500833   -6.1894192    783.85236  0.033933003  0.034047598            4 
 1926000   0.94325754   -6.1988678    782.21404  0.033844498  0.034038845           14 
 1927000   0.94511835   -6.2274279    781.62574  0.033801494  0.034029974            3 
 1928000   0.94534996   -6.2003416    783.98029  0.033885732  0.034021206            5 
 1929000   0.94436837   -6.2141224    783.67369   0.03385492  0.034012574            2 
 1930000   0.95413677   -6.1993619    783.16814   0.03381555  0.034003819            3 
 1931000   0.93522417   -6.1937474    785.83609  0.033913175    0.0339952            6 
 1932000   0.94898092   -6.1707663    786.72708  0.033934053  0.033986792            4 
 1933000   0.94250756   -6.1998391    785.98752  0.033884615  0.033978206            4 
 1934000   0.94140767   -6.1405944    789.07829  0.034000271  0.033969786            6 
 1935000   0.94105083   -6.2108145    785.13839  0.033813023  0.033961286           11 
 1936000   0.97086242   -6.2061742    787.24377  0.033886182    0.0339527            7 
 1937000    0.9386327   -6.1868186    787.47511   0.03387864  0.033944188            7 
 1938000   0.94970938   -6.2377211    786.60022  0.033823539  0.033935554            4 
 1939000   0.92850865   -6.2203245    785.89611  0.033775834  0.033926976            6 
 1940000   0.92094518   -6.2094246    787.17644  0.033813421  0.033918413            6 
 1941000   0.94222668   -6.2205454     783.9471  0.033657355  0.033909845            4 
 1942000   0.94857125    -6.217929     785.7351  0.033716748  0.033901225            5 
 1943000   0.94748456   -6.2260111    787.19536  0.033762024  0.033892715            2 
 1944000   0.94139622   -6.1914357     790.8402    0.0339009  0.033884224            5 
 1945000   0.94982789   -6.2373716    786.40136  0.033693289  0.033875789            6 
 1946000   0.93732242   -6.1853892    789.55983   0.03381123  0.033867394            8 
 1947000    0.9303999   -6.1978618    790.05364  0.033814999  0.033859166            3 
 1948000   0.93360731   -6.1925862    790.03693  0.033796925  0.033850715            4 
 1949000   0.93698728   -6.2002311    792.00516   0.03386374  0.033842372            8 
 1950000   0.94373931    -6.201206    787.32632  0.033646424  0.033834144            6 
 1951000   0.95031922   -6.2122621     788.6115  0.033684072  0.033825711            5 
 1952000   0.92540811   -6.2207267     788.4526  0.033660032  0.033817239            4 
 1953000   0.94334026   -6.2345631    789.83578  0.033701817  0.033808814            6 
 1954000   0.92631241    -6.203148    790.35518  0.033706721  0.033800365            6 
 1955000   0.93823279    -6.179676    793.61055  0.033828242  0.033792149            2 
 1956000   0.95997293   -6.2293199    789.40526  0.033631785  0.033783874            3 
 1957000   0.92843364   -6.2619273    790.73206  0.033671098  0.033775456            7 
 1958000   0.91919683   -6.2399024    791.99129  0.033707495  0.033766961            3 
 1959000   0.91780602   -6.1979962    793.27052  0.033744705  0.033758622            3 
 1960000   0.94688404   -6.2458241    790.29253  0.033600873  0.033750335            4 
 1961000   0.94511711   -6.2118272     792.9163  0.033695236  0.033742083            5 
 1962000   0.95427121   -6.1886471    794.11645  0.033729037  0.033733791            6 
 1963000   0.96605927   -6.2559221    794.42923  0.033725133  0.033725544            5 
 1964000   0.94522915    -6.201503    795.50679  0.033753683  0.033717379            2 
 1965000   0.97395928    -6.229937    794.58233    0.0336973  0.033709198            6 
 1966000      0.93677   -6.2062469    794.19321  0.033663666  0.033700871            6 
 1967000   0.93884536   -6.2010334    795.60917   0.03370654  0.033692554            6 
 1968000   0.94177931   -6.1949665    796.24387  0.033716289  0.033684311            5 
 1969000    0.9388228   -6.1648385    797.49716  0.033752207  0.033676008            5 
 1970000   0.91292112   -6.1751612     798.3424  0.033770829  0.033667811            8 
 1971000   0.92881839   -6.1846705    795.18521   0.03362021   0.03365958            4 
 1972000   0.94727165   -6.1981675    796.75867  0.033669653  0.033651238            8 
 1973000   0.93848596    -6.226095       795.14   0.03358422  0.033642846            4 
 1974000    0.9274661    -6.197973    795.46164  0.033580785  0.033634558            5 
 1975000    0.9515195   -6.2395688    795.19831  0.033552671  0.033626056            5 
 1976000    0.9388104   -6.2214248    794.38005  0.033501183  0.033617633            3 
 1977000   0.94194109   -6.2357175    790.35135  0.033314422  0.033609091            5 
 1978000   0.93069706   -6.2226152    796.98061  0.033576871  0.033600535            8 
 1979000   0.92780342   -6.1798015    798.71181  0.033632803  0.033592076            2 
 1980000   0.94248198   -6.1923998    796.24369   0.03351194  0.033583668            6 
 1981000   0.94343173   -6.2008849    797.53274  0.033549249  0.033575344            5 
 1982000   0.94499296   -6.2151373    794.26313  0.033394851  0.033566937            6 
 1983000   0.91544723   -6.2334518    796.42136  0.033468708  0.033558397            3 
 1984000    0.9118307    -6.229163    795.84881  0.033427789  0.033549859            6 
 1985000   0.91760331   -6.2120707    796.44031  0.033435781   0.03354124            2 
 1986000   0.91766624   -6.2295013    795.62917   0.03338491  0.033532685            4 
 1987000   0.94501926   -6.2417138    796.74851  0.033415052  0.033524225            7 
 1988000   0.92630227   -6.2412279    794.84262  0.033318353  0.033515546            8 
 1989000   0.94267122   -6.1860066    796.42956  0.033368089  0.033506987            4 
 1990000   0.92676897   -6.2049074    797.16149  0.033381972   0.03349842            3 
 1991000   0.93105297    -6.235824    795.59338  0.033299572  0.033489797            3 
 1992000   0.94312908   -6.1982622    796.49361  0.033320516  0.033481312            4 
 1993000   0.92340058   -6.2577023    796.44224  0.033301649  0.033472881            6 
 1994000   0.92152543   -6.2340628    797.37748  0.033324034   0.03346436            6 
 1995000   0.92608956   -6.2300645    797.94365   0.03333098  0.033455752            3 
 1996000   0.93841024   -6.2153778    798.31925  0.033329962  0.033447183            5 
 1997000   0.92484577   -6.2409023    799.59648   0.03336657  0.033438595            7 
 1998000   0.93649709    -6.230566    799.45793  0.033344091  0.033430118            4 
 1999000   0.91918302   -6.2183775    799.86351  0.033344318  0.033421527            5 
 2000000   0.90732488   -6.2318389    800.32723  0.033346968  0.033413061            5 
 2001000   0.91432489    -6.250889    800.02725   0.03331781  0.033404593            7 
 2002000    0.9572391   -6.2507732    797.09632  0.033179167  0.033396119           11 
 2003000   0.93873128    -6.246655    800.43396  0.033301463  0.033387578            5 
 2004000   0.94770849   -6.2467768    797.99994   0.03318363  0.033379084            3 
 2005000   0.92749892   -6.2216511    799.85874  0.033244337  0.033370561           13 
 2006000   0.92830495   -6.2397608    801.81322  0.033308957  0.033361991            6 
 2007000   0.94101676   -6.2488794    800.84283  0.033252069   0.03335355            8 
 2008000   0.93322896   -6.2368572    798.47581  0.033137276  0.033345183            4 
 2009000   0.91480501   -6.2442047    799.73687  0.033173091   0.03333679            6 
 2010000   0.92079069   -6.2273805    801.56537  0.033232395  0.033328332            7 
 2011000   0.93643601   -6.2273721    803.20821  0.033283947   0.03332005            5 
 2012000   0.93530267   -6.2057855    802.55241  0.033240242  0.033311717            6 
 2013000   0.95925489   -6.1992494    805.21375  0.033333903   0.03330351            3 
 2014000   0.91665823   -6.2547138    801.85447  0.033178354    0.0332953            9 
 2015000   0.91722091   -6.2426454    800.32111  0.033098475  0.033286883            6 
 2016000   0.92981341   -6.2506849    803.88641  0.033229432  0.033278453            8 
 2017000   0.91508327   -6.2422548    802.40704  0.033151836  0.033270082            5 
 2018000   0.92224808   -6.2261079    803.42145  0.033177298  0.033261762            6 
 2019000   0.94035744   -6.1948462    804.06658  0.033187493  0.033253408            9 
 2020000   0.94078082   -6.2658728    804.41391  0.033185392  0.033245123            4 
 2021000   0.93469029    -6.263226    802.44918  0.033087959  0.033236721           11 
 2022000   0.93821558   -6.2572672    803.23271  0.033103887   0.03322825            7 
 2023000   0.92885214   -6.2095601    806.38417  0.033217341  0.033220018            6 
 2024000   0.89993146   -6.2183816    805.17207  0.033151024  0.033211977            3 
 2025000   0.94001376   -6.2326848    805.54988  0.033150201  0.033203681            2 
 2026000   0.93764464   -6.2366017    803.65609  0.033055943  0.033195394            6 
 2027000   0.93693346   -6.2359886    806.24992  0.033146272  0.033187053            4 
 2028000   0.92688436   -6.2457776    808.93747  0.033240363  0.033178816            4 
 2029000    0.9364826   -6.2570125    806.83638  0.033137686  0.033170643            4 
 2030000   0.91648347   -6.2398107    807.39928  0.033144469  0.033162389            9 
 2031000   0.90981285   -6.2593742    805.46634   0.03304884  0.033154016            2 
 2032000   0.91878613   -6.2844038    804.68307  0.033000454  0.033145581           12 
 2033000   0.91648738   -6.2514535    807.13003  0.033084523  0.033137211            3 
 2034000   0.93196999   -6.2293974    809.82696  0.033178751  0.033128987            8 
 2035000   0.91688085   -6.2214998    812.13121  0.033256806  0.033120749            5 
 2036000   0.91431765   -6.2341969    809.18136  0.033119735  0.033112519            9 
 2037000   0.91510056   -6.2461332     807.9469  0.033052974  0.033104247            3 
 2038000   0.90591008   -6.2128338    809.75256  0.033110589  0.033095956            6 
 2039000   0.90270828   -6.2163475    808.63523  0.033048685  0.033087574            3 
 2040000   0.93797747   -6.2059078    809.99318  0.033087957  0.033079401            5 
 2041000   0.94976706   -6.2657613    810.58876  0.033096062  0.033071263            6 
 2042000   0.93433244   -6.2236137    809.55581  0.033037701  0.033063137            4 
 2043000   0.94300856   -6.2411845    810.73859  0.033069775  0.033054864            4 
 2044000   0.91649144   -6.2413842    808.19032  0.032949703  0.033046525            5 
 2045000   0.94107966   -6.2523829     810.5033  0.033027844  0.033038357            5 
 2046000   0.91970409   -6.2677498    809.67199  0.032977843  0.033030138            6 
 2047000   0.92521329   -6.2271659     811.3891  0.033031636   0.03302198            9 
 2048000   0.90634501   -6.2517779    812.92404  0.033077964  0.033013891            6 
 2049000   0.94301818   -6.2211907       814.66  0.033132422  0.033005817            3 
 2050000   0.91167369   -6.2420003    815.17665  0.033137262  0.032997778            3 
 2051000   0.92052731   -6.2438986    813.54267  0.033054716  0.032989671            5 
 2052000   0.93459164    -6.244989    813.65454  0.033043151   0.03298165            4 
 2053000   0.92168103   -6.2380687    813.05618  0.033002767  0.032973583            8 
 2054000   0.91789228    -6.214478    813.35154  0.032998683  0.032965765            4 
 2055000     0.918952   -6.2485051    814.04162  0.033010609  0.032957976            2 
 2056000   0.91992377   -6.2648128    813.74537  0.032982546  0.032949943            7 
 2057000    0.9219021   -6.2507993    815.19008   0.03302504  0.032941935            7 
 2058000   0.93028169   -6.2492903    816.89867  0.033078177   0.03293397            6 
 2059000   0.93915141    -6.255076    814.70881  0.032973483  0.032925947            3 
 2060000   0.93162775   -6.2755128    816.38101  0.033025122  0.032917807            7 
 2061000   0.92313741   -6.2913503    815.72985  0.032982769  0.032909717            3 
 2062000   0.91642444   -6.2396463    816.50427  0.032998071  0.032901668            4 
 2063000   0.92259748   -6.2234997    817.35476  0.033016431  0.032893787            3 
 2064000   0.92482178   -6.2326476    818.48757  0.033046171  0.032885966            9 
 2065000   0.90061523   -6.2465697    815.74848  0.032919632  0.032877969            4 
 2066000   0.92631571   -6.2462904     818.2209  0.033003425  0.032869997            5 
 2067000    0.9430608   -6.2935233    816.17999  0.032905176  0.032861986           16 
 2068000   0.92915116   -6.2341741     818.5014  0.032982809  0.032854082            2 
 2069000   0.92111821   -6.2593436    817.33187  0.032919763  0.032846159            5 
 2070000   0.93800137   -6.2403539    818.89959  0.032966972  0.032838172            9 
 2071000   0.90718707   -6.2519442    820.14864  0.033001313  0.032830214            3 
 2072000   0.91996105   -6.2800054    819.63245  0.032964625  0.032822334           10 
 2073000   0.92206021     -6.25799    818.89164  0.032918943   0.03281443           10 
 2074000    0.9277436   -6.2832356    817.13413  0.032832455   0.03280644            4 
 2075000   0.91718745   -6.2321133    821.39771   0.03298786  0.032798446            3 
 2076000   0.90557021   -6.2626898     818.3527  0.032849739  0.032790524            4 
 2077000   0.92729618   -6.2547002    818.51545  0.032840453  0.032782718            4 
 2078000   0.90053041   -6.2583547    818.59928  0.032828011  0.032774856           18 
 2079000   0.92415626   -6.2753972    819.99886  0.032868321  0.032766974            6 
 2080000    0.9077092    -6.252664    823.01984  0.032973551  0.032759209            9 
 2081000   0.91758733   -6.2727578    820.15871  0.032843133  0.032751392           12 
 2082000   0.91317659   -6.2346078    822.75262  0.032931181  0.032743626            4 
 2083000   0.91476531   -6.2393835    822.41268  0.032901771  0.032735929            5 
 2084000   0.94846002   -6.2607962    820.99188   0.03282917  0.032728225            2 
 2085000   0.92309151   -6.2857455     821.2059  0.032821979  0.032720404            8 
 2086000   0.90647544   -6.2553966    821.60864  0.032822333  0.032712459            8 
 2087000    0.9203671   -6.2921023    822.03094  0.032823468  0.032704614            5 
 2088000   0.90926646   -6.2587419    821.57167  0.032789419  0.032696801            4 
 2089000   0.92232745   -6.2894062    822.33488  0.032804168  0.032688855            5 
 2090000   0.93290659   -6.2715654    820.62646  0.032720353  0.032681017            6 
 2091000   0.91420207   -6.2775211    822.64275  0.032785061  0.032673069            6 
 2092000   0.90512406   -6.2975371    823.54881  0.032805482  0.032665202            2 
 2093000   0.91638386   -6.2688461    823.79302  0.032799531  0.032657308            6 
 2094000   0.91673802   -6.2630848    824.52516  0.032813004  0.032649381            6 
 2095000   0.90270035   -6.2801489    824.22522   0.03278541  0.032641446           20 
 2096000   0.91376733   -6.2824983    823.65021  0.032746907  0.032633426            5 
 2097000   0.89417381   -6.3039206    819.82214  0.032579166  0.032625462            3 
 2098000    0.9286453   -6.2617713    823.26002  0.032700191  0.032617474            3 
 2099000    0.9101507   -6.2571091    826.04622  0.032795229  0.032609642            4 
 2100000   0.92122558   -6.2608569    825.80295  0.032769958  0.032601824            3 
 2101000   0.92931936   -6.2140913    826.49537  0.032781825  0.032593954            6 
 2102000   0.92927616   -6.2516381    825.25919  0.032717221  0.032586068            6 
 2103000   0.91547713   -6.2462643     824.2467  0.032661543  0.032578218            4 
 2104000   0.93743913   -6.2623648    824.15751  0.032642487  0.032570323            6 
 2105000    0.9198291    -6.278699    824.70537  0.032648669  0.032562399            2 
 2106000   0.90061524   -6.2297716    826.64701  0.032709996  0.032554447            4 
 2107000   0.91701417   -6.2286823    827.14999  0.032714364  0.032546627            5 
 2108000   0.92693869   -6.2641909    826.87458  0.032687958  0.032538721            6 
 2109000    0.9144323   -6.2778753    824.13921  0.032564375  0.032530729            4 
 2110000    0.8902326    -6.251362    826.62624  0.032647166  0.032522708            6 
 2111000    0.9093356   -6.2754921    825.68607  0.032594587  0.032514734            5 
 2112000   0.90254449   -6.2902025    822.74947  0.032463284  0.032506734            5 
 2113000   0.90638133   -6.2332418    824.58909  0.032520472  0.032498678            6 
 2114000   0.92030467    -6.258925    827.50803  0.032620153  0.032490729            5 
 2115000   0.90285905   -6.2694461    824.44717  0.032484128  0.032482628            4 
 2116000    0.9275342   -6.2696385    823.57732   0.03243452  0.032474589            3 
 2117000   0.90599948   -6.2770499    824.84276  0.032469011  0.032466507            2 
 2118000   0.91168901   -6.2887102    825.93697  0.032496733  0.032458388            7 
 2119000   0.91555363   -6.2597253    824.08623  0.032408614  0.032450314            4 
 2120000   0.92935748   -6.2657128    828.41829  0.032563612  0.032442241            9 
 2121000   0.92436857   -6.2352101    827.31631  0.032504963   0.03243422           12 
 2122000   0.91030429   -6.2799186     828.0153  0.032517095  0.032426127            3 
 2123000   0.91547867   -6.2769662    825.80767  0.032415123  0.032418101            4 
 2124000   0.89987083   -6.2634705    826.48608  0.032426478   0.03241011            2 
 2125000    0.9130418   -6.2260003    829.28893  0.032521135  0.032402119            5 
 2126000   0.88481066   -6.2380099    831.20273  0.032580853  0.032394151            4 
 2127000   0.91774411   -6.2840798    827.26756   0.03241136  0.032386026            8 
 2128000   0.93800824   -6.2692761    829.42078  0.032480451  0.032377969            3 
 2129000   0.90459553   -6.3044205    828.83269  0.032442175  0.032369886            6 
 2130000   0.90316216   -6.2726822    828.07925  0.032397467   0.03236178            7 
 2131000   0.90075749   -6.2988213    830.79982  0.032488652  0.032353747            5 
 2132000   0.88556209   -6.2641249     828.7051  0.032391538  0.032345623            4 
 2133000   0.91968344   -6.2752817    829.66079  0.032413689  0.032337532            5 
 2134000   0.93182961    -6.258662    827.04748   0.03229645  0.032329426            5 
 2135000   0.89419561   -6.2783055     829.7158  0.032385472   0.03232128            8 
 2136000   0.92098649   -6.3108837     824.9059  0.032182658  0.032313214            5 
 2137000   0.90583377   -6.2573806    829.90664  0.032362605  0.032305038            5 
 2138000   0.91727206   -6.2925034    827.88605  0.032268711  0.032296923            6 
 2139000   0.90476231   -6.2797971     828.1937  0.032265611  0.032288843            4 
 2140000   0.91925533   -6.2742821    828.04742  0.032244837  0.032280725            5 
 2141000   0.91277936   -6.3102703    828.10112  0.032231867  0.032272527            6 
 2142000   0.90077506    -6.294307    828.42146  0.032229282  0.032264294            6 
 2143000   0.91447724   -6.2965364     828.5176  0.032217981  0.032256096           12 
 2144000   0.87482259   -6.3137354    828.82037  0.032214722  0.032247872            9 
 2145000   0.89390439   -6.2729745    829.99741  0.032245432   0.03223974            5 
 2146000   0.92219595   -6.2850957    831.13984  0.032274768  0.032231527            7 
 2147000   0.89255086   -6.2987524    830.78105   0.03224581  0.032223297            8 
 2148000   0.91038717   -6.3060534    831.38585  0.032254262  0.032215072            5 
 2149000   0.90838157   -6.3276939    828.57114  0.032130105  0.032206881            9 
 2150000   0.92842951   -6.2908917    829.05146  0.032133778   0.03219871            5 
 2151000   0.90710793   -6.2615564    833.30541  0.032283644  0.032190535            4 
 2152000   0.91194012   -6.2900574    830.78522  0.032171051  0.032182372            7 
 2153000   0.92207831   -6.2882737    830.67456  0.032151825  0.032174266            4 
 2154000   0.90920931   -6.2804522    832.49612  0.032207371  0.032166135            5 
 2155000   0.91768385   -6.3013882    833.08368  0.032215146  0.032158034            3 
 2156000   0.89198146   -6.2647077     832.9363  0.032194508  0.032149966            5 
 2157000   0.88071261   -6.3075122    834.70982    0.0322481   0.03214194           18 
 2158000   0.89942228   -6.2968191    832.52674  0.032148854  0.032133807            7 
 2159000   0.91064903   -6.3167557     829.3385  0.032010904  0.032125483            4 
 2160000    0.9174265   -6.2973532    831.73519  0.032088549  0.032117187            3 
 2161000   0.89447904   -6.3276586     830.0445  0.032008503  0.032108893            6 
 2162000   0.88908873    -6.278888    832.77029  0.032098762  0.032100815            4 
 2163000   0.90649089   -6.2880207    832.07005  0.032056944  0.032092558           17 
 2164000   0.89921935   -6.2680071    834.20024  0.032124162  0.032084427            7 
 2165000   0.89658206   -6.3293452     832.2072   0.03203261  0.032076268            4 
 2166000   0.89185247   -6.2744754    833.03886  0.032049818   0.03206815           12 
 2167000   0.90776463   -6.3006727    835.47643  0.032128766  0.032060009            5 
 2168000   0.88927256    -6.250901    835.03038  0.032096801  0.032051846           20 
 2169000   0.90084988    -6.296119    836.39538  0.032134447  0.032043729           11 
 2170000   0.92533012   -6.3375297    834.98545  0.032065493  0.032035594            9 
 2171000    0.9008541   -6.2999989    834.08309  0.032016087  0.032027353            4 
 2172000    0.9068018    -6.275565    835.05059  0.032038467  0.032019237            5 
 2173000   0.90429799   -6.2880418    834.39768  0.031998684  0.032011061            2 
 2174000   0.91157018    -6.277719    837.50289  0.032102993  0.032003069            6 
 2175000   0.89033738   -6.2876066     838.1372  0.032112536  0.031995059            3 
 2176000   0.90201152   -6.2635069    840.50445  0.032188436  0.031987203            8 
 2177000   0.89110394   -6.3090142    837.50877  0.032058979  0.031979253            3 
 2178000   0.92671502   -6.2994996    837.21961  0.032033196  0.031971204            3 
 2179000   0.90970522   -6.3173882    836.61367  0.031995322  0.031963231            4 
 2180000   0.89411724   -6.2994395    836.78402  0.031987157   0.03195523            4 
 2181000   0.90667211   -6.2894746    837.38248  0.031995357  0.031947298            3 
 2182000   0.89834119   -6.2537145    838.48598  0.032022838  0.031939408            9 
 2183000   0.90350912   -6.2463809    841.69515  0.032130674  0.031931409            3 
 2184000   0.91893108   -6.2737299    839.49855  0.032032149  0.031923373            3 
 2185000   0.89824123   -6.3341067    835.77799  0.031875591  0.031915271            4 
 2186000   0.90592482   -6.2897459      838.469  0.031963594  0.031907154            5 
 2187000   0.89277239   -6.3435662    836.92008  0.031889959  0.031899056            5 
 2188000   0.88892429   -6.2858315    840.70511  0.032019543  0.031891024            6 
 2189000   0.90218896   -6.3052872    837.80338  0.031894449  0.031882895            3 
 2190000   0.90713331   -6.2944482    838.89404  0.031921387  0.031874709            6 
 2191000   0.89881021   -6.3169155    837.88638  0.031868491  0.031866577            4 
 2192000   0.91219471   -6.2760783    840.31207  0.031946171  0.031858611            4 
 2193000   0.89763789   -6.3181482    840.41479  0.031935506  0.031850732            8 
 2194000   0.91044155   -6.3430408    840.96325  0.031941782  0.031842701           12 
 2195000   0.91229074   -6.3122127    841.08776  0.031931958  0.031834679            3 
 2196000   0.90494644   -6.3174271    841.46329  0.031931667  0.031826625           11 
 2197000    0.8983146   -6.3149674     843.6555  0.032000284   0.03181864           10 
 2198000   0.90751072   -6.3150921    842.15474  0.031928827  0.031810669            6 
 2199000   0.89273721   -6.3047059    842.15453  0.031914299  0.031802775            4 
 2200000   0.89122447   -6.3285367    840.07438  0.031820999  0.031794779            4 
 2201000   0.88939839   -6.3127055    841.38669  0.031856228  0.031786826            6 
 2202000   0.89286117   -6.2890826      843.031  0.031903989  0.031778948           10 
 2203000   0.88863746   -6.2814709    843.49715   0.03190714  0.031771107            7 
 2204000    0.9073744   -6.3100715    843.51647  0.031893393  0.031763316            8 
 2205000   0.91510767   -6.2495377    844.52972  0.031917223  0.031755435            4 
 2206000   0.90120423   -6.3142835    840.59626  0.031754165  0.031747569            5 
 2207000   0.90429721   -6.3331453    842.82214  0.031823823  0.031739619            4 
 2208000   0.88869403   -6.3267069    844.43916  0.031870439  0.031731591            7 
 2209000   0.90724775   -6.3375037    841.13802  0.031731478  0.031723569            5 
 2210000   0.90365253   -6.3010791    843.73003  0.031814858  0.031715532            5 
 2211000   0.90513325   -6.3088896    844.75005  0.031838913  0.031707611            8 
 2212000   0.90764262   -6.3385704    843.15677  0.031764495  0.031699627           15 
 2213000   0.90849616    -6.323646    844.36204  0.031795528  0.031691765            2 
 2214000   0.91030742    -6.350782    843.27117  0.031740107  0.031683832            4 
 2215000   0.88242146   -6.3173813    843.41965  0.031731364   0.03167585           12 
 2216000   0.88592565   -6.3091482    844.14467  0.031744309   0.03166787            3 
 2217000    0.9096292   -6.3033532    846.72498   0.03182698   0.03166001            3 
 2218000    0.9078709   -6.2769304    845.37133  0.031761772  0.031652191            5 
 2219000   0.90591509   -6.3352212    844.23595   0.03170482  0.031644302            5 
 2220000   0.89739637   -6.2974147    846.90581  0.031790759  0.031636367            2 
 2221000   0.89045247   -6.3057687    847.74412  0.031807899  0.031628556            9 
 2222000   0.90548712   -6.3025522    845.98507  0.031727613  0.031620769           10 
 2223000    0.9064573   -6.3694913    843.46128  0.031618731  0.031612869            8 
 2224000    0.9066772   -6.3171427    845.36447  0.031675827  0.031604906            4 
 2225000   0.89273551   -6.3812191    843.51332  0.031592259  0.031596941            5 
 2226000     0.904909   -6.2969668    845.69869  0.031659879  0.031588915            6 
 2227000   0.90261307   -6.3175395    844.43168  0.031598252  0.031581022            7 
 2228000   0.88437559   -6.3069504    845.69474  0.031631311  0.031573042           10 
 2229000   0.91270172   -6.3358855    847.93346  0.031700817  0.031565159            5 
 2230000   0.89943103   -6.3357793    846.49454   0.03163283  0.031557231            4 
 2231000   0.89478379   -6.3564313    845.95153  0.031598369  0.031549265            5 
 2232000   0.89151818   -6.3417866    848.07835  0.031663618  0.031541409            8 
 2233000   0.88272769   -6.3420701    848.74275  0.031674233  0.031533486            5 
 2234000   0.89436942   -6.3214685     847.5894  0.031617032  0.031525612            3 
 2235000   0.89687799   -6.3057626    849.77385  0.031684335  0.031517797            4 
 2236000   0.88575516   -6.2973725    851.64262  0.031739811  0.031510176            5 
 2237000   0.88134699   -6.3314425    848.79317  0.031619474  0.031502412            4 
 2238000     0.905381   -6.2966795    852.43568  0.031740977  0.031494582            5 
 2239000   0.91386047   -6.3024255    850.80495  0.031666107  0.031486862            8 
 2240000    0.9012587   -6.2986673    853.73625  0.031761021  0.031479125            8 
 2241000   0.90712741   -6.3055024    852.50901  0.031701213  0.031471477            6 
 2242000   0.89162768   -6.3222136    848.08072  0.031522477  0.031463668            4 
 2243000   0.89957121   -6.3305295    849.20589  0.031550226  0.031455757            9 
 2244000   0.90155362    -6.347491    848.95118  0.031526708  0.031447945            8 
 2245000   0.88323972   -6.3570349    850.13817  0.031556725  0.031440179            4 
 2246000   0.89718019   -6.3320648     851.8026   0.03160443   0.03143233            3 
 2247000   0.90710518   -6.3424171    851.64877   0.03158466  0.031424435           10 
 2248000   0.90085516   -6.3704831    849.26139  0.031482109  0.031416584            6 
 2249000   0.90952373   -6.3563385    850.37657  0.031509433  0.031408701            6 
 2250000   0.89191081   -6.3561443    848.40201  0.031422297   0.03140079            3 
 2251000   0.88934319   -6.3185222    849.93509  0.031465093  0.031392833            2 
 2252000   0.88464935    -6.315903    855.60986  0.031661111  0.031385049            6 
 2253000   0.88671854   -6.3515376    850.13764  0.031444653  0.031377174            6 
 2254000   0.88297868   -6.3274735    852.96731  0.031535319  0.031369291           11 
 2255000    0.9128334   -6.3561105    850.72732  0.031438556  0.031361342            6 
 2256000   0.89770566   -6.3117012    854.17311  0.031551903  0.031353471            2 
 2257000   0.89743582   -6.3022725    853.10508  0.031498489  0.031345647            7 
 2258000   0.89087766   -6.3277192     852.3667  0.031457289  0.031337796            6 
 2259000   0.89258808   -6.3388384    852.39772  0.031444508  0.031329907           11 
 2260000   0.88651211   -6.3078314    850.53165  0.031361786  0.031321877            3 
 2261000   0.87842218   -6.2940888    852.28414  0.031412507  0.031314043            4 
 2262000   0.88673172   -6.3238334    852.02622  0.031389118  0.031306005           11 
 2263000   0.89252404   -6.3394899    850.34449  0.031313319  0.031297942            5 
 2264000   0.88831455   -6.3702281    852.01033  0.031360804  0.031289904            4 
 2265000   0.88942635   -6.3124115    854.29038  0.031430845  0.031281966           11 
 2266000   0.90412901   -6.3547259    850.98588   0.03129545   0.03127402            6 
 2267000    0.8632472   -6.3254026    855.37852  0.031443116  0.031266112            5 
 2268000   0.87751422   -6.3573469    850.19652  0.031238849  0.031258169            7 
 2269000   0.89191894   -6.3644922    850.30937  0.031229226  0.031250126            8 
 2270000   0.87889948   -6.3589822    853.95108  0.031349158  0.031242071            8 
 2271000   0.87471692   -6.3296808    854.85033  0.031368352  0.031234176            4 
 2272000   0.89009552    -6.375158     853.8896  0.031319307  0.031226257            6 
 2273000    0.9098671   -6.3477408    852.57128  0.031257196  0.031218344            7 
 2274000     0.877193   -6.3417222     855.0621   0.03133473  0.031210403            8 
 2275000   0.89885057   -6.3378311    856.15552  0.031361008   0.03120255            4 
 2276000   0.89910021   -6.3086743     855.5164  0.031323828  0.031194705            3 
 2277000   0.89564842   -6.3599244    855.60934  0.031313473  0.031186895            7 
 2278000   0.88621473   -6.3149814    858.91472  0.031420644  0.031179046            7 
 2279000   0.89044153   -6.3109042    857.14243  0.031342052  0.031171273           10 
 2280000   0.87797619   -6.4011802    854.23021  0.031221864  0.031163458            3 
 2281000    0.8730884   -6.3345333    855.78236  0.031264882  0.031155525            4 
 2282000   0.89968115   -6.3426909    855.84041  0.031253302  0.031147625            3 
 2283000    0.8975282   -6.3658474    857.09796  0.031285515  0.031139722            9 
 2284000   0.88416822   -6.3253937    857.80722  0.031297695  0.031131881            4 
 2285000   0.86955382   -6.3555719    856.46745  0.031235137  0.031123984            9 
 2286000   0.88497132   -6.3616436    855.11238  0.031172076  0.031116147            6 
 2287000   0.88640545   -6.3506652    857.75259  0.031254649  0.031108265           16 
 2288000   0.89438695   -6.3215235    857.72723  0.031240065  0.031100415            4 
 2289000   0.90413773   -6.3595048    856.18535  0.031170284  0.031092463            5 
 2290000   0.88776457   -6.3706929    856.87459  0.031181754  0.031084526           11 
 2291000   0.86968402   -6.3526182    855.68181  0.031124756  0.031076604            5 
 2292000   0.88622046   -6.3496763    854.97711  0.031085555  0.031068643            6 
 2293000   0.87802815   -6.3350446    856.24803  0.031118187  0.031060713            5 
 2294000   0.89342558   -6.3734018    855.01698  0.031059902  0.031052715            4 
 2295000   0.87119787   -6.3392818    857.79519  0.031147247  0.031044711           11 
 2296000   0.86570488   -6.3538953    858.25228  0.031150272  0.031036759            4 
 2297000   0.88471965    -6.358705    855.62178  0.031041278  0.031028784            4 
 2298000   0.87558387   -6.3476322    858.14408  0.031119237  0.031020904            6 
 2299000   0.88360939   -6.3844063    856.39237  0.031042206  0.031013039            3 
 2300000   0.88993104   -6.3612178    856.52739  0.031033601  0.031005007            4 
 2301000   0.88429577   -6.3472554    858.86884  0.031104912  0.030996983            5 
 2302000   0.88247454   -6.3119876    858.81569  0.031089476  0.030988957            8 
 2303000   0.87279943   -6.3324895    857.85165  0.031041093  0.030980952            7 
 2304000   0.89171215   -6.3199976    859.46157  0.031085849   0.03097295            7 
 2305000   0.88863082   -6.3342105    857.81812  0.031012947  0.030964993            3 
 2306000    0.8811675   -6.3392179    857.00519  0.030970121  0.030956911            4 
 2307000   0.87827471   -6.3567207    856.25934  0.030929755  0.030948764            4 
 2308000   0.86502678   -6.3508985    857.44852  0.030959291  0.030940646            9 
 2309000   0.88816737   -6.3684106    857.85368  0.030960505  0.030932541           10 
 2310000   0.88616638   -6.3101005    861.20345  0.031067945  0.030924564            5 
 2311000   0.86785688   -6.3319989     858.0157  0.030939554  0.030916573            4 
 2312000   0.88530342   -6.3490239    859.79087  0.030990155  0.030908661            5 
 2313000   0.86567721   -6.3796802    859.40126   0.03096272  0.030900675            3 
 2314000   0.88238623   -6.3358862    860.20899  0.030978428  0.030892725            8 
 2315000    0.9063168   -6.3293528    860.65194  0.030980991  0.030884754            3 
 2316000   0.87354047   -6.3391742    861.43432  0.030995766  0.030876808            6 
 2317000   0.88248813   -6.3576668    861.36758  0.030979988  0.030868948            7 
 2318000   0.90628075   -6.3694459    859.26935   0.03089119  0.030861082            4 
 2319000   0.89970202   -6.3605399    861.04861  0.030941807   0.03085309            4 
 2320000   0.86355692   -6.3545989    862.16997  0.030968749  0.030845106            3 
 2321000   0.88279984   -6.3476923    861.52726   0.03093233  0.030837269            4 
 2322000   0.89868965   -6.3742554    860.70043  0.030889335  0.030829305            5 
 2323000   0.88255714   -6.3471768    863.77658  0.030986389  0.030821323            4 
 2324000   0.89081667   -6.3107065    862.24189  0.030918025   0.03081342            4 
 2325000   0.87467754    -6.387947    863.84781  0.030962287  0.030805603            6 
 2326000   0.86498888   -6.3563493    863.68029  0.030942974  0.030797625            5 
 2327000   0.87972003   -6.3656653    863.36681   0.03091845  0.030789806            6 
 2328000   0.87866295   -6.3151366    865.68211  0.030988048  0.030782041            5 
 2329000   0.86227149   -6.3782165    862.80196  0.030871689  0.030774163            3 
 2330000   0.86826605    -6.346026    864.67377  0.030925385  0.030766306            6 
 2331000   0.88977431   -6.4059245    863.93789   0.03088581   0.03075845            6 
 2332000   0.87495337   -6.3594859    864.68002  0.030899086  0.030750611            4 
 2333000   0.86494319   -6.3728191    861.63004  0.030776898  0.030742764            8 
 2334000   0.89011878   -6.3586505    862.65763  0.030800401  0.030734877           17 
 2335000   0.88545169   -6.3464436    863.29112  0.030809819  0.030727057            5 
 2336000   0.88396439   -6.3602899    865.06498  0.030859909  0.030719176            6 
 2337000   0.87603047   -6.3678317    865.73867  0.030870727  0.030711337            7 
 2338000   0.87272235    -6.410117    863.56866  0.030780178  0.030703487            8 
 2339000   0.87451541   -6.3784765    865.36234  0.030830923  0.030695552            3 
 2340000   0.88432133    -6.356945    864.70549  0.030794355  0.030687786            8 
 2341000   0.86220729   -6.3821465    863.73536  0.030746667  0.030679924            5 
 2342000   0.87155459   -6.3769342    862.83545  0.030701517  0.030672026            7 
 2343000   0.88057974   -6.3693872    866.30847  0.030811939  0.030664122            7 
 2344000   0.88913889    -6.358316    865.07739  0.030755027  0.030656226            3 
 2345000   0.89162887    -6.406629    861.84474  0.030627034  0.030648265           11 
 2346000   0.87022103   -6.3827999    864.19305  0.030697395  0.030640383            5 
 2347000   0.88754175   -6.3333884      868.962  0.030853643  0.030632478            5 
 2348000   0.87522403   -6.4028493    864.96264   0.03069856  0.030624613            5 
 2349000   0.87992017   -6.3877309    867.75117  0.030784418  0.030616735           12 
 2350000   0.87550748   -6.3823044    867.41197   0.03075929  0.030608873            4 
 2351000   0.88198162   -6.3624024    865.91831  0.030693262  0.030600981            4 
 2352000   0.89177282   -6.3535617    867.21645  0.030726206   0.03059316            6 
 2353000   0.89116301   -6.3266347    869.49749  0.030793933  0.030585375            5 
 2354000   0.85641661   -6.3372414    869.67494  0.030787133  0.030577586            9 
 2355000   0.86500098   -6.3289828    866.95072  0.030677662  0.030569739            3 
 2356000   0.88175201    -6.407933    864.79237  0.030588298   0.03056189            7 
 2357000   0.86226825   -6.3878464    865.39304  0.030596558  0.030553932            4 
 2358000   0.86362435   -6.3974942    870.60214  0.030767675  0.030545966           10 
 2359000   0.88058532   -6.3769892    867.25327  0.030636331  0.030538125            4 
 2360000   0.87299269    -6.376559    866.99329   0.03061417  0.030530324           16 
 2361000    0.8817136   -6.3626977    869.76557  0.030699053  0.030522488            5 
 2362000   0.84608249   -6.3799924    867.90008   0.03062024  0.030514558            4 
 2363000   0.88996657   -6.3839271    867.33422  0.030587326  0.030506693            7 
 2364000   0.86751753   -6.3760701    864.91991   0.03048928  0.030498816           10 
 2365000   0.87454609   -6.3672302    869.17208  0.030626219  0.030490926           11 
 2366000   0.87110306   -6.3888951     865.2897  0.030476532  0.030483009            5 
 2367000   0.85551502   -6.3965327    865.81725   0.03048223  0.030475008            4 
 2368000   0.87848124   -6.3885817    867.64935  0.030533831  0.030467129            5 
 2369000   0.86410113   -6.4030776    867.70336  0.030522842  0.030459196            7 
 2370000    0.8866859   -6.3899563    867.10464  0.030488911  0.030451275            6 
 2371000   0.89157337   -6.3739922    868.77491  0.030534757  0.030443431            4 
 2372000   0.87223071   -6.3710352     871.0927  0.030603313  0.030435655            7 
 2373000   0.87124356   -6.3908135    868.56661  0.030501707  0.030427835            7 
 2374000   0.85678863   -6.3888223    870.29312  0.030549464  0.030419956           12 
 2375000   0.87108268    -6.392704    868.37756  0.030469388  0.030412093            3 
 2376000   0.87446791   -6.4060794    870.58114   0.03053385  0.030404228            6 
 2377000   0.87994245   -6.3642826    869.42367  0.030480426  0.030396302            4 
 2378000    0.8711137    -6.360593     872.1944  0.030564704  0.030388502            6 
 2379000   0.88946245   -6.3693378    871.67106  0.030533525  0.030380671            7 
 2380000   0.85373542   -6.3629411     871.7393  0.030523085  0.030372868            2 
 2381000   0.87599692   -6.3521344    870.81003  0.030477741   0.03036516           11 
 2382000   0.87993779   -6.3561398    874.77528  0.030603669  0.030357377            3 
 2383000   0.86595765   -6.3876034    870.84771   0.03045348  0.030349533            9 
 2384000    0.8708614   -6.3923627    869.67228  0.030399618  0.030341644            7 
 2385000    0.8609756   -6.3705408    872.05351  0.030470074  0.030333816            4 
 2386000    0.8720226   -6.3479523    871.15813  0.030426031  0.030326067            6 
 2387000   0.88072365   -6.4127989    870.60631   0.03039402  0.030318128            9 
 2388000   0.89088299   -6.3948119    873.80117  0.030492782  0.030310265            4 
 2389000   0.86007868   -6.3944428    870.09708  0.030350812  0.030302395            7 
 2390000   0.87298394   -6.3513328    876.65226  0.030566676  0.030294621            4 
 2391000   0.86426349   -6.3903965    873.10841  0.030430378  0.030286815            8 
 2392000   0.88517274   -6.3702529    873.04379  0.030415405  0.030278992            6 
 2393000   0.87013622   -6.4101476    872.00017  0.030366352  0.030271145           14 
 2394000    0.8709921   -6.3734453    871.42585  0.030333676  0.030263285           10 
 2395000    0.8803758     -6.36344    872.19084  0.030347628  0.030255488           16 
 2396000   0.86103846   -6.3899075    871.23711  0.030301792  0.030247712            8 
 2397000   0.87749575   -6.3688178    875.19814  0.030426858  0.030239818            4 
 2398000   0.87189571   -6.3735593    872.42597  0.030317833  0.030232043            4 
 2399000   0.85832903   -6.3972815    873.65354  0.030347837   0.03022419            3 
 2400000   0.87113552     -6.36362    877.07296  0.030453922  0.030216336            8 
 2401000   0.86640655   -6.4205327    873.27866  0.030309547  0.030208582           16 
 2402000    0.8520393   -6.3977966    876.11731   0.03039541   0.03020081            8 
 2403000   0.84688148    -6.369642    874.68799  0.030333194  0.030193088            5 
 2404000   0.85398209   -6.3703612    877.02873  0.030401717  0.030185378            4 
 2405000   0.88686058   -6.3662649    876.16437  0.030359126  0.030177687            5 
 2406000   0.86679685   -6.3818274    873.53021  0.030255272  0.030170002            7 
 2407000   0.88187285    -6.368386    878.04298   0.03039894  0.030162319            8 
 2408000   0.87597253   -6.3651183    877.37145  0.030363076   0.03015463            8 
 2409000   0.86434476   -6.3972099    874.97933  0.030267723  0.030146835            6 
 2410000   0.88023102   -6.3925253    876.80482  0.030318286  0.030139002            5 
 2411000   0.86610231   -6.4110423    873.37136  0.030187037  0.030131225            6 
 2412000   0.85552976   -6.3840726    876.46558  0.030281425  0.030123408            4 
 2413000   0.88620352   -6.3979201     878.2432  0.030330267  0.030115645            5 
 2414000   0.86852289   -6.3941047    879.00407  0.030343968  0.030107866            5 
 2415000   0.84339034   -6.3796652    880.40982  0.030379911  0.030100185            3 
 2416000   0.88408382   -6.3975341    879.46187   0.03033464  0.030092513            6 
 2417000   0.85637427   -6.4077432    875.49263  0.030185238  0.030084794            3 
 2418000   0.84072958   -6.3901418    877.63524  0.030246597  0.030077068            6 
 2419000   0.86880566   -6.3872804    876.14562  0.030182776  0.030069375            6 
 2420000    0.8595196   -6.4054038    877.33944  0.030211413  0.030061674           15 
 2421000   0.86264299   -6.4147643    876.92161  0.030184552  0.030053962            7 
 2422000   0.86164346   -6.3733235    878.18211  0.030215459  0.030046282            4 
 2423000   0.84953628   -6.3797637    879.41008  0.030245222  0.030038617            8 
 2424000   0.86297248   -6.4098262    878.54515   0.03020301  0.030030889            5 
 2425000   0.85957683   -6.4132969    878.39421  0.030185368  0.030023157            4 
 2426000   0.85730569   -6.4061841    880.04158  0.030229513  0.030015493            5 
 2427000   0.84142617   -6.4057107    881.09819  0.030253337  0.030007834            4 
 2428000   0.85627111   -6.4214979    878.45057  0.030150006  0.030000042            5 
 2429000   0.88057905   -6.4230646    879.64056  0.030178419  0.029992268           13 
 2430000   0.88272632   -6.4214201     878.9923  0.030143769   0.02998451            4 
 2431000   0.87542248   -6.3835072    882.18092  0.030240673  0.029976878            9 
 2432000   0.86278707   -6.3979173    880.59204  0.030173795  0.029969289            7 
 2433000   0.87700577   -6.4111185    880.41583  0.030155358  0.029961542            9 
 2434000   0.84696351   -6.3876579    881.46624  0.030178932  0.029953827            5 
 2435000    0.8556978   -6.4241201    880.40505  0.030130221  0.029946142           21 
 2436000   0.86362511   -6.4191553    880.76429  0.030130141  0.029938412            5 
 2437000   0.87227023   -6.4230266    879.73147   0.03008246    0.0299307            4 
 2438000    0.8807487   -6.3869754    883.97707   0.03021524  0.029923039            4 
 2439000   0.87547182   -6.3807379    883.91157  0.030200614  0.029915507            5 
 2440000   0.86824493   -6.3989405    880.52544   0.03007259  0.029907941            7 
 2441000   0.86846823   -6.3958744    882.76768  0.030136818  0.029900304           10 
 2442000   0.85223001   -6.4408492     882.2382  0.030106409   0.02989262            4 
 2443000   0.86896736     -6.41095    880.67636  0.030040809  0.029885001            5 
 2444000   0.86640793   -6.3802324    884.45241   0.03015727  0.029877339            5 
 2445000   0.85286416   -6.3716476    887.40672  0.030245628  0.029869722            3 
 2446000   0.84724479   -6.4239054      881.069  0.030017341  0.029862108            9 
 2447000   0.85419695   -6.3750755    883.88265  0.030100894  0.029854584            6 
 2448000   0.87159228   -6.3769961    883.88032  0.030088518  0.029846972            6 
 2449000   0.84340068   -6.3960716    886.01951  0.030149024  0.029839412            6 
 2450000   0.85933783   -6.3998562    884.30461  0.030078388  0.029831819            6 
 2451000   0.87254053   -6.4124175    884.44925  0.030071034  0.029824249            7 
 2452000   0.87214321     -6.42578    881.79639   0.02996861  0.029816555            7 
 2453000   0.86302225   -6.4091128    882.41627  0.029977452  0.029808889            5 
 2454000   0.86967327   -6.4417769    880.48707  0.029899724  0.029801174            6 
 2455000    0.8675913   -6.4187691    883.07379  0.029975349  0.029793472            6 
 2456000   0.87246806   -6.4334028    883.56368  0.029979766  0.029785775            4 
 2457000   0.86910316    -6.408613    882.27072  0.029923712  0.029778133            6 
 2458000   0.86523557   -6.4185771    882.53686  0.029920561  0.029770464            8 
 2459000   0.86839874   -6.3944721    884.27222  0.029967203  0.029762778            4 
 2460000   0.84840865   -6.4390461    882.84478  0.029906666   0.02975503            7 
 2461000   0.85343691   -6.4234555    883.36445   0.02991211  0.029747296            6 
 2462000   0.87442385   -6.4142853    881.67532  0.029842788  0.029739519            4 
 2463000   0.85166141   -6.4379948    881.76411  0.029833675  0.029731739           11 
 2464000   0.84840982   -6.3991488    885.76746  0.029956962  0.029724063            4 
 2465000   0.85341824   -6.4243922    883.05554  0.029853129  0.029716408           12 
 2466000   0.87097408   -6.4258231    882.13765  0.029810004  0.029708598            3 
 2467000   0.85856911    -6.394227    885.74277  0.029919699  0.029700842           11 
 2468000   0.85862512   -6.4328716    883.99226  0.029848469  0.029693151            5 
 2469000   0.85275862   -6.4149812    883.98135  0.029836012  0.029685484            4 
 2470000   0.85879536   -6.4169797    885.59221   0.02987828  0.029677756            9 
 2471000   0.84122261   -6.4459388     882.7331  0.029769766  0.029670016            5 
 2472000    0.8472945   -6.4427276    882.59152   0.02975295  0.029662246            8 
 2473000   0.83836091   -6.4293374    886.81815  0.029883345  0.029654474            7 
 2474000   0.87086093   -6.4048521    887.46384  0.029893015  0.029646759           11 
 2475000   0.84905127   -6.4481204     884.3697  0.029776757  0.029639104           10 
 2476000   0.85767791   -6.4055879    885.38254   0.02979882  0.029631403            5 
 2477000   0.86846155   -6.4332911    886.52205  0.029825126  0.029623779           16 
 2478000   0.86198276   -6.3728115    888.14697  0.029867735  0.029616066            5 
 2479000   0.84457575   -6.4230903    884.72242  0.029740568  0.029608317            5 
 2480000   0.85457547   -6.4145161    884.52999   0.02972211   0.02960051            7 
 2481000   0.85997713   -6.4309941    884.41536   0.02970628  0.029592705            6 
 2482000   0.85881317   -6.4465819    884.57704  0.029699739  0.029584892            6 
 2483000   0.84641277   -6.4093786    885.36304  0.029714158  0.029577055            4 
 2484000   0.86268448   -6.4055891    884.07932  0.029659129  0.029569214            3 
 2485000   0.84953093   -6.4365814    885.06867  0.029680371  0.029561342           11 
 2486000   0.85221926   -6.4044757    884.38324  0.029645456  0.029553431            4 
 2487000   0.86695751   -6.4179485    886.66002  0.029709825  0.029545542            4 
 2488000   0.85656213   -6.4164089     887.6707  0.029731736   0.02953777            5 
 2489000   0.84670683   -6.4295374    887.68941  0.029720417  0.029530055            3 
 2490000   0.85602206   -6.4087732    888.87903  0.029748294  0.029522322            7 
 2491000   0.85537586   -6.3995506    888.14594  0.029711827  0.029514642            8 
 2492000   0.85856776   -6.4205278    889.05768  0.029730393  0.029506927            5 
 2493000   0.85368181   -6.4219546    885.35839  0.029594812  0.029499175            6 
 2494000   0.85385711   -6.4242343    888.39452  0.029684393  0.029491418            6 
 2495000   0.85688379   -6.4222926    888.51739    0.0296766  0.029483703            5 
 2496000   0.85419419   -6.4087839    888.72058  0.029671494  0.029475997            7 
 2497000   0.86173786   -6.4131955    891.04516   0.02973719  0.029468275            4 
 2498000   0.84507913   -6.4011966    890.41071   0.02970412  0.029460571            4 
 2499000   0.84606659   -6.4203789    887.29337  0.029588281  0.029452929            5 
 2500000   0.86373418   -6.4320628    885.49979   0.02951666  0.029445276            5 
 2501000   0.82665331   -6.4096517    891.48966   0.02970444  0.029437602            7 
 2502000   0.83874876   -6.4396278    889.48556  0.029625818  0.029430024           12 
 2503000   0.85222608   -6.4188891    890.40969  0.029644749  0.029422361            5 
 2504000   0.85547488   -6.3944527    889.11086  0.029589685  0.029414713           14 
 2505000   0.82868267   -6.4334388    887.31413  0.029518101   0.02940701            7 
 2506000   0.85077875   -6.4374676    888.58563  0.029548604  0.029399276            6 
 2507000   0.84260569   -6.4330712    890.59548  0.029603626  0.029391596            5 
 2508000   0.87565484   -6.4627875    886.42212  0.029453154  0.029383868            8 
 2509000   0.84574699   -6.3941951    890.09509  0.029563408  0.029376097            6 
 2510000   0.84566784   -6.4532999    889.12326  0.029519364  0.029368405            8 
 2511000   0.84293299   -6.4616189    887.99985  0.029470326  0.029360745            5 
 2512000   0.85469328   -6.4226594      891.922  0.029588708  0.029353096            4 
 2513000   0.85539131   -6.4279895    891.09998  0.029549674  0.029345479            3 
 2514000   0.83600185   -6.4484033    889.73298  0.029492607  0.029337877            4 
 2515000   0.83824385   -6.4327763    893.23842  0.029597032  0.029330224           11 
 2516000   0.83687799   -6.4315464    892.00348  0.029544365  0.029322554            6 
 2517000   0.85690311   -6.4224481    892.31982  0.029543101  0.029314922            5 
 2518000   0.84195083   -6.4128475    894.01789  0.029587566  0.029307392           11 
 2519000   0.85100698   -6.4251989     895.2719  0.029617305  0.029299821            9 
 2520000    0.8319176   -6.4327543    892.38294  0.029510018  0.029292301            4 
 2521000   0.84523684   -6.4439052    891.03625  0.029453797  0.029284691            4 
 2522000   0.86846719   -6.4678648    892.33317  0.029484971   0.02927705            6 
 2523000   0.85912251   -6.4308794    894.02392  0.029529129  0.029269394            7 
 2524000   0.85312515   -6.4314224    891.50519  0.029434271   0.02926179           13 
 2525000   0.85878644   -6.4283243    893.66861  0.029494014  0.029254132            7 
 2526000   0.83701572   -6.4075207    893.89603   0.02948984  0.029246545            4 
 2527000   0.85005159   -6.4533455    891.85271  0.029410787  0.029238864            8 
 2528000   0.84924043   -6.4665362     892.9569  0.029435552  0.029231223            6 
 2529000   0.82901173   -6.4507515    892.77201   0.02941782  0.029223568           10 
 2530000   0.86685021   -6.4472949    893.13767  0.029418237   0.02921597            7 
 2531000   0.85962044     -6.47753    892.43382  0.029383439  0.029208383            5 
 2532000   0.85262541    -6.462236    890.90522  0.029321525  0.029200733           10 
 2533000   0.84719565   -6.4804837    892.51918  0.029363047  0.029193054           10 
 2534000   0.86385039   -6.4636703    895.92919  0.029463601  0.029185431            6 
 2535000   0.85365493   -6.4289182    896.44432  0.029468912  0.029177818           17 
 2536000   0.84206069   -6.4500644    896.53922  0.029460411  0.029170282            7 
 2537000   0.84076684   -6.4601551    894.24528  0.029373449  0.029162723           17 
 2538000   0.85516452   -6.4548939    896.36462  0.029431462  0.029155171            5 
 2539000   0.84148807   -6.4787551    894.24587   0.02935033  0.029147559           22 
 2540000   0.84763982   -6.4447669    893.67753  0.029320129  0.029139905            4 
 2541000   0.84359094   -6.4672486    893.75059  0.029310986  0.029132317            7 
 2542000   0.86326884   -6.4543724    895.12234  0.029344425  0.029124714           11 
 2543000   0.83270031   -6.4862041    891.95027  0.029228938  0.029117037            3 
 2544000   0.84252812   -6.4454029    894.90189  0.029314134  0.029109346           14 
 2545000   0.84192667    -6.499413     893.8349  0.029267679  0.029101674            5 
 2546000   0.85077638   -6.4525924    896.31009  0.029337199  0.029094009            4 
 2547000   0.83846801   -6.4879624    894.37437  0.029262347  0.029086351            5 
 2548000   0.83414838   -6.4432279    895.16875  0.029276843    0.0290787           11 
 2549000   0.84219326   -6.4297266    895.15699  0.029264973  0.029071119            5 
 2550000   0.84594357   -6.4347583    895.47693  0.029263952  0.029063563            4 
 2551000   0.84759832   -6.4406259    897.32117  0.029312726  0.029055997           12 
 2552000   0.84534104   -6.4743872    896.82777  0.029285128  0.029048337            6 
 2553000   0.84544022   -6.4455645    897.21388  0.029286261  0.029040761            4 
 2554000   0.83470189   -6.4675228    896.19081  0.029241412   0.02903318            7 
 2555000   0.84229321   -6.5007265    895.40645  0.029204385  0.029025555            7 
 2556000   0.86161574   -6.4748571    897.46764   0.02926016  0.029017893            3 
 2557000   0.84781524   -6.4638208    895.69487  0.029190942  0.029010212           13 
 2558000   0.84730456   -6.4662551    896.06096  0.029191457  0.029002521            8 
 2559000   0.84894743   -6.4636161    896.43434  0.029192208  0.028994893           10 
 2560000   0.86317696   -6.4458471    898.74373  0.029255981  0.028987324            6 
 2561000   0.84462582   -6.4615722    897.14063  0.029192393  0.028979745            5 
 2562000   0.84813386   -6.4499423    896.43393  0.029158012   0.02897218            8 
 2563000   0.83385754   -6.4606688    898.22324  0.029204813  0.028964646            8 
 2564000   0.83700431   -6.4563767    897.69133  0.029176135  0.028957085           10 
 2565000   0.81795316   -6.4369451    899.35263  0.029218734  0.028949527            6 
 2566000   0.85324662   -6.4232465    899.85803   0.02922376   0.02894193            8 
 2567000   0.85414023   -6.4255897    899.67902  0.029206565  0.028934486            9 
 2568000   0.84485147   -6.4545207    901.72366  0.029261541  0.028926983            8 
 2569000   0.85578032   -6.4258633    900.10858  0.029197761  0.028919488            5 
 2570000   0.86217851   -6.4283506    899.26167  0.029158939  0.028912046            5 
 2571000   0.84074574   -6.4527723    900.60546  0.029191153  0.028904574            5 
 2572000   0.84130557   -6.4594008    900.83946  0.029187385  0.028896998            7 
 2573000   0.85722079   -6.4734457    899.14292  0.029121095  0.028889433           14 
 2574000   0.82658561   -6.4821144    897.75787   0.02906494  0.028881821            4 
 2575000   0.85169824    -6.476371    900.25636   0.02913451  0.028874201            9 
 2576000   0.84665755   -6.4657357    897.68297  0.029039951  0.028866617            6 
 2577000   0.83836702   -6.4849323    899.83243   0.02909819   0.02885905            3 
 2578000   0.83933567   -6.4593059    895.90717   0.02896002   0.02885147           12 
 2579000   0.84418179   -6.5016064    898.67494  0.029038224  0.028843909            7 
 2580000   0.83224925   -6.4699203    899.40212  0.029050456  0.028836348           11 
 2581000   0.83261331   -6.4412092    900.53466  0.029075767  0.028828764            9 
 2582000   0.84138505   -6.4318288    900.47531  0.029062591  0.028821232            8 
 2583000   0.82060722   -6.4791608    899.96481  0.029034869  0.028813618            7 
 2584000   0.84974985    -6.442916     900.6786  0.029046653  0.028805979            4 
 2585000    0.8442125   -6.4382692    900.59354  0.029032674  0.028798351            5 
 2586000   0.84167795   -6.4776131    898.87167   0.02896596  0.028790679            6 
 2587000   0.83505218   -6.4802143    899.03614  0.028960061  0.028783004            6 
 2588000   0.85946548   -6.4644591     899.1681   0.02895312  0.028775388            4 
 2589000   0.84852957   -6.5093481     898.9376  0.028934518  0.028767716            3 
 2590000    0.8202957   -6.4739508    900.26715  0.028966125  0.028760035            4 
 2591000   0.82352713   -6.4321555      901.648  0.028999357  0.028752448            6 
 2592000   0.85379344   -6.4731242    901.67784  0.028989128  0.028744902            6 
 2593000   0.83469345   -6.4843987    901.48593  0.028971781  0.028737344            4 
 2594000   0.84382472   -6.4571157    903.22208  0.029016387  0.028729773            7 
 2595000   0.83108695   -6.4528467    904.00027  0.029030195  0.028722202           10 
 2596000   0.84767648   -6.4850037    899.99312   0.02889038  0.028714627            5 
 2597000   0.82490224   -6.4513509     903.2464  0.028983648  0.028707085            7 
 2598000   0.83301738   -6.4570348    903.00095  0.028964619  0.028699588            2 
 2599000   0.85231478   -6.4627435     900.3187  0.028867471  0.028691977            7 
 2600000   0.83198179   -6.4206786     905.6764   0.02902809  0.028684514           11 
 2601000   0.86483262   -6.4531353    905.41842  0.029008664  0.028677041            7 
 2602000   0.82573736   -6.4769906    903.03039  0.028921035  0.028669511           11 
 2603000    0.8202834   -6.4586415     903.9753  0.028940175  0.028661969           15 
 2604000   0.82634173   -6.4724988    903.41616  0.028911167  0.028654467            7 
 2605000   0.82312273   -6.4867389    901.43269  0.028836618  0.028646903            4 
 2606000   0.84807042   -6.5068076    901.89752  0.028840417   0.02863927            7 
 2607000   0.83163024   -6.4700318    904.31248  0.028906549  0.028631622           11 
 2608000   0.81971976   -6.4917463    901.96002  0.028820297  0.028624039            5 
 2609000   0.81973097    -6.519013    898.62534  0.028702739  0.028616398            5 
 2610000   0.83530288   -6.4873344    904.48802  0.028878928  0.028608792            3 
 2611000   0.83513298   -6.4747202    903.41338  0.028833569   0.02860121           11 
 2612000   0.83542824   -6.4740699    903.62799  0.028829377  0.028593606            4 
 2613000    0.8183612    -6.526947    903.45419  0.028812801  0.028586062            6 
 2614000   0.83312848    -6.428325    906.25141  0.028890953  0.028578556            5 
 2615000   0.82391116   -6.4895044     900.3235  0.028690998  0.028571086            7 
 2616000   0.84200331   -6.4740923    905.35381  0.028840272  0.028563561            5 
 2617000   0.82942472   -6.4607941    904.91487  0.028815274  0.028556009           13 
 2618000   0.82790293   -6.4611689     901.5787  0.028698074  0.028548478            6 
 2619000   0.84645907   -6.4767252    903.59335   0.02875122  0.028540919            9 
 2620000   0.82203561   -6.4702856    903.39777  0.028734026  0.028533301            4 
 2621000    0.8327022   -6.4955711    903.66861  0.028731674  0.028525664           10 
 2622000   0.83676567   -6.4669225    903.90392  0.028728195  0.028518062            4 
 2623000    0.8393019   -6.4711038     905.4675  0.028766918  0.028510441            7 
 2624000   0.82316198   -6.4643306    904.88782  0.028737545  0.028502905            8 
 2625000   0.83349031   -6.5112856     902.1602  0.028640006  0.028495331            7 
 2626000   0.84590372   -6.4988209    903.58668  0.028674368  0.028487764           11 
 2627000   0.83067653   -6.4955233    903.37373  0.028656697  0.028480198           15 
 2628000   0.83212097   -6.4696427    906.42446  0.028742531  0.028472685            9 
 2629000     0.838692   -6.4731188     905.4966  0.028702187  0.028465168            4 
 2630000   0.83160099   -6.5028245    903.98303  0.028643315  0.028457588            6 
 2631000    0.8610792   -6.5059997    902.67311  0.028590938  0.028450026            4 
 2632000   0.83935561    -6.467402    903.83779  0.028616951  0.028442466            8 
 2633000   0.83004984   -6.4698372     903.6538  0.028600259  0.028434914            8 
 2634000   0.83931101   -6.4961361    905.16292  0.028637146  0.028427367           12 
 2635000   0.84354245   -6.4753073    906.84875  0.028679594  0.028419819            6 
 2636000   0.81441394   -6.4945315    904.52782  0.028595341  0.028412241            8 
 2637000   0.84353984   -6.4659079    908.33699  0.028704873    0.0284047            9 
 2638000   0.83414829   -6.4969595    906.66423   0.02864115  0.028397136            6 
 2639000   0.83078027   -6.4720349    908.75861  0.028696432  0.028389612           16 
 2640000    0.8263288   -6.4955392    906.05139  0.028600107  0.028382062            7 
 2641000   0.81434146   -6.4897093    906.23243   0.02859499   0.02837452            4 
 2642000   0.85359377   -6.4818217    906.88112  0.028604628  0.028366911           12 
 2643000    0.8373101   -6.4959018    905.34748   0.02854545  0.028359333            9 
 2644000      0.81828   -6.4766329    906.83366  0.028581495  0.028351782           19 
 2645000   0.81199155   -6.4794577    905.57891  0.028531157  0.028344233            5 
 2646000     0.802917   -6.4961184    908.51943  0.028612983  0.028336674           10 
 2647000    0.8268861   -6.4756854    906.07432  0.028525196  0.028329132           10 
 2648000   0.81616155   -6.4772136    906.00483  0.028512237  0.028321617            7 
 2649000   0.80875216   -6.4999497    906.82685  0.028527333  0.028314035            4 
 2650000   0.84469682   -6.4946965    908.53631  0.028570324  0.028306426           13 
 2651000   0.85527021   -6.4925961    907.42055  0.028524474   0.02829884           20 
 2652000   0.82865933   -6.5011433    908.82871  0.028557966  0.028291225            5 
 2653000   0.82063988    -6.488662    909.48386  0.028567781  0.028283617            4 
 2654000   0.82253365   -6.5101909     906.6917  0.028469345  0.028276003            6 
 2655000   0.82566095   -6.5189338    908.01204  0.028500064   0.02826845           15 
 2656000   0.83740799   -6.4674306    908.56693  0.028506743  0.028260853            4 
 2657000   0.81811299    -6.504914    906.64716  0.028435803  0.028253289           11 
 2658000   0.81973537   -6.4907492    908.58405   0.02848583  0.028245708            6 
 2659000   0.82805725   -6.4882123    908.26174  0.028465016   0.02823814            4 
 2660000   0.83699122    -6.474601    909.61348  0.028496663  0.028230498            6 
 2661000   0.82627819   -6.5105538    908.28853  0.028444461  0.028222962            5 
 2662000   0.83404058   -6.5028548    907.51076  0.028409428  0.028215374            9 
 2663000   0.81181526   -6.4859271    906.06437  0.028353498  0.028207735            6 
 2664000   0.80799144   -6.4708489    908.09703  0.028406439  0.028200089           12 
 2665000   0.84170685   -6.4944633    906.74663  0.028353553  0.028192378           12 
 2666000   0.83212275   -6.5248909    908.52438  0.028398487  0.028184693           10 
 2667000   0.82766461    -6.496442    909.63603  0.028422573  0.028177004            6 
 2668000   0.82495608   -6.5267563    904.92786  0.028264863  0.028169272            9 
 2669000   0.82216272   -6.5041481    908.48577  0.028365361  0.028161563            8 
 2670000   0.82081506    -6.514718    907.24826  0.028316113  0.028153887            7 
 2671000   0.84236891   -6.4748926    907.29153  0.028306862  0.028146211            4 
 2672000   0.81720002   -6.5014878    909.80761  0.028374738  0.028138638            7 
 2673000   0.80644868   -6.4787083    912.49211  0.028447815  0.028131059           10 
 2674000   0.81577768   -6.5171433    908.18947  0.028303087  0.028123415            8 
 2675000   0.82039634   -6.5127328    910.01047  0.028349236  0.028115767            5 
 2676000   0.82729198   -6.5297056     908.5501  0.028293165  0.028108096            9 
 2677000   0.83425648    -6.492384    909.11754   0.02830026  0.028100428            7 
 2678000   0.81610631   -6.5017055    909.76559  0.028309858  0.028092792            6 
 2679000   0.83040949   -6.5261172    910.21061  0.028313133  0.028085165           10 
 2680000   0.84328126    -6.492093    907.59337  0.028221187  0.028077505           26 
 2681000   0.80827672   -6.5381899    906.56772   0.02817878  0.028069791            7 
 2682000   0.82895868   -6.4858797    910.42184  0.028288026  0.028062121            8 
 2683000   0.80593935   -6.4943777    910.88325  0.028291814  0.028054501            7 
 2684000   0.81538764   -6.5115766    910.23077  0.028261015  0.028046876            9 
 2685000   0.81817495   -6.4849882    911.06317  0.028276324  0.028039244           12 
 2686000   0.82051884   -6.5010694    910.66237  0.028253362  0.028031626           10 
 2687000   0.81972774   -6.5030094    909.41121  0.028204044  0.028023953            6 
 2688000   0.82959173   -6.5226264    910.64471  0.028231793  0.028016336            4 
 2689000   0.83425554    -6.498206    911.48525  0.028247342  0.028008715            6 
 2690000   0.82183162   -6.4965789    913.35297  0.028294702  0.028001086            6 
 2691000   0.82743176   -6.5274535    910.54492  0.028197229  0.027993517            8 
 2692000   0.81801074   -6.5374026    909.71495  0.028161062  0.027985907           10 
 2693000    0.8321293   -6.5199473    910.25807  0.028167411  0.027978294           20 
 2694000   0.80265071   -6.5158051     910.4424  0.028162658  0.027970718            3 
 2695000   0.78674119   -6.5389413    910.52847  0.028154869  0.027963088            9 
 2696000   0.82322724   -6.5678521    911.20346   0.02816529   0.02795548           11 
 2697000   0.82463225   -6.5252613    913.43477  0.028223791  0.027947886            7 
 2698000    0.8189099   -6.5363296    910.61014  0.028126085  0.027940278           10 
 2699000   0.81306604   -6.5129375    911.96063  0.028157362  0.027932655            8 
 2700000   0.84524217   -6.5147142    911.42399   0.02813037  0.027925121            5 
 2701000   0.81587062   -6.5312454    912.57827  0.028155568  0.027917644            4 
 2702000   0.82276168   -6.5252794    913.38071  0.028169896  0.027910076            6 
 2703000   0.83211033   -6.5001246    913.75831  0.028171116  0.027902618            7 
 2704000   0.79546911   -6.5041954    915.44188  0.028212582  0.027895227            8 
 2705000   0.81177287   -6.5391421    912.25393  0.028103941   0.02788777            9 
 2706000   0.81444368   -6.5193815    912.93919  0.028114658  0.027880331            5 
 2707000   0.82801545   -6.5254908    912.77131  0.028099104  0.027872865           13 
 2708000   0.80246354   -6.5521364    912.59126  0.028083187  0.027865385            7 
 2709000   0.81213514   -6.5377152    914.46654  0.028130508  0.027857852            9 
 2710000   0.81340621   -6.5260116     913.3675  0.028086332  0.027850417           10 
 2711000   0.82669326   -6.5440902    913.69877  0.028086154  0.027842915           11 
 2712000   0.81971767   -6.4930951    917.67187  0.028197882  0.027835487            3 
 2713000   0.82491169   -6.5334806    916.82445  0.028161459  0.027828012            5 
 2714000   0.82055369   -6.5348629    912.67967  0.028023817  0.027820541            8 
 2715000   0.81783827   -6.5281835    914.36597  0.028065254   0.02781311            9 
 2716000   0.80660774   -6.5403634    914.48463  0.028058561  0.027805623            9 
 2717000   0.79769432   -6.4966401    917.29666  0.028134482  0.027798171            8 
 2718000   0.81821357   -6.5318141    915.43608  0.028067086  0.027790699            7 
 2719000   0.81157672   -6.5160733    912.27855   0.02795999  0.027783231           14 
 2720000   0.81994275    -6.504042    916.25939  0.028071673  0.027775757            9 
 2721000   0.81796797   -6.5318595    918.64214   0.02813433  0.027768306            8 
 2722000   0.81670182   -6.5398253    915.05106  0.028014054  0.027760828            7 
 2723000   0.80642605   -6.5122365    915.68916  0.028023294  0.027753319            8 
 2724000   0.81506355   -6.5399863    914.87884  0.027988217  0.027745816            7 
 2725000   0.79707532   -6.5245582    917.58842  0.028060808  0.027738405            5 
 2726000   0.81930874   -6.5265151    915.61159  0.027990083   0.02773097            7 
 2727000   0.82018402   -6.5324614     915.7751  0.027984816  0.027723526            7 
 2728000   0.81084098    -6.510816    916.07354  0.027983674  0.027716076            4 
 2729000   0.82724504   -6.5283821     917.8387  0.028027321  0.027708636            9 
 2730000   0.82583991   -6.5218913    916.84603  0.027986753  0.027701166            4 
 2731000   0.80243203   -6.5889271    912.99198  0.027858903  0.027693685            7 
 2732000   0.80824993   -6.5615447    913.84199  0.027874634  0.027686128            7 
 2733000   0.82133923   -6.5251404    918.18344  0.027996812  0.027678669            4 
 2734000   0.82034797    -6.531147    917.21488   0.02795705  0.027671204           10 
 2735000   0.81139549   -6.5239602    915.50504   0.02789473  0.027663767            5 
 2736000   0.78951409   -6.5665464    915.30073  0.027878312  0.027656232            7 
 2737000    0.7953804     -6.53465    917.17886  0.027925309  0.027648643           15 
 2738000   0.81163332   -6.5405114    915.69235  0.027869867  0.027641134           13 
 2739000   0.82400576   -6.5531347    914.39388  0.027820186  0.027633605            7 
 2740000   0.79948936   -6.5055723    920.00338  0.027980638  0.027626176            7 
 2741000   0.82559277   -6.5148384    918.53809  0.027925881  0.027618753            7 
 2742000   0.82697235   -6.5154756    917.25821    0.0278768   0.02761131            4 
 2743000   0.83107006   -6.5238754    916.71097  0.027850011  0.027603847           11 
 2744000   0.80129712   -6.5301109    916.86656  0.027844587  0.027596379           18 
 2745000   0.82357466   -6.5210009    918.01937  0.027869441    0.0275889            5 
 2746000   0.81375308   -6.5537643    916.37565  0.027809409   0.02758135           10 
 2747000   0.81091728   -6.5509247    915.28303   0.02776614  0.027573786           10 
 2748000   0.81591249   -6.5228213    918.91405  0.027866146  0.027566234            7 
 2749000   0.81564702   -6.5631881    916.59619  0.027785746  0.027558702            4 
 2750000   0.81948626   -6.5213943      920.163  0.027883727   0.02755119            9 
 2751000   0.82039663   -6.5357309     915.5745  0.027734596  0.027543714            6 
 2752000   0.81546958    -6.518071    917.26481  0.027775703  0.027536226            9 
 2753000   0.79543963   -6.5108541    916.43469  0.027740486  0.027528704            7 
 2754000   0.81494903   -6.5225662    919.89172  0.027835019  0.027521147            7 
 2755000    0.8041722   -6.5185575    918.89446  0.027794751  0.027513606            8 
 2756000   0.81113212   -6.5587322    916.32244  0.027706895  0.027506078            5 
 2757000   0.81099728   -6.5535948    919.35205  0.027788419  0.027498541            8 
 2758000   0.82709574   -6.5324328    920.89409  0.027824936  0.027491012            3 
 2759000   0.82262266   -6.5412094    918.58928  0.027745236  0.027483491            4 
 2760000   0.82584404   -6.5341026    920.12817  0.027781648  0.027476014            9 
 2761000   0.80772255   -6.5635757    917.19431  0.027683035  0.027468487           10 
 2762000   0.81491157   -6.5528709    918.81771  0.027721992  0.027460927            8 
 2763000   0.81606503   -6.5169938    920.48914   0.02776237  0.027453358           14 
 2764000   0.80783143    -6.566149    917.37168  0.027658336  0.027445765            8 
 2765000    0.8112323   -6.5039024     921.5737  0.027774976  0.027438207            4 
 2766000   0.79871057   -6.5536482       918.67  0.027677452  0.027430666           10 
 2767000    0.8168287   -6.5355275    918.68234  0.027667821  0.027423116            6 
 2768000   0.81428179   -6.5136318    919.59344  0.027685255  0.027415569            9 
 2769000   0.79667999   -6.5464634     916.6918  0.027587932  0.027408018           11 
 2770000      0.82473   -6.5664486    919.77673   0.02767078  0.027400436            5 
 2771000   0.81350008   -6.5651293    919.45542  0.027651131   0.02739287           12 
 2772000   0.79384221   -6.5305053    919.52689  0.027643305  0.027385306            9 
 2773000   0.80242553   -6.5569706    919.01617  0.027617988  0.027377736           12 
 2774000   0.79972737   -6.5289274    918.87758  0.027603869  0.027370166           10 
 2775000   0.79458831    -6.534574    920.62629  0.027646435  0.027362626            8 
 2776000     0.810905   -6.5077846    919.59701  0.027605578  0.027355025            3 
 2777000   0.79690443   -6.5495303    917.75644  0.027540404  0.027347427           21 
 2778000   0.81460116   -6.4996413    916.47701  0.027492111  0.027339803            5 
 2779000   0.81621903   -6.5653541    918.89037  0.027554587  0.027332253            7 
 2780000   0.78842557   -6.5319158    918.69748  0.027538893  0.027324652            5 
 2781000   0.80055546   -6.5583768    918.64277  0.027527351  0.027317099            6 
 2782000    0.7865865    -6.555733    918.57574  0.027515449  0.027309479            8 
 2783000   0.80416601   -6.5703682    918.27606  0.027496588  0.027301894           12 
 2784000   0.81140265   -6.5722228    917.30738  0.027457716    0.0272943            8 
 2785000    0.8017781   -6.5560808    920.25519  0.027536062  0.027286674            7 
 2786000   0.79487591   -6.5447954     921.5798  0.027565799  0.027279138           15 
 2787000   0.82056365   -6.5460785    919.28078  0.027487166  0.027271574           12 
 2788000   0.80187718   -6.5457453    918.77636   0.02746223  0.027263973            9 
 2789000   0.79899459   -6.5567493    920.17063  0.027494043  0.027256402           12 
 2790000   0.79703725   -6.5601551    920.72842  0.027500849  0.027248845           21 
 2791000   0.79690659   -6.5568683    919.61288  0.027457688  0.027241344            4 
 2792000   0.79574683   -6.5712029    920.32073  0.027468981  0.027233811            3 
 2793000   0.80184643   -6.5705982    916.92514  0.027357833  0.027226208            6 
 2794000    0.8036398    -6.562543    919.59678  0.027427725  0.027218626            6 
 2795000   0.81614921   -6.5343735    921.70065   0.02748064  0.027211061            4 
 2796000    0.7971004   -6.5474361     921.8912   0.02747649  0.027203524           20 
 2797000   0.80215704   -6.5561578    921.21865  0.027446629  0.027196026            5 
 2798000   0.81819002   -6.5347085    919.89999  0.027397546  0.027188482           10 
 2799000   0.78028915   -6.5645351    916.12286  0.027275302  0.027180922            7 
 2800000   0.81839439   -6.5532567    922.44628  0.027453758  0.027173307            6 
 2801000   0.80113314   -6.5442094    921.20665  0.027407076  0.027165739            5 
 2802000   0.82859565   -6.5622735    918.14145  0.027306134  0.027158198            8 
 2803000   0.81653702   -6.5186322    918.88334  0.027318449  0.027150604           10 
 2804000   0.80394463   -6.5728544    919.04573  0.027313532  0.027142973            7 
 2805000   0.82946252   -6.5751244    918.82536  0.027297248  0.027135293           25 
 2806000   0.76772467   -6.5757107    921.73719  0.027373996  0.027127663            5 
 2807000   0.80934152   -6.5922366    921.59315  0.027359968  0.027120092           12 
 2808000    0.7961687   -6.5813751    919.92258  0.027300646  0.027112477            6 
 2809000   0.79702776   -6.6190329    918.38178  0.027245217  0.027104817           14 
 2810000   0.81504068    -6.559041    921.88847  0.027339516  0.027097192            7 
 2811000   0.81101944   -6.5664522    920.12842  0.027277612  0.027089649            9 
 2812000   0.80153325   -6.5598694    923.24291   0.02736021  0.027082091            8 
 2813000    0.7955597   -6.5521948    923.82397  0.027367697  0.027074619           11 
 2814000   0.81347908   -6.5510325    921.21271  0.027280642  0.027067053            7 
 2815000   0.81945129   -6.5859766    920.04751  0.027236457  0.027059483            7 
 2816000   0.81182653   -6.5753812     921.7718  0.027277811  0.027051905            8 
 2817000   0.79633754   -6.5519277    922.68805  0.027295233  0.027044423           11 
 2818000     0.813139   -6.5218239    921.92648  0.027263026  0.027036968            8 
 2819000   0.80207612   -6.5451628     922.4966  0.027270208  0.027029497           13 
 2820000   0.79945111   -6.5695945    923.35084  0.027285781  0.027021991           12 
 2821000   0.78876408   -6.5510485    923.24237  0.027272905  0.027014496            7 
 2822000   0.79928702   -6.5710572    924.16729  0.027290553  0.027007068            6 
 2823000   0.80408376   -6.5528075    924.36628   0.02728676  0.026999588           12 
 2824000   0.78792531   -6.5731724    921.04582  0.027179114  0.026992133            8 
 2825000    0.7937108   -6.5501254    926.55661  0.027332053  0.026984654            8 
 2826000   0.80111182      -6.5567    923.41497  0.027229741  0.026977159            7 
 2827000     0.804195    -6.564448    921.49414  0.027163487  0.026969637            7 
 2828000   0.81117457   -6.5857712    922.10553  0.027171898  0.026962137            6 
 2829000   0.79705171   -6.5750023    921.44765  0.027142914  0.026954589            7 
 2830000   0.80733998   -6.5514218    924.63445  0.027227163  0.026947039           12 
 2831000   0.80631985   -6.5965158     921.8256  0.027134864  0.026939508            4 
 2832000   0.81457862    -6.591501    922.52552  0.027145878  0.026931959           17 
 2833000   0.79749588   -6.5782619    923.66283   0.02716975  0.026924394            6 
 2834000   0.78323589   -6.5869651    921.96729  0.027110306  0.026916787            9 
 2835000   0.81266306   -6.5626107    922.81537  0.027125672  0.026909256            5 
 2836000   0.81126484   -6.5765777    923.72119  0.027142724  0.026901705           10 
 2837000   0.79589897   -6.5614751    923.83006  0.027136355  0.026894169            9 
 2838000   0.80537155   -6.5838795    921.51723   0.02705888  0.026886611            8 
 2839000   0.80301984   -6.5661874    924.08577  0.027124744  0.026879073            9 
 2840000   0.80400011   -6.5475426    926.04584  0.027172707  0.026871524           28 
 2841000   0.80962207   -6.5725628    923.68217   0.02709381  0.026863972           14 
 2842000   0.77583827   -6.5938895     921.5814  0.027022678  0.026856357           10 
 2843000   0.78606036   -6.5918345    921.48623  0.027010383  0.026848798            6 
 2844000    0.8054902   -6.5892656     922.9573   0.02704399  0.026841286            5 
 2845000   0.81085025   -6.5444445    927.29831  0.027161638  0.026833788            7 
 2846000   0.81139528   -6.5508878    926.85842  0.027139213  0.026826315            4 
 2847000    0.7989057   -6.5747081    923.88201   0.02704256  0.026818832            4 
 2848000   0.80098607   -6.5781353    925.77667  0.027088503  0.026811321           14 
 2849000   0.79408676   -6.5310061    926.00987  0.027085816  0.026803726            5 
 2850000   0.77921888   -6.5872916    922.41703  0.026971258  0.026796196           12 
 2851000   0.78712811   -6.5847184    923.96492  0.027007042  0.026788594            6 
 2852000   0.79728246   -6.5907829    923.92906  0.026996525  0.026781017           10 
 2853000   0.80383404   -6.5657732    926.26107  0.027055178  0.026773488            7 
 2854000   0.78769502   -6.6014414    924.68193  0.026999589  0.026765977            9 
 2855000    0.7994053   -6.5420092    925.02731  0.027000213  0.026758466           10 
 2856000   0.79204549   -6.5624936    926.59136  0.027036396  0.026750924            8 
 2857000   0.78659139   -6.5800911    925.09311  0.026983232  0.026743371            7 
 2858000   0.79515953   -6.5903966     923.8898  0.026938704  0.026735821           12 
 2859000   0.81008908   -6.5834388    924.63583  0.026951027  0.026728303            6 
 2860000   0.76263569   -6.5798538    925.60086  0.026969722  0.026720776            6 
 2861000   0.80192467   -6.6106524    924.54299  0.026929482  0.026713214           28 
 2862000   0.80755118   -6.5780883    925.94607  0.026960927  0.026705708           13 
 2863000    0.7742283    -6.594665     923.8162  0.026889516   0.02669818            7 
 2864000   0.79149888   -6.5964119    924.36495  0.026896094  0.026690645           11 
 2865000   0.80583994   -6.6092382    924.18614  0.026881505  0.026683072           12 
 2866000    0.7886612   -6.5916071    926.74091  0.026946409  0.026675574           16 
 2867000   0.78392315    -6.617751    922.85096  0.026823944  0.026668062           11 
 2868000   0.78492678   -6.5511156    925.82012  0.026900863  0.026660547           11 
 2869000   0.79710924   -6.6240538    923.88445  0.026835264  0.026653021            9 
 2870000   0.78882714   -6.6203098      924.733  0.026850552  0.026645435            9 
 2871000   0.79365389   -6.5921688     925.7876   0.02687181   0.02663788            7 
 2872000    0.7945889   -6.5567911    926.89314  0.026894532  0.026630391           13 
 2873000   0.79150261   -6.5745383    926.67347  0.026878799  0.026622925           11 
 2874000   0.79272775   -6.5825189    927.47072  0.026892563  0.026615404            7 
 2875000   0.80116048   -6.6010163    926.53829  0.026856182   0.02660785            8 
 2876000    0.7897873   -6.6049101    923.88943  0.026770093  0.026600274           11 
 2877000   0.79939102   -6.6094782    924.35885  0.026774384  0.026592699           24 
 2878000   0.79791915   -6.5784193    927.07817   0.02684382  0.026585129            7 
 2879000    0.7884539   -6.5670624    927.46689  0.026845748  0.026577645           11 
 2880000   0.77824334   -6.6082815     926.6238  0.026812031  0.026570127            6 
 2881000   0.78389867    -6.558017    926.72323  0.026805601  0.026562614            6 
 2882000   0.78797016   -6.5773977    928.00395  0.026833332   0.02655511           15 
 2883000   0.78140136   -6.5685233    926.48626  0.026780156  0.026547625            7 
 2884000   0.77834736   -6.5874702    926.88882  0.026782502  0.026540068            8 
 2885000   0.79463588   -6.6098254    924.42923  0.026702173  0.026532492           10 
 2886000   0.80476407   -6.6139843    927.04405  0.026768424  0.026524952            8 
 2887000   0.78536679    -6.621067     925.3008  0.026708833  0.026517361            8 
 2888000   0.77555711   -6.6297813    927.25422   0.02675595  0.026509752           17 
 2889000   0.79009959   -6.6016674    928.20285  0.026774052  0.026502158           10 
 2890000   0.77585618   -6.6022776    925.26815  0.026680166   0.02649459            5 
 2891000   0.78403716    -6.575012    929.70169  0.026798734  0.026487083           10 
 2892000   0.78370618   -6.5636118    929.69036  0.026789141  0.026479572           13 
 2893000   0.80813768   -6.5908222    925.85551  0.026669418   0.02647206           12 
 2894000   0.77573793   -6.5860491    926.02876  0.026665191  0.026464565            7 
 2895000   0.79793495   -6.5763098    928.42395  0.026724927  0.026457063           11 
 2896000   0.78038685   -6.5790984    929.15367  0.026736696  0.026449631            8 
 2897000   0.77725807    -6.586313    928.68018  0.026713847  0.026442175            6 
 2898000   0.77052986   -6.6122874    928.63289  0.026703269  0.026434658            7 
 2899000   0.80197217   -6.6105022    928.09722   0.02667866  0.026427106            6 
 2900000   0.78297339   -6.6088574    926.59101  0.026626179  0.026419548            8 
 2901000   0.79008325   -6.6077052    927.99679  0.026657382  0.026411991           15 
 2902000   0.80447658    -6.623751    925.79249  0.026584898  0.026404417           10 
 2903000   0.79049745   -6.6089354    928.73701  0.026660265  0.026396824           17 
 2904000   0.79252802   -6.6036894    925.65051  0.026562515  0.026389268           14 
 2905000   0.77994579   -6.6086894    926.97607  0.026591396   0.02638177            9 
 2906000   0.78308203   -6.6248589    927.51613  0.026597732   0.02637427           20 
 2907000   0.80694702    -6.604027    927.58761  0.026590632  0.026366711           12 
 2908000   0.78037278   -6.6326889    926.96954  0.026563776  0.026359126           10 
 2909000   0.79016369   -6.6093568    928.45122   0.02659709  0.026351566           14 
 2910000   0.78401598   -6.6143975    929.15988  0.026608244  0.026344016            7 
 2911000    0.7824492   -6.6286979    928.54819  0.026581592   0.02633649            8 
 2912000   0.77019429   -6.6285175    926.93718  0.026526362  0.026328939           15 
 2913000    0.7863756   -6.6071573    928.46387   0.02656093  0.026321392           21 
 2914000   0.77238221   -6.6389861    927.72681  0.026530737  0.026313858           12 
 2915000   0.79791154   -6.6263349    928.05511  0.026531021  0.026306294            8 
 2916000   0.77747151   -6.5818776    929.53899  0.026564329   0.02629876           12 
 2917000   0.77935787   -6.6136677    927.79621  0.026505434   0.02629127           26 
 2918000    0.7925947   -6.6031976    928.61589  0.026519759  0.026283794            5 
 2919000   0.78168771   -6.6141792     930.6388  0.026568425  0.026276344            7 
 2920000   0.76995616   -6.6225379    929.80098  0.026535416  0.026268856           24 
 2921000   0.78083481   -6.6298559    927.77727  0.026468597  0.026261368           10 
 2922000   0.77585904   -6.5977009    931.03842  0.026552544  0.026253866           19 
 2923000    0.7831045   -6.5877596    929.33046  0.026494767  0.026246394            7 
 2924000   0.80216259    -6.596455    932.46562  0.026575057  0.026238937            7 
 2925000   0.78996264   -6.5837382    930.49643   0.02650987  0.026231485            6 
 2926000   0.79258861   -6.6205113    930.86919  0.026511426  0.026224044            7 
 2927000   0.79971015   -6.6000844    929.97042   0.02647678  0.026216547           13 
 2928000   0.78475719   -6.6216967    928.02756  0.026412442  0.026209021           20 
 2929000   0.78428051   -6.6057912    930.60399  0.026476727  0.026201502           10 
 2930000   0.80499013   -6.6203218    927.00761  0.026365404  0.026193987            8 
 2931000   0.78476129   -6.6034983    931.24923  0.026477005  0.026186487           13 
 2932000   0.77087318     -6.64037     930.1474  0.026436659  0.026178964           29 
 2933000   0.77395748   -6.6143877    928.72006  0.026387091  0.026171442            9 
 2934000   0.77990805   -6.6452653    926.84402  0.026324813  0.026163847            7 
 2935000    0.7913974   -6.6608472    927.40975  0.026331907  0.026156263            9 
 2936000   0.78610728   -6.6361924    931.58346  0.026441401  0.026148751           10 
 2937000   0.76423443   -6.6435215    930.37292  0.026398051  0.026141317           10 
 2938000    0.7702725    -6.601588    930.12946  0.026382161  0.026133867           18 
 2939000   0.78830941    -6.600504    931.51919  0.026412589  0.026126438           16 
 2940000    0.7908435   -6.6236928    930.94917  0.026387448  0.026118995           11 
 2941000   0.78259366   -6.6253057    931.87192  0.026404622  0.026111592           16 
 2942000   0.78346105   -6.6277247    929.15761  0.026318763  0.026104174           17 
 2943000   0.78019902   -6.6240633    931.70832  0.026382046  0.026096727           11 
 2944000   0.77477951   -6.6251426     932.0085  0.026381581  0.026089353           12 
 2945000   0.77733128     -6.64374    933.26096  0.026408063  0.026081996           12 
 2946000   0.76520547   -6.6181626    932.51717   0.02637806  0.026074549           10 
 2947000   0.78476316   -6.6304526    930.39058  0.026308975  0.026067161            4 
 2948000   0.78392821   -6.6429798    929.40137  0.026272088  0.026059711            6 
 2949000   0.78680694   -6.6378523    933.24117  0.026371684  0.026052261           12 
 2950000   0.79128578   -6.6100853    932.50507  0.026341951  0.026044885            8 
 2951000   0.80252444   -6.5901889    932.19287  0.026324208  0.026037496           10 
 2952000   0.78084461   -6.6391557    930.74553  0.026274434  0.026030071            9 
 2953000   0.78124045   -6.6142639    929.39053  0.026227298  0.026022625            7 
 2954000   0.77002042   -6.5984649    933.42668   0.02633228  0.026015205            8 
 2955000   0.79560148   -6.6017359    932.37952  0.026293839  0.026007801           12 
 2956000   0.77959109   -6.6236007    931.52801  0.026260939  0.026000399           11 
 2957000   0.78365707   -6.6033167    932.57804  0.026281649  0.025992951           23 
 2958000   0.75786006   -6.6168601    932.23991  0.026263238  0.025985501            6 
 2959000   0.76742153    -6.608851    933.97203  0.026303144  0.025978079            8 
 2960000   0.77493261   -6.6340974    931.50983  0.026224939  0.025970668            6 
 2961000   0.76908086   -6.5976579    934.25493  0.026293339  0.025963246           14 
 2962000   0.77421844   -6.6054999    934.40287  0.026288624  0.025955853           11 
 2963000   0.77902996   -6.6173106    932.07833  0.026214375  0.025948472           10 
 2964000   0.76200205   -6.6316019    931.70982   0.02619517  0.025941039            6 
 2965000   0.77259034   -6.6522634    931.23704  0.026173048  0.025933584            3 
 2966000   0.78820289   -6.6223941    933.68164  0.026232907  0.025926132            9 
 2967000   0.77883501   -6.6208921    932.91244  0.026202462  0.025918705           11 
 2968000   0.77414364   -6.6297312    930.61448  0.026129113  0.025911214           16 
 2969000   0.78625087   -6.6390879    932.95702  0.026186062  0.025903739           12 
 2970000   0.77603887   -6.6265191    930.97713  0.026121693  0.025896231            7 
 2971000   0.80047987    -6.642501    932.62897  0.026159233  0.025888746           19 
 2972000    0.7876592   -6.6443459    931.35201  0.026114626  0.025881236           16 
 2973000   0.76912377   -6.6121441    931.39718  0.026107108  0.025873762           11 
 2974000   0.78345012   -6.6328062    931.21867  0.026093327  0.025866312           10 
 2975000   0.77343642   -6.6475164    934.08639  0.026164885  0.025858837           12 
 2976000   0.77871488    -6.625282    931.60708  0.026086668  0.025851414            6 
 2977000   0.79331072   -6.6453122    933.26005  0.026124176  0.025843976            8 
 2978000   0.77308924   -6.6107609    934.61647   0.02615336  0.025836551           14 
 2979000   0.76474974   -6.6364945    932.54967  0.026086765  0.025829134           16 
 2980000   0.78485267   -6.6489713    932.49713  0.026076542  0.025821709           15 
 2981000   0.77901924   -6.6426325    931.46328  0.026038893  0.025814249            8 
 2982000   0.77611973   -6.6179637    932.27372  0.026052809  0.025806816            6 
 2983000   0.79392413   -6.6344914      932.239  0.026043105  0.025799343            6 
 2984000   0.77545043    -6.622916     934.9848  0.026111059   0.02579186           11 
 2985000   0.78050749   -6.6338619    933.85474  0.026070763  0.025784443            7 
 2986000    0.7719568   -6.6455563    934.30726  0.026074661  0.025777033            8 
 2987000   0.77149631   -6.6376492    934.79265  0.026079473  0.025769577            5 
 2988000   0.76015346   -6.6362915     933.2596   0.02602799   0.02576214           10 
 2989000   0.78027529    -6.626478    932.93192  0.026010146  0.025754664            9 
 2990000   0.77895597   -6.6283817    932.50222  0.025989471  0.025747237           11 
 2991000   0.76096348   -6.6609731    933.54891  0.026009944  0.025739731           10 
 2992000    0.7816274   -6.6786975    930.50066  0.025916351   0.02573223           18 
 2993000   0.77282331   -6.6448423     932.4159  0.025961018  0.025724709            9 
 2994000   0.77080598   -6.6532756    930.62411  0.025902475  0.025717209           10 
 2995000   0.76074238   -6.6466081    932.59256  0.025948597  0.025709692           15 
 2996000   0.78474843   -6.6277708    933.36864  0.025961522  0.025702213            6 
 2997000   0.80029625   -6.6534248    932.29454  0.025922994  0.025694693            5 
 2998000   0.78664759   -6.6632118     933.7833  0.025955729  0.025687182            7 
 2999000   0.76783962   -6.6561741    932.34575  0.025907129  0.025679727           10 
 3000000   0.76527914    -6.657512    932.55636  0.025904343  0.025672264           15 
 3001000   0.76933151   -6.6263712    934.39557  0.025946784  0.025664789           10 
 3002000    0.7681177   -6.6789205      932.794  0.025893682  0.025657331           21 
 3003000   0.78284051    -6.672029    933.57995  0.025906869  0.025649833            9 
 3004000   0.74033687    -6.676864    933.68037  0.025901031  0.025642336           17 
 3005000   0.75908298   -6.6579348    930.99511  0.025817945  0.025634822           11 
 3006000   0.77662469   -6.6921076    933.11376   0.02586809  0.025627271           10 
 3007000   0.76726342   -6.6757227    934.37513  0.025894444  0.025619738           22 
 3008000   0.77385772   -6.6615801    935.12126  0.025906506  0.025612276           26 
 3009000   0.76933408   -6.6255842    935.42602  0.025906337  0.025604839            9 
 3010000   0.75939836   -6.6597978     931.9408   0.02580124  0.025597395           11 
 3011000   0.76306023   -6.6723254    931.48986  0.025780191  0.025589927           11 
 3012000   0.77842048   -6.6567624    933.88709  0.025837956  0.025582428           11 
 3013000   0.75871982   -6.6431222    934.29369  0.025840626  0.025574999           13 
 3014000   0.78890878   -6.6676969    933.08116  0.025798528  0.025567532            9 
 3015000    0.7629711   -6.6700011    934.48785  0.025828852  0.025560056           21 
 3016000   0.78115444   -6.6767605    933.33031  0.025788304  0.025552543           11 
 3017000   0.77446267   -6.6734169    932.82813  0.025765886  0.025545063           13 
 3018000   0.77235212   -6.6562877    933.08986  0.025764575  0.025537544           17 
 3019000   0.75494678   -6.6548804    933.72022  0.025773441  0.025530109           12 
 3020000   0.76022148   -6.6565771    932.22331  0.025723601  0.025522632           13 
 3021000   0.76514421   -6.6558813    932.49872  0.025722683  0.025515133           28 
 3022000   0.78020755   -6.6561769    932.26703  0.025707783  0.025507665           26 
 3023000   0.76819537   -6.6847495     931.7626  0.025685373  0.025500193           22 
 3024000    0.7679384   -6.6748415    932.92551  0.025708926  0.025492704            6 
 3025000   0.74913947   -6.6523459    933.95252   0.02572872  0.025485228            8 
 3026000   0.76910537   -6.6358276    932.64956  0.025684335  0.025477816           10 
 3027000   0.78120245   -6.6473478    934.82462  0.025735729  0.025470401            9 
 3028000   0.76375849   -6.6434062    936.03863  0.025760641  0.025463016           10 
 3029000   0.75178255   -6.6490119    935.25504  0.025730578  0.025455582            7 
 3030000   0.76267458   -6.6565167    935.16496  0.025719608   0.02544818            9 
 3031000   0.77181759   -6.6548132    937.09138  0.025764087  0.025440787            3 
 3032000   0.76884525   -6.6224306     935.5963  0.025714498  0.025433398            7 
 3033000   0.75926958   -6.6588701    933.60345  0.025651265  0.025426004            7 
 3034000   0.76958826   -6.6418966    936.18244  0.025713647  0.025418583            6 
 3035000   0.75465217   -6.6524065    936.39092  0.025710898  0.025411163           12 
 3036000    0.7673177   -6.6673366     936.6636  0.025709914   0.02540376            9 
 3037000   0.75716177   -6.6496173    934.16141   0.02563279  0.025396333           14 
 3038000   0.77787729   -6.6560289    938.94624  0.025755602  0.025388929            4 
 3039000   0.75535656   -6.6703026    934.40498    0.0256226    0.0253815           11 
 3040000    0.7539933   -6.6579751    938.31762  0.025721426  0.025374078           10 
 3041000   0.75654793   -6.6801403    937.46389  0.025689573  0.025366647           11 
 3042000   0.76354144   -6.6655413    933.31948  0.025567595  0.025359202           16 
 3043000   0.77189162   -6.6705607    935.14471  0.025609177  0.025351765            9 
 3044000   0.77079665   -6.6743449    934.49164  0.025582885  0.025344339            9 
 3045000    0.7568345   -6.6660389    936.05118  0.025617164  0.025336898            6 
 3046000   0.77595915   -6.6593952    937.70912  0.025654113  0.025329492            9 
 3047000   0.76545099   -6.6764205    933.81214  0.025539113  0.025322038           10 
 3048000   0.76000032   -6.6715479     935.8092  0.025585335  0.025314582           11 
 3049000   0.75934084   -6.6838689    934.84722  0.025550651  0.025307148            7 
 3050000    0.7720966   -6.6527651     935.6391   0.02556391  0.025299678            9 
 3051000   0.76253241   -6.6581016    934.73127  0.025530735  0.025292206           10 
 3052000   0.76746418   -6.6627156    936.36764   0.02556705  0.025284753           13 
 3053000   0.75805514   -6.6652379    934.98611  0.025520966  0.025277297           12 
 3054000   0.76286158   -6.6570964    935.60806   0.02552958   0.02526986            8 
 3055000   0.76163536   -6.6562567    934.20973   0.02548308  0.025262449           10 
 3056000   0.76470445   -6.6587481    936.67938  0.025542086  0.025255011            6 
 3057000   0.76252087   -6.6525246    934.92456  0.025485895  0.025247562           24 
 3058000   0.75545985   -6.6664877    936.41137  0.025518077   0.02524013           27 
 3059000   0.77541005   -6.6736138    935.70204  0.025490412  0.025232691           16 
 3060000   0.76959603    -6.700722    934.22898  0.025441966  0.025225188           11 
 3061000   0.75214112   -6.7084786    935.36417  0.025464559   0.02521769           26 
 3062000   0.75681939   -6.6750597    936.50647   0.02548733  0.025210246           12 
 3063000   0.75798314    -6.633923    936.96925    0.0254916  0.025202824           15 
 3064000   0.76154606   -6.6645343     934.9396  0.025428079  0.025195412           11 
 3065000    0.7702389   -6.6664069    935.38842  0.025431985     0.025188           13 
 3066000   0.76847342   -6.7052314    936.89443  0.025464624  0.025180546            9 
 3067000   0.76249253   -6.6573768    940.07397  0.025542712  0.025173109            9 
 3068000    0.7681216   -6.6616627    936.34938  0.025433219  0.025165679           11 
 3069000   0.75802774   -6.6900467    934.25586  0.025368086  0.025158238            8 
 3070000   0.76283989    -6.670181    937.85945   0.02545764  0.025150782           11 
 3071000   0.77392424   -6.6229916    939.25727  0.025487281  0.025143333            6 
 3072000   0.77335546   -6.6675929    937.38629  0.025428231  0.025135957           21 
 3073000   0.75704899    -6.673109    939.26548  0.025470915   0.02512852           16 
 3074000   0.74621889   -6.7018437    935.20804  0.025352636  0.025121041           17 
 3075000   0.77057267   -6.7101903    935.71096  0.025358021  0.025113574           15 
 3076000    0.7625473     -6.70444    935.54136  0.025345182  0.025106128           16 
 3077000   0.76127399   -6.7309462    935.73956  0.025342313   0.02509864           11 
 3078000   0.75928123   -6.6813711    938.37597  0.025405457  0.025091174           14 
 3079000   0.75262771   -6.6605314    938.46113  0.025399511  0.025083717           10 
 3080000   0.75740492   -6.6803925     935.6234  0.025314486  0.025076308            8 
 3081000   0.75774247    -6.695586    938.18587  0.025375578  0.025068906            6 
 3082000   0.76801558   -6.6569314     936.0781  0.025310353  0.025061523           10 
 3083000     0.752501   -6.6775269    936.24803  0.025306737  0.025054173            6 
 3084000   0.74227183   -6.6893964    938.50186  0.025359432  0.025046794            3 
 3085000   0.75337354    -6.681465    936.31045  0.025292017  0.025039387            9 
 3086000   0.76824482   -6.6970795    938.86433  0.025352785  0.025031985           24 
 3087000   0.74058637   -6.7133271    935.62681  0.025257175  0.025024567           49 
 3088000    0.7515194   -6.6724562    935.41385  0.025243249  0.025017195            8 
 3089000   0.77559419   -6.6786255    938.85638  0.025327948  0.025009838            7 
 3090000   0.77318652   -6.6830643    939.13891  0.025327371  0.025002487           15 
 3091000   0.75954983   -6.6770428     939.3498  0.025324862  0.024995111            7 
 3092000   0.74523193   -6.6707092    936.92967  0.025251446  0.024987707            7 
 3093000   0.74382657    -6.724315    938.19719  0.025277433  0.024980269           19 
 3094000   0.75055778   -6.7139055    934.41927  0.025167509  0.024972813           12 
 3095000   0.75463301   -6.6787279    938.23462  0.025262106  0.024965413           12 
 3096000   0.75945765   -6.6958994    937.94571   0.02524617  0.024958092            7 
 3097000   0.74364158   -6.6902378    941.66527  0.025338103  0.024950757           18 
 3098000   0.76712844   -6.6805825    939.88685  0.025282087  0.024943426           16 
 3099000   0.76612651   -6.6929139    938.55753  0.025238182  0.024936141            7 
 3100000   0.75690532   -6.6875204    938.84087  0.025237658  0.024928807           17 
 3101000   0.75219651    -6.674423    941.03927  0.025288597  0.024921472            7 
 3102000   0.75789479    -6.683582    941.46595  0.025291907  0.024914171           10 
 3103000   0.75041467   -6.7125325    938.75495   0.02521095  0.024906843           15 
 3104000   0.76955203   -6.6881023     940.6341  0.025253278  0.024899523           15 
 3105000   0.75521151   -6.6669942    940.83906  0.025250646  0.024892246           10 
 3106000   0.74443054   -6.6781878    940.66364   0.02523781  0.024885003           13 
 3107000   0.75338592   -6.6859761    939.91525  0.025209614  0.024877736            9 
 3108000   0.76783646   -6.6564051    942.25615  0.025264268  0.024870472           13 
 3109000   0.74538321   -6.6688482    940.64032  0.025212832  0.024863193           10 
 3110000   0.76000583   -6.6673982    940.96037    0.0252133  0.024855909            9 
 3111000   0.76194747   -6.6970353    941.30194  0.025214345  0.024848662            9 
 3112000    0.7500527   -6.6944031    940.45574  0.025183583  0.024841364           16 
 3113000   0.75633069   -6.6843083    941.15436  0.025194195  0.024834117           11 
 3114000   0.74385444   -6.7014492    940.84948  0.025177946  0.024826822           10 
 3115000   0.75723289   -6.6882656    940.66997  0.025165061  0.024819533           10 
 3116000   0.76487373    -6.703867    940.89388  0.025162973  0.024812288           14 
 3117000   0.74228522   -6.6860174    941.12414  0.025161056  0.024805035           13 
 3118000   0.73574258   -6.7037737    940.57081  0.025138198  0.024797728           13 
 3119000   0.75594609   -6.6832565    942.00648  0.025168496  0.024790426           23 
 3120000   0.76660778   -6.7075631    938.20808  0.025058976  0.024783097           40 
 3121000   0.77277037   -6.7096882    939.31668  0.025080548  0.024775802           30 
 3122000   0.74845549   -6.6736821    942.58998  0.025159886  0.024768515           20 
 3123000   0.75708232   -6.6963114     941.6243  0.025126062  0.024761279           31 
 3124000   0.76270163   -6.6923731    941.51997  0.025115236  0.024754029           10 
 3125000   0.75454133    -6.687975    939.75139  0.025060037  0.024746777           16 
 3126000   0.73709167   -6.6995126    940.44615  0.025070541  0.024739497           11 
 3127000   0.74659981   -6.6905471    940.69477   0.02506915  0.024732196           17 
 3128000   0.75254861   -6.6893476    940.65165  0.025059986  0.024724914           11 
 3129000    0.7572117   -6.7251022    938.97316  0.025007275  0.024717655           13 
 3130000   0.76050387   -6.7082467    939.59078  0.025015729  0.024710342            4 
 3131000   0.75460401   -6.6742245     941.8509  0.025067894  0.024703082            9 
 3132000   0.75418641   -6.6694879    943.12382  0.025093758  0.024695822            4 
 3133000   0.75226251   -6.6940879     941.7363  0.025048843  0.024688578           26 
 3134000   0.75680131   -6.7131551    942.29995  0.025055838  0.024681292            8 
 3135000   0.76778647   -6.7021994    940.98529    0.0250129  0.024673983            7 
 3136000   0.73822198   -6.7130934     940.3778  0.024988781  0.024666685            9 
 3137000   0.75343233   -6.7031312    939.70063  0.024962826  0.024659388           20 
 3138000   0.73812001    -6.712898    942.01019  0.025016204  0.024652093           20 
 3139000   0.75618556   -6.7005872    939.58257  0.024943787  0.024644761           18 
 3140000   0.74777668   -6.7232735    941.67708   0.02499143  0.024637451           13 
 3141000   0.75047619   -6.6880226    940.18401  0.024943861  0.024630161           45 
 3142000   0.74733074   -6.7062902    940.06284  0.024932709  0.024622838           13 
 3143000   0.73529846   -6.7264755    942.09888  0.024978759  0.024615505           15 
 3144000   0.75778705   -6.7066769     941.2689  0.024948815  0.024608233           26 
 3145000   0.75331484   -6.6957656    939.83953  0.024903008  0.024600949            9 
 3146000   0.74722767    -6.701495    940.34838  0.024908571  0.024593659           15 
 3147000    0.7514596   -6.7065137    940.37323  0.024901314  0.024586384           26 
 3148000   0.75043018   -6.6881845    942.48235  0.024949236  0.024579101            7 
 3149000   0.75565436   -6.7065832    940.12193  0.024878849  0.024571764           17 
 3150000   0.74756875   -6.7238472    940.43055  0.024879115  0.024564448           12 
 3151000   0.74519501    -6.719417    940.14785  0.024863743  0.024557125           12 
 3152000   0.76638479   -6.7038062    942.34388  0.024913914  0.024549808            9 
 3153000   0.75098037   -6.6844811    941.89475  0.024894142  0.024542504           14 
 3154000   0.75530653   -6.7188138    938.59067   0.02479895  0.024535216           15 
 3155000   0.75474323   -6.6979619    941.72942  0.024873994  0.024527961           14 
 3156000   0.75262113   -6.7378646    941.42482   0.02485807  0.024520639           11 
 3157000   0.75288923   -6.7018747      941.583  0.024854371  0.024513295           10 
 3158000   0.74361418    -6.701802    942.89354  0.024881084  0.024505959           15 
 3159000   0.75479238   -6.7276732    940.65961  0.024814277   0.02449865            5 
 3160000   0.75351511   -6.7194456    941.05896  0.024816956  0.024491327           11 
 3161000   0.74754303   -6.7282612    942.52682  0.024847802  0.024483991           15 
 3162000   0.73131461   -6.7240972    939.34865  0.024756184  0.024476661           14 
 3163000   0.73964773   -6.7094245     941.3837  0.024801973  0.024469336           10 
 3164000   0.74618263   -6.6997731    939.32452    0.0247399  0.024462045           21 
 3165000   0.75732066    -6.703338    942.82626  0.024824283  0.024454759            8 
 3166000   0.74848673   -6.7501741    941.06064  0.024769968  0.024447446           18 
 3167000   0.73353802   -6.7188113    941.78399  0.024781181  0.024440112           22 
 3168000   0.76421513   -6.7145229    941.50656  0.024766061  0.024432793           12 
 3169000   0.74574183   -6.7425032    940.36254  0.024728162  0.024425458            8 
 3170000    0.7714937   -6.7269922    941.01528   0.02473752   0.02441815           13 
 3171000   0.74592996   -6.7086743    941.48893  0.024742167  0.024410863           23 
 3172000   0.76220427   -6.7042084    940.27175  0.024702389  0.024403576           20 
 3173000   0.75504263   -6.7359277    940.39979  0.024697967  0.024396275           23 
 3174000   0.75432548   -6.7248763    942.77136  0.024752451   0.02438897            6 
 3175000   0.73024564   -6.7339347    941.14851  0.024702061  0.024381678           10 
 3176000   0.74472762   -6.7391804    942.38845  0.024726817  0.024374366           15 
 3177000   0.74627538     -6.71769    942.03973  0.024709887  0.024367045           20 
 3178000   0.74767271   -6.7107585    943.70637  0.024745814  0.024359766            7 
 3179000   0.74110352   -6.7304264    943.68736  0.024737532  0.024352461           18 
 3180000   0.73533729   -6.7439291    940.97619  0.024658705  0.024345157           11 
 3181000    0.7362189    -6.764837     941.5014  0.024664712  0.024337841           11 
 3182000   0.74233062   -6.7088717    942.23695  0.024676224  0.024330531           16 
 3183000    0.7470259   -6.7212956    942.06406  0.024663945  0.024323239           23 
 3184000   0.75839921    -6.731406    943.00882  0.024680926  0.024315957           11 
 3185000   0.73435364   -6.7618821    940.95274  0.024619381  0.024308688           12 
 3186000   0.73849416   -6.7132558    942.42481  0.024650157  0.024301441           25 
 3187000   0.75598318   -6.7078781    944.48035  0.024696171  0.024294199           29 
 3188000   0.73491346   -6.7540115    940.09059  0.024573677  0.024286927           30 
 3189000   0.73555101   -6.7444089    943.87176  0.024664779  0.024279687           22 
 3190000   0.72932286   -6.7443948    942.46194  0.024620218  0.024272432           22 
 3191000   0.72757114   -6.7474739    943.02867  0.024627302  0.024265214           14 
 3192000   0.73731356   -6.7331766    943.99705  0.024644869  0.024257989           22 
 3193000   0.74733758   -6.7448637    944.01935  0.024637732  0.024250729           23 
 3194000   0.73909376   -6.7199048    943.16154  0.024607638  0.024243511           41 
 3195000   0.74968802   -6.7461524    945.10604  0.024650653  0.024236296           34 
 3196000   0.73504226   -6.7337142    943.49407  0.024600909  0.024229049           30 
 3197000   0.73668885   -6.7236534    944.97697  0.024631868  0.024221856           31 
 3198000   0.76011267   -6.7369311    944.83873  0.024620563  0.024214674           24 
 3199000   0.74384483   -6.7488338    945.74759  0.024636542  0.024207456           35 
 3200000   0.73613562   -6.7397638     943.6222  0.024573495  0.024200211           52 
 3201000   0.73332144   -6.7559663    941.82694  0.024519081  0.024192968           23 
 3202000   0.73989216   -6.7371433    942.84327  0.024537874  0.024185717           20 
 3203000    0.7125113   -6.7897762    941.80669  0.024503244   0.02417841           21 
 3204000   0.73664755   -6.7678614     941.3781  0.024484449  0.024171153           12 
 3205000   0.74660399    -6.695327    944.52909  0.024558739  0.024163942           13 
 3206000   0.74071878    -6.747776    944.31327  0.024545469  0.024156743           15 
 3207000   0.73029784    -6.729454     944.1586  0.024533796  0.024149499           13 
 3208000   0.72597951   -6.7485636    943.09855  0.024498612  0.024142286           16 
 3209000   0.73610588   -6.7323598    944.24825  0.024520833  0.024135125            7 
 3210000   0.75361477    -6.709544    943.67014  0.024498186  0.024127971           14 
 3211000   0.75181475   -6.7460793    943.23992  0.024479392  0.024120816           19 
 3212000   0.74510539   -6.7369174    943.34397   0.02447447  0.024113681           24 
 3213000   0.74258324   -6.7619791    942.50171  0.024445007  0.024106497           31 
 3214000   0.76120549   -6.7902435    943.16253  0.024454536  0.024099263           19 
 3215000     0.721275   -6.7624953    944.24372  0.024474954   0.02409204           22 
 3216000   0.74324107   -6.7753292    943.39138  0.024445257  0.024084793           24 
 3217000   0.73446534   -6.7175492     946.4325  0.024516436  0.024077576           14 
 3218000   0.73976427   -6.7408371    946.98059  0.024523011    0.0240704           15 
 3219000   0.72949218   -6.7553737    945.48989  0.024476801  0.024063243           23 
 3220000   0.74048409   -6.7523026    947.37998  0.024518115  0.024056105           12 
 3221000   0.72395819   -6.7480746    944.44271  0.024434511  0.024049001           12 
 3222000   0.74154403   -6.7385721    945.81402  0.024462395   0.02404188            9 
 3223000   0.74194854    -6.762902    947.21825  0.024491112   0.02403477           14 
 3224000   0.73891272   -6.7322775     946.6772  0.024469531  0.024027676            7 
 3225000   0.72237567   -6.7418597    945.63411   0.02443499  0.024020564            7 
 3226000   0.73764509   -6.7199917    948.12233  0.024491691  0.024013467            5 
 3227000   0.72798467   -6.7278868     944.0065  0.024377815  0.024006387           11 
 3228000   0.74807113   -6.7395652    946.89317  0.024444785  0.023999282            6 
 3229000   0.74662847   -6.7229128    946.52916   0.02442782  0.023992183           11 
 3230000   0.73151993   -6.7418321    946.22498  0.024412409  0.023985057           13 
 3231000   0.74502847   -6.7404032    946.81878  0.024420169  0.023977936            7 
 3232000   0.74384178   -6.7494025    946.76836  0.024411313  0.023970848           13 
 3233000   0.73085655    -6.717329    945.92708  0.024382078  0.023963745            8 
 3234000   0.71638323   -6.7416199    946.20153   0.02438161  0.023956647           15 
 3235000   0.74140415   -6.7472098    945.89195  0.024366099  0.023949542           18 
 3236000   0.72681411   -6.7763132    944.58143  0.024324821  0.023942413           14 
 3237000   0.74881021   -6.7409785    946.41893   0.02436461  0.023935263            6 
 3238000   0.73836612   -6.7372505    946.00756  0.024346499  0.023928175            6 
 3239000   0.72658018   -6.7572603    944.48404  0.024299785  0.023921103           14 
 3240000   0.72488789   -6.7562164    943.43267  0.024265244  0.023913993            8 
 3241000   0.73028659   -6.7597948    948.95613  0.024399777  0.023906885            9 
 3242000   0.74029702    -6.750795      945.174  0.024295034  0.023899761            9 
 3243000   0.73866474   -6.7589756    945.14921  0.024286905  0.023892646           24 
 3244000   0.72967412   -6.7824954    945.14459    0.0242793  0.023885516           12 
 3245000   0.74525357   -6.7766815    946.00582  0.024293935  0.023878403            9 
 3246000    0.7367607   -6.7434692    946.59332  0.024301533  0.023871292           11 
 3247000   0.74222327   -6.7678624     945.6083  0.024268769  0.023864197           15 
 3248000   0.72463703   -6.7445044    945.39208  0.024255749  0.023857055           19 
 3249000   0.75239222   -6.7585703    947.84532  0.024311206   0.02384994            6 
 3250000   0.72830955   -6.7790483    944.62719   0.02422121  0.023842839           15 
 3251000   0.72305076   -6.7639619    945.59899   0.02423867  0.023835755            9 
 3252000   0.73139529   -6.7548059     946.7024  0.024259492  0.023828708           21 
 3253000   0.72034655   -6.7294267    946.61744  0.024249858  0.023821669            6 
 3254000   0.70673978   -6.7525743    947.36568  0.024261567  0.023814618           25 
 3255000   0.72534041   -6.7471018    948.00127  0.024270386  0.023807589           10 
 3256000   0.72349854   -6.7416011    950.91028  0.024337384  0.023800507           19 
 3257000   0.74061099   -6.7423422    948.89154  0.024278261  0.023793491           10 
 3258000   0.73519914   -6.7456887    949.26109  0.024280261  0.023786426           13 
 3259000   0.74102119   -6.7493312     948.2091  0.024245911   0.02377933           12 
 3260000   0.72518033   -6.7643024     947.8999   0.02423057  0.023772236           13 
 3261000   0.70978008   -6.7735527    946.00162   0.02417463  0.023765144            8 
 3262000   0.71779042   -6.7404038     947.0697  0.024194505  0.023758071           11 
 3263000   0.73807214   -6.7458629    947.30924  0.024193208   0.02375104           17 
 3264000   0.73816759   -6.7524985    949.17001  0.024233303  0.023744016           10 
 3265000   0.72051155   -6.7308046    950.89007  0.024269782  0.023737016           10 
 3266000   0.71633395   -6.7662265    946.05724   0.02413904  0.023730007           19 
 3267000   0.73283639   -6.7535636    947.75977  0.024175078  0.023722983            7 
 3268000   0.75319414    -6.785661    946.56354  0.024137177  0.023715929            6 
 3269000   0.71371064   -6.7760368     945.6426  0.024106317  0.023708858           46 
 3270000   0.72028615   -6.7883956    945.38859  0.024092472   0.02370174           11 
 3271000   0.71679762   -6.7595568    948.98932   0.02417684  0.023694633           13 
 3272000   0.72201206   -6.7908537    948.19379   0.02414919  0.023687504           24 
 3273000   0.72363986   -6.7762913    947.80098   0.02413181   0.02368038           12 
 3274000   0.73424736    -6.785793     946.2531  0.024085041  0.023673258           10 
 3275000   0.71445184   -6.7552515    945.25148    0.0240522  0.023666151           25 
 3276000   0.72532546   -6.7707886    945.29546  0.024045977  0.023659063           16 
 3277000   0.73598695    -6.762635    946.31542  0.024064577  0.023651956           12 
 3278000   0.73299011   -6.7666454    946.32007  0.024057354  0.023644834           18 
 3279000   0.72624946   -6.7595351    946.47049   0.02405384  0.023637705           14 
 3280000   0.72700913   -6.7430838    947.73299  0.024078582  0.023630605           15 
 3281000   0.70906654   -6.7535525    949.08272  0.024105525  0.023623526            9 
 3282000   0.74786398   -6.7633398    947.73259  0.024063899  0.023616464           15 
 3283000   0.73723288   -6.7466244    947.68304  0.024055311  0.023609388           17 
 3284000   0.72330631   -6.7576278    948.12576   0.02405922  0.023602356           20 
 3285000   0.74553953   -6.7507568    947.35844  0.024032431  0.023595333           18 
 3286000   0.72823782   -6.7914406    947.42505  0.024026807  0.023588273           22 
 3287000   0.73768368   -6.7779805    947.53011  0.024022161  0.023581181           39 
 3288000   0.71510222   -6.8161125    947.08155  0.024003486  0.023574069           23 
 3289000   0.74000484   -6.7762236    946.87939  0.023991066  0.023566963           11 
 3290000   0.73858492   -6.8004449    946.20705  0.023966744  0.023559863            5 
 3291000   0.73444011   -6.7995362    945.77657  0.023948561  0.023552783           15 
 3292000   0.72443955   -6.7683991    948.69713  0.024015217   0.02354573           12 
 3293000   0.72311826   -6.7538061    949.85194  0.024037148  0.023538676            7 
 3294000   0.71325052   -6.7380414    948.95699   0.02400721  0.023531597            8 
 3295000   0.74125722   -6.7871989    945.74302   0.02391864  0.023524534            3 
 3296000   0.73546523   -6.7748377    948.53945  0.023982086  0.023517465           11 
 3297000   0.72078485    -6.757664    947.72299  0.023954175  0.023510414           16 
 3298000   0.74755571   -6.7703548    948.26404  0.023960583  0.023503361            5 
 3299000   0.73226549   -6.7653735    950.39519  0.024007153  0.023496316           13 
 3300000   0.74131065   -6.7772869    947.09145  0.023916451  0.023489242           14 
 3301000   0.72636987   -6.7581113    949.19732  0.023962368   0.02348218           12 
 3302000   0.72072811   -6.7280122    951.08487  0.024002748  0.023475149           20 
 3303000   0.71840657   -6.7332137    951.88059  0.024015556  0.023468157           23 
 3304000    0.7268161    -6.755783     947.9418  0.023908944  0.023461102           12 
 3305000   0.72813268    -6.752022    946.87691  0.023874859  0.023454072           17 
 3306000   0.72098785   -6.7842798    946.99273  0.023870557  0.023447047           13 
 3307000   0.72432323   -6.7683768    946.74204  0.023857021  0.023440022           14 
 3308000    0.7287872   -6.7448465    946.88563  0.023853427   0.02343297           14 
 3309000   0.72143187   -6.7329474     948.5246  0.023887494  0.023425894           13 
 3310000   0.72495215   -6.7712417    947.43202   0.02385277  0.023418826           18 
 3311000   0.73373008   -6.7649502    949.51885  0.023898088  0.023411757           16 
 3312000   0.71706338   -6.7611423    948.13721  0.023856109  0.023404682           16 
 3313000   0.71133365   -6.7900835    948.12703  0.023848653  0.023397626           16 
 3314000   0.72330787   -6.7644206     947.9623  0.023837314  0.023390554           13 
 3315000   0.71610784   -6.7742511     947.3952  0.023815867  0.023383454           11 
 3316000   0.72685961   -6.7735062    947.88156  0.023820908  0.023376353           11 
 3317000   0.71700638   -6.7861821    947.04651  0.023792747  0.023369308           16 
 3318000   0.73607171   -6.7685384    948.37197  0.023818866  0.023362224           21 
 3319000     0.716321   -6.7875161    947.56411  0.023791406  0.023355126           21 
 3320000   0.71440547   -6.7715142    946.30246  0.023752572  0.023348072           12 
 3321000   0.70424704   -6.7745978    948.22411  0.023793639  0.023340989           12 
 3322000   0.71130777    -6.772563    946.67501  0.023747617  0.023333923           23 
 3323000    0.7081637   -6.7683737    946.97953  0.023748107  0.023326854           19 
 3324000   0.72284647   -6.7643636    946.62157  0.023731989  0.023319779           10 
 3325000   0.73004217   -6.7712064    948.94963  0.023783199  0.023312693           13 
 3326000   0.73420903   -6.7885422    946.37551  0.023711553  0.023305614           28 
 3327000   0.70852384   -6.8194712    945.38869  0.023679709  0.023298538           50 
 3328000   0.73093099   -6.7836226    947.57398  0.023727313  0.023291473           16 
 3329000   0.72777807    -6.783451    947.81555  0.023726233  0.023284411           31 
 3330000   0.71420918   -6.7817816    947.37316  0.023708037  0.023277337           27 
 3331000     0.716931   -6.7789565    947.78979  0.023711343  0.023270272           46 
 3332000    0.7245565    -6.819473    946.46162  0.023671009  0.023263214           23 
 3333000   0.72397121   -6.7883939    950.51103  0.023765152  0.023256141            7 
 3334000   0.72151581   -6.7838089    947.05465  0.023671632  0.023249058           13 
 3335000   0.72736351   -6.7959752    947.88485  0.023685279  0.023241957            9 
 3336000   0.71949139   -6.7789096    946.84315  0.023652157  0.023234884           20 
 3337000   0.71689011   -6.8231382    948.73362  0.023692279  0.023227784           11 
 3338000   0.71113042   -6.8080011    948.42912  0.023677579  0.023220674           13 
 3339000    0.7031282   -6.8088131    947.49357  0.023647139  0.023213598           27 
 3340000   0.71591353   -6.7998095    947.08151  0.023629778  0.023206506            6 
 3341000   0.71408214   -6.7711693    950.40575  0.023705621  0.023199465           12 
 3342000    0.7080954   -6.7822219    949.01917  0.023663953  0.023192429            7 
 3343000   0.70971007   -6.7996173     948.1935  0.023636292  0.023185424           12 
 3344000   0.71235754   -6.7977766    948.76199  0.023643391   0.02317842            9 
 3345000   0.71054993    -6.784638     949.2694  0.023648964  0.023171415           11 
 3346000   0.72783479   -6.8161379    949.04493  0.023636305   0.02316438            9 
 3347000   0.71128592   -6.7825921    948.65222  0.023619466   0.02315741            8 
 3348000   0.71860537   -6.7852815    949.80654  0.023641143  0.023150451           10 
 3349000   0.72890625   -6.7914618    950.92842  0.023661999  0.023143488           10 
 3350000   0.70771695   -6.8050071    948.19814  0.023587018  0.023136493           13 
 3351000   0.71985849   -6.7860754    950.56635  0.023638873  0.023129519            8 
 3352000   0.69772872   -6.7810477    950.31558  0.023625586  0.023122553           13 
 3353000   0.71755094     -6.81614    949.71257  0.023603553  0.023115549           36 
 3354000   0.71636232   -6.8045744     949.1803  0.023583291  0.023108576           18 
 3355000   0.70412137   -6.7757296    951.63316  0.023637187  0.023101608           17 
 3356000   0.70415663   -6.8333743    950.24587  0.023595696  0.023094662           27 
 3357000   0.71954992   -6.7700425    950.57865  0.023596928  0.023087709            8 
 3358000   0.69731825   -6.8004428    948.40427  0.023535941  0.023080783           14 
 3359000   0.69822729   -6.8150402    951.17139  0.023597583   0.02307381           13 
 3360000   0.70154431   -6.8047258    950.46039  0.023572926  0.023066859           14 
 3361000   0.72279779   -6.8090461    949.83527  0.023550413  0.023059919           14 
 3362000   0.70410542   -6.7840874    950.67179  0.023564143  0.023052967           20 
 3363000    0.7176507   -6.7814124     951.4968  0.023577579  0.023046052           12 
 3364000    0.7094051    -6.790019    951.21356  0.023563554  0.023039138            9 
 3365000   0.70370718   -6.8220923    948.73474  0.023495165  0.023032168           16 
 3366000   0.69927853   -6.8379808    950.94968   0.02354302  0.023025183           15 
 3367000   0.70827767   -6.7792157    949.95477  0.023511404   0.02301823           11 
 3368000   0.71678422   -6.7840999    952.12238  0.023558056  0.023011289           18 
 3369000   0.70157572   -6.7954878    950.13201  0.023501831  0.023004346           29 
 3370000   0.71072929   -6.8075933    950.56357  0.023505528  0.022997409           14 
 3371000   0.70989977   -6.8027164    951.27962  0.023516257  0.022990461           43 
 3372000   0.70776738   -6.8233352    949.81379  0.023473057  0.022983495           23 
 3373000   0.72221985   -6.8166933    948.44402  0.023432257  0.022976549           12 
 3374000    0.7123875   -6.8321619    948.26142  0.023420802  0.022969583           11 
 3375000   0.71693913   -6.8331597    952.19171  0.023510907  0.022962619           14 
 3376000   0.71496677    -6.810025    950.12328  0.023452885  0.022955674           20 
 3377000   0.71822331    -6.787136    951.19297  0.023472337  0.022948747           19 
 3378000   0.70021517   -6.8132902     952.9965   0.02350988  0.022941801           10 
 3379000   0.71780744   -6.8159453    953.27932  0.023509897  0.022934901           23 
 3380000   0.70470578   -6.8026613    950.35883  0.023430938  0.022927986           11 
 3381000   0.69680207   -6.8191778    950.80233  0.023434939  0.022921078            8 
 3382000   0.71994431   -6.8130896    948.90211  0.023381187  0.022914143           29 
 3383000   0.73595931   -6.8097263    949.59606   0.02339137    0.0229072           14 
 3384000   0.71503587   -6.8177147    950.81776  0.023414543  0.022900262           14 
 3385000   0.70178195   -6.8198334      949.984    0.0233871  0.022893324           17 
 3386000   0.69242525    -6.813423    949.79139  0.023375453  0.022886393           15 
 3387000   0.70367036   -6.8414474     952.5475  0.023436362  0.022879458           10 
 3388000   0.70089444   -6.8114163    953.84716  0.023461412  0.022872572            9 
 3389000   0.70150576    -6.802499     952.8072  0.023428917  0.022865665           10 
 3390000   0.71172312   -6.7950259    950.93652  0.023376021   0.02285875           22 
 3391000   0.71766884   -6.8286387    950.04785  0.023347288  0.022851825           14 
 3392000   0.71020316    -6.829831    951.35038  0.023372405  0.022844888           32 
 3393000   0.69228221   -6.7878327    953.60065  0.023420784   0.02283799           12 
 3394000   0.71374988   -6.8086667    951.68116  0.023366754  0.022831102           15 
 3395000   0.69219558   -6.8292147    950.29657  0.023325885   0.02282419           11 
 3396000   0.70037609   -6.8416424    949.32682   0.02329522  0.022817236           14 
 3397000   0.71572713   -6.8177441    949.72267  0.023298074  0.022810305           13 
 3398000   0.69397178   -6.8215292    950.89039  0.023319854  0.022803387           32 
 3399000   0.73158184    -6.845688    950.20211  0.023296119  0.022796452           21 
 3400000   0.69403282   -6.8190429    950.59068  0.023298791  0.022789532           19 
 3401000    0.7227739   -6.8173145    951.93016  0.023324761  0.022782648            7 
 3402000   0.72051539   -6.8226572    950.99053  0.023294889  0.022775767           33 
 3403000   0.71173355    -6.814743     951.7111  0.023305689   0.02276886           17 
 3404000   0.71298382   -6.8307411    951.66511  0.023297716  0.022761951           13 
 3405000   0.70767688   -6.8314851    950.10378  0.023252662  0.022755043           21 
 3406000    0.7079527   -6.8364926      948.973  0.023218169   0.02274814           17 
 3407000   0.70887999   -6.8223056    950.77731  0.023255486    0.0227412           19 
 3408000   0.70416409   -6.8412915    949.99677  0.023229577  0.022734262           26 
 3409000   0.70526696   -6.8316276    949.34428  0.023206812  0.022727308           15 
 3410000   0.70393082   -6.8311469    951.83134  0.023260785  0.022720386           17 
 3411000   0.71278948   -6.8038604    952.73217  0.023275974  0.022713479            8 
 3412000   0.71192544   -6.8408317      949.171  0.023182176  0.022706537           10 
 3413000   0.71379417     -6.84407    950.71725  0.023213137  0.022699584           19 
 3414000   0.70005048   -6.8617223    949.26451  0.023170877  0.022692646           29 
 3415000   0.70132432   -6.8774982    950.11442  0.023184832  0.022685672           16 
 3416000   0.69572006   -6.8226837     951.1662  0.023203703  0.022678733           18 
 3417000   0.72269466   -6.8250263    953.26683  0.023248142  0.022671852           16 
 3418000   0.70131113   -6.8371058    949.10247  0.023139811  0.022664944           32 
 3419000   0.70829985   -6.8449579     951.1181  0.023182171  0.022658053           23 
 3420000    0.7133315    -6.827564    950.66935  0.023164458  0.022651134           10 
 3421000   0.69506211   -6.8498763    951.11787  0.023168612   0.02264421           21 
 3422000   0.71353223   -6.8510785    948.84648  0.023106528  0.022637279           12 
 3423000   0.70758341   -6.8061754    950.61371  0.023142801  0.022630394           15 
 3424000   0.72458573   -6.8285192    951.96272  0.023168875  0.022623541           12 
 3425000   0.69486468   -6.8363413    951.50069  0.023150868  0.022616657           18 
 3426000   0.69785103   -6.8601176    951.83496  0.023152242  0.022609756           22 
 3427000   0.70968432   -6.8229312    952.18327  0.023153956  0.022602884           18 
 3428000   0.69812462   -6.8189491     951.9591  0.023141752  0.022596007           15 
 3429000    0.7084065   -6.8247671    950.18771  0.023091954  0.022589113           14 
 3430000   0.70642533   -6.8446222    953.03696  0.023154445   0.02258221           22 
 3431000   0.69797588   -6.8558176    950.09275  0.023076187  0.022575308           13 
 3432000   0.70052078   -6.8418942    950.41276  0.023077233  0.022568411           13 
 3433000   0.71813105   -6.8206555    951.55316  0.023098193  0.022561529           24 
 3434000   0.70440664    -6.833805    953.17678  0.023130867  0.022554647           44 
 3435000   0.69228837   -6.8414635    950.62193  0.023062153  0.022547775           12 
 3436000   0.69909409   -6.8469278     950.3268  0.023048283  0.022540895           22 
 3437000   0.70849861   -6.8493701    948.89967  0.023006975   0.02253397           15 
 3438000   0.70088751   -6.8690824    950.34812  0.023035392  0.022527049           12 
 3439000   0.68666425   -6.8437079    948.49896  0.022983885  0.022520113           14 
 3440000   0.71725292   -6.8411961    950.68873   0.02303025  0.022513233           20 
 3441000   0.69985301   -6.8458322    949.73431  0.023000443  0.022506315           23 
 3442000   0.71113991    -6.836287    951.39829  0.023034047  0.022499401           23 
 3443000   0.70037954   -6.8307196    950.41614  0.023003586  0.022492509           16 
 3444000   0.69654821   -6.8541407    949.53084  0.022975485  0.022485585           25 
 3445000   0.69786138   -6.8847695    946.77149  0.022902068  0.022478666           20 
 3446000   0.69308983   -6.8702528    950.52506  0.022986193  0.022471692           45 
 3447000   0.70067246    -6.845634     949.5296  0.022955459  0.022464746           54 
 3448000   0.71128731   -6.8592705    949.86732  0.022956963  0.022457809           35 
 3449000    0.6909307   -6.8369222    949.85933  0.022950114  0.022450867           21 
 3450000   0.68623777   -6.8436442     952.1573  0.022998969  0.022443956           33 
 3451000   0.69977198   -6.8511578    949.67399  0.022932338  0.022437028           37 
 3452000   0.69205323   -6.8550283    950.10518  0.022936104  0.022430122           35 
 3453000   0.69709579     -6.83846    950.21965  0.022932224  0.022423207           42 
 3454000   0.70081666   -6.8624985      951.114  0.022947163  0.022416302           50 
 3455000   0.70368376   -6.8522538    949.43273  0.022899969  0.022409376           31 
 3456000   0.68850519   -6.8596919    950.33426  0.022915081  0.022402485           16 
 3457000   0.68365417   -6.8504509    952.31747   0.02295626  0.022395597           24 
 3458000   0.69483915   -6.8638839    950.98514  0.022917513  0.022388705           14 
 3459000   0.68382884    -6.816956    952.62298  0.022950346  0.022381829           22 
 3460000   0.68714016   -6.8548005     948.5888  0.022846551  0.022374985           29 
 3461000   0.69085787   -6.8588705    952.06836   0.02292373   0.02236812           16 
 3462000   0.69966024   -6.8470651    951.65477  0.022907153  0.022361225           18 
 3463000   0.70307032   -6.8466454    951.75187  0.022902875  0.022354385           19 
 3464000   0.71117171    -6.857137    952.56352  0.022915789  0.022347532           26 
 3465000   0.69598288   -6.8419076    950.48895  0.022859282  0.022340691           24 
 3466000   0.69166888    -6.876257     951.0829  0.022866967  0.022333841           12 
 3467000   0.70281214   -6.8578162    952.00073  0.022882433  0.022326995           32 
 3468000   0.69787067   -6.8422937    952.55197   0.02288908  0.022320131           27 
 3469000   0.70378462   -6.8550558    950.69656  0.022837911  0.022313294           19 
 3470000   0.70668188   -6.8553869    953.35776  0.022895239  0.022306461           43 
 3471000   0.68764264   -6.8448206    951.32771  0.022839905  0.022299634           22 
 3472000   0.69470832   -6.8476747    952.33548  0.022857514   0.02229282           13 
 3473000    0.6918287   -6.8211181    953.97138  0.022890186   0.02228601           23 
 3474000   0.69865364   -6.8208345     954.5983  0.022898635  0.022279223           17 
 3475000   0.71160936   -6.8669963    950.96088  0.022804817  0.022272413           40 
 3476000    0.7086006   -6.8751254    950.69633  0.022791914  0.022265553           23 
 3477000   0.70043394   -6.8797625    949.25187   0.02275074  0.022258697           26 
 3478000   0.69970516    -6.875989    952.58544  0.022824071  0.022251833           28 
 3479000   0.70658931   -6.8720263    950.86229  0.022776236  0.022244992           14 
 3480000   0.68540596   -6.8617843    953.46183   0.02283194  0.022238149           19 
 3481000   0.70495788   -6.8676755    950.42014  0.022752565  0.022231298           10 
 3482000   0.70308587   -6.8493665    951.73584  0.022777519  0.022224442           30 
 3483000   0.68873643   -6.8431024     949.6947  0.022722143  0.022217585           54 
 3484000    0.7032422    -6.882828    950.78701  0.022741748  0.022210694           54 
 3485000   0.69986084   -6.8584155    951.23078  0.022745834  0.022203826           26 
 3486000   0.68854812   -6.8942082    951.46341   0.02274487   0.02219695           31 
 3487000   0.70200877   -6.8947818    949.65278  0.022695077  0.022190066           17 
 3488000   0.70994174   -6.8741576    950.88449  0.022717997  0.022183184           11 
 3489000   0.69953526   -6.8586064    951.19866   0.02271899  0.022176345           30 
 3490000   0.68918301   -6.8751949    953.64165  0.022770813  0.022169508           23 
 3491000   0.70450496   -6.8540665    952.78757  0.022743903  0.022162679           13 
 3492000   0.68685136   -6.8358331     951.3548  0.022703198  0.022155855           27 
 3493000   0.69564157    -6.873846    951.14096  0.022691597  0.022149032           12 
 3494000   0.70348112   -6.8549955    952.62333  0.022720457   0.02214219           17 
 3495000   0.69241808   -6.8730981    952.23819  0.022704773   0.02213536           23 
 3496000   0.70090351   -6.8963985    949.69449  0.022637645   0.02212851           43 
 3497000   0.69041683   -6.8760639    951.99645  0.022686027  0.022121664           28 
 3498000   0.70528493   -6.8625079    948.06287  0.022585832  0.022114813           14 
 3499000   0.68812451   -6.8921446    949.96925   0.02262478  0.022107973           26 
 3500000   0.70138764   -6.8837727    950.19956  0.022623799  0.022101147           20 
 3501000   0.69308159   -6.8908031    953.09733  0.022686312  0.022094338           27 
 3502000   0.70094696   -6.8881748    950.13963  0.022609452  0.022087542           19 
 3503000    0.6985708   -6.8648653    951.75927  0.022641528  0.022080721           23 
 3504000   0.68727387   -6.8700933    951.66963  0.022632934  0.022073922           11 
 3505000    0.6931879   -6.8575364    953.17939  0.022662373  0.022067116            9 
 3506000   0.69988303   -6.8829907    951.47547  0.022615409  0.022060305           15 
 3507000   0.69021753   -6.8517733    952.93032   0.02264353  0.022053521           17 
 3508000   0.68775497   -6.8677649    950.99299  0.022591053  0.022046734           11 
 3509000   0.70527341   -6.8481617    953.87633   0.02265309  0.022039958           15 
 3510000   0.68838957    -6.877402    948.80515  0.022526238  0.022033147            9 
 3511000   0.68651855    -6.879844    950.89823  0.022569501  0.022026293           27 
 3512000   0.70398698    -6.870544    952.88025  0.022610105  0.022019459           14 
 3513000   0.69358459   -6.8903818    950.15739  0.022539078  0.022012584           14 
 3514000   0.71041128   -6.8723768    951.25381  0.022558666  0.022005741           17 
 3515000   0.68970814   -6.8905464    951.51757  0.022558501  0.021998883           36 
 3516000   0.68699109   -6.8827968    949.37254  0.022501245  0.021992026           20 
 3517000    0.7047086   -6.8802269    949.19785  0.022490708  0.021985199           13 
 3518000   0.70065798   -6.8649743    952.69497  0.022567154  0.021978378           22 
 3519000   0.67519031   -6.8425121    952.01329  0.022544598  0.021971567           17 
 3520000   0.70642499   -6.8912031    951.10586  0.022516711  0.021964756           17 
 3521000   0.68708038   -6.8747366    952.60153  0.022545715   0.02195795           26 
 3522000   0.68643299   -6.8892421    949.71918  0.022471115  0.021951138           13 
 3523000   0.67820853    -6.878818    950.64659  0.022486673  0.021944348           25 
 3524000   0.68838377   -6.8551507    953.49361  0.022547617   0.02193758           11 
 3525000   0.68983528   -6.8541549    954.65702  0.022568724  0.021930841           17 
 3526000   0.68239275   -6.8328427     954.1049  0.022549274  0.021924104           12 
 3527000   0.67880823   -6.8490442     950.2142  0.022450954  0.021917325           21 
 3528000   0.68366984   -6.8528095    955.16506  0.022561533   0.02191057           13 
 3529000   0.69628427    -6.857279    952.47388  0.022491591  0.021903822           62 
 3530000   0.68161589   -6.8590594    953.75535  0.022515471   0.02189706           30 
 3531000   0.70057318   -6.8779794    954.29298  0.022521783  0.021890332           55 
 3532000    0.6963236   -6.8690612    954.39322  0.022517771  0.021883606           36 
 3533000   0.68092393   -6.8944985    950.07117  0.022409453  0.021876851           21 
 3534000   0.67958889    -6.834113    951.76279  0.022443001  0.021870092           13 
 3535000   0.68542848   -6.8705895    953.19394   0.02247039  0.021863325           18 
 3536000   0.67889273   -6.8858546    950.07643  0.022390564   0.02185653           27 
 3537000   0.68720228   -6.8818101    951.24766  0.022411829  0.021849723           14 
 3538000   0.69547978   -6.8718002     951.8714  0.022420186  0.021842939           23 
 3539000   0.67982984   -6.8756129    953.04656  0.022441522  0.021836145           16 
 3540000   0.67681358   -6.8837337    950.15849  0.022367196   0.02182936           23 
 3541000   0.68272557    -6.916838    948.77598  0.022328344  0.021822552           27 
 3542000   0.67144272   -6.9277955    949.78833  0.022345858  0.021815719           20 
 3543000   0.68795697   -6.9049313    951.06798  0.022369649  0.021808866           30 
 3544000   0.69685434   -6.9098387    950.78827  0.022356759  0.021802048           22 
 3545000   0.68769208   -6.9020754    953.08116  0.022404353  0.021795247           36 
 3546000   0.68398603   -6.9158476    948.99314  0.022301963  0.021788444           21 
 3547000   0.68392146   -6.9009439    951.26816  0.022349125  0.021781647           17 
 3548000   0.66866725   -6.9077529     949.1929  0.022294084  0.021774849           20 
 3549000    0.6774607   -6.8738038    951.74858  0.022347811  0.021768066           14 
 3550000   0.68215114   -6.8987464    950.47708  0.022311668  0.021761279           21 
 3551000   0.68130398   -6.8898423    950.41606  0.022303953  0.021754521           54 
 3552000   0.69036775   -6.8728186    953.17237   0.02236234  0.021747766           36 
 3553000   0.67712382   -6.8956122    952.14141  0.022331865  0.021741006           25 
 3554000   0.68191843   -6.8761823    951.28059  0.022305397  0.021734245           40 
 3555000   0.68428553   -6.8933245    948.74361  0.022239653  0.021727493           21 
 3556000   0.68766102   -6.8967846     951.1735  0.022290343  0.021720745           22 
 3557000    0.6762212   -6.9116818    950.56769  0.022269883  0.021713984           32 
 3558000    0.6827908   -6.9038095    950.57098  0.022263701  0.021707223           34 
 3559000   0.68296384   -6.9002452    950.24417  0.022249793  0.021700445           19 
 3560000    0.6835183   -6.9065166    951.81261  0.022280258  0.021693677           54 
 3561000   0.67653783   -6.9152725    949.32356  0.022215753  0.021686888           17 
 3562000   0.70788847   -6.9202096    949.86558  0.022222197  0.021680087           20 
 3563000   0.68132306   -6.9136359    951.05414  0.022243759    0.0216733           30 
 3564000   0.67240433   -6.8851457    952.67308  0.022275371  0.021666535           70 
 3565000   0.68752601   -6.9214211    951.57085  0.022243358  0.021659781           49 
 3566000   0.66438808   -6.9005846    951.64801  0.022238923  0.021652972           55 
 3567000   0.67391879   -6.8907132    949.76834  0.022188775   0.02164617           43 
 3568000   0.68249114   -6.8773953    953.08711  0.022260069  0.021639405           42 
 3569000   0.67745564   -6.8889259    951.87057  0.022225427  0.021632645           19 
 3570000   0.66529057   -6.9203437    952.91038  0.022243473  0.021625887           46 
 3571000   0.67733722    -6.899635    951.59274  0.022206495  0.021619107           19 
 3572000   0.67821912   -6.9118323    950.39761  0.022172397  0.021612322           25 
 3573000    0.6760499   -6.9101211    951.78954  0.022198655  0.021605543           55 
 3574000   0.68939048   -6.8926658    948.25016  0.022109918  0.021598753           39 
 3575000   0.69245288   -6.9124122    949.41831  0.022130963  0.021591972           44 
 3576000   0.69115577   -6.9072793    951.19927  0.022166277  0.021585177           42 
 3577000    0.6861335   -6.9227192    951.12073   0.02215825  0.021578384           59 
 3578000   0.68204075   -6.9176667    950.11575  0.022128651   0.02157159          100 
 3579000   0.66566375    -6.896839    951.73508  0.022160172  0.021564819           56 
 3580000    0.6889291    -6.923213    951.99757  0.022160093   0.02155805           64 
 3581000    0.6821762   -6.9250381    950.34191  0.022115375  0.021551296           50 
 3582000   0.68573037   -6.8982787    952.46458  0.022158584   0.02154455           73 
 3583000   0.67669871    -6.917341    950.03134  0.022095808  0.021537778           69 
 3584000    0.6800202    -6.909016    953.26716   0.02216488  0.021531008          142 
 3585000   0.68185041   -6.9185133    951.20203  0.022110693  0.021524248           79 
 3586000   0.67174331   -6.9380017    948.18817   0.02203449  0.021517495           54 
 3587000   0.69031296   -6.9124848    950.02408  0.022070999   0.02151074           61 
 3588000    0.6745431   -6.9115895    951.35438  0.022095745  0.021504011           75 
 3589000   0.68100194   -6.9297374    950.30575   0.02206524  0.021497269           22 
 3590000   0.68257725   -6.9146943    951.38831  0.022084223  0.021490545           31 
 3591000   0.67887769   -6.9212641    951.76546  0.022086825  0.021483797           47 
 3592000   0.69289557   -6.9349978    950.13966  0.022042958  0.021477062           28 
 3593000   0.66813198   -6.9000447    951.93744  0.022078519  0.021470306           15 
 3594000    0.6878856   -6.9235721    949.84604  0.022023883  0.021463571           31 
 3595000   0.67870073   -6.8946857     949.8506  0.022017863  0.021456831           35 
 3596000   0.66261478   -6.9028898     952.1378  0.022064743  0.021450111           44 
 3597000   0.67996563    -6.916364    951.61211   0.02204643  0.021443376           50 
 3598000   0.66745962   -6.9148905    951.83398  0.022045441  0.021436637           54 
 3599000   0.67812029   -6.9208764     952.2052  0.022047912  0.021429899           31 
 3600000   0.68415592   -6.9226444    950.49646  0.022002233  0.021423172           32 
 3601000   0.68778247   -6.8870136    951.42732  0.022017664   0.02141647           73 
 3602000   0.68389946   -6.9059226    951.95203  0.022023691  0.021409802           38 
 3603000   0.65923434    -6.909269    949.57652  0.021962636  0.021403079           51 
 3604000   0.67603491   -6.9085383    950.23103  0.021971676  0.021396343           37 
 3605000   0.66866317   -6.9148578    952.24394  0.022012111  0.021389625           27 
 3606000   0.67753352   -6.8847604    953.27899  0.022029927  0.021382915           18 
 3607000   0.67449497   -6.9211733    951.69133  0.021987139  0.021376193           30 
 3608000   0.67001221     -6.92015    952.04421  0.021989196  0.021369496           35 
 3609000     0.685796   -6.9359727    952.75609   0.02199954   0.02136278           30 
 3610000   0.68219645   -6.9132083    950.75857  0.021947335  0.021356076           22 
 3611000   0.66648431   -6.9114709    952.23117  0.021975242  0.021349382           22 
 3612000   0.64892288   -6.9387005     951.0899  0.021942827  0.021342682           36 
 3613000    0.6750473   -6.9455671    950.55041   0.02192431  0.021335974           34 
 3614000   0.68073003   -6.9447576    949.58683  0.021896025  0.021329239           59 
 3615000   0.67176421   -6.9381538     949.0047  0.021876549  0.021322515           59 
 3616000   0.66182317   -6.9298039    950.82322  0.021912408  0.021315795           49 
 3617000   0.66484207   -6.9355889    952.32116  0.021940862  0.021309072           81 
 3618000   0.67654134   -6.9463995    951.39153  0.021913385  0.021302378           49 
 3619000   0.66405877    -6.933267    951.52527   0.02191041  0.021295685           30 
 3620000   0.67126313   -6.9344948    951.36752  0.021900726  0.021288979           49 
 3621000    0.6905128   -6.9204112    949.54427  0.021852717  0.021282279           39 
 3622000   0.67633464   -6.9083747    953.37978   0.02193493  0.021275601           38 
 3623000   0.66906466   -6.9534615    948.76432  0.021822714  0.021268903           19 
 3624000    0.6656927   -6.9073203    953.11258   0.02191668  0.021262199           33 
 3625000    0.6685054   -6.9086919    951.89818  0.021882717  0.021255489           38 
 3626000   0.67664003   -6.9418378    951.19209  0.021860454  0.021248823           43 
 3627000   0.66171258   -6.9219737    950.77704  0.021844891  0.021242156           46 
 3628000   0.68719041   -6.9541317    950.55905  0.021833863  0.021235457           73 
 3629000    0.6615658   -6.9614779    949.16311  0.021795791  0.021228729           86 
 3630000   0.68133893   -6.9511624    951.17531   0.02183598  0.021222013          115 
 3631000   0.66036215    -6.925319    950.56807   0.02181603  0.021215319           47 
 3632000   0.67030699   -6.9462714    948.81428  0.021769784  0.021208604           96 
 3633000   0.66371021   -6.9671881     948.7555  0.021762444  0.021201867           57 
 3634000   0.67404667   -6.9365861    950.77756  0.021802824  0.021195143           30 
 3635000   0.64829812   -6.9321465     948.2658  0.021739243  0.021188411           16 
 3636000   0.66591964   -6.9394542    951.44665  0.021806166  0.021181679           44 
 3637000   0.66730171   -6.9443891    949.70299  0.021760219  0.021174946           23 
 3638000   0.68406546   -6.9417591    949.87771   0.02175824  0.021168226           28 
 3639000   0.65813511   -6.9351441    951.80198  0.021796326  0.021161512           27 
 3640000   0.65933765   -6.9499955     949.3433   0.02173405  0.021154783          113 
 3641000   0.66644682   -6.9457169    951.83164  0.021785033  0.021148075           14 
 3642000   0.65462984   -6.9572579    950.14443  0.021740446   0.02114138           18 
 3643000   0.67497346   -6.9299375    952.46906  0.021787653  0.021134691           37 
 3644000   0.66242934   -6.9208757    953.43755  0.021803823  0.021128014           39 
 3645000   0.68435956   -6.9591367    948.78809  0.021691543  0.021121344           31 
 3646000   0.67353519   -6.9201096    949.46553  0.021701077  0.021114655           40 
 3647000   0.67108313   -6.9520236      950.912  0.021728178  0.021107938           53 
 3648000   0.67734983   -6.9289281    952.15036  0.021750511  0.021101256           81 
 3649000   0.65778688   -6.9566363     952.2057  0.021745814   0.02109458           32 
 3650000   0.66599245   -6.9229462    951.29249  0.021719007    0.0210879           46 
 3651000   0.67207142   -6.9224538     950.0367  0.021684395  0.021081212           49 
 3652000   0.65518902   -6.9152423    951.75426  0.021717649  0.021074553           34 
 3653000   0.67045566   -6.9187429    951.80111  0.021712773  0.021067908           46 
 3654000   0.67920562   -6.9345656    950.96096   0.02168767  0.021061252           30 
 3655000   0.66651493   -6.9284131    951.80381  0.021700953  0.021054611           24 
 3656000   0.66234691   -6.9194967    952.60075  0.021713183  0.021047985           58 
 3657000     0.638466   -6.9325247    950.93116    0.0216692  0.021041356           50 
 3658000    0.6650942   -6.9417757    951.97475   0.02168705  0.021034704           60 
 3659000   0.66017738   -6.9397147    951.48462   0.02166996  0.021028078           49 
 3660000   0.66454253   -6.9566193    950.49651  0.021641542  0.021021471           42 
 3661000   0.66037789    -6.939234      951.711  0.021663275   0.02101483           46 
 3662000   0.66160661   -6.9336493    950.14018  0.021621613  0.021008191           48 
 3663000   0.66374453    -6.960371    954.47748  0.021714384  0.021001577           35 
 3664000    0.6598821   -6.9654929    952.14986  0.021655519  0.020994959           54 
 3665000   0.66706807   -6.9220818    953.49488  0.021680193  0.020988356           40 
 3666000   0.67480105    -6.940266     952.2018  0.021644885  0.020981795           14 
 3667000   0.66546938   -6.9335872     952.4205  0.021643953  0.020975229           16 
 3668000   0.66456193   -6.9250283    952.35612  0.021636589  0.020968656           31 
 3669000   0.65404937   -6.9606408    951.37609  0.021608433  0.020962081           38 
 3670000   0.67802574   -6.9414108    951.73415  0.021610676  0.020955489           41 
 3671000   0.67282707   -6.9300737    953.16631  0.021637299  0.020948911           23 
 3672000   0.66726772   -6.9228377    952.32559  0.021612327  0.020942321           36 
 3673000   0.65977568   -6.9496739    952.29071  0.021605652  0.020935732           20 
 3674000   0.66973553   -6.9534687    953.24172  0.021621342  0.020929109           50 
 3675000   0.66608027   -6.9561823    950.61318  0.021555854  0.020922495           27 
 3676000   0.64935797   -6.9604964    948.44568  0.021500854  0.020915848           30 
 3677000   0.66238066   -6.9451986    953.20906  0.021602961  0.020909217           76 
 3678000   0.66098322   -6.9623524    951.40758  0.021556271  0.020902583           60 
 3679000   0.67209222     -6.96555    950.92479  0.021539476  0.020895971           11 
 3680000   0.66483759   -6.9436886    952.26898  0.021564062  0.020889366           25 
 3681000   0.67075602   -6.9480867    952.66179  0.021567097  0.020882769           41 
 3682000   0.66844199   -6.9350022    951.18176  0.021527742  0.020876164           57 
 3683000   0.66854229   -6.9696612    949.90674  0.021493048  0.020869563           47 
 3684000   0.67044802   -6.9617204    950.93545  0.021510483  0.020862957           32 
 3685000   0.65553827   -6.9568412    950.69958  0.021499312  0.020856385           25 
 3686000   0.66926655   -6.9586939    951.51757  0.021511973  0.020849829           33 
 3687000   0.68049909   -6.9516169    949.77092   0.02146666  0.020843241           17 
 3688000   0.67230843   -6.9557012    951.73398  0.021505196  0.020836667           35 
 3689000   0.67137641   -6.9470144    954.22648  0.021555672  0.020830097           37 
 3690000   0.68355794   -6.9557561    952.58693  0.021512803  0.020823528           23 
 3691000   0.64599072   -6.9600823    951.78019  0.021488761   0.02081695           14 
 3692000   0.66064861   -6.9725973    950.13019  0.021445698  0.020810378           23 
 3693000   0.65702985   -6.9958969     950.5275  0.021448856  0.020803802           27 
 3694000   0.66132777   -6.9751219    950.28962  0.021437683  0.020797212           37 
 3695000   0.65726771   -6.9439208    952.91811  0.021491162  0.020790637           27 
 3696000   0.66313656   -6.9709235    950.13605   0.02142262  0.020784068           22 
 3697000   0.65510509   -6.9685044    951.86715  0.021455846  0.020777499           29 
 3698000   0.64535229   -6.9541843    952.14546  0.021456316  0.020770922           13 
 3699000   0.65115644    -6.976005    951.11199  0.021427232  0.020764366           20 
 3700000   0.66360934   -6.9375766    953.69413  0.021479598  0.020757818           24 
 3701000   0.65706016   -6.9631841    950.01201  0.021390886  0.020751246           43 
 3702000   0.66241428   -6.9552358    951.07269  0.021408984  0.020744676           22 
 3703000   0.66478869   -6.9659901    952.04305  0.021425039  0.020738129           41 
 3704000   0.65864513   -6.9683831    951.79131  0.021413591   0.02073156           51 
 3705000   0.66440292   -6.9877821    948.71977  0.021338726  0.020724969           62 
 3706000   0.66258106   -6.9837217    953.09521  0.021431355  0.020718388           46 
 3707000   0.66225369   -6.9532901    951.92784  0.021399331  0.020711814           55 
 3708000   0.64746381   -6.9643703    950.80854  0.021368405  0.020705236           37 
 3709000   0.65719188   -6.9661992    950.53799  0.021356565  0.020698651           61 
 3710000    0.6503701   -6.9802419    951.00588  0.021361318  0.020692088           24 
 3711000   0.65552084    -6.996844    952.81499  0.021396187  0.020685514           31 
 3712000   0.66150111   -6.9916622     950.2206  0.021332179  0.020678942           21 
 3713000   0.66937737   -6.9576132    950.08402  0.021323369  0.020672371           30 
 3714000   0.65545812   -6.9822355    950.93141  0.021336641    0.0206658           24 
 3715000    0.6427425   -6.9716808     953.0069  0.021377454  0.020659232           39 
 3716000   0.65870978   -6.9658325    951.12249  0.021329442  0.020652673           64 
 3717000   0.66035437   -6.9508016    950.77898  0.021316003  0.020646114           22 
 3718000   0.65183685   -6.9565792    949.81763  0.021288722  0.020639562           43 
 3719000     0.665311   -6.9810103    950.25897  0.021292887  0.020633011           32 
 3720000   0.64542175   -6.9844424    950.71273  0.021297328  0.020626463           57 
 3721000   0.64710541   -6.9798125    950.75238  0.021292493  0.020619912           47 
 3722000   0.65536025   -6.9973346    950.94861  0.021291165  0.020613348           67 
 3723000   0.65669165   -6.9916424    950.79413  0.021281989  0.020606783           74 
 3724000   0.65097471   -6.9732151     951.5585  0.021293379  0.020600223           31 
 3725000   0.65437734   -6.9685676     952.6823  0.021312803  0.020593666           70 
 3726000   0.63099755   -6.9896255    949.57876  0.021237671  0.020587114           33 
 3727000   0.65080243   -6.9761199    949.55134   0.02123136  0.020580558           31 
 3728000   0.65905815   -6.9691168    950.52468  0.021247422  0.020574012           32 
 3729000   0.65826248   -6.9476345    952.34564  0.021282418  0.020567468           40 
 3730000     0.652988    -6.961438    950.90638  0.021244557  0.020560927           28 
 3731000   0.65812456   -6.9719391    951.63439  0.021255123   0.02055441           54 
 3732000   0.65126618   -6.9664565    951.45315  0.021245381  0.020547892           56 
 3733000    0.6572992   -6.9718981    951.74436  0.021246191  0.020541355           68 
 3734000    0.6527306   -6.9760434    952.24772  0.021251735  0.020534832           33 
 3735000   0.65862354    -6.947169    951.48897  0.021229116  0.020528327           69 
 3736000   0.64050914   -6.9628283    951.41151  0.021221706   0.02052181           58 
 3737000   0.65044623   -6.9754787     950.4373  0.021194302  0.020515286           28 
 3738000    0.6656654   -6.9745647    951.40404  0.021210185  0.020508765           35 
 3739000   0.65612649   -6.9568345    951.48483  0.021206313  0.020502236           24 
 3740000   0.66599584   -6.9833879    949.55262   0.02115759  0.020495706           38 
 3741000   0.65195845   -6.9944458    951.28555  0.021190536  0.020489173           48 
 3742000    0.6472477   -6.9584529    951.52503  0.021190206  0.020482657           11 
 3743000   0.64310646   -6.9908681    949.95706  0.021149636  0.020476131           38 
 3744000   0.65913069   -6.9673426    950.72283  0.021161032  0.020469611           33 
 3745000   0.64734593   -6.9778969    953.11558  0.021208624  0.020463097           41 
 3746000   0.65807035   -6.9863807    950.61002  0.021147224  0.020456589           38 
 3747000   0.66749629   -6.9939761    948.61989   0.02109732  0.020450036           23 
 3748000   0.66381097   -6.9832399    951.31528   0.02115162  0.020443496           27 
 3749000    0.6507153   -6.9953951    949.18059  0.021098528  0.020436956          116 
 3750000   0.63488284   -6.9896779    952.44951  0.021165545  0.020430425           82 
 3751000   0.64517451   -7.0237906    951.35175  0.021135514  0.020423881           70 
 3752000   0.66007614   -7.0039427     949.9969  0.021099789  0.020417326           59 
 3753000     0.667345   -6.9985215    949.09366  0.021074111  0.020410809           52 
 3754000   0.64576691   -6.9792175    951.03814  0.021111662   0.02040428           55 
 3755000   0.64999606   -6.9918427    950.22494  0.021087992  0.020397762           46 
 3756000   0.64373974   -6.9883254    952.55428  0.021134058  0.020391243           50 
 3757000   0.65208619   -6.9916975    950.23513  0.021076992  0.020384752           58 
 3758000   0.63267686   -7.0088709      950.514  0.021077568  0.020378245           73 
 3759000   0.64235863   -6.9902451     950.0037  0.021060648  0.020371719           48 
 3760000    0.6486397   -7.0248222    951.53947  0.021089084  0.020365209           59 
 3761000   0.64141908   -7.0065848    950.58257  0.021062275    0.0203587          146 
 3762000   0.64009282   -6.9960394    948.22622  0.021004479  0.020352188           70 
 3763000   0.63913063   -7.0252461    951.16479  0.021063973  0.020345684           76 
 3764000    0.6574054   -7.0045848    951.56985  0.021067345  0.020339176          160 
 3765000   0.64641879   -6.9999817    951.08546  0.021051028  0.020332654           94 
 3766000    0.6408402   -7.0081773    950.93441  0.021042096  0.020326141           76 
 3767000   0.64668938   -7.0120382    951.00686  0.021038113  0.020319656           66 
 3768000   0.65741989   -7.0311357    949.75056  0.021004745  0.020313148          101 
 3769000   0.65206133    -7.034706    949.56245  0.020995013  0.020306645           46 
 3770000   0.66388067   -7.0020098    950.14326  0.021002283  0.020300138           40 
 3771000   0.63997448    -7.011183    948.92681  0.020969831  0.020293645           98 
 3772000   0.64511108   -7.0012504    953.37099  0.021062456  0.020287171          184 
 3773000    0.6506939   -7.0065515    952.02429  0.021027129  0.020280705           86 
 3774000   0.64862058   -7.0014627    952.66265  0.021035653   0.02027425           77 
 3775000    0.6418393   -7.0164674    951.61424  0.021006937    0.0202678          239 
 3776000   0.63052896   -7.0020214    953.01446  0.021032275   0.02026135          153 
 3777000   0.64066722   -6.9810766    951.61974  0.020995935  0.020254924          103 
 3778000   0.66053283   -7.0112271    950.03959  0.020955523  0.020248495           56 
 3779000   0.64050175   -6.9945249    951.41514  0.020980311  0.020242072          170 
 3780000   0.64554562   -6.9813494    955.28466  0.021060067  0.020235654           87 
 3781000   0.65551669   -7.0140526    951.50888  0.020971279  0.020229233          139 
 3782000   0.64422358   -7.0037879    952.17066  0.020980316  0.020222789           79 
 3783000   0.65242875   -6.9977428    953.51672  0.021004421  0.020216361          216 
 3784000   0.64453457   -6.9694529    954.46394  0.021019731  0.020209942           96 
 3785000   0.64317065   -6.9950698    951.90167  0.020957765  0.020203503           84 
 3786000   0.64569757    -7.015083    951.34531  0.020939983  0.020197063           86 
 3787000   0.65288894   -7.0104916    951.10669  0.020929203   0.02019063          107 
 3788000    0.6420416   -7.0095566    950.76842  0.020916236  0.020184198           60 
 3789000    0.6364484   -7.0145188    951.55482  0.020928011  0.020177763           69 
 3790000   0.65566967   -7.0070167    951.41282  0.020919367  0.020171332           79 
 3791000    0.6467752    -7.025251    950.44475  0.020892569  0.020164903           98 
 3792000   0.65196578   -7.0159496    951.30399  0.020905942  0.020158465           90 
 3793000    0.6374347   -7.0295214    951.26524  0.020899579  0.020152044           90 
 3794000   0.65778915   -7.0105218    950.84723  0.020884889  0.020145626          137 
 3795000   0.62977279   -7.0163971    951.33712  0.020890143  0.020139211           95 
 3796000   0.64870918   -6.9995171    953.65646  0.020935556  0.020132779           72 
 3797000   0.65124387   -7.0109994    950.16789  0.020853478   0.02012634          138 
 3798000   0.65234336   -7.0404113    949.54741  0.020834374  0.020119919           77 
 3799000   0.64024664   -7.0116175    952.64887  0.020896922  0.020113506           87 
 3800000   0.65439466    -7.025811    950.92529  0.020853625  0.020107097          183 
 3801000   0.64493713   -7.0243658    950.01296  0.020828136  0.020100687           86 
 3802000   0.64610964   -7.0268311    951.47477  0.020854699  0.020094258          103 
 3803000   0.65203863   -7.0247543    951.84339  0.020857292  0.020087836           75 
 3804000   0.65797718   -7.0204107    950.45993  0.020821502  0.020081424          177 
 3805000   0.64047708   -7.0128403     950.6924  0.020821121  0.020075024          141 
 3806000   0.64486766   -7.0261721    955.00588  0.020910095  0.020068647           79 
 3807000    0.6369939   -7.0041269    952.69672  0.020854057  0.020062256           86 
 3808000   0.63584636   -7.0215484    950.59761  0.020802644   0.02005588          170 
 3809000   0.65515449   -7.0096964    952.27344  0.020833846  0.020049506           38 
 3810000   0.62991575   -6.9883562    952.36559  0.020830393  0.020043128           88 
 3811000   0.64331777    -7.025921     952.4093  0.020825883  0.020036754           76 
 3812000   0.65524902   -7.0046262    950.59111  0.020780673  0.020030382           78 
 3813000   0.65313355   -7.0137846    951.25631  0.020789761  0.020024009           73 
 3814000   0.65289563   -7.0018664    951.80196  0.020796232   0.02001766           69 
 3815000   0.62835173   -7.0164192    951.07282  0.020774854  0.020011297           90 
 3816000   0.63888118   -6.9943922    952.72129  0.020805409  0.020004935           32 
 3817000   0.64541339   -7.0180239    951.83099  0.020780521  0.019998558           44 
 3818000   0.64498309    -7.024875    949.90853  0.020733118   0.01999218          145 
 3819000   0.63762547   -7.0240946    950.12544  0.020732422  0.019985806           26 
 3820000   0.63303726   -7.0200406    953.68209  0.020804583  0.019979437          112 
 3821000     0.656028   -7.0285294    949.40911  0.020705948  0.019973062           47 
 3822000   0.64583657   -7.0194513    952.62861  0.020770727  0.019966683           47 
 3823000   0.64345464   -7.0257938    951.24252   0.02073508  0.019960308           55 
 3824000   0.64451813   -7.0049529    951.05802  0.020725637  0.019953927           90 
 3825000   0.64614579   -7.0378608    950.09751  0.020699292  0.019947543          100 
 3826000    0.6448825   -7.0177816    951.99588   0.02073523  0.019941162          126 
 3827000   0.65454073   -7.0015638    953.96096  0.020772602  0.019934795           63 
 3828000   0.64733451   -7.0045189    951.90643  0.020722449  0.019928437           51 
 3829000   0.64203958   -7.0041489     952.5058  0.020730082  0.019922097           44 
 3830000   0.64908271   -7.0055377    951.67497  0.020706592   0.01991575           62 
 3831000   0.62500319   -7.0121667    953.34658  0.020737549  0.019909396           43 
 3832000   0.63512896   -7.0162971    951.27491  0.020687085  0.019903062           51 
 3833000   0.63315268   -7.0282406    951.48764  0.020686313  0.019896716           93 
 3834000   0.63459431   -7.0362338     952.6655  0.020706519   0.01989038           42 
 3835000    0.6276811   -7.0203999    952.11126  0.020689076  0.019884018           52 
 3836000   0.62973543   -7.0379032     951.0334  0.020660267   0.01987766           75 
 3837000   0.64753886   -7.0239476    949.99274  0.020632281  0.019871303           52 
 3838000   0.63795038   -7.0307069    951.78246  0.020665765  0.019864931           87 
 3839000   0.63421939   -7.0483192     950.7338  0.020637618  0.019858568           42 
 3840000   0.63576371   -7.0198193    952.58224  0.020672358  0.019852223           95 
 3841000   0.63923117   -7.0293153    951.33896  0.020640002  0.019845886           56 
 3842000   0.64228602   -7.0087161    951.29829  0.020633747  0.019839542           37 
 3843000   0.62569739   -7.0190685    952.57703  0.020656107  0.019833211           78 
 3844000   0.63613644   -7.0105165    952.27435  0.020644172  0.019826891          126 
 3845000   0.63957749   -7.0315766    952.62363  0.020646372  0.019820553           83 
 3846000   0.63928577   -7.0441702    949.96282  0.020583351  0.019814211          125 
 3847000   0.63839212   -7.0305347    949.30226  0.020563692  0.019807881           25 
 3848000   0.62481642   -7.0536428    951.89619  0.020614523  0.019801549           23 
 3849000   0.63830782   -7.0192945     951.3831  0.020598058  0.019795213           17 
 3850000   0.63924718   -7.0178405    950.99004    0.0205842  0.019788883           26 
 3851000   0.63617393   -7.0300731    950.18934  0.020561528  0.019782561           29 
 3852000   0.63588735   -7.0117621    950.48825  0.020562657  0.019776223           31 
 3853000   0.64257715   -6.9994992     950.5351  0.020558333  0.019769884           66 
 3854000   0.63137724    -7.066062    949.31025  0.020526515  0.019763544           60 
 3855000   0.63096742   -7.0505411    951.34168  0.020565103  0.019757169           52 
 3856000   0.63314475   -7.0536148    949.29102  0.020515452  0.019750811           88 
 3857000   0.64790771   -7.0543492    951.56965  0.020559365   0.01974446           63 
 3858000   0.64659035   -7.0325694     949.4774  0.020508843  0.019738135           80 
 3859000   0.62758618    -7.036897     950.6431  0.020528701  0.019731781           93 
 3860000   0.62257835   -7.0366603    949.67663  0.020502518  0.019725432           70 
 3861000   0.62098816   -7.0687792    947.23339  0.020444474  0.019719081           47 
 3862000   0.63287298   -7.0580071    952.10556  0.020544311  0.019712742           79 
 3863000   0.63001837   -7.0443201    950.13078  0.020496393  0.019706396           88 
 3864000   0.63299791   -7.0590883    950.14424  0.020491378   0.01970006           45 
 3865000   0.61627614   -7.0220652    950.36318  0.020490797  0.019693734           48 
 3866000   0.62730655   -7.0316676      947.634  0.020426668  0.019687399           76 
 3867000    0.6338502   -7.0274541    950.81898  0.020490022  0.019681078           77 
 3868000   0.64094208   -7.0310994    953.06322  0.020533075  0.019674772           43 
 3869000    0.6428577   -7.0382102    951.17035  0.020486998  0.019668475           27 
 3870000   0.63492573     -7.01558    950.52771  0.020467866   0.01966217           27 
 3871000   0.62269182   -7.0311655    950.86264  0.020469789   0.01965586           75 
 3872000   0.63655291   -7.0266158    950.91931  0.020465722   0.01964956          111 
 3873000   0.62882788   -7.0360669    949.66918  0.020433539  0.019643251           69 
 3874000   0.64400061   -7.0524073    951.82868  0.020474718  0.019636946           85 
 3875000   0.63208916   -7.0413471    949.31636  0.020415406  0.019630646           93 
 3876000   0.62755217   -7.0426726    950.77791  0.020441562   0.01962434           48 
 3877000   0.63630054   -7.0337349    950.36075  0.020427322  0.019618016           42 
 3878000   0.63301825   -7.0377245    950.14974  0.020417521  0.019611699           27 
 3879000   0.63131028   -7.0543157     950.6409  0.020422809  0.019605403           17 
 3880000   0.64255778   -7.0252336    951.93013  0.020445235  0.019599111           46 
 3881000   0.64009378   -7.0534799    949.07033  0.020378561    0.0195928           53 
 3882000   0.62217732   -7.0632859    949.65734  0.020385912  0.019586481           47 
 3883000   0.62316502     -7.04111    948.39751  0.020353625  0.019580171           26 
 3884000   0.62651568   -7.0353689    951.39111  0.020412614  0.019573851           24 
 3885000    0.6231588   -7.0436826    948.93063  0.020354582  0.019567545           74 
 3886000   0.62877342   -7.0443954    947.99177  0.020329211  0.019561255           69 
 3887000   0.62613142   -7.0474488    952.51454  0.020420945  0.019554975           68 
 3888000    0.6442468   -7.0415917    948.31635  0.020325711  0.019548682          148 
 3889000   0.62702079   -7.0185521    950.66676  0.020370849  0.019542389           82 
 3890000   0.62786625   -7.0139503    951.52518  0.020384001  0.019536116           38 
 3891000   0.63372956   -7.0275414    950.79567  0.020363139  0.019529859           78 
 3892000   0.62609885   -7.0544052    950.53898  0.020352411    0.0195236           97 
 3893000   0.63183423   -7.0360176    950.35083  0.020343155  0.019517349           48 
 3894000   0.62305255   -7.0426446    951.21246   0.02035637  0.019511103           80 
 3895000   0.62683691   -7.0349525    949.61072  0.020316875  0.019504854           32 
 3896000   0.62588528   -7.0475959    949.47195  0.020308692  0.019498607           80 
 3897000   0.63080525    -7.035383    951.22727  0.020341016  0.019492364           96 
 3898000   0.63264127   -7.0561015    951.18132  0.020334815  0.019486102          141 
 3899000   0.63056745   -7.0301252    951.55145  0.020337511  0.019479839          195 
 3900000   0.64156228   -7.0406289    949.72941  0.020293363  0.019473578          148 
 3901000   0.63181763    -7.065938    949.47288  0.020282681  0.019467305           63 
 3902000   0.62861965   -7.0737873    951.08051  0.020311817  0.019461014           43 
 3903000   0.61574039   -7.0658929    948.32528  0.020247785  0.019454741           44 
 3904000   0.63691552   -7.0468768    950.35076  0.020285834  0.019448477           93 
 3905000    0.6285687   -7.0588097    949.03928  0.020252652  0.019442195           70 
 3906000   0.61006219     -7.07159    949.76909  0.020263037  0.019435912           65 
 3907000   0.63473523   -7.0620593     950.6489  0.020276617  0.019429637          203 
 3908000   0.61978564   -7.0683962    949.85882  0.020254581  0.019423375          116 
 3909000   0.62777559   -7.0661039    950.23873  0.020257498  0.019417122           84 
 3910000    0.6256231    -7.051359    949.38294  0.020234078   0.01941086          284 
 3911000    0.6149943   -7.0607614    949.08901  0.020222642   0.01940458          143 
 3912000   0.63856351   -7.0710718    947.18829  0.020176983  0.019398313          113 
 3913000   0.61849849   -7.0563579    949.68404  0.020224977  0.019392047          144 
 3914000   0.61547059   -7.0545538    948.37759  0.020191994  0.019385779          131 
 3915000   0.62033173   -7.0730852     950.4272  0.020230464  0.019379516          226 
 3916000   0.62387254   -7.0604025    948.86325  0.020192017  0.019373266          188 
 3917000   0.61324551   -7.0630267    949.74388  0.020205597  0.019367006           57 
 3918000   0.61942797   -7.0735021    948.72886  0.020178851   0.01936074          205 
 3919000   0.64025828   -7.0773718    950.34897  0.020208152  0.019354482          198 
 3920000   0.62436957   -7.0700401    949.12955  0.020177074  0.019348225          188 
 3921000   0.62239959   -7.0544701    949.58351  0.020181576  0.019341971          108 
 3922000   0.62393202   -7.0637275    948.82242  0.020160259  0.019335707          103 
 3923000   0.62253151   -7.0695764    949.38041  0.020166973  0.019329466          169 
 3924000   0.62404279   -7.0827272    949.29725  0.020160067  0.019323222          108 
 3925000   0.62819388   -7.0913591    948.21981  0.020132055  0.019316977          200 
 3926000   0.62162473   -7.0718432     947.1926  0.020105124  0.019310733          136 
 3927000   0.61969634   -7.0773045    948.19865  0.020121353  0.019304487          187 
 3928000   0.63531896   -7.0794329     948.7551  0.020128036  0.019298236           77 
 3929000   0.60985943   -7.0819519    950.52731  0.020160501  0.019291984          109 
 3930000   0.62011655   -7.0759301    950.07728  0.020145829  0.019285742          150 
 3931000   0.64195601   -7.0892318    949.30306  0.020124291  0.019279507          158 
 3932000   0.62505389   -7.0670772    948.55012  0.020103216  0.019273268          117 
 3933000   0.63295329   -7.0914658    949.36684  0.020115409  0.019267033          317 
 3934000   0.62930939   -7.0846859    949.93009  0.020122227  0.019260796          229 
 3935000   0.62674257   -7.0679363    948.10139  0.020078386  0.019254567          230 
 3936000   0.62355381   -7.0873189    949.70725  0.020107284  0.019248343          308 
 3937000   0.62676778   -7.1083756      948.673  0.020080285  0.019242111          257 
 3938000   0.63399624   -7.0825652    948.26659  0.020066586  0.019235889          230 
 3939000   0.62115996   -7.0731821    949.10602  0.020079251   0.01922966          221 
 3940000   0.63414762   -7.0858491    949.28257  0.020077889  0.019223441          264 
 3941000   0.61518129   -7.0883728    950.83075  0.020105531  0.019217219          269 
 3942000   0.60636804   -7.0799619     950.2699  0.020088574  0.019210997          217 
 3943000   0.63483466   -7.0732712    950.42521  0.020086762  0.019204796          164 
 3944000   0.62798184   -7.0845535    948.66279   0.02004443  0.019198601          135 
 3945000   0.61362235   -7.0812394    947.50255   0.02001484  0.019192407          275 
 3946000   0.62521137   -7.1008503    947.26737  0.020004802  0.019186207          263 
 3947000   0.61711458   -7.0757487    949.97508  0.020056901  0.019180017          387 
 3948000   0.62098255   -7.0944319    948.64578  0.020023763  0.019173833          324 
 3949000   0.62056268   -7.0899178    949.16407  0.020029629  0.019167646          304 
 3950000   0.62269728   -7.0897838     951.4939  0.020073711  0.019161463          231 
 3951000   0.62690709   -7.1033383    950.49815  0.020047628  0.019155276          349 
 3952000   0.62858019   -7.0857487    949.93945  0.020030774  0.019149082          307 
 3953000   0.61552135   -7.1130528    947.88307  0.019982357  0.019142887          412 
 3954000   0.62005038   -7.0964401    949.68147  0.020015205  0.019136694          334 
 3955000   0.63894606   -7.0777985    949.10448  0.019997987  0.019130506          261 
 3956000   0.61428847   -7.0621745    948.48248   0.01997983  0.019124328          276 
 3957000   0.62169776   -7.0856411    950.17491  0.020010423  0.019118169          285 
 3958000   0.61891425   -7.0863389    950.93094  0.020021285  0.019112005          292 
 3959000   0.62088799   -7.0974845    947.94814  0.019953442  0.019105838          287 
 3960000    0.6006251   -7.0791382    950.52104  0.020002547  0.019099677          298 
 3961000   0.61471559   -7.0784853    949.18245  0.019969335  0.019093504          316 
 3962000   0.61958752   -7.0634981    947.16177  0.019921794   0.01908732          318 
 3963000   0.61051611   -7.1028354    950.26768  0.019982077  0.019081142          290 
 3964000   0.61911523   -7.0990311    950.75113    0.0199872  0.019074965          290 
 3965000   0.63406706   -7.0684227    951.37821  0.019995339   0.01906881          294 
 3966000    0.6316377   -7.0843815    952.79458  0.020020058  0.019062652          376 
 3967000   0.61176362   -7.0789224    950.79629  0.019973034   0.01905649          373 
 3968000   0.62325605   -7.1104152    948.95681  0.019929368  0.019050333          280 
 3969000   0.62019779   -7.0965966    948.94598   0.01992412  0.019044185          313 
 3970000   0.61827317   -7.0845707    950.59324  0.019953679  0.019038051          319 
 3971000   0.61944207   -7.0776929    951.21344  0.019961669  0.019031932          306 
 3972000   0.61427373   -7.0983989    949.02612  0.019910753  0.019025793          240 
 3973000   0.61441656   -7.1171677    949.50322  0.019915748  0.019019644          338 
 3974000    0.6079404    -7.108851    947.94131  0.019877984  0.019013481          269 
 3975000   0.61133843   -7.1120931    949.58375  0.019907416  0.019007316          312 
 3976000   0.62704511   -7.1047906     947.7914  0.019864843  0.019001166          317 
 3977000   0.62018458   -7.1089558    948.30383  0.019870586  0.018995027          367 
 3978000    0.6136601   -7.1141386    948.59335  0.019871655  0.018988875          386 
 3979000   0.61364329   -7.1212943    947.58544  0.019845552   0.01898272          407 
 3980000   0.60436945   -7.1208961    948.61778  0.019862181  0.018976555          451 
 3981000   0.61678616   -7.0724707    949.36029  0.019872735  0.018970411          367 
 3982000   0.61257954   -7.1135398     947.6554  0.019832065  0.018964253          323 
 3983000    0.6170058   -7.0929367    949.24432   0.01986033  0.018958109          454 
 3984000    0.6220315   -7.1212536    946.80879  0.019804401  0.018951948          476 
 3985000   0.60388499   -7.1086748    949.17644  0.019848943  0.018945781          467 
 3986000   0.61982243   -7.1016636    948.79492  0.019835987  0.018939613          571 
 3987000   0.61470078   -7.0914783    948.52301  0.019825328  0.018933468          383 
 3988000   0.60043116    -7.095215    948.95691  0.019829424  0.018927317          383 
 3989000   0.61788943   -7.0981607    950.38073  0.019854198  0.018921164          442 
 3990000   0.60996037   -7.1018416     948.7257  0.019814655  0.018915031          407 
 3991000   0.63480608   -7.1036446    948.83194  0.019811909  0.018908889          402 
 3992000   0.61852221   -7.1125485    949.42871  0.019819404  0.018902763          462 
 3993000   0.61412798   -7.1126151    947.86393  0.019781783  0.018896626          486 
 3994000   0.60905541   -7.1126723    950.91893  0.019840572    0.0188905          427 
 3995000   0.60967428   -7.1153448    948.57678   0.01978675  0.018884366          455 
 3996000   0.60331346   -7.0991139    949.30967  0.019797082  0.018878235          451 
 3997000   0.61046009    -7.106855      947.403  0.019752377  0.018872123          423 
 3998000   0.61059252    -7.089949    949.25242  0.019785985  0.018865996          419 
 3999000   0.61315742   -7.1284117    948.62093  0.019767878  0.018859874          392 
 4000000   0.61318632   -7.1097681    946.43362  0.019717367  0.018853729          431 
 4001000   0.60079599   -7.1090088    947.18323  0.019728052  0.018847584          395 
 4002000   0.61566992   -7.1281018    947.68806  0.019733634  0.018841435          425 
 4003000   0.61124185   -7.1086991    947.90166  0.019733151  0.018835283          396 
 4004000   0.60436818   -7.1303337     946.5332  0.019699742  0.018829137          408 
 4005000   0.61448107   -7.1294735    947.50203  0.019714982     0.018823          442 
 4006000   0.61667439   -7.1140991    946.93714   0.01969831  0.018816857          377 
 4007000   0.60011313   -7.1434431    946.19028  0.019677861  0.018810735          387 
 4008000   0.60936799   -7.1176198    946.70685  0.019683692  0.018804614          538 
 4009000   0.61573509   -7.1161732    948.85496  0.019723434  0.018798501          418 
 4010000   0.62186268   -7.1071479    947.58261  0.019692074  0.018792386          392 
 4011000   0.59965631   -7.1311133    945.70114  0.019648075  0.018786268          457 
 4012000   0.61598417   -7.1158492    946.69543   0.01966383  0.018780145          590 
 4013000   0.61044976   -7.1270202    949.23926  0.019711755  0.018774032          494 
 4014000   0.60732352   -7.1265256    947.77742  0.019676495  0.018767909          454 
 4015000   0.62047209   -7.1203633    945.73415  0.019629185  0.018761786          557 
 4016000   0.60504017   -7.1324381    947.15659  0.019653814  0.018755664          545 
 4017000   0.61473252   -7.1108902    946.69438  0.019639332  0.018749546          568 
 4018000   0.60741821   -7.1173323     946.9489  0.019639723  0.018743427          496 
 4019000   0.61131132   -7.1302717    945.85392  0.019612132  0.018737301          516 
 4020000   0.61007441   -7.1577215    946.44349  0.019619475  0.018731178          561 
 4021000   0.60461917   -7.1336261    949.13777  0.019670434  0.018725059          549 
 4022000    0.6054462    -7.135286    947.97068  0.019641362  0.018718932          558 
 4023000   0.61150226   -7.1298805    947.87971  0.019634595  0.018712809          565 
 4024000   0.61438635    -7.119886    947.75674  0.019627169  0.018706693          401 
 4025000   0.61091448   -7.1573059     947.4581   0.01961611  0.018700573          556 
 4026000   0.60623085    -7.163467    946.25181  0.019586269  0.018694473          442 
 4027000   0.59846822    -7.128792    947.65658  0.019610475  0.018688355          511 
 4028000   0.59519663   -7.1144196    947.92555  0.019611171  0.018682237          565 
 4029000   0.60304629   -7.1524006    946.45142  0.019575813  0.018676117          462 
 4030000   0.58895683   -7.1419231     944.4327  0.019529212   0.01866999          512 
 4031000    0.6014011   -7.1618361    945.48973   0.01954622  0.018663871          482 
 4032000   0.62081237    -7.134059    946.91858  0.019570903   0.01865775          536 
 4033000   0.61557478   -7.1478158    944.41765  0.019514374  0.018651629          547 
 4034000   0.62909916   -7.1545686    946.42174  0.019550937  0.018645501          613 
 4035000   0.59654714   -7.1291628    948.56042  0.019590261  0.018639405          556 
 4036000   0.60165329   -7.1452012    946.61763  0.019545293  0.018633311          606 
 4037000   0.60108886   -7.1466336    945.36683  0.019514632  0.018627213          542 
 4038000   0.60445526   -7.1401013    944.80233  0.019498149  0.018621097          588 
 4039000   0.61043427    -7.174942    945.91675  0.019516315  0.018614999          633 
 4040000   0.62074912   -7.1516116    946.37396  0.019520915    0.0186089          770 
 4041000   0.62252497   -7.1496405    946.46351  0.019517931  0.018602788          697 
 4042000   0.60701203   -7.1763799    946.09036  0.019505409  0.018596703          660 
 4043000   0.59585487   -7.1401879    949.72779  0.019575558  0.018590601          401 
 4044000    0.6043613   -7.1754547    946.37539  0.019501636  0.018584511          475 
 4045000   0.61095089   -7.1492718    946.55783  0.019500573   0.01857841          531 
 4046000    0.5992741    -7.149175    945.86326  0.019481448  0.018572313          588 
 4047000   0.61473397   -7.1566188    944.56347   0.01944987  0.018566222          569 
 4048000   0.61187883   -7.1637137    945.87763  0.019472119  0.018560138          599 
 4049000   0.60356873   -7.1434157    945.50873  0.019459717   0.01855406          559 
 4050000   0.58693949   -7.1353087    946.46185  0.019474524  0.018547978          602 
 4051000   0.59826471   -7.1374675    946.09189  0.019462106  0.018541897          669 
 4052000   0.61196966   -7.1762251    945.36807  0.019442417  0.018535817          460 
 4053000   0.61441276   -7.1421559    948.43672  0.019500714  0.018529754          546 
 4054000    0.6010833   -7.1578182    947.13365  0.019469118  0.018523679          523 
 4055000   0.60499501   -7.1574546    944.48341  0.019409852  0.018517613          672 
 4056000   0.59177738   -7.1683761    946.72123  0.019451044  0.018511538          655 
 4057000   0.60658707   -7.1381464    946.95725  0.019451098  0.018505465          752 
 4058000   0.59960578   -7.1412048     944.5336  0.019396534  0.018499395          486 
 4059000    0.6133412   -7.1584333    946.32953  0.019428626  0.018493317          580 
 4060000   0.60581332   -7.1643397    946.85918  0.019434712  0.018487242          740 
 4061000   0.58775121   -7.1562307    946.33283  0.019419126  0.018481178          660 
 4062000   0.61253486   -7.1465385    945.21811  0.019391476  0.018475115          628 
 4063000   0.59872292    -7.165215    944.25944  0.019367041  0.018469045          591 
 4064000   0.60194861   -7.1505607    945.45378  0.019386765  0.018462969          560 
 4065000    0.6053095   -7.1769659    946.37562  0.019400894  0.018456891          569 
 4066000   0.61355834    -7.156214    944.61363   0.01936001  0.018450817          618 
 4067000   0.60130129   -7.1617502    945.49454    0.0193733   0.01844474          709 
 4068000    0.6000704   -7.1698904    944.11683  0.019340315  0.018438668          693 
 4069000   0.59251595    -7.162431    944.88297  0.019351253  0.018432595          590 
 4070000   0.59375817   -7.1701942    945.57331  0.019360633  0.018426523          599 
 4071000   0.60092669   -7.1762825    946.19755  0.019368655  0.018420465          681 
 4072000    0.6017792   -7.1734075    946.66974  0.019373562  0.018414397          657 
 4073000    0.6031097   -7.1859192    944.18702  0.019318009  0.018408325          631 
 4074000   0.59419116   -7.1593203    946.11264  0.019352656   0.01840226          719 
 4075000   0.60282007   -7.1827799    946.51458  0.019356126  0.018396194          680 
 4076000   0.59961431   -7.2043705     945.6925   0.01933457  0.018390127          621 
 4077000   0.60479148     -7.17086    945.59993  0.019327936  0.018384073          505 
 4078000   0.60513926   -7.1816213    944.10328  0.019292612  0.018378019          632 
 4079000   0.59464315    -7.167099    943.57871  0.019277166  0.018371959          592 
 4080000   0.60421228   -7.1829659    944.35782  0.019288354  0.018365912          572 
 4081000   0.60242919   -7.1595888    943.13773  0.019258714  0.018359842          615 
 4082000   0.59501055   -7.1899239    944.47759  0.019281349  0.018353785          583 
 4083000   0.60055371   -7.1947774    945.77155  0.019303036  0.018347729          556 
 4084000    0.5825364   -7.1743664      943.899    0.0192601  0.018341654          581 
 4085000   0.60108682   -7.1688048    945.46667  0.019287366    0.0183356          613 
 4086000   0.60701294   -7.1779946    944.52914  0.019263525  0.018329543          575 
 4087000   0.60989109   -7.1755876    946.20356  0.019292952  0.018323504          549 
 4088000    0.5961912   -7.1786117    946.17813  0.019287715  0.018317462          522 
 4089000   0.60468149   -7.1872564    942.62314  0.019210547  0.018311409          656 
 4090000   0.61155376   -7.1731105    946.08114  0.019276307  0.018305361          634 
 4091000   0.60486717   -7.1922091    945.07705  0.019251142  0.018299323          683 
 4092000   0.59692593   -7.1785191    946.28166  0.019270969  0.018293291          652 
 4093000   0.59650129   -7.1764769    946.23908  0.019265394  0.018287261          576 
 4094000   0.61420247   -7.1891934    943.97818  0.019214667  0.018281225          572 
 4095000   0.60139772   -7.1925391    944.16176  0.019213711   0.01827519          671 
 4096000    0.5995839    -7.181598    943.92071  0.019204116  0.018269156          590 
 4097000   0.58677949   -7.1957653    945.18245  0.019225093  0.018263132          629 
 4098000   0.59726688   -7.1738953    944.49652  0.019206453  0.018257107          716 
 4099000   0.58790999   -7.1788197    945.10736  0.019214186   0.01825108          691 
 4100000   0.59234477   -7.1776215    945.06745  0.019208688  0.018245056          533 
 4101000   0.59265153   -7.1903472    945.11495  0.019204969  0.018239048          609 
 4102000   0.58989125   -7.1929757    942.80082  0.019153275  0.018233027          616 
 4103000   0.59406802   -7.2031271    945.01161  0.019193509  0.018227013          617 
 4104000   0.59952926   -7.1889787    944.48402  0.019178119  0.018220999          648 
 4105000   0.58916762    -7.186303    945.76971  0.019199547  0.018214992          605 
 4106000   0.59534904   -7.1794024    946.17818  0.019203162  0.018208996          727 
 4107000    0.5895495   -7.2062305    944.55902  0.019165632  0.018202999          604 
 4108000   0.58545047   -7.1820817    943.66631  0.019142858     0.018197          557 
 4109000   0.58229348   -7.1882454    946.99766  0.019205761  0.018191013          531 
 4110000   0.60226622   -7.1788182    945.89941   0.01917882  0.018185021          626 
 4111000   0.58428468   -7.1877936    944.17821  0.019139265  0.018179041          585 
 4112000   0.57829426   -7.1899993    945.06381  0.019152558  0.018173058          613 
 4113000   0.59346266   -7.1713178    944.65338  0.019139586  0.018167082          556 
 4114000   0.59262019    -7.185116    943.10798  0.019103629  0.018161096          553 
 4115000   0.59669151   -7.2021603    946.95408  0.019176875  0.018155126          619 
 4116000   0.59274117   -7.1802818    942.81234  0.019088361  0.018149148          649 
 4117000   0.59601697   -7.2031325    947.47177  0.019178038  0.018143174          551 
 4118000   0.59417819   -7.1869232    945.54886  0.019134468  0.018137194          645 
 4119000   0.57952919   -7.1821186    945.17598  0.019122278  0.018131216          618 
 4120000   0.60408986   -7.1940632    943.82576  0.019090327   0.01812524          492 
 4121000   0.58917396   -7.1928317    943.31711  0.019075409  0.018119275          648 
 4122000   0.60550795   -7.1868606     943.4922  0.019074321  0.018113299          570 
 4123000   0.59137011   -7.1897305    944.11043   0.01908219  0.018107316          624 
 4124000   0.58864516   -7.1998625    944.22232  0.019079824  0.018101347          561 
 4125000    0.5939209   -7.1957677    944.67954  0.019084435  0.018095382          599 
 4126000   0.58143148   -7.1770181    944.19119  0.019069946  0.018089427          646 
 4127000   0.57283411   -7.2072279    944.84755  0.019078579  0.018083475          612 
 4128000     0.589585   -7.1707563     945.3045  0.019083182  0.018077528          532 
 4129000   0.59046679   -7.1894861    943.60178  0.019044195  0.018071576          632 
 4130000   0.59672501   -7.1588784    944.01296  0.019047881  0.018065625          608 
 4131000   0.59517844   -7.2026518    944.02147  0.019043441  0.018059668          632 
 4132000   0.58834708    -7.198813    944.95098  0.019057579  0.018053715          659 
 4133000   0.59933998   -7.1963164    943.93453  0.019032473  0.018047765          656 
 4134000   0.58703087   -7.2099663    944.51449   0.01903956  0.018041812          659 
 4135000   0.59573865   -7.2119428    943.91295  0.019022833  0.018035848          762 
 4136000   0.58199768   -7.2056858    943.62657  0.019012463   0.01802989          705 
 4137000   0.59851402   -7.1976059    943.79715  0.019011303  0.018023943          622 
 4138000    0.5835691   -7.2021699     945.5495  0.019041999  0.018017997          698 
 4139000   0.57098241   -7.2046895    944.42942  0.019014847  0.018012048          620 
 4140000   0.59411752   -7.1914829    944.82338  0.019018184  0.018006098          754 
 4141000   0.58389889   -7.1699557    945.39585  0.019025112  0.018000165          670 
 4142000   0.59040397   -7.1830576    944.10225  0.018994492  0.017994223          713 
 4143000    0.5853419   -7.1928871    945.85458  0.019025154  0.017988295          772 
 4144000   0.58747448   -7.2105494    944.63688  0.018996076  0.017982359          638 
 4145000   0.59155815   -7.1982447    944.21493   0.01898301  0.017976425          729 
 4146000   0.58344586    -7.201688    944.64603  0.018987097  0.017970486          722 
 4147000   0.60383031   -7.1982781    943.41523  0.018957785  0.017964553          705 
 4148000   0.57198468   -7.1746534    943.97632  0.018964487   0.01795862          753 
 4149000   0.59032829   -7.1955893    943.59171  0.018952191  0.017952687          674 
 4150000   0.59372133   -7.2049535    944.65164  0.018968908  0.017946753          694 
 4151000   0.56931637   -7.2050857    944.01011   0.01895146  0.017940825          781 
 4152000   0.57551441   -7.2139404    942.70044  0.018920609    0.0179349          654 
 4153000    0.5960246   -7.1832362    943.09013  0.018923873  0.017928979          796 
 4154000   0.60106113   -7.1983919    943.21553  0.018921833  0.017923049          753 
 4155000   0.60078625   -7.2039143    943.29248  0.018918822  0.017917128          775 
 4156000   0.59698819   -7.1939268    945.55424  0.018959621  0.017911223          791 
 4157000   0.57001168   -7.2085648    941.54078  0.018874605  0.017905296          838 
 4158000   0.59111993   -7.2167988    944.25854  0.018924534  0.017899379          724 
 4159000   0.59748739    -7.206289    944.10908  0.018916989  0.017893464          758 
 4160000   0.58182945    -7.205467    942.92448  0.018888711  0.017887545          835 
 4161000   0.58858178   -7.2054014    946.91222  0.018964035  0.017881632          688 
 4162000   0.58675551   -7.1976255    945.69474  0.018935102  0.017875725          724 
 4163000   0.57807358   -7.2140081    942.74274  0.018871462  0.017869819          758 
 4164000   0.58184071   -7.1959542    946.32988  0.018938718  0.017863927          751 
 4165000   0.58189433   -7.2102222    944.09151  0.018889386  0.017858037          767 
 4166000   0.58207659   -7.2126653    945.46798  0.018912386  0.017852138          749 
 4167000   0.57667121   -7.2123766    942.72019  0.018852896  0.017846247          795 
 4168000   0.58246924   -7.2360761    942.58747  0.018845719  0.017840364          861 
 4169000   0.58618732   -7.2202952    941.21978   0.01881386  0.017834459          794 
 4170000   0.59049876   -7.1966259    943.83295   0.01886157  0.017828557          816 
 4171000   0.59071481    -7.220055    943.51624   0.01885072  0.017822657          902 
 4172000   0.58021445   -7.2003278    943.24974  0.018840879  0.017816761          763 
 4173000   0.57233936   -7.2079926    941.60335  0.018803486  0.017810872          816 
 4174000   0.57536762   -7.2387461    943.37455  0.018834343  0.017804982          796 
 4175000   0.60806192   -7.2273126    941.89848  0.018800369  0.017799107          788 
 4176000   0.58356231   -7.2294214    943.13936  0.018820629   0.01779324          711 
 4177000   0.58124757   -7.2147019    943.68972  0.018827103  0.017787363          826 
 4178000    0.6029396   -7.2027242    941.36897  0.018776308  0.017781498          775 
 4179000   0.57179326   -7.2194539     943.7659  0.018819612  0.017775633          751 
 4180000   0.57109335    -7.218199    940.89614  0.018757897  0.017769763          859 
 4181000   0.56702204   -7.2084381    942.85647  0.018792483   0.01776389          773 
 4182000   0.59004155   -7.1912048    945.10021    0.0188327  0.017758027          840 
 4183000   0.57725523    -7.199937    944.43257  0.018814897  0.017752163          837 
 4184000   0.58338569   -7.2188289    943.27935  0.018787431  0.017746301          733 
 4185000   0.57651188   -7.2058459    944.99308  0.018817067  0.017740451          716 
 4186000   0.59132355   -7.2207057    943.23549  0.018777582  0.017734595          688 
 4187000    0.5727353   -7.2082787    943.58721  0.018780097   0.01772875          830 
 4188000   0.57299549    -7.205071     942.5259  0.018754495  0.017722884          648 
 4189000   0.57541345   -7.2214864    944.75682  0.018794398  0.017717044          722 
 4190000   0.59513957   -7.2096187    943.32282  0.018761393  0.017711207          746 
 4191000   0.58212811   -7.2140878    945.00165  0.018790298  0.017705371          716 
 4192000   0.57271346   -7.2084069    945.47936  0.018795312  0.017699533          848 
 4193000   0.58191444   -7.2160664     942.1395  0.018724451  0.017693695          789 
 4194000   0.58500412     -7.21189    942.18617  0.018720914  0.017687855          913 
 4195000   0.58785694   -7.2353774     943.2549  0.018737682  0.017682012          863 
 4196000   0.58787162   -7.2497035    943.15532  0.018731238  0.017676168          833 
 4197000   0.59246693   -7.2165393    944.29838  0.018749471  0.017670326          842 
 4198000   0.59020698   -7.2318559    943.75315  0.018734182  0.017664493          804 
 4199000   0.57992777   -7.2034374     945.0805  0.018756063  0.017658661          740 
 4200000   0.58487264   -7.2308202    944.43239  0.018738738  0.017652826          746 
 4201000   0.57773623   -7.2248349    942.59519  0.018697834  0.017647002          753 
 4202000   0.58408485   -7.2296318    944.08633  0.018722956  0.017641184          737 
 4203000   0.57403419   -7.2284305    941.95256  0.018676195  0.017635368          780 
 4204000   0.57889688     -7.22612    944.30752  0.018718433  0.017629547          766 
 4205000   0.56542048   -7.2173552    943.37926  0.018695586   0.01762373          827 
 4206000   0.57553416   -7.2080701    944.32386  0.018709856  0.017617915          736 
 4207000    0.5681137   -7.2196935    942.08079  0.018660978  0.017612112          808 
 4208000   0.55372591   -7.2313212    945.19209  0.018718158  0.017606304          808 
 4209000   0.57924519   -7.2174946    943.39569  0.018678144  0.017600507          782 
 4210000   0.58020653   -7.2102977     944.1183  0.018688011  0.017594704          854 
 4211000   0.57421744   -7.2208884    942.76398  0.018656772  0.017588907          814 
 4212000   0.57853047   -7.2144738    942.92957  0.018655618  0.017583113          860 
 4213000   0.58170196   -7.1946587    947.04233  0.018732541  0.017577322          733 
 4214000   0.58175219   -7.2211595     941.9461  0.018627316  0.017571521          817 
 4215000   0.58566701   -7.2180192    944.82377   0.01867979   0.01756573          795 
 4216000   0.59425082   -7.2284704    943.48208  0.018648839  0.017559939          783 
 4217000   0.57803237    -7.217693    943.50374  0.018644845  0.017554146          770 
 4218000   0.57807047   -7.2237794    942.54124  0.018621409  0.017548357          840 
 4219000   0.58427488   -7.2393294    941.45123  0.018595466   0.01754256          732 
 4220000   0.56328951   -7.2522679    942.19867  0.018605819  0.017536761          792 
 4221000   0.58118424       -7.215    944.20771  0.018641075  0.017530968          808 
 4222000    0.5747016   -7.2151126     942.6069  0.018605063  0.017525185          800 
 4223000   0.56626945   -7.2016419    943.01877  0.018608785  0.017519409          833 
 4224000   0.58076972   -7.2306669    942.87493  0.018601541  0.017513628          734 
 4225000   0.57717995   -7.2186711    944.36031  0.018626436   0.01750785          724 
 4226000   0.57762284   -7.2224722    941.97538     0.018575  0.017502069          854 
 4227000   0.58116374   -7.2197479    941.50588  0.018561349  0.017496282          842 
 4228000   0.57624523   -7.2231747     943.8681  0.018603518  0.017490494          862 
 4229000   0.58012043   -7.2168778    942.13179  0.018564905  0.017484714          778 
 4230000   0.56814403   -7.2170037    942.91135  0.018575874  0.017478934          822 
 4231000   0.57705006   -7.2287096     942.8954  0.018571169  0.017473158          820 
 4232000   0.58823743   -7.2314789    943.60522  0.018580758  0.017467389          818 
 4233000   0.57781082    -7.230565     943.4425  0.018573165   0.01746162          819 
 4234000   0.57849641   -7.2391633    942.93174  0.018558726  0.017455845          762 
 4235000   0.58326574   -7.2429992    942.35254  0.018542946  0.017450079          809 
 4236000   0.56917095   -7.2331964    941.95701  0.018530788  0.017444314          817 
 4237000   0.56390332   -7.2136705    943.27208  0.018552279  0.017438556          841 
 4238000   0.58235278   -7.2352306    942.24732  0.018527751  0.017432803          719 
 4239000   0.55911215   -7.2293988    941.90408  0.018516633  0.017427048          838 
 4240000   0.57693876   -7.2249445    941.99824  0.018514116   0.01742129          785 
 4241000   0.58287779   -7.2191561    943.49995  0.018539259   0.01741555          756 
 4242000   0.57520296   -7.2307111    944.21607  0.018548956  0.017409802          884 
 4243000   0.57624985   -7.2281373    943.36141  0.018527799  0.017404064          761 
 4244000   0.59093401   -7.2272714    942.60396   0.01850856  0.017398325          801 
 4245000    0.5675559   -7.2348205    943.53218  0.018522422   0.01739259          790 
 4246000   0.58196991   -7.2280545    944.21175  0.018531397   0.01738685          803 
 4247000   0.55480024   -7.2431966    945.04209  0.018543326   0.01738111          772 
 4248000   0.57544388   -7.2247301    942.67707  0.018492567  0.017375376          724 
 4249000   0.56802343   -7.2532332    940.75763  0.018450569  0.017369636          786 
 4250000   0.56770914   -7.2523129    941.91378  0.018468898  0.017363891          853 
 4251000   0.57292049   -7.2290223    939.73673  0.018421876  0.017358154          825 
 4252000   0.57572128   -7.2550909    941.46901  0.018451494  0.017352419          832 
 4253000    0.5698783   -7.2434709    941.73073  0.018452283  0.017346674          888 
 4254000   0.56650421   -7.2407198    943.95873  0.018491591  0.017340922          901 
 4255000    0.5649318   -7.2412319    940.40191  0.018417585  0.017335177          852 
 4256000   0.56746897    -7.249802    942.80797  0.018460369  0.017329424          951 
 4257000   0.56696923    -7.236237     940.0876   0.01840278  0.017323681          918 
 4258000   0.57402169   -7.2548916    943.37729   0.01846284  0.017317931          827 
 4259000     0.567616   -7.2485671    941.75855  0.018426832  0.017312197          811 
 4260000   0.56533731   -7.2396115    941.92375  0.018425738  0.017306464          860 
 4261000   0.57418258   -7.2336896    943.20163  0.018446406  0.017300732          886 
 4262000   0.56480781   -7.2378834     942.5938  0.018430193  0.017295009          913 
 4263000   0.57176096   -7.2661686    942.11281  0.018416467  0.017289282          950 
 4264000   0.56333683   -7.2273758    943.82624  0.018445635  0.017283564          939 
 4265000    0.5733053   -7.2639387    941.36185  0.018393158  0.017277838          994 
 4266000     0.558854   -7.2536923    941.08407  0.018383421  0.017272111          976 
 4267000   0.58368495   -7.2493738     940.0638  0.018359187  0.017266386          990 
 4268000   0.57102763   -7.2517889       943.93  0.018430373  0.017260661          857 
 4269000   0.57650365   -7.2554511    941.47729  0.018378178  0.017254948         1038 
 4270000    0.5599511   -7.2447251    941.48455  0.018374015  0.017249244         1015 
 4271000   0.57164383   -7.2483306    941.75415  0.018374974  0.017243545          921 
 4272000   0.56520009   -7.2623395    942.66132  0.018388369   0.01723784          822 
 4273000   0.57031286   -7.2541935    940.20528  0.018336167  0.017232142          892 
 4274000   0.56313528   -7.2585724    940.38106  0.018335304  0.017226437          955 
 4275000   0.57057638   -7.2500219    942.18379  0.018366156  0.017220737          858 
 4276000   0.54790388   -7.2679996     940.8998  0.018336837  0.017215032          930 
 4277000   0.57069065   -7.2767698    942.37119  0.018361219  0.017209332         1030 
 4278000   0.58360025   -7.2756339     941.6152    0.0183422  0.017203627         1063 
 4279000   0.55865686   -7.2683632    941.38313  0.018333394  0.017197929         1009 
 4280000   0.57643529   -7.2678952    941.20759  0.018325693  0.017192234         1063 
 4281000   0.56810959   -7.2733629    940.04392   0.01829876  0.017186538         1018 
 4282000   0.56595735   -7.2710946    941.43893  0.018321636  0.017180845          968 
 4283000   0.55943835   -7.2570024    942.33934  0.018334877  0.017175148         1052 
 4284000   0.56586322   -7.2555108    940.52879  0.018295378  0.017169448         1053 
 4285000   0.56808885   -7.2569145    942.93349  0.018337874  0.017163751         1075 
 4286000   0.56855659   -7.2798458    940.41612   0.01828465  0.017158058         1050 
 4287000   0.57251936   -7.2801261    941.24841  0.018296563  0.017152367         1046 
 4288000   0.57655846   -7.2668878    940.27883  0.018273454  0.017146678         1016 
 4289000   0.56476401   -7.2661935    940.35617  0.018270696  0.017140996         1069 
 4290000    0.5698148   -7.2474806    941.69238  0.018292393  0.017135312         1038 
 4291000   0.57777802   -7.2708371    942.46337  0.018303103  0.017129629         1010 
 4292000   0.57055339   -7.2738224     941.1484  0.018273307  0.017123953          975 
 4293000   0.57191688   -7.2773746    939.97384  0.018246251  0.017118279         1081 
 4294000   0.56493382   -7.2772055    939.73216  0.018237311    0.0171126         1017 
 4295000   0.56318343   -7.2650134    941.27998  0.018263096  0.017106926          991 
 4296000   0.56452384   -7.2720927    941.13513  0.018256035  0.017101253         1108 
 4297000   0.55385778   -7.2652643    941.92648  0.018267134  0.017095571         1031 
 4298000   0.56387708   -7.2623859    939.57979  0.018217384  0.017089909         1062 
 4299000   0.55574708   -7.2558311    942.09917  0.018261983  0.017084244         1028 
 4300000   0.56879595   -7.2853905    940.59418  0.018228569  0.017078585         1032 
 4301000   0.55944025   -7.2602795    941.41927  0.018240318  0.017072922         1025 
 4302000   0.57086207   -7.2521615    940.69907  0.018222127  0.017067267         1025 
 4303000   0.56814863   -7.2608745    941.84588  0.018240101  0.017061616         1043 
 4304000   0.56167863   -7.2629241    941.24628  0.018224254  0.017055966         1044 
 4305000   0.56220939   -7.2833543    941.57968  0.018226475  0.017050322         1004 
 4306000   0.55427586   -7.2668532    939.24634  0.018177085  0.017044668          990 
 4307000   0.55230832   -7.2760096    939.99764  0.018187401  0.017039009         1089 
 4308000   0.56148892   -7.2700599    940.98223  0.018202225   0.01703336         1117 
 4309000    0.5571395   -7.2677591    943.14804  0.018239886  0.017027714         1062 
 4310000   0.56127436   -7.2780167    941.12041   0.01819645  0.017022081         1019 
 4311000   0.57052747    -7.254165     939.3158  0.018157346   0.01701644          994 
 4312000   0.56385621   -7.2717104    939.94302  0.018165256  0.017010802          980 
 4313000   0.55786562   -7.2798721    940.70576  0.018175782  0.017005159         1019 
 4314000   0.55758465   -7.2778484    939.31826  0.018144766  0.016999515         1082 
 4315000   0.55567735   -7.2815721    940.04493  0.018154595  0.016993878         1020 
 4316000   0.56401582   -7.2567712    940.24137  0.018154182  0.016988248         1033 
 4317000   0.56106569   -7.2744876    940.75248  0.018159842  0.016982619         1026 
 4318000   0.56977459    -7.291971    941.33332  0.018166846     0.016977         1094 
 4319000    0.5744739   -7.2787282    940.38289  0.018144302  0.016971378         1040 
 4320000   0.55392954   -7.2654731    940.11401  0.018134915  0.016965766         1013 
 4321000   0.55624437   -7.2674463    940.83858  0.018144692  0.016960146          919 
 4322000   0.55784069     -7.27652     941.6648  0.018156424  0.016954524         1017 
 4323000   0.55411236   -7.2511367    939.71259  0.018114592  0.016948913          974 
 4324000     0.549677   -7.2604074    941.03488  0.018135886  0.016943311         1022 
 4325000   0.55111137   -7.2618006    940.38608  0.018119192   0.01693772         1024 
 4326000   0.56409242   -7.2610907    941.29677  0.018132547  0.016932122          957 
 4327000   0.57948015    -7.267207    940.48966  0.018112812  0.016926521         1012 
 4328000    0.5654713   -7.2625461    941.42671   0.01812667  0.016920921          952 
 4329000   0.55912113   -7.2645401    942.73135  0.018147597  0.016915333         1094 
 4330000    0.5585012   -7.2757763    941.34792  0.018116781  0.016909738         1057 
 4331000   0.55483974   -7.2629548    938.62182  0.018060144  0.016904148         1063 
 4332000   0.55541133   -7.2485798    939.93238  0.018081186  0.016898562         1003 
 4333000   0.55592011   -7.2748898    940.84813  0.018094625  0.016892968          936 
 4334000   0.56806028   -7.2686985    940.60212   0.01808572  0.016887375          988 
 4335000   0.55584724    -7.255671    940.66488  0.018082754  0.016881793         1009 
 4336000   0.56190208   -7.2865364    939.70465  0.018060129  0.016876205         1016 
 4337000   0.55297792   -7.2740645    940.45599  0.018070402   0.01687062         1053 
 4338000   0.56662604   -7.2727224    940.29737  0.018063189  0.016865031         1053 
 4339000   0.55303935   -7.2685285    939.77127  0.018048922  0.016859442         1060 
 4340000   0.55989769   -7.2766223    939.66928  0.018042805  0.016853856         1091 
 4341000   0.56040913   -7.2758126    940.68214  0.018058092  0.016848273         1089 
 4342000   0.56262084   -7.2738075    940.57227  0.018051825  0.016842692         1129 
 4343000   0.55612305   -7.2713418    940.00582  0.018036799   0.01683712         1120 
 4344000   0.56759261   -7.2806183    940.89079  0.018049624  0.016831544         1075 
 4345000   0.56203912   -7.2649851    941.62256  0.018059504  0.016825968          996 
 4346000   0.55565283   -7.2805641    940.85947  0.018040717  0.016820398         1123 
 4347000   0.56615532   -7.2797486     942.5478  0.018068933   0.01681483          960 
 4348000    0.5581029   -7.2802149    941.28232  0.018040523  0.016809256          944 
 4349000   0.54779735   -7.2804684    941.53392  0.018041196  0.016803699         1025 
 4350000    0.5480725   -7.2748404    940.94917  0.018025846  0.016798126          980 
 4351000   0.56339005   -7.2809723    939.59273  0.017995724  0.016792563          934 
 4352000   0.55448095   -7.2754545    938.82942  0.017976973  0.016786993          994 
 4353000   0.56721502   -7.2921936    938.88334  0.017973875  0.016781433         1141 
 4354000   0.55737512    -7.293682    940.63683  0.018003308   0.01677587         1111 
 4355000   0.55906163   -7.2868713    939.35757  0.017974695   0.01677031         1101 
 4356000   0.55127627   -7.2970833    940.70631  0.017996371  0.016764743         1149 
 4357000   0.55668401   -7.2783146    940.64322  0.017991034  0.016759186         1048 
 4358000   0.54999902   -7.2834859    939.29638  0.017961152  0.016753632         1033 
 4359000   0.55900971   -7.2660881    940.78771  0.017985542  0.016748081         1000 
 4360000   0.56157327   -7.2788866    939.71101  0.017960837  0.016742528         1061 
 4361000   0.55602649   -7.2898385    939.96424  0.017961558  0.016736971         1092 
 4362000   0.54480902   -7.3015273    938.27148  0.017925101  0.016731414         1061 
 4363000   0.55569123   -7.2867479    939.16668  0.017938091  0.016725866         1037 
 4364000    0.5484788   -7.2769684    939.12209  0.017933129   0.01672032         1042 
 4365000   0.56000708   -7.2936464    939.70092  0.017940071   0.01671477         1063 
 4366000   0.56090085    -7.290871    938.23916  0.017908062  0.016709227         1081 
 4367000   0.54468706   -7.2848063    939.83247  0.017934365  0.016703677          988 
 4368000   0.55341922   -7.2806883    940.00136  0.017933481  0.016698132         1090 
 4369000     0.552808   -7.2960185    942.45829   0.01797624  0.016692592          955 
 4370000   0.53808381   -7.2848715    940.26452  0.017930292  0.016687054         1135 
 4371000   0.54241983   -7.2598623    940.42527  0.017929255  0.016681518          990 
 4372000   0.54083937   -7.2832524    938.95348  0.017897101  0.016675979         1121 
 4373000   0.54538253   -7.2977082    939.55063  0.017904387  0.016670455         1148 
 4374000   0.54844494   -7.2831361    938.97146   0.01788926  0.016664926         1130 
 4375000   0.55260572   -7.3013657    938.78892  0.017881694  0.016659397         1059 
 4376000   0.54088328   -7.2711655    939.90133  0.017898791  0.016653865         1164 
 4377000   0.54834923   -7.2894169    938.65332  0.017870941  0.016648342         1198 
 4378000   0.56159759   -7.3000701    938.18816  0.017858005  0.016642817         1033 
 4379000   0.55241444   -7.2784272    937.87394  0.017847947  0.016637293         1013 
 4380000   0.56146931   -7.2985518    938.59537  0.017857598  0.016631775         1144 
 4381000   0.55435304   -7.2972582    937.94888  0.017841225  0.016626261         1123 
 4382000   0.55346215   -7.3056632    939.94113   0.01787504  0.016620739         1119 
 4383000   0.53906286   -7.2927232    937.77539  0.017829785   0.01661522         1106 
 4384000   0.54401087    -7.289732    939.99759  0.017867959    0.0166097         1120 
 4385000   0.53915274   -7.2904059    939.33084  0.017851213  0.016604185         1183 
 4386000   0.54874066   -7.2848805    938.67679  0.017834716  0.016598681         1081 
 4387000   0.56074589   -7.2925914      938.343  0.017824311  0.016593179         1119 
 4388000   0.55023216   -7.2977905    939.43129  0.017840916  0.016587686         1117 
 4389000   0.55906683   -7.2851217    938.95302  0.017827771  0.016582184         1111 
 4390000   0.55205853     -7.29691    937.68814  0.017799699  0.016576688         1102 
 4391000    0.5504037   -7.2717806    939.26624  0.017825595  0.016571185         1235 
 4392000   0.55708719   -7.3077089    939.25594  0.017821341  0.016565692         1238 
 4393000   0.54781425   -7.3086173     938.7284  0.017807277  0.016560202         1252 
 4394000   0.54518679   -7.2914621    938.40803  0.017797148  0.016554709         1226 
 4395000   0.54995225   -7.3096864    938.80476  0.017800621  0.016549212         1176 
 4396000   0.54488424   -7.2737387     940.0463  0.017820107  0.016543723         1106 
 4397000   0.54973699   -7.3168217     937.7108  0.017771791  0.016538241         1173 
 4398000   0.54620003   -7.3055371    938.50024  0.017782709  0.016532758         1219 
 4399000   0.55622282   -7.3099325    939.48704   0.01779736  0.016527272         1240 
 4400000    0.5515929   -7.3040419    939.89509  0.017801043  0.016521791         1114 
 4401000   0.55626702   -7.2981692    938.24057   0.01776567  0.016516316         1162 
 4402000   0.54497157   -7.2874587    940.20365  0.017798797   0.01651085         1223 
 4403000   0.53953741   -7.3076129     936.7371  0.017729145  0.016505379         1248 
 4404000   0.54822302   -7.2913886    939.30201  0.017773653  0.016499911         1151 
 4405000   0.54547358   -7.2901253     940.7082   0.01779622  0.016494447         1120 
 4406000   0.55215185   -7.2898046    939.45992  0.017768572  0.016488981         1168 
 4407000   0.54296015   -7.2857999    939.97786  0.017774334  0.016483517         1279 
 4408000   0.54449367   -7.3097018    939.47292  0.017760755  0.016478068         1314 
 4409000   0.54990016   -7.2946302    939.32258  0.017753886  0.016472609         1262 
 4410000   0.54342959    -7.296476    937.93225  0.017723588  0.016467148         1287 
 4411000   0.54340994   -7.2843901    939.87344  0.017756243  0.016461694         1307 
 4412000   0.55486959   -7.3077412    938.40839  0.017724547  0.016456229         1147 
 4413000    0.5536278   -7.3081465    939.63948  0.017743777  0.016450772         1283 
 4414000    0.5550161   -7.2972816    939.79743   0.01774274  0.016445329         1227 
 4415000   0.55846739   -7.3024542    940.48073  0.017751618  0.016439879         1274 
 4416000   0.54604366   -7.3212845    937.05703  0.017682991  0.016434423         1260 
 4417000   0.53757127   -7.2876879    939.96325  0.017733817   0.01642897         1275 
 4418000   0.55031881   -7.2899245    937.74984  0.017688053  0.016423528         1325 
 4419000   0.54910991   -7.3060732    939.17234  0.017710876   0.01641808         1339 
 4420000   0.53043795   -7.2935306    938.72576  0.017698449  0.016412639         1292 
 4421000   0.55228445   -7.2982138    939.15827  0.017702599  0.016407196         1296 
 4422000   0.54321633   -7.3145416    937.51884    0.0176677  0.016401747         1336 
 4423000   0.53618396   -7.3001507    938.64668  0.017684955  0.016396298         1280 
 4424000   0.55772896   -7.3100086    937.61145  0.017661457   0.01639085         1373 
 4425000   0.54394559   -7.3119173    937.78188  0.017660676  0.016385405         1370 
 4426000   0.55071968   -7.3113081    937.86346  0.017658222  0.016379961         1269 
 4427000   0.53769135   -7.3176195    938.49481  0.017666117  0.016374518         1346 
 4428000   0.55170162   -7.3141475    937.64791  0.017646189  0.016369081         1331 
 4429000   0.55235885   -7.3085001    936.88321  0.017627817  0.016363643         1349 
 4430000    0.5433818   -7.3126203    937.74743  0.017640095  0.016358209         1388 
 4431000   0.54196709   -7.3047537    938.27374  0.017646012  0.016352781         1313 
 4432000    0.5455253   -7.3027634    938.37036  0.017643847  0.016347355         1321 
 4433000   0.54836716   -7.3123013    937.32468   0.01762021  0.016341923         1425 
 4434000   0.54024133   -7.3141255    939.62706  0.017659507  0.016336493         1344 
 4435000   0.53806417   -7.3154323     935.9942  0.017587264   0.01633107         1267 
 4436000   0.54334528   -7.2948686    937.99932  0.017620967  0.016325645         1341 
 4437000   0.53882252   -7.3143032    937.27047  0.017603307  0.016320225         1314 
 4438000   0.53991441   -7.2937711    938.38028   0.01762018   0.01631481         1335 
 4439000   0.54200349   -7.3276302    937.53438   0.01760033  0.016309391         1315 
 4440000    0.5423561   -7.3236419    938.82004  0.017620496  0.016303971         1327 
 4441000   0.55041812    -7.319382    936.26076  0.017568505  0.016298547         1368 
 4442000   0.54805489   -7.3151027    935.89395  0.017557668  0.016293135         1300 
 4443000   0.54154275   -7.3242755    937.47769  0.017583421  0.016287714         1340 
 4444000   0.54180983   -7.3168266    937.12629  0.017572875  0.016282299         1327 
 4445000   0.53836774    -7.315944    937.01374  0.017566812  0.016276886         1259 
 4446000    0.5428539   -7.3239159    937.64782  0.017574745  0.016271474         1374 
 4447000   0.53601445   -7.3256796    939.49624  0.017605431  0.016266065         1353 
 4448000   0.53732487   -7.3139256    937.34994  0.017561262  0.016260662         1384 
 4449000   0.52841325   -7.3280743    935.71619  0.017526714  0.016255259         1305 
 4450000   0.52902756   -7.3162932    937.31646  0.017552743  0.016249855         1337 
 4451000    0.5413515   -7.3315522    936.91696   0.01754132   0.01624446         1369 
 4452000   0.52419009   -7.3125809    937.99903  0.017557634  0.016239066         1320 
 4453000   0.54155123   -7.2952456    937.48618  0.017544094  0.016233679         1333 
 4454000   0.53288217   -7.3119215    938.19085  0.017553339  0.016228291         1285 
 4455000   0.54614903   -7.3153506    938.14999  0.017548634  0.016222909         1295 
 4456000   0.54426353   -7.3120723    937.45633  0.017531724  0.016217528         1275 
 4457000   0.54227933   -7.3065848    937.58065  0.017530115  0.016212148         1341 
 4458000   0.54135673   -7.3206582      937.122  0.017517609  0.016206763         1335 
 4459000   0.52973442   -7.3145867    938.62193  0.017541712  0.016201392         1360 
 4460000   0.53623005   -7.3159431       934.96  0.017469357  0.016196022         1352 
 4461000   0.54133151   -7.3204565     938.5521  0.017532543  0.016190652         1377 
 4462000    0.5552169   -7.3199478    935.66155  0.017474629  0.016185279         1388 
 4463000   0.54119072   -7.3048828      937.607  0.017507039  0.016179914         1485 
 4464000   0.55431891    -7.311623     938.7121  0.017523747  0.016174553         1299 
 4465000   0.53861035   -7.3169497    937.00591  0.017487979  0.016169205         1349 
 4466000    0.5341901   -7.3052059     936.7059  0.017478465  0.016163846         1292 
 4467000   0.54477708   -7.3166262    939.05405  0.017518358  0.016158499         1354 
 4468000   0.53665057   -7.3100027    937.35336  0.017482717  0.016153151         1314 
 4469000   0.53109719   -7.3296092    937.09258  0.017473942  0.016147797         1327 
 4470000   0.53819045    -7.310976    938.86133  0.017503008  0.016142448         1343 
 4471000   0.53799014   -7.2977317    938.92566  0.017500292  0.016137091         1397 
 4472000   0.54151504   -7.3292542    936.97666   0.01746006  0.016131748         1306 
 4473000   0.53452938   -7.3223606     935.2991  0.017424903  0.016126396         1304 
 4474000   0.52654739   -7.3056714    937.40648  0.017460261   0.01612105         1343 
 4475000   0.53299592    -7.312902    937.19739  0.017452465  0.016115705         1382 
 4476000   0.53552722   -7.3485024    936.58337  0.017437134  0.016110365         1348 
 4477000   0.52181592   -7.3209256    935.81234  0.017418888  0.016105025         1409 
 4478000   0.54098852   -7.3260811    937.77791  0.017451576  0.016099679         1337 
 4479000   0.53103208   -7.3259658    937.03972  0.017433946  0.016094338         1348 
 4480000   0.54088648   -7.3361241    936.58081  0.017421518  0.016088998         1361 
 4481000   0.54132801   -7.3299589    936.15389  0.017409691   0.01608366         1330 
 4482000   0.54331378   -7.3238472    938.16159  0.017443135  0.016078326         1319 
 4483000   0.53658238   -7.3151315    937.33914  0.017423956  0.016072991         1383 
 4484000   0.52961979   -7.3201672    937.32796  0.017419862  0.016067659         1403 
 4485000   0.52637841   -7.3299218    937.93948  0.017427341  0.016062336         1288 
 4486000   0.53882598   -7.3218761    935.42845   0.01737681  0.016057012         1375 
 4487000   0.53236764   -7.3511623    936.08508  0.017385133  0.016051689         1343 
 4488000   0.53745056   -7.3304894    935.26741  0.017366076  0.016046366         1335 
 4489000   0.53880354   -7.3268888    935.25002  0.017361885  0.016041039         1418 
 4490000   0.52319576   -7.3429075    936.51566  0.017381508  0.016035717         1406 
 4491000   0.53348516   -7.3251414    937.56322  0.017397076  0.016030398         1386 
 4492000   0.53276922   -7.3210932    938.03742     0.017402  0.016025082         1342 
 4493000   0.54410427   -7.3326339     937.7627  0.017393032  0.016019772         1371 
 4494000   0.53702843   -7.3474609    937.60768  0.017386287  0.016014464         1400 
 4495000   0.53867255   -7.3392607    936.36579  0.017359395  0.016009152         1395 
 4496000   0.52343733   -7.3193893    936.49911  0.017358006  0.016003848         1357 
 4497000    0.5416445   -7.3516882    935.87449  0.017342571  0.015998539         1402 
 4498000   0.55104017   -7.3234192    938.02863  0.017378624  0.015993239         1436 
 4499000   0.53892428   -7.3287676    936.63946  0.017349031  0.015987933         1414 
 4500000   0.54279046   -7.3284985    935.67518  0.017327318  0.015982629         1455 
 4501000   0.54394403   -7.3282396    936.57228  0.017340078  0.015977325         1395 
 4502000   0.51738008   -7.3271302    936.50872   0.01733505  0.015972029         1440 
 4503000   0.54646358   -7.3275269    938.42807   0.01736672   0.01596673         1355 
 4504000   0.53833902   -7.3263034    935.91116  0.017316296  0.015961446         1477 
 4505000    0.5182427   -7.3161684    936.27815  0.017319241  0.015956158         1383 
 4506000   0.53300596   -7.3311782    937.18642  0.017332194  0.015950871         1437 
 4507000    0.5378344   -7.3245125    935.96551  0.017305774  0.015945583         1352 
 4508000   0.53810441   -7.3450398    937.50926  0.017330473  0.015940298         1410 
 4509000   0.51572205   -7.3379179    937.10945   0.01731924  0.015935006         1434 
 4510000   0.53619696   -7.3262758    937.80575  0.017328266  0.015929724         1401 
 4511000   0.52908938   -7.3435619    936.30676  0.017296733  0.015924448         1490 
 4512000   0.52606887     -7.32097    937.38954  0.017312898   0.01591917         1477 
 4513000   0.53418595   -7.3400789    940.09628  0.017359042  0.015913895         1498 
 4514000   0.53256666   -7.3333524    935.57917  0.017271806   0.01590862         1494 
 4515000   0.52441139   -7.3349493    936.54731  0.017285849  0.015903347         1559 
 4516000   0.53078909   -7.3433717    935.99789  0.017271883  0.015898072         1545 
 4517000   0.53076107   -7.3492094    934.78091  0.017245608  0.015892801         1496 
 4518000   0.53079298   -7.3345067    935.81659  0.017260893  0.015887532         1527 
 4519000   0.52357595   -7.3414659    937.21603   0.01728288   0.01588227         1446 
 4520000   0.52120853   -7.3241284     936.3665  0.017263394   0.01587701         1435 
 4521000   0.52408609   -7.3271665    936.08269  0.017254344  0.015871752         1475 
 4522000   0.53458692   -7.3377208    936.90735  0.017265726  0.015866491         1479 
 4523000   0.52484084   -7.3200383    936.19207   0.01724873  0.015861241         1548 
 4524000   0.53072863    -7.340365    937.57988  0.017270481  0.015855983         1567 
 4525000   0.52991537    -7.338594     936.3949  0.017244842   0.01585073         1473 
 4526000   0.52195041   -7.3277379    936.37962   0.01724075  0.015845479         1510 
 4527000    0.5272067   -7.3433834     937.1504   0.01725113  0.015840231         1422 
 4528000   0.51067124   -7.3375303    936.08102  0.017227639  0.015834985         1432 
 4529000   0.53713261   -7.3228743    936.09862   0.01722416  0.015829736         1471 
 4530000    0.5254588   -7.3377056    936.10046  0.017220391  0.015824495         1428 
 4531000   0.51186239    -7.341393    935.63632  0.017208054  0.015819254         1418 
 4532000   0.50685343   -7.3423127    935.31207  0.017198295  0.015814016         1504 
 4533000   0.53419254   -7.3355885    936.70604  0.017220127  0.015808785         1544 
 4534000   0.52042414   -7.3400782    936.51877  0.017212887  0.015803552         1529 
 4535000   0.52331249   -7.3380617    935.10836  0.017183175  0.015798323         1478 
 4536000    0.5226713   -7.3370987     937.0157  0.017214427  0.015793098         1556 
 4537000   0.53444697   -7.3295656    937.34147  0.017216617  0.015787873         1390 
 4538000   0.52358465   -7.3311154    938.25952  0.017229681  0.015782653         1408 
 4539000   0.52650317   -7.3551474    934.65411  0.017159692  0.015777437         1501 
 4540000    0.5195068   -7.3551353     935.1769  0.017165508  0.015772219         1440 
 4541000   0.53121403   -7.3303918    936.36687  0.017183566  0.015766995         1365 
 4542000   0.53079128   -7.3552619     934.7247  0.017149653  0.015761785         1406 
 4543000   0.52549162   -7.3540819    935.99228   0.01716913  0.015756571         1441 
 4544000   0.52117465   -7.3573336    935.51926  0.017156676  0.015751353         1438 
 4545000   0.51706808   -7.3445184    935.04195   0.01714415  0.015746133         1392 
 4546000   0.52685242   -7.3367275    936.43139  0.017165849  0.015740927         1434 
 4547000   0.52443576   -7.3584812    937.23277  0.017176761  0.015735725         1502 
 4548000   0.52399052   -7.3409174    933.58981  0.017106234  0.015730521         1386 
 4549000     0.518986   -7.3430346     937.2444  0.017169422  0.015725323         1368 
 4550000   0.51610843   -7.3429642    936.55842  0.017153085  0.015720124         1328 
 4551000   0.53353496    -7.312307    936.97409  0.017156927  0.015714927         1326 
 4552000   0.52802183   -7.3181381     936.9749  0.017153173  0.015709738         1334 
 4553000   0.52001173   -7.3436192    934.64449  0.017106752  0.015704547         1367 
 4554000   0.52937321   -7.3285437    938.05113  0.017165333  0.015699359         1313 
 4555000   0.53002361   -7.3414446    935.95738   0.01712326  0.015694172         1301 
 4556000   0.52462879   -7.3241756    936.84473  0.017135732  0.015688986         1307 
 4557000   0.53543584   -7.3361434    936.04239  0.017117299  0.015683797         1366 
 4558000   0.52629279   -7.3392956    935.91124  0.017111146  0.015678607         1386 
 4559000   0.52368388   -7.3563687    934.94925  0.017089809  0.015673418         1384 
 4560000   0.51783347   -7.3385042    936.74829  0.017118938  0.015668236         1389 
 4561000   0.51659233   -7.3418538     936.1211  0.017103725  0.015663047         1340 
 4562000   0.52708482   -7.3305813    936.62693  0.017109216  0.015657863         1397 
 4563000   0.52678841   -7.3445234    936.59268  0.017104841  0.015652676         1462 
 4564000   0.53250696   -7.3536569    935.91945  0.017088801  0.015647487         1364 
 4565000   0.51879902   -7.3411777    937.26262  0.017109577  0.015642307         1353 
 4566000   0.51400897   -7.3583004    936.81265  0.017097617  0.015637122         1379 
 4567000   0.52430868   -7.3530124     935.4404  0.017068834  0.015631945         1420 
 4568000   0.50990658   -7.3305044    935.53096   0.01706675  0.015626762         1353 
 4569000   0.52279219   -7.3397753    937.55095  0.017099857  0.015621587         1342 
 4570000   0.51913408   -7.3563262    934.51625  0.017040778  0.015616414         1461 
 4571000   0.51110784   -7.3579043    936.25738  0.017068792  0.015611244         1358 
 4572000   0.50883462   -7.3586448    934.62322  0.017035273  0.015606073         1313 
 4573000   0.51118143   -7.3639498    934.06146  0.017021311  0.015600902         1393 
 4574000   0.52654607   -7.3550798    934.78883  0.017030841  0.015595735         1392 
 4575000   0.51633411   -7.3484616    935.02103  0.017031348  0.015590574         1340 
 4576000   0.52352541   -7.3409336    933.68472  0.017003291  0.015585413         1325 
 4577000   0.51302171   -7.3466683    935.41636  0.017031104  0.015580256         1379 
 4578000    0.5160084   -7.3489613    935.25342  0.017024418  0.015575097         1440 
 4579000   0.50726054   -7.3620579    933.43452  0.016987598  0.015569937         1459 
 4580000   0.51590786   -7.3506962    934.28585  0.016999379  0.015564782         1393 
 4581000   0.50498164   -7.3517565    936.48798  0.017035727  0.015559628         1442 
 4582000   0.51589623   -7.3574493    935.62483  0.017016311  0.015554479         1399 
 4583000   0.50500342   -7.3382691    935.55992  0.017011418  0.015549334         1449 
 4584000   0.51515445   -7.3340356    935.60364  0.017008501  0.015544192         1478 
 4585000   0.51709186   -7.3560559    935.28723  0.016999041  0.015539045         1483 
 4586000   0.52032487   -7.3497818    937.84061  0.017041732  0.015533905         1406 
 4587000   0.52265058   -7.3551814    934.36236  0.016974827   0.01552877         1382 
 4588000   0.51831613   -7.3551008    935.37081  0.016989444  0.015523632         1469 
 4589000   0.51733008   -7.3545958    934.45157  0.016969049  0.015518503         1465 
 4590000   0.51894811   -7.3264376    935.73041  0.016988569   0.01551337         1411 
 4591000   0.51361892    -7.366322    935.27019  0.016976516  0.015508239         1454 
 4592000   0.51835124   -7.3386169    935.43104  0.016975737  0.015503115         1431 
 4593000   0.52223632   -7.3577758    935.54827  0.016974168  0.015497989         1420 
 4594000   0.52407324   -7.3440017    935.81785  0.016975364  0.015492866         1350 
 4595000   0.51190663   -7.3418869    934.17859   0.01694194  0.015487746         1393 
 4596000    0.5198187   -7.3642488    933.74961  0.016930476  0.015482621         1387 
 4597000   0.52844896   -7.3460484    936.64551  0.016979289  0.015477504         1399 
 4598000   0.51622346   -7.3683593    935.63354  0.016957256  0.015472385         1439 
 4599000   0.52177433   -7.3696947    935.63284  0.016953556  0.015467263         1427 
 4600000   0.51555275   -7.3658438    934.94525  0.016937414  0.015462147         1265 
 4601000   0.51571406    -7.344913    936.46498  0.016961258  0.015457035         1465 
 4602000   0.51724003   -7.3656704    934.86849  0.016928663  0.015451936         1496 
 4603000   0.51662172    -7.356762    935.83658  0.016942512  0.015446829         1352 
 4604000    0.5150083   -7.3629083    933.79177   0.01690182  0.015441725         1375 
 4605000   0.51856522   -7.3649701    933.93978  0.016900828  0.015436622         1441 
 4606000    0.5140695   -7.3624031    936.08939  0.016936051  0.015431521         1398 
 4607000   0.51409239   -7.3707942    935.95892  0.016930014  0.015426427         1368 
 4608000   0.52539388   -7.3679454    935.22326  0.016913036  0.015421331         1382 
 4609000   0.51314359   -7.3696023    934.41035  0.016894669  0.015416235         1345 
 4610000     0.509524   -7.3619149    937.07643  0.016939198  0.015411145         1335 
 4611000   0.50714312   -7.3539897    935.68002  0.016910287   0.01540606         1342 
 4612000   0.51692945   -7.3521027    935.35223  0.016900698  0.015400975         1442 
 4613000   0.52107454   -7.3687334    935.45992   0.01689898  0.015395888         1437 
 4614000   0.50860627   -7.3713195    934.33277   0.01687496  0.015390801         1390 
 4615000    0.5128918   -7.3742978    932.88654  0.016845189  0.015385719         1335 
 4616000   0.51862478   -7.3451931    935.91465  0.016896206  0.015380643         1432 
 4617000     0.504007   -7.3473741    934.27812  0.016863008  0.015375566         1402 
 4618000   0.51488997   -7.3833578    934.39019  0.016861379  0.015370494         1385 
 4619000    0.5204264   -7.3594191    934.56001  0.016860793  0.015365412         1314 
 4620000   0.50911164   -7.3690884    935.65137  0.016876828  0.015360339         1480 
 4621000   0.49985584   -7.3662992    935.28222  0.016866519  0.015355267         1395 
 4622000   0.50452965   -7.3624654    934.61257  0.016850796  0.015350196         1422 
 4623000   0.49423788   -7.3671193    934.62772  0.016847425  0.015345121         1469 
 4624000   0.51846933   -7.3617439    933.94615  0.016831498  0.015340053         1407 
 4625000    0.5092876   -7.3721998    934.59434  0.016839538  0.015334982         1498 
 4626000   0.50834411   -7.3737274    934.29537  0.016830512   0.01532993         1453 
 4627000   0.51057538   -7.3615307    935.14966   0.01684226  0.015324875         1493 
 4628000   0.51016771   -7.3713998    933.36538  0.016806493  0.015319817         1365 
 4629000   0.49813702   -7.3548458    935.85724  0.016847722  0.015314761         1264 
 4630000   0.51497389   -7.3694264    934.55075  0.016820568  0.015309715         1391 
 4631000   0.50790861   -7.3547949    934.26556  0.016811804  0.015304667         1355 
 4632000   0.51851863   -7.3596837     934.1887  0.016806792  0.015299622         1406 
 4633000   0.50563958   -7.3769682    934.24482  0.016804173  0.015294575         1458 
 4634000   0.51236247   -7.3626218    933.87562  0.016793908  0.015289525         1407 
 4635000   0.51638171   -7.3510496    935.23022  0.016814639  0.015284484         1407 
 4636000   0.50057905   -7.3652045    933.59361  0.016781594  0.015279446         1465 
 4637000   0.50537274   -7.3762193    935.55478  0.016813219  0.015274405         1469 
 4638000   0.50099828   -7.3772024    935.47638  0.016808186  0.015269367         1481 
 4639000   0.50687161   -7.3630162    934.57381  0.016788349  0.015264335         1411 
 4640000   0.50814482   -7.3404689    935.66694  0.016804363  0.015259301         1478 
 4641000   0.49531583   -7.3778767     936.9146  0.016823145  0.015254269         1394 
 4642000   0.52034262   -7.3637982    934.78385   0.01678127  0.015249239         1356 
 4643000   0.51744956   -7.3625835    934.73168  0.016776719  0.015244213         1339 
 4644000    0.5047957   -7.3642294    936.29136  0.016801094  0.015239185         1359 
 4645000   0.50014211   -7.3821222    933.75454  0.016751965  0.015234154         1309 
 4646000   0.52707583   -7.3585427    934.34055  0.016758871  0.015229131         1383 
 4647000   0.50628329   -7.3691047    934.22326  0.016753161  0.015224109         1339 
 4648000   0.50300526   -7.3831399    933.48431  0.016736308  0.015219084         1526 
 4649000   0.50621607   -7.3701358    935.22879  0.016763978  0.015214068         1482 
 4650000   0.50869724   -7.3576184    935.06736   0.01675748  0.015209053         1371 
 4651000   0.50602431   -7.3782053    933.39477  0.016723908  0.015204042         1370 
 4652000    0.5081054   -7.3703889     934.7649  0.016744857  0.015199039         1403 
 4653000    0.5092729   -7.3826346    933.84647   0.01672481  0.015194033         1424 
 4654000   0.50481923   -7.3686869    935.17192  0.016744949  0.015189028         1408 
 4655000   0.51399835     -7.37991    933.71796  0.016715323  0.015184021         1449 
 4656000   0.50207152   -7.3710782    934.16139   0.01671967  0.015179025         1470 
 4657000   0.50992969   -7.3825926    934.56717  0.016723341  0.015174027         1499 
 4658000    0.5144457    -7.384735    933.41472  0.016699133  0.015169028         1439 
 4659000   0.51096471   -7.3578176    936.11398  0.016743829  0.015164031         1362 
 4660000   0.49866852   -7.3794736    933.60361  0.016695344  0.015159036         1478 
 4661000   0.50885934   -7.3988214    933.94643  0.016697891  0.015154039         1424 
 4662000   0.51311418   -7.3750175    933.13036  0.016679722  0.015149036         1456 
 4663000   0.49318937   -7.4122729    936.03181  0.016727997  0.015144037         1523 
 4664000   0.49795895   -7.3756192    934.73648  0.016701267   0.01513905         1477 
 4665000   0.49768978   -7.3946922    933.28625   0.01667178  0.015134059         1567 
 4666000   0.51005297   -7.3988591    933.45958  0.016671303  0.015129074         1519 
 4667000   0.49978658    -7.394734    933.48524  0.016668189  0.015124087         1452 
 4668000    0.4969455   -7.3852625    934.72084  0.016686676  0.015119106         1458 
 4669000   0.50192591   -7.3873611    933.95682  0.016669466  0.015114124         1476 
 4670000   0.49857743   -7.3783561    934.55328   0.01667654  0.015109148         1443 
 4671000   0.51618502   -7.3873692    933.52501  0.016654625  0.015104168         1438 
 4672000   0.51199762   -7.3649113    934.56988  0.016669697  0.015099191         1566 
 4673000   0.48645123   -7.3996392     934.9959  0.016673727  0.015094216         1444 
 4674000   0.50551958   -7.3934466    933.09114  0.016636199  0.015089244         1455 
 4675000    0.5138913   -7.3810901    933.67769  0.016643096  0.015084272         1488 
 4676000   0.49532942   -7.3870674    934.61499  0.016656241  0.015079303         1450 
 4677000   0.49784894   -7.3886091    933.72581  0.016636836  0.015074336         1488 
 4678000    0.5066475   -7.3866271    933.31372  0.016625939  0.015069367         1547 
 4679000   0.49926765   -7.3997537    934.73101  0.016647628  0.015064402         1480 
 4680000   0.50422833   -7.3923877    933.06015  0.016614319  0.015059435         1486 
 4681000   0.50803693   -7.3779848    931.88461  0.016589842  0.015054474         1494 
 4682000   0.49701032   -7.4177473    933.09358  0.016607817  0.015049509         1650 
 4683000   0.50530888   -7.3933016    934.02595  0.016620862   0.01504455         1546 
 4684000   0.49284396   -7.3742669    933.75631  0.016612516  0.015039597         1384 
 4685000   0.49872002   -7.3819899     934.4598  0.016621483  0.015034646         1573 
 4686000   0.51454559   -7.3894238    933.49236  0.016600732  0.015029692         1607 
 4687000    0.5089879   -7.3707955    933.18744  0.016591769  0.015024745         1477 
 4688000   0.50355463   -7.3941737      933.557  0.016594799   0.01501979         1564 
 4689000   0.50564933   -7.3966418     933.4879  0.016590032  0.015014845         1567 
 4690000   0.49854358   -7.3795159    934.43714  0.016603361  0.015009902         1555 
 4691000   0.50796542     -7.39587    933.58911  0.016584756  0.015004959         1554 
 4692000   0.50107253    -7.372269     934.6585  0.016600215  0.015000016         1508 
 4693000    0.4925917   -7.4087133    932.46073  0.016557652  0.014995077         1523 
 4694000   0.50943138   -7.3765415    933.85374  0.016578855   0.01499014         1421 
 4695000   0.50315391   -7.3795224    935.08589  0.016597194  0.014985208         1556 
 4696000   0.50249178     -7.38168    933.35229  0.016562896  0.014980275         1556 
 4697000   0.49611269   -7.4090102    932.48991  0.016544069  0.014975347         1496 
 4698000   0.50222538   -7.3948346    932.92126  0.016548199  0.014970419         1481 
 4699000   0.50151133   -7.3847979    933.57236  0.016556224  0.014965493         1560 
 4700000   0.49270019   -7.3819488    934.41842  0.016567702  0.014960577         1557 
 4701000   0.50437379   -7.3968978    933.48131  0.016547566  0.014955654         1664 
 4702000   0.48989758    -7.376203    934.44836  0.016561186  0.014950735         1617 
 4703000   0.48931465    -7.397517    932.27718  0.016519193  0.014945824         1620 
 4704000   0.49322755   -7.3963917    933.50374   0.01653741  0.014940912         1471 
 4705000   0.50726752   -7.3823471    934.88221   0.01655831  0.014936008         1558 
 4706000   0.50801982   -7.4003414    933.65756  0.016533106  0.014931101         1606 
 4707000   0.50249352   -7.3826546    933.01588  0.016518233  0.014926195         1417 
 4708000   0.49531565   -7.4008598     933.5871  0.016524835   0.01492129         1591 
 4709000   0.48456343    -7.390755    932.52214   0.01650248  0.014916385         1538 
 4710000   0.50470794   -7.4010492    934.35814   0.01653146  0.014911478         1493 
 4711000   0.49122914   -7.3738641    933.95591  0.016520836  0.014906577         1533 
 4712000   0.50898875   -7.3859349    933.90152  0.016516368  0.014901681         1523 
 4713000   0.49748226   -7.3959532    933.13747  0.016499354  0.014896783         1493 
 4714000   0.50209247   -7.3748699     935.1719  0.016531818   0.01489189         1560 
 4715000   0.49267322   -7.3833798    934.34602  0.016513715  0.014886996         1585 
 4716000   0.49009595   -7.3986086    933.87619  0.016501912  0.014882103         1522 
 4717000    0.4957121   -7.3944587    931.71252  0.016460189   0.01487722         1494 
 4718000   0.49830614   -7.3886448    934.51717  0.016506238  0.014872334         1432 
 4719000   0.49633864   -7.3940679    932.26161  0.016462909  0.014867448         1529 
 4720000   0.49743689   -7.4027688    933.55672  0.016482287  0.014862558         1530 
 4721000   0.50252683   -7.3949351    932.80369  0.016465503  0.014857677         1521 
 4722000   0.49354253   -7.3890874    934.97811   0.01650039  0.014852792         1509 
 4723000   0.48789076    -7.404503    934.56526  0.016489612  0.014847907         1503 
 4724000   0.49090755   -7.4111249    932.26901  0.016445615  0.014843021         1608 
 4725000   0.48726131   -7.4011045    932.82813  0.016451995   0.01483814         1550 
 4726000   0.49669273   -7.4058656    931.70442    0.0164287  0.014833263         1559 
 4727000   0.49354743   -7.3874434    933.03505  0.016448682  0.014828386         1539 
 4728000   0.49982254   -7.4060939    933.97646  0.016461796  0.014823511         1549 
 4729000   0.50964179   -7.4013485    932.22438   0.01642744  0.014818639         1557 
 4730000    0.5037494   -7.3991978     932.7289  0.016432856  0.014813767         1627 
 4731000   0.48360969   -7.4064122    932.71467  0.016429132  0.014808894         1527 
 4732000   0.49459328   -7.3834921    934.18098  0.016451482  0.014804022         1614 
 4733000   0.49057262    -7.397263    932.56022   0.01641947  0.014799162         1542 
 4734000   0.49168631   -7.3988925    932.16143  0.016408982  0.014794299         1535 
 4735000   0.49729224   -7.4002815    932.00309  0.016402729  0.014789434         1619 
 4736000    0.4950328   -7.3898468    931.83206  0.016396257  0.014784574         1592 
 4737000   0.49133706   -7.4125158    932.76398   0.01640919  0.014779712         1656 
 4738000   0.50108469   -7.4006518    931.91792  0.016390846  0.014774855         1587 
 4739000   0.48486083   -7.4046989    932.40026  0.016395869  0.014769997         1616 
 4740000   0.49406511   -7.3953176    932.67336  0.016397211  0.014765143         1586 
 4741000   0.50048336   -7.3970082    933.67909   0.01641143  0.014760299         1678 
 4742000   0.48705012   -7.3927588    934.33339  0.016419468  0.014755447         1622 
 4743000    0.4860607   -7.4172909    932.11341  0.016377001  0.014750596         1643 
 4744000   0.48169791   -7.4257188    931.59382  0.016364422  0.014745747         1614 
 4745000   0.48412667   -7.3851378    932.49901  0.016376871    0.0147409         1662 
 4746000   0.49189164   -7.3956806    932.02552  0.016365106  0.014736058         1630 
 4747000   0.49225412   -7.4193108    934.11907  0.016398411  0.014731218         1643 
 4748000   0.48188554   -7.4097454    933.06752  0.016376501  0.014726379         1644 
 4749000    0.4827707   -7.3997061    931.94153  0.016353294  0.014721539         1652 
 4750000   0.49096385   -7.4115082    932.45825  0.016358917  0.014716698         1588 
 4751000   0.48434896   -7.3965296    932.61855  0.016358285  0.014711864         1610 
 4752000   0.49966288   -7.4034399    932.28901  0.016349064  0.014707029         1590 
 4753000   0.48248956   -7.4146872    931.20197  0.016326565  0.014702199         1610 
 4754000   0.48665198   -7.3925047    933.16178  0.016357485  0.014697365         1619 
 4755000   0.49326293   -7.4017295    931.52419  0.016325345  0.014692533         1720 
 4756000   0.48026572   -7.4184915    931.97832   0.01632987  0.014687706         1703 
 4757000    0.4933567   -7.4047163    932.11922  0.016328905  0.014682875         1599 
 4758000   0.48743758   -7.4050361    931.47187  0.016314135  0.014678054         1631 
 4759000   0.48710833   -7.4042246    931.44821  0.016310293  0.014673235         1618 
 4760000   0.48985156   -7.4073994    932.43758  0.016324187  0.014668412         1612 
 4761000   0.48796304   -7.4089942    931.20186  0.016299129  0.014663588         1574 
 4762000    0.4990647   -7.4156214    932.03678  0.016310317  0.014658767         1551 
 4763000   0.48766043   -7.4182873    932.80087  0.016320262  0.014653951         1596 
 4764000   0.48559921   -7.4124106    930.60916  0.016278498  0.014649139         1600 
 4765000   0.48701773   -7.4099782    932.36081  0.016305715  0.014644327         1606 
 4766000    0.4979454    -7.414983    931.71518  0.016291005  0.014639523         1609 
 4767000   0.48527597    -7.414208      933.269  0.016314751  0.014634717         1591 
 4768000   0.48950617   -7.4114303    931.83563  0.016286277  0.014629911         1649 
 4769000   0.49205306    -7.402136    931.97022  0.016285214  0.014625108         1624 
 4770000   0.49246123    -7.409166    932.23289  0.016286389  0.014620313         1619 
 4771000   0.49020059   -7.4203439    930.87126  0.016259192  0.014615514         1705 
 4772000   0.48636391   -7.3949122    932.66857  0.016287171  0.014610721         1607 
 4773000   0.48905093   -7.4176279    931.60797  0.016265242  0.014605924         1666 
 4774000   0.49175663   -7.4191616    931.23289  0.016255287  0.014601133         1664 
 4775000   0.48585689   -7.4219486    931.76188  0.016261115  0.014596338         1579 
 4776000   0.48691226   -7.4170316    931.33347  0.016250235  0.014591551         1664 
 4777000   0.48578904   -7.4085428    931.77384  0.016254515  0.014586762         1629 
 4778000   0.50176533   -7.4118055    932.36636  0.016261448  0.014581977         1591 
 4779000   0.48677274   -7.4199154     933.9738  0.016286075  0.014577192         1558 
 4780000   0.49409928   -7.4140277    932.45189  0.016256135  0.014572407         1569 
 4781000    0.4845919   -7.4195402    932.63278  0.016255888  0.014567628         1546 
 4782000    0.4914395   -7.4221343     931.5079  0.016232885  0.014562849         1588 
 4783000   0.48581256   -7.4169743     932.8428  0.016252749  0.014558076         1641 
 4784000   0.49077739   -7.4230939    933.21898  0.016255905  0.014553307         1620 
 4785000    0.4828699   -7.4317594    931.38256  0.016220525  0.014548533         1610 
 4786000   0.47955472    -7.424003    933.46612  0.016253415  0.014543761         1614 
 4787000   0.48431947   -7.4274632    930.62102  0.016200491   0.01453899         1609 
 4788000   0.48871692    -7.422092    932.28987  0.016226153  0.014534222         1663 
 4789000    0.4856028   -7.4100902    930.72005  0.016195449  0.014529458         1661 
 4790000   0.47903306   -7.4021742    932.07349  0.016215614  0.014524696         1606 
 4791000   0.49316385   -7.4075148    932.36877  0.016217365  0.014519933         1639 
 4792000   0.49023864   -7.4155053    931.73833  0.016203018  0.014515176         1669 
 4793000   0.48232327   -7.4149759    932.75984  0.016217398   0.01451042         1659 
 4794000   0.48549306   -7.4195216    931.74119  0.016196308  0.014505665         1593 
 4795000   0.49527904   -7.4250495    933.28862  0.016219823  0.014500907         1665 
 4796000   0.49157319   -7.4324567    930.77589  0.016172781  0.014496152         1645 
 4797000   0.49428095   -7.4019688    932.66911  0.016202298  0.014491408         1659 
 4798000   0.48665549   -7.4172912    932.90904  0.016203089  0.014486662         1691 
 4799000   0.47463827   -7.4193431    932.67878  0.016195714   0.01448192         1624 
 4800000    0.4882031   -7.4132573    930.45187  0.016153678  0.014477181         1653 
 4801000   0.48853379   -7.4207372    931.24632  0.016164103   0.01447244         1671 
 4802000   0.48993738   -7.4252712    932.21749  0.016177591  0.014467703         1722 
 4803000    0.4773472   -7.4345946    931.34405  0.016159068  0.014462962         1616 
 4804000   0.47989499   -7.4211012    931.39455   0.01615658  0.014458223         1734 
 4805000   0.48221677   -7.4419094    932.36644  0.016170073  0.014453488         1707 
 4806000   0.48291189   -7.4086956    931.07977  0.016144399   0.01444876         1579 
 4807000   0.49014877   -7.4141209    933.41114  0.016181457  0.014444031         1679 
 4808000   0.46990917   -7.4229092     930.6116  0.016129569  0.014439303         1676 
 4809000   0.48352734   -7.4192447    931.47415  0.016141162  0.014434569         1732 
 4810000   0.48992693   -7.4373427    932.21209  0.016150591  0.014429843         1745 
 4811000   0.48516349   -7.4202399    930.95476  0.016125455  0.014425116         1691 
 4812000    0.4789243   -7.4151072    931.24673   0.01612716  0.014420392         1729 
 4813000   0.48653504   -7.4284282    931.76177  0.016132727  0.014415671         1618 
 4814000    0.4799507   -7.4273103    930.48166  0.016107216  0.014410953         1696 
 4815000   0.48168592    -7.403522    932.75817  0.016143271  0.014406237         1775 
 4816000   0.47844049   -7.4116354    932.35757  0.016132987  0.014401526         1629 
 4817000   0.47979358   -7.4332843      931.997    0.0161234  0.014396818         1622 
 4818000   0.48001607   -7.4086196    933.01901   0.01613773  0.014392112         1670 
 4819000    0.4854927   -7.4268728    932.93099  0.016132859  0.014387403         1701 
 4820000   0.47520892   -7.4416932    932.57748    0.0161234  0.014382694         1664 
 4821000   0.47849917   -7.4317585    931.61603  0.016103437  0.014377986         1746 
 4822000   0.46756977   -7.4267935    930.70125  0.016084288  0.014373279         1663 
 4823000   0.47916387    -7.432087    930.27694  0.016073622  0.014368579         1663 
 4824000   0.47951203   -7.4331404    929.22626   0.01605214  0.014363876         1709 
 4825000   0.48023256   -7.4176305    931.15843  0.016082184  0.014359174         1681 
 4826000   0.47930629   -7.4461092    932.23758  0.016097486  0.014354479         1738 
 4827000    0.4823512   -7.4301805    930.49548  0.016064075  0.014349785         1658 
 4828000     0.479457   -7.4370752    931.63285  0.016080379  0.014345095         1663 
 4829000   0.47800974   -7.4098201    932.51344  0.016092245  0.014340405         1626 
 4830000   0.47642245   -7.4411096    931.48936  0.016071245  0.014335722         1756 
 4831000   0.48142483   -7.4313392    930.94904  0.016058598  0.014331034         1651 
 4832000   0.47197057   -7.4285344    931.20154  0.016059629  0.014326351         1750 
 4833000   0.48306492   -7.4350943    930.59479  0.016045844   0.01432167         1777 
 4834000   0.47237634   -7.4296014    930.41608  0.016039444  0.014316988         1726 
 4835000   0.48165468   -7.4557339    930.59327  0.016039181  0.014312303         1699 
 4836000   0.48043801   -7.4219468    931.54092  0.016052194  0.014307617         1674 
 4837000   0.47359708   -7.4324989    931.30886  0.016044877  0.014302937         1733 
 4838000   0.48779028    -7.447835    931.95837  0.016052749  0.014298265         1640 
 4839000    0.4749756   -7.4411818    930.14065  0.016018128  0.014293588         1738 
 4840000   0.48246171   -7.4355477    931.38618  0.016036263  0.014288916         1704 
 4841000   0.47543812   -7.4342716    931.70787  0.016038488  0.014284245         1633 
 4842000   0.48143768    -7.438117     929.5393  0.015997854  0.014279574         1713 
 4843000   0.47568488   -7.4282972    931.65468   0.01603095   0.01427491         1648 
 4844000   0.48476678   -7.4226697    930.94348  0.016015405  0.014270241         1707 
 4845000   0.48728593   -7.4413614    932.12136  0.016032359  0.014265572         1774 
 4846000   0.47534362   -7.4426135    930.26278   0.01599709  0.014260904         1754 
 4847000   0.46846371    -7.438417    931.09752  0.016008141   0.01425624         1855 
 4848000   0.48031466   -7.4277904    931.95719  0.016019616  0.014251584         1666 
 4849000   0.49539561   -7.4275122    929.95464  0.015981897  0.014246931         1706 
 4850000   0.47414324   -7.4316602    931.84043  0.016011004  0.014242276         1750 
 4851000   0.47857376   -7.4444585     932.6499  0.016021609  0.014237616         1774 
 4852000   0.47390087   -7.4322604     930.9944  0.015989874  0.014232958         1718 
 4853000   0.47575552   -7.4338574    931.08482  0.015988131  0.014228305         1717 
 4854000   0.46869711   -7.4418207      931.366  0.015989665  0.014223655         1684 
 4855000   0.47570884   -7.4460758    930.14466  0.015965408  0.014219005         1790 
 4856000   0.48440957   -7.4499418    931.31039  0.015982125  0.014214363         1771 
 4857000   0.48457391   -7.4420754    931.39676  0.015980316  0.014209723         1750 
 4858000    0.4823019   -7.4405223    930.56668  0.015962788  0.014205081         1771 
 4859000   0.46954645   -7.4255492    932.54331  0.015993403  0.014200449         1654 
 4860000   0.48098049   -7.4166183    929.83566  0.015943684  0.014195811         1727 
 4861000   0.46810419   -7.4337395    930.48744  0.015951578  0.014191173         1757 
 4862000   0.47398649   -7.4664854    930.59147   0.01595008  0.014186536         1832 
 4863000   0.48797354   -7.4503754    929.62531  0.015930244  0.014181902         1707 
 4864000   0.48235651   -7.4370017    930.40424  0.015940314   0.01417727         1735 
 4865000   0.48162697   -7.4369584    930.96646  0.015946668  0.014172642         1717 
 4866000   0.47379751   -7.4464878    929.97889  0.015926478  0.014168016         1774 
 4867000   0.47203185    -7.447244    929.93325  0.015922424  0.014163391         1679 
 4868000   0.47035251   -7.4536991    931.90278  0.015952869  0.014158771         1652 
 4869000   0.47136853   -7.4589122    929.88294  0.015915023  0.014154155         1778 
 4870000   0.47638661   -7.4353305    930.18579  0.015916937  0.014149534         1686 
 4871000   0.46837693   -7.4480227    931.70327   0.01593963  0.014144914         1673 
 4872000   0.46480933   -7.4450565    930.07997  0.015908593  0.014140299         1710 
 4873000   0.47171594   -7.4392101    929.64705  0.015897925  0.014135684         1677 
 4874000   0.46641688   -7.4483531    929.99978  0.015900694   0.01413107         1757 
 4875000   0.48147423   -7.4213388    931.18607  0.015917711   0.01412646         1718 
 4876000   0.47085835   -7.4400015    932.51001  0.015937073  0.014121854         1696 
 4877000   0.46961782   -7.4353976     931.2223  0.015911802  0.014117249         1779 
 4878000   0.47991349   -7.4465036    931.40986  0.015911744  0.014112653         1744 
 4879000   0.46847426   -7.4344764    930.42492   0.01589166  0.014108056         1650 
 4880000   0.47290395   -7.4510408     929.5201  0.015872953  0.014103452         1771 
 4881000     0.473311   -7.4575591    930.51363  0.015886663  0.014098853         1774 
 4882000   0.47282436   -7.4409041    929.85748  0.015872209  0.014094253         1731 
 4883000   0.46976793   -7.4319927    928.80413  0.015850982  0.014089654         1702 
 4884000   0.46849125   -7.4448761    932.01343  0.015902495  0.014085061         1716 
 4885000   0.46026111   -7.4410419    930.44074  0.015872411   0.01408047         1679 
 4886000   0.48371011   -7.4351737    930.47126  0.015869683  0.014075879         1728 
 4887000   0.46581752   -7.4530996    929.79845  0.015854963  0.014071289         1734 
 4888000   0.45971327   -7.4358868     930.5647  0.015864783    0.0140667         1659 
 4889000   0.46489901   -7.4274966    929.80979   0.01584867  0.014062113         1691 
 4890000   0.46952412    -7.452339    929.09553  0.015833257  0.014057531         1705 
 4891000   0.46686584   -7.4435965    931.88291  0.015877512   0.01405295         1675 
 4892000   0.46417993   -7.4628023    929.27501  0.015829841  0.014048369         1768 
 4893000   0.47479953   -7.4440528    931.98197  0.015872709   0.01404379         1685 
 4894000   0.46608663   -7.4579044    930.44345  0.015843268  0.014039212         1724 
 4895000   0.47699218   -7.4441239    929.39157  0.015822124  0.014034641         1666 
 4896000   0.46660164   -7.4478438    928.10577  0.015797007  0.014030069         1728 
 4897000   0.46393012   -7.4622188    931.16044  0.015845763  0.014025497         1626 
 4898000   0.46945038   -7.4658505     929.4452  0.015813346  0.014020933         1716 
 4899000   0.46759259   -7.4700609    929.98105  0.015819233  0.014016364         1719 
 4900000   0.46833051   -7.4601164    930.68217  0.015827928    0.0140118         1778 
 4901000   0.47188861   -7.4537997    928.02472  0.015779513  0.014007234         1660 
 4902000   0.45899133   -7.4540015    930.67619  0.015821369  0.014002672         1749 
 4903000   0.47206355    -7.447916    932.57033  0.015850335  0.013998113         1657 
 4904000   0.46263224   -7.4461062    929.30401  0.015791599  0.013993554         1715 
 4905000   0.47011193   -7.4516576    930.76957  0.015813278  0.013988999         1700 
 4906000   0.46727238   -7.4490073    930.56553  0.015806589  0.013984443         1638 
 4907000   0.47325928   -7.4359365    929.05718  0.015777753  0.013979891         1671 
 4908000    0.4623217   -7.4581904    931.20317  0.015810975  0.013975337         1658 
 4909000   0.46283776   -7.4474521    929.81967  0.015784268  0.013970792         1640 
 4910000   0.47045686   -7.4516927    929.91151  0.015782612  0.013966248         1691 
 4911000   0.47517165   -7.4454291    929.77087  0.015777012  0.013961704         1714 
 4912000   0.46056043   -7.4493006    932.09338  0.015813202   0.01395716         1665 
 4913000   0.48142717   -7.4434592    930.72061  0.015786699  0.013952622         1628 
 4914000   0.46815963   -7.4403422    929.35389  0.015760309  0.013948087         1757 
 4915000   0.47191116   -7.4618577    929.36489  0.015757289  0.013943549         1739 
 4916000   0.45383967   -7.4561441    928.22102  0.015734693  0.013939014         1705 
 4917000    0.4679364   -7.4531126    931.90241  0.015793885  0.013934481         1685 
 4918000   0.46558188   -7.4726444    928.82814  0.015738582  0.013929948         1704 
 4919000   0.46502742   -7.4480642    930.37224  0.015761541  0.013925414         1691 
 4920000   0.46711941   -7.4497888    930.30867  0.015757261  0.013920887         1669 
 4921000   0.45265881   -7.4596287    929.34442   0.01573773   0.01391636         1658 
 4922000    0.4643606   -7.4561426    928.70545  0.015723714  0.013911833         1700 
 4923000   0.46864707   -7.4558779    929.78979  0.015738875  0.013907306         1767 
 4924000   0.46678296   -7.4647192    930.07346   0.01574048  0.013902788         1686 
 4925000   0.46318025   -7.4508772    930.36952  0.015742293  0.013898266         1690 
 4926000    0.4699342   -7.4454751    929.11078  0.015717803  0.013893748         1718 
 4927000   0.46480428   -7.4492153    929.84185  0.015726978  0.013889232         1660 
 4928000   0.45362917   -7.4549873    929.62877  0.015720183  0.013884722         1660 
 4929000   0.45744341   -7.4580726    930.52486  0.015732144  0.013880208         1689 
 4930000   0.46831339   -7.4788378    928.44038  0.015693718  0.013875695         1700 
 4931000   0.45943905   -7.4716913    928.75158  0.015695795   0.01387118         1732 
 4932000    0.4549285   -7.4660207      929.936  0.015712625  0.013866671         1688 
 4933000   0.46656303   -7.4663204    928.08435   0.01567816   0.01386216         1719 
 4934000   0.45886342   -7.4591757    929.32356  0.015695912  0.013857651         1679 
 4935000    0.4637371   -7.4569243    929.40436  0.015694096  0.013853143         1676 
 4936000   0.45814235   -7.4497954    930.27935  0.015705689  0.013848641         1668 
 4937000   0.46044645   -7.4571565    931.26666  0.015719173  0.013844139         1729 
 4938000   0.46066747   -7.4660918    928.72477  0.015673092  0.013839643         1788 
 4939000   0.46214229   -7.4500888    929.57828   0.01568432  0.013835148         1745 
 4940000   0.46114555   -7.4733136    930.36814  0.015694469  0.013830656         1724 
 4941000   0.46403306   -7.4505737     929.9406  0.015684082  0.013826164         1687 
 4942000   0.46370544   -7.4721194    929.20525  0.015668509  0.013821667         1711 
 4943000   0.46317841   -7.4614714     928.2965  0.015650019  0.013817172         1754 
 4944000   0.45823025   -7.4687373    928.74162  0.015654356  0.013812685         1716 
 4945000   0.45427112    -7.471247    928.54312  0.015647845  0.013808196         1745 
 4946000   0.46141661   -7.4596525    930.15618  0.015671859  0.013803706         1730 
 4947000    0.4529406   -7.4596432    929.03861  0.015649865  0.013799223         1782 
 4948000    0.4666263   -7.4462849    929.12532  0.015648163  0.013794738         1788 
 4949000   0.45027393   -7.4786152    930.51093  0.015668333  0.013790255         1841 
 4950000   0.46554592   -7.4654663     928.6548  0.015633919  0.013785778         1726 
 4951000    0.4606095    -7.472314    929.02848  0.015637051    0.0137813         1736 
 4952000   0.46023842    -7.468268    929.58069  0.015643186  0.013776826         1694 
 4953000   0.45994065    -7.461923     928.9096  0.015628737   0.01377235         1742 
 4954000   0.46215287   -7.4522908    928.31716  0.015615616  0.013767883         1738 
 4955000   0.46554463   -7.4812798     928.9134  0.015622492  0.013763411         1667 
 4956000   0.47503571   -7.4624881    930.61883  0.015648016  0.013758945         1770 
 4957000   0.45678516   -7.4556283    929.69303  0.015629296  0.013754479         1725 
 4958000   0.46362894   -7.4571704    930.12271  0.015633365  0.013750015         1722 
 4959000   0.45826031   -7.4727751    929.64498  0.015622185  0.013745556         1689 
 4960000   0.44610521   -7.4681557    930.24502  0.015629117  0.013741096         1698 
 4961000   0.46021913   -7.4697533    928.43102  0.015595495  0.013736632         1727 
 4962000   0.46466456   -7.4697148    930.03301  0.015619256  0.013732175         1785 
 4963000    0.4550086   -7.4724749    927.14693  0.015567649  0.013727717         1765 
 4964000   0.45328985   -7.4653835    927.80486  0.015575558  0.013723262         1755 
 4965000   0.45422255   -7.4714203    928.80751   0.01558925  0.013718804         1774 
 4966000   0.45028307   -7.4630586    929.17464  0.015592271  0.013714352         1761 
 4967000    0.4560765    -7.486392    928.71783  0.015581468  0.013709898         1712 
 4968000   0.45563829   -7.4733539    930.51518  0.015608481  0.013705449         1764 
 4969000   0.46423101   -7.4737918    929.66421  0.015591068     0.013701         1771 
 4970000   0.46583135   -7.4710102    928.61359  0.015570315  0.013696561         1785 
 4971000   0.45825698    -7.478185    929.19388  0.015576911  0.013692121         1779 
 4972000   0.45682921   -7.4641144    929.30944  0.015575715  0.013687683         1725 
 4973000   0.45050549   -7.4718744    929.55585  0.015576712  0.013683244         1755 
 4974000   0.45417339   -7.4754826    928.70941  0.015559399  0.013678811         1790 
 4975000   0.46078529    -7.454947    928.87784  0.015559093  0.013674374         1750 
 4976000   0.45273022   -7.4578581    928.79593  0.015554594  0.013669941         1646 
 4977000   0.45392432   -7.4797986    929.09614  0.015556495  0.013665509         1807 
 4978000   0.45488045   -7.4754283    930.02268  0.015568881  0.013661078         1738 
 4979000   0.45420254   -7.4675278     927.6653  0.015526299  0.013656653         1693 
 4980000   0.45769638   -7.4762339    929.16539  0.015548283  0.013652226         1716 
 4981000   0.44600757   -7.4669767    928.86181  0.015540082    0.0136478         1739 
 4982000   0.44808018   -7.4746491    929.95273  0.015555211  0.013643377         1769 
 4983000   0.45289273   -7.4638498    927.04223  0.015503415  0.013638959         1711 
 4984000   0.45576733   -7.4614346    928.28051  0.015521009  0.013634538         1776 
 4985000   0.45589048   -7.4741109    929.13556  0.015532189  0.013630123         1669 
 4986000    0.4539312   -7.4644241    929.31969  0.015532152  0.013625709         1651 
 4987000   0.45301388   -7.4816917    928.57306  0.015516561  0.013621296         1657 
 4988000   0.45089282   -7.4608977    930.41539  0.015544229  0.013616887         1726 
 4989000   0.45437598    -7.475641    929.38491  0.015523901  0.013612482         1727 
 4990000   0.46371082   -7.4885914    929.20008  0.015517703  0.013608075         1690 
 4991000   0.45241624   -7.4765602    929.36784  0.015517395  0.013603671         1614 
 4992000   0.46201407   -7.4896081      929.966  0.015524272  0.013599267         1669 
 4993000   0.45255822   -7.4639233    928.73071  0.015500546  0.013594865         1699 
 4994000   0.45147716   -7.4604227    929.52299  0.015510663  0.013590464         1762 
 4995000   0.46543684   -7.4692867    929.88074  0.015513526  0.013586064         1659 
 4996000   0.45945624   -7.4691062    928.99991  0.015495728  0.013581671         1788 
 4997000   0.45287722   -7.4742528    929.56488  0.015502049  0.013577279         1722 
 4998000   0.45293423   -7.4784301    929.54284   0.01549858  0.013572889         1654 
 4999000   0.44152172   -7.4739696    929.59647  0.015496374  0.013568492         1666 
 5000000   0.45185705   -7.4833873    928.48877  0.015474813  0.013564102         1662 
 5001000   0.45130331   -7.4702764     928.1028  0.015465287  0.013559712         1647 
 5002000   0.45339282   -7.4631927    929.55464  0.015486383  0.013555325         1670 
 5003000   0.44575444   -7.4793102    929.21914  0.015477699  0.013550937         1671 
 5004000   0.45675802    -7.476515     928.4924  0.015462503  0.013546552         1642 
 5005000   0.45018105   -7.4669635    929.46188  0.015475556   0.01354217         1672 
 5006000   0.45555657   -7.4682203    927.96563  0.015447557  0.013537792         1743 
 5007000   0.44810493   -7.4650747    927.61199  0.015438586  0.013533414         1728 
 5008000   0.45419434   -7.4715725    929.00358  0.015458659  0.013529034         1664 
 5009000   0.44590118   -7.4844271    926.87452  0.015420152  0.013524659         1592 
 5010000   0.45175413    -7.490227    927.50448  0.015427553  0.013520286         1794 
 5011000   0.44296524    -7.474977     928.2347  0.015436618  0.013515913         1739 
 5012000   0.45280492   -7.4710605    928.91124  0.015444786  0.013511544         1605 
Loop time of 13161.9 on 48 procs for 5000000 steps with 4000 atoms

Performance: 65643.913 tau/day, 379.884 timesteps/s
99.4% CPU use with 48 MPI tasks x no OpenMP threads

MPI task timing breakdown:
Section |  min time  |  avg time  |  max time  |%varavg| %total
---------------------------------------------------------------
Pair    | 959.13     | 1034.6     | 1101.1     | 116.2 |  7.86
Neigh   | 91.188     | 94.206     | 96.86      |  16.1 |  0.72
Comm    | 863.65     | 915.62     | 987.21     | 117.8 |  6.96
Output  | 35.399     | 35.403     | 35.494     |   0.2 |  0.27
Modify  | 10911      | 10955      | 10989      |  21.6 | 83.23
Other   |            | 127.2      |            |       |  0.97

Nlocal:        83.3333 ave          94 max          76 min
Histogram: 3 3 9 13 2 8 8 0 1 1
Nghost:        2426.60 ave        2444 max        2410 min
Histogram: 4 1 6 7 6 6 7 7 2 2
Neighs:        16780.1 ave       20364 max       14289 min
Histogram: 3 5 10 4 11 8 3 1 2 1
FullNghs:      33560.2 ave       38264 max       30561 min
Histogram: 3 3 12 8 7 9 4 0 1 1

Total # of neighbors = 1610891
Ave neighs/atom = 402.72275
Neighbor list builds = 267438
Dangerous builds = 0

#clear
#
#next RN
#
#jump SELF
Total wall time: 3:39:25
