
units lj                  # Use reduced LJ style units
atom_style atomic         # Uncharged point particles
atom_modify map hash      # Needed for indexing of clusters etc
                          # Used to be able to find where atoms are in relation to each other.

lattice fcc 1.0 spacing 1 1 1
Lattice spacing in x,y,z = 1.5874011 1.5874011 1.5874011
region box block 0 10 0 10 0 10 units lattice
create_box 2 box
Created orthogonal box = (0.0000000 0.0000000 0.0000000) to (15.874011 15.874011 15.874011)
  3 by 4 by 4 MPI processor grid
create_atoms 1 box
Created 4000 atoms
  using lattice units in orthogonal box = (0.0000000 0.0000000 0.0000000) to (15.874011 15.874011 15.874011)
  create_atoms CPU = 0.002 seconds
set type 1 type/fraction 2 0.26 78393
Setting atom values ...
  1066 settings made for type/fraction
mass 1 1.0
mass 2 1.0
pair_style lj/cut  3.5
pair_modify tail  yes
pair_coeff 1  1  1.0  1.0   # Intearaction between 1 and 1 set with epsilon = 1 and sigma = 1
pair_coeff 1  2  1.5  0.8
pair_coeff 2  2  0.5  0.88

write_data data.0
System init for write_data ...
Neighbor list info ...
  update every 1 steps, delay 10 steps, check yes
  max neighbors/atom: 2000, page size: 100000
  master list distance cutoff = 3.8
  ghost atom cutoff = 3.8
  binsize = 1.9, bins = 9 9 9
  1 neighbor lists, perpetual/occasional/extra = 1 0 0
  (1) pair lj/cut, perpetual
      attributes: half, newton on
      pair build: half/bin/atomonly/newton
      stencil: half/bin/3d
      bin: standard
WARNING: Not all mixed pair coeffs generated from mixing. Use write_data with 'pair ij' option to store all pair coeffs. (../write_data.cpp:312)


#############################
#   M E L T   S Y S T E M   #
#############################

velocity all create 2.4 6583654 mom yes dist gaussian # Assign velocities
                                                    # Temperature 2.4, random number seed, zero linear momentum
                                                                                # Gaussian distribution

timestep 0.002   # simulation timestep
thermo 1000       # output thermodynamic data every 1000 steps bf 100

# Define a fix  in this case with index 1 applied to all
# particles in the simulation. This fix is for simulations
# in the anisotropic NPT ensemble. Note that we use the MTK
# correction.
fix 1 all npt temp 2.4 2.4 0.1 iso 5.68 5.68 0.5 mtk yes tchain 5 pchain 5 # Use NPT ensemble
                                                                         # Set temperature and pressure and damping
                                                                         # Numbers of thermostats in chain and in barostat
run 10000          # run for 10000 steps
Per MPI rank memory allocation (min/avg/max) = 3.642 | 3.644 | 3.648 Mbytes
Step Temp E_pair E_mol TotEng Press Volume 
       0          2.4   -6.6801447            0   -3.0810447   -3.8517282         4000 
    1000    2.4149904    -4.884158            0    -1.262578    5.7654787     4289.935 
    2000    2.3320741   -4.9105655            0   -1.4133289    5.5677616    4292.9975 
    3000    2.3787972    -4.882945            0   -1.3156412    5.5715525    4314.1249 
    4000    2.3912745   -4.9285039            0   -1.3424889    5.5452635    4275.2796 
    5000    2.4320484   -4.8456964            0   -1.1985359     5.679112     4336.746 
    6000    2.4213569   -4.9380381            0   -1.3069107    5.5928132    4278.7211 
    7000    2.4004592   -4.9478298            0   -1.3480412    5.7382186     4266.677 
    8000    2.4027645   -4.9899734            0   -1.3867278    5.7125515    4253.8749 
    9000    2.3894902   -4.9469925            0   -1.3636533    5.3908125    4294.7089 
   10000    2.4017483   -4.9548883            0   -1.3531665     5.841329     4255.513 
Loop time of 2.30781 on 48 procs for 10000 steps with 4000 atoms

Performance: 748762.563 tau/day, 4333.117 timesteps/s
99.7% CPU use with 48 MPI tasks x no OpenMP threads

MPI task timing breakdown:
Section |  min time  |  avg time  |  max time  |%varavg| %total
---------------------------------------------------------------
Pair    | 1.0083     | 1.0735     | 1.1238     |   2.8 | 46.52
Neigh   | 0.1989     | 0.20795    | 0.21479    |   0.8 |  9.01
Comm    | 0.71926    | 0.78469    | 0.86305    |   3.6 | 34.00
Output  | 0.00023941 | 0.00024411 | 0.00031416 |   0.0 |  0.01
Modify  | 0.20642    | 0.22693    | 0.24463    |   2.3 |  9.83
Other   |            | 0.01447    |            |       |  0.63

Nlocal:        83.3333 ave          92 max          73 min
Histogram: 2 0 4 6 8 10 7 6 2 3
Nghost:        1577.83 ave        1612 max        1543 min
Histogram: 1 4 2 6 7 14 7 4 2 1
Neighs:        8968.10 ave       10130 max        7666 min
Histogram: 2 2 6 6 5 9 6 5 3 4

Total # of neighbors = 430469
Ave neighs/atom = 107.61725
Neighbor list builds = 912
Dangerous builds = 240

# Equilibrate just above the melting temperature to avoid step fn in T

fix 1 all npt temp 1.25 1.25 0.1 iso 5.68 5.68 0.5 mtk yes tchain 5 pchain 5
run 2000
Per MPI rank memory allocation (min/avg/max) = 3.643 | 3.645 | 3.649 Mbytes
Step Temp E_pair E_mol TotEng Press Volume 
   10000    2.4017483   -4.9548883            0   -1.3531665     5.841329     4255.513 
   11000     1.234485   -6.7042557            0   -4.8529911    5.6174242    3477.6691 
   12000    1.2452948   -6.7422641            0   -4.8747888    5.6039756    3469.8598 
Loop time of 0.580175 on 48 procs for 2000 steps with 4000 atoms

Performance: 595682.649 tau/day, 3447.238 timesteps/s
99.5% CPU use with 48 MPI tasks x no OpenMP threads

MPI task timing breakdown:
Section |  min time  |  avg time  |  max time  |%varavg| %total
---------------------------------------------------------------
Pair    | 0.23444    | 0.2597     | 0.2878     |   2.3 | 44.76
Neigh   | 0.036188   | 0.038209   | 0.041562   |   0.6 |  6.59
Comm    | 0.16305    | 0.19898    | 0.22221    |   3.1 | 34.30
Output  | 5.1502e-05 | 5.4641e-05 | 0.00016046 |   0.0 |  0.01
Modify  | 0.045721   | 0.078584   | 0.083894   |   2.5 | 13.54
Other   |            | 0.004643   |            |       |  0.80

Nlocal:        83.3333 ave          90 max          75 min
Histogram: 3 0 6 4 7 4 8 3 10 3
Nghost:        1806.90 ave        1843 max        1779 min
Histogram: 1 5 7 7 12 9 1 4 1 1
Neighs:        11017.2 ave       12710 max        9125 min
Histogram: 1 2 5 7 5 5 16 2 3 2

Total # of neighbors = 528825
Ave neighs/atom = 132.20625
Neighbor list builds = 143
Dangerous builds = 16

#############################
# L I N E A R  Q U E N C H  #
#############################

# Define solid atoms. This closely follows ten Wolde  Ruiz-Montero and Frenkel  Faraday Discuss  1996  104  93-110
# Compute components of the per-atom q6 vector
compute q6 all orientorder/atom degrees 1 6 components 6 nnn NULL cutoff 1.3 # compute the Q6 parameter.
                                                                             # Use all neighbours within 1.3 unit cell.

# get number of connections
compute coord_number all coord/atom orientorder q6 0.5

# An atom is solid if it has 8 or more connections (of a possible 14)
variable is_solid atom c_coord_number>=8
group solid dynamic all var is_solid    # Must be dynamic to update
dynamic group solid defined

# do clustering
compute cluster solid cluster/atom 1.3 # Create a cluster where all atoms within are solid and max 1.3 units from another member

# define chunks one chunk per cluster
compute clus_chunks solid chunk/atom c_cluster nchunk every compress yes  # Says which atoms are in which chunk

# count the size of each chunk
compute size_chunks solid property/chunk clus_chunks count


# Find the maximum entry in the vector of chunk sizes
variable max_n equal max(c_size_chunks)


# Thermo style which includes this variable
# thermo_style custom step temp pe vol v_max_n

thermo ${N}  # Print the thermo information every 100 steps
thermo 1000  

# Reset the npt fix at a lower temperature (below freezing)
fix 1  all npt temp  ${temp} ${temp}  0.1  iso  5.68  5.68  0.5  mtk yes tchain  5  pchain  5
fix 1  all npt temp  0.45 ${temp}  0.1  iso  5.68  5.68  0.5  mtk yes tchain  5  pchain  5
fix 1  all npt temp  0.45 0.45  0.1  iso  5.68  5.68  0.5  mtk yes tchain  5  pchain  5

dump dmp2 all dcd ${N} traj.dcd
dump dmp2 all dcd 1000 traj.dcd


compute msd all msd com yes
variable twopoint equal c_msd[4]/6/(step*dt+1.0e-6)
fix 9 all vector 10 c_msd[4]
variable fit equal slope(f_9)/6/(10*dt)
thermo_style custom step temp pe c_msd[4] v_twopoint v_fit v_max_n

fix 1 all npt temp 1.25 ${temp} 0.1 iso 5.68 5.68 0.5 mtk yes tchain 5 pchain 5
fix 1 all npt temp 1.25 0.45 0.1 iso 5.68 5.68 0.5 mtk yes tchain 5 pchain 5
run 5000000 # 5000000  # Run for this many steps
Neighbor list info ...
  update every 1 steps, delay 10 steps, check yes
  max neighbors/atom: 2000, page size: 100000
  master list distance cutoff = 3.8
  ghost atom cutoff = 3.8
  binsize = 1.9, bins = 8 8 8
  4 neighbor lists, perpetual/occasional/extra = 1 3 0
  (1) pair lj/cut, perpetual
      attributes: half, newton on
      pair build: half/bin/atomonly/newton
      stencil: half/bin/3d
      bin: standard
  (2) compute orientorder/atom, occasional
      attributes: full, newton on
      pair build: full/bin/atomonly
      stencil: full/bin/3d
      bin: standard
  (3) compute coord/atom, occasional
      attributes: full, newton on
      pair build: full/bin/atomonly
      stencil: full/bin/3d
      bin: standard
  (4) compute cluster/atom, occasional
      attributes: full, newton on
      pair build: full/bin/atomonly
      stencil: full/bin/3d
      bin: standard
Per MPI rank memory allocation (min/avg/max) = 9.801 | 9.809 | 9.816 Mbytes
Step Temp PotEng c_msd[4] v_twopoint v_fit v_max_n 
   12000    1.2452948   -6.7422641            0            0 8.3333333e+20            1 
   13000    1.2347133   -6.7677156   0.51216746 0.0032831246  0.041924889            2 
   14000    1.2761626   -6.6931415     1.016821 0.0060525058  0.041124782            2 
   15000    1.2451309   -6.7669903    1.5332693 0.0085181626  0.041799304            2 
   16000    1.2464585   -6.7401553    2.0534259  0.010694926  0.042326597            2 
   17000    1.2374213   -6.7177468    2.5635003  0.012566178  0.042686587            2 
   18000    1.2354008   -6.7660623    3.0642485  0.014186335  0.042815155            2 
   19000     1.233271   -6.7644595    3.5394366  0.015523844  0.042482762            1 
   20000    1.2249083   -6.7362052    3.9864338  0.016610141  0.041996599            1 
   21000     1.249736    -6.784939    4.5515278  0.018061618  0.041806162            1 
   22000    1.2410197   -6.7390688    5.0532703  0.019141175  0.041785713            1 
   23000     1.230255   -6.7092039    5.4946532  0.019908163  0.041696524            1 
   24000    1.2622049   -6.7531643    5.9438858  0.020638492  0.041417657            2 
   25000    1.2385255   -6.7601971    6.4095534  0.021365177     0.041217            3 
   26000    1.2518623   -6.7636346    6.8177201  0.021851666  0.040916736            1 
   27000    1.2477166    -6.756478    7.2039039  0.022234271  0.040523283            2 
   28000      1.25673   -6.7186372    7.6732269  0.022836984  0.040123233            2 
   29000    1.2319698   -6.7274589    8.1873076  0.023526746  0.039890274            1 
   30000     1.205752   -6.7809969    8.6567166  0.024046435  0.039767865            3 
   31000    1.2596778   -6.7782619    9.1323475  0.024549321   0.03968838            2 
   32000     1.229192   -6.7533271    9.5658203   0.02491099  0.039591906            2 
   33000    1.2530623   -6.7895342    10.022949  0.025310477  0.039487235            4 
   34000    1.2587708   -6.7550636    10.522862  0.025791329  0.039408096            1 
   35000    1.2357073   -6.7259354    10.980313  0.026143603  0.039343835            1 
   36000     1.248855   -6.7833336    11.331869  0.026231177  0.039254258            2 
   37000     1.230341   -6.7809371    11.857822  0.026706805  0.039168794            3 
   38000    1.2494469   -6.7407415    12.372307  0.027132251  0.039112939            1 
   39000    1.2483608   -6.7431497    12.832005  0.027418814  0.039072957            1 
   40000    1.2701517   -6.7709687    13.186079  0.027470998  0.039025714            2 
   41000    1.2395324   -6.7798397    13.809822  0.028068744  0.038999146            2 
   42000     1.263888   -6.7740778    14.231044  0.028236199  0.038996206            1 
   43000    1.2319892   -6.7661481    14.738406  0.028562802   0.03900413            1 
   44000    1.2357238   -6.8098901    15.107834  0.028613321  0.038995006            1 
   45000    1.2372989   -6.7523896    15.538884   0.02877571  0.038959192            2 
   46000    1.2625047   -6.7658007    15.853627  0.028720339   0.03889292            1 
   47000    1.2430952   -6.7735647    16.514796  0.029281553  0.038842044            2 
   48000    1.2651449   -6.7382537    17.088914  0.029668254  0.038859638            2 
   49000    1.2367424   -6.8004354    17.540257  0.029830369  0.038890507            2 
   50000     1.258413   -6.7996743    18.035827  0.030059712  0.038916252            2 
   51000    1.2430467   -6.7765114    18.374912  0.030024366  0.038920945            1 
   52000    1.2457115   -6.8033844    19.043456  0.030518358  0.038929994            4 
   53000    1.2705299   -6.7506052     19.52411  0.030698286  0.038985618            2 
   54000    1.2628189    -6.767462    20.228199  0.031216356  0.039065853            1 
   55000    1.2414278   -6.7308436    20.684135  0.031339598   0.03917016            1 
   56000    1.2382622   -6.7464443    21.013312   0.03126981  0.039226265            1 
   57000    1.2485919   -6.8002403    21.385199  0.031264911   0.03925333            2 
   58000    1.2737237   -6.7868622    21.775043  0.031285982  0.039257121            1 
   59000    1.2618634   -6.7470588    22.232281  0.031401527  0.039242788            1 
   60000    1.2369167   -6.7831674    22.873067  0.031768148  0.039254705            1 
   61000    1.2138122   -6.7853724    23.225623  0.031728993  0.039262492            1 
   62000    1.2588797   -6.7964801    23.851602  0.032058605  0.039269916            4 
   63000    1.2486876   -6.7838542    24.123309  0.031909138  0.039285431            1 
   64000    1.2480738     -6.75971    24.765927    0.0322473  0.039299221            1 
   65000    1.2266862   -6.7590916    25.267229  0.032393883  0.039322729            5 
   66000    1.2438673   -6.7364294    25.699489   0.03244885  0.039336201            1 
   67000    1.2341185   -6.7626518    26.064638  0.032418704   0.03934959            2 
   68000    1.2293868   -6.8135914    26.651323  0.032660935  0.039367925            2 
   69000    1.2501619   -6.7689105    27.190139  0.032838332  0.039380969            1 
   70000    1.2333109   -6.8170675    27.526412  0.032769538  0.039399677            2 
   71000    1.2221817    -6.766578    28.051723  0.032924558   0.03940316            2 
   72000    1.2398068   -6.7982203    28.211326  0.032651998  0.039385208            3 
   73000    1.2085703   -6.7773678    28.834505  0.032916101  0.039368743            3 
   74000    1.2428462   -6.7328792    29.354089  0.033056406  0.039357033            1 
   75000    1.2692356   -6.7675825    29.803014   0.03311446  0.039342954            2 
   76000     1.221757   -6.7686715    30.316574  0.033241857  0.039328014            4 
   77000    1.2327326   -6.7929178    30.797897  0.033331057  0.039326346            3 
   78000    1.2704095   -6.8009991     31.22196  0.033356795  0.039323132            1 
   79000    1.2209562   -6.8204762    31.621819  0.033356348  0.039315463            2 
   80000    1.2468057   -6.7814496    32.067445  0.033403588   0.03930448            2 
   81000    1.2688629   -6.7685935    32.752547  0.033696035  0.039310257            2 
   82000     1.232016   -6.8108283    33.396707  0.033939742  0.039322941            2 
   83000    1.2265242   -6.7557094    34.120843  0.034257874  0.039354091            1 
   84000    1.2300091   -6.7785928    34.640469  0.034365545  0.039407521            1 
   85000    1.2664801   -6.7909774    34.904044  0.034219651   0.03944532            1 
   86000    1.2241631   -6.7754809    35.483006  0.034382757  0.039471283            2 
   87000    1.2477714   -6.7833103    36.031196   0.03451264  0.039499304            2 
   88000    1.2362391   -6.8192339    36.215556  0.034295034  0.039523478            1 
   89000     1.224628   -6.8066662    36.673362  0.034338354  0.039531665            1 
   90000     1.232564   -6.7697643    36.931212  0.034195567  0.039532269            2 
   91000     1.208209   -6.7781004    37.493483  0.034334691  0.039518591            1 
   92000    1.2399608   -6.7724233    38.024366   0.03444236  0.039503695            1 
   93000    1.2411104   -6.7684218    38.135064  0.034171204  0.039484917            1 
   94000    1.2238677   -6.7526268    38.641736  0.034256858  0.039460912            1 
   95000    1.2360354   -6.7691072    39.042207  0.034247549   0.03943724            2 
   96000    1.2075266   -6.7307971    39.523637  0.034308712  0.039411576            1 
   97000    1.2528638   -6.7629863    39.920789   0.03429621   0.03938301            2 
   98000    1.2391234   -6.8076475    40.339887  0.034302624  0.039352054            2 
   99000    1.2200785   -6.7621175    40.939667  0.034460999  0.039324488            2 
  100000    1.2574477   -6.7578296    41.287375  0.034406146  0.039302766            1 
  101000    1.2220903   -6.7754537    41.884955  0.034558544   0.03928105            1 
  102000    1.2434023   -6.7554746    42.511612  0.034731709  0.039264573            2 
  103000    1.2470162   -6.8069536    43.032356  0.034815822  0.039261502            4 
  104000    1.2119939   -6.7609593    43.465147  0.034827842  0.039255136            1 
  105000    1.2510043   -6.8418045    43.815592  0.034774279  0.039247064            1 
  106000    1.2646538   -6.7981784    44.416299  0.034918474  0.039244569            1 
  107000    1.2322783    -6.842347    45.276909   0.03526239  0.039256073            2 
  108000    1.2610483   -6.7929799    46.101987   0.03557252  0.039279642            4 
  109000    1.2294638   -6.8012772    46.525282  0.035569787  0.039314073            2 
  110000    1.2445789    -6.782384    47.091917  0.035675695  0.039344651            1 
  111000    1.2256196   -6.7967669    47.376606  0.035568022  0.039368053            1 
  112000    1.2091555   -6.8140934    47.964519  0.035687886  0.039396612            1 
  113000    1.2334057    -6.779222    48.410615  0.035701043  0.039419365            1 
  114000    1.2393275   -6.7961111    48.667256   0.03557548  0.039433032            1 
  115000    1.2260767   -6.8223993    49.012456  0.035516272  0.039444965            2 
  116000    1.2257826   -6.7875061    49.615744  0.035643494  0.039459616            1 
  117000    1.2504663   -6.7975859    49.930227  0.035562839  0.039466652            2 
  118000    1.2310758   -6.7583714    50.590796  0.035727963  0.039480744            1 
  119000    1.2269104   -6.7696287    51.222668  0.035870215  0.039491228            1 
  120000    1.2368384   -6.7536011    51.684104  0.035891739  0.039506149            1 
  121000    1.2297289   -6.8457841    51.897433  0.035742034  0.039515243            2 
  122000    1.2391771   -6.7846399    52.496001  0.035857924  0.039521866            1 
  123000    1.2228576   -6.7715164    52.829027  0.035792024  0.039526896            2 
  124000    1.2303854    -6.794515    53.289646  0.035812934   0.03953049            1 
  125000    1.2154792   -6.7959875    53.775519  0.035850346  0.039538302            4 
  126000    1.2546084    -6.790772    54.493896  0.036040936  0.039548993            1 
  127000    1.2153021   -6.8068611    55.099816  0.036154735  0.039560984            1 
  128000     1.225238   -6.7643389    55.797848  0.036326724  0.039582468            3 
  129000    1.2445576   -6.7710388    56.192917  0.036300334  0.039601761            1 
  130000    1.2251014   -6.7935629    56.405252  0.036157213  0.039620105            2 
  131000    1.2391311   -6.8040638    57.203135  0.036388763   0.03963492            2 
  132000    1.2305873   -6.8202108    57.510172  0.036306927  0.039655105            2 
  133000     1.227557   -6.7952189    58.367331  0.036571009  0.039677517            4 
  134000    1.2105823   -6.7803438    58.876505  0.036614741  0.039699779            1 
  135000    1.2546342   -6.7774206    59.387316  0.036658837  0.039721748            2 
  136000    1.2250348   -6.8055785    59.795598  0.036639459  0.039745603            5 
  137000    1.2248525   -6.7821279    60.544557  0.036827589  0.039771504            3 
  138000    1.2473595   -6.8138129    60.850519  0.036745482    0.0397966            2 
  139000    1.2031821   -6.7853682    61.331349  0.036769394   0.03981816            1 
  140000    1.2377266   -6.7669801    61.861148  0.036822112  0.039838854            2 
  141000     1.246281   -6.8128567    62.153511  0.036733754  0.039857821            3 
  142000    1.2255767   -6.8164075    62.606854  0.036741111  0.039874915            1 
  143000    1.2388832   -6.7870006    63.057547  0.036746822  0.039890002            1 
  144000    1.2101153    -6.804844    63.543702  0.036772975  0.039904586            2 
  145000    1.2445579   -6.7798996    64.217406  0.036906555  0.039921097            5 
  146000    1.2340581   -6.7875338     64.79577  0.036983887  0.039936647            2 
  147000    1.2379927   -6.8020236    65.352637   0.03704798  0.039957929            1 
  148000    1.2110628   -6.7772131    65.976723  0.037149056  0.039978908            1 
  149000    1.2166947    -6.802031    66.367538   0.03711831  0.040001352            2 
  150000    1.2083737   -6.7717841    66.979796  0.037210998  0.040020439            2 
  151000    1.2272652   -6.8254174     67.51896  0.037262119  0.040039955            2 
  152000    1.2337151   -6.8354079     67.67889  0.037104655  0.040058394            1 
  153000    1.2140473   -6.8024798    68.312885  0.037207453  0.040073263            1 
  154000    1.2220918   -6.7812566     68.73436  0.037193917  0.040087618            4 
  155000    1.2295703   -6.7991718    69.188167  0.037197939  0.040098717            7 
  156000    1.2321807   -6.7876305    69.577517  0.037167477  0.040109986            2 
  157000    1.2206044   -6.8076836    69.767565  0.037031616  0.040119463            2 
  158000    1.2145302   -6.7909112    70.445092  0.037154584  0.040128413            1 
  159000    1.2163063   -6.8425351    71.020954  0.037222722  0.040140632            7 
  160000    1.2186107   -6.8243631    71.544657  0.037262842  0.040150659            3 
  161000    1.2117318   -6.8177103     72.11771  0.037328007  0.040163951            1 
  162000    1.2114349   -6.8397582     72.54708  0.037318457    0.0401766            5 
  163000    1.2484945   -6.7917177    73.033054  0.037337962  0.040187688            1 
  164000    1.2281736   -6.8335465    73.807239  0.037503678  0.040203141            4 
  165000    1.2113001   -6.7672364    74.415201  0.037583435  0.040217896            2 
  166000    1.1821723   -6.8282365    74.324892  0.037311693  0.040227988            1 
  167000    1.2202408   -6.7531494    74.706693  0.037278789  0.040231614            3 
  168000    1.2360366   -6.7974011    75.262132  0.037332406  0.040232972            1 
  169000    1.2075171   -6.8202835    75.507394  0.037232443  0.040234554            2 
  170000    1.2171789   -6.7851719    75.975082  0.037242687  0.040235771            1 
  171000    1.2201028     -6.78698    76.669639  0.037363372  0.040237833       -1e+20 
  172000    1.1988765   -6.8004503    76.649291  0.037136284  0.040235533            1 
  173000    1.2180876   -6.8361997    76.982507  0.037082132  0.040229764            2 
  174000    1.2059504   -6.8024563    77.625682  0.037177051  0.040222036            2 
  175000    1.2354669   -6.8341252     77.86357   0.03707789  0.040213058            1 
  176000    1.2621871   -6.7951673    78.058802   0.03695966  0.040204111            1 
  177000    1.2382659   -6.7761987    78.840641  0.037118946  0.040193388            1 
  178000    1.2290067   -6.8015861    79.097959   0.03703088  0.040183629            1 
  179000     1.200863   -6.8004421    79.719881  0.037113538  0.040174118            2 
  180000    1.2275783   -6.7931989    80.136568  0.037100263  0.040164472            3 
  181000    1.2204024   -6.8005356    80.541084  0.037081531  0.040151005            2 
  182000    1.2365593   -6.8198667    80.990773  0.037083687  0.040140112            4 
  183000    1.2154564    -6.772659    81.382901  0.037059609   0.04012906            2 
  184000    1.2087329   -6.7765595    81.836184  0.037063489  0.040117187            1 
  185000    1.2280234   -6.7653645    82.083633  0.036974609  0.040101702            2 
  186000     1.240709   -6.7907323    82.398428  0.036916858  0.040083614            1 
  187000    1.2325518   -6.8382214    82.751259  0.036876675  0.040066664            1 
  188000    1.1976495   -6.7957623    83.122894  0.036845254  0.040047616            1 
  189000    1.2371079   -6.8424803    83.770627  0.036935903   0.04002862            3 
  190000    1.2118225   -6.7858541    84.486558  0.037055508  0.040012748            2 
  191000    1.2150692   -6.8039415    84.625686  0.036922202  0.039997824            2 
  192000    1.2167186    -6.818284    85.388748  0.037061089  0.039982671            2 
  193000    1.2399663   -6.7941049    85.675856  0.036993029  0.039968717            1 
  194000    1.2148892   -6.8004837    85.850956  0.036877558  0.039951018            2 
  195000     1.206366    -6.820264    86.586536  0.037002793  0.039933896            2 
  196000    1.2141026   -6.8575071    86.810062   0.03690904  0.039920338            2 
  197000    1.2174086   -6.7974252    87.570746  0.037043463   0.03990635            1 
  198000    1.2133519   -6.8523615    88.544463  0.037266188  0.039895116            2 
  199000    1.2154744   -6.8167263    88.681021  0.037136106  0.039885671            1 
  200000    1.2120195   -6.8092184    89.078316  0.037115965  0.039872329            1 
  201000     1.228462   -6.8306419    89.282539  0.037015978    0.0398593            2 
  202000    1.2295582   -6.8037361    90.067982  0.037156758  0.039845895            1 
  203000    1.2317479   -6.8000437    90.469483   0.03713854  0.039833554            1 
  204000    1.2317658   -6.8274657    90.834492  0.037105593  0.039822579            1 
  205000    1.2122103   -6.8233412    91.060503  0.037016465  0.039810542            2 
  206000    1.2492914   -6.7988785    92.303297  0.037339521  0.039802908            3 
  207000    1.2078705   -6.8237892    92.349145  0.037177595  0.039796674            1 
  208000    1.1918269   -6.8035841    92.879479   0.03721133  0.039787434            2 
  209000    1.2112992   -6.8400101    93.246192  0.037179502  0.039777048            2 
  210000    1.2076964   -6.7640754     94.03119  0.037313964  0.039767749            1 
  211000    1.2525379   -6.8234832    94.362761  0.037268073  0.039760385            1 
  212000     1.223689   -6.8050552     94.72173  0.037233384  0.039752779            2 
  213000    1.2169141   -6.8585141    95.511726  0.037367655  0.039746093            2 
  214000    1.2193441   -6.8312743    95.763108   0.03729093  0.039740901            4 
  215000    1.2598369   -6.8369314    96.061811   0.03723326   0.03973334            2 
  216000    1.2204642   -6.8328102    96.588065  0.037263914  0.039725262            4 
  217000    1.2155234   -6.7744961    97.460313  0.037427155  0.039717876            1 
  218000     1.222997   -6.7959511    97.992723  0.037458992  0.039711747            2 
  219000    1.2154175   -6.8240919    98.053057  0.037310904   0.03970596            2 
  220000    1.2007828   -6.8235781    98.541447  0.037326306  0.039701514            2 
  221000    1.2220684   -6.8019239    99.350337  0.037462419  0.039698412            2 
  222000    1.2138735   -6.7655705    99.895479  0.037498303  0.039693689            1 
  223000      1.22974   -6.8231144    100.34269   0.03749727  0.039690325            2 
  224000    1.2249759   -6.7855967    101.05498  0.037594858  0.039686935            3 
  225000     1.215545   -6.8174709    101.31983  0.037525864  0.039684461            2 
  226000    1.2028744   -6.8104259     102.3213  0.037729092  0.039683293            1 
  227000    1.2279059    -6.813333      102.658  0.037686489  0.039685925            1 
  228000    1.2203718   -6.8374909    102.57585  0.037491172  0.039686148            2 
  229000    1.2189524   -6.7993542    103.62142  0.037707941  0.039684479       -1e+20 
  230000    1.2299533   -6.8370073    103.75636  0.037592885  0.039682386            2 
  231000    1.2168541   -6.8471198    103.71722  0.037416025  0.039676958            4 
  232000    1.1966369   -6.8930781    104.44116  0.037514783  0.039672493            2 
  233000    1.2043331   -6.8257434     104.8248  0.037490986  0.039670623            1 
  234000    1.1959547   -6.8231675    105.76103  0.037664185  0.039667458            2 
  235000    1.2220803   -6.8328862    106.04938  0.037606162  0.039665885            2 
  236000    1.2326327   -6.7942058    106.72469  0.037685271  0.039663336            1 
  237000    1.2035018   -6.8404704     106.7347  0.037529783  0.039660069            1 
  238000    1.2078811    -6.809784    107.03635  0.037477713   0.03965557            2 
  239000    1.2257993   -6.8585626    107.18506  0.037372755  0.039648767            2 
  240000    1.2035099   -6.7876274    108.03651  0.037512678  0.039642481            1 
  241000    1.2011292   -6.8113335    108.33181  0.037459133  0.039636945            1 
  242000    1.2001539   -6.8143199    108.79865  0.037465098  0.039632033            2 
  243000    1.1809273    -6.841381    109.23189  0.037459495  0.039625985            3 
  244000    1.2343737   -6.8464242    109.78958  0.037496441  0.039619282            3 
  245000    1.2271162   -6.8165065    110.26507  0.037505125  0.039614021            1 
  246000    1.1984188   -6.8292959    111.13027  0.037645754  0.039608975            1 
  247000    1.2425697   -6.8854494    110.44879  0.037263424  0.039603182            1 
  248000    1.2249385   -6.8312771    111.69036  0.037530364  0.039595115            3 
  249000    1.2063145   -6.8356956    112.60246  0.037684894  0.039591756            2 
  250000    1.2092291   -6.8193357    113.34302  0.037781005  0.039590067            1 
  251000    1.2196549   -6.8093933    113.74473  0.037763856    0.0395883            2 
  252000    1.2255268   -6.8175426    114.11495  0.037736425  0.039587744            1 
  253000    1.2073633   -6.8011365    114.44668  0.037696535  0.039585462            2 
  254000    1.2080657    -6.822538    114.81694    0.0376696   0.03958144            1 
  255000    1.2178056   -6.8675515    114.73627  0.037495512  0.039576814            2 
  256000    1.2315473   -6.8114527    115.66046   0.03764989  0.039571427            2 
  257000    1.1958018   -6.8343795    115.56581    0.0374727   0.03956456            2 
  258000    1.2091247   -6.8333003    116.59259  0.037659107  0.039557692            2 
  259000    1.2123462   -6.8416692    117.02538  0.037652954  0.039551696            2 
  260000    1.2134734   -6.7940551     118.0445  0.037834777  0.039547787            1 
  261000    1.2027661   -6.8412388     117.6526  0.037564688  0.039544042            1 
  262000    1.1965002   -6.8430226    118.35628  0.037645127  0.039539504            2 
  263000    1.1968537   -6.8007783    118.71384  0.037615285  0.039534469            3 
  264000    1.2128923   -6.8173721    118.74314   0.03748205  0.039528654            1 
  265000    1.2085626   -6.8312174    119.17051  0.037475002  0.039519402            2 
  266000    1.1904085   -6.8656826    119.52961   0.03744662  0.039510618            2 
  267000    1.2318625   -6.8397029    120.02308  0.037460387  0.039500432            3 
  268000       1.1738   -6.8031989    120.48956   0.03746566  0.039491945            4 
  269000    1.2277674   -6.8204557    121.14674  0.037529969  0.039483118            3 
  270000    1.1793785   -6.8180469    120.97411  0.037337689  0.039473819            1 
  271000    1.1938135   -6.8380004     121.8694  0.037475215  0.039465607            2 
  272000    1.2092106   -6.8056706    122.38912  0.037496667  0.039456102            2 
  273000    1.2001777   -6.8170011     122.4142  0.037366972  0.039444666            1 
  274000    1.2205801   -6.8410144    123.15609  0.037456231  0.039433983            1 
  275000    1.2031669   -6.8293126    123.21407  0.037337597  0.039423025            1 
  276000    1.1964176   -6.8979344    123.27519   0.03722077  0.039411312            2 
  277000    1.2324922     -6.84066    124.02848  0.037313022   0.03939932            2 
  278000    1.2285093   -6.8743588    124.12205  0.037206849  0.039387711            2 
  279000    1.2120166   -6.8474685    125.11376  0.037369702   0.03937612            1 
  280000    1.2096493   -6.8524775     125.2019   0.03726247  0.039364351            2 
  281000    1.1937766   -6.8268957    125.96829  0.037357143  0.039354232            2 
  282000    1.1879263   -6.9286237    125.65702  0.037132689  0.039342361            1 
  283000    1.1866236   -6.8418438    126.57753  0.037272536  0.039329494            1 
  284000    1.2091171   -6.8336146    126.92948  0.037244567  0.039315966            2 
  285000    1.2293672   -6.8173135    126.82657  0.037083792  0.039302951            4 
  286000    1.1952103   -6.8439597    127.99747  0.037295301  0.039290206            2 
  287000    1.2306019   -6.8208713    128.25278  0.037239484  0.039277989            2 
  288000    1.1555585   -6.8230914    128.69135   0.03723708  0.039265709            1 
  289000    1.2377389   -6.8518346    129.23661  0.037265458  0.039252762            1 
  290000    1.2144169   -6.8262699    129.35669  0.037171464   0.03924053            1 
  291000    1.1884615   -6.8751126    129.87368  0.037191776  0.039229063            3 
  292000    1.1822239    -6.848227    130.38187  0.037209438  0.039217235            1 
  293000    1.1997535   -6.8247421    131.08292  0.037281831  0.039205854            2 
  294000    1.1815067   -6.8008955    132.02896  0.037423175  0.039194932            2 
  295000     1.204088   -6.8577158     131.7171  0.037208221  0.039184114            1 
  296000    1.1869917   -6.8568415    132.31805  0.037251702  0.039172453            1 
  297000    1.2005419   -6.8190697    132.51319  0.037181029  0.039161147            2 
  298000    1.1816012   -6.8365299    132.67917  0.037102677  0.039149088            1 
  299000     1.231332   -6.8164572    133.59303  0.037233286  0.039136724            1 
  300000     1.184942   -6.8354385    134.11405  0.037253902  0.039124419            1 
  301000    1.2071118   -6.8375492    134.36926   0.03720079  0.039113453            2 
  302000    1.2260549   -6.8453585    135.00342  0.037252598  0.039101124            1 
  303000    1.2274363   -6.8108952    135.48531  0.037262185  0.039090179            1 
  304000    1.2159634   -6.8751937    135.65065  0.037184937   0.03907958            2 
  305000     1.193146   -6.8043285    136.60945  0.037324986  0.039069479            2 
  306000    1.2205722   -6.8655969     136.3315  0.037127315  0.039058708            4 
  307000    1.2088256   -6.8203496    137.66109  0.037367288  0.039048515            2 
  308000    1.1737874   -6.8701231    137.20091  0.037121458  0.039037453            2 
  309000    1.2186497   -6.8606909    137.76236  0.037152741  0.039025616            2 
  310000    1.2030687   -6.8532037    138.43943  0.037214899  0.039013444            1 
  311000     1.208341   -6.8332769    138.94528  0.037230782    0.0390022            3 
  312000    1.1754499   -6.8592059    138.71941  0.037051125   0.03898857            2 
  313000    1.1949307   -6.8423141    139.54284  0.037151979  0.038974819            3 
  314000     1.202882   -6.8366526     139.7952  0.037100636  0.038961289            2 
  315000    1.2182904    -6.868602    139.23852  0.036835587  0.038947116            2 
  316000    1.1892836   -6.8577165    139.96433  0.036910424  0.038931874            2 
  317000    1.1863515   -6.8392789    140.45717  0.036923545  0.038916668            1 
  318000    1.1895355   -6.8517776    141.14729  0.036988283  0.038901756            2 
  319000    1.2326127   -6.8438788    141.46619  0.036955641  0.038886655            2 
  320000    1.1933718   -6.8539513    141.65767  0.036890018  0.038871162            1 
  321000     1.183994   -6.8778315    142.05519  0.036878294  0.038854026            1 
  322000    1.2357734   -6.8186421    142.68113  0.036925758  0.038838099            2 
  323000    1.1834028   -6.8448248    143.36172  0.036987028  0.038822439            2 
  324000    1.1874361    -6.863808    143.34238  0.036867895  0.038805022            2 
  325000    1.1966765   -6.8184149    143.95143  0.036910624  0.038789863            1 
  326000     1.194686   -6.8343594    144.03908  0.036819806  0.038775266            1 
  327000    1.1701743   -6.8274947    144.87369  0.036919902  0.038761519            2 
  328000    1.1643709   -6.8143402    144.97342  0.036832677  0.038746215            2 
  329000    1.2278192   -6.8701698    145.29113  0.036801199  0.038729984            1 
  330000    1.1774026    -6.863344    145.76014  0.036808116  0.038714159            2 
  331000    1.2355988   -6.8122071    146.48496  0.036879396  0.038699508            1 
  332000    1.1840981   -6.8766009    146.59399  0.036795679  0.038684773            3 
  333000     1.210659   -6.8694668    146.98235  0.036782371  0.038670198            2 
  334000    1.2017348   -6.8691251    147.52029  0.036806461  0.038654845            1 
  335000    1.1842285   -6.8912247    147.57111  0.036709233  0.038639175            1 
  336000    1.2155193   -6.8572968    148.65891  0.036869768   0.03862378            1 
  337000     1.205974    -6.866437    148.67914  0.036765365  0.038609201            1 
  338000    1.2094628   -6.8528182    149.54656  0.036870454  0.038594687            2 
  339000    1.1832844   -6.8387324    149.98317  0.036869018  0.038579903            1 
  340000    1.2017445   -6.8617577    150.22689  0.036820315  0.038566245            1 
  341000    1.1894936   -6.8635203    150.40354  0.036755509  0.038551363            2 
  342000    1.1825418   -6.8702882    151.23465  0.036850548  0.038537044            1 
  343000     1.195465   -6.9084184    151.31826  0.036763426  0.038523162            2 
  344000    1.2003335   -6.8577722    151.86374  0.036788698   0.03850844            2 
  345000    1.2244957   -6.8351489    152.27585  0.036781605  0.038494698            1 
  346000    1.1886576   -6.8006305    153.28129  0.036917458  0.038482796            1 
  347000    1.1666583   -6.8863155    153.48297  0.036859503  0.038472157            3 
  348000    1.1939124   -6.8688378    154.01468   0.03688091  0.038460167            2 
  349000    1.2123306   -6.8078015    154.89056  0.036984373  0.038449079       -1e+20 
  350000    1.1894043   -6.8652283    154.61442  0.036812957  0.038437912            2 
  351000    1.2001995    -6.887724    155.30695  0.036872495  0.038426776            1 
  352000    1.1807085   -6.8405858    156.44374  0.037036871  0.038417181            1 
  353000    1.1963408   -6.8744181    155.92489  0.036809464  0.038406679            2 
  354000    1.1860514   -6.8849312    156.12817  0.036753335  0.038395763            1 
  355000    1.2083009   -6.8695239    156.79841  0.036807139  0.038384954            1 
  356000    1.1985117   -6.8063133    157.87475  0.036955701  0.038374472            4 
  357000    1.1912989   -6.8839808    157.41201  0.036744166  0.038363563            2 
  358000    1.1720303   -6.8721433    158.66172  0.036932429  0.038352233            1 
  359000    1.2254022   -6.7958792    158.51631  0.036795801  0.038341227            1 
  360000    1.1920755   -6.8917288    159.18045  0.036847327  0.038330686            2 
  361000    1.1913196   -6.9059263    158.85316  0.036669703  0.038319094            1 
  362000    1.2101434   -6.8321422      159.901  0.036809623  0.038306722            1 
  363000     1.187819   -6.8959806    159.90097  0.036708212  0.038294691            1 
  364000    1.1662324   -6.8607391    160.00445  0.036631056  0.038283139            2 
  365000    1.1723601   -6.8658624    160.58747  0.036663805  0.038272262            2 
  366000    1.2024161   -6.8843923    161.60552  0.036795429  0.038260838            1 
  367000    1.1795239   -6.8735121     162.5001  0.036898297  0.038249706            1 
  368000    1.1843864    -6.896402    162.16997  0.036723272  0.038239952            2 
  369000    1.2000673     -6.85239    163.19918  0.036856184  0.038230483            2 
  370000    1.2254894    -6.872367    164.44781  0.037037796  0.038221402            2 
  371000    1.1803278   -6.8108321    164.89063  0.037037428  0.038213503            2 
  372000    1.1884866   -6.8626332    165.30876  0.037031533  0.038206607            2 
  373000    1.2076782   -6.8654112    166.26904  0.037146792  0.038199971            1 
  374000    1.1775795    -6.858582     166.3093  0.037056439  0.038193418            2 
  375000    1.2083227    -6.885963    166.14067   0.03692015  0.038186766            2 
  376000    1.2150897   -6.8708663    166.88688  0.036987341  0.038178705            1 
  377000     1.170766    -6.862727    166.88703  0.036889264  0.038171605       -1e+20 
  378000    1.1604071   -6.8754448    167.68342  0.036967244   0.03816433            2 
  379000    1.1538163    -6.858383    168.39423  0.037025997  0.038157067            3 
  380000    1.1846613   -6.8447681    168.82294  0.037022574  0.038150849            2 
  381000    1.1923787   -6.8475809    169.33182  0.037036706  0.038143671            1 
  382000    1.2130189   -6.8954381    169.58644  0.036995296  0.038136384            1 
  383000    1.1916197    -6.862881    169.27654  0.036831275   0.03812942            1 
  384000    1.1864289   -6.8836975    170.55678   0.03701319  0.038122535            2 
  385000    1.1799525   -6.8972849    170.12851  0.036824353  0.038115272            2 
  386000    1.1884823   -6.8684236    170.89696  0.036894853  0.038108798            2 
  387000     1.192427   -6.8901562    171.17381  0.036859132  0.038102076            2 
  388000    1.1861442   -6.8864835    171.43181  0.036819547  0.038094225            3 
  389000     1.209584    -6.871917    172.30268  0.036911457  0.038086625            1 
  390000    1.1900089   -6.8521986    173.01322  0.036968636  0.038079105            1 
  391000    1.1765393    -6.872586    172.81184  0.036831167  0.038071243            2 
  392000    1.1780371   -6.9111008    173.13674   0.03680628  0.038063895            2 
  393000    1.1947982   -6.8552844    174.15612  0.036928778  0.038056832            1 
  394000    1.1899826   -6.8631108    174.56507  0.036921547  0.038049449            1 
  395000    1.1900365    -6.872028    174.79109  0.036875756  0.038042208            1 
  396000    1.2110974   -6.9074386    174.87433  0.036800154   0.03803316            2 
  397000    1.1917753   -6.8670215    175.56063  0.036851517  0.038023832            2 
  398000    1.1766701   -6.8712037    175.18308  0.036679875    0.0380152            1 
  399000    1.2273543   -6.8546392    176.07755   0.03677476  0.038006633            2 
  400000    1.1683879   -6.8418355    176.57276  0.036785992  0.037998006            2 
  401000    1.1692554   -6.8789872    175.93759   0.03656226  0.037988528            3 
  402000     1.197968   -6.8692951    176.55965  0.036600258  0.037977563            2 
  403000    1.1937751   -6.8898144    177.11337  0.036623939  0.037966342            2 
  404000    1.1914805   -6.8353833    177.84742  0.036684699   0.03795633            3 
  405000    1.1984247   -6.8870095    178.18985  0.036664577  0.037945722            1 
  406000    1.1961818   -6.8633067    178.24308  0.036585197  0.037934308            1 
  407000    1.1933448    -6.874342    178.49093  0.036546055  0.037923127            1 
  408000    1.1824809   -6.8874748    179.38665   0.03663943  0.037912637            2 
  409000    1.1706724   -6.8658656    179.66412  0.036606382  0.037902735            1 
  410000    1.1842789   -6.8645862    180.04779  0.036595079  0.037892253            3 
  411000    1.2083233   -6.9089004     180.4725  0.036592153  0.037881924            3 
  412000    1.2269086   -6.8851772    180.43844  0.036496447  0.037870742            1 
  413000    1.1625929   -6.9437043    180.42331  0.036405027  0.037859043            2 
  414000    1.2143982    -6.875378    180.52679  0.036337922  0.037846508            3 
  415000    1.1923411   -6.8763721    181.11633  0.036368741  0.037833351            2 
  416000    1.1596528   -6.8707711    181.25948  0.036309992  0.037820505            1 
  417000    1.1846044   -6.8922088    181.67806  0.036306566  0.037807048            4 
  418000    1.2023538   -6.9130149     181.4597  0.036176177  0.037793247            1 
  419000    1.1592267   -6.8924761    182.13441  0.036224027  0.037778644            3 
  420000    1.1772341   -6.8740437    182.88687  0.036287076  0.037764604            2 
  421000    1.1931122   -6.8404314    183.78028  0.036377727  0.037750492            2 
  422000    1.1623143   -6.8963503    183.32426  0.036201472   0.03773688            2 
  423000    1.1911579   -6.8773641    183.52499  0.036155435   0.03772269            1 
  424000    1.1989053   -6.9213075    183.67773  0.036100182   0.03770781            4 
  425000    1.2003808   -6.8684489     184.9083   0.03625653  0.037693077            1 
  426000    1.1740078   -6.8850383    185.26282   0.03624077  0.037679119            3 
  427000    1.1984047   -6.8557099    185.83331  0.036267234   0.03766581            3 
  428000    1.1893917   -6.9311934    185.87992  0.036191574  0.037652328            2 
  429000    1.1667629   -6.8811986    186.24214  0.036177572  0.037638512            1 
  430000    1.1953491   -6.8950802    187.02679  0.036245502  0.037625353            2 
  431000    1.1842945   -6.8552364    187.25141  0.036204836  0.037611973            1 
  432000    1.1902243   -6.8835517    187.11454  0.036094625  0.037598663            1 
  433000    1.1703532   -6.9136807    187.16014  0.036020042  0.037584225            1 
  434000    1.1779975   -6.9350594    187.78494  0.036057015  0.037569835            2 
  435000    1.1977596   -6.9109472    188.42223  0.036096213   0.03755545            2 
  436000    1.1896658    -6.904754     188.4925  0.036026855  0.037541245            2 
  437000    1.2286718   -6.8623578    189.57821  0.036151451  0.037527547            1 
  438000    1.1899713   -6.8715366    190.06337   0.03616122  0.037514028            1 
  439000    1.1689496   -6.9170905    190.02877  0.036072279  0.037499998            4 
  440000     1.148844    -6.889115    190.83408  0.036142818  0.037486395            2 
  441000    1.1721668   -6.8750761    191.20778  0.036131477  0.037473363            1 
  442000    1.1925258   -6.8823835    191.99889  0.036198886  0.037460477            2 
  443000     1.175338    -6.896066    191.62158  0.036046195  0.037448307            1 
  444000     1.204681   -6.8591314    192.65694  0.036159336  0.037436002            1 
  445000    1.1790059   -6.8513919    193.21552  0.036182682  0.037423914            3 
  446000    1.1701373   -6.8959037    193.15228  0.036089739  0.037411194            2 
  447000    1.1749607   -6.9255823    194.23276  0.036210433  0.037398278            4 
  448000    1.1852611   -6.9253501      193.462  0.035986236   0.03738513            2 
  449000    1.1699435    -6.937238    194.15322  0.036034376  0.037372276            1 
  450000    1.1874611   -6.8862551    195.57131   0.03621691  0.037360654            3 
  451000    1.1909331    -6.884944    195.83618  0.036185546  0.037350133            2 
  452000    1.1775825   -6.9238831    196.12232  0.036158245   0.03733889            1 
  453000    1.1770273   -6.9082503    196.55588  0.036158183  0.037328025            1 
  454000    1.1875673   -6.9485058    197.34167  0.036222773   0.03731725            2 
  455000    1.2174469   -6.9100004    197.22218  0.036121278   0.03730642            2 
  456000    1.1684475   -6.8911128    197.59755  0.036110664  0.037295483            2 
  457000    1.1885661   -6.8972351     198.5149  0.036198924  0.037284899            2 
  458000    1.1904811   -6.9093577    199.21627  0.036247502  0.037274474            2 
  459000    1.1604759   -6.8975549    199.65331  0.036247877  0.037265026            1 
  460000    1.1705737   -6.8883834     199.7917  0.036194148  0.037255779            4 
  461000    1.1748105   -6.8964588    200.83318    0.0363039  0.037246696            2 
  462000    1.1606923   -6.8695142    201.19451  0.036290496  0.037238408            1 
  463000    1.2062249   -6.8659173    201.52115  0.036270906   0.03723005            1 
  464000    1.1711849   -6.8732408    202.08196  0.036293456  0.037221103            1 
  465000    1.1560581   -6.8825215     202.5777  0.036304247  0.037212666            1 
  466000    1.1920613   -6.9055097    203.34122  0.036362879  0.037203717            1 
  467000    1.1799008   -6.9020587    203.79736   0.03636641  0.037194948            2 
  468000     1.158114   -6.8713114    203.68678  0.036269013  0.037185544            1 
  469000    1.1806725   -6.9191802    203.95175  0.036238762  0.037177088            1 
  470000     1.181804   -6.9252961     204.4135  0.036243528  0.037169105            2 
  471000     1.164606   -6.8641441    204.51205  0.036184015   0.03716005            3 
  472000    1.1781678   -6.9149584    204.47755  0.036101263  0.037150493            1 
  473000     1.189983   -6.9093623    205.37182  0.036182491  0.037140854            1 
  474000    1.2019531   -6.8885573    204.59667  0.035969879  0.037131263            2 
  475000    1.1532047   -6.8936104    205.22464  0.036004323  0.037120718            1 
  476000    1.2041507   -6.9013663    206.33818   0.03612363   0.03711008            1 
  477000    1.1911889   -6.9324796    206.26522  0.036035153  0.037100202            2 
  478000    1.1819518   -6.9091905    206.79676  0.036052434  0.037090254            2 
  479000    1.1991862   -6.9154869     207.0986  0.036029679  0.037080591            2 
  480000    1.1597524   -6.8774121    207.55663  0.036034137  0.037070509            1 
  481000    1.1672555   -6.9280249    207.42169  0.035935843  0.037059829            2 
  482000    1.1767598   -6.8921718    207.71889  0.035912671  0.037049381            2 
  483000    1.1911084   -6.8768287    209.06403  0.036070399  0.037038915            5 
  484000    1.1972139   -6.9230452    208.41335  0.035883842   0.03702806            2 
  485000    1.2027983   -6.8673604    209.95164  0.036074165  0.037017972            4 
  486000    1.1809508   -6.9272508    209.48987   0.03592076  0.037008286            1 
  487000    1.1538603   -6.8740883    210.62816   0.03604178  0.036998817            1 
  488000    1.1838768   -6.8961603    210.94664  0.036022309  0.036988684            2 
  489000     1.164067   -6.9353976    211.17239  0.035987115  0.036978555            1 
  490000     1.220943   -6.9113794    211.02996  0.035889448  0.036968609            2 
  491000     1.149287   -6.8965239    211.90164  0.035964298  0.036958303            1 
  492000    1.1659683   -6.9630243    211.48365  0.035820402  0.036947925            2 
  493000    1.1854991   -6.9328814    212.82844  0.035975058  0.036937335            2 
  494000    1.1750062   -6.8847664     213.3147  0.035984262  0.036926977            1 
  495000    1.1716681   -6.9096982    212.75838  0.035817908  0.036916404            1 
  496000    1.1688576    -6.892882    213.68829  0.035901931  0.036906489            2 
  497000    1.1624478   -6.8716237    213.79757  0.035848016  0.036896581            3 
  498000    1.1653431   -6.9285826    214.67188  0.035922336  0.036886724            1 
  499000    1.1879639   -6.9343051    215.09875  0.035921636   0.03687758            1 
  500000     1.180778   -6.9428571    215.64168  0.035940279  0.036868112            2 
  501000     1.164974    -6.909748    215.46995  0.035839978  0.036858544            3 
  502000    1.1620934   -6.9102855    216.82007  0.035992708  0.036849496            4 
  503000    1.1707956   -6.9118881    216.84203  0.035924789  0.036841156            1 
  504000    1.1870537   -6.9103056    217.60271  0.035979284  0.036832997            1 
  505000    1.1932158   -6.9027516    218.32242  0.036026801  0.036824957            2 
  506000    1.1724213   -6.8925858    219.05713  0.036076602  0.036816799            1 
  507000    1.1708016   -6.9027803    219.01523  0.035998558  0.036808845            2 
  508000    1.1630902   -6.9090119    219.36568  0.035985183  0.036800852            2 
  509000    1.1775595   -6.9252349    219.70265  0.035969655  0.036793106            3 
  510000    1.1749119   -6.8871533    221.13198  0.036132677  0.036785259            2 
  511000    1.1823561   -6.9239275    220.27971   0.03592298  0.036777588            1 
  512000    1.1771701   -6.9090642    220.98472  0.035967565  0.036769518            2 
  513000    1.1655209   -6.9062632    221.18695  0.035930303   0.03676111            2 
  514000    1.1788399   -6.9082453    221.88831  0.035974109  0.036753613            2 
  515000    1.1645483   -6.9113686    222.16565  0.035949135  0.036745777            1 
  516000    1.1597271    -6.912205    222.67987  0.035962511  0.036737567            2 
  517000    1.1768369   -6.9237917     223.2825  0.035990088  0.036729547            3 
  518000    1.1511615     -6.94705    222.58423  0.035808274  0.036721067            3 
  519000    1.1893642   -6.9039823    223.55241  0.035894735  0.036712633            1 
  520000    1.1619914   -6.9502679    224.03018  0.035902273  0.036704304            3 
  521000    1.1476189   -6.9574728    224.58594  0.035922255  0.036695899            2 
  522000    1.1710137   -6.9158199      225.167    0.0359462  0.036687732            2 
  523000    1.1664822   -6.8937146    226.21463  0.036044397  0.036680075            2 
  524000    1.1770307   -6.9415138    225.51908  0.035864993  0.036673016            1 
  525000    1.1468088   -6.9180057    226.56234  0.035962276   0.03666553            2 
  526000    1.1791807   -6.9344637    226.98035  0.035960131  0.036658281            3 
  527000    1.1353012   -6.9150653    227.04157  0.035901576  0.036651293            1 
  528000    1.1649267   -6.8838044    228.05611  0.035993704  0.036644161            2 
  529000    1.1754937   -6.9003784    228.72246  0.036030633  0.036636968            2 
  530000    1.1908525     -6.92532    227.76495  0.035812099  0.036629662            1 
  531000    1.1651932   -6.9479208    229.10604  0.035955123   0.03662197            2 
  532000     1.139784   -6.9226384     228.8542  0.035848089  0.036614257            2 
  533000    1.1589325   -6.9433531    228.51206   0.03572734  0.036606069            1 
  534000    1.1426671   -6.9190897    229.31047  0.035785029  0.036598552            2 
  535000    1.1815049   -6.9569538     230.0557   0.03583422  0.036590327            3 
  536000    1.1714683    -6.894017    230.98333  0.035911587  0.036582993            2 
  537000    1.1659638   -6.9268839    230.44642  0.035761393  0.036574535            2 
  538000    1.1569055   -6.9204026     231.9336  0.035925278   0.03656678            2 
  539000    1.1696396   -6.9311048    231.85786  0.035846917  0.036559633            2 
  540000    1.1634707   -6.9114141     232.4237  0.035867854  0.036552347            2 
  541000    1.1455955   -6.9285202    232.05899  0.035745378  0.036544366            2 
  542000    1.1818932   -6.9240716    232.85915  0.035802453  0.036536433            1 
  543000    1.1383428   -6.9731227    232.67378  0.035708069  0.036528478            3 
  544000    1.1551918   -6.9016977    234.07479  0.035857046  0.036520405            3 
  545000    1.1388802   -6.8921455     234.1093  0.035796528  0.036512382            2 
  546000    1.1425638   -6.9349285    234.68885  0.035819421   0.03650492            3 
  547000    1.1768881   -6.9293619    234.87915   0.03578293  0.036497741            1 
  548000    1.1658618   -6.9677651     235.2773  0.035778179  0.036489968            2 
  549000    1.1705977   -6.9099518    234.94207  0.035662124  0.036482623            1 
  550000    1.1415265   -6.9186249    236.39492  0.035817413  0.036474798            2 
  551000    1.1452833   -6.9360121    236.93657  0.035834327  0.036467191            1 
  552000    1.1543128   -6.9690323     236.0204    0.0356311  0.036458893            3 
  553000    1.1779859   -6.8875219    236.69035  0.035667624  0.036450104            1 
  554000    1.1650398   -6.9493895    237.09377  0.035663924  0.036441167            1 
  555000    1.1816609    -6.955935    237.12725  0.035604692  0.036432235            1 
  556000    1.1909708   -6.9198872    237.91822  0.035659205  0.036423075            2 
  557000    1.1522344    -6.956478    237.09896  0.035472615  0.036413149            3 
  558000    1.1504334   -6.9473035    238.00157  0.035543843  0.036403758            2 
  559000    1.1619125   -6.9589202     238.2708  0.035520394  0.036394459            3 
  560000    1.1678706   -6.9471092    238.82568  0.035539536  0.036384497            2 
  561000    1.1443668   -6.9412387    239.17397  0.035527922  0.036375233            1 
  562000    1.1487201   -6.9219298    239.45301   0.03550608  0.036365758            1 
  563000    1.1407935   -6.9130419    240.02881  0.035528243  0.036356172            1 
  564000    1.1689073    -6.942499    240.35068  0.035512808  0.036346745            2 
  565000    1.1675156    -6.945047    240.40164   0.03545747  0.036337294            4 
  566000    1.1534284   -6.8887297    241.78834  0.035598989  0.036328288            4 
  567000    1.1855713   -6.9119128    242.17142  0.035592507  0.036318996            2 
  568000    1.1443991   -6.9217802    242.15883  0.035527997  0.036309957            2 
  569000    1.1804117   -6.9515401    242.70537  0.035545603  0.036300932            4 
  570000    1.1585836    -6.912738    243.83753  0.035648761  0.036291789            3 
  571000    1.1958697   -6.9066648     243.0873  0.035476838   0.03628277            1 
  572000    1.1430519   -6.9083137    244.42695  0.035609987  0.036273709            1 
  573000    1.1608943    -6.918757    243.56935  0.035423117  0.036263982            3 
  574000     1.171434   -6.8840552    243.67991  0.035377454  0.036254348            2 
  575000    1.1853278   -6.9289798    243.83426  0.035338299  0.036244179            2 
  576000    1.1430546   -6.9583057    244.15892  0.035323918  0.036233475            1 
  577000    1.1497498   -6.9517479    244.21483  0.035270772  0.036222992            2 
  578000     1.132109   -6.9397785      244.648  0.035272203  0.036212452            1 
  579000    1.1902713   -6.9154047    245.33909  0.035310749  0.036202208            1 
  580000    1.1542379   -6.9525689    245.53187  0.035277567  0.036191574            1 
  581000    1.1647228   -6.9293167    246.10029  0.035298377  0.036181527            1 
  582000    1.1847905   -6.9119254    246.22646  0.035255794  0.036171203            2 
  583000    1.1687873   -6.9137247    247.29751  0.035348415  0.036160838            1 
  584000    1.1553324   -6.9198048    248.35729  0.035439111  0.036151213            3 
  585000    1.1420147   -6.9453537    248.22521  0.035359717  0.036142028            1 
  586000    1.1808247   -6.9614605    248.20658  0.035296726  0.036132543            2 
  587000    1.1469999   -6.8793442    249.26431  0.035386755  0.036123368            2 
  588000    1.1495069   -6.9452561    249.33431  0.035336495  0.036113959            3 
  589000    1.1831883   -6.9463469    249.29464  0.035270888  0.036104906            1 
  590000    1.1404616   -6.9334307    250.76595   0.03541892  0.036095705            1 
  591000    1.1753937   -6.8940558    250.63055  0.035339897  0.036087177            1 
  592000    1.1747589    -6.929693    251.03269  0.035336809  0.036078237            2 
  593000    1.1580158   -6.9820288    251.30756  0.035315845  0.036069801            2 
  594000    1.1645051   -6.8979639    252.21373  0.035383519  0.036061119            3 
  595000    1.1662628   -6.9856523    252.04273  0.035300102  0.036052619            1 
  596000    1.1652421   -6.9711393    252.20751  0.035263913  0.036044505            2 
  597000    1.1784584   -6.9511659    253.55646   0.03539314  0.036036108            1 
  598000    1.1747863   -6.8997214    254.15672  0.035417603  0.036028083            2 
  599000      1.14861    -6.947678    253.60678  0.035281968   0.03601962            3 
  600000    1.1626769    -6.955643    254.61912  0.035363767  0.036011025            2 
  601000    1.1644566   -6.9349966    255.09491  0.035370897  0.036003184            2 
  602000    1.1588742   -6.9715095    255.38031  0.035351649  0.035995223            1 
  603000    1.1530789   -6.9322496    256.17396  0.035402703  0.035987378            2 
  604000    1.1559109   -6.9529433    256.59075  0.035401594  0.035979729            3 
  605000    1.1337179   -6.9532531    257.39337  0.035453632  0.035972404            1 
  606000    1.1487332   -6.9802243    256.84209   0.03531932  0.035965106            1 
  607000    1.1645216   -6.9455417    258.21509  0.035449628  0.035958031            3 
  608000    1.1609885   -6.9318252    258.73312  0.035462325  0.035951133            3 
  609000    1.1768971   -6.9568869    258.59528  0.035385232  0.035944071            1 
  610000    1.1837768    -6.946414    258.99586  0.035381949  0.035936768            2 
  611000    1.1544232   -6.9848109    258.99889  0.035324453  0.035929984            2 
  612000    1.1322921   -6.9402314    259.92159  0.035392373  0.035923566            2 
  613000    1.1596787   -6.9367483    261.30283  0.035522408  0.035917061            1 
  614000     1.157483   -6.9501114    261.46417  0.035486451  0.035911249            1 
  615000    1.1496218   -6.9463627    261.76766  0.035469873    0.0359058            2 
  616000     1.149861   -6.9834979    261.66977  0.035399049  0.035899805            2 
  617000    1.1503306   -6.9514581    263.04308  0.035527158   0.03589441            1 
  618000    1.1485389   -6.9408274    264.26933  0.035635023  0.035889162            1 
  619000    1.1398227   -6.9524887    264.26697  0.035577136  0.035884131            1 
  620000    1.1245454   -6.9360332      264.815  0.035593415  0.035879386            2 
  621000    1.1351617   -6.8976773    266.35056  0.035742158  0.035874704            1 
  622000    1.1512493   -6.9588545    265.80017  0.035610955  0.035869698            1 
  623000    1.1517502   -6.9339472    266.26206  0.035615578  0.035864473            1 
  624000    1.1567889   -6.9594092    266.18376  0.035548045  0.035859718            2 
  625000    1.1584799   -6.9490629    266.68267   0.03555769  0.035855323            4 
  626000    1.1506979   -7.0119936    266.04785  0.035416381  0.035850537            4 
  627000    1.1356047   -6.9311212    267.22737  0.035516663  0.035845174            1 
  628000    1.1538728   -6.9856109     267.2284  0.035460245  0.035840017            1 
  629000    1.1669044   -6.9403868    268.40884   0.03556026  0.035835212            1 
  630000    1.1380511   -6.9487646    269.11593  0.035597346  0.035830892            1 
  631000    1.1646818   -6.9403324    268.70054  0.035486072   0.03582647            2 
  632000    1.1811191   -6.9660379    268.87174  0.035452497   0.03582199            2 
  633000    1.1700912    -6.975705    270.72349   0.03564027   0.03581772            1 
  634000    1.1797511   -6.9473722    270.01972  0.035491551  0.035813246            2 
  635000    1.1436554   -6.9407836    270.70159  0.035525143  0.035808817            2 
  636000     1.159587   -6.9581735    270.75046  0.035475689  0.035803831            1 
  637000      1.13089   -6.9290453    271.92152  0.035573197  0.035799105            1 
  638000     1.165527   -6.9334636    271.57615  0.035472329  0.035794017            1 
  639000    1.1426208   -6.9765043    271.09009  0.035353428  0.035789005            1 
  640000    1.1608438    -6.983844    271.37099  0.035334764  0.035783657            2 
  641000     1.155362   -6.9681518     272.5033  0.035426846  0.035778538            1 
  642000    1.1185786   -6.9577342    272.62048  0.035386875  0.035773225            1 
  643000    1.1676078   -6.9728011    273.57279   0.03545526  0.035767768            3 
  644000    1.1390532   -6.9980414    273.51558  0.035392803  0.035762304            1 
  645000    1.1566811   -6.9789929    274.10521   0.03541411  0.035756969            2 
  646000    1.1297686   -6.9398294    274.15712  0.035365986  0.035752118            1 
  647000    1.1402606   -7.0003559    274.82075    0.0353968  0.035747107            1 
  648000    1.1427367   -6.9169228    275.79645  0.035467651  0.035742269            2 
  649000    1.1275645   -6.9591261    274.82231  0.035287918  0.035737212            2 
  650000     1.131352   -6.9567936    276.57363  0.035458158  0.035732315            2 
  651000    1.1241873   -6.9263579    276.46791  0.035390157  0.035727165            1 
  652000    1.1484051   -6.9694143    275.65623  0.035232135  0.035721594            2 
  653000    1.1173753   -6.9463212    276.91403  0.035338696  0.035715687            2 
  654000    1.1782397   -6.9822141    277.14031  0.035313495  0.035710412            1 
  655000    1.1574122   -6.9870602    277.64483   0.03532377    0.0357053            4 
  656000    1.1576133   -6.9670086    278.11736  0.035329949  0.035699675            2 
  657000     1.188695   -6.9895618    278.99642  0.035387674  0.035693815            1 
  658000    1.1509344   -6.9074633    278.79285  0.035308111  0.035688151            2 
  659000    1.1704896   -6.9262301    279.98211   0.03540492  0.035683054            1 
  660000    1.1347884   -6.9922045    278.88931  0.035213297  0.035677882            2 
  661000    1.1757432   -6.9973415    279.90397  0.035287944  0.035672722            2 
  662000    1.1836497   -6.9437237    280.38986  0.035295804  0.035667175            1 
  663000    1.1510145   -6.9713264    280.31455  0.035233101  0.035661735            1 
  664000    1.1519527   -6.9654696    281.75347  0.035360626  0.035656424            4 
  665000     1.162046    -6.938571    281.27505    0.0352475   0.03565114            3 
  666000    1.1596975   -6.9405183    282.94925  0.035404061  0.035645919            1 
  667000    1.1417293   -6.9294277    282.55795  0.035302092  0.035640436            1 
  668000    1.1448672   -6.9694188    283.49264  0.035365848  0.035635228            2 
  669000    1.1244167   -6.9786584    282.05776   0.03513425   0.03562965            2 
  670000    1.1419848   -6.9532568    284.15293  0.035342404  0.035624028            1 
  671000    1.1519659   -7.0013504    283.37388  0.035192981  0.035618235            2 
  672000    1.1294077    -6.983272    284.00868  0.035219331  0.035612697            2 
  673000    1.1555769   -6.9496399    284.43289  0.035219525  0.035607617            1 
  674000    1.1561309   -7.0044474    283.31914  0.035029567    0.0356019            4 
  675000    1.1512797   -6.9981358    284.96853  0.035181301  0.035596402            1 
  676000    1.1422896    -6.982078    286.02451  0.035259432  0.035590921            2 
  677000    1.1380592   -7.0193807    285.72891  0.035170964  0.035585652            2 
  678000    1.1403514   -6.9751309    286.85885  0.035257971  0.035580048            4 
  679000    1.1632156   -6.9886306    286.72537  0.035189663   0.03557477            2 
  680000    1.1172355   -6.9898951    287.26115  0.035203573  0.035569455            2 
  681000    1.1253107   -6.9590394    287.78408  0.035215869  0.035564244            1 
  682000    1.1512589   -6.9895974    289.60943  0.035387271   0.03555939            1 
  683000    1.1137484   -6.9104506    289.82025  0.035361182  0.035554941            1 
  684000     1.139547   -6.9874289    289.47604  0.035267549   0.03555084            1 
  685000    1.1406638   -6.9899327    289.28432  0.035192739  0.035546063            1 
  686000    1.1380164   -6.9424129    291.67937  0.035432382  0.035541474            1 
  687000    1.1278983   -6.9822046    291.27805  0.035332126  0.035536449            2 
  688000    1.1622661   -6.9494898    291.53681  0.035312113   0.03553182            2 
  689000    1.1606613   -6.9649369    292.42961  0.035368845  0.035527107            3 
  690000    1.1555652   -6.9506402    292.35758  0.035308886  0.035522551            3 
  691000     1.140469   -6.9648726    293.08231  0.035345189  0.035518014            2 
  692000    1.1244676   -6.9867013      293.465  0.035340198  0.035513342            2 
  693000    1.1278402   -7.0014114    292.41706  0.035163187  0.035508572            4 
  694000    1.1358866   -6.9558319    293.65543  0.035261218   0.03550342            1 
  695000    1.1312786   -6.9712924    293.96999    0.0352482  0.035498579            5 
  696000    1.1576511   -6.9966243    293.45836  0.035136298  0.035493637            2 
  697000    1.1514395   -6.9315002    293.65396  0.035109273  0.035488281            1 
  698000    1.1296917   -6.9796344    293.73641  0.035068817  0.035482873            3 
  699000    1.1479638   -6.9740475    294.71329  0.035135108  0.035477325            4 
  700000    1.1751664   -7.0264644     293.9578  0.034994977  0.035472042            1 
  701000    1.1557199    -7.002778    295.03286  0.035072855  0.035466657            1 
  702000    1.1629292   -6.9649279    297.14406  0.035273512  0.035461693            1 
  703000    1.1468012    -6.935897    297.19573  0.035229461  0.035457015            1 
  704000    1.1168567   -6.9474262    297.09445   0.03516743  0.035452194            1 
  705000    1.1343707   -6.9969806    296.78596  0.035081083  0.035446926            1 
  706000    1.1129426   -6.9710887    297.52291   0.03511838  0.035441818            3 
  707000    1.1265416   -7.0025696    296.98876  0.035005747  0.035436567            2 
  708000    1.1608089   -6.9578996    298.48682   0.03513263    0.0354314            2 
  709000    1.1378439   -6.9602323    299.41866  0.035192602  0.035426295            2 
  710000    1.1268235   -6.9683822    299.26584  0.035125098  0.035421471            2 
  711000    1.1144041    -7.005437    299.08064   0.03505399  0.035416314            4 
  712000    1.0760001   -7.0089405    299.73584  0.035081442  0.035410947            1 
  713000    1.1359215    -6.958666    299.98265  0.035061086  0.035405779            1 
  714000    1.1371873   -6.9916287    301.54059  0.035193813  0.035400434            2 
  715000    1.1384654   -6.9614468     301.9053  0.035187097  0.035395314            1 
  716000    1.1529474   -7.0047688      300.716  0.034999535  0.035389843            2 
  717000    1.1484992   -6.9838868    301.69758  0.035064805  0.035384469            2 
  718000    1.1534477   -7.0136559    301.21102  0.034959496   0.03537905            1 
  719000    1.1279927   -6.9863399    302.35491  0.035043453  0.035373453            3 
  720000      1.13847   -6.9766016    302.67237  0.035031524     0.035368            3 
  721000    1.1350185   -6.9855779    302.75002  0.034991912  0.035362522            2 
  722000    1.1206596   -6.9204146    303.00755   0.03497317  0.035357047            1 
  723000    1.1442964   -6.9826229    303.81449  0.035017807  0.035351151            2 
  724000    1.1202969   -6.9731003    304.03769  0.034995129  0.035345658            2 
  725000    1.1350003   -6.9436191    304.25769  0.034972149  0.035339906            5 
  726000    1.1214938   -6.9973177    304.84669  0.034991585  0.035333848            2 
  727000    1.1610481   -7.0289665    303.76594  0.034819572  0.035327727            1 
  728000    1.1225982   -6.9608866     306.3517  0.035067731  0.035321919            2 
  729000    1.1453576   -6.9968918    306.23763  0.035006587  0.035316054            5 
  730000    1.1424534   -7.0177164    306.77014  0.035019422   0.03531029            1 
  731000    1.1623361   -7.0442702    306.05019  0.034889442  0.035304244            2 
  732000    1.1184517   -6.9814306    306.67083  0.034912435  0.035298148            2 
  733000    1.1425768   -7.0430835    306.14664  0.034805212  0.035291995            5 
  734000    1.1490518   -6.9886272    308.54891   0.03503053  0.035286231            2 
  735000    1.1518191   -6.9586633    308.28955  0.034953464   0.03528066            3 
  736000    1.1208925   -6.9807229    307.94577  0.034867048  0.035274898            2 
  737000    1.1425627     -7.00553    308.76519  0.034912392  0.035268903            2 
  738000    1.1086277   -7.0035701    308.09704  0.034789639   0.03526259            1 
  739000    1.1220396   -6.9910358    308.60221  0.034799527  0.035256277            2 
  740000    1.1207616   -6.9748194    309.41936  0.034844522  0.035249645            1 
  741000    1.1313173   -6.9807224    309.62423  0.034820539  0.035243067            2 
  742000    1.1250478   -6.9722847     309.9009  0.034804683  0.035236645            2 
  743000    1.1427958   -6.9975076    309.74715  0.034740595  0.035229963            1 
  744000    1.1368096   -6.9432524    310.42231  0.034769524  0.035223186            3 
  745000    1.1499211   -6.9839012    311.17295  0.034806817  0.035216674            3 
  746000     1.134396   -6.9877885    310.95419  0.034735723  0.035210101            1 
  747000    1.1188356    -6.960724     311.2618  0.034723538   0.03520308            1 
  748000    1.1525734    -6.994781    312.36092  0.034799568   0.03519612            1 
  749000    1.1254062   -6.9973364     312.4586  0.034763974  0.035189455            1 
  750000    1.1262851   -7.0045991    312.95168  0.034772409  0.035183096            3 
  751000    1.1294534   -6.9476062    313.51804  0.034788953  0.035176586            1 
  752000     1.134988   -6.9510157    313.98407  0.034794334  0.035170064            2 
  753000    1.1446513   -7.0037528    313.49252  0.034693727  0.035163367            1 
  754000    1.1402572   -6.9571699    313.83194  0.034685227  0.035156666            1 
  755000    1.1691048   -6.9596369    314.79699  0.034745804  0.035150178            6 
  756000    1.1168316    -7.011934    315.25474  0.034750301  0.035143431            2 
  757000     1.128733   -7.0226801    314.80818  0.034655238  0.035136587            2 
  758000    1.1470261   -6.9558951    314.80807  0.034609507  0.035129611            1 
  759000    1.1467633    -7.008508    314.72035  0.034554277  0.035122505            1 
  760000    1.1456484   -6.9838453    316.67804  0.034723469  0.035115202            2 
  761000    1.1175747   -6.9680782    316.97182  0.034710011  0.035108085            2 
  762000    1.1211616   -7.0280167    315.69406  0.034524722  0.035100841            3 
  763000    1.1264453   -6.9925787    316.61971  0.034580571  0.035093582            1 
  764000    1.1241692   -7.0324769    316.79549  0.034554482  0.035086025            2 
  765000     1.127492   -7.0094617    317.16647  0.034549724  0.035078435            2 
  766000    1.1170405   -6.9764955      318.066   0.03460248  0.035071401            1 
  767000     1.121161    -7.020648    318.35039  0.034588264  0.035064266            5 
  768000    1.0907946   -7.0087777    318.40418  0.034549065  0.035057084            1 
  769000    1.0959278   -7.0009357    318.16335  0.034478039  0.035049692            2 
  770000    1.1334921   -7.0543526    318.59236  0.034479693  0.035041939            1 
  771000    1.1284346   -7.0059914    319.45014  0.034527684  0.035034533            1 
  772000    1.1484647   -6.9920389    319.47574  0.034485723  0.035027295            1 
  773000     1.116307    -6.979398    320.26763   0.03452648  0.035019773            1 
  774000    1.1302355   -6.9945273    320.12691  0.034466721  0.035012225            2 
  775000    1.1482903   -6.9713924    320.33493  0.034444616  0.035004451            1 
  776000    1.1238298   -6.9806937    321.47176  0.034522311  0.034996781            2 
  777000    1.1379508   -7.0229454    321.09251  0.034437207  0.034989276            1 
  778000    1.1414425   -7.0063814    321.00527  0.034383598  0.034981866            1 
  779000    1.1068101   -6.9922723    321.76772  0.034421023  0.034974499            2 
  780000    1.1378291   -6.9938047    322.22217  0.034425445  0.034967013            1 
  781000     1.142886   -7.0126734    321.87781  0.034344623  0.034959213            2 
  782000    1.1336657   -7.0070398    323.42263  0.034465327  0.034951809            2 
  783000    1.1217657   -7.0309752    322.61842   0.03433572  0.034944492            1 
  784000    1.1119618   -6.9832406    323.49673  0.034385282  0.034937237            1 
  785000    1.1300832    -7.045157    323.82674  0.034376512  0.034929413            1 
  786000    1.1253686   -6.9922885    324.61113  0.034415938  0.034922078            1 
  787000    1.1461626   -6.9970494    324.54657  0.034365372  0.034914752            2 
  788000     1.121903    -6.972979    324.70256  0.034338258   0.03490774            2 
  789000    1.1258473   -7.0161039    326.53568  0.034488348  0.034900635            2 
  790000    1.1386965   -6.9969422    325.41773  0.034326764  0.034893629            2 
  791000    1.1267794   -6.9951695    326.94419  0.034444183  0.034886763            2 
  792000    1.1166064   -7.0434706    326.24148  0.034326756   0.03488008            2 
  793000    1.1349602   -6.9800288    327.93623  0.034461563  0.034873287            2 
  794000    1.1343559   -6.9950357    328.31472  0.034457885   0.03486656            1 
  795000    1.1480162   -6.9775877    327.95625  0.034376965  0.034859417            2 
  796000    1.1200432   -7.0110902    328.78688  0.034420737  0.034852375            2 
  797000     1.124639   -6.9905713    329.60051  0.034462622   0.03484545            1 
  798000    1.1333274   -7.0201295    329.39193  0.034397654  0.034838455            3 
  799000    1.1412986   -7.0058683     328.9794  0.034311577   0.03483143            2 
  800000    1.1211766   -7.0119849    329.32604  0.034304796  0.034824324            2 
  801000    1.1146119    -7.031329    329.19553  0.034248391  0.034817091            3 
  802000    1.1170269   -7.0073912    331.51339  0.034446529  0.034809595            1 
  803000    1.1243297   -6.9793057    330.05203  0.034251975  0.034802211            1 
  804000    1.1243297   -7.0277743    331.51183  0.034360679  0.034794832            1 
  805000    1.1142363   -6.9964716    332.00687  0.034369241  0.034787557            2 
  806000    1.1263185   -7.0216898       330.98   0.03422043    0.0347805            2 
  807000    1.1054193   -7.0112521    331.56338  0.034238267  0.034773636            1 
  808000    1.1231188   -7.0014518     333.7117  0.034417461   0.03476693            3 
  809000    1.1450306   -7.0133964    333.40171  0.034342986  0.034760095            2 
  810000    1.1231047    -6.999539    333.98854  0.034360961  0.034753514            3 
  811000    1.1375853   -7.0252721    334.50047  0.034371195  0.034747072            1 
  812000    1.1323142   -6.9712162    334.52814  0.034331706  0.034740677            2 
  813000    1.1441643   -6.9886004    334.86594  0.034324102  0.034734075            1 
  814000    1.1332181   -7.0049385    335.76499  0.034373975  0.034727413            5 
  815000    1.1046137   -7.0069239     336.0454  0.034360471  0.034720447            1 
  816000    1.1174403   -7.0476439    335.65347  0.034278337  0.034713872            3 
  817000    1.1163369   -7.0189634    336.59875  0.034332798  0.034707079            1 
  818000    1.1050101   -7.0673123    336.04435  0.034234347  0.034700683            2 
  819000    1.1406957   -7.0497208    336.86816  0.034276369  0.034693967            1 
  820000    1.1186648    -7.001642    338.80735  0.034431641  0.034687561            2 
  821000    1.1059118      -7.0455    337.98337  0.034306067  0.034681071            3 
  822000    1.1286025   -7.0690244     337.0474  0.034169445  0.034674332            2 
  823000    1.1325404   -6.9969268    338.83069  0.034308495  0.034667787            2 
  824000    1.1048735   -7.0026643    339.62197  0.034346882  0.034661278            2 
  825000    1.1088707   -7.0363968    338.89932  0.034232254   0.03465473            1 
  826000    1.1251924   -7.0225497    339.96877  0.034298705  0.034647937            4 
  827000    1.1181464   -6.9730787    339.18174  0.034177926  0.034641059            2 
  828000    1.1159956   -6.9924919    340.25347  0.034244512  0.034634499            3 
  829000    1.1123728   -7.0507927    339.74006  0.034151594  0.034627769            3 
  830000    1.1206822   -7.0152205    339.85695  0.034122184  0.034620868            2 
  831000    1.1049589   -7.0324468    340.07273  0.034102761  0.034613785            3 
  832000    1.0912783   -7.0430067    341.76498  0.034231268  0.034606544            5 
  833000    1.1361702   -7.0400751    341.47487  0.034161151  0.034599388            6 
  834000    1.1124166   -7.0354599    342.76661  0.034249262  0.034592285            1 
  835000    1.1070952   -7.0427876    342.41566   0.03417322  0.034585542            2 
  836000    1.1215753   -7.0130834    342.05591  0.034096483  0.034578515            1 
  837000    1.1223116   -7.0403021    343.48224  0.034197754  0.034571501            3 
  838000    1.1119685   -7.0638347    342.34636   0.03404399  0.034564583            1 
  839000    1.1403406   -7.0340213    344.12488  0.034180063  0.034557845            1 
  840000    1.1229373    -7.034783    343.71999  0.034099205  0.034551251            3 
  841000    1.1279443   -7.0255377    344.35523  0.034121604  0.034544383            2 
  842000     1.105294   -7.0063167    344.15637  0.034061398  0.034537369            2 
  843000    1.1150879    -7.023771    344.16906  0.034022248  0.034530216            3 
  844000    1.1169158   -7.0483603     344.6702  0.034031418  0.034523147            1 
  845000    1.1221094   -7.0527502    344.48607  0.033972985   0.03451579            2 
  846000     1.121789   -7.0481164     344.2491  0.033909486  0.034508212            3 
  847000    1.1098602   -7.0756764    344.82894    0.0339265  0.034500487            3 
  848000    1.1152054   -7.0366883    346.06995  0.034008446   0.03449301            5 
  849000    1.1193212   -7.0470834    345.83518  0.033945346  0.034485717            4 
  850000    1.1349747   -7.0283683    345.89881  0.033911648  0.034478243            2 
  851000      1.10606   -7.0228307    346.97259  0.033976948  0.034470668            3 
  852000    1.0962721   -7.0077445    346.90954  0.033930902  0.034462919            4 
  853000    1.1302073   -7.0341924    346.92025   0.03389217  0.034455403            2 
  854000    1.1126804   -7.0253033    346.54208  0.033815582  0.034447494            1 
  855000    1.1098323   -7.0521639    348.17119  0.033934814  0.034439725            1 
  856000    1.1072633   -6.9995202    348.40917  0.033918338  0.034431971            2 
  857000    1.1189663   -7.0385836    348.16617  0.033855132  0.034424211            2 
  858000    1.1086457   -7.0193546    349.14171  0.033910423  0.034416282            2 
  859000    1.1089126    -7.073767    347.67854  0.033729001  0.034408363            1 
  860000    1.1414732   -7.0637083    349.77974  0.033893385  0.034400292            2 
  861000    1.0927886   -7.0312107    350.33315  0.033907583  0.034392493            2 
  862000    1.1023938   -7.0490965    350.48031  0.033882474  0.034384526            1 
  863000    1.1214168   -7.0747377    350.87401  0.033881229  0.034376895            2 
  864000    1.1251284   -7.0544996    350.47372  0.033803406   0.03436889            1 
  865000    1.1377044     -7.02957    351.23177  0.033837357  0.034360817            2 
  866000    1.1149453   -6.9858304    351.90761  0.033863319  0.034353279            1 
  867000    1.1068836   -7.0105408    352.02483  0.033835528  0.034345737            2 
  868000    1.0960784   -7.0293323    352.44168  0.033836567  0.034337934            1 
  869000    1.0942386   -7.0378859    352.44037  0.033797504  0.034330142            1 
  870000    1.1071067   -7.0036947    352.50969  0.033765296  0.034322125            1 
  871000    1.1158181   -7.0249114    352.84975  0.033759065  0.034314056            5 
  872000      1.12599   -7.0620264    352.83658  0.033719092  0.034305902            2 
  873000     1.115183   -7.0563108    351.97957   0.03359866  0.034297742            2 
  874000    1.1192709   -7.0374051    352.35332  0.033595855  0.034289102            4 
  875000    1.1089982   -7.0551641    353.23703  0.033641622  0.034280711            2 
  876000    1.0958625   -7.0393923    353.85561  0.033662063  0.034272421            3 
  877000    1.0943463   -7.0596436    354.03337  0.033640571  0.034264111            2 
  878000    1.0981723   -7.0794932    353.63452    0.0335644  0.034255925            1 
  879000    1.1191655   -7.0533084    353.49481  0.033512971   0.03424732            3 
  880000    1.1040775   -7.0224167    356.13011  0.033724443  0.034238885            3 
  881000    1.1397799   -7.0345886    354.72669  0.033553414   0.03423037            2 
  882000    1.0996996   -7.0746125    355.77732  0.033614637   0.03422197            2 
  883000    1.1006517   -7.0387986    355.89637  0.033587804  0.034213675            5 
  884000    1.1338738   -7.0903915    356.86664  0.033641275  0.034205389            1 
  885000    1.1023083   -6.9784276     358.6439  0.033770612  0.034197109            3 
  886000    1.1037592    -7.058525    357.70151  0.033643859  0.034189008            2 
  887000     1.106346   -7.0463548    357.87872  0.033622578  0.034180873            2 
  888000    1.1229352   -7.0311328    358.15875  0.033610994  0.034172587            1 
  889000    1.1368714   -7.0601957    359.35585  0.033685401  0.034164649            1 
  890000    1.0798184   -7.0154373    359.74216  0.033683723  0.034156839            1 
  891000    1.1372032   -7.0572545    358.55404  0.033534796  0.034148826            2 
  892000    1.1215117   -7.0524116    359.42807  0.033578855  0.034140896            1 
  893000    1.1197286   -7.0522488    359.69439  0.033566105  0.034132781            2 
  894000    1.1224336   -7.0677309    359.93918  0.033551377  0.034124925            1 
  895000    1.0871807   -7.0362489    360.50564  0.033566633  0.034116909            2 
  896000    1.1132863   -7.0868222    359.75395  0.033459259  0.034108843            2 
  897000    1.1305495   -6.9786213    362.32062  0.033660407  0.034101001            6 
  898000    1.1057539   -7.0054332    361.96506  0.033589928   0.03409342            1 
  899000    1.1133974   -7.0752567    363.07578  0.033655523  0.034085689            4 
  900000    1.1260888   -7.0604468    362.92266   0.03360395  0.034077792            3 
  901000    1.1048892   -7.0311518    362.92056  0.033566459  0.034069944            2 
  902000    1.1040625   -7.0740891    362.26487  0.033468668  0.034061823            2 
  903000    1.1120885   -7.0393413    362.64454  0.033466643  0.034053789            2 
  904000    1.0904208   -7.0372744    364.89723  0.033637281  0.034045976            1 
  905000    1.0807552   -7.0415285    364.47426  0.033561165  0.034038168            3 
  906000    1.1178735    -7.051251    364.12031  0.033491566  0.034030176            1 
  907000    1.0899797   -7.1129669    363.12006   0.03336274  0.034022326            2 
  908000    1.1091083    -7.056831    365.47737  0.033542343  0.034014578            1 
  909000    1.1231427   -7.0548918    366.44273  0.033593943  0.034007111            2 
  910000    1.1119963   -7.0178717     367.6733  0.033669716  0.033999943            2 
  911000    1.0973405   -7.0426887    366.05874  0.033485066  0.033992875            1 
  912000    1.1078253    -7.042282    367.79952  0.033607412  0.033985763            1 
  913000    1.1077197   -7.0771407    367.70359  0.033561847  0.033978617            1 
  914000    1.1050171   -7.0648291    368.96858  0.033640462  0.033971506            3 
  915000    1.1207728   -7.0700539    368.80148  0.033588477   0.03396428            3 
  916000    1.1078911   -7.0273793    369.92342  0.033653878   0.03395722            2 
  917000     1.119486   -7.0485612    370.31785  0.033653022   0.03395029            2 
  918000    1.1184702   -7.0617474    370.12252  0.033598631  0.033943668            2 
  919000     1.108505   -7.0236794    370.59381  0.033604807  0.033937365            1 
  920000    1.1003613   -7.0527061    370.50563  0.033560292  0.033930605            1 
  921000    1.0987708   -7.0384878     371.7764  0.033638834  0.033923948            2 
  922000    1.1209885   -7.0481354    372.16442  0.033637421  0.033917135            3 
  923000    1.1061697   -7.0662944     373.1599  0.033690854  0.033910385            1 
  924000    1.1294757   -7.0637879     373.5149  0.033686409  0.033903813            1 
  925000    1.1050569   -7.0118318     374.0037  0.033694027  0.033897369            1 
  926000    1.1094338   -7.0295656    373.95865  0.033653586  0.033891012            2 
  927000    1.1309686   -7.0995107     373.8793  0.033610149  0.033884581            1 
  928000    1.1292154   -7.0713879    375.27388  0.033699163  0.033877839            2 
  929000    1.0799653   -7.0386939    374.43131  0.033587308  0.033871448            2 
  930000    1.1358865    -7.080665    375.35251  0.033633737  0.033865076            2 
  931000    1.1165131    -7.069688    374.24231  0.033498238  0.033858773            1 
  932000    1.0974543   -7.0709357    374.92242  0.033523106  0.033852456            2 
  933000    1.1017821   -7.0583744    376.22361  0.033603395  0.033845957            2 
  934000    1.0982257   -7.0583572    375.62131  0.033513679  0.033839256            2 
  935000    1.0934705   -7.0609323     376.4442  0.033551176  0.033832572            2 
  936000    1.1010811   -7.0525548    377.66371  0.033623906  0.033826347            2 
  937000    1.0919614   -7.0928952    377.39379  0.033564016   0.03381994            5 
  938000    1.0899427   -7.0537013    377.42765  0.033531241  0.033813028            3 
  939000     1.115415   -7.0428046    378.31452  0.033574238  0.033806044            4 
  940000    1.1153796   -7.1017343    376.09675   0.03334191  0.033799381            2 
  941000    1.0837104   -7.0508496    378.34715   0.03350577  0.033792185            1 
  942000    1.1199785    -7.042388    378.07568  0.033446185  0.033785362            2 
  943000    1.1017536   -7.0755245    377.42202  0.033352953   0.03377823            1 
  944000     1.108427   -7.0531105    378.25973  0.033391572  0.033771087            2 
  945000    1.1001378   -7.0799922    378.93797  0.033416047   0.03376407            1 
  946000    1.1245152   -7.0838532    379.71034  0.033448762  0.033756802            2 
  947000    1.0945599   -7.0644541    379.25133  0.033373049  0.033749787            1 
  948000    1.1087293   -7.0628509    379.41272  0.033352032  0.033742803            2 
  949000    1.0884995   -7.0494279    380.58563  0.033419883  0.033735519            1 
  950000    1.1069859   -7.0725398     379.9634  0.033330123   0.03372841            2 
  951000    1.0929058   -7.0463965    380.59065   0.03335004  0.033721177            2 
  952000    1.0904315   -7.0955808     380.9756  0.033348705  0.033713835            4 
  953000    1.1038419   -7.0489034    380.89423  0.033306596  0.033706441            2 
  954000    1.1104562   -7.0161972    382.14056  0.033380552  0.033699253            2 
  955000    1.1147649   -7.0507882    382.52668  0.033379292  0.033692486            2 
  956000    1.1140562   -7.0632993    382.93457  0.033379931  0.033685564            2 
  957000    1.1248196   -7.1007498    382.32012  0.033291546  0.033678816            2 
  958000    1.1010468   -7.0868935    382.92079  0.033309046  0.033671932            3 
  959000    1.0873413   -7.0496069    384.33475   0.03339718  0.033665335            2 
  960000    1.0816476   -7.0428874    383.09071  0.033254402  0.033658404            1 
  961000    1.0854923   -7.0833739    383.86981  0.033287358  0.033651163            1 
  962000    1.0924957   -7.0674399    383.62188  0.033231279  0.033643837            1 
  963000    1.1151237   -7.0664274    383.59363  0.033194326  0.033636433            2 
  964000    1.1085538   -7.0708139    384.73934  0.033258933  0.033628781            2 
  965000    1.0984355   -7.0810415    384.94395  0.033242137  0.033621559            1 
  966000    1.0691918   -7.0643661    385.62208  0.033266225  0.033614401            1 
  967000    1.0844997   -7.0613037    384.78746  0.033159898  0.033607326            2 
  968000    1.0828438   -7.0770722    385.77203  0.033210402  0.033600075            2 
  969000    1.1086653   -7.0996215    385.52785  0.033155129  0.033592768            1 
  970000     1.078519   -7.0644511    386.40399  0.033196219  0.033585475            3 
  971000    1.1004971   -7.0544278    386.53069  0.033172905  0.033578235            2 
  972000    1.1130981   -7.0590857    387.58122  0.033228842  0.033571318            2 
  973000    1.0922797   -7.0475623    387.07545  0.033151374  0.033564171            2 
  974000    1.1157798   -7.0858712     387.1652  0.033125017  0.033556849            1 
  975000    1.0682864    -7.054698    388.34749  0.033192093  0.033549397            3 
  976000    1.0906175   -7.0439678    388.91298  0.033206368  0.033542227            2 
  977000    1.1035232   -7.0655249    389.29825  0.033205242  0.033534833            1 
  978000    1.1061092   -7.0476484    388.23795  0.033080943  0.033527265            1 
  979000    1.0839777   -7.1115117    388.25534  0.033048633  0.033519647            1 
  980000    1.0944621   -7.0929906    388.52979  0.033038247  0.033511979            1 
  981000    1.0922822   -7.0654869    390.01652  0.033130863  0.033504474            2 
  982000    1.1061282   -7.0611149    389.76962  0.033076172  0.033496859            2 
  983000    1.0713555   -7.0491515    389.92928   0.03305606  0.033489182            1 
  984000    1.0790402   -7.0870898    390.27759  0.033051964  0.033481296            2 
  985000    1.1050214    -7.089508    391.04034  0.033082939  0.033473395            1 
  986000    1.1021568   -7.1066371    390.94121  0.033041008   0.03346573            2 
  987000    1.0929168   -7.1097763    390.39108  0.032961084  0.033457958            2 
  988000    1.0801243   -7.0737999    390.54991  0.032941119  0.033450193            2 
  989000    1.1016177   -7.0736968    391.15755  0.032959011  0.033442411            3 
  990000    1.0981132   -7.0898705    392.42948  0.033032785  0.033434728            2 
  991000    1.0881804   -7.0987914     391.8689  0.032952312  0.033426915            1 
  992000    1.0833874   -7.0799744    393.02051  0.033015835  0.033419287            1 
  993000    1.0826513   -7.0734166    392.64506  0.032951079  0.033411706            1 
  994000    1.0721581   -7.1072313    392.20345  0.032880906  0.033403836            3 
  995000    1.1008038   -7.0711866    393.38092  0.032946476  0.033395938            2 
  996000    1.0805121   -7.0638205     393.2369  0.032901347  0.033388052            1 
  997000    1.0871913   -7.0909354    393.27612  0.032871625  0.033380432            1 
  998000    1.0727619   -7.0813441    394.06408  0.032904482  0.033372739            2 
  999000    1.0939976   -7.0963643    394.79748  0.032932722  0.033365336            2 
 1000000    1.1086251   -7.0720728    394.93904  0.032911587  0.033357423            2 
 1001000    1.0626937   -7.0937773    394.50726  0.032842762   0.03334937            5 
 1002000    1.1037905   -7.0870883     394.5399    0.0328127   0.03334152            3 
 1003000    1.0812969   -7.0611558    396.48076   0.03294124  0.033333555            2 
 1004000    1.0761976   -7.1073723    396.40025  0.032901747  0.033325809            1 
 1005000    1.0862565   -7.0993141     396.3048  0.032861094  0.033317632            3 
 1006000    1.0984581   -7.0958947    395.62634  0.032772229  0.033309636            2 
 1007000    1.1012834   -7.0836007    397.81465  0.032920775   0.03330194            2 
 1008000    1.1014752   -7.0754563    398.37967  0.032934827  0.033294489            5 
 1009000    1.0905912   -7.0850488    398.44923  0.032907931  0.033286771            3 
 1010000    1.0692945   -7.1077178    398.16808  0.032852151  0.033279016            2 
 1011000    1.0542614   -7.0437979    398.14111  0.032817434  0.033271464            3 
 1012000    1.1030008   -7.0714309    399.25349  0.032876605  0.033264177            3 
 1013000     1.083244    -7.055023    400.45461  0.032942959  0.033256544            2 
 1014000    1.0826206   -7.0650308    398.77421  0.032772371  0.033249079            1 
 1015000     1.049489   -7.1082244    399.42942  0.032793877  0.033241464            2 
 1016000    1.0806556   -7.0924353    398.61179  0.032694536  0.033233688            2 
 1017000     1.075403   -7.0606111      401.727   0.03291765  0.033226291            4 
 1018000    1.0854224   -7.0709416    402.70382  0.032965276  0.033219296            1 
 1019000    1.0963458   -7.1252527    401.20454  0.032810316  0.033212124            2 
 1020000    1.0948262   -7.0618119    401.77676  0.032824899  0.033204919            2 
 1021000    1.0830454   -7.0509612    401.78375  0.032793319  0.033197708            2 
 1022000    1.0908289   -7.1005252    402.48763  0.032818626   0.03319039            1 
 1023000    1.0984103   -7.1065482    403.22642  0.032846727  0.033182987            4 
 1024000    1.0942501    -7.123318    402.61654  0.032765018   0.03317567            1 
 1025000    1.0943865   -7.0623502    403.40037  0.032796778  0.033168387            5 
 1026000    1.0780981   -7.0699671    404.31559  0.032839148  0.033161109            1 
 1027000    1.0797173   -7.1022814    404.65882  0.032835023  0.033154041            3 
 1028000    1.0701625   -7.0880866    404.28627  0.032772882  0.033146966            1 
 1029000    1.1086178   -7.0650527    404.76285  0.032779628  0.033139865            2 
 1030000    1.0927436   -7.0803652     404.2262  0.032704385  0.033132639            1 
 1031000    1.0663815   -7.0998101    404.66185  0.032707877    0.0331251            3 
 1032000    1.0936985   -7.1346119    403.83367  0.032609308  0.033117571            2 
 1033000    1.0903307   -7.1043442    404.57638  0.032637656   0.03310988            1 
 1034000    1.0843091   -7.0833171    406.12657  0.032731026  0.033102217            2 
 1035000    1.0584804   -7.0848988    405.13897  0.032619885  0.033094424            3 
 1036000    1.0818019   -7.1168021    405.30994  0.032602151  0.033086449            3 
 1037000    1.0767865   -7.0997307    405.64736  0.032597827  0.033078614            2 
 1038000    1.1084581   -7.0847932    406.58393  0.032641613  0.033071047            1 
 1039000    1.0994989   -7.0884311    407.03989  0.032646767  0.033063367            1 
 1040000    1.0900505   -7.1412212    406.53439  0.032574871  0.033055643            3 
 1041000    1.0722946   -7.1397215    406.41823   0.03253428  0.033047717            2 
 1042000    1.1214682   -7.1069296    406.54892  0.032513509      0.03304            3 
 1043000     1.077723   -7.0957072    407.91926  0.032591824  0.033032136            1 
 1044000    1.0999556   -7.1517428    407.11846  0.032496684  0.033024446            1 
 1045000    1.0795989   -7.0854074    408.78018    0.0325981  0.033016783            2 
 1046000    1.0615965   -7.1207823    407.00946  0.032425865  0.033009175            1 
 1047000    1.0912087   -7.0960766    408.42935  0.032507908  0.033001182            3 
 1048000    1.0867184   -7.0929745    408.83093   0.03250882  0.032993231            3 
 1049000    1.0902813   -7.0589186    409.93134  0.032565248  0.032985584            1 
 1050000     1.085943   -7.1191744    409.88073  0.032530216  0.032977893            1 
 1051000    1.0882275    -7.076967    411.01134   0.03258891  0.032970024            2 
 1052000    1.0693107   -7.1069117    409.57425  0.032444095  0.032962205            1 
 1053000    1.0939407   -7.0555446    408.90035  0.032359952  0.032954198            2 
 1054000    1.0722105   -7.1065197    410.45972  0.032452539  0.032946248            2 
 1055000    1.0572564   -7.0609509    411.31502  0.032489338  0.032938018            2 
 1056000    1.1027869   -7.0904749    409.94772  0.032350672  0.032929651            2 
 1057000    1.0912545   -7.0618571    411.30485  0.032427061  0.032921271            3 
 1058000     1.081334   -7.0983162    410.67073  0.032346466  0.032912993            1 
 1059000    1.0713048   -7.1031424    412.14432  0.032431879  0.032904599            1 
 1060000    1.0748264   -7.1325743    412.29863  0.032413414  0.032896308            3 
 1061000    1.0744789   -7.1209304    411.49115  0.032319443  0.032888235            4 
 1062000     1.081413   -7.0998421    413.08277  0.032413902  0.032880173            2 
 1063000    1.0715728    -7.083731    414.49364  0.032494014  0.032872101            2 
 1064000    1.0725585     -7.12204    412.50135  0.032307436  0.032863845            1 
 1065000    1.0984966   -7.0770977    414.11325  0.032403228  0.032855694            2 
 1066000    1.0829224   -7.0612023     414.6565  0.032415299  0.032847474            1 
 1067000    1.0929759   -7.0897119    414.31908  0.032358566  0.032839171            2 
 1068000    1.0764288   -7.0911169    412.99906   0.03222527  0.032830734            1 
 1069000     1.088861   -7.0898179    415.08029  0.032357366  0.032822437            3 
 1070000     1.061591   -7.1226205    415.05495  0.032325152  0.032814292            2 
 1071000    1.0869974   -7.1177327    415.35919  0.032318642  0.032805861            2 
 1072000    1.0892344   -7.0703569    414.96772  0.032258063  0.032797499            2 
 1073000    1.0741992   -7.0932604    416.05981  0.032312816  0.032788994            1 
 1074000    1.0568802   -7.1252935    415.92712  0.032272433  0.032780296            1 
 1075000    1.0900471   -7.1123063    415.55518   0.03221358  0.032771919            1 
 1076000    1.0841893   -7.0919762    417.56318  0.032339156  0.032763684            1 
 1077000     1.063183   -7.0954486    417.31548  0.032289963  0.032755486            3 
 1078000    1.0625962   -7.0471704    418.28438  0.032334908  0.032747281            1 
 1079000    1.0849695   -7.0845599    418.24459  0.032301868  0.032738979            4 
 1080000    1.0817621   -7.0998697    416.52369  0.032139174  0.032730654            2 
 1081000    1.0603211   -7.1106393    417.79866  0.032207729   0.03272193            2 
 1082000    1.0807756   -7.1100347    417.47155  0.032152769  0.032713447            2 
 1083000    1.0666029    -7.104848    418.57908  0.032208301  0.032704954            4 
 1084000    1.0952659   -7.1127135    417.98082  0.032132597  0.032696426            3 
 1085000    1.0668617   -7.0935857    418.29754  0.032127307  0.032687908            2 
 1086000    1.0789887   -7.1581188    418.11129  0.032083432  0.032679304            2 
 1087000    1.0741889   -7.0984652    418.73551  0.032101772  0.032670597            3 
 1088000    1.0781005   -7.1323494    418.85404  0.032081345  0.032661684            1 
 1089000    1.0778051   -7.1025401    419.22351  0.032080158  0.032652745            2 
 1090000    1.0507253   -7.1099346    420.04636  0.032113636  0.032644017            1 
 1091000     1.068976   -7.1122531    420.58293  0.032125185  0.032635307            3 
 1092000     1.070786   -7.1189649    420.45329  0.032085873  0.032626763            1 
 1093000     1.059874   -7.1006388    421.36404  0.032125956  0.032618229            1 
 1094000    1.0707663   -7.0830194    420.15237  0.032004294  0.032609696            2 
 1095000    1.0858855   -7.1000233    421.33589  0.032065136     0.032601            3 
 1096000    1.0821746   -7.0939562    422.99389  0.032161944  0.032592727            2 
 1097000    1.0879016   -7.0904919    422.24195  0.032075505  0.032584325            1 
 1098000    1.0930193   -7.1798615    421.52613  0.031991965  0.032575736            1 
 1099000     1.076217   -7.0841637    423.75577  0.032131921  0.032567169            1 
 1100000     1.059837   -7.1296647    421.92919  0.031964332  0.032558451            3 
 1101000    1.0697334   -7.1300071    423.14044  0.032026979  0.032549637            1 
 1102000    1.0560215   -7.1293363    421.75753   0.03189334  0.032540785            1 
 1103000    1.0760627   -7.1124775    423.82549  0.032020663  0.032532211            2 
 1104000    1.0709512   -7.1250486    423.01844   0.03193074   0.03252351            1 
 1105000    1.0744274   -7.1293861    423.29702  0.031922852  0.032514836            2 
 1106000    1.0804489     -7.06035    425.73249  0.032077493  0.032506359            2 
 1107000    1.0567304   -7.1130114    425.05068  0.031997191  0.032497811            1 
 1108000    1.0973111   -7.0954976     424.8319  0.031951858  0.032489295            6 
 1109000    1.0939243   -7.1429579    425.53547  0.031975914  0.032480784            2 
 1110000    1.0677017   -7.1450126    424.84068  0.031894946  0.032472168            2 
 1111000    1.0791857   -7.1408685    424.99863  0.031878085  0.032463523            1 
 1112000    1.0900325   -7.1113366     424.9081  0.031842634  0.032454977            4 
 1113000    1.0613142   -7.0924683    426.21801    0.0319121  0.032446406            4 
 1114000    1.0892158   -7.1241704    426.47045  0.031902338  0.032437871            1 
 1115000    1.0527813   -7.1341164    426.19715    0.0318533  0.032429045            2 
 1116000     1.068723   -7.1211511    427.66841  0.031934619  0.032420302            2 
 1117000    1.0788122   -7.1220864    426.98099  0.031854744  0.032411512            2 
 1118000    1.0609624   -7.0850169    426.71199  0.031806201  0.032402949            3 
 1119000     1.070416   -7.1397458    428.00544  0.031874102  0.032394037            3 
 1120000    1.0849218   -7.1062216    427.91603  0.031838991  0.032384944            2 
 1121000     1.087326   -7.1248289    426.85771  0.031731914  0.032376058            1 
 1122000    1.0685978   -7.1171242    429.49418  0.031899449   0.03236729            1 
 1123000    1.0716703   -7.0932124    427.94747  0.031756268  0.032358601            4 
 1124000    1.0844567   -7.1256462    428.27678   0.03175243  0.032349759            3 
 1125000     1.083256   -7.0924158    428.68083  0.031754136  0.032341067            2 
 1126000    1.0733553   -7.1180766    428.81076   0.03173555   0.03233233            2 
 1127000    1.0633267   -7.0962697    430.48036  0.031830846    0.0323235            1 
 1128000    1.0714274   -7.1324299    429.37862  0.031721234  0.032314565            1 
 1129000    1.0730452   -7.1445453    429.56864  0.031707162  0.032305659            1 
 1130000    1.0921657    -7.085033    430.09131  0.031717648  0.032296769            3 
 1131000    1.0515824   -7.0927207    430.80986  0.031742548   0.03228802            2 
 1132000    1.0846029   -7.1170963    432.16647  0.031814375  0.032279174            1 
 1133000    1.0860522   -7.1106955     432.5392   0.03181371   0.03227047            2 
 1134000    1.0972347   -7.1207563    431.54108  0.031712307  0.032261637            1 
 1135000    1.0864866   -7.0955414    431.08851  0.031651138  0.032252679            2 
 1136000     1.056238   -7.0741041    432.51356  0.031727814  0.032243638            1 
 1137000    1.0714875   -7.0667457    433.64701  0.031782982  0.032234856            1 
 1138000    1.0694596   -7.1113738     433.4494  0.031740583  0.032226078            3 
 1139000    1.0613702   -7.1311043    432.62077   0.03165209  0.032217297            3 
 1140000    1.0586924   -7.1223091    432.16638   0.03159111  0.032208377            3 
 1141000    1.0723798   -7.1369034    433.27564  0.031644437  0.032199525            1 
 1142000    1.0575412   -7.1399852    434.18216  0.031682878  0.032190833            2 
 1143000    1.0642967   -7.1447197    432.62599  0.031541702  0.032181901            1 
 1144000    1.0651773   -7.1393782    433.45764  0.031574712  0.032172994            2 
 1145000    1.0949288   -7.1536752    434.07676  0.031592195  0.032163989            2 
 1146000    1.0561393   -7.1688082    434.45723  0.031592294  0.032154982            2 
 1147000    1.0739655   -7.1109722    434.37416  0.031558715  0.032145869            2 
 1148000      1.06029   -7.1167626    436.61356  0.031693784  0.032136989            6 
 1149000    1.0537783   -7.1027662    437.11766   0.03170276  0.032128241            1 
 1150000    1.0505566   -7.1502011    434.70558  0.031500405   0.03211953            2 
 1151000    1.0670598   -7.1310067    435.45997  0.031527655   0.03211064            2 
 1152000    1.0513003   -7.1209404    434.50413  0.031431144  0.032101558            2 
 1153000    1.0691664   -7.1731479    435.38993  0.031467904  0.032092496            2 
 1154000     1.058671   -7.1615259    436.93958  0.031552541  0.032083479            1 
 1155000    1.0831708   -7.1750016    436.73015  0.031510112   0.03207443            2 
 1156000     1.040479   -7.1365945    436.67225   0.03147868  0.032065461            1 
 1157000    1.0838519   -7.1169974    436.76372  0.031458061   0.03205647            4 
 1158000    1.0695801   -7.1522185    436.54163  0.031414913  0.032047541            3 
 1159000    1.0282963   -7.0859988    437.63975  0.031466764  0.032038605            2 
 1160000    1.0530324   -7.1156598    438.49747  0.031501255   0.03202972            1 
 1161000    1.0498209   -7.1500174    437.11089  0.031374598  0.032020863            2 
 1162000    1.0540629   -7.1342592    438.04927  0.031414893  0.032011729            2 
 1163000     1.069154   -7.1074054    439.44573  0.031487943  0.032002826            1 
 1164000    1.0637905   -7.1622516    438.13243  0.031366869  0.031993627            2 
 1165000     1.059403   -7.1149505    439.00294  0.031402213  0.031984589            2 
 1166000    1.0780689   -7.1288089    439.12619   0.03138409  0.031975517            2 
 1167000    1.0819776   -7.1401154      440.552  0.031459011  0.031966374            3 
 1168000    1.0945228   -7.1295129    440.15336  0.031403636  0.031957448            1 
 1169000     1.079554   -7.1408625    440.02242  0.031367438  0.031948442            2 
 1170000    1.0614458   -7.1735751    439.59687  0.031310318  0.031939483            4 
 1171000    1.0339549   -7.1466811    440.30895  0.031334255  0.031930237            3 
 1172000    1.0638656   -7.1350278    440.41431   0.03131501  0.031921087            3 
 1173000    1.0618645   -7.1018411    440.95419  0.031326669  0.031911794            1 
 1174000    1.0563199   -7.1513229    439.60932  0.031204523  0.031902537            1 
 1175000    1.0922905    -7.126191    440.06342  0.031210172  0.031893314            2 
 1176000    1.0639803   -7.0907234    441.85577  0.031310641  0.031883948            2 
 1177000    1.0599392   -7.1165072    441.74454  0.031276164  0.031874726            2 
 1178000     1.038567   -7.1271898    440.99111  0.031196315  0.031865709            1 
 1179000    1.0614907   -7.1807492    440.95207  0.031167096  0.031856391            2 
 1180000    1.0476611   -7.1586279    442.36107  0.031240188  0.031847117            1 
 1181000    1.0458178   -7.1304607    442.35402  0.031213239   0.03183787            4 
 1182000    1.0720693   -7.1394373     443.2859  0.031252531  0.031828653            4 
 1183000    1.0374116   -7.1549296    442.72894  0.031186879  0.031819301            1 
 1184000     1.067277   -7.1524328    442.27414  0.031128529  0.031810206            1 
 1185000    1.0555067   -7.1227691    445.08505  0.031299933  0.031800941            2 
 1186000     1.086394   -7.1452114    443.85028  0.031186782  0.031791844            2 
 1187000     1.072336   -7.0942561    444.59862  0.031213045   0.03178263            1 
 1188000    1.0650956   -7.1373814    444.09228  0.031151254  0.031773409            1 
 1189000    1.0401257   -7.0774588     444.4986  0.031153532  0.031764074            2 
 1190000    1.0595914   -7.1476889    443.96068  0.031089683  0.031754804            2 
 1191000    1.0455753   -7.1278941    444.07845   0.03107182  0.031745482            1 
 1192000    1.0580981   -7.1481991    446.23493  0.031196514  0.031736239            1 
 1193000    1.0750908   -7.1235907    445.89776  0.031146812  0.031727144       -1e+20 
 1194000    1.0378125   -7.1499929     445.3353   0.03108147   0.03171779            3 
 1195000    1.0579822   -7.1640274    446.00727   0.03110232  0.031708622            1 
 1196000    1.0673902     -7.13914    446.65458  0.031121417  0.031699331            3 
 1197000    1.0472264   -7.1630921    445.68903  0.031028198  0.031690105            1 
 1198000    1.0489224   -7.1324278    448.55379  0.031201572  0.031680818            3 
 1199000    1.0577349   -7.1522529    446.62169  0.031041263  0.031671418            2 
 1200000    1.0406793   -7.1426009    447.11899   0.03104993  0.031661974            4 
 1201000      1.06955   -7.1708445    446.51854  0.030982413   0.03165264            2 
 1202000     1.035505   -7.1307096    447.31921  0.031012147  0.031643545            2 
 1203000    1.0628719   -7.1250253    448.11401  0.031041425  0.031634449            4 
 1204000    1.0589373   -7.1215197    449.53616  0.031114076  0.031625358            2 
 1205000    1.0452557    -7.118748    449.26426  0.031069451  0.031616497            3 
 1206000    1.0555818   -7.1296135     450.1533   0.03110512  0.031607573            1 
 1207000    1.0491662   -7.1443287    450.43709  0.031098943   0.03159869            2 
 1208000    1.0575282   -7.1562331    449.95128  0.031039685  0.031589749            2 
 1209000    1.0646998   -7.1478076    450.63496  0.031061136  0.031580792            1 
 1210000    1.0549807   -7.1185437    449.88269  0.030983656  0.031571752            1 
 1211000    1.0663079   -7.1647512    449.99181   0.03096558  0.031562702            5 
 1212000    1.0816805   -7.1677141    450.30539  0.030961592  0.031553443            2 
 1213000    1.0748247   -7.1300737    450.85734  0.030973986  0.031544266            1 
 1214000    1.0669522   -7.1414898    452.14896  0.031037134  0.031535219            1 
 1215000    1.0424071   -7.1571399    452.69348  0.031048935  0.031526211            2 
 1216000      1.04667   -7.1685333    450.06329  0.030843153  0.031517079            2 
 1217000     1.040906   -7.1412777     452.6842  0.030997275  0.031507855            3 
 1218000    1.0577272   -7.1601581    452.25807   0.03094267   0.03149899            3 
 1219000    1.0520824   -7.1384558    453.38715  0.030994473  0.031489767            3 
 1220000      1.04302    -7.148919    452.16725  0.030885741   0.03148062            1 
 1221000    1.0562313   -7.1390376    452.22385  0.030864309  0.031471546            2 
 1222000    1.0481575   -7.1373525    453.99598    0.0309599   0.03146264            1 
 1223000    1.0412956   -7.2116703    454.29743  0.030955126  0.031453763            2 
 1224000    1.0621458   -7.1549066     453.7797  0.030894587  0.031444967            2 
 1225000    1.0430412   -7.1397195    455.88035  0.031012269  0.031436269            1 
 1226000    1.0516626   -7.1438303    455.02196  0.030928627  0.031427733            1 
 1227000     1.055374   -7.1444224     457.1039  0.031044818  0.031419096            3 
 1228000    1.0528241   -7.1347257    454.35207  0.030832795  0.031410424            1 
 1229000    1.0688865   -7.1287149    455.71786  0.030900316  0.031401798            2 
 1230000    1.0617961   -7.1410898    458.00827   0.03103037  0.031393468            1 
 1231000    1.0479134   -7.0818801    458.05643  0.031008423  0.031385072            1 
 1232000    1.0526651   -7.1611587    456.22305  0.030859243  0.031376621            1 
 1233000    1.0547368   -7.1723679     457.4654  0.030918181  0.031368095            2 
 1234000    1.0275978   -7.1643178     458.0221   0.03093072  0.031359496            1 
 1235000    1.0580973   -7.1473683    459.29274  0.030991413  0.031351034            4 
 1236000    1.0331272    -7.191376    458.16252  0.030890138   0.03134239            2 
 1237000    1.0651681   -7.1608979    459.36654  0.030946277  0.031333878            2 
 1238000    1.0472127   -7.1608009    459.89775  0.030957038  0.031325401            1 
 1239000    1.0560135   -7.1040946    459.23052  0.030887175   0.03131696            2 
 1240000    1.0511463   -7.1521539    458.18075  0.030791717  0.031308415            1 
 1241000    1.0908216   -7.1409515    459.81181  0.030876431  0.031299801            4 
 1242000    1.0743693   -7.1710434    458.88227  0.030789202  0.031291126            1 
 1243000    1.0698948   -7.1542464    458.82149  0.030760358  0.031282374            2 
 1244000    1.0584955   -7.1852199    460.33125  0.030836767  0.031273572            6 
 1245000    1.0467189   -7.1991963    459.45257  0.030753184  0.031264826            2 
 1246000    1.0538894   -7.2037928    459.50153  0.030731777  0.031256057            3 
 1247000    1.0549333     -7.15995    458.97831  0.030672167  0.031247297            3 
 1248000    1.0558972   -7.1455849    459.82566   0.03070417  0.031238372            2 
 1249000    1.0575162   -7.1271006     461.2015  0.030771384  0.031229353            4 
 1250000      1.06001   -7.1572895    461.53656  0.030769104  0.031220471            2 
 1251000    1.0483693   -7.1306811    460.60003  0.030682123  0.031211554            2 
 1252000    1.0635624   -7.1423057    461.53367   0.03071976  0.031202735            4 
 1253000     1.051233   -7.1521643    462.76501  0.030777135  0.031193989            1 
 1254000    1.0430122   -7.1426915    462.38853  0.030727574  0.031185216            2 
 1255000    1.0552143   -7.1996723    461.23437  0.030626452  0.031176305            2 
 1256000    1.0289315   -7.1694149    462.82186  0.030707395  0.031167665            1 
 1257000    1.0578827   -7.1682653    462.87784  0.030686677  0.031158992            2 
 1258000    1.0542572    -7.138225    461.21495   0.03055213  0.031150283            1 
 1259000    1.0581133   -7.1392681    462.62411  0.030621135  0.031141469            2 
 1260000    1.0620829   -7.1902764    463.17705  0.030633403   0.03113274            2 
 1261000    1.0306627    -7.139001     464.9622  0.030727082  0.031123946            1 
 1262000    1.0407736   -7.1691707    462.95304  0.030570063  0.031115087            2 
 1263000    1.0534602   -7.1690372    463.69278  0.030594668  0.031106124            2 
 1264000    1.0509624   -7.1501519    462.79435  0.030511231   0.03109691            2 
 1265000    1.0552308   -7.2194678     463.6204  0.030541528  0.031087905            1 
 1266000    1.0496874   -7.1979185    463.95883  0.030539681  0.031079052            2 
 1267000    1.0641129   -7.1852322     463.8651  0.030509412  0.031069984            3 
 1268000    1.0406514   -7.1923188    463.88246  0.030486492  0.031060943            2 
 1269000    1.0696291   -7.1762634    464.29171  0.030489343   0.03105193            3 
 1270000    1.0089351    -7.209124     463.5358  0.030415735  0.031042937            1 
 1271000    1.0273568   -7.1413188     467.1709   0.03063014  0.031033831            2 
 1272000    1.0439784   -7.1173359     467.0382  0.030597366  0.031024819            2 
 1273000    1.0396014   -7.1550338    466.07054  0.030509986  0.031015972            1 
 1274000    1.0458377   -7.1678754    465.33136  0.030437687  0.031007054            1 
 1275000    1.0528534   -7.1701307    466.73081  0.030505281  0.030998088            3 
 1276000    1.0451804    -7.129179    467.00342  0.030499178  0.030989351            2 
 1277000    1.0503648   -7.2091155    467.25356  0.030491618  0.030980322            1 
 1278000    1.0645868   -7.1482221    466.99592   0.03045096  0.030971364            2 
 1279000    1.0390709   -7.1557979     467.2632  0.030444566  0.030962598            2 
 1280000    1.0411088   -7.1629704    467.10101  0.030410222  0.030953733            1 
 1281000    1.0480854   -7.1849424    469.56511   0.03054678  0.030944788            2 
 1282000    1.0621803   -7.1855746    468.17456  0.030432564  0.030936036            1 
 1283000    1.0577106   -7.1673503    469.26778  0.030479851  0.030927228            3 
 1284000    1.0359478   -7.1912925    468.90994  0.030432888  0.030918388            2 
 1285000    1.0538884   -7.1986622    469.68521  0.030459482  0.030909552            2 
 1286000    1.0631179   -7.1865867    471.01908  0.030522232  0.030900884            3 
 1287000    1.0244486   -7.1857897    470.97112   0.03049541   0.03089226            1 
 1288000    1.0517066   -7.2385959    470.59284   0.03044726  0.030883573            2 
 1289000    1.0406805   -7.2069389    469.85012  0.030375622  0.030874972            1 
 1290000    1.0567812    -7.183277    471.50978  0.030459288  0.030866373            2 
 1291000    1.0624644   -7.1944755     471.4479    0.0304317  0.030857796            2 
 1292000    1.0342741   -7.1854145    471.63825  0.030420424  0.030849253            1 
 1293000    1.0446114   -7.1722737    473.42733  0.030512202  0.030840779            1 
 1294000    1.0338133   -7.1526274    472.94017   0.03045725  0.030832404            2 
 1295000    1.0642151   -7.2019063      470.894   0.03030206   0.03082381            3 
 1296000    1.0403968   -7.1501387    472.45237  0.030378882  0.030815217            2 
 1297000    1.0458829   -7.1624286    473.94485  0.030451353  0.030806908            2 
 1298000     1.030585   -7.2010732    472.84991  0.030357596  0.030798542            4 
 1299000    1.0368552   -7.1925979    473.66457  0.030386488   0.03078998            2 
 1300000    1.0195185   -7.1669143    472.85975  0.030311522  0.030781435            2 
 1301000    1.0334293   -7.1855101    472.29198  0.030251857  0.030772661            2 
 1302000    1.0332932   -7.1829209    473.71623  0.030319779  0.030763933            1 
 1303000    1.0543586   -7.1801983    474.91684  0.030373295  0.030755357            1 
 1304000     1.031424   -7.2152421    473.37454   0.03025144   0.03074669            2 
 1305000    1.0374495    -7.186214    474.63943  0.030309031  0.030738004            1 
 1306000    1.0398511   -7.1940674    473.92838  0.030240453  0.030729369            3 
 1307000    1.0323116   -7.1583696    476.36337  0.030372569  0.030720818            4 
 1308000    1.0191524   -7.1773808    475.97863  0.030324836  0.030712409            3 
 1309000    1.0391149   -7.1501242    475.67166  0.030282128  0.030703836            2 
 1310000    1.0402188   -7.2068312    474.79562  0.030203284  0.030695271            1 
 1311000     1.015095   -7.1703309    475.75009  0.030240916   0.03068668            2 
 1312000    1.0453115   -7.2169645    476.96769  0.030295204  0.030678025            3 
 1313000    1.0235348   -7.1750978     477.0932  0.030280097  0.030669368            2 
 1314000    1.0588768    -7.185071    476.62921  0.030227626  0.030660775            3 
 1315000    1.0252601   -7.1945657    476.05667  0.030168357  0.030652064            2 
 1316000    1.0529897   -7.1841754    476.68824  0.030185425  0.030643358            3 
 1317000     1.033845   -7.1698705    477.78438  0.030231864  0.030634715            2 
 1318000     1.012661   -7.1851383    477.72363  0.030205085  0.030626174            4 
 1319000    1.0504094   -7.2025483    477.62651   0.03017605  0.030617323            3 
 1320000    1.0386274   -7.2149097    478.77527  0.030225711  0.030608636            2 
 1321000     1.052978   -7.1777388    477.72148  0.030136353  0.030600024            2 
 1322000    1.0601191   -7.1582567    480.21049  0.030270455   0.03059145            2 
 1323000    1.0460159   -7.1413734    479.94864  0.030231081  0.030582945            2 
 1324000    1.0311063   -7.1881785    479.71251  0.030193385  0.030574476            3 
 1325000    1.0174077   -7.2339727    479.61439  0.030164427  0.030566152            1 
 1326000    1.0427672   -7.2042782     479.6294  0.030142622  0.030557771            3 
 1327000     1.031795   -7.1897373    480.56546   0.03017869  0.030549373            4 
 1328000    1.0497584   -7.2235404    479.97637  0.030118999  0.030540967            1 
 1329000      1.05251   -7.1920458    482.04432  0.030226004  0.030532721            3 
 1330000    1.0345108   -7.1772486    481.59911  0.030175383  0.030524551            2 
 1331000    1.0373333   -7.2115145    480.61753  0.030091255  0.030516247            6 
 1332000    1.0481558   -7.2377324    481.68746  0.030135602  0.030507907            2 
 1333000     1.057234   -7.1775637    482.63521  0.030172244  0.030499624            3 
 1334000    1.0378727   -7.2154932    482.84202  0.030162545  0.030491524            2 
 1335000    1.0453783   -7.1733921    482.67605  0.030129591  0.030483382            1 
 1336000    1.0497137   -7.1584732    485.16146  0.030262067  0.030475419            1 
 1337000    1.0480905   -7.2075273    483.87224  0.030159078  0.030467508            4 
 1338000    1.0248915   -7.2180477    482.89599  0.030075734  0.030459479            3 
 1339000    1.0678769   -7.2025722    484.51847  0.030154249  0.030451382            3 
 1340000    1.0314598   -7.1771743    483.60963  0.030075226  0.030443239            3 
 1341000    1.0274576   -7.1520973    485.86334   0.03019285  0.030435134            2 
 1342000    1.0404375    -7.207929    485.87006  0.030170769  0.030427114            2 
 1343000    1.0320312   -7.1451941    485.80653  0.030144361  0.030419123            1 
 1344000    1.0275325   -7.1757261    487.32028  0.030215791  0.030411183            2 
 1345000    1.0266694   -7.1968548      487.071  0.030177881  0.030403058            1 
 1346000    1.0177224   -7.1895197    485.42719  0.030053689  0.030394923            3 
 1347000     1.057822    -7.202056    486.67157  0.030108362  0.030386829            2 
 1348000    1.0242372   -7.2220489    486.48367  0.030074411  0.030378797            2 
 1349000    1.0384664    -7.215163    485.77058  0.030008067  0.030370733            2 
 1350000    1.0428956   -7.2246851    488.40148   0.03014824  0.030362729            2 
 1351000    1.0623773   -7.1402233    488.00293   0.03010134   0.03035477            1 
 1352000    1.0341785   -7.2050198    488.02123  0.030080204   0.03034676            5 
 1353000    1.0413208   -7.2253751    487.47528  0.030024346   0.03033881            1 
 1354000    1.0453903   -7.2222457     488.4982  0.030065128  0.030330786            1 
 1355000    1.0294836   -7.1901917     488.5877  0.030048444  0.030322739            3 
 1356000    1.0551717   -7.2453104    487.91205  0.029984762  0.030314666            2 
 1357000    1.0404113   -7.1877455    488.41586  0.029993605  0.030306639            4 
 1358000    1.0254288   -7.2047834    487.66406  0.029925384  0.030298429            1 
 1359000    1.0507713   -7.1995663     490.3069  0.030065422  0.030290276            2 
 1360000    1.0450468   -7.2068251    489.93869  0.030020753  0.030282247            1 
 1361000    1.0230147   -7.1977455    488.67874  0.029921549   0.03027426            1 
 1362000    1.0676837   -7.1891184    490.82087  0.030030646   0.03026623            1 
 1363000    1.0270246   -7.2135522    491.30898  0.030038456  0.030258397            2 
 1364000    1.0339119   -7.1797294    491.74373  0.030042994  0.030250418            4 
 1365000    1.0203533   -7.2001266     490.1768  0.029925324  0.030242481            2 
 1366000     1.039746    -7.220077    489.48783  0.029861385  0.030234417            2 
 1367000    1.0473046   -7.2170411    489.74129  0.029854992  0.030226193            1 
 1368000    1.0214162   -7.2096462    490.24826  0.029864051  0.030218014            1 
 1369000    1.0314648   -7.1721447    491.34857  0.029909214  0.030209712            3 
 1370000    1.0091777   -7.2029134    490.70993  0.029848536  0.030201199            3 
 1371000    1.0396424   -7.2038974    490.50666  0.029814409  0.030192581            2 
 1372000    1.0584597   -7.2069445    489.52508  0.029733059  0.030183993            3 
 1373000    1.0474953   -7.1620022    491.42722  0.029826852  0.030175388            2 
 1374000    1.0250306    -7.204162    490.41122  0.029743524  0.030166709            2 
 1375000    1.0252334   -7.2268922    490.43972  0.029723619  0.030158047            2 
 1376000    1.0373635   -7.1995326    490.90211  0.029730021   0.03014944            1 
 1377000     1.047497   -7.1912184    490.94146  0.029710812   0.03014082            5 
 1378000    1.0194853   -7.2182483     490.6852  0.029673754  0.030132141            2 
 1379000     1.041728   -7.2094948    492.51299   0.02976269  0.030123492            3 
 1380000    1.0264539   -7.2071676     493.0183  0.029771636  0.030114953            2 
 1381000     1.022974   -7.2187325    492.65555  0.029728189  0.030106452            4 
 1382000    1.0434481   -7.1927184    493.60925  0.029764185  0.030097763            4 
 1383000    1.0556467   -7.2386207    491.34682   0.02960634  0.030089108            1 
 1384000    1.0170141   -7.2372168    493.22628  0.029698114  0.030080463            4 
 1385000    1.0276538    -7.204193    493.25201   0.02967822  0.030071734            3 
 1386000    1.0118899   -7.2205499    494.11291  0.029708569  0.030063214            3 
 1387000    1.0327298   -7.2386732    492.53677  0.029592452  0.030054747            3 
 1388000    1.0086065   -7.2329927    494.51248   0.02968975  0.030046262            1 
 1389000    1.0292875   -7.2085823    494.71407   0.02968047  0.030037869            2 
 1390000    1.0183367   -7.2064089    495.90711  0.029730642  0.030029655            1 
 1391000    1.0399944   -7.2274428    493.28344  0.029552087  0.030021162            1 
 1392000    1.0332871   -7.1993789     495.5414  0.029666032  0.030012731            2 
 1393000    1.0144532   -7.2305531    496.25773  0.029687588  0.030004284            2 
 1394000     1.057021   -7.2194246     496.1885  0.029662153  0.029995796            3 
 1395000    1.0401396   -7.2523429    495.63967  0.029608104  0.029987264            2 
 1396000    1.0444565   -7.2224027    493.12783  0.029436952  0.029978479            2 
 1397000    1.0308204   -7.2098968    495.49275  0.029556952  0.029969796            4 
 1398000    1.0292344   -7.2221425     496.0215  0.029567328  0.029961115            2 
 1399000    1.0034992   -7.1938916    494.88436  0.029478459  0.029952289            5 
 1400000    1.0392423   -7.1639546    494.94723  0.029461145  0.029943509            3 
 1401000    1.0250416   -7.2250151    496.32764  0.029522224  0.029934635            2 
 1402000     1.051996   -7.2143585    496.07531  0.029486169  0.029925742            2 
 1403000    1.0198812   -7.2156948    494.52567   0.02937311  0.029916884            2 
 1404000    1.0433274   -7.2305938    497.58096  0.029533533  0.029908104            2 
 1405000    1.0230341   -7.2174883    495.10582  0.029365707  0.029899094            2 
 1406000    1.0305081   -7.2226907    495.05252  0.029341662  0.029890184            4 
 1407000    1.0242523   -7.2348762    496.84525  0.029426987  0.029881193            2 
 1408000    1.0175742   -7.2571019    495.67504  0.029336828  0.029872266            4 
 1409000    1.0020538   -7.2018124    496.74682  0.029379395  0.029863196            2 
 1410000      1.00198   -7.2230342    496.44604  0.029340782  0.029854155            3 
 1411000     1.043817   -7.2107418     497.0151  0.029353597  0.029845016            1 
 1412000    1.0180433   -7.2149444    497.08143  0.029336723  0.029836125            2 
 1413000    1.0107003   -7.2047515    496.88367  0.029304298  0.029827255            1 
 1414000    1.0461457   -7.2222694    498.21037  0.029361762  0.029818455            2 
 1415000    1.0397377   -7.2194748    497.76851  0.029314989  0.029809519            1 
 1416000    1.0094046   -7.2053553     499.4507  0.029393285  0.029800435            1 
 1417000    1.0239349   -7.2156785    497.07897  0.029233061  0.029791387            2 
 1418000    1.0239054   -7.2170098    498.87209  0.029317824  0.029782344            3 
 1419000    1.0415094   -7.2421194    497.12023  0.029194282  0.029773341            2 
 1420000    1.0300435   -7.2213833    499.34762  0.029304438  0.029764321            1 
 1421000    1.0216038   -7.2276077    500.61197  0.029357962  0.029755326            1 
 1422000    1.0329979   -7.2275855    499.23254  0.029256478  0.029746276            2 
 1423000    1.0184885   -7.2575443    498.68724  0.029203985  0.029737156            3 
 1424000    1.0172489   -7.1940703    501.03195   0.02932069  0.029728155            1 
 1425000    1.0322509    -7.231739    501.92991  0.029352627  0.029719278            2 
 1426000    1.0103693   -7.2027166    500.97868  0.029276454  0.029710422            1 
 1427000    1.0176537   -7.2167175    501.89564  0.029309486  0.029701637            1 
 1428000    1.0275468   -7.2199093    501.71211  0.029278251    0.0296927            2 
 1429000    1.0238374   -7.2411779    500.19762  0.029169443  0.029683924            3 
 1430000   0.99890736   -7.2266515    503.38989  0.029335075  0.029675091            1 
 1431000    1.0366654   -7.2135245     501.9905  0.029233083  0.029666246            3 
 1432000    1.0087193   -7.2052327    502.23133  0.029226683  0.029657415            3 
 1433000     1.022182   -7.2458544    502.06911  0.029196855  0.029648598            3 
 1434000   0.99951815    -7.213434    503.86702  0.029280975  0.029639786            1 
 1435000    1.0134489   -7.2321458    501.75831  0.029138113   0.02963087            2 
 1436000    1.0325227   -7.2221646    502.10238  0.029137789  0.029621839            3 
 1437000    1.0276163   -7.1982644    503.28152  0.029185892  0.029612792            2 
 1438000    1.0330195   -7.2392479    503.16485  0.029158835   0.02960382            2 
 1439000    1.0264645   -7.2477284    502.62209   0.02910714   0.02959488            1 
 1440000   0.99351877   -7.2238915    503.67843  0.029148057  0.029586063            2 
 1441000    1.0215336   -7.2247169    504.96196  0.029202056  0.029577202            2 
 1442000    1.0322533   -7.2384666    504.31781   0.02914458  0.029568478            1 
 1443000    1.0006458   -7.2717197    504.35959  0.029126796  0.029559805            5 
 1444000   0.99165678   -7.2132351    505.32744  0.029162479  0.029551053            2 
 1445000    1.0176917   -7.2220413    506.20272  0.029192775  0.029542289            2 
 1446000    1.0411014   -7.1974558    505.53281  0.029133979  0.029533608            3 
 1447000    1.0273544   -7.2143171    507.13969  0.029206386  0.029524974            4 
 1448000    1.0421772   -7.2224307    505.62646  0.029099129  0.029516352            2 
 1449000    1.0099623   -7.2159335     505.5509  0.029074701  0.029507721            1 
 1450000    1.0270385   -7.1987592    507.09455  0.029143365  0.029499015            3 
 1451000    1.0097677   -7.2384621    506.84961  0.029109212  0.029490485            2 
 1452000    1.0164025   -7.2402269    507.39918  0.029120706  0.029481936            3 
 1453000    1.0171659   -7.2390162    507.84916  0.029126472  0.029473446            1 
 1454000     1.007109   -7.2330992    507.68991  0.029097313  0.029464935            4 
 1455000    1.0375776   -7.2345606    506.73737  0.029022759  0.029456318            3 
 1456000   0.99876745   -7.2527915    505.71323   0.02894421  0.029447582            3 
 1457000    1.0117145   -7.2409864    507.74637   0.02904063   0.02943862            2 
 1458000     1.013044   -7.2201184    507.27071  0.028993525  0.029429667            1 
 1459000    1.0422428   -7.2575667    507.61073  0.028993073  0.029420893            2 
 1460000    1.0347655   -7.2363594    507.45242  0.028964179  0.029412072            3 
 1461000     1.012324   -7.2346699    507.01364  0.028919327  0.029403344            2 
 1462000    1.0433725   -7.2720653    508.54456  0.028986808  0.029394455            1 
 1463000    1.0149669   -7.2705961    507.21513   0.02889127  0.029385477            1 
 1464000    1.0197161   -7.2029776    508.89998  0.028967439  0.029376492            2 
 1465000    1.0079595   -7.2487115    508.59298  0.028930204  0.029367679            2 
 1466000    1.0261099   -7.2346278    509.57373   0.02896622  0.029358801            2 
 1467000    1.0171124   -7.2791391     508.8536  0.028905567  0.029350049            1 
 1468000    1.0154177   -7.2239997    509.03299   0.02889606  0.029341276            2 
 1469000    1.0296885   -7.2481227    508.77238  0.028861605  0.029332294            4 
 1470000    1.0258941   -7.2495232    509.11891  0.028861616  0.029323294            2 
 1471000    1.0039231   -7.2552558    508.29188  0.028795144   0.02931436            1 
 1472000   0.99782359   -7.2337491    510.17762  0.028882338  0.029305531            3 
 1473000    1.0200854   -7.2091134    510.24416  0.028866495  0.029296633            1 
 1474000    1.0270839   -7.2050617    510.40423  0.028855961  0.029287872            1 
 1475000     1.000691   -7.2286491    510.86175  0.028862246  0.029278983            2 
 1476000    1.0057721   -7.2425358    510.68969  0.028832977  0.029270194            1 
 1477000    1.0294514   -7.2484304    511.27244  0.028846335  0.029261358            2 
 1478000    1.0061841   -7.2515731    512.08856  0.028872833   0.02925247            2 
 1479000    1.0278883   -7.2278935    509.68307  0.028717775  0.029243679            1 
 1480000    1.0195029   -7.2820565    510.12705   0.02872337  0.029234865            2 
 1481000    1.0179116   -7.2360131    511.72525  0.028793903  0.029225908            1 
 1482000    1.0199138    -7.239023    512.69537  0.028829025  0.029216975            3 
 1483000   0.99956814   -7.2662749    511.80849  0.028759749  0.029208043            2 
 1484000    1.0298812   -7.2786879    511.27132  0.028710205   0.02919914            2 
 1485000    1.0088034   -7.2229986    512.10043  0.028737398   0.02919009            3 
 1486000    1.0101322   -7.2382337    512.57503  0.028744674  0.029181219            4 
 1487000    1.0291943   -7.2559475    513.86215  0.028797475  0.029172332            3 
 1488000    1.0093161     -7.24127    513.89174  0.028779779  0.029163404            2 
 1489000    1.0235025   -7.2054485    514.50622  0.028794841  0.029154533            2 
 1490000   0.99778305    -7.243159    513.69047  0.028729892  0.029145728            2 
 1491000    1.0268878   -7.2434773    513.05729  0.028675234  0.029136936            1 
 1492000   0.99534374   -7.2500245    514.03967  0.028710884  0.029127862            2 
 1493000    1.0089935    -7.253365    515.11194  0.028751504  0.029119048            1 
 1494000    1.0147401   -7.2672053    515.11557  0.028732461  0.029110203            2 
 1495000    1.0200056   -7.2444799    515.18539  0.028717134  0.029101594            2 
 1496000   0.99679297   -7.2290284     515.8303  0.028733862  0.029093033            3 
 1497000    1.0121462   -7.2739839    515.90011  0.028718554  0.029084534            2 
 1498000    1.0004801   -7.2567051    515.95882  0.028702649  0.029075997            2 
 1499000    1.0187253   -7.2580166    516.69308  0.028724321  0.029067538            5 
 1500000    1.0168388   -7.2518329    518.09726  0.028783181   0.02905906            3 
 1501000    1.0218844   -7.2713547    516.06351  0.028651094  0.029050544            2 
 1502000    1.0124266    -7.290897    517.29257  0.028700209  0.029041989            2 
 1503000    1.0033876   -7.2599216    518.16732  0.028729614  0.029033504            2 
 1504000    1.0287612   -7.2303184    518.27974  0.028716741  0.029025135            2 
 1505000    1.0052321   -7.2481683    518.82605   0.02872791  0.029016695            3 
 1506000    1.0238515   -7.2707208     517.0733  0.028611847  0.029008264            2 
 1507000    1.0027148   -7.2317391    518.28182  0.028659689  0.028999692            2 
 1508000    1.0213287   -7.2516762    517.80791  0.028614496  0.028991233            1 
 1509000    1.0129683    -7.305113     517.7011  0.028589634  0.028982631            2 
 1510000    1.0047727   -7.2587164    518.36625  0.028607409  0.028974079            3 
 1511000   0.98864478   -7.2515577    518.48157  0.028594836  0.028965532            1 
 1512000    1.0180051   -7.2589196    518.21602  0.028561288  0.028956825            6 
 1513000    1.0158407   -7.2448155    519.12546  0.028592502  0.028948227            1 
 1514000   0.99309441   -7.2392277    519.35478  0.028586238  0.028939538            1 
 1515000    1.0040963    -7.249958    519.33618  0.028566347  0.028930934            2 
 1516000     1.009651   -7.2453275    519.71051   0.02856808  0.028922222            3 
 1517000    1.0063108   -7.2378769    520.25764  0.028579303  0.028913652            4 
 1518000     1.001301   -7.2634368    520.47497  0.028572407  0.028904922            2 
 1519000   0.99171706   -7.2866848    520.02876  0.028529118  0.028896345            1 
 1520000    1.0034647   -7.2608134    520.50998  0.028536731  0.028887597            5 
 1521000   0.98408942   -7.2738279    520.78121   0.02853283  0.028878942            2 
 1522000     1.026927   -7.2779162    520.10606  0.028477116  0.028870378            2 
 1523000    1.0005251    -7.275537     520.3535  0.028471958   0.02886179            2 
 1524000    1.0185786   -7.2859997    520.42204  0.028457023  0.028853254            2 
 1525000    1.0095568   -7.2876146    519.91732  0.028410783  0.028844647            1 
 1526000    0.9948498   -7.2500325    522.86497  0.028553133  0.028835991            2 
 1527000    1.0126848   -7.2079662    522.51761  0.028515478  0.028827488            1 
 1528000   0.98975795    -7.224175    523.08437  0.028527725  0.028819031            2 
 1529000    1.0167696   -7.2760184    521.67817  0.028432427  0.028810475            1 
 1530000   0.99748714     -7.27313    521.99779  0.028431252  0.028801892            4 
 1531000    1.0051309   -7.2327757    522.80198  0.028456454  0.028793364            4 
 1532000    1.0091799   -7.2469991    525.15834  0.028566054   0.02878486            4 
 1533000    1.0043381   -7.2522212    524.02299  0.028485703  0.028776312            3 
 1534000    1.0017621   -7.2668106     522.6327  0.028391607  0.028767754            3 
 1535000   0.99502662   -7.2434859    524.39567   0.02846882  0.028759225            1 
 1536000    1.0113659   -7.2203258     525.3458  0.028501834  0.028750776            3 
 1537000   0.99154192   -7.2634985    525.28239  0.028479852  0.028742264            2 
 1538000    1.0020672    -7.277837    523.74144  0.028377841  0.028733599            2 
 1539000    1.0007219   -7.3133143    523.81559  0.028363417   0.02872498            1 
 1540000   0.98438064   -7.2379957    525.48481  0.028435325  0.028716372            1 
 1541000   0.99521895   -7.2752333     524.5159  0.028364477  0.028707898            2 
 1542000   0.99206002   -7.2629723    523.84717  0.028309942  0.028699351            2 
 1543000    1.0094178   -7.2567555    526.62755  0.028441756  0.028690914            3 
 1544000    1.0104209   -7.2630358    526.41568    0.0284119  0.028682337            1 
 1545000    1.0341593   -7.2393647     525.9872  0.028370399  0.028673964            4 
 1546000   0.99484392   -7.2662223    525.42796  0.028321904  0.028665524            4 
 1547000    1.0222435   -7.2611185    526.70769  0.028372532  0.028656958            1 
 1548000    1.0081931   -7.2460719    526.02522  0.028317464  0.028648466            2 
 1549000    1.0038893   -7.2643308    526.09573  0.028302977  0.028639932            2 
 1550000    1.0159468   -7.2521682    528.00877  0.028387568  0.028631392            2 
 1551000    1.0079825   -7.2877829    527.14437  0.028322822  0.028622928            4 
 1552000   0.99590768   -7.2974133    526.57848  0.028274188  0.028614427            2 
 1553000    1.0168447   -7.2548188    528.01975   0.02833332  0.028605926            2 
 1554000    1.0027267   -7.3073312    525.84276  0.028198346  0.028597442            2 
 1555000    1.0059695   -7.2753504    527.16566  0.028251107  0.028588796            3 
 1556000    1.0024194   -7.2723055    528.08295  0.028282077  0.028580186            5 
 1557000    1.0023717    -7.274018    526.12433  0.028159084  0.028571563            2 
 1558000    1.0178246   -7.2753731    527.43951  0.028211356  0.028562885            2 
 1559000    1.0041003   -7.2636176    528.61563  0.028256127  0.028554339            2 
 1560000    1.0159996   -7.2545053     528.6005  0.028237206  0.028545779            1 
 1561000    1.0325848   -7.2309361    528.72963  0.028226011  0.028537186            2 
 1562000    1.0173489   -7.2884212    527.52713  0.028143786   0.02852863            3 
 1563000   0.99242459   -7.2516368    528.71267  0.028188988  0.028519998            1 
 1564000   0.98868743   -7.2273392    528.77356  0.028174209  0.028511446            1 
 1565000   0.99898155   -7.2893577    527.26091  0.028075661  0.028502747            2 
 1566000   0.99393841   -7.2899186    527.17801  0.028053321  0.028494016            3 
 1567000   0.98869396   -7.2630482    528.57697  0.028109816  0.028485232            3 
 1568000   0.98577065   -7.3140821    528.15377  0.028069397  0.028476434            4 
 1569000    1.0174973   -7.2775716    529.38965  0.028117147  0.028467662            1 
 1570000    1.0065717   -7.2558143    529.48163   0.02810412  0.028458911            2 
 1571000   0.99688566   -7.2680971    529.80382  0.028103322   0.02845012            2 
 1572000    1.0195793   -7.2639879    529.05196  0.028045587  0.028441237            2 
 1573000    1.0204622   -7.3141873    528.33333  0.027989687  0.028432425            1 
 1574000   0.99536992   -7.2829812     529.4087  0.028028838  0.028423564            3 
 1575000   0.99077833   -7.2900483    529.79475  0.028031468  0.028414671            2 
 1576000   0.98299503   -7.2868195    529.50932  0.027998589  0.028405742            2 
 1577000    1.0000228   -7.2682871    530.84049  0.028051178  0.028396994            3 
 1578000   0.99506643    -7.256314    529.94518  0.027986121  0.028388134            1 
 1579000    1.0009823   -7.2341096    530.87969  0.028017716  0.028379344            2 
 1580000   0.98307867   -7.2676272    530.04734  0.027956083  0.028370555            3 
 1581000    0.9848213   -7.2870109    529.86102   0.02792858  0.028361652            3 
 1582000    1.0038757   -7.2978758    529.95272  0.027915756  0.028352739            1 
 1583000   0.99081843   -7.3185185    530.27632  0.027915157  0.028343836            3 
 1584000   0.99646561   -7.2024929    532.25082  0.028001411  0.028335085            1 
 1585000    1.0079083   -7.2582635    532.07349  0.027974421  0.028326323            1 
 1586000   0.99609336   -7.2866309    531.97855  0.027951794  0.028317618            2 
 1587000   0.99703564   -7.3108791    531.90723  0.027930437  0.028308923            2 
 1588000    1.0050246   -7.2995121    531.68889   0.02790139  0.028300261            2 
 1589000   0.98263919   -7.2601967    533.68378  0.027988451  0.028291661            2 
 1590000   0.98887876   -7.2486008    532.95181  0.027932485  0.028283102            2 
 1591000   0.99822867   -7.2910859    533.25132  0.027930616  0.028274444            1 
 1592000    0.9964318   -7.2847394    532.69723  0.027884068  0.028265803            3 
 1593000   0.98389341   -7.2592193    532.87807  0.027876024  0.028257067            2 
 1594000    1.0060159   -7.2518522    534.28268  0.027931968  0.028248423            3 
 1595000   0.99466073   -7.2898461    532.88855  0.027841617  0.028239757            3 
 1596000    1.0015522   -7.2934451    533.77126  0.027870262  0.028231083            2 
 1597000   0.97870329   -7.3017535    533.51224  0.027839294  0.028222436            3 
 1598000    1.0081051   -7.2368565    534.67206  0.027882356  0.028213888            2 
 1599000    1.0110577   -7.2811203    535.47284  0.027906652  0.028205329            4 
 1600000    1.0020185   -7.3097275    533.66383  0.027794991  0.028196721            5 
 1601000    1.0022739   -7.3084766     535.2755  0.027861519  0.028188207            2 
 1602000    0.9972986   -7.2897617    534.94614  0.027826995  0.028179737            4 
 1603000   0.98764384   -7.2638903    536.25788  0.027877827   0.02817119            3 
 1604000   0.99216727   -7.2888394    535.60096  0.027826317  0.028162691            4 
 1605000   0.98717141   -7.2755025    537.25789   0.02789501  0.028154196            3 
 1606000     1.025704   -7.3156851    536.93753  0.027861018  0.028145879            1 
 1607000    0.9801522   -7.2851681    537.21624  0.027858133  0.028137407            3 
 1608000    1.0012225   -7.3045861    536.98108  0.027828622  0.028128918            1 
 1609000   0.98262692   -7.2609454    537.63917   0.02784541  0.028120512            2 
 1610000    1.0123119   -7.2909742    538.35285  0.027865054  0.028112167            1 
 1611000     0.997201   -7.3136279    538.66883  0.027864103  0.028103765            4 
 1612000    1.0113407   -7.3069511    538.04513  0.027814574   0.02809537            3 
 1613000    1.0034055   -7.2927577    537.88124  0.027788863  0.028086943            1 
 1614000    1.0001132   -7.2917611    538.55991  0.027806687  0.028078563            5 
 1615000   0.99175039   -7.3187272    536.90822  0.027704243  0.028070093            1 
 1616000   0.99276442   -7.2964341    539.98171  0.027845591  0.028061732            1 
 1617000   0.99381397   -7.2922224    539.21195  0.027788701  0.028053392            1 
 1618000    0.9953661   -7.3097393    538.65174  0.027742673  0.028044923            3 
 1619000     1.002261   -7.2842317    539.50094  0.027769247  0.028036493            2 
 1620000   0.99985277   -7.3051877    538.82698  0.027717437  0.028028029            2 
 1621000    1.0015286   -7.2999508    538.31991   0.02767427  0.028019469            1 
 1622000   0.97783801   -7.2481668    539.54388  0.027720093  0.028011066            2 
 1623000   0.98944083   -7.2936359    539.54292  0.027702964  0.028002644            2 
 1624000    0.9835041   -7.2737877    540.93052  0.027757108  0.027994278            2 
 1625000   0.97808406   -7.2973582    540.55994  0.027721022  0.027985854            2 
 1626000   0.99570353   -7.2856073    539.03806  0.027625977  0.027977404            2 
 1627000   0.97141607   -7.2954661    540.40894  0.027679212   0.02796899            2 
 1628000    1.0012324   -7.2840248    542.07163  0.027747319  0.027960563            1 
 1629000   0.99312635   -7.3235691    540.54603  0.027652242   0.02795222            3 
 1630000    1.0102179   -7.2773323    543.88986   0.02780623  0.027943812            3 
 1631000   0.99709368   -7.2944597     540.3058   0.02760606  0.027935412            2 
 1632000    0.9848948   -7.3060792    541.70635  0.027660659  0.027926991            3 
 1633000   0.98453478   -7.2916769    543.07925  0.027713781  0.027918485            3 
 1634000   0.98497654   -7.3144366    540.57322  0.027569013  0.027909946            2 
 1635000   0.97589369    -7.300381    541.25449  0.027586875  0.027901416            5 
 1636000   0.99044955   -7.2617935    542.08968  0.027612555  0.027892877            1 
 1637000   0.98904363   -7.3046347    541.49329  0.027565327  0.027884324            8 
 1638000   0.98385931   -7.3202141    542.75061  0.027612465  0.027875833            2 
 1639000    0.9841191   -7.3071745    541.56162  0.027535165  0.027867322            2 
 1640000    0.9956361   -7.3103021    542.38491  0.027560209  0.027858772            4 
 1641000    1.0085883   -7.2716031    543.38335  0.027594117  0.027850275            3 
 1642000    1.0020609   -7.2958734    544.07091  0.027612206   0.02784188            3 
 1643000   0.99294459   -7.3206378    543.70677  0.027576931  0.027833514            1 
 1644000   0.97877902   -7.2964527    543.76768  0.027563244  0.027825244            2 
 1645000    1.0076638   -7.2974356    543.76373  0.027546288  0.027816921            4 
 1646000   0.98619654   -7.3135335    545.58672  0.027621847  0.027808675            2 
 1647000    0.9876561   -7.2740427    546.18633  0.027635415  0.027800476            1 
 1648000   0.97212506   -7.2970187    546.81205  0.027650285  0.027792289            3 
 1649000   0.96861962   -7.2960593    547.06668  0.027646386   0.02778412            4 
 1650000   0.97369436   -7.2990595    546.48322  0.027600162  0.027775895            3 
 1651000   0.97399016   -7.2864779    547.23227  0.027621253  0.027767804            2 
 1652000    1.0104385   -7.3060986    547.95707  0.027641095  0.027759763            2 
 1653000   0.97351296   -7.2871129    547.79294  0.027616099   0.02775161            5 
 1654000   0.96553608   -7.2967557    546.08461  0.027513332  0.027743451            2 
 1655000   0.99525462   -7.2498695    547.98295  0.027592294  0.027735269            3 
 1656000   0.98830298   -7.2756288    548.17057  0.027585073  0.027727127            4 
 1657000   0.98777587   -7.2962515    548.13178  0.027566475  0.027718972            1 
 1658000    1.0108607   -7.2862154    547.47155  0.027516664  0.027710744            2 
 1659000   0.99164521   -7.3244714     547.3506  0.027494002  0.027702542            3 
 1660000   0.97451999   -7.3130051    547.77048  0.027498518  0.027694276            2 
 1661000    0.9856278    -7.305317    548.24951  0.027505996  0.027686054            2 
 1662000    1.0140068   -7.3198841    548.02275  0.027478076  0.027677701            2 
 1663000   0.98643169   -7.3228208    546.91695  0.027406141   0.02766943            2 
 1664000   0.99223893   -7.3229956    547.58988  0.027423372  0.027661093            3 
 1665000   0.98655775   -7.3277893    547.76412  0.027415622  0.027652761            1 
 1666000   0.98007429   -7.3021664    547.10659  0.027366276  0.027644412            2 
 1667000   0.97255334   -7.2994785    549.39895  0.027464454  0.027636137            1 
 1668000   0.98100516   -7.2845675    548.79308   0.02741772  0.027627843            1 
 1669000   0.97298949   -7.3354047    547.99407  0.027361397  0.027619636            4 
 1670000   0.98800899   -7.3341749    549.63916  0.027427104  0.027611252            2 
 1671000   0.96598583   -7.3394556    548.28689  0.027343252  0.027602923            3 
 1672000   0.98427898   -7.3489094    548.07183   0.02731618  0.027594624            4 
 1673000   0.98213541   -7.3113735     549.2162  0.027356854  0.027586313            2 
 1674000   0.98741112    -7.282133    550.74675  0.027416704  0.027578137            1 
 1675000   0.98724157   -7.2998255    550.80272   0.02740312   0.02757004            5 
 1676000   0.98851192   -7.3480714    550.59056  0.027376221  0.027561849            2 
 1677000   0.97505203    -7.322108    548.76134  0.027268999  0.027553637            5 
 1678000   0.98136061   -7.2936214    552.38032  0.027432475  0.027545458            1 
 1679000    1.0141023   -7.3359499    551.55183  0.027375017  0.027537422            1 
 1680000   0.98215211   -7.3054764    552.04667  0.027383267  0.027529449            1 
 1681000    0.9949444   -7.3533373    551.20492  0.027325249  0.027521411            2 
 1682000    1.0013945   -7.3203517    551.77786  0.027337389  0.027513444            2 
 1683000    0.9534428   -7.3389222    552.37462  0.027350694  0.027505398            3 
 1684000    0.9910867   -7.2955515    553.05788  0.027368264  0.027497408            3 
 1685000   0.99362152   -7.3240813    553.71567  0.027384554  0.027489491            2 
 1686000   0.98863409   -7.2833686    555.06964  0.027435233  0.027481653            2 
 1687000   0.98786824    -7.305881    554.61158  0.027396344  0.027473757            4 
 1688000   0.97358361   -7.2831687    553.59205  0.027329781  0.027465976            2 
 1689000   0.98653306   -7.3134871    554.52462  0.027359612  0.027458199            2 
 1690000   0.98002001    -7.329367    554.80584   0.02735729  0.027450433            1 
 1691000   0.96611675   -7.3202125    555.77389  0.027388818   0.02744265            2 
 1692000   0.95109884   -7.3380791    554.82913    0.0273261  0.027434791            4 
 1693000   0.96508743   -7.3226979    555.65381  0.027350552  0.027426946            2 
 1694000   0.98130059   -7.3229795    555.73734  0.027338515  0.027419161            4 
 1695000   0.99040899   -7.3472537    555.13881   0.02729296  0.027411352            3 
 1696000   0.99278379   -7.3356352    554.78873  0.027259666  0.027403554            1 
 1697000   0.99027868   -7.3434423    554.56537  0.027232634  0.027395733            1 
 1698000   0.98693667    -7.356612    556.50542  0.027311809  0.027387949            1 
 1699000   0.98803381   -7.3552195    556.01797  0.027271825  0.027380093            1 
 1700000    1.0004218   -7.3023556      556.562  0.027282451  0.027372325            4 
 1701000   0.98187962   -7.3182064    556.67818  0.027272104  0.027364581            1 
 1702000   0.99601416   -7.3409208     556.9949  0.027271587  0.027356767            3 
 1703000   0.96887639   -7.3400371    556.28487  0.027220829  0.027349029            2 
 1704000   0.96846971   -7.3433008    557.22192  0.027250681  0.027341256            2 
 1705000   0.97403234    -7.329446    557.52948   0.02724973  0.027333488            3 
 1706000   0.99439798   -7.3108734    559.05179  0.027308118  0.027325778            2 
 1707000   0.98066563   -7.3109216    558.10393  0.027245847  0.027318075            1 
 1708000    1.0018429   -7.3446155    556.79107   0.02716584   0.02731028            1 
 1709000   0.97136025   -7.3273343    558.38597  0.027227715  0.027302521            4 
 1710000    1.0009538   -7.2957932    559.86161  0.027283704  0.027294874            4 
 1711000   0.98886717   -7.2841907    558.96467  0.027224073  0.027287244            2 
 1712000   0.99836985    -7.350823    559.01441  0.027210593  0.027279605            2 
 1713000   0.98012188   -7.3063472    560.19759  0.027252266  0.027272042            2 
 1714000   0.98387981   -7.3183641    560.55735  0.027253858  0.027264462            4 
 1715000   0.97568744   -7.3343925    559.80317   0.02720132  0.027256769            2 
 1716000    0.9999389   -7.3382922    559.03057  0.027147949  0.027248996            1 
 1717000   0.98515592   -7.2942571    561.09085  0.027232132  0.027241207            3 
 1718000   0.98476119   -7.3130657    560.75429  0.027199956  0.027233379            4 
 1719000   0.97525896   -7.3525421    559.26398  0.027111886   0.02722559            1 
 1720000   0.98962757   -7.3205833    562.38154  0.027247167  0.027217847            4 
 1721000    0.9863665   -7.3394464    560.47803  0.027139165  0.027210175            3 
 1722000   0.98886142   -7.3321506    560.90687  0.027144157  0.027202508            1 
 1723000   0.97623632   -7.3106237    561.71492  0.027167485  0.027194888            2 
 1724000   0.99562901   -7.3377899    561.32455  0.027132857  0.027187179            2 
 1725000   0.95769024   -7.3269598    561.47661  0.027124474  0.027179393            1 
 1726000   0.97317007   -7.3159104    562.17839  0.027142641  0.027171542            2 
 1727000   0.97480518   -7.3590215    560.59232  0.027050392  0.027163776            2 
 1728000   0.96989759   -7.3426263     560.8019  0.027044845  0.027155903            4 
 1729000    0.9787441   -7.3148669    562.49869  0.027110984  0.027148124            2 
 1730000   0.96224909   -7.3671868    562.04909  0.027073656  0.027140313            5 
 1731000   0.97368875   -7.3357838    562.10416  0.027060666  0.027132508            2 
 1732000   0.96452181    -7.327252    561.92317  0.027036334  0.027124734            2 
 1733000   0.95972246   -7.3055569    563.89776  0.027115684  0.027117103            1 
 1734000   0.96234383   -7.3504794    564.53012  0.027130436   0.02710942            5 
 1735000   0.96456388   -7.3622415    562.49872  0.027017229   0.02710171            2 
 1736000   0.97055558   -7.3286074    563.14532  0.027032706  0.027093976            3 
 1737000   0.97936282   -7.3321505    563.92136  0.027054373  0.027086359            2 
 1738000   0.97903234   -7.3611348    564.08122  0.027046472   0.02707877            1 
 1739000   0.93323486   -7.3261694    565.74716  0.027110751  0.027071169            2 
 1740000    0.9761116   -7.3297181    564.62574  0.027041462  0.027063658            3 
 1741000   0.96891799    -7.298587    566.63518  0.027122113   0.02705619            1 
 1742000   0.95876361   -7.3111796    566.16181  0.027083898   0.02704865            1 
 1743000    0.9817659   -7.3388988    562.89284  0.026912069  0.027041069            2 
 1744000   0.98676721   -7.3375727    563.63484  0.026932093   0.02703342            3 
 1745000   0.96917758   -7.3576542     565.6705  0.027013873  0.027025699            4 
 1746000   0.99104357   -7.3368515    564.81438   0.02695754  0.027018017            3 
 1747000   0.94603244   -7.2952801    565.81728  0.026989948  0.027010391            3 
 1748000   0.95747606   -7.3498078    564.77559  0.026924847  0.027002711            2 
 1749000   0.96792204   -7.3438653    566.37177  0.026985505  0.026995093            2 
 1750000    0.9817346   -7.2905343    568.29244  0.027061545  0.026987445            2 
 1751000   0.97633339   -7.3582385      565.779  0.026926471  0.026979753            2 
 1752000   0.95866706   -7.3079037    567.29793  0.026983349  0.026972043            1 
 1753000   0.98084126   -7.3606808     565.1635  0.026866491  0.026964256            2 
 1754000    1.0030042   -7.3418746    565.09749  0.026848037  0.026956458            3 
 1755000   0.98122424   -7.3558774    565.73447  0.026862985   0.02694875            1 
 1756000   0.97884174   -7.3209998    564.98909  0.026812314  0.026941048            3 
 1757000   0.96817891   -7.3415611    566.21731  0.026855308  0.026933309            3 
 1758000   0.96488826   -7.3852132    566.98495   0.02687642  0.026925517            4 
 1759000    0.9719174   -7.3498712    567.06267  0.026864822  0.026917812            3 
 1760000   0.96579752   -7.3534243    566.87204  0.026840532   0.02691004            2 
 1761000     0.970739   -7.3578375    567.92429  0.026875085  0.026902291            2 
 1762000   0.96399175   -7.3639896    564.67491  0.026706154  0.026894554            3 
 1763000   0.97019334    -7.364637      565.635  0.026736387  0.026886794            2 
 1764000   0.95668672   -7.3418268    568.01455  0.026833643   0.02687906            1 
 1765000   0.95969126   -7.3325803    568.50116  0.026841414   0.02687146            2 
 1766000   0.97056617   -7.3471145    568.10639  0.026807587  0.026863891            2 
 1767000   0.95932644   -7.3416969    567.75156  0.026775682  0.026856295            2 
 1768000   0.94438934    -7.337007    569.23696  0.026830551  0.026848654            2 
 1769000   0.95415077   -7.3194772    568.31993  0.026772184   0.02684101            2 
 1770000   0.95601502   -7.3547825    569.23525  0.026800153  0.026833443            4 
 1771000   0.96274898   -7.3513685     569.6415  0.026804136  0.026825764            2 
 1772000   0.97054369   -7.3395355    568.98279  0.026758032  0.026818117            2 
 1773000   0.97865756   -7.3078648    571.37949  0.026855588  0.026810577            1 
 1774000   0.97403098   -7.3261077     569.7785  0.026765243  0.026803019            1 
 1775000   0.96762749   -7.3753215    569.23563  0.026724678  0.026795344            2 
 1776000   0.96389758   -7.3790258    570.52227  0.026770001  0.026787707            6 
 1777000   0.97019436   -7.3486764    569.49952  0.026706974  0.026780013            1 
 1778000   0.96904747   -7.3502878     571.2469  0.026773852  0.026772456            3 
 1779000   0.97513109   -7.3537434    570.82172  0.026738885  0.026764819            2 
 1780000   0.96469798    -7.396934    570.07924  0.026689103  0.026757085            1 
 1781000   0.95597966   -7.3443459    571.72986   0.02675135  0.026749396            3 
 1782000   0.95732114   -7.3523469    572.25276  0.026760791  0.026741731            2 
 1783000   0.96520296   -7.3530855    570.44847  0.026661454  0.026734038            2 
 1784000   0.96939265   -7.3227997    572.12134  0.026724652  0.026726319            3 
 1785000    0.9458303   -7.3436792    570.56074  0.026636822  0.026718641            2 
 1786000   0.96310818   -7.3516035     570.6628  0.026626671  0.026710938            2 
 1787000   0.96319735   -7.3450048    569.94111  0.026578115  0.026703104            2 
 1788000   0.97013164   -7.3432307    570.45679  0.026587285  0.026695202            2 
 1789000   0.95828534   -7.3753353    570.27757  0.026564076  0.026687437            3 
 1790000   0.97063837   -7.3427033    571.06626  0.026585953  0.026679633            3 
 1791000   0.97665985   -7.3250209    571.46031  0.026589443  0.026671777            2 
 1792000   0.93614514   -7.3552692    571.44701  0.026573987   0.02666397            3 
 1793000   0.98179759   -7.3499343    570.16146  0.026499417  0.026656077            2 
 1794000   0.97450864   -7.3762882    571.15673  0.026530877  0.026648151            3 
 1795000   0.95168601   -7.3525664    571.28378  0.026521995  0.026640201            2 
 1796000   0.95894862   -7.3353618    573.36953  0.026604006  0.026632338            4 
 1797000   0.96899575   -7.3613523    571.10201  0.026484048  0.026624487            2 
 1798000   0.95437336   -7.3514653    573.29656  0.026571031  0.026616612            6 
 1799000   0.96655312   -7.3058626    573.28169  0.026555572   0.02660887            2 
 1800000   0.98032541   -7.3700837    571.37371  0.026452487    0.0266011            2 
 1801000   0.96221179   -7.3629923    572.07454  0.026470227  0.026593279            2 
 1802000   0.96521331   -7.3423837    573.59857  0.026526016  0.026585461            2 
 1803000   0.95699543   -7.3710476    574.09478  0.026534238  0.026577709            2 
 1804000   0.97365582   -7.3548444    571.96055  0.026420942  0.026569967            2 
 1805000   0.98915065   -7.3763263     572.6044   0.02643603  0.026562219            3 
 1806000   0.94580512    -7.383684    573.79028  0.026476111  0.026554391            3 
 1807000   0.97389151   -7.3619543     575.2771  0.026530027  0.026546525            2 
 1808000   0.98571275   -7.3490888    573.82074  0.026448227  0.026538715            1 
 1809000   0.95612967   -7.3757248    572.54621  0.026374895  0.026530872            2 
 1810000    0.9787805   -7.3462128     572.3792  0.026352633   0.02652305            1 
 1811000   0.94783085   -7.3594924    573.21624  0.026376598  0.026515247            3 
 1812000   0.96020988   -7.3794053    573.99304  0.026397767  0.026507383            3 
 1813000   0.97008852   -7.3507058    573.73718  0.026371446  0.026499525            1 
 1814000   0.96827882     -7.35658    575.09332  0.026419208  0.026491792            1 
 1815000   0.94809982   -7.3473773     574.0817  0.026358205  0.026483973            3 
 1816000   0.96395778   -7.3795777    574.66119  0.026370282  0.026476038            2 
 1817000   0.97692977    -7.372378    574.94109  0.026368606  0.026468038            2 
 1818000   0.95460407   -7.3636939    575.46889  0.026378295  0.026460184            2 
 1819000   0.94851759   -7.3645312    575.44926  0.026362895  0.026452426            1 
 1820000   0.95505114   -7.3812321    573.70948  0.026268749  0.026444487            1 
 1821000   0.99202628     -7.39298    573.98242  0.026266814  0.026436601            5 
 1822000   0.99757755   -7.3565305    575.47309  0.026320577   0.02642866            3 
 1823000   0.94136598   -7.3148332    576.04026  0.026332065  0.026420885            3 
 1824000   0.94334846   -7.3754337    577.01112  0.026361985  0.026413163            2 
 1825000   0.96838596   -7.3641339    577.41674  0.026366061  0.026405371            5 
 1826000   0.95629879   -7.3773239    575.67648  0.026272202  0.026397575            1 
 1827000   0.95786619   -7.3580902    576.65486  0.026302448   0.02638978            2 
 1828000   0.95730422   -7.3499281    577.65189  0.026333511  0.026382111            1 
 1829000   0.96465804   -7.3782779    577.12183  0.026294962  0.026374374            3 
 1830000   0.94556109   -7.3810738    577.01467  0.026275714  0.026366628            2 
 1831000   0.97143209   -7.3846309    577.85213  0.026299478  0.026358844            2 
 1832000   0.95977407   -7.3995595    576.47887  0.026222656  0.026350925            4 
 1833000   0.95886525   -7.3938482    579.38054  0.026340268  0.026343089            3 
 1834000   0.96795537   -7.3351041    579.09701  0.026313023  0.026335364            1 
 1835000   0.95883519   -7.3561677    579.68002   0.02632516  0.026327653            3 
 1836000   0.95420043   -7.3863712    577.63306  0.026217913   0.02631995            5 
 1837000   0.93408781   -7.3615829    579.90496  0.026306703  0.026312203            3 
 1838000   0.93760528    -7.378016     578.1112  0.026211063  0.026304534            8 
 1839000   0.94256259   -7.3835728    579.07415  0.026240445  0.026296819            1 
 1840000   0.95463692   -7.3820799    580.17596  0.026276085  0.026289102            3 
 1841000   0.96422741   -7.3647842    579.63081  0.026237136  0.026281412            5 
 1842000   0.95546843   -7.3831791    579.83964   0.02623234  0.026273788            3 
 1843000   0.96064743   -7.3713632    580.86258   0.02626436  0.026266126            4 
 1844000   0.94370926   -7.3566752    579.29219  0.026179148  0.026258582            2 
 1845000   0.95390129   -7.3251449    581.43749  0.026261856  0.026251037            1 
 1846000   0.95423872     -7.35544    581.47457  0.026249303  0.026243487            2 
 1847000   0.97150413   -7.3572084    580.69092  0.026199735  0.026235902            2 
 1848000   0.94350165   -7.3930356    580.44482   0.02617446  0.026228254            1 
 1849000   0.95314452    -7.394912    580.54896  0.026164997  0.026220701            2 
 1850000   0.96225368   -7.3643168    581.95145  0.026214029  0.026213122            2 
 1851000   0.96157546   -7.3392573    583.23328  0.026257576  0.026205628            1 
 1852000   0.96830811   -7.3534707    580.90309  0.026138548  0.026198124            1 
 1853000   0.94669182   -7.3664907    581.91652  0.026170018  0.026190573            3 
 1854000    0.9264658   -7.3671955       581.37  0.026131337  0.026182974            3 
 1855000   0.93675921   -7.4034103    582.98633  0.026189862  0.026175402            5 
 1856000   0.94473131   -7.3913737     581.7894  0.026122009  0.026167794            4 
 1857000   0.96770694   -7.3523486    582.55944  0.026142499  0.026160153            5 
 1858000   0.93237633   -7.3880726    582.33401  0.026118318  0.026152554            1 
 1859000    0.9608843   -7.3719016    583.10796  0.026138962  0.026144865            2 
 1860000   0.95397917   -7.3574522    582.67578  0.026105546  0.026137275            3 
 1861000   0.97004034   -7.3834286    583.30571  0.026119726  0.026129664            3 
 1862000   0.94989336   -7.4381802    582.49269  0.026069311  0.026121943            3 
 1863000   0.92997517   -7.3677187    582.46519  0.026054088  0.026114342            4 
 1864000   0.95925707   -7.3672655    582.93939   0.02606131  0.026106712            1 
 1865000   0.95613097   -7.3809589     583.8235  0.026086841  0.026099086            1 
 1866000   0.95156001   -7.3664436    584.39203  0.026098251  0.026091536            2 
 1867000   0.96629588   -7.3885749    582.44959  0.025997571  0.026083877            2 
 1868000   0.95564643   -7.3599866    583.26261  0.026019924  0.026076234            1 
 1869000   0.96107947   -7.3756444    581.55115  0.025929693  0.026068632            2 
 1870000   0.93757511    -7.375409    584.00215  0.026025051  0.026060939            2 
 1871000   0.97638546    -7.372249    583.18249  0.025974635  0.026053273            3 
 1872000   0.94556957   -7.3575125    584.34834  0.026012657  0.026045629            1 
 1873000   0.95924307    -7.373359    583.84019  0.025976161  0.026037925            2 
 1874000   0.96404256   -7.4064704    581.93141   0.02587742   0.02603013            3 
 1875000   0.94473829   -7.3788392    583.76035  0.025944904  0.026022328            2 
 1876000   0.96550021   -7.3989853     582.5872  0.025878962   0.02601437            6 
 1877000   0.96467367   -7.3681595    582.71347  0.025870781  0.026006488            1 
 1878000   0.93546838   -7.4006928    582.47548  0.025846445  0.025998542            3 
 1879000   0.94839598   -7.3966288    583.20718   0.02586514  0.025990598            1 
 1880000   0.95584315   -7.4227896    583.72372  0.025874278  0.025982715            1 
 1881000   0.96477496   -7.3662933    583.13669  0.025834516  0.025974871            4 
 1882000   0.96301559   -7.3621454    584.71502  0.025890676  0.025966974            3 
 1883000   0.95042428   -7.3696132    586.28323  0.025946328  0.025959195            2 
 1884000   0.95888502   -7.4029352    585.01214  0.025876333  0.025951336            2 
 1885000   0.94958203    -7.380376    584.46502  0.025838418  0.025943423            2 
 1886000   0.95619604   -7.3803411      586.024  0.025893602    0.0259356            2 
 1887000    0.9648412   -7.4220284     584.8121   0.02582636  0.025927799            2 
 1888000   0.94828016    -7.354462    585.69121  0.025851483  0.025920031            1 
 1889000   0.94124547   -7.4157625    585.47131  0.025828097  0.025912194            1 
 1890000   0.97102393   -7.3996363     585.4552  0.025813721  0.025904434            2 
 1891000   0.96676534   -7.3809654    586.28784  0.025836764   0.02589674            2 
 1892000   0.94053837   -7.3887578    586.85463  0.025848072  0.025888827            4 
 1893000   0.94963959   -7.3992351    585.68948  0.025783125  0.025880953            2 
 1894000   0.93700779   -7.3522751     586.3309  0.025797734  0.025873085            3 
 1895000   0.93116398   -7.3677038    585.46167  0.025745896   0.02586529            2 
 1896000   0.93357638   -7.3921583    586.70074  0.025786776  0.025857473            3 
 1897000   0.96301704   -7.3876119    587.10706  0.025791032  0.025849646            1 
 1898000   0.94204759   -7.4059673    586.26203  0.025740342  0.025841906            4 
 1899000     0.935558   -7.3942828    586.08914    0.0257192  0.025834217            2 
 1900000   0.94327029   -7.3977038    589.22438  0.025843174  0.025826471            1 
 1901000   0.93613712   -7.3784881    588.68326  0.025805859   0.02581889            1 
 1902000    0.9543039   -7.4024043    587.82871  0.025754851  0.025811195            3 
 1903000    0.9108635   -7.4105756    587.32868   0.02571942  0.025803521            2 
 1904000   0.93939712   -7.4217292    588.28831  0.025747913  0.025795829            3 
 1905000   0.95109426   -7.3819439    587.57629   0.02570325  0.025788249            1 
 1906000   0.94408949   -7.4125592    589.35602  0.025767577  0.025780648            2 
 1907000   0.93445421    -7.390518    589.02534  0.025739614  0.025773033            3 
 1908000   0.93097008   -7.4074423    587.99608  0.025681171  0.025765382            2 
 1909000   0.96969944   -7.4216125    588.76406  0.025701242    0.0257578            2 
 1910000   0.94009644   -7.3894792    590.08658  0.025745488  0.025750231            2 
 1911000   0.94117054    -7.384725    590.86422  0.025765926  0.025742676            2 
 1912000   0.95707811   -7.3471353    591.72193  0.025789833  0.025735186            2 
 1913000   0.96302538   -7.4066838    591.89297  0.025783802  0.025727713            2 
 1914000   0.96078704   -7.3857304    592.62618  0.025802254    0.0257202            2 
 1915000   0.95073033   -7.3992679    589.79986   0.02566579  0.025712703            3 
 1916000   0.95775419   -7.3734834    591.94662  0.025745765  0.025705204            3 
 1917000   0.95063755   -7.4191232    590.07908  0.025651151  0.025697645            2 
 1918000   0.95333569   -7.3859833    591.26237  0.025689189  0.025690131            2 
 1919000    0.9483809   -7.4148209    591.59995  0.025690461  0.025682546            3 
 1920000   0.93783089   -7.4227255    592.08717  0.025698228  0.025675045            1 
 1921000   0.93843934   -7.4113647    592.20031  0.025689758  0.025667536            2 
 1922000   0.94941916    -7.424704    592.98931  0.025710601  0.025659933            2 
 1923000   0.97021452   -7.3894006    592.84215  0.025690854  0.025652373            3 
 1924000   0.95028028   -7.3808911    592.33802  0.025655666    0.0256448            2 
 1925000   0.94798318   -7.3829367     592.9067  0.025666957  0.025637266            2 
 1926000   0.96073628   -7.3852686    593.91859  0.025697412  0.025629738            1 
 1927000   0.91996042    -7.374216    594.04858  0.025689698  0.025622245            4 
 1928000   0.93860891   -7.4031988    592.35813  0.025603308  0.025614803            2 
 1929000   0.95559684   -7.3737925    595.05941  0.025706731   0.02560734            2 
 1930000   0.94371375   -7.4128536    592.84687  0.025597879  0.025599923            5 
 1931000   0.93097494   -7.4146431    594.83103   0.02567025  0.025592561            4 
 1932000   0.95044777   -7.3811345    595.34784  0.025679255  0.025585196            2 
 1933000   0.93648964   -7.4347774    594.17677  0.025615484  0.025577748            2 
 1934000   0.96538632   -7.3948467     593.6695  0.025580382  0.025570243            2 
 1935000   0.93473164   -7.4017018    593.55278  0.025562135  0.025562807            2 
 1936000   0.93476849   -7.4302063    594.92594  0.025608038  0.025555347            2 
 1937000   0.94698125   -7.4185528    594.92403  0.025594735  0.025547885            1 
 1938000    0.9241881   -7.4180391    594.90843  0.025580858  0.025540418            4 
 1939000   0.93136644    -7.428748    595.79831   0.02560591  0.025533071            3 
 1940000   0.95014705    -7.411971    596.24294   0.02561181  0.025525692            3 
 1941000   0.94815906   -7.4199986     593.7863  0.025493143  0.025518229            2 
 1942000   0.93294543   -7.4305416    595.68952  0.025561685  0.025510731            1 
 1943000   0.93323293   -7.4095667    594.76397  0.025508834  0.025503266            2 
 1944000   0.95471459   -7.4005306     595.5214  0.025528181  0.025495759            1 
 1945000   0.93404631   -7.3864314    595.18147  0.025500491  0.025488341            1 
 1946000    0.9756341    -7.379301    596.70491  0.025552625  0.025480938            2 
 1947000   0.93675672   -7.4135035    597.42274  0.025570225  0.025473507            2 
 1948000   0.94073999   -7.3761446    596.71294  0.025526734   0.02546605            1 
 1949000   0.94461957   -7.3916057    596.75841  0.025515581  0.025458601            2 
 1950000   0.92431428   -7.4215206    596.12629  0.025475482  0.025451113            1 
 1951000   0.94651404   -7.3811507     597.1328  0.025505416  0.025443617            2 
 1952000   0.93212504   -7.4198022    596.97896  0.025485782  0.025436108            3 
 1953000   0.96262281   -7.4245579    596.81939  0.025465924  0.025428615            3 
 1954000   0.94848309   -7.4310213    597.44013  0.025479364  0.025421235            2 
 1955000   0.93036483   -7.4056602    597.11914  0.025452649  0.025413877            4 
 1956000   0.94583589    -7.429012    596.87356  0.025429173  0.025406486            2 
 1957000   0.91445233    -7.458234    594.84288  0.025329709  0.025398989            2 
 1958000   0.96016115   -7.4044721    598.58353  0.025475976  0.025391534            3 
 1959000   0.93472602   -7.3832169    597.72177  0.025426313  0.025384146            6 
 1960000   0.94776545   -7.4287726    596.83624  0.025375691  0.025376624            1 
 1961000   0.94991462   -7.3975903    600.04277  0.025499013  0.025369243            2 
 1962000   0.93721036   -7.4185938    597.23922  0.025366939  0.025361829            3 
 1963000     0.934296   -7.4016611    599.05576  0.025431133  0.025354462            3 
 1964000   0.93706078   -7.4295895    599.01875  0.025416614  0.025347106            1 
 1965000   0.94459344   -7.4396904    598.09052  0.025364314  0.025339653            2 
 1966000   0.92884519   -7.4385564    598.44064  0.025366253  0.025332178            2 
 1967000   0.93638507   -7.3954616    598.89923  0.025372786  0.025324719            2 
 1968000   0.95002386   -7.3872142    600.76933  0.025439081  0.025317401            2 
 1969000   0.94269377   -7.4220995    600.66615  0.025421794  0.025310049            4 
 1970000   0.93895017   -7.4319072    600.02415  0.025381732  0.025302742            2 
 1971000   0.90744464   -7.4314828    600.24218  0.025378073  0.025295476            3 
 1972000   0.91258238   -7.4144639    601.70194  0.025426891  0.025288139            2 
 1973000   0.96725295   -7.4398796    599.77089  0.025332442  0.025280749            1 
 1974000   0.92190948   -7.4488486    598.67023  0.025273144  0.025273325            4 
 1975000   0.94426787   -7.4502335    602.23856   0.02541091  0.025265979            2 
 1976000   0.95373178   -7.4012976    600.35432  0.025318586  0.025258646            2 
 1977000   0.92686929   -7.4285965    601.52812  0.025355257   0.02525133            1 
 1978000   0.94948221    -7.389798    600.96174  0.025318577  0.025244031            2 
 1979000   0.91983737   -7.4490282    599.18466  0.025230952  0.025236624            2 
 1980000   0.93832343   -7.4512671     601.0771  0.025297858  0.025229277            3 
 1981000   0.92314212   -7.4230827    600.87503  0.025276587  0.025221865            2 
 1982000   0.94743597    -7.435394    600.00645  0.025227315  0.025214503            3 
 1983000   0.96389347   -7.4192166      601.507  0.025277652  0.025207204            4 
 1984000   0.93657334   -7.4261512    600.88509  0.025238789  0.025199904            1 
 1985000   0.92770267   -7.4387156    602.62019  0.025298916   0.02519259            1 
 1986000   0.95268097   -7.4357162    600.49755  0.025197111  0.025185184            5 
 1987000   0.93802045   -7.4191623    601.94411  0.025245098  0.025177778            3 
 1988000   0.94527378   -7.4373008    602.22919  0.025244349  0.025170446            2 
 1989000   0.92988666   -7.4477219    602.10836  0.025226595  0.025163184            3 
 1990000   0.92984037   -7.4330169      602.874   0.02524598  0.025155892            2 
 1991000   0.94443511   -7.4404781    602.89408   0.02523414  0.025148605            3 
 1992000   0.89954451   -7.3935085    605.22063  0.025318802  0.025141293            2 
 1993000   0.94181424   -7.4361426    602.69533  0.025200507  0.025134014            3 
 1994000   0.93035659   -7.4467924     602.8588  0.025194701   0.02512675            2 
 1995000    0.9544361    -7.446228    604.32426  0.025243286  0.025119442            2 
 1996000   0.93065444   -7.4508167    604.53727  0.025239532  0.025112095            2 
 1997000   0.93396522    -7.423673    602.90128  0.025158625  0.025104752            1 
 1998000   0.94547448   -7.4112028    604.15956  0.025198514  0.025097393            3 
 1999000   0.93816655   -7.4382319    604.17901  0.025186719  0.025090099            3 
 2000000   0.94660833   -7.4504603    603.32327   0.02513847  0.025082746            4 
 2001000   0.92320934   -7.4136113    603.61843  0.025138199  0.025075332            2 
 2002000   0.91425012   -7.4226415    603.05194  0.025102062  0.025068003            2 
 2003000   0.93671419   -7.4241468    603.29094  0.025099473   0.02506062            1 
 2004000   0.93402841   -7.4626785    604.15724  0.025122973  0.025053289            6 
 2005000   0.94716884   -7.4381269    605.59105  0.025170035  0.025045892            2 
 2006000   0.94142267   -7.4058195    604.80625  0.025124886  0.025038499            1 
 2007000   0.92178451   -7.4415164    603.00223  0.025037462  0.025031146            2 
 2008000   0.90801672   -7.4234821    604.62183  0.025092208  0.025023731            2 
 2009000    0.9264369   -7.4390972    604.08139    0.0250573  0.025016394            2 
 2010000   0.90797636   -7.4469655    604.93738  0.025080322  0.025009097            1 
 2011000    0.9389319    -7.411669    604.11253   0.02503367  0.025001827            4 
 2012000   0.93645779   -7.4244188    605.75391  0.025089211  0.024994581            2 
 2013000   0.94119037   -7.4156648    606.28025  0.025098537   0.02498729            1 
 2014000    0.9343016   -7.4120024    605.51119  0.025054253  0.024980018            3 
 2015000   0.91256209   -7.4866958    604.20765   0.02498791  0.024972646            3 
 2016000   0.92576391   -7.4092696    605.77675  0.025040375  0.024965339            2 
 2017000   0.90994432   -7.4631331    605.52739  0.025017658  0.024958036            3 
 2018000   0.95628629   -7.4357791    606.36095  0.025039682  0.024950744            4 
 2019000   0.91150515   -7.4164731    607.06863   0.02505649  0.024943531            2 
 2020000   0.91086974   -7.4334336    605.43495  0.024976689  0.024936284            1 
 2021000   0.92100018   -7.4522024    605.71478  0.024975869  0.024928897            2 
 2022000   0.94455933   -7.4189968    606.44556  0.024993635  0.024921577            1 
 2023000    0.9408002   -7.4509021    607.36015  0.025018955   0.02491422            1 
 2024000   0.91510562   -7.4365539    604.63382  0.024894344  0.024906858            2 
 2025000   0.93388241    -7.385738    607.48045  0.024999195  0.024899432            3 
 2026000   0.93400931   -7.4258212    606.85776  0.024961244  0.024892182            3 
 2027000   0.91075168    -7.422516    606.52801  0.024935373  0.024884842            1 
 2028000   0.91242733   -7.4320501    607.83653  0.024976846  0.024877548            4 
 2029000   0.94341908    -7.421563    607.33238   0.02494383  0.024870276            2 
 2030000   0.93400022   -7.4382647     607.0989  0.024921958  0.024862883            2 
 2031000   0.93408291     -7.43508    607.66762  0.024933022  0.024855642            1 
 2032000   0.94105598   -7.4674612     606.1281  0.024857616  0.024848303            1 
 2033000   0.95125735   -7.4429096     607.3403  0.024895077  0.024840981            1 
 2034000   0.94016221   -7.3781935    610.08822  0.024995421  0.024833659            2 
 2035000   0.91150233   -7.4502673    607.76698  0.024888083  0.024826353            2 
 2036000   0.92865787   -7.4623947    609.93914  0.024964765  0.024819016            3 
 2037000   0.90981234    -7.415574    609.57095  0.024937447  0.024811761            2 
 2038000   0.91855551    -7.434221    608.30977  0.024873641  0.024804558            7 
 2039000   0.91714795   -7.4382589    609.11511  0.024894356  0.024797195            6 
 2040000   0.91702628   -7.4611222    609.41427  0.024894374  0.024789923            5 
 2041000   0.94271543   -7.4993125    608.22058  0.024833439  0.024782592            2 
 2042000   0.91266038   -7.4759578    606.18046  0.024738021  0.024775279            2 
 2043000   0.92962011   -7.4743943    609.42123  0.024858102  0.024767972            2 
 2044000   0.91911343   -7.4419131    609.12597  0.024833903  0.024760699            2 
 2045000   0.90759279   -7.4182007    610.61681   0.02488251   0.02475345            6 
 2046000   0.91844594   -7.4828365    610.31863  0.024858204  0.024746051            2 
 2047000    0.9206451   -7.4756586    608.56185  0.024774542  0.024738665            2 
 2048000   0.93916325   -7.4570046    610.33791  0.024834713  0.024731297            2 
 2049000   0.91289792   -7.4477632    610.02703  0.024809949  0.024723988            2 
 2050000   0.93173945   -7.4226478    610.60182  0.024821212  0.024716729            2 
 2051000   0.90368756   -7.4960198    609.93008  0.024781817  0.024709433            3 
 2052000   0.92435565   -7.4819308    609.97761   0.02477167  0.024702027            7 
 2053000    0.9456558   -7.4541388    610.86636  0.024795679  0.024694702            2 
 2054000   0.93356102   -7.4471719     608.7095  0.024696101  0.024687317            3 
 2055000   0.92721168   -7.4560359    609.93848   0.02473392  0.024679971            2 
 2056000   0.92874311    -7.448243    610.70209  0.024752841  0.024672623            3 
 2057000   0.91350458   -7.4595721    609.20017  0.024679961  0.024665253            4 
 2058000   0.91956852    -7.449511    610.50927  0.024720978  0.024657941            2 
 2059000   0.90037609   -7.4538216    610.13856  0.024693968  0.024650601            1 
 2060000   0.92427968    -7.429929     609.7801   0.02466748  0.024643325            1 
 2061000   0.91832791   -7.4264442    611.37357  0.024719941  0.024636047            2 
 2062000   0.94160654   -7.4046665    612.21504  0.024741959  0.024628799            4 
 2063000   0.93094081   -7.4296823    612.11288  0.024725839    0.0246215            2 
 2064000   0.93289519   -7.4545489    611.27322  0.024679959  0.024614153            2 
 2065000   0.91219382   -7.4812522    611.03842  0.024658532  0.024606776            2 
 2066000   0.93425134   -7.4459666    610.35711  0.024619115  0.024599369            2 
 2067000    0.9304224    -7.471384    613.83591  0.024747457  0.024591986            2 
 2068000   0.91833463   -7.4677471    613.48307  0.024721271   0.02458472            4 
 2069000   0.92933446   -7.4488782     612.8178  0.024682528  0.024577488            2 
 2070000   0.92763141   -7.4519863    612.89495   0.02467371  0.024570246            5 
 2071000   0.91361197   -7.4946465    612.67772  0.024653055  0.024563049            2 
 2072000   0.91619861   -7.4239347     612.6934  0.024641787  0.024555765            2 
 2073000   0.90672094   -7.4522867    613.56932  0.024665112   0.02454849            3 
 2074000    0.9116496   -7.4617407    614.41677   0.02468727  0.024541149            1 
 2075000   0.91026192   -7.4627592    613.97529  0.024657642  0.024533822            2 
 2076000   0.91908541   -7.4481172    613.83561  0.024640158  0.024526488            3 
 2077000   0.91616618   -7.4495165    613.74569  0.024624687  0.024519246            1 
 2078000   0.92023806   -7.4713203    612.30813  0.024555187  0.024511994            2 
 2079000   0.93543499   -7.4222018    613.95173  0.024609256  0.024504744            1 
 2080000   0.92302652   -7.4563572    614.48075   0.02461862  0.024497486            2 
 2081000     0.911581   -7.4645617    613.67743  0.024574621  0.024490263            2 
 2082000   0.93132279   -7.4559733    614.74139  0.024605403  0.024483077            1 
 2083000   0.92867242   -7.4466197    614.74156  0.024593597  0.024475825            1 
 2084000    0.9154898   -7.4437151    613.98575  0.024551574  0.024468607            2 
 2085000   0.90135102   -7.4550095     614.7764  0.024571399  0.024461365            2 
 2086000   0.91341529   -7.4716453    614.14789  0.024534511  0.024454107            6 
 2087000   0.91047693   -7.4190882    615.95687  0.024594988  0.024446844            1 
 2088000   0.93790586   -7.4426659    615.51846  0.024565711  0.024439548            3 
 2089000   0.91520008    -7.465899    613.83184   0.02448667  0.024432282            2 
 2090000   0.89903654   -7.4773307    614.80972  0.024513944  0.024424979            3 
 2091000   0.92479355   -7.4304097    616.54915  0.024571543  0.024417753            3 
 2092000   0.92218167   -7.4675775    617.12248  0.024582635  0.024410486            2 
 2093000   0.91251045   -7.4436907    617.49856  0.024585864  0.024403245            6 
 2094000   0.90527883   -7.4795529    616.13852  0.024519998  0.024395989            2 
 2095000   0.92331231   -7.4432054    615.75178  0.024492911  0.024388752            2 
 2096000   0.89320903   -7.4377543    615.69781   0.02447908  0.024381578            2 
 2097000   0.90690654   -7.4844403    615.96675  0.024478094  0.024374332            2 
 2098000   0.91207329   -7.4761566    617.07016  0.024510254  0.024367089            1 
 2099000   0.93077482   -7.4807733    616.66421   0.02448246  0.024359839            4 
 2100000   0.90148674   -7.4523849    616.96683  0.024482811  0.024352574            2 
 2101000    0.8953955   -7.4907713    616.42827  0.024449797  0.024345303            2 
 2102000   0.92988921   -7.4848797    616.11096  0.024425585  0.024338023            2 
 2103000   0.91248842   -7.4856521    616.28941  0.024421042  0.024330698            1 
 2104000    0.9047118   -7.4482058    615.02909  0.024359517  0.024323317            2 
 2105000   0.92897732   -7.4873716    615.50516  0.024366792  0.024315942            3 
 2106000   0.91544377    -7.480224      616.609    0.0243989  0.024308597            3 
 2107000   0.93474343   -7.4743975    615.90626  0.024359526   0.02430121            2 
 2108000   0.90946411   -7.4831958    615.64167  0.024337511  0.024293848            5 
 2109000   0.93008908   -7.4623309     617.4116  0.024395906  0.024286475            2 
 2110000   0.90469066   -7.4702571    615.67992  0.024315953  0.024279135            3 
 2111000   0.91516964   -7.4756415    615.53226  0.024298605  0.024271763            3 
 2112000   0.91926532   -7.4602348     617.2175  0.024353594  0.024264383            6 
 2113000   0.92567245   -7.4801912    616.85434  0.024327746  0.024256995            1 
 2114000   0.90806664   -7.4950301    616.01299  0.024283073  0.024249619            2 
 2115000   0.92986605   -7.4760929    616.66621  0.024297329   0.02424229            3 
 2116000    0.9149058   -7.4783623    618.25722  0.024348504  0.024234956            1 
 2117000   0.91792197   -7.5076826    616.65922  0.024274099  0.024227589            2 
 2118000   0.91798886   -7.5074781    617.78102  0.024306776  0.024220192            2 
 2119000   0.92718738    -7.514669    616.51805  0.024245637  0.024212809            3 
 2120000    0.9154966   -7.4741327    617.81801  0.024285299  0.024205417            1 
 2121000   0.92993185   -7.4889123    617.30086   0.02425353  0.024198063            1 
 2122000   0.92989301   -7.4700905    617.81046  0.024262114  0.024190652            3 
 2123000   0.91891501   -7.4635597    618.42462  0.024274793   0.02418323            2 
 2124000   0.90962931   -7.4862086    617.12787  0.024212487  0.024175874            2 
 2125000   0.90864024    -7.449554    618.69169  0.024262419  0.024168515            5 
 2126000    0.9449125   -7.4702901    618.73714  0.024252789  0.024161156            3 
 2127000   0.90397199   -7.4831458    617.86764   0.02420732  0.024153746            2 
 2128000   0.92151156   -7.4803269    618.29362  0.024212626  0.024146312            3 
 2129000   0.92777257   -7.4822423    618.48194  0.024208624  0.024138881            2 
 2130000   0.91035641   -7.4924701     618.5328  0.024199249   0.02413147            2 
 2131000   0.90315935   -7.4873963    619.37113  0.024220676  0.024124119            4 
 2132000   0.91377417   -7.4584262    619.81345  0.024226605   0.02411671            3 
 2133000   0.90235917   -7.4692099    619.02142  0.024184303  0.024109316            3 
 2134000   0.90958563   -7.4562223    617.96817  0.024131841  0.024101953            2 
 2135000   0.92642946   -7.5055096    618.94624  0.024158714  0.024094547            2 
 2136000    0.8974277   -7.5177638     616.8718  0.024066472  0.024087056            2 
 2137000   0.91227518   -7.5124846    618.84869  0.024132299  0.024079605            3 
 2138000   0.93821251   -7.4781088    619.95952  0.024164309  0.024072199            3 
 2139000   0.90461141   -7.5074995    619.54489  0.024136859  0.024064804            1 
 2140000   0.90287688   -7.4327725    620.40536  0.024159087  0.024057462            1 
 2141000   0.91008712   -7.4823945     619.4567  0.024110879  0.024050124            3 
 2142000   0.91133124    -7.492577    618.98351  0.024081213  0.024042728            1 
 2143000   0.89394405   -7.4978284    619.66365  0.024096425  0.024035296            4 
 2144000   0.89468185   -7.5227274    618.39848  0.024036011  0.024027847            6 
 2145000    0.9012136    -7.496914    617.40996  0.023986401  0.024020427            4 
 2146000    0.9128728     -7.52628    619.93129  0.024073132   0.02401303            1 
 2147000   0.90332614   -7.5212124    619.10013  0.024029659  0.024005598            2 
 2148000   0.90821868   -7.4740809    620.34506   0.02406677  0.023998187            3 
 2149000   0.90825099   -7.4941748     618.6079  0.023988208  0.023990746            3 
 2150000   0.92758038   -7.4636915    618.23982  0.023962784  0.023983271            2 
 2151000   0.90473653   -7.5037652    619.49373  0.024000222  0.023975837            4 
 2152000   0.90065379   -7.4622987    621.15697  0.024053476  0.023968419            3 
 2153000   0.89562656   -7.4544229     622.1072  0.024079083  0.023961036            2 
 2154000   0.89604807   -7.4693988      619.307  0.023959571  0.023953665            1 
 2155000   0.89703877    -7.462589    620.04203  0.023976877  0.023946286            2 
 2156000   0.89990836   -7.4867961    619.47193   0.02394372  0.023938969            1 
 2157000   0.90711664   -7.4491204    621.32517  0.024004218  0.023931621            3 
 2158000   0.89104255   -7.4721003    622.33291  0.024032009  0.023924279            2 
 2159000   0.91011473   -7.4843116    621.60586  0.023992815    0.0239169            1 
 2160000    0.9183916   -7.4763668    621.27405  0.023968906  0.023909471            1 
 2161000   0.92096088   -7.5065388    621.26801  0.023957582  0.023902065            5 
 2162000   0.89600986    -7.472128    622.11032  0.023978967  0.023894647            2 
 2163000   0.90502383   -7.5173164    622.61118  0.023987177  0.023887199            6 
 2164000   0.90028319   -7.4603447    622.42539  0.023968938  0.023879849            4 
 2165000   0.92595963   -7.5097284    622.90398  0.023976289  0.023872538            2 
 2166000   0.92601802    -7.447612    624.38682  0.024022269  0.023865271            2 
 2167000   0.91179977   -7.4938689     623.5279  0.023978153   0.02385795            1 
 2168000     0.914697   -7.5121337    624.26107  0.023995275  0.023850618            2 
 2169000    0.8854079   -7.4765534    623.34145   0.02394888  0.023843287            2 
 2170000    0.9237172   -7.4801514    622.99379  0.023924493  0.023835952            2 
 2171000   0.90339543   -7.4675582    622.89491  0.023909677  0.023828694            1 
 2172000   0.89541301   -7.4755174    622.74521  0.023892926  0.023821409            4 
 2173000   0.89841073   -7.4766037    624.32634  0.023942565  0.023814088            1 
 2174000   0.90916598   -7.4906276    620.63745  0.023790151  0.023806821            2 
 2175000   0.89419538   -7.4762409    622.83202  0.023863296  0.023799474            2 
 2176000   0.88898506   -7.4827411     623.7046  0.023885746  0.023792116            3 
 2177000    0.9145904   -7.4832188     622.2154  0.023817769  0.023784743            3 
 2178000   0.90525318   -7.4959425    622.77526  0.023828255  0.023777341            2 
 2179000   0.89911736   -7.4797655     623.9301  0.023861485  0.023769951            3 
 2180000   0.89746433   -7.4788777    624.67004  0.023878824  0.023762546            1 
 2181000   0.92218677   -7.5084498    622.45487  0.023783237  0.023755165            2 
 2182000   0.89278301   -7.5302213    623.41493  0.023809003  0.023747787            3 
 2183000   0.89665758   -7.5021406    624.17579  0.023827141  0.023740401            3 
 2184000   0.88483716   -7.4840007    623.24665  0.023780779  0.023733071            2 
 2185000   0.91923145   -7.4721146    624.88728  0.023832467  0.023725746            1 
 2186000   0.88976044   -7.5055933    625.01898  0.023826585  0.023718488            2 
 2187000   0.89060893    -7.473995    624.93798  0.023812604  0.023711245            6 
 2188000   0.88781299   -7.5062048    623.70121  0.023754616  0.023703944            1 
 2189000   0.89111053   -7.5284964       623.63  0.023741054  0.023696644            2 
 2190000   0.90842261   -7.5202346    624.35918   0.02375796  0.023689316            2 
 2191000   0.89539824   -7.4920108    625.34433  0.023784586  0.023681947            3 
 2192000   0.89463923   -7.4898031    626.15795  0.023804666  0.023674618            3 
 2193000   0.90103693   -7.4922106    623.50021  0.023692818  0.023667277            4 
 2194000   0.90281026   -7.5023223    624.71109  0.023728011   0.02365989            5 
 2195000   0.91182588   -7.5066923    625.25182   0.02373773  0.023652531            3 
 2196000   0.90973802   -7.5221944    625.25151  0.023726909  0.023645146            1 
 2197000   0.90802055   -7.5172469    625.41718  0.023722393  0.023637755            4 
 2198000    0.9157528   -7.5261423    624.25421  0.023667509  0.023630325            1 
 2199000   0.92045051   -7.5026983    624.59646  0.023669716  0.023622874            2 
 2200000   0.91642931   -7.4788277    627.00964  0.023750365  0.023615492            2 
 2201000   0.90465338   -7.5066986    625.84893  0.023695628   0.02360818            6 
 2202000   0.90386977   -7.4823977    626.34347  0.023703583  0.023600939            1 
 2203000   0.90765307   -7.5095915    627.05685  0.023719808  0.023593639            2 
 2204000    0.8964548   -7.5139723     626.6019  0.023691844  0.023586382            2 
 2205000   0.88513253   -7.4964933    628.03641  0.023735314  0.023579144            2 
 2206000   0.90196783   -7.4628312     627.9048  0.023719583  0.023571975            2 
 2207000   0.89671516   -7.5045114    627.08173  0.023677758  0.023564772            2 
 2208000   0.89591924   -7.4865293    628.55838  0.023722765  0.023557521            2 
 2209000   0.90141164   -7.4967065    625.40245   0.02359297  0.023550287            2 
 2210000   0.88680825   -7.4960953    626.81266   0.02363547  0.023543048            3 
 2211000   0.89081761   -7.5594141     625.5476  0.023577099  0.023535722            3 
 2212000   0.90204988   -7.4852316    625.96591    0.0235822  0.023528415            4 
 2213000   0.89497604   -7.4935739    626.44301  0.023589509   0.02352117            1 
 2214000   0.90181376   -7.4779314    628.29231  0.023648461  0.023513916            2 
 2215000    0.8924955   -7.4866287    627.84669  0.023621019  0.023506645            2 
 2216000   0.86572723    -7.514328    627.66251  0.023603434  0.023499378            1 
 2217000   0.90590505   -7.5319275    627.00116  0.023567928  0.023492118            3 
 2218000   0.88533299   -7.5014224    627.96937  0.023593679  0.023484693            2 
 2219000    0.9074129    -7.491261    627.59049  0.023568818  0.023477341            5 
 2220000   0.91532774   -7.5064886    626.99435  0.023535824  0.023469989            2 
 2221000   0.89924202   -7.5292181    627.12961  0.023530302  0.023462657            3 
 2222000   0.90661857    -7.513058    627.93358  0.023549864  0.023455306            3 
 2223000   0.88090073   -7.5056216    627.50117  0.023523061  0.023447977            3 
 2224000   0.89790581   -7.4648348     629.8515  0.023600551  0.023440681            2 
 2225000   0.88553777   -7.4781551    627.42597    0.0234991  0.023433385            1 
 2226000   0.90212648    -7.528971    626.96539  0.023471301  0.023426036            2 
 2227000   0.90176742   -7.5137492    627.40092  0.023477059  0.023418686            1 
 2228000   0.91382985   -7.5223311    629.07307  0.023529064  0.023411362            2 
 2229000   0.88296482   -7.4881048    629.08387  0.023518913  0.023404051            2 
 2230000   0.90460714   -7.5002879    627.37513  0.023444511  0.023396686            4 
 2231000   0.89052235   -7.5806378    626.91565   0.02341684  0.023389299            2 
 2232000   0.90115451   -7.5155855    627.22755  0.023417994  0.023381916            2 
 2233000   0.91289377   -7.5138908    629.17802  0.023480296  0.023374562            3 
 2234000   0.88426474   -7.5328178    628.45275  0.023442732  0.023367178            3 
 2235000   0.90445794   -7.4880687     628.4789  0.023433218  0.023359849            4 
 2236000   0.89722657   -7.5197289    628.98321  0.023441533  0.023352599            4 
 2237000    0.9127533   -7.5170626    628.41526  0.023409896  0.023345363            2 
 2238000   0.92219839   -7.5067227    628.31056  0.023395538  0.023338111            1 
 2239000    0.8840896   -7.5482124    628.41321  0.023388909  0.023330815            2 
 2240000   0.89470075   -7.5149318    629.14985  0.023405872   0.02332351            2 
 2241000   0.87113955    -7.519094    629.95375  0.023425322  0.023316212            1 
 2242000   0.90499844   -7.5174536    631.29917  0.023464881  0.023308969            2 
 2243000   0.89368798   -7.5343809    630.28501  0.023416741  0.023301757            2 
 2244000   0.91238523    -7.503094    630.19028  0.023402788   0.02329448            3 
 2245000   0.88514968   -7.5316688    629.09632  0.023351756  0.023287213            2 
 2246000   0.91225288   -7.5175515     630.6219  0.023397963  0.023279893            2 
 2247000   0.87869881   -7.5076111    631.23805  0.023410401  0.023272603            1 
 2248000   0.89949753   -7.5516504    629.14785  0.023322503  0.023265286            3 
 2249000   0.89569196    -7.526946    630.86365   0.02337571  0.023257954            1 
 2250000   0.90268674     -7.54022    630.69319  0.023359007   0.02325062            2 
 2251000   0.89118986   -7.5001275    629.02108  0.023286727  0.023243258            3 
 2252000   0.89517725   -7.5239394    629.66417  0.023300184  0.023235915            2 
 2253000   0.91251657   -7.5308387    630.31663  0.023313975   0.02322854            3 
 2254000   0.90179892   -7.5193577    630.57564  0.023313208  0.023221191            6 
 2255000   0.87686805   -7.5099392    632.70272  0.023381475  0.023213867            2 
 2256000   0.90047104   -7.5187518    631.08141  0.023311222   0.02320654            2 
 2257000   0.89012156   -7.5407174    629.93261  0.023258478  0.023199208            1 
 2258000   0.91672929   -7.5238401    631.73176  0.023314576  0.023191873            1 
 2259000   0.89480114   -7.5126665    628.67066  0.023191333  0.023184517            4 
 2260000   0.90031943   -7.4900431    632.44019  0.023320066  0.023177135            1 
 2261000    0.8909309   -7.5163331    628.87313  0.023178281  0.023169765            2 
 2262000   0.88539156   -7.5099073    629.82076  0.023202946  0.023162439            2 
 2263000   0.88030741   -7.5352284    631.29165  0.023246857  0.023155077            3 
 2264000   0.89914708   -7.5304444    629.68894  0.023177596  0.023147652            1 
 2265000   0.88539855   -7.5344685    630.37919  0.023192759  0.023140271            3 
 2266000   0.89906605   -7.5267823    630.30403   0.02317976  0.023132902            4 
 2267000   0.88777693   -7.5034337    632.31858  0.023243588  0.023125515            3 
 2268000   0.88212886   -7.5252067    629.96904  0.023147011  0.023118194            2 
 2269000   0.91048261   -7.5283671    632.11794  0.023215732  0.023110916            2 
 2270000   0.88864727   -7.5174362    632.25992  0.023210717  0.023103591            3 
 2271000   0.86930535    -7.528914    631.67152  0.023178905  0.023096231            3 
 2272000   0.89296188   -7.5384124    630.98736  0.023143609  0.023088837            3 
 2273000     0.873614   -7.5317847    631.69352  0.023159317  0.023081475            3 
 2274000   0.88478984   -7.5344182    632.68737  0.023185553  0.023074114            4 
 2275000   0.85970348   -7.5490715     632.8632  0.023181802  0.023066776            2 
 2276000   0.89499109   -7.5303845    631.67958   0.02312828  0.023059428            3 
 2277000   0.86762115   -7.5212212    634.19217  0.023210078  0.023052161            4 
 2278000   0.86348448   -7.5647213    631.09555  0.023086609  0.023044873            1 
 2279000   0.88452521    -7.533674    632.57253  0.023130486   0.02303758            2 
 2280000   0.87881722    -7.535005    633.31185  0.023147363  0.023030353            2 
 2281000   0.89679066   -7.5294415    634.82856  0.023192626  0.023023128            5 
 2282000   0.88036228   -7.5149573    633.81614  0.023145492  0.023015872            1 
 2283000    0.9028432    -7.546677    634.17295  0.023148377  0.023008645            3 
 2284000   0.90028828   -7.5282729     634.5143  0.023150697  0.023001406            2 
 2285000   0.88574947   -7.5417231    633.44118  0.023101429  0.022994182            2 
 2286000   0.89044448   -7.5573565     633.7642  0.023103099  0.022986958            2 
 2287000   0.89661815   -7.5257964     635.3625  0.023151235  0.022979755            3 
 2288000    0.8644526   -7.5283413    635.70766  0.023153688  0.022972598            1 
 2289000   0.89094343   -7.5086335    635.67537  0.023142397  0.022965454            3 
 2290000    0.8742729   -7.4959362    635.07769  0.023110542  0.022958285            2 
 2291000   0.88476497    -7.527939    633.70564  0.023050547  0.022951061            4 
 2292000   0.87735075   -7.5443368    633.44671  0.023031076  0.022943875            3 
 2293000   0.88594711   -7.5333353    633.73655  0.023031565  0.022936687            5 
 2294000   0.87722891   -7.5317168    635.12442  0.023071942  0.022929512            5 
 2295000   0.87972394   -7.5096659    635.71189   0.02308322   0.02292233            3 
 2296000    0.8893618   -7.5531343    635.40039  0.023061861  0.022915123            4 
 2297000   0.88689891   -7.5635975    634.67773  0.023025603  0.022907902            5 
 2298000   0.89132171   -7.5579036    634.79508  0.023019839  0.022900622            2 
 2299000   0.87949639   -7.5347401    633.65215  0.022968397  0.022893321            3 
 2300000   0.88145027   -7.5523139    632.98307  0.022934169  0.022886032            3 
 2301000    0.8916714   -7.5462893    635.69714  0.023022495  0.022878833            3 
 2302000   0.88176734   -7.5000466     634.6512  0.022974631  0.022871571            6 
 2303000   0.88389759   -7.5381256    633.81384  0.022934355  0.022864304            2 
 2304000   0.87815671   -7.5606282    634.73612  0.022957759  0.022857028            3 
 2305000   0.88098264   -7.5111924    635.50841   0.02297572  0.022849752            3 
 2306000   0.89531056   -7.5203923    634.76076  0.022938738   0.02284248            3 
 2307000   0.88872911   -7.5454192     634.6815  0.022925932  0.022835227            2 
 2308000   0.89216861   -7.5161217    635.95684  0.022962046  0.022828007            1 
 2309000   0.89904454   -7.5432053     635.4454  0.022933644  0.022820744            3 
 2310000   0.89334821   -7.5553895    635.50457   0.02292585  0.022813491            2 
 2311000   0.87096596    -7.550959    635.70995  0.022923336  0.022806296            2 
 2312000   0.86361899   -7.5731558    635.09787  0.022891359     0.022799            2 
 2313000   0.86644443   -7.5507956    633.78478  0.022834154  0.022791724            3 
 2314000   0.88348624   -7.5415896    635.89609   0.02290032  0.022784435            2 
 2315000   0.87339107   -7.5503975    634.48863  0.022839763  0.022777202            3 
 2316000   0.86608715   -7.5243493    636.20548  0.022891677   0.02276997            2 
 2317000   0.89725182   -7.5349774    635.74924  0.022865388  0.022762746            4 
 2318000    0.8886809   -7.5415754     635.6596  0.022852301    0.0227555            5 
 2319000   0.85918464   -7.5446073    636.73559  0.022881112  0.022748316            2 
 2320000   0.87383542   -7.5440474    636.07354  0.022847469  0.022741066            2 
 2321000   0.88093556   -7.5596126    638.06393  0.022909089  0.022733792            3 
 2322000   0.88807062   -7.5709043    636.11525  0.022829287  0.022726567            1 
 2323000   0.88303365   -7.5357915    635.32929  0.022791265  0.022719359            3 
 2324000   0.92568761   -7.5489621    638.31568  0.022888543  0.022712152            3 
 2325000   0.88724287   -7.5395223    637.45223   0.02284775  0.022704973            1 
 2326000   0.86754246   -7.5531293    638.99726  0.022893281  0.022697851            6 
 2327000   0.88986443   -7.5830491    637.37874  0.022825481  0.022690646            2 
 2328000   0.86516178    -7.576057    637.56904  0.022822489  0.022683437            5 
 2329000   0.89489965   -7.5229045    638.11621  0.022832267  0.022676276            3 
 2330000   0.90620228   -7.5555038    637.43549  0.022798122  0.022669118            6 
 2331000   0.89065046   -7.5276852    640.02801  0.022881024  0.022661958            4 
 2332000   0.87531234   -7.5505051    637.11054  0.022766958  0.022654789            3 
 2333000   0.87591816   -7.5545035    638.50339   0.02280695  0.022647584            1 
 2334000   0.87808885   -7.5291473    638.83355  0.022808967  0.022640411            3 
 2335000    0.8844868   -7.5744309    638.64315  0.022792404  0.022633247            3 
 2336000     0.872861   -7.5512038    637.80776  0.022752845  0.022626075            2 
 2337000   0.86775029   -7.5432067    637.71154  0.022739679  0.022618942            3 
 2338000   0.86252317   -7.5366283    638.12902  0.022744833  0.022611788            2 
 2339000   0.87595742   -7.5768415    639.34154  0.022778308  0.022604675            3 
 2340000   0.88007653     -7.59456    637.53086  0.022704091  0.022597567            3 
 2341000   0.88251032    -7.594108    639.12781  0.022751239  0.022590426            2 
 2342000   0.87945804    -7.575859    641.26114  0.022817433  0.022583275            3 
 2343000    0.8670966   -7.5761213    638.89061  0.022723382  0.022576165            2 
 2344000    0.8928685   -7.5648561    639.93195  0.022750709   0.02256906            1 
 2345000   0.88448238   -7.5646555    640.20172  0.022750594  0.022561979            1 
 2346000   0.86149435   -7.5665581    639.82247  0.022727425  0.022554883            1 
 2347000   0.88140592   -7.5335111    639.15033  0.022693876  0.022547827            2 
 2348000   0.87620941   -7.5893291    639.07775  0.022681635  0.022540735            1 
 2349000   0.87945344   -7.5661091    639.46402  0.022685683  0.022533634            5 
 2350000   0.88827338   -7.5735368     640.0574  0.022697071  0.022526516            2 
 2351000   0.85338371   -7.5491578    640.43429  0.022700776  0.022519378            3 
 2352000   0.87477791   -7.5704794    640.45755  0.022691948  0.022512242            2 
 2353000   0.90194319   -7.5544951    641.26811  0.022711011  0.022505169            2 
 2354000    0.8871944   -7.5483456     639.3521  0.022633535  0.022498082            2 
 2355000   0.89277045   -7.5655706    640.15249  0.022652246  0.022490958            3 
 2356000   0.86211228   -7.5431521    640.82456  0.022666403  0.022483842            2 
 2357000   0.86221956   -7.5506331    641.87199   0.02269382  0.022476776            2 
 2358000   0.88185706   -7.5871638    639.67846  0.022606675  0.022469661            4 
 2359000   0.88195565   -7.5898775    640.04596  0.022610074  0.022462526            2 
 2360000   0.86479552   -7.5585526    640.32556  0.022610366   0.02245537            1 
 2361000   0.89576953   -7.5344742     641.1383  0.022629476  0.022448263            2 
 2362000   0.88164084   -7.5694352    639.76552  0.022571462  0.022441217            2 
 2363000   0.86647767   -7.5737153     640.5968  0.022591226  0.022434133            2 
 2364000   0.90687722    -7.570897    639.96833  0.022559515  0.022427054            3 
 2365000   0.87432369   -7.5475316    641.73537   0.02261224  0.022420011            2 
 2366000   0.88633078   -7.5824363    641.77422  0.022604051  0.022412918            2 
 2367000   0.86586405   -7.5718231    640.06144  0.022534201  0.022405887            3 
 2368000   0.85764361   -7.5949657    641.03594  0.022558979  0.022398805            5 
 2369000   0.86991281   -7.5705062    642.79454  0.022611318  0.022391801            1 
 2370000   0.87960488   -7.5795049    642.87767    0.0226047  0.022384825            2 
 2371000   0.87112138   -7.5559131    642.83524  0.022593675  0.022377808            2 
 2372000   0.88025794   -7.5938307    642.57672  0.022575068  0.022370759            1 
 2373000   0.86872273   -7.5498346    643.01711   0.02258102  0.022363766            3 
 2374000   0.86131183   -7.5850418    643.09314  0.022574177  0.022356814            1 
 2375000   0.89203786   -7.5599466    642.41328  0.022540817   0.02234984            2 
 2376000   0.87282288   -7.5739393    641.18694  0.022488319  0.022342841            2 
 2377000   0.88104588   -7.5604111     641.9891   0.02250698   0.02233592            2 
 2378000   0.88519493    -7.566661    644.17158  0.022573997  0.022328965            5 
 2379000   0.87220997   -7.5979817    644.26479  0.022567773  0.022322044            2 
 2380000   0.86879544   -7.5954933    644.96632  0.022582854  0.022315086            3 
 2381000   0.87559594   -7.5551456    644.09094  0.022542732  0.022308156            2 
 2382000   0.87782467   -7.6119667    641.96649  0.022458945  0.022301255            3 
 2383000   0.86372374   -7.5743928     644.4169  0.022535211  0.022294333            2 
 2384000   0.86679137   -7.5763512    645.32122  0.022557369  0.022287463            3 
 2385000   0.85378741   -7.5873658    644.42321  0.022516534  0.022280554            2 
 2386000   0.86216576   -7.5979135    644.49376  0.022509561  0.022273657            2 
 2387000   0.88960903   -7.5969942    644.98947  0.022517437  0.022266759            1 
 2388000   0.87885681   -7.5646034    646.56236  0.022562896  0.022259911            4 
 2389000   0.86300706    -7.581672    645.98416  0.022533283  0.022253073            2 
 2390000   0.86492169   -7.5872565    645.35527  0.022501927  0.022246247            2 
 2391000   0.88133626   -7.5509963    645.03542  0.022481368  0.022239405            2 
 2392000   0.86799921    -7.593119    644.71055  0.022460652  0.022232536            5 
 2393000   0.85405694   -7.5831763    645.33258  0.022472927  0.022225672            2 
 2394000   0.86734814   -7.6159036    646.02953    0.0224878  0.022218814            1 
 2395000   0.89088595   -7.5424804    645.71785  0.022467566  0.022212005            2 
 2396000   0.87298772    -7.598476    646.21946  0.022475635  0.022205184            4 
 2397000   0.86639906    -7.591104    645.17058  0.022429793  0.022198341            6 
 2398000   0.87066215   -7.5750227    645.99899  0.022449228  0.022191476            4 
 2399000   0.86423913   -7.5997143    646.90232  0.022471249  0.022184655            2 
 2400000   0.87172238   -7.5762266    646.79194  0.022458054  0.022177827            4 
 2401000   0.89320492   -7.5890409    645.89044  0.022417411  0.022170942            2 
 2402000     0.836226   -7.5962963    645.86552  0.022407213  0.022164038            4 
 2403000   0.85927735   -7.5873918    645.58569  0.022388184  0.022157131            3 
 2404000   0.87637254   -7.5871177    644.97902  0.022357842  0.022150207            4 
 2405000   0.84125045   -7.5793207    647.53975  0.022437275   0.02214334            2 
 2406000   0.86468844   -7.5618021     648.1566  0.022449314   0.02213649            3 
 2407000   0.87083814   -7.5657479    646.50464  0.022382795  0.022129641            6 
 2408000   0.87857319   -7.5760692    646.43193  0.022370983  0.022122798            1 
 2409000   0.85148854   -7.5986272    646.16592  0.022352495  0.022115945            3 
 2410000   0.85461844    -7.589098    646.38125  0.022350666  0.022109067            2 
 2411000   0.84549065   -7.6036021    648.07634  0.022399984  0.022102199            2 
 2412000   0.87062105   -7.5921197    646.39736  0.022332689  0.022095319            2 
 2413000   0.86552374   -7.5991404    648.61128  0.022399892  0.022088451            2 
 2414000   0.85326048   -7.5422367    648.72909   0.02239468  0.022081661            1 
 2415000   0.86826022   -7.5672265    648.27486  0.022369733  0.022074891            5 
 2416000   0.86907416   -7.6039417    646.02969  0.022283033  0.022068103            4 
 2417000   0.87269198   -7.6181805    647.00809  0.022307547  0.022061297            2 
 2418000   0.86054963    -7.622332    646.21859  0.022271112  0.022054447            1 
 2419000    0.8564061   -7.6079057    648.16384  0.022328918  0.022047577            3 
 2420000   0.86841461   -7.6065854    648.88011  0.022344357  0.022040723            3 
 2421000   0.87058582   -7.5986651    648.17148  0.022310735  0.022033912            3 
 2422000   0.85491258   -7.5730542    648.79418  0.022322949  0.022027084            3 
 2423000   0.86863528   -7.6146099    647.52556  0.022270105  0.022020276            2 
 2424000   0.85951487    -7.597331    649.36985  0.022324321  0.022013454            3 
 2425000   0.84670364   -7.5967576    650.15311  0.022342031  0.022006647            2 
 2426000   0.87555986   -7.5798155    649.78881  0.022320308   0.02199984            2 
 2427000   0.86777732   -7.5460626    651.32719  0.022363933  0.021993105            3 
 2428000   0.86284071   -7.5808199    650.61837  0.022330394  0.021986411            2 
 2429000   0.87248162   -7.5751602    650.26668  0.022309135  0.021979694            5 
 2430000   0.85127294   -7.5961538    649.68665  0.022280063  0.021972981            3 
 2431000   0.85351955    -7.593138    650.35179  0.022293699  0.021966294            2 
 2432000   0.86344008   -7.6062008    650.76152  0.022298572  0.021959582            2 
 2433000   0.86872379   -7.6056256    649.27844   0.02223861  0.021952839            2 
 2434000   0.87762383   -7.6028288      648.135  0.022190324  0.021946105            2 
 2435000   0.85552609   -7.5894697    650.56775  0.022264468  0.021939357            3 
 2436000   0.83799437   -7.6182563    649.18028  0.022207864  0.021932591            4 
 2437000   0.85756888   -7.6401779    650.35196  0.022238817  0.021925839            2 
 2438000   0.86210734   -7.6075337    648.99155  0.022183195  0.021919106            3 
 2439000   0.85276249   -7.6189845    650.39357  0.022222003   0.02191242            4 
 2440000   0.83489667   -7.5931158    651.37764  0.022246504  0.021905759            3 
 2441000   0.86089275   -7.6057263    651.25233  0.022233112  0.021899146            3 
 2442000   0.84617105   -7.6297292    650.80385  0.022208704  0.021892479            2 
 2443000    0.8467869   -7.5873246     651.9976  0.022240333  0.021885837            4 
 2444000   0.85048448   -7.6345388    651.01446  0.022197711  0.021879203            4 
 2445000   0.87097561   -7.5918237    651.39057  0.022201451  0.021872592            2 
 2446000   0.85838418   -7.6069723    650.70745  0.022169101   0.02186597            2 
 2447000   0.85057951   -7.6156631    651.32714  0.022181145  0.021859305            2 
 2448000   0.85768249   -7.6318233    649.71956   0.02211736  0.021852618            2 
 2449000   0.86193736   -7.6123933    653.27587  0.022229341  0.021845934            2 
 2450000   0.85743801   -7.6131893    651.62936  0.022164264  0.021839269       -1e+20 
 2451000    0.8726009   -7.6005038    650.52824  0.022117783   0.02183256            2 
 2452000   0.85419899   -7.6235286    652.02324  0.022159572  0.021825897            3 
 2453000   0.85501502   -7.5633067    651.08339   0.02211861  0.021819209            2 
 2454000   0.84879759   -7.6062979     651.8692  0.022136281  0.021812533            5 
 2455000   0.86884835   -7.5955406    650.89526  0.022094204  0.021805893            3 
 2456000   0.86460665   -7.6106707    652.02273  0.022123464  0.021799228            4 
 2457000   0.86820111   -7.5776268    652.22675  0.022121379  0.021792542            3 
 2458000   0.86645614   -7.6139588    651.45769  0.022086306   0.02178584            5 
 2459000   0.85272966   -7.6192136     652.5288  0.022113623  0.021779147            2 
 2460000   0.89156134   -7.6141584    653.32226  0.022131513  0.021772474            3 
 2461000   0.83140573   -7.6012364    651.76778  0.022069883  0.021765854            3 
 2462000    0.8515065   -7.5662121    652.34221  0.022080362  0.021759217            3 
 2463000   0.84063737   -7.6222312    652.76526  0.022085711  0.021752558            1 
 2464000   0.84777001   -7.5898986    653.51372   0.02210206  0.021745892            4 
 2465000    0.8567779   -7.5968059    653.03365  0.022076865  0.021739195            4 
 2466000   0.83751307   -7.6194717    651.27349  0.022008431  0.021732545            7 
 2467000   0.84937629   -7.5776671    653.59412  0.022077899  0.021725874            2 
 2468000   0.83458587   -7.6402174    651.99866  0.022015082  0.021719223            3 
 2469000   0.86690201   -7.6220008    652.28866  0.022015953  0.021712564            2 
 2470000   0.86071207   -7.6280796    655.09302  0.022101654  0.021705905            4 
 2471000   0.85286168   -7.6087331    653.58839  0.022041966  0.021699268            3 
 2472000   0.84975328   -7.6272816    653.94466   0.02204506  0.021692649            7 
 2473000   0.85125218   -7.5850095     653.7664  0.022030139  0.021686047            4 
 2474000   0.86103072   -7.6135852    653.40085  0.022008921  0.021679471            3 
 2475000   0.84736409   -7.6306877    654.74971  0.022045445  0.021672813            2 
 2476000   0.85065918    -7.586161    653.72815  0.022002159  0.021666228            2 
 2477000   0.85718338      -7.5838    654.40315  0.022015985  0.021659628            3 
 2478000   0.85797536   -7.6000285    654.69018  0.022016753  0.021653015            3 
 2479000   0.86068532   -7.6095672    653.47402   0.02196699  0.021646414            2 
 2480000   0.84934078   -7.5968852    653.55712  0.021960925  0.021639767            2 
 2481000   0.85520766   -7.6022203    653.97934  0.021966255  0.021633072            3 
 2482000   0.83817481   -7.6102403     655.2449  0.021999896  0.021626397            5 
 2483000   0.85362366   -7.6428896    654.43076  0.021963712  0.021619695            3 
 2484000    0.8664538   -7.6296336    653.24449  0.021915073  0.021612994            3 
 2485000   0.84525269   -7.6211047    654.40812  0.021945276  0.021606321            2 
 2486000   0.85931467   -7.5929145    653.45697  0.021904565  0.021599684            2 
 2487000   0.85724006   -7.6315901    655.20798  0.021954429  0.021593063            2 
 2488000   0.85645343   -7.5961121    655.99013  0.021971802  0.021586454            2 
 2489000   0.86689815   -7.6037978    654.66384   0.02191857  0.021579899            5 
 2490000   0.84221156   -7.6475734     654.3339  0.021898725   0.02157331            1 
 2491000   0.86140445   -7.6380022    654.66189  0.021900906  0.021566693            1 
 2492000   0.84779429   -7.6209551    654.11705  0.021873898  0.021560077            2 
 2493000   0.86847094   -7.6185145    654.71709  0.021885182  0.021553452            2 
 2494000   0.84875129    -7.599609    656.17511  0.021925124  0.021546866            1 
 2495000   0.86909352   -7.6399213    655.55786   0.02189572  0.021540297            2 
 2496000   0.84408407   -7.6432085    657.29834  0.021945057  0.021533682            3 
 2497000   0.85360595   -7.6100086    654.53978  0.021844206   0.02152711            1 
 2498000   0.86369359   -7.6241871    655.87467  0.021879993  0.021520499            5 
 2499000   0.83986818   -7.6361488    656.17344    0.0218812  0.021513862            1 
 2500000   0.85707097   -7.5953766    657.03946  0.021901315  0.021507276            2 
 2501000   0.86214033   -7.6536788    654.64548  0.021812791  0.021500702            2 
 2502000   0.85313379   -7.6169667    655.30434  0.021826017  0.021494071            3 
 2503000    0.8692574   -7.6168833    658.29336  0.021916812   0.02148748            4 
 2504000   0.85546546   -7.6277231    656.30492  0.021841884  0.021480928            1 
 2505000   0.83863167    -7.651248    654.70153  0.021779825  0.021474288            2 
 2506000   0.84154575   -7.6013227    654.64984  0.021769415  0.021467651            2 
 2507000   0.86591868   -7.6589042    655.21534  0.021779529  0.021461006            3 
 2508000    0.8391651   -7.6233139     655.2116   0.02177072  0.021454369            3 
 2509000   0.82797816   -7.6059737    656.73909  0.021812777  0.021447768            1 
 2510000   0.84736465   -7.6100553    656.09247  0.021782619  0.021441176            4 
 2511000   0.85021492   -7.6194199     657.5013  0.021820699  0.021434648            5 
 2512000   0.86382714   -7.6459327    656.86356  0.021790856  0.021428047            3 
 2513000   0.84233295   -7.6163866    657.30825  0.021796931  0.021421438            2 
 2514000   0.86022243   -7.5855473    658.03056  0.021812204  0.021414865            2 
 2515000   0.85688313   -7.6015548    657.01348   0.02176983   0.02140834            3 
 2516000   0.84010721   -7.6090846     655.9636  0.021726404  0.021401804            2 
 2517000   0.85605633     -7.61932    658.16879  0.021790782  0.021395314            3 
 2518000   0.82853452   -7.6551086    656.19154  0.021716691  0.021388731            4 
 2519000   0.85786784   -7.6131153    657.61344  0.021755109  0.021382153            3 
 2520000   0.83863435   -7.6167105    658.41796  0.021773081  0.021375585            4 
 2521000   0.86525755   -7.5641851    659.99653  0.021816625  0.021369067            1 
 2522000   0.84618103   -7.6290006    659.36181  0.021787001   0.02136258            4 
 2523000   0.83437059   -7.6451546    656.85534  0.021695579  0.021356063            1 
 2524000    0.8594559   -7.6172962    658.06123  0.021726797  0.021349545            1 
 2525000   0.85786676   -7.6175234    658.89384  0.021745671  0.021343024            2 
 2526000   0.84117633   -7.6298624    658.77883  0.021733268  0.021336528            3 
 2527000   0.85627397   -7.6222205    658.21349  0.021706025  0.021329991            2 
 2528000   0.84823485   -7.6331102    659.55004  0.021741496  0.021323466            2 
 2529000   0.83275785    -7.646693    658.15552  0.021686949  0.021316947            1 
 2530000    0.8484407   -7.6244429    659.31336  0.021716514  0.021310455            2 
 2531000   0.84498247   -7.6510896    658.51119  0.021681522  0.021303956            2 
 2532000   0.84094838   -7.6377013    657.37427  0.021635541  0.021297449            2 
 2533000   0.83775389   -7.5975727    659.47974  0.021696267  0.021290945            2 
 2534000    0.8496815   -7.5979263    659.09114  0.021674926  0.021284462            3 
 2535000   0.84784055   -7.6251836     659.0157  0.021663896  0.021277988            4 
 2536000   0.83190251   -7.6117771    659.68674  0.021677404   0.02127147            2 
 2537000   0.82322347   -7.6463945     657.6894  0.021603252  0.021264927            2 
 2538000   0.83596148   -7.6264255    659.87872  0.021666625  0.021258419            3 
 2539000   0.86480332   -7.6701267    658.24125  0.021604347  0.021251928            2 
 2540000   0.84274528   -7.6372901    658.38562  0.021600578  0.021245394            3 
 2541000   0.84071487   -7.6264004    660.22976  0.021652557  0.021238911            2 
 2542000   0.84243191   -7.6258235    659.92227  0.021633959  0.021232429            2 
 2543000   0.83990911   -7.6018357    660.01646  0.021628538  0.021225939            2 
 2544000   0.82762411   -7.6247339    660.00523  0.021619668  0.021219459            3 
 2545000   0.83585896   -7.6416749    659.94109  0.021609073  0.021212996            2 
 2546000   0.84654724   -7.6204914    660.82395  0.021629483  0.021206497            4 
 2547000   0.85544938   -7.6165809    660.91182  0.021623865  0.021200061            2 
 2548000   0.84246169    -7.619353    661.01025  0.021618598  0.021193611            2 
 2549000   0.84054439   -7.6313121    659.91782  0.021574402  0.021187141            2 
 2550000   0.84592276   -7.5993281    661.49139  0.021617366  0.021180736            6 
 2551000   0.86827864   -7.6538873    661.10085  0.021596134  0.021174305            2 
 2552000   0.84433637   -7.6285528    660.74223  0.021575961  0.021167831            2 
 2553000   0.84733093   -7.6504819    660.18909  0.021549455  0.021161341            3 
 2554000   0.85792652   -7.6409035     660.8842  0.021563697  0.021154876            3 
 2555000   0.86789134   -7.6307841    662.16307  0.021596969  0.021148439            2 
 2556000   0.85284428   -7.6373114    661.06919  0.021552856  0.021142013            3 
 2557000   0.84652764   -7.6475753    659.23501   0.02148465  0.021135556            6 
 2558000   0.85235615   -7.6680968    660.84411  0.021528672   0.02112909            2 
 2559000   0.84768751   -7.6519575       660.72  0.021516217  0.021122598            3 
 2560000   0.83490408   -7.6642161    661.74121  0.021541055  0.021116144            6 
 2561000   0.84939728   -7.6387451    661.21471  0.021515512  0.021109719            2 
 2562000   0.83827977   -7.6489882    661.88638  0.021528961  0.021103297            3 
 2563000    0.8344338   -7.6591651     662.3235  0.021534774  0.021096876            1 
 2564000   0.87718138    -7.654299     661.6358  0.021504024  0.021090466            4 
 2565000    0.8497871   -7.6428203    661.71309  0.021498151  0.021084044            1 
 2566000   0.83956388    -7.643091    662.30296   0.02150893  0.021077618            2 
 2567000   0.83660524   -7.6381806    663.69915  0.021545875  0.021071243            2 
 2568000   0.85110376   -7.6373397    663.59395  0.021534071  0.021064912            2 
 2569000   0.84003905   -7.6673716    663.93636  0.021536796  0.021058575            2 
 2570000   0.84768731   -7.6421379    664.78866  0.021556052  0.021052205            2 
 2571000    0.8359124    -7.667341    662.83286  0.021484275  0.021045831            4 
 2572000   0.84331872   -7.6521007    663.90145  0.021510545  0.021039466            1 
 2573000   0.83656957   -7.6573575    663.47681  0.021488432  0.021033116            2 
 2574000   0.84669697    -7.654296    661.82967  0.021426757   0.02102671            4 
 2575000   0.84693069   -7.6797344    662.63272  0.021444425  0.021020316            1 
 2576000   0.83873916   -7.6637624    663.06847  0.021450196  0.021013933            2 
 2577000   0.84203945   -7.6162212    663.11829  0.021443484  0.021007554            4 
 2578000   0.85482142   -7.6540298    663.91844   0.02146103  0.021001145            4 
 2579000   0.84039291   -7.6370941    663.34268  0.021434105  0.020994782            3 
 2580000   0.82267231   -7.6511779    662.45261  0.021397048  0.020988429            2 
 2581000    0.8291987   -7.6726863    662.42028  0.021387714  0.020982046            5 
 2582000   0.81645246   -7.6398592    663.63178  0.021418532  0.020975697            3 
 2583000   0.84078004   -7.6348281    664.40049   0.02143504  0.020969365            2 
 2584000   0.85174492   -7.6339899    665.37843  0.021458283  0.020963044            2 
 2585000   0.84287155   -7.6579011    665.45468   0.02145244  0.020956745            2 
 2586000   0.83146541   -7.6548171    664.39174  0.021409891   0.02095039            2 
 2587000   0.83444713   -7.6581032    663.30054  0.021366465  0.020944033            4 
 2588000   0.84084737   -7.6365579    663.06494  0.021350623  0.020937635            4 
 2589000   0.83373051   -7.6522467    664.22246  0.021379634  0.020931282            3 
 2590000   0.83194008   -7.6448934    664.36822  0.021376069  0.020924911            2 
 2591000     0.841161   -7.6601375    664.08639  0.021358754  0.020918519            3 
 2592000   0.84444049   -7.6383413    665.09876  0.021383062  0.020912138            4 
 2593000   0.83638447   -7.6646206    662.90463  0.021304301  0.020905737            4 
 2594000   0.84444644   -7.6405571    663.16319  0.021304394  0.020899337            1 
 2595000   0.83883551   -7.6925733      663.079  0.021293481  0.020892924            6 
 2596000   0.83687021   -7.6431959    663.92834  0.021312543  0.020886538            2 
 2597000   0.84686856   -7.6920285    663.73248  0.021298052  0.020880137            4 
 2598000   0.84215105   -7.6663128    664.07304  0.021300778  0.020873723            3 
 2599000   0.84050545   -7.6352168    663.59911  0.021277386  0.020867322            2 
 2600000   0.83447127   -7.6850171    663.56338  0.021268057  0.020860883            6 
 2601000   0.82149786   -7.6869217    663.91228  0.021271058  0.020854454            2 
 2602000   0.83499912   -7.6779776     663.4041  0.021246608   0.02084806            6 
 2603000   0.83243516   -7.6752956    664.05034  0.021259135  0.020841668            4 
 2604000   0.83086113   -7.6688464     663.8042  0.021243094  0.020835276            5 
 2605000   0.81131202   -7.6519005    665.74798   0.02129712  0.020828941            2 
 2606000   0.85879354   -7.6643174    664.44231  0.021247196  0.020822613            3 
 2607000   0.84308961   -7.6539028    663.67001  0.021214359  0.020816272            1 
 2608000   0.83679467   -7.6538513    664.63975  0.021237211  0.020809984            2 
 2609000   0.83214337   -7.6209894    666.18452  0.021278412  0.020803726            7 
 2610000   0.83191068   -7.6609315    665.65749  0.021253432  0.020797469            1 
 2611000   0.84116192   -7.6717289    665.09314   0.02122728  0.020791176            1 
 2612000   0.83370876   -7.6716803    665.98023  0.021247455  0.020784834            3 
 2613000   0.83691321   -7.6519033    665.82639  0.021234417  0.020778525            4 
 2614000    0.8304813   -7.6704355    663.92189  0.021165579  0.020772181            7 
 2615000   0.84221205   -7.6149865    665.43497  0.021205703  0.020765858            2 
 2616000   0.82230485   -7.6758158    664.41833  0.021165212  0.020759515            2 
 2617000   0.83648006   -7.6452134    666.91471  0.021236617  0.020753179            2 
 2618000   0.81854681    -7.679282    666.30505  0.021209099  0.020746869            1 
 2619000   0.84369032   -7.6434071    667.36037   0.02123458  0.020740576            2 
 2620000   0.83233599   -7.6726775    666.38364  0.021195408  0.020734311            5 
 2621000   0.83635034    -7.671442    667.11689  0.021210635  0.020728008            2 
 2622000   0.85547095   -7.6523482    666.83556  0.021193604  0.020721756            2 
 2623000   0.82056652   -7.6114418    667.40338  0.021203564  0.020715512            5 
 2624000   0.84959186   -7.6612822    666.13742  0.021155279  0.020709227            3 
 2625000   0.83027288   -7.6608973    666.70085  0.021165106  0.020702888            3 
 2626000   0.83616989   -7.6509779    666.22614  0.021141982  0.020696589            4 
 2627000   0.83062304   -7.6462181     667.8205   0.02118451  0.020690274            1 
 2628000   0.84618831   -7.6720774    666.80306  0.021144186  0.020683962            3 
 2629000   0.83915442   -7.6730173    667.36124  0.021153837  0.020677624            1 
 2630000   0.82915391   -7.6787788    667.20011  0.021140688  0.020671294            2 
 2631000   0.83774297   -7.6484195     666.6101  0.021113965     0.020665            5 
 2632000   0.82282866   -7.6535948     668.0047  0.021150098  0.020658752            2 
 2633000   0.84904863    -7.686525    665.81595  0.021072792  0.020652454            2 
 2634000   0.82741801   -7.6594696    666.60456  0.021089742  0.020646112            3 
 2635000   0.83397349   -7.6653343    666.47857  0.021077754  0.020639782            2 
 2636000   0.82410211    -7.685068    666.66556  0.021075669  0.020633476            1 
 2637000   0.83791143    -7.707869    666.18215    0.0210524  0.020627168            5 
 2638000   0.83056626   -7.6585466    666.79582  0.021063805  0.020620878            2 
 2639000   0.82825739   -7.6489782    668.89076  0.021121977  0.020614601            4 
 2640000   0.84479187   -7.6944712    668.05827  0.021087698  0.020608322            2 
 2641000   0.81826488   -7.6470955    668.55942  0.021095526  0.020602054            3 
 2642000    0.8209026    -7.683997    666.49028  0.021022277  0.020595754            2 
 2643000   0.82574222   -7.6741278    667.94811  0.021060288  0.020589465            3 
 2644000   0.81127155   -7.6889764    668.08135  0.021056523  0.020583185            4 
 2645000   0.83029752   -7.6919424    667.27294  0.021023092  0.020576956            3 
 2646000   0.85088961    -7.691448    666.76065  0.020999013  0.020570684            2 
 2647000   0.80525881   -7.6831971    667.33357  0.021009116  0.020564413            7 
 2648000   0.82152097   -7.6747065    668.58354  0.021040519  0.020558135            3 
 2649000   0.80548454   -7.6617082    669.33781  0.021056305    0.0205519            2 
 2650000   0.82740782   -7.6622514    669.48966  0.021053134  0.020545658            4 
 2651000    0.8352264   -7.6545022    669.41925  0.021042979  0.020539412            4 
 2652000   0.82530102   -7.6769836    668.21237  0.020997121  0.020533149            5 
 2653000    0.8390679   -7.6806752    667.10503  0.020954424  0.020526891            4 
 2654000   0.81015949   -7.6637735     668.5413  0.020991626  0.020520633            4 
 2655000   0.83007068   -7.6512243    668.21005  0.020973322  0.020514416            3 
 2656000   0.82789643   -7.6281485    671.77477  0.021077271  0.020508232            1 
 2657000   0.82847184   -7.6691325    668.89596  0.020979048  0.020502049            3 
 2658000   0.82517337   -7.6665239    669.36396  0.020985828  0.020495824            2 
 2659000   0.83103904    -7.664001    670.17819  0.021003453  0.020489663            3 
 2660000    0.8150333   -7.6851785    670.54619  0.021007086  0.020483479            3 
 2661000   0.81711708   -7.7013439    669.29935  0.020960145  0.020477287            2 
 2662000   0.81958533    -7.725439    670.39269  0.020986498  0.020471065            2 
 2663000   0.81007839   -7.7001749    671.02785  0.020998493  0.020464823            5 
 2664000   0.83800465    -7.708337    668.96361  0.020926039  0.020458559            3 
 2665000   0.82113439   -7.7148308    668.69172  0.020909685  0.020452287            3 
 2666000   0.82410762   -7.6730087    669.74276  0.020934695  0.020446091            2 
 2667000   0.83967803   -7.7074533    668.64306  0.020892484  0.020439881            3 
 2668000   0.83198101    -7.683023    670.08605  0.020929724  0.020433635            3 
 2669000   0.81418626   -7.6992275    669.51621   0.02090409  0.020427392            3 
 2670000   0.83147005   -7.7341356    668.24259   0.02085651  0.020421158            2 
 2671000   0.80763185   -7.6630349    671.45996  0.020949081  0.020414923            2 
 2672000   0.82489526   -7.6737458    670.01955  0.020896318  0.020408716            5 
 2673000   0.84178787   -7.7113252    670.08233  0.020890458  0.020402501            5 
 2674000   0.82112402   -7.6427564    669.45658  0.020863145   0.02039628            1 
 2675000   0.80751679   -7.6725553    671.74753  0.020926714  0.020390112            4 
 2676000   0.81396776   -7.6727727    670.22407  0.020871452  0.020383943            2 
 2677000   0.80955819   -7.6778245     670.3349  0.020867106  0.020377748            3 
 2678000   0.83057156   -7.6995203    671.52728  0.020896418  0.020371572            3 
 2679000   0.81644321   -7.6329507    670.90578  0.020869285  0.020365423            9 
 2680000   0.82159981    -7.683125    671.24551  0.020872062  0.020359267            2 
 2681000   0.82370862   -7.6679569    671.63839  0.020876489  0.020353106            2 
 2682000   0.82252395   -7.6879159    671.07755  0.020851279  0.020346943            3 
 2683000   0.84052298   -7.6922198     670.9673  0.020840083  0.020340782            3 
 2684000   0.82235457   -7.6826268    671.01856   0.02083391  0.020334615            2 
 2685000   0.83223429   -7.6583231    672.35542  0.020867642  0.020328476            2 
 2686000   0.83151866   -7.6444041    673.41545   0.02089276  0.020322384            1 
 2687000   0.84406249   -7.6577536    671.38375  0.020821975  0.020316243            3 
 2688000   0.81894413   -7.6708334    672.00596  0.020833518  0.020310092            2 
 2689000    0.8120163   -7.6654371    672.42109  0.020838636  0.020303999            4 
 2690000   0.80460055   -7.7032159    671.20849  0.020793324  0.020297876            2 
 2691000   0.82834918   -7.7026809    670.92742  0.020776893   0.02029173            1 
 2692000   0.83175653   -7.7036275    671.36668  0.020782772  0.020285558            2 
 2693000   0.82637552   -7.6968328    671.44447  0.020777462  0.020279421            2 
 2694000   0.79383059   -7.6755731    672.15444  0.020791711  0.020273323            3 
 2695000   0.82654594   -7.6885225    672.52856  0.020795565  0.020267267            2 
 2696000   0.81852913   -7.6889388    674.24841  0.020841012   0.02026119            3 
 2697000   0.82108806   -7.6802115    673.51351  0.020810577  0.020255122            3 
 2698000   0.81875632   -7.6974312    672.61886  0.020775231  0.020249035            8 
 2699000   0.81198179   -7.6693426    672.04045  0.020749674  0.020242921            1 
 2700000   0.82629292   -7.6901123    673.02677  0.020772431  0.020236791            3 
 2701000   0.82408347   -7.6751562    673.74693  0.020786959  0.020230675            2 
 2702000   0.81998944   -7.7055145    671.04692  0.020695994  0.020224537            3 
 2703000   0.81572829   -7.6685793    674.62687  0.020798707  0.020218393            5 
 2704000   0.83068887   -7.7239755    673.46004  0.020755055  0.020212285            2 
 2705000   0.81786577   -7.7265956    672.96021  0.020731984   0.02020615            6 
 2706000   0.81618923   -7.6923165    673.55891   0.02074276  0.020200027            4 
 2707000   0.83273522   -7.6679103    674.72004  0.020770842  0.020193935            2 
 2708000   0.83608508   -7.6986181    673.33504  0.020720551  0.020187846            6 
 2709000   0.83079799   -7.6913978    674.11349  0.020736849  0.020181786            3 
 2710000   0.79978252   -7.6985801    674.24721  0.020733309  0.020175724            2 
 2711000   0.82882109   -7.7161183    674.11376  0.020721559  0.020169693            3 
 2712000   0.83416655    -7.680417    673.74512  0.020702591  0.020163614            1 
 2713000   0.81843838   -7.7196499    674.38087  0.020714488  0.020157537            2 
 2714000   0.82685754    -7.717694    674.15193  0.020699826  0.020151464            2 
 2715000   0.82270958   -7.6999485    672.42424  0.020639173  0.020145362            1 
 2716000   0.80170204   -7.6763254    674.95258  0.020709149  0.020139261            3 
 2717000   0.81275446   -7.7073654    673.28768  0.020650463  0.020133141            3 
 2718000   0.83691984   -7.7181027    673.58247  0.020651903  0.020126997            2 
 2719000   0.83216002   -7.6901513    673.96093  0.020655907  0.020120901            3 
 2720000   0.81227024   -7.6978642    673.48239  0.020633652    0.0201148            2 
 2721000   0.83530896   -7.6696836    674.43282  0.020655176  0.020108698            2 
 2722000   0.81021435   -7.6933418    674.73719  0.020656906  0.020102641            3 
 2723000    0.8150085   -7.6724289    674.62492  0.020645884   0.02009654            2 
 2724000   0.81923295   -7.6906024    673.17814  0.020594045  0.020090467            2 
 2725000   0.80918771   -7.6994884    674.72101   0.02063367  0.020084398            2 
 2726000   0.81198914   -7.7318498    673.37838  0.020585057  0.020078279            3 
 2727000   0.82642928   -7.6766933     673.4684  0.020580259  0.020072155            5 
 2728000   0.81024004   -7.7180479    672.42649  0.020540887  0.020066063            3 
 2729000   0.82172023   -7.6934029     673.7482   0.02057372  0.020059925            2 
 2730000   0.80350864   -7.7308065    672.55154  0.020529656  0.020053786            5 
 2731000   0.81322174   -7.7274047    673.14083   0.02054012  0.020047637            2 
 2732000   0.81508818   -7.6997053    672.90114  0.020525291  0.020041478            3 
 2733000   0.82993478   -7.6812484    673.92729   0.02054907  0.020035366            5 
 2734000   0.81184852   -7.7167036    672.88331  0.020509733  0.020029248            2 
 2735000    0.7992822   -7.6830178    676.64931  0.020616981  0.020023138            3 
 2736000   0.79871289   -7.7135348    674.73704  0.020551201  0.020017031            3 
 2737000   0.80546283   -7.7045302    672.82484  0.020485472  0.020010919            2 
 2738000   0.81663154   -7.7046043    675.16729  0.020549285   0.02000481            3 
 2739000    0.8111757   -7.7224957    673.63378  0.020495125  0.019998692            2 
 2740000   0.81415126   -7.6639678    674.56182   0.02051587  0.019992617            3 
 2741000   0.83574231   -7.7097644     675.7178   0.02054353  0.019986538            1 
 2742000   0.82634781   -7.7053028    676.13627  0.020548756  0.019980483            5 
 2743000   0.81354087   -7.7063395    674.74478  0.020498991  0.019974388            4 
 2744000   0.80499638   -7.7401044    673.66064  0.020458596  0.019968274            3 
 2745000   0.82266773   -7.6967119    673.88119  0.020457838  0.019962137            2 
 2746000   0.80660971   -7.7234381    674.15177  0.020458599  0.019956062            2 
 2747000   0.80533113   -7.7010914    674.57905  0.020464114  0.019949967            3 
 2748000   0.79867937   -7.7311876    676.04447  0.020501106  0.019943885            2 
 2749000   0.82505074   -7.7241149    675.61344  0.020480582    0.0199378            3 
 2750000   0.80623672   -7.7252354    675.04004  0.020455759  0.019931723            1 
 2751000   0.79203364   -7.6892588    676.13333  0.020481441   0.01992566            3 
 2752000   0.79383255   -7.7313651    675.04832  0.020441144  0.019919601            3 
 2753000   0.79529304   -7.6935827    678.04512  0.020524432  0.019913548            2 
 2754000   0.81367489   -7.7117394    676.82422  0.020480036  0.019907492            2 
 2755000   0.82239816   -7.6681311    677.52614  0.020493834  0.019901461            3 
 2756000   0.80138029   -7.7105969    676.33743  0.020450454  0.019895449            3 
 2757000     0.810969   -7.6912779     678.7084  0.020514702  0.019889445            3 
 2758000   0.83024881   -7.6921933    677.70389  0.020476912  0.019883455            2 
 2759000   0.80132092   -7.7055471    679.13216   0.02051263  0.019877484            2 
 2760000   0.82969074    -7.698618    678.07792  0.020473367  0.019871563            4 
 2761000   0.78959975   -7.7048582    678.42134  0.020476317  0.019865599            2 
 2762000    0.8173861   -7.7064469    677.18902  0.020431723  0.019859597            2 
 2763000   0.80358192   -7.6861455     676.2711  0.020396643  0.019853569            3 
 2764000   0.80586497    -7.698012    677.36243  0.020422167  0.019847568            3 
 2765000    0.8170513   -7.7283798    676.20388  0.020379864  0.019841549            2 
 2766000   0.82722703   -7.6980284    676.89784  0.020393403  0.019835551            4 
 2767000    0.8126931   -7.7108011    678.68682  0.020439912  0.019829548            2 
 2768000   0.80739157   -7.7666991      676.224  0.020358382  0.019823513            2 
 2769000   0.81413762   -7.7164579    677.64947  0.020393929  0.019817452            4 
 2770000   0.80730315   -7.7378354    676.54228  0.020353258  0.019811408            4 
 2771000   0.80635736   -7.7019294    677.38649  0.020371301  0.019805366            5 
 2772000   0.82784138   -7.7252855    676.96339  0.020351232  0.019799291            1 
 2773000    0.8115973   -7.7504219    675.80493   0.02030908  0.019793235            3 
 2774000   0.81470424   -7.7208372    675.57236  0.020294772  0.019787176            3 
 2775000   0.81172293   -7.7431813    676.57736  0.020317638  0.019781108            1 
 2776000   0.83417761   -7.7334458    677.81795  0.020347561  0.019775029            3 
 2777000   0.79521523   -7.7265144     676.4076  0.020297911  0.019768966            2 
 2778000   0.79748855    -7.716511    677.31427  0.020317803  0.019762897            3 
 2779000   0.79039664   -7.7270769    676.89583  0.020297944  0.019756837            2 
 2780000   0.80693088   -7.7449463    676.93082  0.020291691  0.019750774            2 
 2781000   0.80677325   -7.7183127    678.46005  0.020330218  0.019744734            3 
 2782000   0.79535536   -7.7419553    677.49332  0.020293953  0.019738678            3 
 2783000   0.81339975   -7.6841331    676.45357  0.020255527  0.019732614            2 
 2784000   0.81384942   -7.7384198    678.05879    0.0202963  0.019726564            3 
 2785000   0.80156324   -7.7197763    677.51774  0.020272823  0.019720499            2 
 2786000     0.812244   -7.7355892    675.78566  0.020213737  0.019714449            2 
 2787000   0.80186318   -7.7323767    677.52729   0.02025856   0.01970837            1 
 2788000   0.79623884   -7.7253285    678.90666  0.020292523   0.01970233            2 
 2789000   0.79807876   -7.7063208    677.35293  0.020238823   0.01969627            1 
 2790000   0.80423526   -7.7518805    676.44153  0.020204347  0.019690211            3 
 2791000   0.81311326   -7.7063546    676.84232  0.020209074  0.019684167            2 
 2792000   0.81571612   -7.7310298    677.06621  0.020208519  0.019678111            1 
 2793000    0.8007084   -7.7074182    678.07593   0.02023141  0.019672098            3 
 2794000   0.80423391   -7.7282985    677.93257  0.020219893  0.019666103            3 
 2795000   0.82169778   -7.7275354    680.46903  0.020288284  0.019660095            2 
 2796000   0.78952613   -7.7368796    676.09058   0.02015053   0.01965406            3 
 2797000    0.8042952   -7.7334858     677.0626  0.020172286  0.019648038            3 
 2798000   0.78988221   -7.7371481    678.26745  0.020200961  0.019641996            3 
 2799000   0.77248638    -7.726428    678.31588  0.020195185  0.019635945            3 
 2800000   0.81123112   -7.7315126    678.22163  0.020185167  0.019629915            2 
 2801000   0.79884159   -7.7478161    677.81782  0.020165947  0.019623868            3 
 2802000    0.7965931   -7.7225835    678.58512   0.02018157  0.019617875            2 
 2803000   0.80798291   -7.7335518    677.38608  0.020138723  0.019611877            3 
 2804000   0.79510721   -7.7073837     678.6799  0.020169992  0.019605869            5 
 2805000    0.7935072   -7.7023417    680.16389  0.020206889  0.019599893            2 
 2806000   0.80011723   -7.7438225    679.06215  0.020166968  0.019593924            4 
 2807000   0.79410977   -7.7567121    679.46649  0.020171788  0.019587947            1 
 2808000   0.81355568   -7.7308311     679.9627   0.02017933  0.019581936            2 
 2809000   0.80691109   -7.7450545    680.37357  0.020184335  0.019575942            4 
 2810000   0.80534598   -7.7455232    678.54456  0.020122911  0.019569949            7 
 2811000   0.79523374   -7.7181646    678.04949  0.020101076  0.019563939            3 
 2812000   0.80136729   -7.7604507    677.99085   0.02009219   0.01955796            5 
 2813000   0.80127701   -7.7304593     676.1249   0.02002977  0.019551977            3 
 2814000   0.79876324   -7.7824161    676.75324  0.020041259   0.01954592            3 
 2815000    0.8072489   -7.7650834    678.07983  0.020073411  0.019539868            3 
 2816000   0.78968978   -7.7734278    678.58872  0.020081342  0.019533798            2 
 2817000   0.78925001   -7.7386289    679.17924  0.020091683  0.019527776            2 
 2818000   0.78724546   -7.7610541    678.26532  0.020057527  0.019521748            1 
 2819000   0.79277306   -7.7780669    679.42449  0.020084678   0.01951574            2 
 2820000   0.79712326   -7.7848895    678.91533   0.02006251  0.019509731            5 
 2821000   0.79018247   -7.7357607    680.49765   0.02010214  0.019503721            5 
 2822000   0.79858054   -7.7692419    679.14848  0.020055176  0.019497709            3 
 2823000   0.79135191   -7.7765785    677.84719  0.020009658  0.019491688            4 
 2824000   0.81346089   -7.7523882     679.4569  0.020050074  0.019485673            3 
 2825000   0.80159174   -7.7672438    679.71892  0.020050705  0.019479683            3 
 2826000   0.78914343   -7.7414513    680.36247  0.020062588  0.019473691            2 
 2827000   0.80423635   -7.7374754    679.15501  0.020019898  0.019467725            5 
 2828000   0.80204655   -7.7443412    680.39586  0.020049383  0.019461753            1 
 2829000   0.80692443   -7.7077473    681.13439  0.020064051  0.019455818            3 
 2830000   0.80143212   -7.7497654    681.22596  0.020059657  0.019449872            3 
 2831000   0.78578539   -7.7449663    680.62335  0.020034833  0.019443931            3 
 2832000   0.80583988   -7.7679413    678.85565  0.019975743   0.01943799            2 
 2833000   0.80591544    -7.756256    680.52526  0.020017804  0.019432053            3 
 2834000   0.80230576   -7.7369717    681.75459  0.020046889  0.019426163            1 
 2835000   0.79359587   -7.7707575    680.68837  0.020008477  0.019420261            1 
 2836000   0.78424471   -7.7492007    681.65614  0.020029858  0.019414322            3 
 2837000   0.81335488   -7.7395542    681.62985  0.020022026  0.019408439            1 
 2838000   0.80880687   -7.7433569    681.31787   0.02000581  0.019402571            3 
 2839000   0.81339272   -7.7314182    682.20905  0.020024922  0.019396706            3 
 2840000   0.80873499   -7.7462498    680.77266  0.019975724  0.019390831            3 
 2841000   0.80814914   -7.7739676    681.42167  0.019987729  0.019384947            2 
 2842000   0.79670238   -7.7770396    680.91221  0.019965758  0.019379047            2 
 2843000   0.78984147   -7.7599839    681.55275  0.019977511  0.019373178            1 
 2844000   0.80711367   -7.7577818    681.38281  0.019965507  0.019367313            2 
 2845000    0.7835405   -7.7282825    684.07845  0.020037447   0.01936148            4 
 2846000   0.79446313    -7.740918    684.13269  0.020031995  0.019355665            3 
 2847000   0.79566032   -7.7508309    682.85164  0.019987462  0.019349849            2 
 2848000   0.79541054   -7.7518871    683.52696  0.020000204  0.019344041            3 
 2849000   0.80193121   -7.7469714    684.57509  0.020023841  0.019338254            5 
 2850000   0.81508613   -7.7206642    683.27582  0.019978825  0.019332462            2 
 2851000   0.79320838   -7.7739796    684.05315  0.019994538  0.019326659            5 
 2852000   0.80824137   -7.7623025    683.61579  0.019974748  0.019320846            2 
 2853000   0.80858957   -7.7630213          683   0.01994976  0.019315015            3 
 2854000   0.78350357   -7.7491383     683.2013  0.019948648  0.019309173            3 
 2855000   0.79011739   -7.7618557    683.58342  0.019952814  0.019303351            3 
 2856000   0.77323929   -7.7662137    682.63246  0.019918081   0.01929753            3 
 2857000   0.80637032   -7.7724042    684.66804  0.019970483  0.019291694            2 
 2858000   0.79159636   -7.7655551    684.38512  0.019955246  0.019285879            3 
 2859000   0.78562009   -7.7469566    682.72569  0.019899898  0.019280083            2 
 2860000   0.80766625     -7.75857    683.50417  0.019915623   0.01927426            3 
 2861000   0.80582911   -7.7623368    684.98564  0.019951813  0.019268458            2 
 2862000   0.79969131   -7.7661824    682.50204  0.019872526  0.019262637            2 
 2863000    0.8120237   -7.7538515    684.54345  0.019925004  0.019256821            2 
 2864000   0.78313515   -7.7331796    684.77889  0.019924898  0.019251029            2 
 2865000   0.78526951   -7.7383913    684.92535  0.019922203  0.019245251            2 
 2866000   0.80431231   -7.7222914    683.85797  0.019884216  0.019239471            2 
 2867000   0.79423304   -7.7633175    682.54568  0.019839137  0.019233692            1 
 2868000   0.78723151   -7.7663535    684.19786  0.019880226  0.019227903            2 
 2869000   0.78121877   -7.7457568    682.95497  0.019837196    0.0192221            1 
 2870000   0.79985477   -7.7568223     685.6081   0.01990732  0.019216288            2 
 2871000   0.78388335   -7.7794427    684.12188  0.019857247  0.019210493            2 
 2872000   0.81142334   -7.7739294    683.48843  0.019831953  0.019204669            4 
 2873000   0.78252692   -7.7706542    684.01177   0.01984023  0.019198834            7 
 2874000   0.77961889   -7.7769719    683.60166  0.019821435  0.019193002            3 
 2875000   0.79342162   -7.7613839    684.08995  0.019828694  0.019187207            3 
 2876000   0.79479949   -7.7789764    684.95314  0.019846811  0.019181402            9 
 2877000    0.7778232   -7.7747118     684.1477  0.019816583  0.019175603            3 
 2878000   0.78720884   -7.7778847    684.72289  0.019826352  0.019169804            3 
 2879000   0.79360571   -7.7703479    684.07852  0.019800814  0.019164012            3 
 2880000   0.79837909   -7.7769187    683.96298  0.019790596  0.019158192            2 
 2881000   0.77610171   -7.7667147    683.07515  0.019758045  0.019152362            3 
 2882000   0.78911341   -7.7741667    683.96884  0.019777031  0.019146566            2 
 2883000   0.79958555   -7.7515546    686.47624  0.019842648  0.019140804            5 
 2884000   0.79878594   -7.7574077    683.50176   0.01974982  0.019135039            2 
 2885000   0.77899416   -7.7609782    685.62748  0.019804375   0.01912925            3 
 2886000   0.78884455   -7.8056933    684.86793  0.019775581   0.01912346            5 
 2887000   0.77605455   -7.7612664    686.52725  0.019816628  0.019117642            5 
 2888000   0.78791243   -7.8151093    684.13062  0.019740611  0.019111843            5 
 2889000   0.77453563   -7.7721888    684.07428  0.019732153  0.019106058            2 
 2890000   0.80109194   -7.7575104     684.5133  0.019737985  0.019100256            2 
 2891000   0.78725819   -7.7572046    685.08903  0.019747752  0.019094448            4 
 2892000   0.78281861   -7.7636132    685.33861  0.019748116  0.019088664            4 
 2893000   0.77579211   -7.7758315     684.9309  0.019729545  0.019082886            2 
 2894000   0.77104007   -7.7536711    685.88413  0.019750176  0.019077103            2 
 2895000   0.78480006   -7.7729884    684.15126  0.019693473  0.019071352            3 
 2896000   0.78134696   -7.7687201     686.7172  0.019760509  0.019065595            2 
 2897000   0.77914247   -7.7731079     686.3848  0.019744126  0.019059825            2 
 2898000   0.79535409   -7.7524149    685.23711  0.019704311  0.019054069            6 
 2899000   0.78129265   -7.7372244    686.59587  0.019736572  0.019048321            5 
 2900000   0.77289381   -7.7562576    689.16693  0.019803647  0.019042616            4 
 2901000   0.79467763   -7.7803998    687.60535  0.019751963   0.01903694            2 
 2902000   0.79876674   -7.7720577    684.97822  0.019669717  0.019031215            4 
 2903000   0.77987986   -7.7843826    686.02598  0.019693018  0.019025497            2 
 2904000   0.78951458   -7.7728014    685.59826  0.019673963  0.019019764            5 
 2905000   0.78560841   -7.7919201    686.78841  0.019701331  0.019014013            3 
 2906000   0.78903206   -7.7779434    686.18457  0.019677236  0.019008286            4 
 2907000   0.79088448   -7.7790588    686.22746  0.019671697  0.019002579            2 
 2908000   0.78965314   -7.7484465    686.90933  0.019684472  0.018996908            3 
 2909000   0.77741546   -7.7783716    687.48319  0.019694144  0.018991245            3 
 2910000   0.77388998   -7.7510505    687.29068  0.019681864  0.018985557            3 
 2911000   0.78929323   -7.7433107    689.32108  0.019733227  0.018979933            4 
 2912000   0.78655171    -7.758694    688.67445  0.019707945   0.01897427            3 
 2913000    0.8101684   -7.7755411    686.68031  0.019644133  0.018968621            4 
 2914000   0.80171634   -7.7660709    687.97497  0.019674416  0.018962973            3 
 2915000   0.80028467   -7.7688897    688.99821  0.019696918  0.018957287            6 
 2916000   0.80045969    -7.753911    686.98684  0.019632683  0.018951646            1 
 2917000   0.77542783   -7.7692956    689.93649  0.019710219  0.018946013            3 
 2918000   0.77732378   -7.7698649    688.46701  0.019661498  0.018940349            3 
 2919000   0.78651417   -7.7680652     688.1137  0.019644676  0.018934681            4 
 2920000   0.77737662   -7.7694056    686.70416  0.019597721  0.018929045            1 
 2921000   0.80293228   -7.7798541    686.40729  0.019582543  0.018923392            2 
 2922000   0.80915546   -7.7703315    687.44001  0.019605293  0.018917747            2 
 2923000   0.78091874   -7.7578088    688.16135  0.019619151   0.01891214            1 
 2924000   0.78901828   -7.7883247    686.71116  0.019571111  0.018906495            3 
 2925000   0.78138181   -7.7894569    688.09954  0.019603975  0.018900824            3 
 2926000   0.78351484   -7.7828514    689.84589  0.019647012  0.018895165            2 
 2927000   0.77335417   -7.7758828    688.69178  0.019607442  0.018889541            3 
 2928000   0.79917789   -7.7768681    687.85291   0.01957687  0.018883885            2 
 2929000    0.7750811   -7.7708625    689.07691   0.01960501  0.018878262            3 
 2930000   0.78027179   -7.7647671    689.07673  0.019598314   0.01887266            2 
 2931000   0.79509717   -7.7753077    688.42467  0.019573088  0.018867051            3 
 2932000   0.79132714    -7.784235    688.66834  0.019573339   0.01886144            4 
 2933000   0.77782202   -7.7875686    689.07523  0.019578226  0.018855835            2 
 2934000   0.80032508   -7.7762156    688.21495  0.019547119  0.018850205            4 
 2935000   0.79387729   -7.7898688    689.60754  0.019579998  0.018844577            3 
 2936000   0.79009815   -7.7967675    689.04062  0.019557238  0.018838934            3 
 2937000   0.76988053   -7.7902425     688.8531  0.019545259  0.018833294            2 
 2938000   0.76572779   -7.7931288     687.5642  0.019502048  0.018827622            4 
 2939000   0.77180134   -7.7633074     689.3863  0.019547077   0.01882197            2 
 2940000   0.77320506   -7.7794929    689.78429  0.019551709  0.018816313            3 
 2941000   0.77152156   -7.8027045    687.73122  0.019486887  0.018810661            3 
 2942000    0.7808264   -7.7719117    688.33973    0.0194975  0.018804999            3 
 2943000   0.79839462   -7.7622832    687.99602  0.019481142  0.018799346            7 
 2944000   0.78112416   -7.7951969     688.7739  0.019496544  0.018793695            2 
 2945000   0.79263471   -7.8105967    688.41603  0.019479797  0.018788049            1 
 2946000   0.78675953    -7.815384    688.96201  0.019488629  0.018782379            3 
 2947000    0.7788637   -7.7988175    688.37486  0.019465413  0.018776724            3 
 2948000   0.77796223   -7.8124073    688.42089  0.019460111  0.018771055            2 
 2949000   0.78935845   -7.8084189    689.82493  0.019493188  0.018765418            2 
 2950000   0.78275727   -7.8072747     688.9216  0.019461062  0.018759774            2 
 2951000   0.75328537   -7.8166371    688.54883  0.019443941  0.018754141            3 
 2952000   0.76845358    -7.775243    690.64828   0.01949662  0.018748513            1 
 2953000   0.78261783    -7.796385    688.18734  0.019420571  0.018742893            5 
 2954000   0.78211136    -7.765881    690.11982  0.019468512  0.018737294            3 
 2955000   0.79358779   -7.7948075    688.64744  0.019420402  0.018731664            3 
 2956000    0.7906152   -7.7658995    690.12124   0.01945538  0.018726058            3 
 2957000   0.79369523   -7.8147468    689.27445  0.019424937  0.018720438            2 
 2958000   0.77247392   -7.7708833    690.67618   0.01945786  0.018714823            5 
 2959000   0.78224807   -7.8077546    688.90609  0.019401433  0.018709198            1 
 2960000   0.79561289   -7.8294802    688.76902   0.01939102  0.018703566            5 
 2961000   0.76839832   -7.8015973    689.02859  0.019391776  0.018697942            3 
 2962000   0.77297079   -7.7846493    692.10151  0.019471683  0.018692323            4 
 2963000   0.76629686   -7.8059949    691.34746  0.019443904  0.018686706            1 
 2964000   0.78891041   -7.8164178    690.12431  0.019402955  0.018681074            2 
 2965000   0.78913428    -7.837006    688.63004  0.019354414   0.01867542            4 
 2966000   0.77646754   -7.8093311    689.68845  0.019377625  0.018669781            2 
 2967000    0.7657493   -7.8041868    689.95837  0.019378676  0.018664171            4 
 2968000   0.79223459    -7.822784    689.93688  0.019371543  0.018658573            3 
 2969000    0.7736252    -7.832571    690.18281  0.019371921  0.018652917            2 
 2970000   0.78775509   -7.8230038    690.56219  0.019376043  0.018647281            3 
 2971000   0.77659971   -7.8133251    689.63014  0.019343379  0.018641633            3 
 2972000   0.77516094   -7.7962212      690.435  0.019359438  0.018636024            3 
 2973000   0.78334184   -7.8058238     691.8726  0.019393222  0.018630428            2 
 2974000   0.79317968   -7.7953142    691.96485  0.019389286   0.01862484            3 
 2975000   0.79133983   -7.8304139    689.33762  0.019309177  0.018619258            1 
 2976000   0.77725261   -7.8098035    691.51857  0.019363759  0.018613662            2 
 2977000   0.76830711   -7.8105963    691.89872  0.019367896  0.018608089            1 
 2978000   0.77453125   -7.7997031    690.77671  0.019329995   0.01860252            4 
 2979000   0.77644416   -7.7668884    691.35039  0.019339554  0.018596935            2 
 2980000   0.78630176   -7.7741687    692.31647   0.01936008   0.01859137            2 
 2981000    0.7859218   -7.7993223    691.27317   0.01932442  0.018585823            4 
 2982000   0.78098837   -7.7909085    691.91253  0.019335807  0.018580262            2 
 2983000   0.77131232   -7.7678013    691.54574  0.019319079  0.018574724            4 
 2984000   0.79128521   -7.8038167    691.10195  0.019300211  0.018569168            4 
 2985000   0.76696309   -7.7955568    690.89806  0.019288053  0.018563597            2 
 2986000    0.7874822   -7.7798377    691.89576  0.019309437  0.018558019            2 
 2987000   0.77210046   -7.8319834    691.46438  0.019290938  0.018552421            8 
 2988000   0.77260483   -7.8264051    692.55285  0.019314838  0.018546819            2 
 2989000   0.78307341   -7.7964883    690.77498   0.01925881  0.018541233            2 
 2990000   0.75759205   -7.7933798     691.5377  0.019273626  0.018535686            4 
 2991000   0.77531481   -7.8241348    690.06678    0.0192262  0.018530142            3 
 2992000   0.78428572   -7.8028279    691.61814  0.019262983  0.018524599            2 
 2993000   0.78434848   -7.8426717    691.79105  0.019261361  0.018519065            4 
 2994000   0.78425848   -7.8246873    691.05248  0.019234371  0.018513486            3 
 2995000   0.76703008    -7.817668     691.0335  0.019227421  0.018507929            2 
 2996000   0.76363919   -7.7979052    691.37743  0.019230569  0.018502372            1 
 2997000   0.77276131     -7.79783    691.01529  0.019214083  0.018496843            2 
 2998000   0.76764236   -7.8084287    692.18525  0.019240195  0.018491306            2 
 2999000   0.76255304   -7.8085002    692.73325  0.019249007  0.018485738            3 
 3000000   0.78672588   -7.8131212    692.74903  0.019243028  0.018480215            4 
 3001000   0.77576305   -7.7948831    693.43511  0.019255668  0.018474697            4 
 3002000   0.77584445   -7.8009501     692.5589  0.019224931  0.018469212            3 
 3003000   0.76054327   -7.8206127    692.32445  0.019212023  0.018463733            2 
 3004000   0.75965437   -7.8058232    693.42762   0.01923623  0.018458257            4 
 3005000   0.74561456   -7.7913282    693.24454  0.019224751  0.018452769            4 
 3006000   0.77770812   -7.7904839    692.06463  0.019185646   0.01844728            1 
 3007000   0.77520509   -7.8404402    692.97444   0.01920448  0.018441787            2 
 3008000   0.77204145   -7.8170819    693.00627  0.019198977  0.018436268            3 
 3009000   0.76245143    -7.837892    692.76861  0.019186015  0.018430757            5 
 3010000    0.7488244   -7.8136445    692.05063  0.019159763  0.018425197            4 
 3011000   0.78070961    -7.833043    693.90654  0.019204764  0.018419687            3 
 3012000   0.78682041    -7.851185    693.78728  0.019195088  0.018414162            6 
 3013000   0.76237489   -7.8188321    692.81892  0.019161935   0.01840865            3 
 3014000   0.78201697   -7.8281855    692.08768  0.019135359  0.018403137            4 
 3015000   0.77275303   -7.8228738    692.16961  0.019131277  0.018397607            3 
 3016000   0.76605744   -7.8082056    693.20077  0.019153425  0.018392102            7 
 3017000   0.76644247   -7.8436891    692.65593  0.019132028  0.018386588            4 
 3018000    0.7800118   -7.8290085    692.00851  0.019107812  0.018381081            4 
 3019000    0.7729894   -7.8385261     692.4898  0.019114768  0.018375567            2 
 3020000   0.77265405   -7.8196847    692.56151  0.019110417  0.018370054            2 
 3021000   0.76485196   -7.8310659    692.08131  0.019090845  0.018364536            2 
 3022000   0.77179812    -7.817352    694.00478  0.019137568  0.018359001            6 
 3023000   0.76543229   -7.8163444    692.93131  0.019101646  0.018353477            9 
 3024000   0.77130441     -7.83216    692.68152  0.019088446  0.018347946            6 
 3025000   0.76233838   -7.8056051    692.88936  0.019087861  0.018342412            2 
 3026000   0.77119054   -7.8338597    694.47082  0.019125105  0.018336919            2 
 3027000   0.75297134   -7.8044411    695.01852  0.019133865  0.018331435            4 
 3028000   0.77495107   -7.8436989     693.0453  0.019073241  0.018325948            2 
 3029000    0.7712443   -7.8256713    693.83831  0.019088762  0.018320461            4 
 3030000   0.76963101   -7.8293224    692.96775  0.019058519  0.018314961            4 
 3031000   0.75055344   -7.8308236    693.33251   0.01906226  0.018309456            3 
 3032000   0.75746676   -7.8120886    693.58472  0.019062905  0.018303958            1 
 3033000   0.76371547   -7.8078458    693.82521  0.019063227  0.018298457            7 
 3034000   0.76643894   -7.8152025    692.11518  0.019009975  0.018292955            6 
 3035000   0.76787622   -7.8366343    693.71502  0.019047639   0.01828745            2 
 3036000   0.76824311    -7.826941    693.48293  0.019034995  0.018281968            1 
 3037000   0.76895705   -7.8308451    692.81833  0.019010491  0.018276457            4 
 3038000   0.77324087   -7.8166838    694.65348  0.019054572  0.018270967            4 
 3039000   0.76812699   -7.8412887     692.4723  0.018988491  0.018265464            3 
 3040000   0.76376551    -7.832621    694.45271  0.019036533  0.018259947            3 
 3041000   0.76444366   -7.8092019    692.82412  0.018985644  0.018254426            3 
 3042000   0.77225754   -7.8041384    692.75129  0.018977408  0.018248925            4 
 3043000   0.76044527   -7.8497414    692.80297  0.018972587   0.01824342            1 
 3044000    0.7585662   -7.8416796    693.57164  0.018987397  0.018237917            2 
 3045000   0.77242667   -7.8198036    694.03461  0.018993832  0.018232418            3 
 3046000   0.76527522   -7.8081181    695.93567  0.019039606  0.018226924            1 
 3047000   0.77019742    -7.797372    694.58569  0.018996436  0.018221457            1 
 3048000   0.73876166   -7.8175866    694.90744     0.018999  0.018216011            2 
 3049000   0.76910542   -7.8218378    694.21724  0.018973905  0.018210535            8 
 3050000   0.77689853   -7.7916213    695.45649  0.019001543  0.018205049            1 
 3051000   0.77140499   -7.8206573    693.71715  0.018947808  0.018199569            1 
 3052000   0.75837633   -7.8231488     692.6986  0.018913789  0.018194067            2 
 3053000   0.76409441   -7.8004488    694.30853  0.018951537  0.018188586            3 
 3054000   0.76363682   -7.8120355    693.36839  0.018919679  0.018183105            2 
 3055000   0.77176116   -7.7946939     694.4233  0.018942261  0.018177637            4 
 3056000   0.75647747    -7.817709    694.14126  0.018928372  0.018172169            4 
 3057000   0.77060051   -7.8014549    696.21643  0.018978749  0.018166692            4 
 3058000   0.77992223   -7.8655211     692.9497  0.018883521  0.018161196            4 
 3059000   0.75768238   -7.8593315    693.46866  0.018891486  0.018155704            4 
 3060000   0.76172456   -7.7983179    694.39353  0.018910499  0.018150209            2 
 3061000   0.77171227   -7.8099278    694.78479  0.018914973  0.018144729            2 
 3062000   0.74871783    -7.826628    695.75597  0.018935227   0.01813925            5 
 3063000   0.76165237   -7.8723102    693.20551  0.018859656  0.018133765            2 
 3064000   0.75997766    -7.819284     693.9574   0.01887395  0.018128274            3 
 3065000   0.76506314   -7.8453339    693.35712  0.018851472  0.018122778            2 
 3066000   0.74712872   -7.8165091    693.54118  0.018850326  0.018117302            5 
 3067000   0.75320821   -7.8198765     694.1495  0.018860708  0.018111824            5 
 3068000   0.75102504   -7.8276506    694.46639  0.018863168  0.018106341            3 
 3069000   0.79185612   -7.8328002    695.25004    0.0188783  0.018100857            5 
 3070000   0.77564592    -7.847216    695.39691  0.018876138  0.018095395            6 
 3071000   0.76088504   -7.8183547    695.58576  0.018875116   0.01808992            4 
 3072000   0.77072835    -7.852207    693.94177  0.018824375  0.018084446            2 
 3073000   0.75964137   -7.8493951    693.47566  0.018805609  0.018078955            2 
 3074000    0.7602244   -7.8405343     695.2512  0.018847625  0.018073452            6 
 3075000   0.75145243    -7.823161    694.70599  0.018826721   0.01806796            3 
 3076000   0.75542473   -7.8422949    692.29618  0.018755315  0.018062457            3 
 3077000   0.75506054   -7.8530012    694.97596  0.018821795  0.018056952            2 
 3078000    0.7555601   -7.8536773    693.82613   0.01878455  0.018051451            4 
 3079000   0.76309987   -7.8503928    694.59375  0.018799224   0.01804596            3 
 3080000   0.75286207   -7.8620974    694.40299   0.01878796  0.018040462            3 
 3081000   0.78210761   -7.8511233    694.42727  0.018782518   0.01803499            3 
 3082000   0.75478948   -7.8451067     694.0732  0.018766851  0.018029521            2 
 3083000   0.75887894   -7.8434109    693.94392  0.018757269  0.018024062            3 
 3084000   0.75310583   -7.8237227    695.46766   0.01879236  0.018018622            2 
 3085000   0.76169189   -7.8763053    693.69814   0.01873847  0.018013154            3 
 3086000   0.76859301   -7.8359924     695.2892  0.018775362  0.018007697            2 
 3087000   0.76111389   -7.8549683    695.17034  0.018766071  0.018002245            2 
 3088000   0.75956896   -7.8226359    694.90105  0.018752727  0.017996784            2 
 3089000   0.74994851    -7.833961    694.75862  0.018742814  0.017991348            4 
 3090000   0.77238936   -7.8202695    696.29876  0.018778284  0.017985896            2 
 3091000   0.75173714   -7.8116088    695.57861  0.018752793  0.017980455            1 
 3092000   0.74024731   -7.8242953    695.62799  0.018748059  0.017975038            2 
 3093000   0.76851698   -7.8408398    695.38256  0.018735385  0.017969595            2 
 3094000   0.77095915   -7.8110654    696.75161  0.018766204   0.01796414            3 
 3095000   0.74915486   -7.8486075    696.09499  0.018742461  0.017958688            3 
 3096000   0.74824898   -7.8599777    693.86116   0.01867628    0.0179532            1 
 3097000   0.77072839   -7.8345252    695.44208  0.018712789  0.017947729            1 
 3098000   0.75159824     -7.86647    696.23546   0.01872809  0.017942266            2 
 3099000   0.73930802   -7.8470672    695.14049  0.018692602  0.017936821            2 
 3100000   0.74777472   -7.8472263    695.24843  0.018689474  0.017931379            3 
 3101000   0.75901412   -7.8545703    696.71304  0.018722806  0.017925925            2 
 3102000   0.74912765   -7.8781363    696.04461  0.018698813  0.017920459            3 
 3103000   0.74875283   -7.8267341    696.89364  0.018715588  0.017915015            4 
 3104000   0.76148237   -7.8505132    696.39437  0.018696155  0.017909562            3 
 3105000   0.75596617   -7.8753354    695.84964  0.018675514  0.017904105            3 
 3106000   0.75192335   -7.8343552    695.47907  0.018659559  0.017898675            3 
 3107000   0.73383337    -7.862644    696.14496  0.018671413  0.017893268            3 
 3108000   0.75622041    -7.850512    697.26174  0.018695349  0.017887849            2 
 3109000   0.74619741   -7.8554152    697.21197  0.018688002  0.017882439            4 
 3110000   0.74773554    -7.842656    696.47143   0.01866215  0.017877028            2 
 3111000   0.75631841   -7.8109075    697.94235  0.018695552  0.017871611            1 
 3112000   0.74997795   -7.8609865    695.23254  0.018616981  0.017866198            9 
 3113000   0.75761134   -7.8569115    696.97098  0.018657538  0.017860765            7 
 3114000   0.74176182    -7.830759    696.91361  0.018650011  0.017855364            3 
 3115000   0.74152966   -7.8368948    695.98534   0.01861919  0.017849949            6 
 3116000   0.76273084    -7.838139    695.50795  0.018600448  0.017844529            4 
 3117000   0.74632348   -7.8508795    696.93169  0.018632544  0.017839102            6 
 3118000    0.7555738   -7.8625277    696.94191  0.018626842  0.017833681            1 
 3119000   0.73820675   -7.8450126     697.1055  0.018625241  0.017828264            4 
 3120000   0.75484557   -7.8459169    695.87511  0.018586408  0.017822842            2 
 3121000   0.75999418   -7.8605461    695.69156  0.018575552  0.017817426            4 
 3122000   0.74936511   -7.8601258     696.7223  0.018597115  0.017812006            4 
 3123000   0.76428165   -7.8539604    697.15766  0.018602777  0.017806591            2 
 3124000   0.75249934    -7.867162    695.61317  0.018555622  0.017801192            2 
 3125000   0.77136202   -7.8657905    697.30739  0.018594864  0.017795777            3 
 3126000   0.75211613    -7.882829    696.68829  0.018572411   0.01779033            7 
 3127000    0.7558043   -7.8753427     696.5341  0.018562363  0.017784903            1 
 3128000   0.74762665   -7.9083447    696.28023  0.018549665  0.017779459            2 
 3129000   0.75141782   -7.8544628    696.80664  0.018557756  0.017774029            1 
 3130000   0.75895078    -7.858056     695.8388   0.01852606  0.017768614            2 
 3131000   0.75247816   -7.8708045    696.37578  0.018534435  0.017763216            2 
 3132000   0.74543928   -7.8499047    696.65787  0.018536023  0.017757812            2 
 3133000   0.74730743   -7.8733669    697.06566  0.018540953   0.01775241            2 
 3134000   0.74822689   -7.8422413     697.0105   0.01853357  0.017747015            3 
 3135000   0.75785653   -7.8428168    698.65598  0.018571398  0.017741623            2 
 3136000   0.75148019   -7.8474825    698.08338   0.01855026   0.01773623            2 
 3137000   0.75892074   -7.8575998    694.84236   0.01845825  0.017730834            2 
 3138000   0.75617463   -7.8596826    696.30359  0.018491172  0.017725458            2 
 3139000   0.73369542    -7.846044    698.69221  0.018548694  0.017720087            3 
 3140000     0.752914   -7.8784463    698.84287  0.018546785  0.017714732            3 
 3141000   0.73446757   -7.8707059    698.55281  0.018533185  0.017709367            2 
 3142000   0.73419492    -7.854563    698.10053  0.018515291  0.017704016            1 
 3143000   0.74717118   -7.8678545    697.62925  0.018496905  0.017698665            2 
 3144000   0.74966799   -7.8848168    697.81943  0.018496062    0.0176933            3 
 3145000   0.75118533   -7.8538774    696.58973  0.018457598  0.017687929            5 
 3146000   0.73685415   -7.8472682    698.37079  0.018498908  0.017682561            5 
 3147000   0.74644309    -7.860723    698.58407  0.018498678  0.017677214            6 
 3148000   0.74281873   -7.8697561    699.33599  0.018512706  0.017671857            2 
 3149000   0.74365625   -7.8994668    696.16676  0.018422959  0.017666484            3 
 3150000   0.75478892   -7.8988498    696.61627  0.018429002  0.017661099            3 
 3151000   0.76178163   -7.8710052    697.05807  0.018434837  0.017655738            3 
 3152000   0.75748612   -7.8948636    697.04333  0.018428599  0.017650355            4 
 3153000   0.75524153   -7.8744523    698.91135  0.018472126  0.017644989            5 
 3154000   0.73403023   -7.9077781    696.94904  0.018414422  0.017639595            6 
 3155000   0.73266641   -7.8593861    699.12271  0.018465999  0.017634214            3 
 3156000   0.74225685   -7.8746577    698.20695  0.018435967  0.017628831            3 
 3157000   0.74973641   -7.8789434    697.31713   0.01840664  0.017623464            2 
 3158000   0.73899117   -7.8854763     697.8373  0.018414537  0.017618103            4 
 3159000   0.74542761   -7.8715302    699.56696  0.018454336  0.017612764            2 
 3160000    0.7408562   -7.8957994    696.99662  0.018380713  0.017607391            4 
 3161000    0.7409035   -7.8828253    697.60335  0.018390893  0.017602049            7 
 3162000   0.73534821   -7.8501629    698.59145  0.018411118  0.017596694            5 
 3163000   0.74219295   -7.8810541    698.29863  0.018397582  0.017591368            2 
 3164000   0.74100355   -7.8800444    699.81672  0.018431751  0.017586038            4 
 3165000   0.73771688   -7.8603971    699.12678  0.018407762  0.017580704            8 
 3166000   0.74070729   -7.8758868    698.54619  0.018386665  0.017575384            4 
 3167000   0.73483013   -7.8801379    697.32543  0.018348738  0.017570049            4 
 3168000   0.74128869    -7.871507    697.92614  0.018358747   0.01756472            4 
 3169000   0.76561629   -7.8768817     699.5054  0.018394483  0.017559397            4 
 3170000   0.75235579    -7.868338    698.92314  0.018373374  0.017554097            2 
 3171000   0.74779531   -7.8778405    700.01226  0.018396202  0.017548788            4 
 3172000   0.73099922   -7.8636588    699.07329  0.018365734  0.017543473            4 
 3173000   0.73775031   -7.8785999     700.6754  0.018402022  0.017538162            2 
 3174000   0.74959081    -7.890117     698.7482  0.018345626  0.017532866            1 
 3175000   0.74897883   -7.8722406    698.82966  0.018341986  0.017527557            1 
 3176000   0.74861985   -7.8602306    699.69287   0.01835886   0.01752224            3 
 3177000   0.74930805   -7.8691932    698.66809  0.018326201  0.017516941            4 
 3178000   0.73359636   -7.8670105    699.43241  0.018340476   0.01751164            5 
 3179000   0.76169087   -7.8689473    699.23714  0.018329589  0.017506333            4 
 3180000   0.73647556   -7.8750709    700.10516  0.018346571  0.017501034            2 
 3181000   0.75157713   -7.8894051    700.77464  0.018358342  0.017495739            4 
 3182000   0.73551413   -7.8624449    699.35247  0.018315328  0.017490449            2 
 3183000     0.756854   -7.8733752    698.09791  0.018276728  0.017485141            3 
 3184000   0.72538951   -7.8947336     698.7839  0.018288942  0.017479813            2 
 3185000   0.76060018   -7.8692395    700.43197  0.018326321  0.017474503            4 
 3186000   0.72235694   -7.8912918    697.74826  0.018250373  0.017469203            1 
 3187000   0.74414454   -7.8924046    699.51356  0.018290805   0.01746389            2 
 3188000   0.74249549   -7.8922386    698.73173  0.018264631  0.017458571            3 
 3189000   0.74332164   -7.9017198    697.84195  0.018235652  0.017453262            2 
 3190000    0.7362872   -7.8868699    699.32419  0.018268657   0.01744796            3 
 3191000   0.73381792   -7.9058423    700.44433  0.018292185   0.01744266            2 
 3192000   0.73371827   -7.8890459    700.10016  0.018277469  0.017437394            3 
 3193000   0.74378292    -7.881327    699.10689  0.018245821  0.017432091            3 
 3194000   0.73895122   -7.8887086    700.14524    0.0182672  0.017426811            3 
 3195000    0.7428736   -7.8724021    700.15943  0.018261853  0.017421528            2 
 3196000   0.73715131   -7.8794477    699.92037  0.018249905  0.017416268            5 
 3197000   0.74262937     -7.89785    698.44343  0.018205699  0.017410962            4 
 3198000   0.73534471   -7.8795664    700.18384  0.018245358  0.017405663            4 
 3199000   0.74693353   -7.9030515    701.44862  0.018272601  0.017400375            2 
 3200000   0.74167882   -7.8795577    699.82112  0.018224508  0.017395062            5 
 3201000   0.73892573   -7.8760629    700.75451  0.018243114  0.017389787            3 
 3202000   0.72767471   -7.8838543    700.76644  0.018237727  0.017384496            2 
 3203000   0.73576756   -7.8795279    701.64404  0.018254866  0.017379209            3 
 3204000   0.73468951   -7.8838851    699.86367  0.018202863  0.017373924            3 
 3205000   0.71410953   -7.8860162    700.54406  0.018214874  0.017368621            4 
 3206000   0.73521913   -7.8906157    699.92169  0.018193015  0.017363314            5 
 3207000   0.73750052   -7.8992255    697.90796  0.018135016  0.017358003            3 
 3208000   0.74711208    -7.875555    699.22742  0.018163638  0.017352686            5 
 3209000   0.75056501    -7.898473    698.81333  0.018147225  0.017347379            1 
 3210000   0.74251512   -7.9090758    699.57492  0.018161343  0.017342069            3 
 3211000    0.7453244   -7.8974663     699.2664   0.01814768  0.017336788            3 
 3212000   0.73760308   -7.9041333    700.97132  0.018186263   0.01733151            1 
 3213000   0.73589566   -7.8531735    701.34484   0.01819029  0.017326255            2 
 3214000   0.74096674   -7.8900942    700.87946  0.018172564  0.017320996            2 
 3215000   0.74581967   -7.9048763     700.0696   0.01814592  0.017315738            2 
 3216000   0.73568873   -7.9005607    701.47242  0.018176628  0.017310485            3 
 3217000   0.74409538    -7.894742    700.41359   0.01814355  0.017305232            5 
 3218000   0.73796437   -7.8781599    700.82042  0.018148447  0.017299988            3 
 3219000   0.74309791   -7.8866941    699.73727  0.018114768  0.017294756            2 
 3220000   0.73066113   -7.8948164    700.58259  0.018131019  0.017289517            2 
 3221000     0.736182   -7.8656534    700.97066   0.01813543   0.01728431            1 
 3222000   0.74304672   -7.8972566    702.64825  0.018173191  0.017279098            3 
 3223000   0.73959639   -7.8904859    700.49004   0.01811175  0.017273881            3 
 3224000   0.73010888   -7.9099978    701.27868  0.018126517  0.017268631            3 
 3225000   0.72380759   -7.8837573    702.17562  0.018144073  0.017263372            3 
 3226000   0.72955097   -7.8980847    699.93042  0.018080451  0.017258119            3 
 3227000   0.72115009   -7.8790372    700.97136  0.018101729  0.017252851            2 
 3228000   0.73780564    -7.908091    699.82921  0.018066636  0.017247591            2 
 3229000    0.7350265   -7.9254031    700.67554  0.018082883  0.017242315            5 
 3230000    0.7236138   -7.9229055    700.13798  0.018063415  0.017237052            3 
 3231000   0.73256972   -7.9214821    699.99437  0.018054121  0.017231783            3 
 3232000   0.74417132   -7.9177337    700.57099  0.018063402  0.017226501            2 
 3233000   0.72321528    -7.913664     700.2325   0.01804909  0.017221223            4 
 3234000    0.7215506   -7.9072911    700.52014  0.018050921   0.01721596            3 
 3235000   0.74687248   -7.9277836    702.13066  0.018086828  0.017210686            4 
 3236000   0.73606585   -7.8861554    701.25302  0.018058638  0.017205425            3 
 3237000   0.72734097   -7.8887851    702.12968  0.018075628  0.017200186            4 
 3238000   0.71844744   -7.9102828    700.51819  0.018028572  0.017194953            3 
 3239000   0.72751869   -7.9127849    701.89626  0.018058461  0.017189719            3 
 3240000    0.7463005    -7.914245     700.4326  0.018015242  0.017184484            6 
 3241000   0.73534171   -7.9198685    700.37006  0.018008075  0.017179233            2 
 3242000   0.72798214   -7.9163549    700.96534  0.018017822  0.017173957            6 
 3243000   0.73864314   -7.9531451    700.33323  0.017996023  0.017168682            3 
 3244000   0.72754718   -7.9063066    701.36454  0.018016968   0.01716342            2 
 3245000   0.73362805   -7.9356705    699.97707  0.017975785  0.017158173            3 
 3246000   0.74440377   -7.9228569    700.27786  0.017977969  0.017152922            9 
 3247000   0.74013143   -7.9122988    700.91996  0.017988912  0.017147697            4 
 3248000   0.73374269   -7.8806352    700.95055  0.017984158    0.0171425            2 
 3249000   0.73898557   -7.9054506    701.53869  0.017993708  0.017137281            2 
 3250000   0.72914874   -7.8770534    702.25908  0.018006643   0.01713208            3 
 3251000   0.71950919   -7.9077313    701.67351  0.017986094  0.017126866            3 
 3252000   0.71619492    -7.900855    700.09161  0.017940027  0.017121645            1 
 3253000   0.72694289   -7.9293123    699.61062   0.01792219    0.0171164            3 
 3254000   0.73642111   -7.9424487    699.58524  0.017916033  0.017111167            1 
 3255000   0.74343366   -7.9371527    701.32402  0.017955044  0.017105922            6 
 3256000   0.72602734    -7.928327    702.54589  0.017980802  0.017100701            2 
 3257000   0.74545945   -7.9253774    703.54533  0.018000853  0.017095499            2 
 3258000   0.72950286   -7.9228906    703.19302  0.017986316  0.017090289            2 
 3259000   0.73761042   -7.9341788    703.42715  0.017986784  0.017085082            2 
 3260000   0.71957535   -7.9447445    699.66643  0.017885134  0.017079871            3 
 3261000   0.72600914   -7.8885907    703.44853  0.017976299   0.01707467            3 
 3262000   0.74841526    -7.927145    702.52445  0.017947181  0.017069479            2 
 3263000   0.73046904   -7.9342858     702.6693   0.01794538    0.0170643            6 
 3264000   0.73692146    -7.906484    701.63566  0.017913492  0.017059125            2 
 3265000   0.74771544   -7.9146417    704.21948  0.017973953  0.017053949            3 
 3266000   0.73702146   -7.9222887    700.76219  0.017880236  0.017048774            2 
 3267000   0.72494827   -7.9184418    701.48708  0.017893253  0.017043582            4 
 3268000   0.72247689   -7.9099811    702.54263  0.017914694  0.017038392            3 
 3269000   0.74058955   -7.9234732    701.71804  0.017888193  0.017033195            5 
 3270000   0.72029925   -7.9262667    700.88832  0.017861578   0.01702798            3 
 3271000   0.73737713   -7.9072755    702.86187  0.017906396  0.017022785            2 
 3272000   0.72596252   -7.8954656     703.5487  0.017918416  0.017017591            3 
 3273000   0.74434702   -7.9138624    701.65664  0.017864768  0.017012418            2 
 3274000   0.72120403   -7.9128264    702.91895  0.017891441  0.017007238            3 
 3275000   0.75356841   -7.9162005     702.1452   0.01786629  0.017002045            1 
 3276000   0.72352296   -7.9553166    701.34926   0.01784059  0.016996864            2 
 3277000   0.72069798   -7.9290156    699.71068  0.017793477  0.016991676            2 
 3278000   0.71725309   -7.9216492    702.91028  0.017869389  0.016986476            4 
 3279000   0.73261302   -7.9316567    701.82514  0.017836361  0.016981287            4 
 3280000   0.71282545   -7.9011432    702.88934  0.017857961  0.016976126            3 
 3281000   0.74046722   -7.9078454    703.17412  0.017859751  0.016970958            6 
 3282000   0.74158427   -7.9109145    701.33369  0.017807579  0.016965783            2 
 3283000   0.75034683   -7.9198061     704.0531  0.017871182  0.016960604            3 
 3284000   0.73122642   -7.9024561    703.11265  0.017841876  0.016955439            4 
 3285000   0.72393206   -7.9114472    703.07675  0.017835534  0.016950285            4 
 3286000   0.71229711   -7.9102293    702.71935  0.017821043  0.016945119            3 
 3287000   0.73033571   -7.9303647    702.16051  0.017801453  0.016939955            2 
 3288000   0.72334035   -7.8974763    703.89165  0.017839914  0.016934809            2 
 3289000    0.7393791   -7.9090096    702.94916   0.01781061  0.016929668            4 
 3290000   0.71527889   -7.9043508    703.05933  0.017807987  0.016924521            3 
 3291000   0.72736194     -7.90682    702.57698  0.017790362  0.016919382            3 
 3292000   0.71546131    -7.887571     703.7003  0.017813394  0.016914239            6 
 3293000   0.72934021   -7.9162033    703.79994  0.017810506  0.016909089            9 
 3294000    0.7286191   -7.9270683    703.25577  0.017791332   0.01690396            2 
 3295000   0.72098681   -7.9268295    701.97641  0.017753576  0.016898817            9 
 3296000   0.72494616   -7.9506316    701.76861  0.017742936  0.016893656            3 
 3297000   0.73376714   -7.8877818    704.53705  0.017807528  0.016888509           12 
 3298000   0.71338194   -7.9431022    702.74335  0.017756806  0.016883366            3 
 3299000   0.74353805   -7.9375853     702.8801  0.017754878  0.016878191            2 
 3300000   0.72745154   -7.9193956    703.07905  0.017754522  0.016873015            6 
 3301000    0.7227617   -7.9071503    702.73715  0.017740512  0.016867859            2 
 3302000   0.72055598   -7.9106636    703.39298   0.01775169    0.0168627            5 
 3303000   0.74073853   -7.8971406    703.25789  0.017742908  0.016857565            2 
 3304000   0.74531634   -7.9134518    701.95182  0.017704596  0.016852438            4 
 3305000   0.71408486   -7.9129527    703.31429  0.017733593  0.016847303            3 
 3306000   0.71860731   -7.8741835    705.05901  0.017772207  0.016842187            6 
 3307000   0.73073896   -7.9074769    704.41275  0.017750548  0.016837053            2 
 3308000   0.73105774   -7.9340536    703.75005  0.017728488  0.016831906            2 
 3309000   0.72166272   -7.9143775    702.08966  0.017681315  0.016826741            3 
 3310000   0.72975802   -7.9446195    702.40333   0.01768387  0.016821586            1 
 3311000   0.72910443   -7.9175326    703.13316  0.017696898  0.016816418            2 
 3312000   0.72675942   -7.9355425    703.49515  0.017700663  0.016811238            4 
 3313000   0.71366016   -7.9435683     701.5536  0.017646484  0.016806063            2 
 3314000   0.72298293   -7.9578308    702.38869  0.017662158   0.01680089            4 
 3315000   0.72193756   -7.9530619    703.26627  0.017678891  0.016795708            3 
 3316000   0.71668369   -7.9185731    702.17832  0.017646218  0.016790526            6 
 3317000   0.72527798   -7.9419036    700.99641  0.017611205  0.016785361            4 
 3318000   0.72243109   -7.9166455    703.55104  0.017670058  0.016780183            5 
 3319000   0.71611193   -7.9408962     702.4483  0.017637047  0.016775021            4 
 3320000   0.72502713   -7.9515743    700.58855  0.017585054  0.016769861            4 
 3321000   0.71968899   -7.9399454    702.17081  0.017619462  0.016764694            3 
 3322000    0.7114981   -7.9216808    701.17272  0.017589121  0.016759499            2 
 3323000   0.72804334   -7.9507394     702.1457  0.017608228  0.016754321            1 
 3324000   0.72634415   -7.9278579    702.52801  0.017612515  0.016749158            5 
 3325000   0.70778303   -7.9225211    703.36281   0.01762814  0.016743979            2 
 3326000   0.70735752   -7.9243754    704.11187  0.017641608  0.016738825            2 
 3327000   0.71619564   -7.9319875    703.36265   0.01761754  0.016733676            3 
 3328000   0.71680391   -7.9361869     703.3676   0.01761237  0.016728539            4 
 3329000   0.71036828   -7.9456774    702.30958  0.017580594  0.016723385            4 
 3330000   0.73621293   -7.9574577    701.14004  0.017546047  0.016718218            4 
 3331000   0.72139428   -7.9640704    701.50315  0.017549864  0.016713057            4 
 3332000   0.71859249   -7.9492823    702.03249  0.017557835  0.016707895            5 
 3333000   0.71212864   -7.9416345    701.22507   0.01753238  0.016702725            5 
 3334000   0.71369109     -7.94693    702.24137  0.017552524  0.016697569            3 
 3335000   0.70822745   -7.9367925     703.4214  0.017576747  0.016692442            2 
 3336000   0.70941383   -7.9387681    703.41435  0.017571302   0.01668732            6 
 3337000   0.71586833   -7.9530544    703.19705   0.01756061  0.016682191            2 
 3338000   0.73576729   -7.9322479    703.57038  0.017564669  0.016677076            2 
 3339000   0.72142581   -7.9486639     703.0934  0.017547504   0.01667195            2 
 3340000   0.72552379   -7.9233018    703.61273  0.017555208  0.016666813            4 
 3341000   0.72079063   -7.9543107    702.78252  0.017529246  0.016661669            2 
 3342000   0.72213763   -7.9399692    705.31215  0.017587077  0.016656532            3 
 3343000   0.71126495   -7.9372855    702.95185   0.01752298  0.016651401            4 
 3344000   0.71060908   -7.9324675    703.26988  0.017525665  0.016646278            2 
 3345000   0.72979651   -7.9566676    702.84804  0.017509916  0.016641152            2 
 3346000   0.69716018    -7.957538    703.11347  0.017511294  0.016636003            7 
 3347000   0.71491616   -7.9475982    702.73952  0.017496751  0.016630859            3 
 3348000   0.71716042    -7.909859    703.42627  0.017508619  0.016625713            6 
 3349000   0.71437878   -7.9619632    702.14468  0.017471501  0.016620572            2 
 3350000   0.71467123   -7.9501928    702.96396  0.017486666  0.016615431            2 
 3351000   0.73074917   -7.9249638    702.56608  0.017471553  0.016610293            3 
 3352000   0.70800441   -7.9305332    703.62011  0.017492544  0.016605152            3 
 3353000   0.71776768   -7.9495718    702.89531  0.017469314  0.016600007            4 
 3354000   0.73976004   -7.9403673    703.27097  0.017473439  0.016594879            2 
 3355000    0.7207639   -7.9480238    702.06243  0.017438212  0.016589748            6 
 3356000   0.71623298   -7.9114679    702.21782  0.017436875  0.016584626            2 
 3357000   0.73102833   -7.9234427    704.09448  0.017478266  0.016579501            4 
 3358000   0.72456333   -7.9305432    704.53559  0.017484008  0.016574378            4 
 3359000   0.71023439   -7.9485205    702.75779  0.017434697  0.016569246            4 
 3360000    0.7040886   -7.9506899    704.62206  0.017475745   0.01656411            5 
 3361000   0.72289929   -7.9527542    703.41696  0.017440666  0.016558979            4 
 3362000   0.72502851    -7.957226    703.53789  0.017438476  0.016553858            3 
 3363000   0.70595123   -7.9441072    702.89648  0.017417397  0.016548711            1 
 3364000   0.71163753   -7.9809806    701.95705  0.017388948  0.016543551            5 
 3365000   0.70390776   -7.9699579    701.33739  0.017368435  0.016538387            4 
 3366000   0.71556914   -7.9789762    701.71654  0.017372661  0.016533206            6 
 3367000   0.71320753   -7.9682012    702.71815  0.017392292  0.016528033            2 
 3368000   0.72371525   -7.9778822    701.06786  0.017346295  0.016522847            5 
 3369000   0.70703145   -7.9841629    700.83556    0.0173354  0.016517658            4 
 3370000    0.7017104   -7.9769089    702.36404  0.017368053  0.016512485            3 
 3371000   0.72964218   -7.9863722    702.42149  0.017364321   0.01650732            3 
 3372000   0.71921471   -7.9861708    702.08684  0.017350901  0.016502168            2 
 3373000   0.71807848   -7.9772556    700.97187   0.01731821  0.016497019            4 
 3374000   0.70714954   -7.9839384    702.35698  0.017347288  0.016491873            3 
 3375000   0.72237158   -7.9677515    702.19851  0.017338235  0.016486738            4 
 3376000   0.71313844   -7.9644191    703.34698  0.017361448  0.016481619            2 
 3377000   0.71693947   -7.9585822    704.00179  0.017372466  0.016476501            6 
 3378000    0.7211885   -7.9689355    703.00902  0.017342832  0.016471391            3 
 3379000   0.70738244   -7.9840511    701.42213  0.017298563  0.016466266            2 
 3380000   0.71134765   -7.9682232    703.17002  0.017336539  0.016461149            3 
 3381000   0.70104531   -7.9536401    702.86225  0.017323826  0.016456041            6 
 3382000    0.7105308   -7.9597434    704.96235   0.01737045  0.016450939            3 
 3383000   0.72167928   -7.9714888    702.46749   0.01730386  0.016445822            2 
 3384000   0.70628101   -7.9836302    702.73247  0.017305272  0.016440701            8 
 3385000    0.7049887   -7.9714607    704.00329  0.017331445  0.016435581            2 
 3386000   0.70970165   -7.9597055    704.41794  0.017336531   0.01643048            1 
 3387000   0.71374371   -7.9606946    703.47725  0.017308268   0.01642537            2 
 3388000   0.70502983   -7.9672294    703.13434  0.017294725  0.016420264            2 
 3389000   0.70956678   -7.9700547    703.33123  0.017294463  0.016415163            2 
 3390000   0.72659188   -7.9816231     702.8523  0.017277589   0.01641006            2 
 3391000   0.70499724   -7.9698491    702.75406  0.017270079  0.016404969            2 
 3392000   0.68601213    -7.991034    700.99192  0.017221696  0.016399847            4 
 3393000   0.71011699   -7.9795817    702.75525  0.017259928  0.016394734            2 
 3394000    0.7076776   -7.9714318    704.50773  0.017297872  0.016389633            1 
 3395000   0.70405637   -7.9745841    703.24475  0.017261776  0.016384546            4 
 3396000   0.69714862   -7.9679932    703.77596  0.017269728  0.016379463            4 
 3397000    0.7104032   -7.9584599    703.86133  0.017266739  0.016374384            4 
 3398000   0.69369922   -7.9829257    704.20677  0.017270129  0.016369312            4 
 3399000   0.71469719   -7.9456374    704.11223   0.01726273  0.016364244            4 
 3400000   0.70282158   -7.9663971    704.57593  0.017269018  0.016359176            4 
 3401000   0.70635903   -7.9621122    705.45907   0.01728558   0.01635411            5 
 3402000   0.69526309    -7.960477    706.45323  0.017304851  0.016349047            3 
 3403000   0.70208186   -7.9887177    703.43921  0.017225958  0.016343986            2 
 3404000   0.70225076   -7.9557198    704.45005  0.017245644  0.016338913            6 
 3405000   0.70236405   -7.9432445    703.85161  0.017225933  0.016333839            3 
 3406000   0.72368401   -7.9613244    702.72458    0.0171933  0.016328762            1 
 3407000   0.70934984   -7.9958642    703.67318  0.017211456  0.016323691            2 
 3408000   0.69778892   -7.9754237    701.97098  0.017164783  0.016318619            2 
 3409000   0.69240533   -7.9753991    703.65409  0.017200892   0.01631355            4 
 3410000   0.73355593   -7.9908489      704.423  0.017214638  0.016308471            2 
 3411000   0.70368664   -7.9853702    704.30977  0.017206825    0.0163034            2 
 3412000   0.68675809   -7.9708548    706.54689  0.017256421  0.016298329            2 
 3413000   0.70934391   -7.9749862    703.94499  0.017187835  0.016293256            4 
 3414000   0.69632812   -7.9844732    703.55443  0.017173268  0.016288172            3 
 3415000   0.71207148   -8.0139922    703.43334  0.017165284  0.016283077            2 
 3416000   0.69723394   -7.9956099    703.42044  0.017159944  0.016277973            4 
 3417000   0.71542865   -7.9938786    704.47279  0.017180587   0.01627287            4 
 3418000   0.68733126   -7.9869364    702.48826  0.017127176  0.016267768            4 
 3419000    0.7252131   -7.9817195    702.20559  0.017115277  0.016262668            3 
 3420000   0.69980218   -7.9808097    704.02103  0.017154508  0.016257586            2 
 3421000   0.70420294    -7.995984    703.65754   0.01714064  0.016252508            4 
 3422000   0.71450555   -7.9973038    703.30717  0.017127098  0.016247442            4 
 3423000   0.70470119   -8.0197273    704.10918   0.01714162  0.016242362            4 
 3424000   0.70672336   -8.0163087    703.32253  0.017117468  0.016237278            4 
 3425000   0.71237762   -7.9838294    703.10882   0.01710727  0.016232189            7 
 3426000   0.69883003   -7.9792675    704.31652  0.017131653  0.016227107            2 
 3427000   0.70372049   -8.0275197    702.95279  0.017093493  0.016222002            2 
 3428000   0.69368152   -7.9811692    703.35251  0.017098223  0.016216907            3 
 3429000   0.70593327   -7.9934713    703.13492  0.017087949  0.016211835            2 
 3430000   0.70863677    -7.983028    703.83593  0.017099998  0.016206767            6 
 3431000   0.69365134   -7.9901059    704.66861  0.017115239  0.016201698            2 
 3432000   0.71602328   -7.9743534    704.12987   0.01709717  0.016196646            3 
 3433000   0.69455495   -7.9644026    705.50402  0.017125547  0.016191585            2 
 3434000   0.69209903    -7.995745    704.09474  0.017086361   0.01618653            3 
 3435000    0.7162513   -8.0038663    704.86264  0.017100016  0.016181467            2 
 3436000   0.69528792   -8.0023486    703.82922  0.017069975  0.016176393            1 
 3437000   0.70479236   -8.0274439    703.45334  0.017055895  0.016171306            3 
 3438000   0.69347627   -7.9883687     704.3363  0.017072336   0.01616622            4 
 3439000   0.71495535   -7.9953619    703.49406  0.017046963  0.016161147            2 
 3440000   0.69666397   -7.9808202    702.65887  0.017021775  0.016156086            3 
 3441000   0.69613412   -7.9898127     704.5921  0.017063647  0.016151013            3 
 3442000   0.69928522   -8.0046578    703.77639   0.01703894  0.016145948            3 
 3443000   0.69086079   -7.9988791    704.06132  0.017040888  0.016140878            3 
 3444000   0.71041566     -7.98158    704.10772  0.017037063  0.016135814            3 
 3445000   0.70126085   -8.0175544    704.48439  0.017041229   0.01613075            3 
 3446000   0.70255023   -8.0180372    703.91389  0.017022487  0.016125672            2 
 3447000    0.6987929   -7.9933994    703.32086  0.017003212  0.016120594            2 
 3448000   0.70506577   -7.9868765    704.47549  0.017026186  0.016115527            3 
 3449000   0.70423044   -8.0033947    703.10146  0.016988051  0.016110453            4 
 3450000   0.70166322   -7.9784235    702.57145  0.016970325  0.016105395            3 
 3451000   0.69331432   -7.9843699     704.8224  0.017019762  0.016100335            4 
 3452000   0.68689909   -7.9865094    703.67267  0.016987077  0.016095281            5 
 3453000   0.70340662   -8.0101472    703.12289  0.016968889  0.016090244            2 
 3454000   0.69146669   -7.9916508    705.11177  0.017011961   0.01608521            3 
 3455000   0.68245726   -7.9762668    704.52921  0.016992986  0.016080164            1 
 3456000   0.70139064   -7.9674219    706.20678   0.01702852  0.016075132            3 
 3457000   0.68619187   -7.9982948    703.72724  0.016963823  0.016070084           10 
 3458000   0.68788881    -7.972131    704.96002  0.016988626  0.016065042            4 
 3459000   0.70409273    -7.977227     705.1584  0.016988494  0.016060021            5 
 3460000   0.70100654    -7.962797    705.30379  0.016987086  0.016055002            2 
 3461000   0.70336761   -7.9775936    704.26541  0.016957175  0.016049964            4 
 3462000   0.70448581   -8.0089283    702.76461  0.016916152  0.016044923            5 
 3463000   0.70248828    -7.997879     704.1419   0.01694441  0.016039888            2 
 3464000   0.68816762   -7.9917637    703.65221  0.016927738  0.016034859            4 
 3465000   0.69229655   -8.0186727    702.21429  0.016888271  0.016029814            6 
 3466000   0.69409358   -8.0170052    702.27412  0.016884836  0.016024757            2 
 3467000   0.70156499   -7.9887177     703.1979   0.01690217  0.016019698            4 
 3468000   0.70348499   -8.0151124    703.99434  0.016916435   0.01601463            3 
 3469000   0.70550887   -8.0047328     703.2439  0.016893531   0.01600956            2 
 3470000   0.68514133   -8.0030671    703.66002  0.016898656  0.016004512            3 
 3471000    0.6920311   -8.0063825    703.84115  0.016898136  0.015999473            3 
 3472000   0.68133982   -7.9963202     704.3159  0.016904664  0.015994434            2 
 3473000   0.69299641   -7.9981699    704.27391  0.016898788  0.015989379            3 
 3474000   0.68990905   -7.9916914    703.95149   0.01688619  0.015984334            3 
 3475000   0.68713981   -8.0205269    704.24681  0.016888413  0.015979273            4 
 3476000   0.68884969   -8.0047535    704.30052  0.016884842  0.015974223            4 
 3477000   0.68511933   -7.9862051    703.64465  0.016864266  0.015969183            3 
 3478000    0.6936269   -8.0402335    703.25141  0.016849995  0.015964145            2 
 3479000   0.70178831   -7.9645643    703.65587   0.01685484   0.01595911            2 
 3480000   0.68712307   -8.0387492    703.54247  0.016847281   0.01595407            4 
 3481000   0.70335353   -8.0268713    703.41168  0.016839311  0.015949016            2 
 3482000   0.68319768   -8.0093194     703.7102  0.016841619  0.015943962            3 
 3483000   0.71107276   -7.9968564    704.83134  0.016863608  0.015938926            1 
 3484000   0.70675162   -8.0404231    703.28442  0.016821767  0.015933889            4 
 3485000   0.68746891   -8.0314399    703.00895  0.016810353   0.01592884            4 
 3486000   0.68639586   -8.0229905    703.33857   0.01681341  0.015923812            3 
 3487000   0.70517853   -8.0323933    703.76635  0.016818812  0.015918764            4 
 3488000   0.70425693   -8.0200895    703.45213  0.016806482  0.015913716            5 
 3489000   0.70158078   -8.0141851    703.59919  0.016805178   0.01590869            4 
 3490000   0.68744518   -7.9703134     704.6509  0.016825475   0.01590368            3 
 3491000   0.68201686   -8.0088254    704.17774  0.016809361  0.015898653            5 
 3492000    0.6670599   -7.9945706    704.32307  0.016808015  0.015893638            7 
 3493000   0.69262879   -7.9759282    705.02874  0.016820039  0.015888631            6 
 3494000    0.6853748   -7.9895029    703.70675  0.016783695  0.015883628            4 
 3495000   0.68445911   -8.0061678    703.60352  0.016776431  0.015878612            4 
 3496000   0.69142591    -7.979875    702.70095  0.016750118  0.015873596            4 
 3497000   0.69565347   -7.9937479    705.04932   0.01680129  0.015868584            6 
 3498000   0.70290194   -7.9931672    703.28341  0.016754417  0.015863579            5 
 3499000   0.69895884   -7.9936492    703.45861  0.016753801  0.015858574            4 
 3500000   0.68800042   -8.0180995    702.69289  0.016730783  0.015853545            5 
 3501000   0.69292388   -8.0374389    704.55848   0.01677041  0.015848534            7 
 3502000   0.68210923   -7.9950045    704.16603  0.016756283  0.015843528            7 
 3503000   0.69505809   -7.9947445    703.94402  0.016746218  0.015838527            3 
 3504000   0.68716014   -8.0205358    704.27409  0.016749289  0.015833519            9 
 3505000   0.69239953   -8.0234533    702.25106  0.016696411  0.015828504            5 
 3506000   0.67593115   -8.0014218    703.61533  0.016724076  0.015823483            4 
 3507000   0.71083538   -7.9869543    704.12201  0.016731347  0.015818476            2 
 3508000   0.69473962   -8.0212991    705.73292  0.016764845   0.01581349            2 
 3509000   0.68057367   -8.0212551    704.76637  0.016737113  0.015808488            3 
 3510000   0.68348962   -8.0167047    704.56482   0.01672756  0.015803501            3 
 3511000   0.68763737   -8.0204299    703.51828  0.016697956  0.015798501            3 
 3512000   0.68064779   -8.0384273    702.09646  0.016659464  0.015793498            3 
 3513000   0.67460149    -8.029256    704.12729  0.016702896  0.015788489            4 
 3514000   0.68397848   -8.0230088    703.17144  0.016675475  0.015783486            3 
 3515000   0.69645409   -8.0195787    702.86378  0.016663437  0.015778474            3 
 3516000   0.70186222   -8.0181471    705.12279  0.016712239  0.015773477            1 
 3517000    0.6986752   -8.0100762    703.22139  0.016662435  0.015768475            2 
 3518000   0.67844488   -8.0150244     703.5295  0.016664997  0.015763483            3 
 3519000   0.67874081   -8.0053849    705.44221  0.016705556  0.015758492            3 
 3520000   0.68089981   -8.0140473    704.46669  0.016677715  0.015753502            2 
 3521000    0.7018166   -8.0055908    703.66221  0.016653938    0.0157485            3 
 3522000   0.68971194   -8.0286433    705.53645  0.016693556  0.015743511            5 
 3523000   0.69308081    -8.027213    702.49379  0.016616846  0.015738523            4 
 3524000    0.6851585   -8.0033424    703.04426  0.016625148  0.015733519            3 
 3525000   0.67455104   -8.0339071    702.79401  0.016614516  0.015728517            4 
 3526000   0.68423254   -8.0426936    703.86753  0.016635175   0.01572352            4 
 3527000   0.68876424   -8.0128928    704.41722  0.016643446   0.01571854            6 
 3528000   0.69656804   -8.0438913    704.83185  0.016648523  0.015713547            3 
 3529000   0.68598106   -8.0394904    702.92801  0.016598848   0.01570855            2 
 3530000    0.6834895   -8.0137757    703.83163  0.016615478  0.015703566            2 
 3531000    0.6818947   -8.0346189    704.94906  0.016637144  0.015698577            2 
 3532000    0.6866455   -8.0344903    704.76462  0.016628082  0.015693595            3 
 3533000   0.69033092   -8.0212249    702.92171  0.016579906  0.015688632            5 
 3534000   0.70191054   -8.0434048    703.89238  0.016598104   0.01568366            3 
 3535000   0.68611813   -8.0100649    704.33362   0.01660381  0.015678703            3 
 3536000   0.68799283   -8.0437366    702.74395   0.01656165  0.015673715            2 
 3537000   0.68026878   -8.0388961    701.89803  0.016537038  0.015668734            2 
 3538000    0.6911085   -8.0169668    703.44873  0.016568889  0.015663752            4 
 3539000   0.67717003   -7.9954745    704.45311  0.016587857  0.015658767            4 
 3540000   0.69003747   -8.0246215    703.94374   0.01657118  0.015653782            2 
 3541000   0.67383995   -8.0354268    704.68497  0.016583945  0.015648809            6 
 3542000   0.67492105   -8.0192113     704.0684  0.016564756  0.015643846            3 
 3543000   0.69417012   -8.0598507    703.43251  0.016545124  0.015638858            6 
 3544000   0.67765432   -8.0533671    704.07995   0.01655568  0.015633872            3 
 3545000    0.6929578   -8.0532334    702.08857  0.016504198   0.01562888            3 
 3546000   0.67597015   -8.0249104    703.31256  0.016528308  0.015623893            4 
 3547000   0.67234187   -8.0592104    703.16406  0.016520159  0.015618904            2 
 3548000   0.68106461   -8.0310675     703.1534  0.016515253  0.015613915            5 
 3549000   0.68032188   -8.0215662    704.13094  0.016533553  0.015608931            2 
 3550000   0.68119031   -8.0101867    704.36555  0.016534403  0.015603955            2 
 3551000   0.68966511   -8.0652313    703.67272  0.016513487  0.015598979            3 
 3552000   0.67750071   -8.0577945    702.70215  0.016486068  0.015594003            4 
 3553000   0.68021233   -8.0255275    702.51913  0.016477135  0.015589024            1 
 3554000   0.67099931   -8.0513887    701.90646  0.016458133  0.015584043            3 
 3555000   0.69213689   -8.0219665    703.99612  0.016502488  0.015579056            2 
 3556000   0.66755088   -8.0497852    704.29161  0.016504771  0.015574075            2 
 3557000   0.67697921   -8.0688105     702.6821  0.016462424  0.015569099            5 
 3558000   0.69462737   -8.0212434     704.2628  0.016494819  0.015564129            2 
 3559000   0.69756373   -8.0620922    703.98644  0.016483714  0.015559169            4 
 3560000   0.70218798   -8.0561134    703.21377  0.016460997  0.015554202            4 
 3561000   0.68188309   -8.0349514    703.72726  0.016468391  0.015549222            2 
 3562000   0.69332995   -8.0383024      703.285   0.01645342  0.015544256            4 
 3563000   0.69165872   -8.0462127    704.06826  0.016467122  0.015539288            5 
 3564000   0.68443772   -8.0368539    704.21572  0.016465949  0.015534309            3 
 3565000    0.6667831    -8.037631    703.54282  0.016445601  0.015529346            2 
 3566000   0.67058992   -8.0769689    702.95445   0.01642724   0.01552437            2 
 3567000   0.66464168   -8.0457895    704.20864  0.016451935  0.015519397            3 
 3568000   0.67083564   -8.0354383    703.64239  0.016434099  0.015514424            2 
 3569000   0.67379755   -8.0645571    702.93315  0.016412934   0.01550945            3 
 3570000   0.67668176   -8.0535645    703.25018  0.016415737  0.015504478            4 
 3571000   0.67876377    -8.023188    704.83656   0.01644816  0.015499519            3 
 3572000   0.68298128   -8.0802944    702.96236  0.016399831  0.015494551            3 
 3573000    0.6836897   -8.0330492    703.90987   0.01641734  0.015489584            2 
 3574000   0.68216346   -8.0672441    702.55148  0.016381074  0.015484622            2 
 3575000   0.68310974    -8.065664     703.6656  0.016402461   0.01547965            4 
 3576000   0.66599414   -8.0570967    704.43782   0.01641587  0.015474677            3 
 3577000    0.6954888   -8.0575036    703.47291  0.016388801  0.015469715            4 
 3578000   0.68584431   -8.0597682    702.56361  0.016363043   0.01546476            3 
 3579000   0.67589536   -8.0527067    702.29973  0.016352327  0.015459808            6 
 3580000   0.67759534   -8.0497934    702.40302  0.016350163  0.015454847            3 
 3581000   0.68514942     -8.06567    704.09586  0.016384992  0.015449893            2 
 3582000   0.68575262   -8.0475377    703.32145  0.016362401   0.01544494            3 
 3583000   0.68533912    -8.052362    701.56418  0.016316964  0.015439976            6 
 3584000   0.66985413   -8.0521056    703.37075  0.016354417  0.015435011            4 
 3585000   0.68186697   -8.0445832    703.70864  0.016357709  0.015430055            5 
 3586000   0.66768424     -8.03281    703.34166  0.016344619  0.015425101            2 
 3587000   0.68003272   -8.0540561    701.33411  0.016293423  0.015420139            4 
 3588000   0.68935823   -8.0637127    703.10721  0.016330063   0.01541518            4 
 3589000   0.67268149   -8.0433837    703.98721  0.016345946  0.015410231            6 
 3590000   0.67905016   -8.0399888    703.76523   0.01633624  0.015405282            4 
 3591000   0.67413968   -8.0495402    704.61844  0.016351491  0.015400348            2 
 3592000   0.68467648   -8.0510653    705.99349  0.016378839  0.015395407            5 
 3593000    0.6687656   -8.0695862    703.76526  0.016322601  0.015390485            2 
 3594000   0.66952105   -8.0512338    704.39457  0.016332651  0.015385575            6 
 3595000    0.6582661   -8.0475491    705.12068  0.016344939  0.015380651            2 
 3596000     0.668402   -8.0317274    703.09825  0.016293526  0.015375746            3 
 3597000   0.67128619   -8.0636596    703.39001  0.016295756   0.01537083            3 
 3598000   0.68773704   -8.0438126    704.42692  0.016315243  0.015365919            2 
 3599000   0.67697725   -8.0515014    705.25305  0.016329838  0.015360994            6 
 3600000   0.66816891   -8.0746117    702.54773  0.016262679  0.015356056            4 
 3601000   0.67507557   -8.0676652    704.25555  0.016297685  0.015351132            2 
 3602000   0.66071248   -8.0550402    704.31762  0.016294596  0.015346199            5 
 3603000   0.67586744   -8.0699067    703.15094  0.016263089  0.015341265            3 
 3604000   0.67028731   -8.0845568    704.04786  0.016279316  0.015336332            2 
 3605000   0.67810685   -8.0656783    703.46011  0.016261214  0.015331392            7 
 3606000   0.66999529   -8.0572643    703.25749  0.016252022  0.015326471            4 
 3607000   0.67091922   -8.0374886    703.99091  0.016264461  0.015321558            2 
 3608000   0.65796681   -8.0482687    703.73509  0.016254044  0.015316648            1 
 3609000   0.67336377   -8.0605712    705.03732  0.016279609  0.015311735            2 
 3610000   0.67560355   -8.0815106    704.14467  0.016254494  0.015306834            2 
 3611000   0.67365205   -8.0548214    704.89181  0.016267235  0.015301938            3 
 3612000   0.68602412   -8.0617683    705.12094  0.016268017  0.015297033            5 
 3613000   0.66993379   -8.0437943    704.07434  0.016239375  0.015292136            3 
 3614000   0.67569875   -8.0554722    704.57164  0.016246348  0.015287224            2 
 3615000   0.67894704    -8.050849    704.11993  0.016231442   0.01528232            2 
 3616000   0.68065754   -8.0525233    701.72529  0.016171766  0.015277418            3 
 3617000   0.66689358   -8.0916705    703.63264   0.01621124  0.015272498            5 
 3618000   0.67371859   -8.0777417     703.0533  0.016193415  0.015267577            3 
 3619000   0.67757116   -8.0291458    702.60183  0.016178544   0.01526267            2 
 3620000   0.68294524   -8.0738875    703.02714  0.016183866  0.015257768            4 
 3621000   0.66480996   -8.0593783    704.10935  0.016204302  0.015252863            2 
 3622000   0.67225903   -8.0745086    702.88116  0.016171571  0.015247968            2 
 3623000   0.65957709   -8.0783869    705.05908  0.016217202  0.015243064            5 
 3624000   0.68141818   -8.0751066    702.87059  0.016162403  0.015238163            4 
 3625000   0.67400029   -8.0620314     703.5468   0.01617349  0.015233262            4 
 3626000   0.67530327   -8.0440855    704.45735  0.016189956  0.015228376            4 
 3627000   0.68170106    -8.040512    703.78146  0.016169963  0.015223502            2 
 3628000   0.68476287   -8.0551991    703.89975  0.016168223  0.015218626            2 
 3629000   0.67769339   -8.0603181    705.66134  0.016204219  0.015213747            1 
 3630000   0.66169285   -8.0557872    703.28027  0.016145094  0.015208872            2 
 3631000   0.65791657   -8.0643547    705.17241  0.016184073  0.015204003            2 
 3632000   0.66843749   -8.0309745    705.16228  0.016179384  0.015199138            2 
 3633000   0.66046842   -8.0620175    703.83841  0.016144564  0.015194269            2 
 3634000   0.67962545   -8.0905987    705.17605  0.016170795  0.015189397            4 
 3635000   0.66666528   -8.0638693    704.96777  0.016161572  0.015184535            2 
 3636000   0.66054586   -8.0674295    704.79875  0.016153253  0.015179677            5 
 3637000   0.67933712   -8.0300818    703.58037  0.016120896  0.015174827            2 
 3638000   0.67333696   -8.0613754    705.09624  0.016151187  0.015169974            4 
 3639000   0.66410693   -8.0664232     705.3564  0.016152707  0.015165124            3 
 3640000   0.66101193   -8.0543667    704.61072  0.016131198   0.01516027            2 
 3641000   0.65081062   -8.0593481    705.97612  0.016158018  0.015155416            2 
 3642000   0.66915011   -8.0822216    703.64253  0.016100186  0.015150556            2 
 3643000   0.68097016   -8.0881125    703.49166  0.016092315  0.015145702            2 
 3644000   0.65987692   -8.0859976     703.7136  0.016092975  0.015140835            2 
 3645000   0.66474609   -8.0769926    705.67132  0.016133318  0.015135975            5 
 3646000   0.65934414   -8.0572923    705.22985  0.016118803   0.01513112            2 
 3647000   0.67813422   -8.0830622    704.35797  0.016094461  0.015126259            2 
 3648000   0.66947065   -8.0791858    705.62289  0.016118944  0.015121403            4 
 3649000   0.65964792   -8.0589053     706.4559   0.01613355  0.015116566            4 
 3650000   0.66454385   -8.0868543    703.92561  0.016071361  0.015111717            2 
 3651000   0.65305024   -8.0936711    703.30356  0.016052761  0.015106862            2 
 3652000   0.66881745   -8.0772316    705.44002  0.016097116  0.015102016            3 
 3653000   0.66233325   -8.0779464     705.3911  0.016091594   0.01509718            3 
 3654000   0.66211324   -8.0725093    703.69112   0.01604842  0.015092339            3 
 3655000   0.64828352   -8.0744135    704.21492  0.016055972  0.015087498            3 
 3656000    0.6809501   -8.0738229    705.07759  0.016071243  0.015082664            7 
 3657000   0.67172379    -8.069314    704.20461  0.016046956   0.01507784            5 
 3658000   0.66942129   -8.0723763    704.05519  0.016039165  0.015073015            6 
 3659000   0.66461977   -8.0669808    703.97088  0.016032861  0.015068199            2 
 3660000    0.6523607   -8.0426586     704.3417  0.016036924  0.015063383            5 
 3661000   0.66132775   -8.0757021    704.22118    0.0160298  0.015058565            3 
 3662000   0.66754473     -8.04364    703.52753  0.016009638  0.015053742            3 
 3663000   0.66445789   -8.0487776    705.66392   0.01605387  0.015048922            6 
 3664000   0.66363095   -8.0647641    705.04796  0.016035479  0.015044115            3 
 3665000   0.66172854   -8.0796115     704.7783  0.016024973  0.015039303            5 
 3666000    0.6632426   -8.0929777    705.60926   0.01603949  0.015034488            7 
 3667000   0.67032306   -8.0714024    705.58671  0.016034604  0.015029685            3 
 3668000   0.66079699   -8.0696629    705.08913  0.016018928  0.015024891            6 
 3669000   0.65289481   -8.0865667    704.69738  0.016005664  0.015020089            5 
 3670000   0.66073817   -8.0735291    704.83347  0.016004393  0.015015303            4 
 3671000   0.67948248   -8.0577594    705.21119  0.016008608  0.015010513            1 
 3672000   0.66565759   -8.0883139    705.85682    0.0160189   0.01500573            2 
 3673000   0.66760004   -8.0672663    705.51515  0.016006787  0.015000937            5 
 3674000   0.65741987   -8.0655416    705.26262  0.015996703  0.014996136            4 
 3675000   0.66303899    -8.073287    705.06126  0.015987784  0.014991345            3 
 3676000   0.67069738   -8.0570878    704.99244  0.015981874  0.014986552            2 
 3677000   0.66271529   -8.0697195    704.68323   0.01597052  0.014981771            5 
 3678000    0.6727587   -8.0472969    703.82719  0.015946782  0.014976985            3 
 3679000    0.6639847   -8.0705235    704.45957  0.015956772  0.014972198            3 
 3680000   0.66848051   -8.0480807     706.1373  0.015990428  0.014967416            4 
 3681000   0.65044803   -8.0821411    704.58731  0.015950994  0.014962632            5 
 3682000    0.6648637   -8.0538045     704.4126  0.015942708  0.014957839            2 
 3683000   0.67495373   -8.0692056    705.43357   0.01596148  0.014953053            4 
 3684000   0.65216018   -8.0718365    704.38455  0.015933418   0.01494825            2 
 3685000   0.64912149   -8.0827499    703.96106  0.015919517  0.014943442            1 
 3686000   0.68368682    -8.084712     703.9022  0.015913868  0.014938644            3 
 3687000   0.65290429    -8.083183    704.27049  0.015917876  0.014933856            1 
 3688000   0.65513728   -8.0758233    705.44085  0.015940005  0.014929075            2 
 3689000   0.65692242   -8.0663608    704.59483  0.015916572  0.014924298            2 
 3690000    0.6739882   -8.0692401    704.65307  0.015913574  0.014919523            2 
 3691000   0.67885504   -8.0923313    705.54691  0.015929443  0.014914736            3 
 3692000   0.66326867   -8.0683147    703.51316  0.015879225  0.014909945            1 
 3693000   0.66129696   -8.0888204    703.33106  0.015870816  0.014905141            1 
 3694000   0.67629317   -8.1069608    703.83124  0.015877803  0.014900337            2 
 3695000    0.6575694   -8.1014914    704.54924  0.015889699  0.014895533            4 
 3696000    0.6624879   -8.0982323    702.08436  0.015829824  0.014890728            3 
 3697000   0.65652846   -8.1106546    704.02065  0.015869188  0.014885933            3 
 3698000   0.68143826   -8.0989647    703.24488  0.015847415  0.014881131            3 
 3699000   0.65463207   -8.1105907    703.95129  0.015859045  0.014876337            4 
 3700000   0.66250561   -8.1125071    703.43581  0.015843149  0.014871551            4 
 3701000   0.65321234   -8.1126521    703.38486  0.015837721  0.014866758            3 
 3702000   0.65108635   -8.0839034    704.11057  0.015849779  0.014861964            3 
 3703000    0.6643012   -8.1113269    703.91918  0.015841191  0.014857186            3 
 3704000   0.64245184   -8.1124971    704.13757  0.015841828  0.014852396            3 
 3705000   0.66156954   -8.1164126    704.05406  0.015835674  0.014847613            3 
 3706000   0.67055596   -8.1070832    703.89354  0.015827791  0.014842831            3 
 3707000   0.66767186   -8.1021815    705.43147  0.015858094  0.014838046            2 
 3708000   0.64545269    -8.082307    703.96997  0.015820972  0.014833263            2 
 3709000   0.68030714   -8.1245249    703.91553  0.015815483  0.014828482            2 
 3710000   0.65690733   -8.0933977    705.66563  0.015850531  0.014823697            4 
 3711000   0.65147317   -8.0974609    704.68671  0.015824277  0.014818916            8 
 3712000   0.66140567   -8.1060229    702.84015   0.01577856  0.014814128            5 
 3713000   0.66526917   -8.1107743    704.16601  0.015804067  0.014809343            3 
 3714000   0.66237539   -8.1066281    704.05096   0.01579723  0.014804554            3 
 3715000   0.66707431   -8.1059948     703.6225  0.015783367  0.014799773            2 
 3716000   0.65684755   -8.0943049    704.69706  0.015803217  0.014795007            4 
 3717000   0.65430344   -8.1012153    705.16226  0.015809395   0.01479023            3 
 3718000   0.66126557   -8.1339905    703.60279   0.01577019   0.01478545            3 
 3719000   0.66401917   -8.1136102     703.0453  0.015753458  0.014780678            4 
 3720000    0.6603343    -8.105067    705.16872   0.01579679  0.014775903            4 
 3721000   0.64598066    -8.092317    703.41008  0.015753159   0.01477113            3 
 3722000   0.64563144   -8.1155659    704.47265  0.015772717  0.014766347            3 
 3723000   0.64984068    -8.114478    704.48399  0.015768735  0.014761584            5 
 3724000   0.64041442   -8.1053948    705.08786  0.015778013  0.014756828            5 
 3725000   0.65974637     -8.10774    705.64907  0.015786333  0.014752075            6 
 3726000   0.64694643   -8.0993606    703.74858  0.015739591  0.014747325            3 
 3727000   0.63761482   -8.0942413    703.80771   0.01573669   0.01474257            2 
 3728000   0.65132147   -8.0901461    704.77404  0.015754069  0.014737818            4 
 3729000   0.65318375   -8.1050469    704.75609  0.015749443  0.014733078            2 
 3730000   0.67122629   -8.0985512    705.41028  0.015759837  0.014728324            2 
 3731000   0.66916534   -8.1230963    703.46986  0.015712272  0.014723566            4 
 3732000   0.65034322   -8.1096829    703.73658  0.015714018  0.014718807            3 
 3733000   0.65440413   -8.1214786    704.15831  0.015719223  0.014714049            2 
 3734000   0.64217642   -8.1157961    703.69922  0.015704768    0.0147093            3 
 3735000   0.65351697   -8.1068193    702.71578  0.015678621   0.01470454            4 
 3736000   0.66809667   -8.1171678    704.25448  0.015708746  0.014699785            2 
 3737000   0.65534166   -8.0857398    704.85711   0.01571798  0.014695034            3 
 3738000   0.65923675   -8.1439015    703.85269  0.015691383  0.014690289            2 
 3739000   0.65970293   -8.0930281    703.70585  0.015683914  0.014685543            4 
 3740000    0.6600516    -8.089226    705.30441  0.015715339  0.014680805            4 
 3741000   0.65348013   -8.1137224    704.37591  0.015690455  0.014676067            5 
 3742000   0.66350961   -8.1233753    703.55173  0.015667908  0.014671329            6 
 3743000   0.65441963   -8.1443255    703.92373  0.015672004   0.01466659            4 
 3744000   0.64934508   -8.1190221      703.141  0.015650396   0.01466185            5 
 3745000   0.66413616   -8.1100267    704.33949  0.015672886  0.014657119            5 
 3746000   0.66591718   -8.1095272    704.89792  0.015681125  0.014652393            4 
 3747000   0.65337742   -8.1233674    704.34917  0.015664736  0.014647668            2 
 3748000   0.66500009   -8.1491596    702.49306  0.015619287  0.014642938            1 
 3749000   0.65901955   -8.1292481    704.27553  0.015654742  0.014638212            3 
 3750000   0.65566162   -8.0839183    704.65349  0.015658966    0.0146335            4 
 3751000   0.64110944   -8.1248789    705.47706  0.015673088  0.014628788            2 
 3752000   0.64847059   -8.0976479    704.97573  0.015657776  0.014624079            4 
 3753000   0.64745261   -8.1247305    703.68919  0.015625038  0.014619364            3 
 3754000   0.65520638   -8.1307103    705.09449  0.015652071  0.014614646            4 
 3755000   0.66336515   -8.1173471     704.7888  0.015641118  0.014609936            2 
 3756000   0.64302054   -8.1337023    703.37905  0.015605676  0.014605235            2 
 3757000   0.63804668   -8.1073683    705.17501  0.015641359  0.014600525            7 
 3758000   0.64407751   -8.1043958    704.20015  0.015615579  0.014595805            6 
 3759000   0.65415067   -8.1437251    704.20988   0.01561164  0.014591085            4 
 3760000   0.63877152   -8.1334006     704.2913  0.015609293  0.014586362            2 
 3761000   0.64037514   -8.1205084    702.53584  0.015566247  0.014581645            5 
 3762000   0.64768309   -8.1230153    704.02465  0.015595088  0.014576936            3 
 3763000   0.64561092   -8.1142196    705.17897  0.015616507  0.014572228            3 
 3764000   0.64341829   -8.1279202    703.82175  0.015582309  0.014567528            3 
 3765000   0.64938149   -8.1406187    703.36784  0.015568124  0.014562817            3 
 3766000   0.65493224   -8.1215376    704.44574  0.015587842  0.014558111            3 
 3767000   0.65401808   -8.1176597    704.97946  0.015595511  0.014553405            2 
 3768000   0.65193994   -8.1507532    703.02204  0.015548081  0.014548696            3 
 3769000   0.66458417   -8.1165169    704.90367  0.015585559  0.014544001            2 
 3770000   0.63603548   -8.0859478    704.87064  0.015580695   0.01453931            3 
 3771000    0.6489136   -8.1197306     703.4071  0.015544221  0.014534616            4 
 3772000   0.65551595   -8.1340966    703.36266  0.015539119  0.014529926            2 
 3773000    0.6519271   -8.1378236    705.42431  0.015580535  0.014525247            1 
 3774000   0.65108331   -8.1093447    703.84806  0.015541602  0.014520561            2 
 3775000   0.64198775   -8.1145235    705.52308  0.015574461  0.014515882            3 
 3776000   0.65431727   -8.1274514    704.46789  0.015547049  0.014511203            3 
 3777000   0.64581509   -8.1140395    705.45201  0.015564646  0.014506524            3 
 3778000   0.64751636   -8.0969217    705.01171  0.015550814   0.01450185            4 
 3779000   0.64030372   -8.1335061    704.16188  0.015527959  0.014497173            4 
 3780000   0.64679518   -8.1470125    704.57645  0.015532991  0.014492495            2 
 3781000    0.6484586   -8.1448933     705.4863  0.015548936  0.014487806            4 
 3782000   0.64836194   -8.1335853    705.18563  0.015538199   0.01448314            2 
 3783000   0.65595721   -8.1298381     704.1974  0.015512323  0.014478472            3 
 3784000   0.64014176   -8.1198073    704.87378  0.015523119    0.0144738            3 
 3785000    0.6368306   -8.1245379    703.74965  0.015494268  0.014469125            2 
 3786000   0.64830361   -8.1396633    704.68916  0.015510855  0.014464452            3 
 3787000   0.63581547     -8.14522    705.23619  0.015518796  0.014459786            3 
 3788000   0.64576141    -8.151652    705.78804   0.01552684  0.014455113            2 
 3789000   0.64476174   -8.1096528    703.92713  0.015481814   0.01445045            6 
 3790000   0.63738565   -8.1164444    706.19162   0.01552752  0.014445792            4 
 3791000   0.64280502   -8.1110934    704.23634  0.015480444  0.014441128            6 
 3792000   0.65438974   -8.1345887    704.37912  0.015479499   0.01443648            3 
 3793000   0.63418498   -8.1213675    705.50962  0.015500255  0.014431837            3 
 3794000   0.63980372   -8.1165586    705.43073  0.015494437  0.014427199            3 
 3795000   0.64773035   -8.1296748    705.36887  0.015488996   0.01442256            5 
 3796000   0.64692276   -8.1106103    705.15785  0.015480283  0.014417918            2 
 3797000   0.64543349   -8.1356341    704.95714  0.015471801  0.014413273            1 
 3798000    0.6455571   -8.1067518    704.36214  0.015454672  0.014408639            4 
 3799000   0.65022348   -8.1029753    705.90869  0.015484529  0.014404004            2 
 3800000   0.64369704   -8.1346551    704.96955  0.015459859  0.014399369            3 
 3801000   0.64189816   -8.1154348    705.54785   0.01546847  0.014394735            2 
 3802000   0.64914569   -8.1146125    704.17975  0.015434415  0.014390106            2 
 3803000    0.6522972   -8.1413054    704.43448  0.015435938  0.014385468            2 
 3804000   0.63517262   -8.1313782    705.55017  0.015456322  0.014380836            6 
 3805000   0.63397145   -8.1254064    705.33885  0.015447631  0.014376201            3 
 3806000   0.63019549   -8.1244525     703.6693  0.015407017  0.014371571            2 
 3807000   0.64918662   -8.1382258    704.38587  0.015418656  0.014366933            1 
 3808000   0.64191115   -8.1262664     705.4234  0.015437312  0.014362291            2 
 3809000   0.64089037   -8.1470903    704.70826  0.015417613   0.01435766            2 
 3810000   0.63934051   -8.1467921    704.68119  0.015412975  0.014353026            3 
 3811000   0.65887265   -8.1196686    704.64602  0.015408161  0.014348393            3 
 3812000   0.63594506    -8.119957    702.29166  0.015352651  0.014343763            4 
 3813000   0.64192703   -8.1394893     704.5423  0.015397812  0.014339143            3 
 3814000   0.64665109    -8.118373    705.71848  0.015419474  0.014334518            6 
 3815000   0.63164777   -8.1504958    704.84474  0.015396346    0.0143299            2 
 3816000   0.64465807   -8.1115289     704.9196  0.015393947  0.014325283            2 
 3817000   0.65512279   -8.1263293    704.77873  0.015386838  0.014320672            6 
 3818000   0.62816878   -8.1176566    704.99788  0.015387591  0.014316053            4 
 3819000   0.64246286   -8.1368002     703.6791  0.015354785  0.014311428            3 
 3820000   0.64253394   -8.1226643    703.95447  0.015356773  0.014306803            7 
 3821000   0.63823044   -8.1320286    704.94283  0.015374309  0.014302183            6 
 3822000    0.6408935    -8.126119    704.71754  0.015365375  0.014297564            5 
 3823000   0.65099643   -8.1639583    704.49086  0.015356414  0.014292951            7 
 3824000   0.63930099   -8.1446068    703.66917  0.015334492  0.014288336            4 
 3825000   0.62493743   -8.1272529    704.19424  0.015341922  0.014283724           11 
 3826000    0.6290458   -8.1385256    705.38905  0.015363936  0.014279121           11 
 3827000    0.6409419   -8.1268567    703.39796  0.015316566  0.014274504           15 
 3828000   0.63653112    -8.143642    704.23711  0.015330832  0.014269886           12 
 3829000   0.63886503   -8.1328329    704.48427  0.015332207  0.014265278            7 
 3830000   0.64321422   -8.1116758    703.70042  0.015311149  0.014260669            8 
 3831000   0.64023377   -8.1451938    704.48185  0.015324151  0.014256061           11 
 3832000   0.63259999    -8.148246    704.19803  0.015313979  0.014251447            5 
 3833000   0.65172317   -8.1300333      704.142  0.015308766  0.014246832           12 
 3834000   0.63694253   -8.1379199    703.83343  0.015298066  0.014242216           14 
 3835000   0.63102301   -8.1265117    703.87228  0.015294921  0.014237607           11 
 3836000   0.63928181   -8.1315415    704.82349  0.015311598  0.014232997            4 
 3837000   0.63759093   -8.1362849    704.20015   0.01529407  0.014228394            4 
 3838000   0.63485594   -8.1387897    704.38053  0.015294001    0.0142238            7 
 3839000   0.63386979   -8.1232438    704.95629  0.015302516  0.014219205            2 
 3840000   0.64547591   -8.1464958    704.35014  0.015285376  0.014214604            6 
 3841000   0.63487634   -8.1456565    705.52517   0.01530689  0.014210012            4 
 3842000   0.64615438   -8.1370962    703.73627  0.015264104  0.014205411            3 
 3843000   0.61795294   -8.1567966    705.32332  0.015294547  0.014200813            4 
 3844000   0.64799235   -8.1348961    704.77357   0.01527865  0.014196216            4 
 3845000   0.63170394   -8.1348982    703.79811  0.015253535  0.014191627            4 
 3846000     0.631461   -8.1389834    703.66329  0.015246648  0.014187044            3 
 3847000   0.62590538   -8.1337453    704.50605   0.01526094  0.014182451            5 
 3848000   0.63477809   -8.1498607    704.25921  0.015251629  0.014177856            4 
 3849000   0.64925668   -8.1373997    704.85753   0.01526062  0.014173264            2 
 3850000    0.6355355   -8.1479839    703.80913  0.015233964  0.014168688            2 
 3851000    0.6422889   -8.1437342    703.80954  0.015230017  0.014164099            3 
 3852000   0.64129527    -8.142336    703.98513  0.015229862  0.014159517            4 
 3853000   0.62767901   -8.1370605    703.20535  0.015209044  0.014154935            4 
 3854000   0.62384307    -8.138657    704.70697  0.015237566   0.01415036            2 
 3855000   0.63999331   -8.1563104    704.49026  0.015228929  0.014145785            4 
 3856000   0.62297367   -8.1484046    704.25401  0.015219874  0.014141213            3 
 3857000   0.62504298   -8.1576025    703.34063  0.015196194  0.014136637            2 
 3858000   0.61294377   -8.1346437    704.09789  0.015208612  0.014132055            3 
 3859000   0.62635101   -8.1509016    704.31825  0.015209429  0.014127476            3 
 3860000   0.62297358    -8.125973    703.26656  0.015182784  0.014122898            3 
 3861000   0.62530509   -8.1393919    705.83811  0.015234354  0.014118325            6 
 3862000   0.63655353   -8.1460281    704.64486  0.015204662  0.014113753            5 
 3863000   0.64368781   -8.1493699    704.78096  0.015203662  0.014109182            3 
 3864000   0.63483983   -8.1599494     704.9113  0.015202538  0.014104613            7 
 3865000   0.63961325   -8.1161237     704.6943  0.015193926  0.014100043            4 
 3866000   0.63322915   -8.1609805    703.50881  0.015164442  0.014095469            6 
 3867000   0.61702413    -8.132439    704.18697  0.015175135    0.0140909            2 
 3868000   0.63765238   -8.1598411    704.00683  0.015167331  0.014086328            4 
 3869000   0.64121429   -8.1495183    703.85194  0.015160074  0.014081764            1 
 3870000   0.63023427   -8.1678173    704.07147  0.015160884  0.014077191            3 
 3871000   0.63053506   -8.1438406    705.17174  0.015180654  0.014072618            3 
 3872000   0.64142234   -8.1350099    705.14005  0.015176051  0.014068056            2 
 3873000   0.62797868   -8.1726098    704.36974  0.015155559  0.014063493            2 
 3874000   0.63446498   -8.1516677    704.67765   0.01515827  0.014058917            5 
 3875000   0.62679778     -8.15888    705.45676  0.015171113  0.014054347            2 
 3876000   0.62632915   -8.1705036    705.74546  0.015173406  0.014049793            5 
 3877000   0.63381581   -8.1668592    703.71899  0.015125935  0.014045227            3 
 3878000   0.63652779   -8.1420955     703.5723  0.015118882  0.014040657            2 
 3879000   0.63222109   -8.1553993    703.45167  0.015112393  0.014036091            4 
 3880000   0.62889104   -8.1661615    703.87674  0.015117628  0.014031528            3 
 3881000   0.62652706   -8.1595473    703.98496  0.015116056  0.014026974            4 
 3882000   0.62532299   -8.1377264    703.61699  0.015104263  0.014022421            6 
 3883000    0.6297006   -8.1754541    705.65065  0.015144018  0.014017878            4 
 3884000   0.62851024   -8.1495406    703.93692   0.01510335  0.014013329            2 
 3885000   0.63870846   -8.1720411    703.23305  0.015084364  0.014008784            2 
 3886000   0.64347658   -8.1663615    704.38151   0.01510511  0.014004222            6 
 3887000   0.63541637   -8.1816096    703.32885  0.015078656  0.013999667            3 
 3888000   0.63979396   -8.1688732    703.30656    0.0150743  0.013995115            5 
 3889000   0.63898323   -8.1857628    703.85792  0.015082239  0.013990566            4 
 3890000   0.62991257   -8.1492448    703.51839  0.015071088  0.013986021            5 
 3891000   0.62087184    -8.170578    702.05641  0.015035904  0.013981485           10 
 3892000   0.62856213   -8.1536933     705.2027  0.015099407  0.013976946            3 
 3893000   0.63665596   -8.1678695    704.09141   0.01507174  0.013972416            5 
 3894000   0.63795392   -8.1550026    704.37969  0.015074039   0.01396788            2 
 3895000   0.63692391   -8.1619012    703.03327  0.015041362  0.013963354            3 
 3896000   0.62540401   -8.1392486    704.60739  0.015071171  0.013958827            5 
 3897000   0.63240388   -8.1691558    704.08141  0.015056056  0.013954299            2 
 3898000    0.6275032   -8.1804382    704.77002  0.015066915  0.013949772            2 
 3899000   0.62742824   -8.1742106    703.63499  0.015038792  0.013945244            7 
 3900000   0.63906229   -8.1646097    704.17097  0.015046388  0.013940717            2 
 3901000   0.62654007   -8.1559936    704.51318  0.015049841  0.013936193            3 
 3902000   0.61932866   -8.1567781    704.15201  0.015038271  0.013931674            2 
 3903000   0.61442724   -8.1716983    704.20164  0.015035478   0.01392716            1 
 3904000   0.63719861    -8.158734     704.2736  0.015033163  0.013922643            3 
 3905000   0.62886769   -8.1463797    704.51401  0.015034443  0.013918128            2 
 3906000   0.62483797   -8.1587254    704.41225  0.015028423  0.013913612            3 
 3907000   0.63395656   -8.1765914     705.2577  0.015042609  0.013909099            5 
 3908000   0.65281681    -8.164527    704.14989  0.015015138  0.013904593            1 
 3909000    0.6437267   -8.1530229     704.8706  0.015026661  0.013900086            6 
 3910000   0.63546835   -8.1653493    703.27234  0.014988754  0.013895587            5 
 3911000   0.64178394   -8.1439716    706.03446  0.015043775  0.013891095            6 
 3912000   0.62694777   -8.1641852    704.35536  0.015004162  0.013886597            5 
 3913000   0.64234104   -8.1411305    705.76534  0.015030355  0.013882097            4 
 3914000   0.63829769   -8.1623864    704.35779  0.014996546  0.013877609            2 
 3915000   0.62409038   -8.1458091    704.63316  0.014998577  0.013873126            2 
 3916000   0.63199533   -8.1576871    704.56806  0.014993362   0.01386865            6 
 3917000   0.63225161   -8.1568966    704.74582  0.014993316  0.013864171            4 
 3918000   0.64372653   -8.1566953    705.39563   0.01500331   0.01385969            3 
 3919000   0.62460774   -8.1706337    705.03376  0.014991787  0.013855207            2 
 3920000   0.63880074   -8.1805668    704.20615  0.014970369  0.013850724            2 
 3921000     0.640602   -8.1643089    705.25528  0.014988848  0.013846246            2 
 3922000   0.62327267   -8.1830355    703.83353  0.014954818  0.013841767            3 
 3923000   0.64078878   -8.1479151    704.45157  0.014964134  0.013837288            2 
 3924000   0.62855912   -8.1477541    705.04206  0.014972861  0.013832818            3 
 3925000   0.63071786   -8.1721995    705.24055   0.01497326  0.013828341            3 
 3926000   0.61816051   -8.1642968    703.84408  0.014939805  0.013823854            5 
 3927000   0.62690574   -8.1619955    704.07918  0.014940989   0.01381938            4 
 3928000   0.62814108   -8.1618725    704.89512  0.014954496  0.013814901            5 
 3929000   0.62545276   -8.1671767    704.40176  0.014940226  0.013810432            4 
 3930000    0.6130817   -8.1721691    703.84582  0.014924636  0.013805962            8 
 3931000   0.62133843   -8.1840598    703.57302  0.014915056  0.013801486            6 
 3932000   0.62802758    -8.179271    703.30059  0.014905489  0.013797009            2 
 3933000   0.62011192    -8.197343     704.1302  0.014919277  0.013792538            7 
 3934000   0.61677625   -8.1505271    705.62037  0.014947051  0.013788068            1 
 3935000   0.62485451   -8.1972082    703.71217  0.014902841  0.013783594            1 
 3936000    0.6339839   -8.1813315    704.51248  0.014915999  0.013779113            3 
 3937000   0.62344699    -8.186946    703.67217  0.014894424  0.013774638            4 
 3938000   0.60962101   -8.1727432    702.82892  0.014872798  0.013770163            4 
 3939000   0.62228429   -8.1953433    704.23938  0.014898861  0.013765691            4 
 3940000   0.63177279   -8.1719131    703.70751  0.014883831  0.013761223            3 
 3941000   0.63154433   -8.1884227    704.69401  0.014900914   0.01375675            4 
 3942000   0.59704535   -8.1884098    703.93417  0.014881071   0.01375228            2 
 3943000   0.60891294   -8.1837042     703.5496  0.014869169  0.013747808            2 
 3944000   0.62752593   -8.1751935     704.8825  0.014893562  0.013743353            2 
 3945000   0.62061974   -8.1660624    703.19524  0.014854145  0.013738897            3 
 3946000   0.60996819   -8.2022077    704.72554  0.014882699  0.013734433            2 
 3947000    0.6273845   -8.1883564    704.75895  0.014879633  0.013729969            2 
 3948000   0.62288872   -8.1861435    704.83652  0.014877502  0.013725509            4 
 3949000   0.63033538   -8.1920593    702.57783  0.014826071  0.013721048            2 
 3950000   0.62425495   -8.1934102    703.07982  0.014832908   0.01371659            2 
 3951000   0.61272013   -8.1868135     702.7971   0.01482319  0.013712128            3 
 3952000   0.62676299   -8.2078426    704.66375    0.0148588  0.013707663            2 
 3953000   0.62079044   -8.1920583    704.00436  0.014841141    0.0137032            3 
 3954000   0.61098603   -8.1865941    704.84656  0.014855137  0.013698743            4 
 3955000   0.64290824   -8.2226791     703.8409  0.014830192  0.013694283            3 
 3956000   0.62119218   -8.1816984    702.81306  0.014804792  0.013689831            5 
 3957000   0.62250614   -8.2013984    703.45342  0.014814536  0.013685378            4 
 3958000   0.62990867   -8.2164127     702.9097  0.014799345  0.013680926            3 
 3959000   0.62327947   -8.1848881    702.19354  0.014780533  0.013676469            2 
 3960000     0.618293   -8.2189603    703.06604  0.014795161  0.013672018            2 
 3961000   0.62698822   -8.2148783    704.57546  0.014823181  0.013667559            2 
 3962000   0.62838465   -8.1996437    701.95573  0.014764339  0.013663104            2 
 3963000   0.61723125   -8.1865183    702.55086  0.014773128  0.013658644            3 
 3964000   0.62091722   -8.1941858    703.19555  0.014782954  0.013654193            6 
 3965000   0.61641285    -8.191383    703.95489  0.014795185  0.013649743            5 
 3966000   0.60490635   -8.2059211    703.65743  0.014785204   0.01364529            2 
 3967000   0.62007984   -8.2244532    703.11148  0.014770008   0.01364084            2 
 3968000   0.61906052   -8.2143946    704.25477  0.014790297  0.013636395            3 
 3969000    0.6201346   -8.2024975    703.36614  0.014767913   0.01363194            2 
 3970000   0.61224921   -8.2043341    702.84186  0.014753188  0.013627488            2 
 3971000   0.60698287   -8.2093664    704.15527  0.014777035  0.013623037            2 
 3972000   0.59906743   -8.2098098     702.5773  0.014740209  0.013618585            3 
 3973000   0.61463604    -8.241677    703.23344  0.014750261  0.013614129            4 
 3974000   0.61678671   -8.1977583    702.39892   0.01472905  0.013609682            2 
 3975000   0.59850712   -8.2313697    702.14511  0.014720023  0.013605239            3 
 3976000   0.61266443   -8.2134969    703.09762  0.014736285  0.013600791            5 
 3977000   0.61948234   -8.2016983    702.63371  0.014722859  0.013596342            4 
 3978000   0.61289856   -8.2184431    702.87587  0.014724231   0.01359189            3 
 3979000   0.61931706   -8.2166766    704.06371  0.014745407  0.013587447            2 
 3980000    0.6147672   -8.2218595     704.4694  0.014750197  0.013583008            3 
 3981000   0.62522844   -8.2231942    703.23192  0.014720588  0.013578571            2 
 3982000   0.61167613   -8.2007427    703.43465  0.014721134  0.013574131            3 
 3983000   0.61044644   -8.1978318    703.76196  0.014724286  0.013569692            3 
 3984000   0.61516314   -8.2125553    703.76362  0.014720625  0.013565258            2 
 3985000   0.60330044   -8.2256384    702.91967  0.014699282  0.013560829            3 
 3986000   0.62064148   -8.2112986    703.52144  0.014708175  0.013556397            3 
 3987000   0.60879095   -8.2081822    703.42374  0.014702444  0.013551958            2 
 3988000   0.61147862   -8.2268798    702.33545  0.014676017   0.01354753            4 
 3989000   0.62984731    -8.205657    703.10359  0.014688385  0.013543108            3 
 3990000   0.61926116   -8.2050914     702.6311  0.014674835  0.013538686            6 
 3991000   0.61252098   -8.2015805      703.062  0.014680155  0.013534268            5 
 3992000   0.61953432    -8.208997     703.8711  0.014693368  0.013529843            5 
 3993000   0.60828751   -8.2151643    703.24269  0.014676573  0.013525419            2 
 3994000   0.61611944   -8.2426903    704.38436  0.014696719  0.013520997            4 
 3995000   0.60673473   -8.2193583    702.65086  0.014656881  0.013516577            4 
 3996000   0.62590215   -8.2366794    702.82114  0.014656764  0.013512158            2 
 3997000   0.61587802   -8.2254621    701.73933  0.014630542  0.013507742            3 
 3998000   0.61852638   -8.2402775    703.36294  0.014660725  0.013503325            3 
 3999000   0.61392542   -8.2312087    702.26458  0.014634171   0.01349891            6 
 4000000    0.6124494   -8.2035694    703.51373  0.014656536    0.0134945            3 
 4001000   0.61663759   -8.2039539    704.54627  0.014674379  0.013490083            1 
 4002000   0.60319799   -8.2208911    703.21015   0.01464289  0.013485671            3 
 4003000   0.60877468   -8.2319293    702.69309  0.014628468  0.013481259            2 
 4004000   0.62031719   -8.2303512    702.22996  0.014615176  0.013476841            4 
 4005000   0.62270179     -8.23176    702.52626  0.014617692   0.01347243            4 
 4006000   0.60919803   -8.2329534     702.2564  0.014608429  0.013468026            4 
 4007000   0.60011622   -8.2109387    703.00553  0.014620363  0.013463622            4 
 4008000   0.61121221   -8.2332703    702.56028  0.014607458  0.013459219            3 
 4009000   0.61108704   -8.2306516    702.66363  0.014605962  0.013454813            6 
 4010000   0.59882664   -8.2448749    703.04029  0.014610147  0.013450409            4 
 4011000   0.60469007   -8.2288152    701.96899  0.014584247  0.013445997            4 
 4012000   0.61280405   -8.2177106    702.65791  0.014594922  0.013441599            4 
 4013000   0.61052621   -8.2306576    702.08693  0.014579428  0.013437206            6 
 4014000   0.60806585   -8.2226959    703.22212  0.014599363   0.01343282            2 
 4015000   0.60668377   -8.2424183    701.75625  0.014565302   0.01342843            2 
 4016000    0.5962564   -8.2321326    702.36324   0.01457427  0.013424038            3 
 4017000   0.59600109   -8.2153627    702.32623  0.014569874  0.013419651            6 
 4018000    0.6040785   -8.2259286    702.52854  0.014570444  0.013415268            2 
 4019000    0.6000821   -8.2260745    701.39274  0.014543268  0.013410883            3 
 4020000   0.60511523   -8.2313192    702.52647  0.014563152    0.0134065            5 
 4021000   0.60341775   -8.2266183    703.05288   0.01457044  0.013402114            2 
 4022000   0.60939513    -8.255163    704.20639  0.014590718  0.013397732            3 
 4023000   0.61365952    -8.231309    702.31277  0.014547866  0.013393354            7 
 4024000   0.61019564   -8.2151457    703.07999  0.014560139  0.013388988            3 
 4025000   0.61517744   -8.2200154    704.78938  0.014591913  0.013384614            5 
 4026000   0.61319501   -8.2408528    702.99626  0.014551173  0.013380242            3 
 4027000   0.61454597   -8.2327105    701.66678  0.014520048  0.013375863            4 
 4028000   0.60306035   -8.2234132    702.91825  0.014542334  0.013371486            2 
 4029000   0.60950253   -8.2251133    702.06907  0.014521161  0.013367109            4 
 4030000   0.60479471   -8.2432347    702.68423  0.014530278  0.013362724            5 
 4031000   0.62501792   -8.2126138    703.50597  0.014543661  0.013358357            6 
 4032000   0.62177609   -8.2546802    703.14671  0.014532629  0.013353985            4 
 4033000   0.60935533   -8.2206468    702.35804  0.014512729  0.013349612            2 
 4034000   0.61301993   -8.2368376    702.58566  0.014513834   0.01334524            2 
 4035000   0.60943452    -8.218312    702.55482    0.0145096  0.013340878            2 
 4036000   0.61075212    -8.223366     703.2728  0.014520829  0.013336516            3 
 4037000   0.61090412   -8.2479084    703.58599  0.014523697  0.013332155            5 
 4038000   0.60785361   -8.2159674    702.68622  0.014501532  0.013327794            5 
 4039000    0.6172054   -8.2312129    702.52456  0.014494606  0.013323429            3 
 4040000   0.60080276   -8.2347918    703.25632  0.014506112  0.013319059            3 
 4041000   0.59667239   -8.2429492    702.71306  0.014491319  0.013314697            2 
 4042000   0.61369228   -8.2314291    702.00172  0.014473069  0.013310342            4 
 4043000   0.61676744   -8.2318159    701.49609  0.014459067  0.013305984            5 
 4044000   0.61207385   -8.2382313    702.13338  0.014468624  0.013301633            3 
 4045000   0.60090204   -8.2178211    702.53294  0.014473279  0.013297282            3 
 4046000   0.60018169    -8.255161    702.87824  0.014476813  0.013292929            7 
 4047000   0.61204176   -8.2230182    703.61617  0.014488431  0.013288587            4 
 4048000   0.60444341   -8.2362489    703.15152  0.014475287  0.013284246            2 
 4049000   0.61677117   -8.2265931     704.3354  0.014496077  0.013279905            2 
 4050000   0.60305043   -8.2494111    701.99748  0.014444393  0.013275564            3 
 4051000   0.59995863    -8.236387    703.50054  0.014471746  0.013271215            3 
 4052000   0.59715316   -8.2299444    702.12725  0.014439932  0.013266873            8 
 4053000   0.58951183   -8.2344766    703.50734  0.014464745  0.013262532            2 
 4054000   0.60613622    -8.227647     700.6925  0.014403316   0.01325819            3 
 4055000   0.60927174   -8.2496251    701.81494  0.014422831  0.013253851            6 
 4056000   0.60446794   -8.2296966    702.62349  0.014435887  0.013249514            4 
 4057000   0.60041396   -8.2287064    701.48145   0.01440887  0.013245184            6 
 4058000   0.60592274   -8.2199472    702.86374  0.014433706  0.013240859            3 
 4059000   0.60294076   -8.2256299     702.4737  0.014422142  0.013236527            3 
 4060000   0.61149316   -8.2226994    703.18939   0.01443328    0.0132322            2 
 4061000   0.58794656    -8.225191    703.71336  0.014440478  0.013227868            6 
 4062000   0.61129619   -8.2482769    702.46607  0.014411334  0.013223536            6 
 4063000    0.5923112   -8.2350809    701.83497  0.014394843  0.013219209            5 
 4064000   0.60978802   -8.2252738    701.90726  0.014392783   0.01321488            3 
 4065000   0.60332809   -8.2494879    702.25444   0.01439636  0.013210554            5 
 4066000   0.60564759   -8.2298477    702.93507  0.014406769  0.013206238            3 
 4067000   0.59030719   -8.2274384    703.62951  0.014417456  0.013201915            3 
 4068000   0.59199223   -8.2334807     701.0352  0.014360767  0.013197606            4 
 4069000   0.59469184   -8.2423949    702.89914  0.014395411  0.013193291            2 
 4070000   0.60962066   -8.2200322    702.65379  0.014386851  0.013188979            3 
 4071000   0.60003897    -8.235759    702.99705  0.014390343  0.013184669            3 
 4072000   0.61294666   -8.2270154    702.51717  0.014376989  0.013180362            2 
 4073000   0.59245874   -8.2421064    702.93679  0.014382044  0.013176049            4 
 4074000   0.60721221   -8.2285548    702.48752  0.014369324  0.013171738            3 
 4075000   0.59916662   -8.2127744    702.23902  0.014360716  0.013167425            3 
 4076000   0.58720001   -8.2226155    702.19152  0.014356222  0.013163115            5 
 4077000   0.60196491   -8.2292488    702.47068  0.014358407  0.013158809            2 
 4078000   0.59783879   -8.2439401    702.00947  0.014345461  0.013154493            2 
 4079000   0.60080507   -8.2542649    702.17663  0.014345359  0.013150181            8 
 4080000    0.6006113   -8.2680417    701.76781  0.014333493  0.013145869            8 
 4081000   0.60127159   -8.2588948     701.6276  0.014327117  0.013141555            1 
 4082000   0.58239619   -8.2458802    702.23811  0.014336071   0.01313724            4 
 4083000   0.60426281   -8.2667731    702.51172  0.014338144  0.013132934            2 
 4084000   0.58879934   -8.2374851    701.32952  0.014310511   0.01312862            6 
 4085000   0.59012768    -8.273444    701.18359  0.014304031  0.013124307            3 
 4086000   0.58469612    -8.245473     703.2298  0.014342262  0.013119993            3 
 4087000   0.60715157   -8.2507093     702.0814  0.014315337  0.013115686            5 
 4088000   0.59532786   -8.2702257    701.40984  0.014298146  0.013111379            3 
 4089000   0.58556518   -8.2485306    702.39766  0.014314781  0.013107079            4 
 4090000   0.59712557   -8.2482298    701.67474  0.014296551  0.013102779            3 
 4091000   0.60584002   -8.2346241    701.80752  0.014295761  0.013098481            3 
 4092000   0.59519176   -8.2536361     702.6884  0.014310207  0.013094185            3 
 4093000   0.60063718   -8.2678551    702.34289  0.014299676  0.013089888            4 
 4094000   0.59553745   -8.2574587    701.55276    0.0142801  0.013085596            6 
 4095000   0.60473821   -8.2413897    701.22187  0.014269879  0.013081304            5 
 4096000   0.59570337   -8.2602303    702.35425  0.014289434  0.013077011            3 
 4097000   0.58484353   -8.2614154    702.66989  0.014292366   0.01307272            2 
 4098000   0.58932525   -8.2519782    702.18381  0.014278994  0.013068433            4 
 4099000   0.59303753   -8.2606754    703.21709  0.014296517  0.013064148            4 
 4100000   0.59855753   -8.2674345    702.43507  0.014277135  0.013059864            2 
 4101000   0.59965558    -8.253176    701.48239  0.014254296  0.013055572            5 
 4102000   0.59506072    -8.262235    700.96895   0.01424039  0.013051291            5 
 4103000   0.60488431    -8.257129    702.76754  0.014273449  0.013047012            2 
 4104000   0.58581506   -8.2522191    702.72338  0.014269074  0.013042739            3 
 4105000    0.5821139   -8.2864581    701.40132   0.01423876  0.013038467            4 
 4106000    0.6014551   -8.2541198    701.74279  0.014242222  0.013034189            6 
 4107000   0.58088039   -8.2620193    700.93095  0.014222282  0.013029916            4 
 4108000   0.58906873   -8.2702965    701.26815   0.01422566   0.01302564            2 
 4109000   0.59484413   -8.2712081    702.59715  0.014249151  0.013021357            4 
 4110000   0.59510318   -8.2607338    701.99142  0.014233403  0.013017093            2 
 4111000    0.5906609   -8.2725006    701.30594  0.014216045   0.01301282            7 
 4112000   0.60414963   -8.2589317    702.22539  0.014231221  0.013008553            8 
 4113000   0.59587673   -8.2390906    700.95811  0.014202085  0.013004283            3 
 4114000   0.59899618   -8.2706881    702.53449  0.014230564  0.013000021            2 
 4115000   0.59369389   -8.2452823     702.0687  0.014217673  0.012995759            8 
 4116000   0.60229907   -8.2390147    702.20162   0.01421691  0.012991502            3 
 4117000   0.58061215   -8.2602729    701.51481  0.014199555  0.012987237            6 
 4118000   0.59094354   -8.2432565    701.91981  0.014204302  0.012982967            6 
 4119000    0.6001601   -8.2499857    701.93755  0.014201213  0.012978711            8 
 4120000   0.59231918   -8.2596414    702.42911  0.014207709  0.012974452            3 
 4121000   0.60067137   -8.2689815    702.50791  0.014205854  0.012970191            2 
 4122000   0.59301852   -8.2618205    701.67101  0.014185489  0.012965934            6 
 4123000   0.59470313   -8.2534188    702.09226  0.014190562  0.012961683            3 
 4124000   0.58768852   -8.2641701    701.96852  0.014184621  0.012957433            6 
 4125000   0.59406919   -8.2745075    703.38409   0.01420978  0.012953187            2 
 4126000   0.58237963   -8.2622028    702.74969  0.014193523  0.012948939            5 
 4127000   0.58522495   -8.2750481    702.25233  0.014180041  0.012944688            8 
 4128000   0.58285953   -8.2831745    702.95353  0.014190761  0.012940438            5 
 4129000   0.58139429   -8.2454811    702.79839  0.014184193  0.012936191            3 
 4130000   0.58409143   -8.2732928    702.12798  0.014167231  0.012931947            4 
 4131000   0.58145026   -8.2642013    701.77158  0.014156612  0.012927707            3 
 4132000   0.60070792   -8.2710844    702.26052  0.014163047  0.012923463            3 
 4133000   0.58909638   -8.2551284    700.76681  0.014129503  0.012919216            8 
 4134000   0.57936599   -8.2612711    701.97956  0.014150531  0.012914979            8 
 4135000   0.58784665   -8.2688099    701.48336  0.014137109  0.012910741            5 
 4136000   0.58819596   -8.2779446    701.09819  0.014125931  0.012906506            4 
 4137000   0.58426909   -8.2498303    701.18513  0.014124267   0.01290226            3 
 4138000   0.59170364   -8.2559141    701.98213  0.014136905  0.012898024            9 
 4139000   0.58991556   -8.2659263    701.47787  0.014123336  0.012893788            3 
 4140000   0.59962065   -8.2640612    700.97421  0.014109787   0.01288955            4 
 4141000   0.58378959   -8.2708674    702.35531  0.014134173  0.012885318            3 
 4142000   0.59697694   -8.2820525    701.70018   0.01411758  0.012881082            2 
 4143000   0.59223538   -8.2676712    703.07688  0.014141863   0.01287685            6 
 4144000   0.58872005   -8.2533346    702.64389  0.014129744  0.012872617            3 
 4145000   0.59083278   -8.2713505    702.44399  0.014122316  0.012868386            4 
 4146000   0.58443954   -8.2710172    701.69613  0.014103878  0.012864154            6 
 4147000    0.5925502   -8.2743385    702.13438  0.014109283  0.012859925            6 
 4148000   0.58537384    -8.272562    702.27791  0.014108765  0.012855695            3 
 4149000   0.59158132   -8.2740466    700.94763  0.014078646  0.012851464            5 
 4150000   0.59658533     -8.27469    701.24836  0.014081292  0.012847234            3 
 4151000   0.58331583   -8.2734175    700.87393  0.014070383  0.012843006            5 
 4152000   0.58923633   -8.2757799    702.43641  0.014098354  0.012838791            8 
 4153000   0.58401499   -8.2614229    701.45416   0.01407525  0.012834571            7 
 4154000   0.59659871   -8.2933545    701.37767  0.014070327  0.012830349            3 
 4155000   0.57849375   -8.2606041    701.77396  0.014074889   0.01282613            5 
 4156000   0.58239781   -8.2686763    700.97707  0.014055524  0.012821921            3 
 4157000   0.58898416   -8.2904438    701.47054  0.014062035  0.012817705            3 
 4158000   0.57525676    -8.272341    702.69821  0.014083257   0.01281349            6 
 4159000   0.57985708   -8.2753557    702.40237  0.014073943   0.01280928            3 
 4160000   0.59473286   -8.2881422    701.98617  0.014062223  0.012805074            5 
 4161000   0.58610153    -8.309301    699.86931  0.014016449  0.012800861            5 
 4162000    0.5854453   -8.2898558    700.64732  0.014028658  0.012796648            4 
 4163000   0.57768096   -8.2874548    700.59198  0.014024181  0.012792441            5 
 4164000   0.57368835   -8.2705853    702.24284  0.014053851  0.012788241            6 
 4165000   0.57682368   -8.2871585     701.5294  0.014036202  0.012784035            3 
 4166000   0.59229857     -8.25549    701.78679  0.014037982  0.012779839            4 
 4167000   0.57631949   -8.2698185     701.4797  0.014028472  0.012775644            3 
 4168000   0.58833495    -8.253233    701.12959  0.014018106  0.012771449            8 
 4169000   0.58708758   -8.2585247    701.31656  0.014018481  0.012767248            6 
 4170000   0.58463068   -8.2900744    700.80521    0.0140049  0.012763049            5 
 4171000   0.57261757   -8.2632902    700.63204  0.013998083  0.012758854            2 
 4172000   0.57815257   -8.2621452    702.33915  0.014028826  0.012754655            6 
 4173000   0.59201055   -8.2745325    701.41752   0.01400706  0.012750461            7 
 4174000   0.59062911   -8.2834088    700.27457  0.013980885  0.012746267            6 
 4175000   0.58175113   -8.2896882    700.83115  0.013988646  0.012742072            4 
 4176000   0.58810849   -8.2783881     702.1098  0.014010812  0.012737879            4 
 4177000   0.57944267   -8.3058637    700.02797  0.013965924  0.012733684            2 
 4178000   0.58035801   -8.2831646     700.7367  0.013976717  0.012729495            5 
 4179000   0.59130896   -8.2922577    701.00471  0.013978717  0.012725308            5 
 4180000   0.58789466   -8.2802499    701.07654  0.013976805  0.012721121            8 
 4181000   0.57833731    -8.283933    702.08637  0.013993589  0.012716938            9 
 4182000   0.58775539   -8.2924212    699.68616  0.013942415  0.012712747            5 
 4183000   0.57149434   -8.2902011    702.32974  0.013991747  0.012708565            4 
 4184000   0.58322817   -8.2945847     701.3451  0.013968792  0.012704381            8 
 4185000    0.5809039   -8.2684917    699.93094  0.013937295  0.012700202            5 
 4186000   0.59418214   -8.2919091     700.2365  0.013940048  0.012696027            1 
 4187000   0.58930211   -8.2795612     700.2817  0.013937619  0.012691853            5 
 4188000   0.57614322   -8.3091655    700.90213  0.013946636  0.012687676            3 
 4189000    0.5859294   -8.3023307    701.55523  0.013956299  0.012683498            7 
 4190000   0.58577187   -8.2942459    701.40285  0.013949937  0.012679321            8 
 4191000   0.57817122   -8.2722405    702.05284  0.013959533  0.012675144            6 
 4192000   0.59212411   -8.2728786    700.33448  0.013922044   0.01267097            7 
 4193000   0.57509182   -8.2865227    700.39077  0.013919842  0.012666793            4 
 4194000   0.57614209   -8.2873688    700.17184  0.013912173  0.012662619            3 
 4195000   0.60600413   -8.2803567    700.47176  0.013914814   0.01265845            5 
 4196000   0.57759871   -8.2999964     700.7173  0.013916375  0.012654281            5 
 4197000   0.56956616   -8.2982749    701.41853  0.013926982   0.01265011            8 
 4198000   0.58217047   -8.2830122    700.60432  0.013907502  0.012645935            3 
 4199000   0.59462708   -8.2983005    700.15462  0.013895265   0.01264176            5 
 4200000   0.58013058   -8.2979455    700.30214  0.013894884  0.012637593            5 
 4201000    0.5813168   -8.2986867    699.80671  0.013881749  0.012633432            5 
 4202000   0.58385745    -8.278458    702.13217  0.013924563  0.012629268            7 
 4203000   0.57793753   -8.2866994    700.34396  0.013885795  0.012625106            5 
 4204000   0.56819942   -8.2876087    699.58231  0.013867394  0.012620951            7 
 4205000   0.58088891   -8.2946348    700.05751  0.013873514   0.01261679            7 
 4206000   0.58563786   -8.2768083     701.0325  0.013889533  0.012612634            4 
 4207000   0.58694897   -8.2795163    699.69016  0.013859642  0.012608478            6 
 4208000   0.56823246   -8.3034664    700.90391  0.013880385  0.012604323            6 
 4209000   0.58717885   -8.2737674    699.77652  0.013854766   0.01260017            5 
 4210000   0.57747795   -8.2921656    699.81631  0.013852263  0.012596018            3 
 4211000    0.5789649   -8.3147392    701.00573  0.013872511  0.012591869            3 
 4212000   0.57926235   -8.2872883    701.21999  0.013873457  0.012587723            2 
 4213000   0.58688193    -8.296954    700.99085  0.013865631  0.012583577            3 
 4214000   0.57671316    -8.290377    700.97386  0.013862005  0.012579438            4 
 4215000   0.58540696   -8.2817347    700.81497  0.013855575  0.012575303            4 
 4216000   0.56766297   -8.3036385    700.65499  0.013849126  0.012571166            2 
 4217000   0.57231339   -8.3020098    700.38846  0.013840575  0.012567022            2 
 4218000   0.58399972   -8.2764563    701.12475   0.01385184  0.012562881            4 
 4219000   0.56481125   -8.2847074    699.91886  0.013824739  0.012558738            4 
 4220000    0.5724819   -8.2994987    700.48211  0.013832585  0.012554596            5 
 4221000   0.58209825   -8.2790473    700.12716    0.0138223  0.012550459            8 
 4222000   0.57837265   -8.3064989    699.75051  0.013811592  0.012546319            5 
 4223000   0.57622639     -8.30272    700.86461  0.013830306  0.012542184           11 
 4224000   0.57566106   -8.2851025    700.30826  0.013816056  0.012538047            5 
 4225000   0.56279822   -8.2895918    700.46708  0.013815919  0.012533912            3 
 4226000   0.57931297   -8.2910345    700.14124  0.013806224  0.012529785            5 
 4227000   0.57042076   -8.2953365    700.84163  0.013816766  0.012525658            2 
 4228000    0.5607949   -8.2896431    701.21968  0.013820949  0.012521539            4 
 4229000   0.57437591   -8.2921454    700.36608  0.013800861  0.012517412            4 
 4230000   0.56547601   -8.2824372    700.65601   0.01380331  0.012513283            3 
 4231000   0.58021791   -8.3139789    699.63855  0.013780008  0.012509152            6 
 4232000   0.58516902   -8.2992926    701.19712  0.013807442  0.012505031            3 
 4233000    0.5732956   -8.3199308    698.80335  0.013757055  0.012500903            5 
 4234000   0.56776503   -8.2801532    700.38771  0.013784989  0.012496781            6 
 4235000   0.57878173    -8.313014    700.27612  0.013779538  0.012492659            4 
 4236000    0.5678103    -8.307556     699.5067  0.013761149  0.012488542            5 
 4237000   0.56987056   -8.2939705    700.22603  0.013772048  0.012484422            8 
 4238000   0.57522072    -8.295683    700.30853  0.013770421  0.012480303            7 
 4239000   0.56706782   -8.3041907    699.62771  0.013753788  0.012476189            6 
 4240000   0.57419475   -8.2979326    699.85497  0.013755011  0.012472071            6 
 4241000   0.57239718   -8.3065434    700.57968  0.013766008  0.012467954            3 
 4242000    0.5699916   -8.2953474    700.58948  0.013762955  0.012463837            2 
 4243000   0.57645325   -8.3061054    699.50316  0.013738376   0.01245972            4 
 4244000   0.56737536   -8.3054024    700.50057  0.013754724  0.012455598            8 
 4245000   0.56385964   -8.3017193    699.00442  0.013722113   0.01245148            7 
 4246000    0.5710784   -8.3288011     699.4063  0.013726768  0.012447365            5 
 4247000   0.56324913   -8.3352723    699.70359   0.01372937   0.01244325            4 
 4248000   0.57230882   -8.3238195     699.9544  0.013731058   0.01243914            7 
 4249000    0.5710823   -8.3092244     699.3332  0.013715643  0.012435027            4 
 4250000   0.57563821   -8.3181011    700.95814  0.013744277  0.012430918            4 
 4251000     0.569846   -8.3031729    699.08967  0.013704416  0.012426809            6 
 4252000   0.56087151   -8.2862385    699.36859  0.013706659  0.012422695           10 
 4253000   0.56925118   -8.3188599    699.05599  0.013697312  0.012418588            6 
 4254000   0.55620094   -8.3173328    699.66304  0.013705983  0.012414481            5 
 4255000   0.56502263    -8.331498    700.59439  0.013721003  0.012410382            4 
 4256000   0.58101735   -8.3244378    699.08435  0.013688212  0.012406284            2 
 4257000   0.57669047   -8.3058583    699.05939  0.013684508  0.012402185            3 
 4258000   0.56580568   -8.3118615    698.71561  0.013674566  0.012398085            3 
 4259000    0.5626025   -8.3082566    700.29558  0.013702269  0.012393991            5 
 4260000   0.56104648   -8.3113229    699.93648  0.013692028  0.012389895            3 
 4261000   0.55943446   -8.3103462    699.60998  0.013682429  0.012385803            4 
 4262000   0.56844198   -8.3120715    700.20545  0.013690862  0.012381712            3 
 4263000   0.56531685   -8.3106366     700.0748  0.013685097  0.012377622            9 
 4264000   0.56919428   -8.3177649    699.02704   0.01366141  0.012373532            7 
 4265000   0.57372125   -8.3069674    700.01101  0.013677433   0.01236944            3 
 4266000    0.5749768   -8.3025947    699.05283  0.013655509  0.012365356            3 
 4267000   0.56709927   -8.3159428    699.11955  0.013653612  0.012361279            6 
 4268000   0.56291136   -8.3153832    700.66939  0.013680674  0.012357195            5 
 4269000   0.56889812   -8.3043222    699.60776  0.013656746  0.012353112            6 
 4270000    0.5654668   -8.3007361    699.07283  0.013643107  0.012349035            4 
 4271000   0.57705232   -8.2917418    700.45569  0.013666895  0.012344961            5 
 4272000     0.584888   -8.3282857    700.00854  0.013654973  0.012340884            7 
 4273000   0.56618958   -8.2982953    700.47065   0.01366079  0.012336813            6 
 4274000   0.56891953   -8.2987392     699.5239  0.013639134  0.012332744            7 
 4275000   0.56866032   -8.3140092    700.54798  0.013655906  0.012328681            6 
 4276000   0.57109891   -8.3067921    699.60771  0.013634388  0.012324619            3 
 4277000   0.56165418   -8.3014431    699.50657  0.013629229  0.012320555            4 
 4278000   0.57218113   -8.3164539    700.38079  0.013643073  0.012316492            6 
 4279000   0.56061455   -8.3246022    700.28377  0.013637995  0.012312426            3 
 4280000   0.55955083   -8.3361729    698.55817   0.01360121  0.012308363            5 
 4281000   0.57667577   -8.3160029     700.7867  0.013641414  0.012304302            4 
 4282000   0.55312304   -8.3091161    700.20511  0.013626909  0.012300243            7 
 4283000   0.57594419   -8.3021542    699.45773  0.013609186  0.012296189            2 
 4284000   0.56220629   -8.3261288    700.22066   0.01362085  0.012292129            9 
 4285000   0.57622448   -8.3063534    698.48325  0.013583883  0.012288071            6 
 4286000   0.57031422   -8.3184384    699.49264  0.013600339  0.012284013            6 
 4287000   0.56247351   -8.3178552    698.88141  0.013585285   0.01227995           10 
 4288000   0.55947072   -8.3196984    700.03178  0.013604473  0.012275901            3 
 4289000   0.57524999     -8.33011    699.34147  0.013587889  0.012271851            5 
 4290000   0.56647441   -8.3143713     699.9699  0.013596929  0.012267806            8 
 4291000   0.55446243   -8.3228955    699.73959  0.013589288  0.012263759            6 
 4292000    0.5867124   -8.3280679    698.99836   0.01357173   0.01225971            6 
 4293000   0.57114586   -8.3089223    699.93789  0.013586806  0.012255664            5 
 4294000   0.56725115   -8.3141731    698.81653   0.01356188  0.012251616            5 
 4295000   0.56322573   -8.3085818    699.50237  0.013572029  0.012247572            5 
 4296000   0.55580653   -8.3222318    699.32206  0.013565372  0.012243531            8 
 4297000   0.56718849   -8.3344899    699.81316  0.013571739  0.012239495            2 
 4298000   0.56019162    -8.304803    699.95771  0.013571384  0.012235462            3 
 4299000   0.56694929   -8.3165242    699.22449  0.013554014  0.012231427            5 
 4300000   0.55017452   -8.3212497    699.05674  0.013547611  0.012227391            8 
 4301000   0.56752169    -8.310303    698.44591  0.013532626  0.012223355            5 
 4302000   0.56191142   -8.3267138    698.91066  0.013538483  0.012219323            5 
 4303000   0.56939528   -8.3143203    699.67517  0.013550143  0.012215294            2 
 4304000   0.55637987   -8.3136685    699.72412  0.013547942   0.01221126            5 
 4305000   0.56130758   -8.3359621    699.18266  0.013534314  0.012207235            6 
 4306000   0.55494085   -8.3320324    699.51327  0.013537569  0.012203204            9 
 4307000   0.55936025   -8.3290961    698.84336  0.013521464  0.012199181            4 
 4308000   0.56342826   -8.3283972    699.82564  0.013537327  0.012195156            4 
 4309000   0.56470054   -8.3511027    699.06574  0.013519489  0.012191133            7 
 4310000   0.56211822   -8.3286707    698.47119  0.013504857  0.012187108            4 
 4311000   0.58619743   -8.3221861    698.72737  0.013506676  0.012183084            4 
 4312000   0.55491446   -8.3203883    698.63729  0.013501803  0.012179063            7 
 4313000   0.55956713   -8.3241171     698.0247  0.013486836  0.012175042            8 
 4314000   0.54670449   -8.3142187    699.86417  0.013519243  0.012171017            5 
 4315000   0.55041558   -8.3073259    698.97499  0.013498938  0.012167006            8 
 4316000   0.55759567   -8.3307543    697.48119  0.013466968   0.01216299            4 
 4317000    0.5620463   -8.3334269    698.56328  0.013484736  0.012158973           11 
 4318000   0.56925505   -8.3311502    698.03421  0.013471403  0.012154959           10 
 4319000   0.56243964   -8.3191106    699.35183  0.013493707   0.01215094            7 
 4320000   0.56339405   -8.3063639    699.35147  0.013490576  0.012146928            8 
 4321000   0.54844206   -8.3102933    697.52358  0.013452202  0.012142922            3 
 4322000   0.57304866   -8.3240516    699.00639   0.01347768  0.012138914            5 
 4323000   0.56379223   -8.3360317     699.1362  0.013477065  0.012134905            7 
 4324000   0.57351289   -8.3159973    699.85837  0.013487866  0.012130897            7 
 4325000   0.54293194   -8.3194044    700.53791   0.01349784  0.012126895            8 
 4326000   0.55975525   -8.3358823    698.38179  0.013453186  0.012122894            7 
 4327000   0.56187976   -8.3333128    698.32677  0.013449017  0.012118895            8 
 4328000   0.56762386   -8.3241887     699.3335  0.013465294  0.012114893            6 
 4329000   0.56210116   -8.3272609    699.57119  0.013466759    0.0121109            8 
 4330000   0.55388033   -8.3237275    697.27914  0.013419537  0.012106905            8 
 4331000   0.54363546   -8.3389187    698.32304  0.013436524  0.012102914            7 
 4332000   0.56573969   -8.3360957     699.1731  0.013449775  0.012098924            5 
 4333000   0.55491947   -8.3486433    699.20954  0.013447372  0.012094935            5 
 4334000   0.55389976   -8.3226472    696.67516  0.013395538  0.012090947            8 
 4335000   0.55363768   -8.3393185    698.89921  0.013435202  0.012086958            5 
 4336000   0.55973848   -8.3242463    698.97923  0.013433641  0.012082969            4 
 4337000   0.56020861   -8.3219816    698.19439  0.013415464   0.01207898            9 
 4338000   0.55383873   -8.3322336    699.50371  0.013437523  0.012074992            5 
 4339000   0.56253316   -8.3261021    698.61938  0.013417442  0.012071006           10 
 4340000   0.56363816    -8.329099    698.51223  0.013412293  0.012067024            5 
 4341000   0.55516565    -8.318876    698.98395  0.013418259   0.01206304            8 
 4342000   0.55263047   -8.3340543    698.90921  0.013413734  0.012059058            4 
 4343000   0.55557533   -8.3436613     698.4292  0.013401435  0.012055079            4 
 4344000   0.54499708   -8.3453856    698.49247  0.013399564  0.012051099            7 
 4345000   0.56405314   -8.3358252    699.07803  0.013407711  0.012047131            6 
 4346000   0.55116802   -8.3389352    698.88202  0.013400867  0.012043151            6 
 4347000   0.55777597   -8.3379004    699.14573   0.01340284  0.012039174            7 
 4348000   0.56194956    -8.337227    699.86479  0.013413539    0.0120352            5 
 4349000   0.56968507   -8.3423338    698.32405  0.013380931  0.012031224            9 
 4350000    0.5564688   -8.3384984    697.73475  0.013366566  0.012027249            6 
 4351000   0.55190945   -8.3395758    698.51451  0.013378429  0.012023272           13 
 4352000   0.55870245   -8.3579627    698.76946  0.013380236  0.012019304            9 
 4353000   0.55821263   -8.3267217    699.54192   0.01339195  0.012015335            5 
 4354000   0.56025491   -8.3266782    698.12696  0.013361793  0.012011368            8 
 4355000   0.55580175   -8.3348643     698.2184  0.013360475  0.012007404           10 
 4356000   0.56237997   -8.3404531    699.40846  0.013380174  0.012003449            6 
 4357000   0.56525999   -8.3284918    698.88212  0.013367036  0.011999491            9 
 4358000    0.5532074   -8.3350963    697.96196  0.013346374  0.011995533           17 
 4359000   0.55060687   -8.3428762    699.16922  0.013366392  0.011991577            7 
 4360000   0.55588794   -8.3202703    699.37254  0.013367212  0.011987624            6 
 4361000   0.55259934   -8.3611297    698.59553  0.013349299  0.011983672            6 
 4362000   0.55761468   -8.3524277    698.04601  0.013335741   0.01197972            6 
 4363000   0.54578754   -8.3449397    698.42263  0.013339878  0.011975771            7 
 4364000   0.54641835   -8.3379064    698.06561  0.013330003  0.011971819           10 
 4365000   0.56575276   -8.3364779    699.03194  0.013345398  0.011967871            6 
 4366000   0.55776623    -8.351428    699.23593  0.013346235  0.011963932            8 
 4367000   0.55493089   -8.3511734    698.16318  0.013322708  0.011959989           10 
 4368000   0.55630293   -8.3253897    698.68936  0.013329696  0.011956046           10 
 4369000    0.5482189   -8.3606785    698.87898  0.013330262    0.0119521            8 
 4370000   0.55259192   -8.3546698    698.17976  0.013313878  0.011948157           10 
 4371000   0.55880843   -8.3443128    696.87224  0.013285904  0.011944212            5 
 4372000   0.55674877   -8.3215544    699.90559  0.013340683  0.011940275            7 
 4373000   0.54858436   -8.3488968    697.25068  0.013287039  0.011936336            4 
 4374000   0.56168115   -8.3481122    698.25524  0.013303141  0.011932399            7 
 4375000   0.54898355   -8.3515013    698.63433  0.013307321  0.011928466            6 
 4376000    0.5390253   -8.3427382    698.10144  0.013294132  0.011924529            5 
 4377000   0.55555872      -8.3475    697.66312  0.013282749  0.011920602            9 
 4378000   0.55799746   -8.3509407    698.60037  0.013297555  0.011916677            7 
 4379000   0.54927998   -8.3532406    698.04781  0.013284003  0.011912749            6 
 4380000   0.55518689   -8.3409031    699.28205  0.013304453  0.011908823            5 
 4381000   0.54399287   -8.3647638      698.192  0.013280682    0.0119049            6 
 4382000   0.54698527   -8.3354073    697.35933  0.013261816  0.011900978            9 
 4383000   0.55375953   -8.3467142    697.59918   0.01326335   0.01189706            7 
 4384000   0.55046919    -8.354357    697.92013  0.013266426  0.011893143           14 
 4385000   0.56079108   -8.3528627     698.6563  0.013277391  0.011889225            6 
 4386000   0.54695971   -8.3556789    698.06037  0.013263041  0.011885311            5 
 4387000   0.54107991   -8.3546112    698.91168  0.013276189  0.011881397            6 
 4388000   0.55849314   -8.3512955    698.59062  0.013267066  0.011877482            4 
 4389000   0.54243901   -8.3728012    698.98433  0.013271518  0.011873568            4 
 4390000   0.55062113   -8.3594085    700.02863  0.013288319  0.011869663            9 
 4391000   0.54283007   -8.3373556    698.96426  0.013265093  0.011865755            9 
 4392000   0.55166783   -8.3492131    698.88841  0.013260633  0.011861848            5 
 4393000   0.55954986   -8.3650726    698.67664  0.013253597  0.011857941            3 
 4394000   0.55071661   -8.3609112    698.08185  0.013239301  0.011854033            9 
 4395000   0.54566081   -8.3499787      697.704  0.013229124   0.01185013            5 
 4396000   0.54813928   -8.3449083    699.61549   0.01326235  0.011846226           13 
 4397000   0.55009525   -8.3487366    698.82847  0.013244418  0.011842323            8 
 4398000     0.547775   -8.3499185    697.94661  0.013224697  0.011838419           13 
 4399000   0.53659063   -8.3466081    699.73123  0.013255498  0.011834514            8 
 4400000   0.54751593   -8.3379333    699.91198  0.013255909  0.011830614            9 
 4401000   0.55160436   -8.3548284    698.05133  0.013217665  0.011826715            8 
 4402000   0.54177725   -8.3589904    698.42873  0.013221807  0.011822816            8 
 4403000   0.55135302   -8.3529926    698.94206   0.01322852   0.01181892            4 
 4404000   0.55383631   -8.3442249    697.67962  0.013201628  0.011815022           12 
 4405000   0.55212741   -8.3651952    697.96164  0.013203966  0.011811134            6 
 4406000    0.5450862   -8.3604573    698.56526  0.013212386  0.011807244            8 
 4407000   0.55275524   -8.3702444    699.40007  0.013225173  0.011803351            7 
 4408000   0.55035125     -8.37643    698.96561   0.01321396  0.011799457            9 
 4409000   0.54206318   -8.3636864    697.19881  0.013177569  0.011795567            9 
 4410000   0.55092974   -8.3540172    698.91029  0.013206922  0.011791682           10 
 4411000   0.54439745   -8.3631637    698.75518  0.013200997  0.011787801            5 
 4412000   0.54513896   -8.3542721    698.68564  0.013196692  0.011783919            9 
 4413000   0.54846363   -8.3625731    697.20433  0.013165729  0.011780036           10 
 4414000   0.55467772   -8.3573765    698.30035  0.013183438  0.011776155            9 
 4415000   0.54223498   -8.3621551    698.56784  0.013185501  0.011772275            5 
 4416000   0.55080485   -8.3714655     697.0978  0.013154774  0.011768398            6 
 4417000   0.54866803   -8.3484082    698.85926  0.013185029  0.011764526            9 
 4418000   0.54500517   -8.3601824    698.03669  0.013166529  0.011760656            6 
 4419000   0.54153098   -8.3577361    697.05323  0.013145003  0.011756785            3 
 4420000   0.55910746   -8.3498889    697.77228  0.013155586   0.01175292           10 
 4421000   0.54583942    -8.349604     698.1047  0.013158876  0.011749055            8 
 4422000   0.53951502   -8.3537729      697.794  0.013150045  0.011745186            7 
 4423000   0.54803939   -8.3535568    698.28605  0.013156343  0.011741318            6 
 4424000   0.54231338   -8.3554682    698.29336  0.013153507  0.011737454            3 
 4425000   0.55480118   -8.3483676     698.3481  0.013151565  0.011733587           11 
 4426000   0.55421427    -8.366924    698.86554  0.013158336  0.011729727            9 
 4427000   0.54778779    -8.371284    697.87131  0.013136648  0.011725867            7 
 4428000   0.54657107   -8.3668703    697.32267  0.013123357  0.011722007            4 
 4429000   0.52909815   -8.3651039    697.91096  0.013131462  0.011718151            9 
 4430000   0.55535425   -8.3711711    697.33963  0.013117751  0.011714292           10 
 4431000    0.5391188   -8.3532794    697.47256   0.01311729  0.011710433            3 
 4432000   0.53904916   -8.3752106    698.10796  0.013126278  0.011706577            5 
 4433000   0.53375219   -8.3842791    697.61561  0.013114061   0.01170272            2 
 4434000   0.53637872   -8.3526737    697.89943  0.013116438  0.011698865           16 
 4435000   0.54790402   -8.3762956    697.98181  0.013115028  0.011695014            8 
 4436000   0.55268965   -8.3623879    698.05308  0.013113411  0.011691162            5 
 4437000   0.54216662   -8.3619359    698.01137  0.013109672   0.01168731           11 
 4438000   0.53207284   -8.3568281     697.1812   0.01309113  0.011683464            8 
 4439000   0.54675834   -8.3881029    697.99952  0.013103543  0.011679622            5 
 4440000   0.53639621   -8.3714128     698.3422  0.013107023  0.011675781            2 
 4441000   0.54451789   -8.3560049    698.27962  0.013102898   0.01167194            9 
 4442000   0.53942728   -8.3551471     698.0873   0.01309634  0.011668099            8 
 4443000   0.53689953   -8.3811285    697.20767  0.013076894  0.011664261           10 
 4444000   0.55344096   -8.3538298     697.1212   0.01307233  0.011660424           12 
 4445000   0.54489916    -8.362398    698.04013  0.013086617  0.011656593           11 
 4446000   0.54361739   -8.3651662    697.95594  0.013082095  0.011652759            4 
 4447000   0.53816259   -8.3844086    697.57903   0.01307209  0.011648921           12 
 4448000   0.55762212   -8.3757706    696.65913  0.013051917   0.01164509            7 
 4449000    0.5365527   -8.3723913    697.66085  0.013067747  0.011641255           10 
 4450000   0.54014062   -8.3659094    698.17773  0.013074489  0.011637421            8 
 4451000    0.5433545   -8.3646535    697.92494  0.013066819  0.011633588            8 
 4452000   0.52993746   -8.3846958    697.85318  0.013062541  0.011629756            5 
 4453000   0.53539237   -8.3872537    698.00916  0.013062526  0.011625927            7 
 4454000   0.53965161   -8.3660951    698.18769  0.013062934  0.011622104            6 
 4455000    0.5513209   -8.3680379    697.40886  0.013045433  0.011618279            7 
 4456000   0.53243514   -8.3705583     697.5451  0.013045054  0.011614458            8 
 4457000   0.54284198   -8.3719278     697.2611  0.013036817  0.011610637            6 
 4458000    0.5409203   -8.3731459    697.44315  0.013037295  0.011606819            8 
 4459000   0.53318118   -8.3545685    698.80793  0.013059878  0.011603001            7 
 4460000   0.52843876   -8.3617201    697.88291  0.013039666  0.011599186            4 
 4461000   0.54801725   -8.3769583     697.1622  0.013023279  0.011595369            5 
 4462000   0.54358057   -8.3683397    697.79122  0.013032108  0.011591553            8 
 4463000   0.54422722   -8.3920577    697.02844  0.013014946  0.011587738            7 
 4464000   0.55282467    -8.363523    698.13313  0.013032653  0.011583926            9 
 4465000   0.53364968   -8.3838645    697.70984  0.013021834  0.011580119            9 
 4466000   0.53216305   -8.3791037    697.70671  0.013018859  0.011576305            8 
 4467000   0.53675175   -8.3743245    697.57843  0.013013552  0.011572495            3 
 4468000    0.5454176   -8.3557458      696.897   0.01299793  0.011568689            8 
 4469000   0.53667656   -8.3769728     697.6144  0.013008399  0.011564886            8 
 4470000   0.53371728   -8.3794986    696.92293  0.012992598  0.011561081            7 
 4471000   0.53549577   -8.3662093    697.53003  0.013001007   0.01155728           11 
 4472000   0.53468274   -8.3613733    697.41327  0.012995924  0.011553475            6 
 4473000   0.54611584   -8.3543255    697.47561   0.01299418  0.011549678            4 
 4474000   0.53377908   -8.3931872    697.77262  0.012996808   0.01154588            5 
 4475000   0.52972857   -8.3755878     697.7594  0.012993657  0.011542089            4 
 4476000   0.53648008   -8.3698787    697.60885  0.012987952  0.011538296            9 
 4477000   0.53312246   -8.3787153    697.77002   0.01298805  0.011534502            7 
 4478000    0.5310515   -8.3638008     698.3385  0.012995729   0.01153071            7 
 4479000   0.53693856   -8.3980093    698.28215  0.012991779  0.011526916            5 
 4480000   0.52909907   -8.3860818    698.31264  0.012989446  0.011523124           10 
 4481000   0.53583887   -8.3684922    697.90911  0.012979043  0.011519336            9 
 4482000    0.5324674   -8.3748237     696.9697  0.012958681  0.011515555            9 
 4483000   0.51866506     -8.37886    696.80018  0.012952639  0.011511772            3 
 4484000    0.5447447   -8.3723439     697.8071  0.012968464  0.011507992            7 
 4485000   0.51639319   -8.3754193    697.36992  0.012957449  0.011504208           10 
 4486000   0.53401723   -8.3662364    697.00234  0.012947733  0.011500427           10 
 4487000   0.54373871   -8.3827614    696.21553  0.012930234  0.011496653            6 
 4488000   0.53113121   -8.3829561     697.5207  0.012951588  0.011492876           11 
 4489000   0.52953272   -8.3720691    697.52216  0.012948729  0.011489097            9 
 4490000   0.53734978   -8.3713058    697.22644  0.012940357  0.011485321            6 
 4491000   0.53802318   -8.3834589    697.19039  0.012936807   0.01148155           11 
 4492000   0.54108544   -8.3801907    697.29952  0.012935951  0.011477778            6 
 4493000   0.53362764   -8.3718886    697.61166  0.012938862  0.011474007            7 
 4494000   0.53269122   -8.3601063    697.37595  0.012931612  0.011470239            7 
 4495000   0.51087792   -8.3806402    697.50084   0.01293105  0.011466473            6 
 4496000   0.53075528   -8.3571596    697.90835  0.012935727  0.011462711            7 
 4497000   0.53355196   -8.3802405    697.48601  0.012925024  0.011458945           12 
 4498000   0.51672238     -8.38175    696.72396  0.012908032  0.011455178            9 
 4499000   0.52917509    -8.368652    696.35947  0.012898412   0.01145142            4 
 4500000   0.53012589   -8.3816258    698.25514  0.012930651   0.01144766            5 
 4501000   0.52919198   -8.3778278    697.85055  0.012920287  0.011443901            5 
 4502000   0.53406964   -8.3946039    697.15797  0.012904597  0.011440145            5 
 4503000   0.53736793   -8.3726415    697.03904  0.012899531  0.011436391            5 
 4504000   0.52039996   -8.3813531    697.88734  0.012912362  0.011432638            3 
 4505000   0.52504519   -8.3684246    697.37019   0.01289993  0.011428886            4 
 4506000   0.53112713   -8.3692424    696.79024  0.012886341  0.011425133            4 
 4507000   0.53530401   -8.3786276    696.78215  0.012883332  0.011421387            6 
 4508000   0.53584667   -8.3855826    696.99328  0.012884377   0.01141764            4 
 4509000   0.53259198   -8.3719744    697.22067  0.012885722  0.011413897            6 
 4510000   0.53651056   -8.3830116    697.25678  0.012883533  0.011410154            9 
 4511000   0.52203989   -8.3774185    697.29446  0.012881373   0.01140641            6 
 4512000   0.54250017   -8.3927185     696.6793  0.012867156  0.011402671            3 
 4513000   0.53483606   -8.3813273    697.36709  0.012877005  0.011398928            8 
 4514000   0.53661247   -8.3627193    697.44577  0.012875605  0.011395194           10 
 4515000   0.53160546   -8.3639641    698.04044  0.012883729  0.011391463            3 
 4516000   0.52592309   -8.3752661    696.37849  0.012850208  0.011387733            4 
 4517000   0.53670266    -8.382925    696.46634  0.012848984  0.011383998            6 
 4518000   0.53646657   -8.3777698    696.78984  0.012852107  0.011380267            4 
 4519000    0.5252792   -8.3740092    696.77965  0.012849075  0.011376539            6 
 4520000   0.53320048   -8.3867959    695.90427  0.012830094  0.011372811            3 
 4521000   0.52832695   -8.3783717    697.65583  0.012859541  0.011369085            4 
 4522000   0.52419786   -8.3851985    698.09469  0.012864785   0.01136536            5 
 4523000   0.52816869   -8.3833665    695.81092  0.012819864  0.011361635            6 
 4524000    0.5308332   -8.3882842     697.2977  0.012844417  0.011357917            4 
 4525000   0.53049465   -8.3854879     696.6978   0.01283053  0.011354194            4 
 4526000   0.52979682   -8.3873878    697.18249   0.01283662  0.011350469            5 
 4527000    0.5282509   -8.3774823    697.17011  0.012833556  0.011346749            7 
 4528000   0.52095135   -8.3967616    697.12468  0.012829886  0.011343033            6 
 4529000   0.52105011    -8.401899    697.28645   0.01283003  0.011339314            5 
 4530000   0.52454291   -8.3886982    698.04043  0.012841068  0.011335596            7 
 4531000   0.52748556   -8.3848823    696.68967  0.012813391  0.011331886            2 
 4532000   0.51970922   -8.3819768    697.10862  0.012818267  0.011328176            9 
 4533000    0.5190397   -8.4098341    695.67642   0.01278911  0.011324462            3 
 4534000   0.53211163   -8.3822438    696.96522  0.012809977   0.01132075            6 
 4535000   0.52592766   -8.3759748    696.37491  0.012796305  0.011317045            4 
 4536000   0.52717442   -8.3660563    697.62168  0.012816389  0.011313339            9 
 4537000   0.51724396   -8.3787624    697.40265  0.012809541  0.011309638            5 
 4538000    0.5269586    -8.377276    697.21698  0.012803309  0.011305934            2 
 4539000   0.52567134   -8.3811699    696.78087  0.012792481   0.01130223            3 
 4540000   0.53189852   -8.3917705    697.18702  0.012797119  0.011298529            4 
 4541000   0.51795014   -8.3803713    697.84552  0.012806385  0.011294823            7 
 4542000   0.53596967   -8.3951745     696.9392  0.012786937   0.01129112            8 
 4543000   0.52295198   -8.3913018    697.38139  0.012792233  0.011287421            7 
 4544000   0.52902509   -8.3993592     696.9642  0.012781767  0.011283724            4 
 4545000   0.51710467   -8.4063331    697.86804  0.012795527  0.011280027            3 
 4546000    0.5237349    -8.389074    696.38983  0.012765615  0.011276329            4 
 4547000   0.52527751   -8.4063576    695.74119   0.01275092  0.011272633            7 
 4548000   0.51990539   -8.3709815    696.53027  0.012762575  0.011268939            5 
 4549000   0.52838245   -8.4005572    696.72925  0.012763414  0.011265251            8 
 4550000   0.52987402   -8.3967143    696.16716  0.012750314  0.011261562            8 
 4551000   0.52706135   -8.3846671    696.73749  0.012757956  0.011257875            5 
 4552000   0.52681862   -8.3989946    696.22999  0.012745863  0.011254191            6 
 4553000   0.52221638   -8.3871845    697.01227  0.012757381  0.011250505            5 
 4554000   0.52699713   -8.3996236    696.93391  0.012753146  0.011246819           10 
 4555000   0.53083041   -8.4021996    696.90035  0.012749732  0.011243142           10 
 4556000   0.53248911   -8.3992178    696.60702  0.012741568  0.011239458            6 
 4557000   0.53057981   -8.3894267    697.34938  0.012752348  0.011235781            5 
 4558000   0.51320605   -8.3801194     697.5193  0.012752657  0.011232106            8 
 4559000   0.52769518    -8.394045    697.27461  0.012745387  0.011228434            6 
 4560000   0.52215809   -8.3967239    696.56178  0.012729565  0.011224762            8 
 4561000   0.52133227   -8.3721426    696.81773   0.01273145  0.011221089            4 
 4562000   0.51943194   -8.3890417    696.44759  0.012721898  0.011217417            6 
 4563000   0.52478628   -8.3889545    697.58971  0.012739968  0.011213748           11 
 4564000   0.50985441   -8.4000196    696.35932  0.012714712   0.01121008            8 
 4565000   0.51520503   -8.4086928    696.87385  0.012721319  0.011206412            4 
 4566000   0.52067009   -8.4064761    696.93461  0.012719642  0.011202745            5 
 4567000   0.52615245   -8.3784571    696.89441  0.012716123   0.01119908            5 
 4568000   0.53485893   -8.4060904    697.21352  0.012719161  0.011195418            4 
 4569000   0.51125546   -8.4160776    696.22508  0.012698349  0.011191754            6 
 4570000   0.51124937   -8.4009782    697.51667  0.012719122   0.01118809            4 
 4571000   0.52349504   -8.3990073    695.73697  0.012683894   0.01118443            6 
 4572000   0.52748725   -8.4022055    697.59051  0.012714904  0.011180772            4 
 4573000   0.51167847   -8.3991686    696.90838  0.012699694  0.011177115            3 
 4574000   0.51321309   -8.4041389    697.66168  0.012710641  0.011173457            6 
 4575000   0.52284194   -8.4055856    697.29784  0.012701236  0.011169804            5 
 4576000   0.52458061   -8.4204686    696.27794  0.012679887  0.011166153            6 
 4577000   0.51925418   -8.4008823    696.69982  0.012684798    0.0111625            3 
 4578000   0.51951525   -8.4015512     695.2308  0.012655286  0.011158853            9 
 4579000   0.52152796   -8.3907371    696.78068  0.012680729  0.011155205            6 
 4580000    0.5134138   -8.4025361    695.66068  0.012657581  0.011151561            4 
 4581000   0.52179901   -8.3976166    695.62698  0.012654205   0.01114792           10 
 4582000   0.50685608   -8.4173987    696.36201  0.012664812  0.011144279            5 
 4583000   0.51373284    -8.395893    695.80972  0.012652006  0.011140637            8 
 4584000   0.52801199   -8.4024698    697.00685  0.012671009  0.011136996            4 
 4585000   0.52792501   -8.4100344    697.58605  0.012678772  0.011133358            7 
 4586000   0.51447863   -8.3939358    696.15408  0.012649987   0.01112972            7 
 4587000    0.5267698   -8.4118654    695.77124  0.012640274  0.011126081           13 
 4588000   0.51145057   -8.4087294    696.80627  0.012656319  0.011122447            5 
 4589000   0.50045734   -8.3982979    696.96094  0.012656369  0.011118811            5 
 4590000   0.51598848   -8.4033883    696.45081   0.01264435  0.011115174            6 
 4591000   0.51277985   -8.4237016    696.30388  0.012638929  0.011111536            3 
 4592000   0.52905665   -8.4159697    696.63256  0.012642141  0.011107902            6 
 4593000   0.51408176   -8.4139311    696.06299  0.012629055  0.011104267            8 
 4594000   0.51888814   -8.3965342    696.79718  0.012639624  0.011100634            5 
 4595000    0.5148604   -8.3926052    695.59511  0.012615073  0.011097005            4 
 4596000   0.51458994   -8.4063164    696.07462  0.012621022  0.011093377            7 
 4597000    0.5242777   -8.4054197     696.4748  0.012625531  0.011089749            3 
 4598000   0.50076166   -8.4124592    695.52545  0.012605579  0.011086123            4 
 4599000   0.51348489   -8.4192223    697.03747  0.012630236  0.011082496            7 
 4600000   0.51500575   -8.4193311     695.6639  0.012602607  0.011078874            8 
 4601000   0.50649589   -8.4133317    695.87797  0.012603745  0.011075252            3 
 4602000    0.5237726    -8.414951    696.76073  0.012616991  0.011071631            5 
 4603000   0.50843497   -8.4166794     696.9745   0.01261812  0.011068012            6 
 4604000   0.51230615   -8.4180277    697.41855  0.012623417  0.011064393            5 
 4605000   0.52100073   -8.3961097    696.09587   0.01259674  0.011060771            4 
 4606000   0.51043442   -8.4071183    696.61604  0.012603416  0.011057155            4 
 4607000   0.51927827   -8.4109038    696.24843  0.012594031  0.011053537            7 
 4608000   0.51721347   -8.4155173    694.47332  0.012559196  0.011049917            3 
 4609000   0.51291198   -8.4342347     696.6378  0.012595606    0.0110463            5 
 4610000   0.52152778   -8.4069311     695.7543  0.012576904   0.01104269            6 
 4611000   0.50939885   -8.4246274    696.38757  0.012585621  0.011039082            5 
 4612000   0.51804747   -8.4058437    696.62029  0.012587097  0.011035472            3 
 4613000   0.51540982   -8.4013879     696.1725  0.012576279  0.011031869            7 
 4614000   0.50726972   -8.4062625    695.85566  0.012567831  0.011028267           14 
 4615000   0.52476511   -8.4100529    696.09163  0.012569369  0.011024667            8 
 4616000   0.51414667   -8.4170982    697.30847  0.012588613  0.011021063            4 
 4617000   0.50851412   -8.4202319    696.33378  0.012568294  0.011017463           13 
 4618000   0.51032521    -8.402198     695.6838  0.012553844  0.011013865           10 
 4619000   0.51528373   -8.3994289    697.23452  0.012579103  0.011010267            3 
 4620000   0.50824733   -8.4124523    696.45488  0.012562318  0.011006671            7 
 4621000   0.51472743   -8.4057294     696.1167    0.0125535  0.011003081            8 
 4622000   0.51857683   -8.3940329    695.79912  0.012545058  0.010999488            7 
 4623000   0.50816508    -8.428615     697.4435  0.012571986  0.010995892           15 
 4624000   0.51954818   -8.4061666    695.82393  0.012540079  0.010992302            6 
 4625000   0.52101665   -8.4173299    696.51589  0.012549836  0.010988713            7 
 4626000   0.51211811   -8.4224369    694.94821  0.012518883  0.010985124            4 
 4627000   0.51940208   -8.4164546     696.5209  0.012544501  0.010981538            7 
 4628000   0.51550789   -8.4246733    696.05773  0.012533451  0.010977953            7 
 4629000   0.51640892    -8.420169    694.73793  0.012506984   0.01097437            7 
 4630000   0.49990411   -8.4083185    695.38777  0.012515979  0.010970788            8 
 4631000   0.50639583   -8.4258432     695.6846  0.012518617  0.010967205           14 
 4632000   0.52389761   -8.4104874    696.05737  0.012522621  0.010963622           10 
 4633000   0.50608598   -8.4108262    695.79231  0.012515151  0.010960045            8 
 4634000   0.51485552   -8.4277668    696.61191  0.012527189  0.010956463            7 
 4635000   0.51319092   -8.4211996    696.10769  0.012515421  0.010952888           16 
 4636000   0.50308331   -8.4129411    695.67304  0.012504908  0.010949311            8 
 4637000   0.50898282   -8.4270295    694.99337  0.012489997  0.010945738           14 
 4638000   0.51727393   -8.4295626    696.09106  0.012507026  0.010942168            5 
 4639000   0.51049002   -8.4175708     696.7734  0.012516588  0.010938598           13 
 4640000   0.50985609    -8.413907    696.83602  0.012515015  0.010935031            6 
 4641000   0.51917671   -8.4066884    694.70725  0.012474094  0.010931464            6 
 4642000   0.50509217   -8.4264091    696.02591  0.012495079  0.010927904           12 
 4643000   0.49656926   -8.4248769    695.95679  0.012491148  0.010924337            4 
 4644000   0.51674033   -8.4165452    696.02906  0.012489755  0.010920772            5 
 4645000   0.50967809    -8.431984    695.65357   0.01248033   0.01091721            5 
 4646000    0.5145722   -8.4196881    695.74514  0.012479286  0.010913651            4 
 4647000   0.52871139   -8.4215748    694.72989  0.012458394  0.010910089           12 
 4648000   0.51187375   -8.4301228    695.74696  0.012473949  0.010906535            7 
 4649000   0.50635512   -8.4279846    695.03825  0.012458562  0.010902981            7 
 4650000   0.50706527   -8.4183424    695.40016  0.012462368  0.010899427            7 
 4651000   0.51326479   -8.4036219    697.00045  0.012488362  0.010895876           12 
 4652000   0.50670444   -8.4189583     695.6939  0.012462272  0.010892329            9 
 4653000   0.51846906   -8.4345602     695.4032  0.012454388  0.010888781           13 
 4654000   0.50569279    -8.415297    695.96749  0.012461816  0.010885233            9 
 4655000   0.51659194    -8.424176    695.20225  0.012445439  0.010881688           11 
 4656000   0.51313874   -8.4373058    696.09398  0.012458727  0.010878142            3 
 4657000   0.51810524   -8.4106428    695.05856  0.012437523  0.010874598            3 
 4658000    0.5070314   -8.4226617    695.34399   0.01243996  0.010871053            5 
 4659000   0.51439225   -8.4231835    695.19641   0.01243465  0.010867511            5 
 4660000   0.50593506    -8.425458    694.83207  0.012425466   0.01086397            3 
 4661000   0.51341552   -8.4196723    696.14729  0.012446315  0.010860431            4 
 4662000   0.48578194   -8.4329228    695.14746  0.012425773  0.010856893            4 
 4663000   0.50716707   -8.4279441    695.82906   0.01243529  0.010853355            9 
 4664000   0.51578342   -8.4311713    695.61976  0.012428884  0.010849814           14 
 4665000   0.50933241   -8.4265891    695.23734  0.012419388  0.010846276            6 
 4666000   0.50458538   -8.4248272    694.75577  0.012408126  0.010842744            9 
 4667000   0.50217054   -8.4274493    694.50291  0.012400952   0.01083921            9 
 4668000   0.51411424    -8.426746    695.96422  0.012424383  0.010835681            3 
 4669000   0.50640843    -8.410953    695.88217  0.012420257  0.010832147            9 
 4670000   0.51420197   -8.4337701    695.87333   0.01241744  0.010828614            6 
 4671000   0.51641835   -8.4282012    695.36774  0.012405762  0.010825084           15 
 4672000   0.50288533   -8.4269141    696.41383  0.012421765  0.010821557           14 
 4673000   0.50377268   -8.4267376    696.20655   0.01241541  0.010818032            7 
 4674000    0.4950504   -8.4059653    694.62388  0.012384536  0.010814508            4 
 4675000    0.4987705   -8.4348707    695.06582  0.012389765  0.010810986           14 
 4676000   0.49373266   -8.4369597    695.90776   0.01240212  0.010807465            8 
 4677000   0.50485779    -8.429684    695.72286  0.012396174  0.010803946            7 
 4678000   0.50271832   -8.4300052    695.70155  0.012393144  0.010800428            7 
 4679000   0.50339686   -8.4339463    695.95867  0.012395075  0.010796912           10 
 4680000   0.50530149   -8.4361068    694.72092  0.012370387  0.010793395            6 
 4681000   0.50644589   -8.4218549    696.37559  0.012397201  0.010789882            7 
 4682000   0.51105175   -8.4313733    695.90595  0.012386195   0.01078637            7 
 4683000   0.49992239   -8.4130349    695.76575  0.012381055  0.010782859           11 
 4684000   0.50527712   -8.4211111    695.42446   0.01237234  0.010779349            5 
 4685000   0.50272266   -8.4569454    695.83865  0.012377066  0.010775841           11 
 4686000   0.50368568   -8.4428455    696.36935  0.012383862  0.010772337           11 
 4687000   0.50655852   -8.4338363    695.57048  0.012367016  0.010768831            5 
 4688000   0.49700045    -8.432193    694.51664  0.012345646  0.010765329            6 
 4689000   0.50683789    -8.429817    696.83229  0.012384167  0.010761828            9 
 4690000    0.5011872   -8.4243642     695.9247    0.0123654  0.010758331            9 
 4691000   0.51088396   -8.4317496    694.78033  0.012342435   0.01075483           13 
 4692000   0.50776072   -8.4317311    695.59795  0.012354326  0.010751332            4 
 4693000   0.49879701   -8.4352799    695.08192   0.01234253  0.010747838            6 
 4694000   0.50247952   -8.4286319    694.75824  0.012334154  0.010744342           12 
 4695000   0.49688442   -8.4507347    695.49203  0.012344552  0.010740848            9 
 4696000   0.49352961   -8.4522723    695.05844  0.012334228  0.010737355            9 
 4697000   0.48569512   -8.4264196    695.80946  0.012344927   0.01073386            3 
 4698000   0.50401071   -8.4373335    695.53725  0.012337471  0.010730369            6 
 4699000   0.50066393   -8.4359761    696.07689  0.012344415  0.010726879            9 
 4700000   0.50354394   -8.4379697     695.6692   0.01233456  0.010723392           10 
 4701000   0.50802928   -8.4267904    695.57557  0.012330277  0.010719909            5 
 4702000    0.4964329   -8.4316455    694.69648  0.012312074  0.010716426            6 
 4703000   0.49909776   -8.4265509    695.26422  0.012319516  0.010712942            9 
 4704000   0.49586302   -8.4381591    695.45371  0.012320254   0.01070946           10 
 4705000   0.50532772   -8.4471349    696.61036  0.012338122  0.010705981            4 
 4706000   0.50667693   -8.4323424    696.41556   0.01233205  0.010702502            7 
 4707000   0.49764543   -8.4220056    695.77126  0.012318024  0.010699024           15 
 4708000   0.50565267   -8.4391319    695.49585  0.012310533  0.010695546            4 
 4709000   0.50116828   -8.4361433    695.21736   0.01230299  0.010692071            7 
 4710000   0.50852517   -8.4449104    696.38126  0.012320971  0.010688599           10 
 4711000   0.51010244   -8.4382108    695.23174  0.012298021  0.010685124            9 
 4712000   0.48558634   -8.4315917    695.94983  0.012308111  0.010681652            6 
 4713000   0.50018707   -8.4313235    695.68932  0.012300893  0.010678181            6 
 4714000   0.50326501   -8.4418603    694.71589  0.012281076  0.010674711            8 
 4715000   0.49400368   -8.4529589    695.17848  0.012286647  0.010671242           14 
 4716000   0.48818047   -8.4524776    695.83537  0.012295649  0.010667773            4 
 4717000   0.49936856   -8.4380781    695.35559  0.012284566  0.010664309           11 
 4718000   0.48511878   -8.4589104    696.24145  0.012297609  0.010660843           11 
 4719000   0.49605018   -8.4460399    694.88703  0.012271085  0.010657381            5 
 4720000   0.49729639   -8.4257444    694.79742  0.012266904   0.01065392           10 
 4721000   0.49372931   -8.4441877    695.50825  0.012276852  0.010650463           12 
 4722000   0.49532503   -8.4465266    695.45805  0.012273367  0.010647005           12 
 4723000   0.49975357   -8.4618601    695.28064  0.012267638  0.010643545            6 
 4724000   0.50083827   -8.4456117    695.32461  0.012265817   0.01064009           10 
 4725000   0.49216529    -8.452872     696.4613  0.012283268  0.010636636            6 
 4726000    0.4980418   -8.4222272    695.45488  0.012262923  0.010633182           16 
 4727000    0.4923245   -8.4489859    694.62538  0.012245705  0.010629731           16 
 4728000   0.49984937   -8.4269326    694.70761  0.012244565   0.01062628            7 
 4729000   0.49034674   -8.4393039    695.38658   0.01225394   0.01062283           14 
 4730000    0.4933998   -8.4485472     695.1939  0.012247955  0.010619382           14 
 4731000    0.5052509   -8.4309445    695.93802  0.012258473  0.010615937            8 
 4732000   0.48954365   -8.4484443    695.10815  0.012241268  0.010612494           14 
 4733000   0.49548114   -8.4431658    695.64294  0.012248097  0.010609048           11 
 4734000   0.49023236   -8.4231554    694.27399  0.012221412  0.010605605           14 
 4735000   0.48548878   -8.4366202    694.64249  0.012225317  0.010602164           13 
 4736000    0.5038182   -8.4489729    695.59556  0.012239505  0.010598723            9 
 4737000   0.49346169   -8.4411572    694.13238  0.012211181  0.010595281           17 
 4738000   0.49322564   -8.4243182    695.30601  0.012229246  0.010591848            6 
 4739000   0.49781959   -8.4369118    694.70417  0.012216082   0.01058841           15 
 4740000   0.48725112   -8.4442912    695.23886  0.012222906  0.010584976            4 
 4741000   0.48582759   -8.4490648    694.80087  0.012212629  0.010581543           11 
 4742000   0.49160207   -8.4572687    694.26494  0.012200635   0.01057811           10 
 4743000    0.4893138    -8.447723    694.47319  0.012201722  0.010574679           12 
 4744000   0.49978618   -8.4491717    694.51564  0.012199895  0.010571249           13 
 4745000   0.49024069   -8.4396797    694.37495  0.012194853  0.010567816            4 
 4746000    0.4919109   -8.4690893    696.04068  0.012221532  0.010564389            6 
 4747000   0.47864767    -8.468902     694.9927   0.01220056  0.010560962            5 
 4748000   0.49674089   -8.4505377    696.21367   0.01221942  0.010557534           12 
 4749000   0.48981924   -8.4388322    694.92336  0.012194205  0.010554111           13 
 4750000   0.50045996   -8.4364563    695.67068  0.012204749  0.010550692           16 
 4751000   0.48351076   -8.4427032    695.51652  0.012199476  0.010547273            6 
 4752000   0.48044384   -8.4302632    694.57869  0.012180462  0.010543854            8 
 4753000   0.48945004   -8.4634144    695.57756  0.012195413  0.010540434            6 
 4754000   0.48947671   -8.4472595    694.37241  0.012171722   0.01053702           17 
 4755000   0.49470462   -8.4447997    694.81731   0.01217696  0.010533605           11 
 4756000    0.4815969     -8.44348    695.23308  0.012181684  0.010530193            4 
 4757000   0.49127059   -8.4333198     695.6059  0.012185654  0.010526782            9 
 4758000   0.49366882   -8.4468248    694.81981  0.012169326  0.010523371            7 
 4759000   0.48808203   -8.4447285    695.37942  0.012176568   0.01051996           11 
 4760000   0.49319402    -8.441702    694.86578  0.012165017   0.01051655            9 
 4761000   0.49844307   -8.4578489    695.23813  0.012168979  0.010513144            9 
 4762000   0.49156436   -8.4593436    694.58276  0.012154955  0.010509737            8 
 4763000    0.4946122   -8.4520682    694.69586  0.012154382  0.010506337           10 
 4764000   0.48506027   -8.4421709    694.87647   0.01215499  0.010502934            9 
 4765000   0.48693374   -8.4498714    694.40117  0.012144127  0.010499532            6 
 4766000   0.48807082   -8.4667108    694.66984  0.012146276  0.010496132           13 
 4767000   0.48525232   -8.4576763      694.667  0.012143679  0.010492732            5 
 4768000   0.49279529   -8.4375446    695.01711  0.012147251  0.010489337            7 
 4769000   0.48948632   -8.4502889      695.837  0.012159031  0.010485944           14 
 4770000   0.50213956   -8.4454091    695.23066  0.012145888  0.010482549            4 
 4771000   0.48222784   -8.4432773    694.48807  0.012130372  0.010479158           11 
 4772000   0.47557181    -8.446358    695.50185  0.012145534  0.010475768           12 
 4773000   0.47464795   -8.4574853    695.48111  0.012142627  0.010472377            4 
 4774000   0.47776531   -8.4535728    694.10988  0.012116148  0.010468987            9 
 4775000   0.48013349   -8.4655777      694.838  0.012126318  0.010465598            6 
 4776000   0.49506058   -8.4473889    695.44408  0.012134354  0.010462211           16 
 4777000   0.47432749   -8.4711856    695.17053  0.012127042  0.010458826            9 
 4778000   0.48866083   -8.4526942    693.68251  0.012098551  0.010455442           10 
 4779000   0.48400866   -8.4596455     694.7324  0.012114327  0.010452062            9 
 4780000   0.49512591   -8.4718552    695.56866  0.012126371  0.010448679           15 
 4781000   0.48031209   -8.4509923     693.7294  0.012091776  0.010445295            9 
 4782000   0.46584131   -8.4552285     694.7674  0.012107337  0.010441914           16 
 4783000   0.49393358   -8.4452698    694.67782  0.012103245  0.010438535           12 
 4784000   0.49589254   -8.4541046    694.67525   0.01210067  0.010435158            8 
 4785000   0.48461759   -8.4678828    695.10024  0.012105542  0.010431783            8 
 4786000    0.4801533   -8.4601628    694.09075  0.012085436  0.010428405           11 
 4787000    0.4962674   -8.4585226    695.08394  0.012100201  0.010425029            4 
 4788000    0.4922075   -8.4571531    693.98304  0.012078513   0.01042166            7 
 4789000   0.49231162   -8.4504234    694.38269  0.012082945   0.01041829            4 
 4790000   0.48199716   -8.4652852      694.164  0.012076618   0.01041492           13 
 4791000   0.47628052   -8.4643006    693.90657   0.01206962   0.01041155           11 
 4792000   0.48203929   -8.4726362    695.62225  0.012096937  0.010408185           10 
 4793000   0.49264797   -8.4364876    694.90144  0.012081881  0.010404822            5 
 4794000    0.4866544   -8.4550114    694.38133  0.012070319   0.01040146            7 
 4795000   0.49022055   -8.4605897    693.54123  0.012053202  0.010398096            6 
 4796000   0.48303679   -8.4615234    694.70895  0.012070978  0.010394736            3 
 4797000   0.49189392   -8.4594875    694.45384   0.01206403  0.010391375            7 
 4798000   0.48026878   -8.4696974    694.64668  0.012064865  0.010388019           14 
 4799000   0.49444363   -8.4712821    694.78995  0.012064839   0.01038466           12 
 4800000   0.47287793   -8.4513939    695.39356  0.012072805  0.010381306           13 
 4801000   0.48592722   -8.4691723    694.11017  0.012048014  0.010377952           14 
 4802000   0.48843225   -8.4552345    695.52226   0.01207001  0.010374601            7 
 4803000   0.48118041   -8.4481323    695.16506    0.0120613  0.010371248            4 
 4804000   0.48267377   -8.4567463    694.46895  0.012046714  0.010367897           11 
 4805000   0.48935555   -8.4535806    694.35551  0.012042239  0.010364547            9 
 4806000   0.48019116   -8.4678913    694.46351  0.012041606  0.010361199            3 
 4807000   0.47707616   -8.4657276    694.59555   0.01204139  0.010357854            8 
 4808000    0.4959986   -8.4649285    695.38516  0.012052571  0.010354508           13 
 4809000   0.48471522   -8.4494991    694.25305  0.012030447  0.010351162            9 
 4810000   0.48816542   -8.4731036     694.5204  0.012032578  0.010347819            7 
 4811000   0.47858632   -8.4451201    694.87528  0.012036224  0.010344478            6 
 4812000   0.48597881   -8.4544906    694.79659   0.01203236  0.010341135           14 
 4813000   0.47420019   -8.4576031    693.96637  0.012015485  0.010337797            9 
 4814000   0.48266648   -8.4530302    695.28328  0.012035786   0.01033446           10 
 4815000   0.49144142   -8.4486169     694.6508   0.01202234  0.010331128           17 
 4816000   0.49500608   -8.4616402     695.4222  0.012033191  0.010327796            7 
 4817000   0.47258861   -8.4469141    693.95262   0.01200527  0.010324465            7 
 4818000   0.47631058   -8.4476688    693.87601  0.012001453  0.010321133           10 
 4819000   0.49417248   -8.4707554    693.89263   0.01199925  0.010317804            5 
 4820000   0.48315224   -8.4601061    693.19749  0.011984742  0.010314476            9 
 4821000   0.46876123   -8.4717115     695.0493  0.012014266  0.010311147            6 
 4822000   0.47494611   -8.4556608    693.73978  0.011989143   0.01030782            3 
 4823000   0.48289239   -8.4629059    694.92552  0.012007145  0.010304496            5 
 4824000    0.4907383   -8.4663639    694.05457   0.01198961  0.010301169            8 
 4825000   0.47194119   -8.4767281    694.38862  0.011992895  0.010297846            2 
 4826000   0.48054598   -8.4753483    694.03067  0.011984229  0.010294521            3 
 4827000   0.47836122   -8.4829656    694.89839  0.011996727  0.010291201            5 
 4828000    0.4730025   -8.4654118    694.60481  0.011989174  0.010287882            4 
 4829000   0.47359567   -8.4761175    694.63505  0.011987214  0.010284562            8 
 4830000   0.48622639   -8.4643108    694.67567  0.011985433  0.010281245            7 
 4831000    0.4811602   -8.4707784    693.98574  0.011971051  0.010277926            7 
 4832000    0.4839309   -8.4617907     694.4343  0.011976309  0.010274609            7 
 4833000   0.47404339   -8.4608045    694.51461  0.011975216  0.010271295           13 
 4834000   0.49306139   -8.4770463    694.26365  0.011968412  0.010267982            9 
 4835000   0.48581625   -8.4665357    695.16065  0.011981397  0.010264671            4 
 4836000   0.47189554   -8.4548283    694.98097  0.011975823  0.010261361            3 
 4837000   0.48176851   -8.4808091    693.85021  0.011953866   0.01025805            8 
 4838000   0.47590035   -8.4657506    693.22136  0.011940564  0.010254744            7 
 4839000   0.48033352   -8.4711609    693.85717  0.011949045  0.010251438            4 
 4840000   0.48384776   -8.4983979    693.74717  0.011944683  0.010248132            7 
 4841000   0.46397218   -8.4731771    694.01817   0.01194688  0.010244828            7 
 4842000   0.47541753   -8.4637791    694.52001   0.01195305  0.010241527           11 
 4843000   0.48008714   -8.4717254    694.96742   0.01195828  0.010238224           12 
 4844000   0.47472258   -8.4762592    694.51676  0.011948059  0.010234923            3 
 4845000   0.48410198   -8.4859042    694.20131  0.011940167  0.010231627           11 
 4846000     0.477595   -8.4562065    694.00031  0.011934247  0.010228331            9 
 4847000   0.46959163   -8.4708613      694.906  0.011947356  0.010225036            5 
 4848000   0.46872688   -8.4591113    694.67777  0.011940968  0.010221742            9 
 4849000   0.48052935   -8.4586335    693.38094  0.011916219  0.010218449            7 
 4850000   0.47787029    -8.473557    694.55101  0.011933866  0.010215161            4 
 4851000   0.47172722   -8.4744305    693.29096   0.01190976  0.010211873            7 
 4852000    0.4833981   -8.4657214    694.82955  0.011933731  0.010208584            9 
 4853000   0.47125968   -8.4609317    694.34695  0.011922985  0.010205298            7 
 4854000   0.47940791    -8.483658     693.3934  0.011904158   0.01020201            7 
 4855000   0.47367262   -8.4657713    693.90289  0.011910451  0.010198726            7 
 4856000    0.4767164   -8.4843582    694.13287  0.011911945  0.010195443            2 
 4857000   0.48622037   -8.4770114    694.33502  0.011912961  0.010192162            5 
 4858000   0.48096926   -8.4716492    694.20478  0.011908275  0.010188881            5 
 4859000   0.47452167   -8.4838011    693.46917  0.011893208  0.010185604            5 
 4860000   0.47800949    -8.462105    694.47807   0.01190806  0.010182327            3 
 4861000   0.47678726   -8.4683797     694.1222   0.01189951  0.010179052            5 
 4862000   0.47618848   -8.4891369    694.09238  0.011896551  0.010175773            4 
 4863000    0.4620992   -8.4811511    694.93847  0.011908604    0.0101725            7 
 4864000   0.47244573   -8.4772969    694.82852  0.011904271  0.010169226            3 
 4865000   0.46980677    -8.481904    693.03219  0.011871055  0.010165954            5 
 4866000   0.47682347   -8.4708747    694.04862  0.011886022  0.010162683            9 
 4867000   0.48298096    -8.466666    694.48431   0.01189104  0.010159412            3 
 4868000   0.47169735   -8.4713667    693.20829  0.011866754  0.010156143            4 
 4869000   0.46874277   -8.4605664    693.54657  0.011870106  0.010152874            5 
 4870000   0.46972963   -8.4825355    693.73485  0.011870891  0.010149606            3 
 4871000   0.47016993   -8.4843515    694.48608  0.011881306  0.010146339            3 
 4872000   0.45968761   -8.4689351    693.39576  0.011860218  0.010143075            4 
 4873000   0.47383486   -8.4735016    694.11532  0.011870089  0.010139815            3 
 4874000    0.4841962   -8.4687337    694.69482  0.011877562  0.010136555            5 
 4875000   0.46875824   -8.4542401    693.58268  0.011856114  0.010133298           11 
 4876000   0.47139935   -8.4735236    694.43277  0.011868211   0.01013004            6 
 4877000   0.47751038   -8.4814224    693.64722  0.011852355  0.010126783            2 
 4878000   0.48065722   -8.4813053    693.41955  0.011846036  0.010123531            9 
 4879000   0.46700108   -8.4646501    693.96628  0.011852946  0.010120275            5 
 4880000   0.48063071   -8.4642822    693.91298  0.011849607  0.010117023           12 
 4881000   0.46589689   -8.4692839    692.87136  0.011829396  0.010113771            8 
 4882000   0.47212824   -8.4704618    693.70336  0.011841174  0.010110523            8 
 4883000   0.46010755   -8.4692379    693.89475  0.011842016  0.010107272           12 
 4884000    0.4665304   -8.4663002    693.96364  0.011840766  0.010104029           11 
 4885000   0.47176746   -8.4816738    694.26141  0.011843422  0.010100785           10 
 4886000   0.46918219   -8.4716188    693.75346  0.011832335  0.010097542           11 
 4887000   0.48141859   -8.4781979    694.64412  0.011845101    0.0100943            4 
 4888000   0.47079525   -8.4649193    694.82276  0.011845724   0.01009106            5 
 4889000   0.48377869   -8.4691227    693.84874  0.011826698   0.01008782            7 
 4890000   0.46895431   -8.4750456    694.51245  0.011835591  0.010084581            9 
 4891000   0.46795034   -8.4932426    693.87825  0.011822365  0.010081343           21 
 4892000    0.4619849   -8.4607984    694.08366  0.011823448  0.010078105            7 
 4893000    0.4672503    -8.473182    693.65824  0.011813786  0.010074869           14 
 4894000   0.47149698   -8.4726164    694.66868  0.011828577  0.010071634           11 
 4895000   0.47761459   -8.4780996    694.94234   0.01183082  0.010068401           11 
 4896000   0.46496853   -8.4860829    694.23732  0.011816403   0.01006517           12 
 4897000   0.46242725   -8.4854067    694.14898  0.011812487  0.010061939           15 
 4898000   0.46645469   -8.4832308     693.9858  0.011807299  0.010058709            6 
 4899000   0.47331695   -8.4902421    694.08767  0.011806622   0.01005548           16 
 4900000   0.45972003   -8.4909132     693.9039  0.011801087   0.01005225            6 
 4901000   0.47445153   -8.4820367    693.66133  0.011794554  0.010049023            4 
 4902000   0.46483287   -8.4773984    694.52437   0.01180682  0.010045799            8 
 4903000   0.45270378   -8.4712481    694.15747  0.011798176  0.010042576            2 
 4904000   0.46359487   -8.4892283    693.35994  0.011782218  0.010039353            4 
 4905000   0.46898564    -8.482945     693.9466  0.011789783  0.010036133            8 
 4906000   0.47430576   -8.4720858    693.89737  0.011786543  0.010032912            7 
 4907000   0.46931412   -8.4876843    694.71373  0.011798005  0.010029694           13 
 4908000   0.46186109    -8.467673    693.90502   0.01178187  0.010026477            8 
 4909000   0.47267001   -8.4830366    693.45627  0.011771852  0.010023262            8 
 4910000   0.46765878   -8.4730275    693.29692   0.01176675  0.010020046           14 
 4911000   0.45777289   -8.4904698    692.94419  0.011758369   0.01001683            8 
 4912000   0.47153246    -8.485977    693.69369  0.011768691  0.010013617            4 
 4913000    0.4596584   -8.4817295    694.55205  0.011780854  0.010010404           10 
 4914000   0.46926319   -8.4760989    693.27989  0.011756883  0.010007193           14 
 4915000   0.47912632   -8.4818556     693.6377  0.011760558  0.010003983           14 
 4916000   0.47053512   -8.4836773     691.5518  0.011722806  0.010000773           12 
 4917000   0.46900785   -8.4898713    693.30409   0.01175012 0.0099975633           17 
 4918000   0.47059193   -8.4956666    693.96165  0.011758873 0.0099943571           13 
 4919000   0.46598351   -8.5126166    693.34015  0.011745954 0.0099911523           12 
 4920000   0.45152377   -8.5025824    693.60204  0.011748002 0.0099879473           11 
 4921000   0.46049226   -8.4874905     693.1934  0.011738695 0.0099847452            6 
 4922000   0.46291046   -8.4813541     692.0561  0.011717054 0.0099815443           10 
 4923000   0.46399367   -8.4829244    694.08912  0.011749088 0.0099783466           13 
 4924000   0.46615921   -8.4841263    693.02043  0.011728615 0.0099751459            8 
 4925000   0.45443746   -8.4950403    693.11505  0.011727835 0.0099719483           11 
 4926000   0.46364003   -8.4849868    693.01775  0.011723808   0.00996875            5 
 4927000   0.46502409   -8.4946503    693.73344  0.011733534 0.0099655528            6 
 4928000   0.46844971   -8.4796708    693.17372  0.011721688 0.0099623587           10 
 4929000   0.44921025    -8.475904    692.63459  0.011710195 0.0099591664            7 
 4930000   0.45249149   -8.4962571     693.4919  0.011722311 0.0099559741           12 
 4931000   0.47517441    -8.487498    692.88435  0.011709666  0.009952784            6 
 4932000   0.46992164   -8.4865062    692.25312  0.011696626 0.0099495956           10 
 4933000   0.45757398   -8.5026833    692.03189  0.011690518 0.0099464056            6 
 4934000    0.4625364   -8.4945161    693.71618  0.011716595 0.0099432177            4 
 4935000   0.45512109   -8.4863072    692.68647  0.011696833 0.0099400319           15 
 4936000   0.46419538   -8.4806212    692.78047  0.011696051 0.0099368464            8 
 4937000   0.46806432   -8.4987815    693.82626  0.011711334 0.0099336619            9 
 4938000   0.46291478   -8.4866567    693.07453  0.011696276 0.0099304773            8 
 4939000   0.46358709   -8.5117331    693.02807  0.011693124  0.009927296            3 
 4940000   0.45691819   -8.4702356    692.67285  0.011684765 0.0099241189           16 
 4941000   0.46066604   -8.4992841    692.54559  0.011680254   0.00992094           14 
 4942000   0.47337323   -8.5007264    693.58106   0.01169535  0.009917764            9 
 4943000   0.46462095   -8.4823826    693.00903  0.011683341 0.0099145859           12 
 4944000   0.46045054   -8.4800304    692.55462  0.011673318 0.0099114117           11 
 4945000   0.46292968   -8.4842253    693.11419  0.011680387 0.0099082359            8 
 4946000    0.4547711   -8.4943266    693.59846  0.011686185  0.009905062           16 
 4947000   0.46098273   -8.4963365    692.53312  0.011665877 0.0099018933            6 
 4948000   0.46120334   -8.4971119    693.01475  0.011671631 0.0098987208            8 
 4949000   0.45620194   -8.4939411    692.46093  0.011659947 0.0098955508           12 
 4950000   0.46115928   -8.4822592    693.17022  0.011669532 0.0098923836           13 
 4951000   0.45869038   -8.4856746    692.51508  0.011656148 0.0098892195            9 
 4952000   0.44794863   -8.4933034    692.98178  0.011661648 0.0098860521           12 
 4953000     0.460936    -8.501224    692.98207  0.011659299 0.0098828864            9 
 4954000    0.4590652   -8.5041959    693.76643  0.011670139 0.0098797233            9 
 4955000    0.4661453   -8.4962455    692.83438  0.011652109 0.0098765581           10 
 4956000   0.45926359   -8.5034556    693.05382  0.011653447 0.0098733975           12 
 4957000   0.45921578   -8.4982978     693.8562  0.011664585   0.00987024           17 
 4958000   0.45516449   -8.4994032    693.31087  0.011653067 0.0098670823            8 
 4959000   0.46604377   -8.4995415    693.22912  0.011649343 0.0098639265            8 
 4960000   0.45259101   -8.4941712    692.75625   0.01163905 0.0098607718           10 
 4961000   0.45731904   -8.5080509    694.89626  0.011672651 0.0098576185           16 
 4962000   0.46471268   -8.4913566    693.37737   0.01164479 0.0098544661            5 
 4963000   0.45445465   -8.5123802    692.43926  0.011626692 0.0098513138           20 
 4964000   0.46437058   -8.4963404    692.89033  0.011631922 0.0098481642            3 
 4965000   0.45413015     -8.49403    693.72268  0.011643549 0.0098450135            7 
 4966000   0.45437802   -8.5035878    693.29648  0.011634053 0.0098418665           11 
 4967000   0.45806255   -8.4937334    693.16929  0.011629577 0.0098387202            7 
 4968000   0.44949884   -8.5079479    693.06112  0.011625421 0.0098355729            9 
 4969000   0.44461202   -8.5107377    692.47475  0.011613248 0.0098324265           14 
 4970000   0.46299551   -8.5050668    693.51267  0.011628314 0.0098292838           15 
 4971000   0.45738913   -8.5035682     694.2311  0.011638019  0.009826143           11 
 4972000   0.45963153   -8.5031927    692.79289  0.011611573 0.0098230014            7 
 4973000   0.45926812   -8.4901986    691.99371  0.011595846 0.0098198611           16 
 4974000   0.45338025   -8.4970443    693.08498  0.011611798 0.0098167245            6 
 4975000   0.44483517   -8.5044926    693.51709  0.011616702 0.0098135912            6 
 4976000   0.45939409    -8.504328    691.24905  0.011576384 0.0098104566            6 
 4977000   0.44906985   -8.4993407    694.23708  0.011624089 0.0098073232           10 
 4978000   0.45024706   -8.5091509    693.37936  0.011607395 0.0098041925            8 
 4979000   0.44627412   -8.5089169    692.72554  0.011594121 0.0098010606            8 
 4980000   0.44877556   -8.5005795    693.22308  0.011600119 0.0097979289            7 
 4981000   0.46078978   -8.5125138    693.14917  0.011596553 0.0097948002            7 
 4982000   0.46001223   -8.4906107    692.94907  0.011590878 0.0097916732           11 
 4983000   0.46670928   -8.5023339    693.26053  0.011593761 0.0097885449            6 
 4984000   0.45271761   -8.4889537    692.36008  0.011576379 0.0097854191            6 
 4985000   0.46235591   -8.4960336    692.21685  0.011571662 0.0097822955            4 
 4986000   0.45796261   -8.4856744    693.20534  0.011585863 0.0097791741            7 
 4987000   0.45888649   -8.4949529    692.92379  0.011578835  0.009776054           17 
 4988000   0.44706778   -8.5074836    693.40984  0.011584634 0.0097729332            9 
 4989000   0.46198601     -8.49138    693.42149  0.011582506 0.0097698152            6 
 4990000   0.45892158   -8.5156044    693.22731  0.011576942 0.0097667001            8 
 4991000   0.44424156   -8.4925273      692.418   0.01156111 0.0097635845           10 
 4992000   0.45588565   -8.5061861    692.98726  0.011568297 0.0097604716            3 
 4993000   0.44466066   -8.5011986    692.83206   0.01156339 0.0097573596           11 
 4994000   0.45898244   -8.5059124    693.25008   0.01156805 0.0097542482           13 
 4995000   0.44540802   -8.5043364    693.09713  0.011563182  0.009751137            7 
 4996000   0.44638157   -8.4979428    693.74556  0.011571683 0.0097480288            8 
 4997000   0.45782242   -8.5014201    692.35087  0.011546109 0.0097449213            6 
 4998000   0.44095582   -8.5026389    693.28391  0.011559355 0.0097418138            8 
 4999000   0.45210141   -8.5013143    692.71983   0.01154764 0.0097387097            7 
 5000000   0.44582943    -8.494239    693.53348  0.011558891  0.009735605            9 
 5001000   0.45462075   -8.5094461    693.65488  0.011558603 0.0097325012            8 
 5002000    0.4505882   -8.5012543     692.5418  0.011537748 0.0097293966           14 
 5003000   0.45030383   -8.5136401    692.21568   0.01153001 0.0097262934            9 
 5004000   0.44754275   -8.5028365    692.33001   0.01152961 0.0097231941           11 
 5005000   0.45152938   -8.5078337    692.69895  0.011533449 0.0097200951           14 
 5006000   0.45082221   -8.5040612    692.64758   0.01153029 0.0097169971            8 
 5007000   0.44939942   -8.4929813    692.80866  0.011530668 0.0097139018           12 
 5008000   0.45250813   -8.5000261    692.41293  0.011521781 0.0097108111            7 
 5009000   0.45299729   -8.4994763    693.38421  0.011535639 0.0097077198            6 
 5010000   0.45381966   -8.5079634    692.27523  0.011514891 0.0097046311           12 
 5011000   0.44835208   -8.5138188    692.43611  0.011515268 0.0097015423           14 
 5012000   0.45292139   -8.5019686    692.61959  0.011516021 0.0096984535           10 
Loop time of 11778.1 on 48 procs for 5000000 steps with 4000 atoms

Performance: 73356.694 tau/day, 424.518 timesteps/s
99.4% CPU use with 48 MPI tasks x no OpenMP threads

MPI task timing breakdown:
Section |  min time  |  avg time  |  max time  |%varavg| %total
---------------------------------------------------------------
Pair    | 743.16     | 782.71     | 831.31     |  69.8 |  6.65
Neigh   | 77.395     | 80.328     | 83.376     |  16.7 |  0.68
Comm    | 739.17     | 791.92     | 844.79     |  79.9 |  6.72
Output  | 16.515     | 16.521     | 16.615     |   0.3 |  0.14
Modify  | 9973.2     | 9999.6     | 10029      |  13.3 | 84.90
Other   |            | 107        |            |       |  0.91

Nlocal:        83.3333 ave          93 max          77 min
Histogram: 4 4 4 17 4 6 5 2 1 1
Nghost:        2007.69 ave        2026 max        1985 min
Histogram: 1 2 5 3 8 13 2 4 5 5
Neighs:        12905.6 ave       14605 max       11316 min
Histogram: 2 1 5 13 5 8 7 2 3 2
FullNghs:      25811.6 ave       29017 max       23706 min
Histogram: 6 2 8 10 8 5 4 3 1 1

Total # of neighbors = 1238957
Ave neighs/atom = 309.73925
Neighbor list builds = 268055
Dangerous builds = 0

#clear
#
#next RN
#
#jump SELF
Total wall time: 3:16:21
