
units lj                  # Use reduced LJ style units
atom_style atomic         # Uncharged point particles
atom_modify map hash      # Needed for indexing of clusters etc
                          # Used to be able to find where atoms are in relation to each other.

lattice fcc 1.0 spacing 1 1 1
Lattice spacing in x,y,z = 1.5874011 1.5874011 1.5874011
region box block 0 10 0 10 0 10 units lattice
create_box 2 box
Created orthogonal box = (0.0000000 0.0000000 0.0000000) to (15.874011 15.874011 15.874011)
  3 by 4 by 4 MPI processor grid
create_atoms 1 box
Created 4000 atoms
  using lattice units in orthogonal box = (0.0000000 0.0000000 0.0000000) to (15.874011 15.874011 15.874011)
  create_atoms CPU = 0.008 seconds
set type 1 type/fraction 2 0.79 78393
Setting atom values ...
  3145 settings made for type/fraction
mass 1 1.0
mass 2 1.0
pair_style lj/cut  3.5
pair_modify tail  yes
pair_coeff 1  1  1.0  1.0   # Intearaction between 1 and 1 set with epsilon = 1 and sigma = 1
pair_coeff 1  2  1.5  0.8
pair_coeff 2  2  0.5  0.88

write_data data.0
System init for write_data ...
Neighbor list info ...
  update every 1 steps, delay 10 steps, check yes
  max neighbors/atom: 2000, page size: 100000
  master list distance cutoff = 3.8
  ghost atom cutoff = 3.8
  binsize = 1.9, bins = 9 9 9
  1 neighbor lists, perpetual/occasional/extra = 1 0 0
  (1) pair lj/cut, perpetual
      attributes: half, newton on
      pair build: half/bin/atomonly/newton
      stencil: half/bin/3d
      bin: standard
WARNING: Not all mixed pair coeffs generated from mixing. Use write_data with 'pair ij' option to store all pair coeffs. (../write_data.cpp:312)


#############################
#   M E L T   S Y S T E M   #
#############################

velocity all create 2.4 3143649 mom yes dist gaussian # Assign velocities
                                                    # Temperature 2.4, random number seed, zero linear momentum
                                                                                # Gaussian distribution

timestep 0.002   # simulation timestep
thermo 1000       # output thermodynamic data every 1000 steps bf 100

# Define a fix  in this case with index 1 applied to all
# particles in the simulation. This fix is for simulations
# in the anisotropic NPT ensemble. Note that we use the MTK
# correction.
fix 1 all npt temp 2.4 2.4 0.1 iso 5.68 5.68 0.5 mtk yes tchain 5 pchain 5 # Use NPT ensemble
                                                                         # Set temperature and pressure and damping
                                                                         # Numbers of thermostats in chain and in barostat
run 10000          # run for 10000 steps
Per MPI rank memory allocation (min/avg/max) = 3.642 | 3.644 | 3.648 Mbytes
Step Temp E_pair E_mol TotEng Press Volume 
       0          2.4   -3.7530074            0  -0.15390738    -3.337815         4000 
    1000    2.3696589   -3.1564188            0   0.39718094    5.8481645    3748.9415 
    2000    2.3734932   -3.1778991            0    0.3814507    5.5785396    3757.1008 
    3000    2.3956105   -3.1438898            0   0.44862753    5.8793739    3760.7077 
    4000    2.3651805   -3.2019816            0   0.34490224    5.2421578    3780.6995 
    5000    2.3995917   -3.1509776            0   0.44751016    5.8423007    3750.8108 
    6000    2.4176354   -3.1458913            0   0.47965516    5.8575723    3765.5107 
    7000    2.4065478   -3.1881716            0    0.4207476    5.5071602    3758.5654 
    8000    2.4268703   -3.1888423            0   0.45055307    5.7218063    3752.3549 
    9000    2.4256587   -3.1757015            0   0.46187697    5.7033238    3759.8211 
   10000    2.3989183    -3.184828            0   0.41264984    5.6039051    3753.4131 
Loop time of 2.59601 on 48 procs for 10000 steps with 4000 atoms

Performance: 665637.316 tau/day, 3852.068 timesteps/s
99.6% CPU use with 48 MPI tasks x no OpenMP threads

MPI task timing breakdown:
Section |  min time  |  avg time  |  max time  |%varavg| %total
---------------------------------------------------------------
Pair    | 1.1462     | 1.2307     | 1.2957     |   2.9 | 47.41
Neigh   | 0.21816    | 0.22298    | 0.23114    |   0.7 |  8.59
Comm    | 0.80463    | 0.87804    | 0.96823    |   3.9 | 33.82
Output  | 0.00027301 | 0.00027735 | 0.00034203 |   0.0 |  0.01
Modify  | 0.21173    | 0.24871    | 0.28243    |   4.5 |  9.58
Other   |            | 0.01524    |            |       |  0.59

Nlocal:        83.3333 ave          91 max          75 min
Histogram: 3 3 3 4 8 8 6 5 6 2
Nghost:        1721.27 ave        1749 max        1686 min
Histogram: 1 2 0 8 8 10 3 10 3 3
Neighs:        10181.3 ave       11414 max        8739 min
Histogram: 1 3 4 4 11 8 3 5 6 3

Total # of neighbors = 488703
Ave neighs/atom = 122.17575
Neighbor list builds = 913
Dangerous builds = 246

# Equilibrate just above the melting temperature to avoid step fn in T

fix 1 all npt temp 1.25 1.25 0.1 iso 5.68 5.68 0.5 mtk yes tchain 5 pchain 5
run 2000
Per MPI rank memory allocation (min/avg/max) = 3.644 | 3.646 | 3.649 Mbytes
Step Temp E_pair E_mol TotEng Press Volume 
   10000    2.3989183    -3.184828            0   0.41264984    5.6039051    3753.4131 
   11000    1.2596327   -4.6201434            0   -2.7311667    5.6798126    2908.0295 
   12000    1.2306156   -4.6683147            0   -2.8228528       5.3962    2897.6424 
Loop time of 0.64266 on 48 procs for 2000 steps with 4000 atoms

Performance: 537764.623 tau/day, 3112.064 timesteps/s
99.6% CPU use with 48 MPI tasks x no OpenMP threads

MPI task timing breakdown:
Section |  min time  |  avg time  |  max time  |%varavg| %total
---------------------------------------------------------------
Pair    | 0.28673    | 0.31687    | 0.33847    |   2.2 | 49.31
Neigh   | 0.041437   | 0.04368    | 0.045407   |   0.5 |  6.80
Comm    | 0.20988    | 0.23261    | 0.2664     |   2.8 | 36.20
Output  | 5.3338e-05 | 5.4576e-05 | 6.9144e-05 |   0.0 |  0.01
Modify  | 0.039746   | 0.04458    | 0.050385   |   1.4 |  6.94
Other   |            | 0.004863   |            |       |  0.76

Nlocal:        83.3333 ave          91 max          76 min
Histogram: 3 2 3 6 12 4 11 1 3 3
Nghost:        2048.00 ave        2074 max        2031 min
Histogram: 7 7 4 8 8 3 5 2 2 2
Neighs:        13189.9 ave       14483 max       11478 min
Histogram: 3 2 1 3 10 6 8 6 4 5

Total # of neighbors = 633116
Ave neighs/atom = 158.27900
Neighbor list builds = 144
Dangerous builds = 8

#############################
# L I N E A R  Q U E N C H  #
#############################

# Define solid atoms. This closely follows ten Wolde  Ruiz-Montero and Frenkel  Faraday Discuss  1996  104  93-110
# Compute components of the per-atom q6 vector
compute q6 all orientorder/atom degrees 1 6 components 6 nnn NULL cutoff 1.3 # compute the Q6 parameter.
                                                                             # Use all neighbours within 1.3 unit cell.

# get number of connections
compute coord_number all coord/atom orientorder q6 0.5

# An atom is solid if it has 8 or more connections (of a possible 14)
variable is_solid atom c_coord_number>=8
group solid dynamic all var is_solid    # Must be dynamic to update
dynamic group solid defined

# do clustering
compute cluster solid cluster/atom 1.3 # Create a cluster where all atoms within are solid and max 1.3 units from another member

# define chunks one chunk per cluster
compute clus_chunks solid chunk/atom c_cluster nchunk every compress yes  # Says which atoms are in which chunk

# count the size of each chunk
compute size_chunks solid property/chunk clus_chunks count


# Find the maximum entry in the vector of chunk sizes
variable max_n equal max(c_size_chunks)


# Thermo style which includes this variable
# thermo_style custom step temp pe vol v_max_n

thermo ${N}  # Print the thermo information every 100 steps
thermo 1000  

# Reset the npt fix at a lower temperature (below freezing)
fix 1  all npt temp  ${temp} ${temp}  0.1  iso  5.68  5.68  0.5  mtk yes tchain  5  pchain  5
fix 1  all npt temp  0.45 ${temp}  0.1  iso  5.68  5.68  0.5  mtk yes tchain  5  pchain  5
fix 1  all npt temp  0.45 0.45  0.1  iso  5.68  5.68  0.5  mtk yes tchain  5  pchain  5

dump dmp2 all dcd ${N} traj.dcd
dump dmp2 all dcd 1000 traj.dcd


compute msd all msd com yes
variable twopoint equal c_msd[4]/6/(step*dt+1.0e-6)
fix 9 all vector 10 c_msd[4]
variable fit equal slope(f_9)/6/(10*dt)
thermo_style custom step temp pe c_msd[4] v_twopoint v_fit v_max_n

fix 1 all npt temp 1.25 ${temp} 0.1 iso 5.68 5.68 0.5 mtk yes tchain 5 pchain 5
fix 1 all npt temp 1.25 0.45 0.1 iso 5.68 5.68 0.5 mtk yes tchain 5 pchain 5
run 5000000 # 5000000  # Run for this many steps
Neighbor list info ...
  update every 1 steps, delay 10 steps, check yes
  max neighbors/atom: 2000, page size: 100000
  master list distance cutoff = 3.8
  ghost atom cutoff = 3.8
  binsize = 1.9, bins = 8 8 8
  4 neighbor lists, perpetual/occasional/extra = 1 3 0
  (1) pair lj/cut, perpetual
      attributes: half, newton on
      pair build: half/bin/atomonly/newton
      stencil: half/bin/3d
      bin: standard
  (2) compute orientorder/atom, occasional
      attributes: full, newton on
      pair build: full/bin/atomonly
      stencil: full/bin/3d
      bin: standard
  (3) compute coord/atom, occasional
      attributes: full, newton on
      pair build: full/bin/atomonly
      stencil: full/bin/3d
      bin: standard
  (4) compute cluster/atom, occasional
      attributes: full, newton on
      pair build: full/bin/atomonly
      stencil: full/bin/3d
      bin: standard
Per MPI rank memory allocation (min/avg/max) = 9.838 | 9.842 | 9.846 Mbytes
Step Temp PotEng c_msd[4] v_twopoint v_fit v_max_n 
   12000    1.2306156   -4.6683147 1.0286746e-30 7.1435735e-33 8.3333333e+20            1 
   13000    1.2512567   -4.6530351   0.75237614 0.0048229238  0.062963177            2 
   14000    1.2336726   -4.6518401    1.5221953  0.009060686  0.062787538            1 
   15000    1.2556718   -4.6530356    2.2894824  0.012719346  0.063379888            2 
   16000    1.2507746   -4.6764531    3.0860047   0.01607294  0.064148754            4 
   17000    1.2586576   -4.6539617    3.8734167  0.018987336  0.064538076            2 
   18000    1.2226437   -4.6669897    4.6276528  0.021424318  0.064587273            2 
   19000    1.2187248   -4.7055587    5.5152233  0.024189575  0.065179213            2 
   20000    1.2506547    -4.668237    6.3210425  0.026337676  0.065696271            2 
   21000    1.2567251   -4.6971022    7.2216926   0.02865751  0.066393158            2 
   22000    1.2435312   -4.6489919    8.1234268  0.030770555  0.067283066            2 
   23000    1.2362632   -4.6788567    8.9624668  0.032472705  0.067902292            2 
   24000     1.233542    -4.677818    9.6667461   0.03356509  0.068051042            2 
   25000    1.2825087   -4.6457877    10.524432  0.035081438  0.068141865            4 
   26000    1.2372635   -4.6615259    11.332586   0.03632239  0.068267864            1 
   27000    1.2298981   -4.6763578    12.232546  0.037754772  0.068461653            2 
   28000    1.2134331   -4.6543107    13.008541  0.038715896  0.068578016            4 
   29000    1.2632164   -4.6633463    13.834847  0.039755306  0.068526659            2 
   30000    1.2517403   -4.6709621    14.535131  0.040375362  0.068454044            1 
   31000    1.2435362    -4.673496    15.387957  0.041365475  0.068367835            1 
   32000    1.2444074   -4.6876771    16.134234  0.042016233  0.068254749            4 
   33000     1.242494    -4.674079    16.978492  0.042874978  0.068148169            3 
   34000    1.2554181   -4.6821672    17.668035  0.043304008  0.068062733            2 
   35000    1.2314847   -4.6985605    18.440535  0.043906034  0.067917853            1 
   36000    1.2340465    -4.693514    19.138293  0.044301603  0.067719748            3 
   37000    1.2557354   -4.6626396    20.022553   0.04509584  0.067556437            2 
   38000    1.2483092    -4.647815    20.723964  0.045447288  0.067428034            3 
   39000     1.240689   -4.6843094    21.364341    0.0456503   0.06722033            1 
   40000    1.2431998   -4.6725317    22.163533  0.046174027  0.066976185            2 
   41000    1.2619876   -4.6731509    22.933271  0.046612339  0.066771922            3 
   42000     1.254234   -4.6802023     23.61587  0.046856883  0.066577463            1 
   43000    1.2115076   -4.6940477    24.345867  0.047181913  0.066420558            3 
   44000    1.2357712   -4.6398996    25.213605  0.047753039  0.066248195            2 
   45000    1.2393509   -4.6681798    25.780264  0.047741228  0.066055168            1 
   46000    1.2029309   -4.6809533    26.515618  0.048035539  0.065861354            3 
   47000    1.2422743   -4.6566225    27.296327  0.048397742  0.065666193            2 
   48000    1.2439906    -4.660402    28.182478  0.048927912  0.065505306            2 
   49000     1.238635   -4.6786852    29.078868  0.049453857  0.065409369            2 
   50000    1.2251317   -4.6753494    29.581782  0.049302969  0.065338351            2 
   51000    1.2425343   -4.6623807    30.434526  0.049729617    0.0652395            1 
   52000    1.2310568   -4.6529117    31.278024  0.050125038  0.065135678            9 
   53000     1.242015   -4.6788067    32.095115  0.050464017  0.065058476            3 
   54000    1.2286726   -4.6688191    32.825513  0.050656656  0.065005762            1 
   55000    1.2334662    -4.693272    33.417033  0.050631868  0.064948391            1 
   56000    1.2890502   -4.6703299    34.401243  0.051192326   0.06489394            4 
   57000    1.2405018   -4.6833811    35.080164  0.051286789  0.064826905            4 
   58000    1.2323294   -4.6735274    36.030508   0.05176797  0.064778481            2 
   59000    1.2365366   -4.6978285    36.627275  0.051733438  0.064747136            2 
   60000    1.2496613   -4.6779248    37.483851  0.052060904  0.064733892            2 
   61000    1.2446424   -4.6440827    38.496836  0.052591306  0.064738749            1 
   62000    1.2412364   -4.6800912    39.036515  0.052468433  0.064728067            3 
   63000    1.2585224   -4.6452516    39.929645  0.052816991  0.064726768            2 
   64000    1.2405807   -4.6617642    40.586114  0.052846503  0.064717714            2 
   65000    1.2580759   -4.6861727    41.352922  0.053016566  0.064699054            3 
   66000    1.2116822   -4.6824086    42.048918  0.053092068  0.064670879            1 
   67000      1.19915   -4.6981867    42.972876  0.053448851  0.064642441            1 
   68000    1.2488902   -4.6950021    43.697725  0.053551133  0.064630058            3 
   69000    1.2886126   -4.7342271    44.473804  0.053712324  0.064624843            2 
   70000    1.2426991    -4.627943    45.644283  0.054338431  0.064648569            3 
   71000    1.2451809   -4.6506159    46.405748   0.05446684  0.064692172            4 
   72000    1.2251027   -4.6768553    47.124801  0.054542593  0.064714159            6 
   73000    1.2398226   -4.7016065     48.00965  0.054805536  0.064750543            1 
   74000     1.238493   -4.7050385    48.714023  0.054858133  0.064801171            4 
   75000    1.2598569    -4.680387    49.796792  0.055329768     0.064832            2 
   76000    1.2479366   -4.7197379     50.33325  0.055189967  0.064875733            2 
   77000    1.2586773   -4.6747315    51.106266  0.055309812  0.064907619            2 
   78000    1.2293362   -4.6534968      52.3538  0.055933547  0.064956348            5 
   79000    1.2353158   -4.6983315    52.908065  0.055810195   0.06500815            1 
   80000     1.263034    -4.704329    53.623846  0.055858173  0.065055402            1 
   81000    1.2327037    -4.667621    54.577396  0.056149584  0.065096271            6 
   82000    1.2248305   -4.6923501    54.974192   0.05586808  0.065127832            1 
   83000    1.2602248   -4.6719878    55.764992  0.055988947  0.065147295            2 
   84000    1.2352912   -4.7173076    56.498843  0.056050439  0.065158135            1 
   85000    1.2472429   -4.6648111    57.421084   0.05629518  0.065157894            1 
   86000    1.2268435   -4.6925886    58.358843  0.056549266   0.06516305            2 
   87000    1.2276557   -4.6904737    58.854345  0.056373893  0.065183696            1 
   88000    1.2681847   -4.6629482    60.013613  0.056831072  0.065197681            1 
   89000    1.2253824   -4.6896601     61.25294   0.05735294  0.065237086            1 
   90000     1.214093   -4.7046489    61.773915  0.057198069  0.065287099            3 
   91000    1.2441316   -4.6726113     62.62042  0.057344707  0.065326456            2 
   92000    1.2332361   -4.6736968    63.435024  0.057459261  0.065372953            2 
   93000    1.2299435   -4.7286127    64.285825  0.057603785  0.065430071            4 
   94000    1.2492184   -4.6856595    65.207813  0.057808345  0.065488603            2 
   95000    1.2727552    -4.684569    65.966764  0.057865582  0.065553435            2 
   96000     1.191955   -4.6973114     66.85475  0.058033637  0.065605657            2 
   97000    1.2255318     -4.71989    67.520136  0.058006989  0.065639287            1 
   98000    1.2339781   -4.6839655     68.05576  0.057870544  0.065671931            2 
   99000      1.26351   -4.6959504    68.809407  0.057920376  0.065702591            4 
  100000    1.2465477   -4.6786442    69.657849  0.058048207  0.065719301            2 
  101000    1.2472233   -4.6496471    70.366671  0.058058309  0.065732397            1 
  102000    1.2531714   -4.6644339    71.261798  0.058220423  0.065744461            2 
  103000    1.2410578   -4.6628882    72.089427  0.058324779  0.065753978            2 
  104000    1.2482096   -4.7174262    72.388664  0.058003737  0.065759323            4 
  105000    1.2463501   -4.6617361    73.452205    0.0582954  0.065758716            2 
  106000     1.202719   -4.7046294    74.145854  0.058290766  0.065758599            4 
  107000    1.2364544   -4.6992812    75.169372  0.058543125  0.065767984            2 
  108000     1.225712    -4.671588    75.507388  0.058261873  0.065766826            4 
  109000    1.2149619   -4.6811574    76.527939  0.058507598  0.065765139            2 
  110000    1.2318596   -4.7082391    77.314342  0.058571471  0.065764209            1 
  111000    1.2530938   -4.6539614    78.399606  0.058858563  0.065757025            4 
  112000    1.2289187   -4.7005319    78.983258  0.058767305  0.065754994            3 
  113000    1.2516146    -4.689502    79.641242  0.058732479  0.065750826            2 
  114000    1.2333496   -4.6939414    80.145017  0.058585539   0.06574382            1 
  115000    1.2160865   -4.6978106    80.940454  0.058652503  0.065728627            4 
  116000    1.2658219   -4.6939158    81.797729  0.058762736  0.065715049            3 
  117000    1.2184784   -4.6762557    82.555242  0.058800029   0.06570857            2 
  118000    1.2424705    -4.689947    83.347382  0.058861145  0.065711018            1 
  119000    1.2482797   -4.7178802    84.291585   0.05902772  0.065701093            5 
  120000    1.2220269   -4.7218951    85.278073  0.059220884  0.065699963            1 
  121000    1.2231064   -4.6812492     85.48912  0.058876804  0.065689934            2 
  122000    1.2209514   -4.6719949    86.551639  0.059119972  0.065682655            4 
  123000     1.221302   -4.7029689    87.056166  0.058981142  0.065675006            2 
  124000    1.2206481   -4.6932239    88.140022  0.059233886  0.065666498            2 
  125000    1.2341878   -4.6819364    88.694435  0.059129623  0.065648176            2 
  126000    1.2708814   -4.6866352    89.775099  0.059375065  0.065633633            1 
  127000    1.2484447   -4.6687441    90.460081  0.059357008  0.065622857            2 
  128000    1.2334625   -4.6983648    90.714313  0.059058797  0.065609634            5 
  129000    1.2217245   -4.7028911    91.877376   0.05935231   0.06559871            2 
  130000    1.2210716   -4.6587065    92.456364    0.0592669  0.065584967            2 
  131000    1.2400841   -4.7026855    93.113524  0.059232521  0.065566936            3 
  132000       1.2498   -4.7151622    93.756223  0.059189535    0.0655454            3 
  133000    1.2321186   -4.7013489    94.683841  0.059325715  0.065517315            2 
  134000    1.2027991   -4.7222372    95.049208  0.059110204  0.065481248            1 
  135000    1.2469416    -4.684001     95.34911  0.058857475  0.065438341            5 
  136000    1.2375252    -4.711554     96.39074  0.059062953  0.065410394            2 
  137000    1.2055986   -4.7062197    97.850097  0.059519524  0.065388778            2 
  138000    1.2350758   -4.7314091    98.319832  0.059371879  0.065377115            3 
  139000    1.2217996    -4.688335    99.763733  0.059810391   0.06536598            2 
  140000    1.2262055   -4.7146183    100.27562   0.05968787  0.065365646            1 
  141000    1.1868571   -4.6652282    101.11005  0.059757715  0.065359622            2 
  142000    1.2199838   -4.7079414    102.27936  0.060023096  0.065358275            3 
  143000    1.2346947   -4.7127648     102.8918  0.059960258  0.065354889            2 
  144000    1.2125415   -4.7401073    102.68271  0.059422866  0.065342682            6 
  145000    1.2310415   -4.6898388    103.87297  0.059697111  0.065328944            1 
  146000    1.2333524   -4.6956444    104.61928    0.0597142  0.065318642            3 
  147000    1.2189685   -4.7039499    105.12858  0.059596699   0.06530603            2 
  148000    1.2290225   -4.7065484     106.0921  0.059736545  0.065290806            2 
  149000    1.2454369    -4.710903    106.94789  0.059814258   0.06527486            2 
  150000    1.2049115   -4.6782542    108.18874  0.060104857  0.065263615            1 
  151000    1.2158718   -4.6941651    108.93007  0.060115934  0.065257144            1 
  152000    1.2283536   -4.7160565    109.75865  0.060174697  0.065252172            3 
  153000    1.2443967   -4.6730325    111.02058  0.060468726  0.065251441            2 
  154000    1.2463762   -4.7309123    110.85857  0.059988404  0.065245654            3 
  155000    1.2259774   -4.7113988    112.21488  0.060330583  0.065239601            3 
  156000    1.2195863   -4.7326006    112.46013  0.060074853  0.065238274            2 
  157000     1.219993   -4.7152079    113.25474  0.060113983  0.065233058            2 
  158000    1.2137879   -4.7022744    114.08403  0.060170901   0.06521982            2 
  159000    1.2070862   -4.7516674     114.4637  0.059991457  0.065205128            2 
  160000    1.2196657   -4.7138645    115.49002  0.060151052  0.065192285            1 
  161000     1.219512   -4.7116871    116.42476  0.060261261   0.06518513            2 
  162000    1.2430985   -4.6986084    117.38116  0.060381257  0.065182861            2 
  163000    1.2407981   -4.7173059    117.81197  0.060231069  0.065181143            2 
  164000    1.1993423   -4.6718791    119.09033  0.060513378  0.065174186            2 
  165000    1.1989651   -4.6669875    119.52614   0.06036674  0.065169417            2 
  166000     1.208273   -4.7213464    120.45089  0.060467313  0.065160665            2 
  167000    1.2339111   -4.7182188    121.20299  0.060480536  0.065151632            2 
  168000    1.2452284   -4.6913813     121.5722  0.060303669  0.065148361            2 
  169000    1.2464708   -4.7314247    122.06272  0.060188716  0.065140801            2 
  170000    1.2083553    -4.725238    122.94507   0.06026719  0.065134219            7 
  171000    1.1927937   -4.6874814    124.63234  0.060737007  0.065127489            2 
  172000    1.2236123   -4.7177079     124.4909  0.060315358  0.065117426            3 
  173000    1.2155861   -4.7308894    125.43008  0.060419114  0.065104087            4 
  174000    1.2228722   -4.7151145    126.46699   0.06056848  0.065090907            2 
  175000    1.2099906   -4.7231421    127.48047  0.060704985  0.065083107            1 
  176000    1.2231643   -4.7323519    128.33228  0.060763389   0.06507826            8 
  177000     1.220378   -4.6710672    129.78447  0.061103798  0.065079184            2 
  178000    1.2066436   -4.7411884    129.50832  0.060631238  0.065079213            1 
  179000     1.218959   -4.7163758     130.0424  0.060541156  0.065073884            1 
  180000    1.2284975   -4.6931706    131.21475  0.060747567  0.065064845            1 
  181000     1.224392   -4.7179381     131.3455  0.060472145  0.065055974            1 
  182000     1.217036   -4.7076723    132.77782  0.060795703  0.065048148            3 
  183000    1.2165047   -4.7274951    133.36477  0.060730769  0.065044015            2 
  184000    1.2323699   -4.7095007    134.22396  0.060789837  0.065043437            1 
  185000    1.2279857   -4.7050599    135.35525  0.060970835  0.065044755            1 
  186000    1.2358884   -4.6962046    136.17103  0.061008525  0.065044694            2 
  187000    1.2355333   -4.6988911    136.31146  0.060744856  0.065039987            2 
  188000    1.2028499   -4.6959637    137.02701  0.060738924  0.065033829            3 
  189000    1.2223911   -4.7126952     138.0431  0.060865563  0.065024484            2 
  190000    1.2442262   -4.7137764    138.75922  0.060859305   0.06501473            3 
  191000    1.2014882   -4.7610085    138.92688  0.060613822  0.065003454            2 
  192000    1.2097374   -4.7232676     139.7791   0.06066801  0.064983921            3 
  193000    1.2110467   -4.7059142    140.69018  0.060747057  0.064965012            2 
  194000    1.2304934   -4.7050171     141.5232  0.060791754  0.064951045            1 
  195000    1.2089451   -4.7033481    142.16312  0.060753469  0.064934938            2 
  196000    1.1961233   -4.7499381     142.1155  0.060423257  0.064918056            2 
  197000    1.2200605   -4.7582649    142.66974  0.060350988  0.064895531            4 
  198000    1.1989208   -4.7129502    143.85703  0.060545887  0.064870656            2 
  199000    1.2034557   -4.7453023    144.51714  0.060518066  0.064851658            2 
  200000    1.2416272    -4.731671    145.19332  0.060497214  0.064831199            5 
  201000    1.1889511   -4.7017001    146.63262   0.06079296  0.064813406            1 
  202000    1.2149156   -4.7060155    147.40839  0.060812044  0.064797177            4 
  203000    1.2210332   -4.6989756    148.22737  0.060848673  0.064786411            3 
  204000    1.2077856   -4.7142714    149.10536  0.060909054   0.06477887            3 
  205000    1.2378026   -4.7115019    150.07089  0.061004425  0.064773355            1 
  206000    1.2264987   -4.7007161    151.01681  0.061090943  0.064768544            4 
  207000    1.2033751   -4.7201557    151.87718  0.061142184  0.064763709            3 
  208000    1.2301196   -4.7380541    152.64698  0.061156643  0.064760716            1 
  209000    1.2196179   -4.7480591    153.35429  0.061146047  0.064760565            2 
  210000     1.213873    -4.718164     154.6482  0.061368335  0.064760814            2 
  211000    1.2297473   -4.6936634    155.94255  0.061588684  0.064762617            2 
  212000    1.2319704   -4.7003273    156.70814  0.061599113  0.064769183            2 
  213000    1.2492433   -4.7235445    157.78539  0.061731375  0.064775348            3 
  214000     1.212199   -4.7229822    158.14441  0.061582713  0.064786065            2 
  215000    1.2145092   -4.7284539    158.47242   0.06142342  0.064790136            2 
  216000    1.2088658   -4.7180636    159.05558  0.061364034  0.064790543            2 
  217000    1.2142988   -4.7153451    160.29716  0.061558049  0.064794354            3 
  218000    1.2058537   -4.6865472    160.70765  0.061432587  0.064794496            2 
  219000    1.2134297   -4.7106929    160.74464  0.061166148  0.064794352            3 
  220000    1.2121032    -4.723012    162.20386  0.061440858  0.064790701            2 
  221000    1.2411663   -4.7432317    162.46928  0.061262925   0.06479017            2 
  222000    1.2111503   -4.7081375    164.38384  0.061705645  0.064795848            2 
  223000    1.2168425   -4.7100665    165.23551  0.061747201  0.064799523            1 
  224000    1.1898085   -4.7469497     165.1917  0.061455246  0.064803187            5 
  225000    1.2248231   -4.7177234    166.50091  0.061667002  0.064803586            1 
  226000    1.1881843   -4.7227534    167.38134  0.061718784  0.064804579            2 
  227000    1.2072234   -4.7126759    168.40103  0.061821231  0.064804235            3 
  228000    1.2083763   -4.6629833    169.18728  0.061837456   0.06480583            3 
  229000    1.2361816    -4.740448     168.6516  0.061372487  0.064805307            3 
  230000    1.2351628   -4.7309005    168.78857  0.061155277  0.064799233            6 
  231000    1.2194774   -4.7496674    169.78364  0.061249508  0.064795063            5 
  232000    1.2248704   -4.7220783    170.68622  0.061309704  0.064787606            4 
  233000    1.2047328   -4.6908022    171.74556  0.061425449  0.064777196            2 
  234000    1.2213251   -4.7486451    172.23266  0.061336418  0.064768386            1 
  235000    1.2162975   -4.7352474    171.74194  0.060901398  0.064754483            4 
  236000    1.2353494   -4.7312183    172.86975  0.061041579   0.06474117            1 
  237000    1.2293848   -4.6917856     174.1719  0.061241877  0.064727704            1 
  238000    1.2077354   -4.7451046    173.80792  0.060857115  0.064711294            2 
  239000    1.2160765   -4.7375289     174.7413   0.06092793  0.064691259            2 
  240000    1.1860761   -4.7342663    176.47418  0.061275756  0.064671928            2 
  241000    1.2115301   -4.7193008     175.8984  0.060822408  0.064653462            3 
  242000    1.1928234    -4.757458    176.58474  0.060807418  0.064635976            2 
  243000    1.2154663   -4.7306387    178.47747  0.061206266  0.064619128            4 
  244000    1.2033841   -4.7392397    179.08868  0.061164166  0.064604941            2 
  245000    1.2049937   -4.7140496    179.42942  0.061030414  0.064594256            3 
  246000    1.2372486   -4.7800848    179.81675  0.060913533   0.06457901            9 
  247000    1.2103985   -4.6931887    181.48958  0.061231301  0.064563502            2 
  248000    1.1984201   -4.7519127     181.4116  0.060958199   0.06454799            2 
  249000    1.1949384   -4.6852916    183.00712  0.061247364  0.064534974            3 
  250000    1.1882225   -4.7106821    183.24699   0.06108233  0.064518066            3 
  251000    1.2340756   -4.7242917    183.71649   0.06099485  0.064499339            2 
  252000     1.188581   -4.7235259    184.24351  0.060927087  0.064478247            3 
  253000    1.1886708   -4.7195045    184.93714  0.060914736  0.064460093            2 
  254000    1.1882541   -4.7510102    184.78152  0.060623858  0.064438934            3 
  255000    1.2120121   -4.7004046    186.12749  0.060825979  0.064417393            2 
  256000    1.2023525   -4.7320218    186.40333  0.060678168  0.064390849            2 
  257000    1.2064811   -4.7486737     187.2909  0.060729864  0.064364834            2 
  258000    1.2363226   -4.7016394    187.87021  0.060681591  0.064337954            4 
  259000    1.2353533   -4.6992088    188.87541  0.060770724  0.064312266            3 
  260000     1.205605   -4.7396642    188.94294  0.060558635  0.064286583            4 
  261000    1.2154395   -4.7223126    189.60247  0.060537185  0.064262672            2 
  262000    1.1962282   -4.7345067    190.98774  0.060746738  0.064238821            1 
  263000    1.2212838   -4.7409724    191.02385  0.060527201  0.064215651            1 
  264000    1.2237129   -4.7615135     192.6018  0.060796023  0.064194812            3 
  265000    1.1797759   -4.7438004    192.41886  0.060509076  0.064175053            3 
  266000    1.2445257   -4.7106964    194.69122  0.060993489   0.06415637            2 
  267000    1.2088203   -4.7235934    194.90043  0.060830346   0.06413666            3 
  268000    1.1827228   -4.7380636     195.4815  0.060784048  0.064117229            3 
  269000    1.2146841   -4.7220152    195.89205  0.060685268  0.064097316            3 
  270000      1.20351   -4.7697115    196.01872  0.060499605  0.064075959            1 
  271000    1.2050489   -4.7438825    196.91966  0.060553401  0.064052711            2 
  272000     1.230373   -4.7585248    198.30532  0.060755308  0.064029871            7 
  273000    1.2200344   -4.6847677    200.16471  0.061100337  0.064011591            4 
  274000    1.2383204   -4.7647602    200.01833  0.060832825  0.063991636            3 
  275000     1.206246   -4.7816796    199.52468  0.060462023  0.063971378            3 
  276000     1.211983   -4.7197246     200.9144   0.06066256  0.063950882            2 
  277000    1.2049774    -4.724984    201.34402  0.060572811  0.063930468            1 
  278000     1.211769   -4.7227502    202.30533  0.060643085  0.063910171            2 
  279000    1.2049018   -4.7649224    202.72032  0.060549677  0.063888736            3 
  280000    1.2128556   -4.7599551    203.92067  0.060690674  0.063869119            3 
  281000    1.1910203    -4.766062     204.7789  0.060729212  0.063845554            4 
  282000    1.1553007   -4.7411747    205.61283  0.060760292  0.063824978            4 
  283000    1.2367136   -4.7531063    206.34468  0.060761096  0.063803658            1 
  284000    1.1751473   -4.7445788    206.72508  0.060658766  0.063781134            3 
  285000    1.1971819     -4.73468    207.32934  0.060622615  0.063760826            3 
  286000    1.2092422   -4.7178863    207.38328  0.060426363  0.063741421            3 
  287000    1.1987677    -4.764836    209.39472   0.06079986  0.063722019            2 
  288000     1.198142   -4.7081672    208.81512  0.060421042  0.063702101            2 
  289000    1.1955031   -4.7502281    209.85847  0.060512823  0.063681483            3 
  290000    1.2120611   -4.7526548    209.93204  0.060325299  0.063657722            3 
  291000    1.2073474   -4.7507249    212.24258  0.060779663  0.063638339            2 
  292000    1.1979051    -4.699839    212.17487   0.06055219  0.063617929            4 
  293000     1.212381   -4.7676721    212.78286  0.060518447  0.063598104            2 
  294000    1.2075351   -4.7434555    213.96356  0.060647268  0.063579447            2 
  295000    1.1928834    -4.755732    214.38595  0.060561003  0.063562646            7 
  296000    1.1871079   -4.7251313    214.52625  0.060395903  0.063542843            2 
  297000    1.2004887   -4.7317375    215.72359  0.060528504  0.063523156            2 
  298000    1.2264545   -4.7350605    216.69295  0.060596463  0.063502487            5 
  299000    1.2258027   -4.7302834    217.62384  0.060653244  0.063481508            2 
  300000    1.1976463   -4.7279519    217.30886  0.060363573  0.063460041            1 
  301000    1.2065271    -4.744172    218.81157  0.060579062  0.063441725            4 
  302000    1.1831414   -4.7910048    218.34184  0.060248851   0.06342226            2 
  303000    1.2237089   -4.7483426    219.83464  0.060460573  0.063403585            2 
  304000    1.2062536   -4.7270637    221.07343  0.060601268  0.063385829            2 
  305000    1.2271291   -4.7227606    222.69279  0.060845023  0.063369657            5 
  306000     1.201884   -4.7836688    221.93203  0.060439006  0.063354896            6 
  307000    1.1997619   -4.7780486    222.83712  0.060487818   0.06333778            5 
  308000    1.2252871   -4.7832602    224.75861  0.060811311  0.063322844            1 
  309000    1.1958152   -4.7354812    224.37993  0.060512386  0.063308342            3 
  310000    1.2121207   -4.7350513    225.30928  0.060567011  0.063293381            2 
  311000    1.2022624   -4.7631877    226.12636  0.060591201  0.063279613            2 
  312000    1.2172047   -4.7448384    226.55181  0.060510634  0.063265848            3 
  313000    1.2106874   -4.7369773     228.0409  0.060713766  0.063250539            7 
  314000    1.2226478   -4.7479252    229.11444  0.060805318  0.063236603            2 
  315000    1.2122835   -4.7944093    228.62929  0.060483939  0.063221977            3 
  316000     1.172443   -4.7433719     229.5676  0.060539978  0.063207429            3 
  317000    1.2216964   -4.7562757    230.52451  0.060600555  0.063191969            1 
  318000    1.2048377   -4.7482574    232.10959  0.060825365  0.063176636            1 
  319000     1.213199   -4.7045299    234.09836   0.06115422  0.063161261            3 
  320000    1.1941394   -4.7835577     232.5737  0.060566067  0.063146639            3 
  321000    1.1948176   -4.7603493    233.09707  0.060513258  0.063131345            2 
  322000     1.224105   -4.7482342    235.07283  0.060836655  0.063116312            2 
  323000     1.205671   -4.7790864    234.35318  0.060462637    0.0631018            5 
  324000    1.1827708   -4.7897658    234.44658  0.060300047  0.063085146            3 
  325000    1.1834277   -4.7328344    236.37206  0.060608221  0.063070125            2 
  326000    1.2061078   -4.7519228    237.39893  0.060684797  0.063055128            5 
  327000    1.2085654   -4.7335931    237.80248  0.060602058  0.063039634            3 
  328000    1.1907627   -4.7871456    238.08067  0.060487975  0.063027438            3 
  329000    1.2002601   -4.7757151    239.21352  0.060591063  0.063013541            5 
  330000    1.2052066   -4.7600305    239.49539  0.060478635  0.063000477            4 
  331000    1.2129722   -4.7664945    240.07787  0.060442565  0.062985581            2 
  332000    1.2216237   -4.7845606     240.8747  0.060460516  0.062970778            1 
  333000    1.1739659   -4.7527456    241.27102  0.060378132  0.062954641            3 
  334000    1.2024662   -4.7980547    241.87664  0.060348463  0.062934817            4 
  335000    1.1994994   -4.7593966    240.85718   0.05991472  0.062913417            2 
  336000    1.1810199   -4.7909513    242.31616  0.060098253  0.062892316            2 
  337000    1.2157991   -4.7705501    244.12735  0.060367793  0.062872755            1 
  338000    1.1730617   -4.7549688    244.61419  0.060309219  0.062855048            2 
  339000     1.185898   -4.7459368    245.52293  0.060354703  0.062837157            2 
  340000    1.2127648   -4.7083394    246.81409   0.06049365  0.062820882            3 
  341000     1.218567   -4.7530195     246.5188  0.060244085  0.062801292            1 
  342000    1.2034891   -4.7670435    246.46407  0.060054597  0.062782232            3 
  343000    1.1994265   -4.7791315    248.74175  0.060432883  0.062761631            1 
  344000    1.2077155   -4.7858943      248.308  0.060152131  0.062742603            5 
  345000    1.1840335   -4.7525499    249.10136   0.06016941  0.062722449            2 
  346000    1.1900577   -4.7601857     249.2472  0.060030635   0.06270095            2 
  347000    1.1823761   -4.7236767    250.53141  0.060166044  0.062680168            2 
  348000    1.1697317   -4.8007619    250.05618  0.059879354  0.062657374            2 
  349000    1.2247534   -4.7731784    250.88431  0.059905519  0.062636952            2 
  350000      1.19866   -4.7888107    250.24388  0.059581875  0.062614478            2 
  351000    1.2209308   -4.7947859    251.91648  0.059809231  0.062592876            2 
  352000    1.1920666   -4.8032509    252.19737  0.059705817  0.062571809            6 
  353000    1.2061409   -4.7996356    253.44353  0.059830862  0.062550543            2 
  354000    1.2050165   -4.7630968    254.78958  0.059978714  0.062531944            1 
  355000    1.1810884   -4.7899664    254.62449  0.059771008  0.062510388            4 
  356000    1.1988626   -4.7137752    257.12044   0.06018737  0.062489628            1 
  357000     1.185934   -4.7972541    257.51596  0.060111101    0.0624695            1 
  358000    1.2150813   -4.7720725    257.51723   0.05994349  0.062449391            3 
  359000    1.2074744   -4.7668715    258.70539  0.060052319  0.062429226            2 
  360000    1.2008354   -4.7566927    259.24939  0.060011433  0.062409475            2 
  361000    1.1768221   -4.7766441    259.39635  0.059879119   0.06239004            1 
  362000     1.200074   -4.7688684    261.21603  0.060132603  0.062371623            3 
  363000    1.2212004   -4.7603567    262.26676  0.060208163  0.062355931            1 
  364000    1.2059393   -4.7821317    263.18069   0.06025199  0.062340012            3 
  365000    1.2023802   -4.7801702    262.80782  0.060001785  0.062322815            1 
  366000    1.1999932   -4.7800323    262.82106   0.05984086  0.062304381            1 
  367000    1.1842358   -4.7665494    264.58229  0.060077722    0.0622866            2 
  368000    1.1879588   -4.8175989    263.18809  0.059598752   0.06226924            3 
  369000    1.1946427   -4.7522239    265.86041  0.060040743  0.062253531            7 
  370000    1.2139557   -4.7258729    267.33854  0.060211382  0.062236643            2 
  371000    1.2062846    -4.798822    266.15156  0.059782471  0.062219406            2 
  372000    1.1886582   -4.7806848    268.10462  0.060059279  0.062203162            2 
  373000    1.2144504   -4.7530473    268.97235  0.060092124  0.062188817            3 
  374000     1.207377   -4.7753157    269.16575  0.059974544   0.06217421            4 
  375000    1.2204092   -4.7739634    271.18077  0.060262393  0.062160131            2 
  376000      1.22708   -4.7469071    271.85651  0.060251886  0.062145967            2 
  377000    1.1785187   -4.7503124    273.37204  0.060427064  0.062134704            2 
  378000    1.1923798   -4.7969226    274.04514  0.060415595  0.062123664            2 
  379000    1.1823452    -4.799158     273.6774  0.060175331  0.062113684            3 
  380000     1.191244   -4.7547354    275.18419  0.060347409  0.062104741            1 
  381000    1.1827523   -4.7907253    275.22623  0.060198212  0.062093969            1 
  382000    1.1935116   -4.7913429     275.1319  0.060020048  0.062081772            2 
  383000    1.2200282   -4.7571255    276.32987  0.060123992  0.062070257            4 
  384000     1.190424   -4.7963085    277.96988  0.060323324  0.062059017            2 
  385000    1.2053575   -4.7845169    278.30206  0.060238542  0.062046645            1 
  386000    1.2012723   -4.7940411    278.66927   0.06016176  0.062035002            2 
  387000    1.2048151   -4.7658618    279.39823  0.060163271  0.062023443            2 
  388000    1.1978969   -4.7837562    278.08011  0.059725109  0.062009845            3 
  389000    1.1988004   -4.7796331    281.08973  0.060216309    0.0619947            1 
  390000    1.1800791   -4.7954665    280.07384  0.059844837  0.061980649            4 
  391000    1.2054714   -4.7633493     282.3506  0.060177024  0.061966171            4 
  392000    1.1679404   -4.7806138    283.07655  0.060177838  0.061950263            1 
  393000    1.1951985   -4.7605732    283.54035  0.060123061  0.061935904            3 
  394000    1.1881128    -4.745068    283.47792  0.059957259  0.061922048            3 
  395000    1.1853795    -4.764992    284.54898  0.060031431  0.061909958            1 
  396000    1.1907447    -4.770528    285.10279  0.059996378  0.061896337            2 
  397000    1.1902429   -4.7209011    287.20546   0.06028662  0.061882098            4 
  398000    1.1933318   -4.7362841    287.60523  0.060218851  0.061868738            3 
  399000    1.1457811    -4.756883     287.8157  0.060111884  0.061853306            2 
  400000    1.1866039   -4.7989902    287.07205  0.059806677  0.061837658            6 
  401000    1.2094682   -4.7767324    289.72105  0.060208032  0.061822709            2 
  402000    1.1751976   -4.8113085    289.71326  0.060056645  0.061809439            5 
  403000    1.1763975   -4.7170866    291.37058  0.060250326  0.061797581            1 
  404000    1.2003596   -4.7345096    291.47824  0.060123399  0.061786448            1 
  405000    1.1931002   -4.7726295    293.16618   0.06032226  0.061778279            2 
  406000    1.1629319     -4.80794    293.42068  0.060225919  0.061769099            2 
  407000    1.2115759   -4.7927863    292.89787  0.059970898  0.061759125            4 
  408000    1.1624225   -4.7588598    294.79026  0.060210428  0.061747599            1 
  409000    1.1797419   -4.7772034    294.27295  0.059957815  0.061737655            1 
  410000    1.1816473   -4.7780172    295.86487  0.060135136  0.061727955            5 
  411000    1.1932256   -4.7190982     297.0696  0.060233091  0.061718006            2 
  412000    1.1991783   -4.7604461    298.49864  0.060375939  0.061707252            2 
  413000    1.2032548   -4.7542418    297.36177  0.060000356  0.061695768            1 
  414000    1.1745206   -4.7516171    299.09322  0.060203949  0.061685814            2 
  415000     1.189914    -4.783751    300.30823  0.060302857   0.06167584            2 
  416000    1.1863663   -4.7714267    302.08535  0.060513892  0.061668166            1 
  417000    1.1670339   -4.7572933     300.6135   0.06007464  0.061659833            3 
  418000    1.1749501   -4.7400134    303.13368   0.06043335   0.06165132            3 
  419000    1.1777335   -4.8076105    302.74598  0.060212008  0.061643429            2 
  420000    1.2252107   -4.7986241    304.54428  0.060425453  0.061636777            2 
  421000     1.173555   -4.7627525    306.68415  0.060705492  0.061630883            9 
  422000    1.1937134   -4.7584924    305.95545  0.060417743  0.061625579            2 
  423000    1.2019664   -4.7773325    304.94526  0.060075899  0.061617644            2 
  424000    1.1710088   -4.8236401    305.44485    0.0600324  0.061610528            3 
  425000    1.1803031   -4.8121304    306.00149  0.060000293  0.061602279            4 
  426000    1.1831989   -4.7418698    310.61415  0.060761766  0.061595311            1 
  427000    1.1635174   -4.7953252    308.66591  0.060239249  0.061589276            2 
  428000     1.168151   -4.7584514    311.17944  0.060587897  0.061585342            1 
  429000    1.1468119   -4.7670077     310.2862  0.060273155   0.06158128            2 
  430000    1.2153644   -4.7602877    312.84224  0.060628341  0.061577652            2 
  431000    1.1842077   -4.7858599     313.4737  0.060609765  0.061574861            3 
  432000    1.1738801   -4.8044234    314.88645  0.060741985  0.061571911            2 
  433000    1.1727285   -4.7971659    314.38243  0.060504702  0.061569532            2 
  434000    1.1749073     -4.78807    315.39214  0.060559167  0.061568575            3 
  435000     1.180749   -4.7793973    317.43101  0.060810539  0.061568584            4 
  436000    1.1885986   -4.7722596    317.51222  0.060686587  0.061566918            3 
  437000    1.1788684   -4.7980316    318.96533  0.060824814  0.061565589            1 
  438000    1.1900117   -4.7901978    318.91057  0.060675528  0.061564915            4 
  439000    1.1747124   -4.7836089    320.43016  0.060825771  0.061564688            1 
  440000    1.1643051   -4.8047093    318.97225  0.060411411   0.06156328            2 
  441000    1.1605366   -4.7861816    321.08302  0.060673284   0.06156033            2 
  442000    1.1788959   -4.7667589    321.97022  0.060703284  0.061559423            1 
  443000    1.1975102   -4.7897164    322.65047   0.06069422  0.061557593            4 
  444000    1.2179733   -4.7732231    324.59528  0.060922537  0.061558022            3 
  445000    1.1733667   -4.7819507    325.38359  0.060933257   0.06155938            3 
  446000    1.1770504   -4.7933455    324.58343  0.060647128  0.061560649            4 
  447000    1.1659136    -4.791202    326.32219  0.060835606  0.061560697            2 
  448000    1.1647484   -4.8012256    325.34552   0.06051814  0.061560529            5 
  449000    1.1699879   -4.7548419    327.51592  0.060786177  0.061557858            3 
  450000    1.1914071   -4.7584536    328.73636  0.060877103  0.061555937            2 
  451000    1.1531789   -4.7779382    328.81571  0.060756784  0.061555491            4 
  452000    1.1693513   -4.7897974    330.21589  0.060880511   0.06155345            2 
  453000    1.1825511   -4.8094786    329.45434  0.060606023  0.061552278            2 
  454000    1.1738333    -4.809705    329.80269   0.06053647  0.061551759            5 
  455000    1.1744189   -4.7731421    331.79804  0.060768871   0.06155071            3 
  456000    1.1868989   -4.7924709    331.53271  0.060587119  0.061550078            2 
  457000    1.1890148   -4.7816144     333.5791  0.060827699  0.061549646            2 
  458000    1.1667661   -4.7892891     334.2873  0.060823745  0.061549704            3 
  459000    1.1731176   -4.7951567    333.63938  0.060573597  0.061550416            4 
  460000    1.1577413   -4.7979741    336.05392  0.060879334   0.06155007            4 
  461000    1.1709432   -4.8081664    335.37946  0.060625355  0.061550534            2 
  462000    1.1847551   -4.8188312    335.77205  0.060564944  0.061549603            2 
  463000    1.1547155   -4.7828857    337.24712  0.060699625  0.061548372            1 
  464000    1.1856441   -4.7683606    337.58267  0.060629072  0.061545859            1 
  465000    1.1773453   -4.7807348    338.46574  0.060656942  0.061542961            4 
  466000    1.1824788    -4.752577    338.16623  0.060473217  0.061540807            4 
  467000    1.1872245   -4.7708172    339.15739  0.060520591  0.061538816            2 
  468000     1.173769    -4.776846    340.30356  0.060595364  0.061536448            1 
  469000    1.1752601   -4.8359014    340.59892  0.060518642  0.061534027            4 
  470000    1.1644493   -4.8016092    341.01097  0.060462937  0.061531626            2 
  471000    1.1965215   -4.7688441    342.59452  0.060614741  0.061527588            2 
  472000    1.1834738    -4.793723    344.27574  0.060783146  0.061525692            2 
  473000    1.1627646   -4.7909077    343.59331   0.06053441  0.061524263            3 
  474000      1.19202   -4.8316845    342.63973  0.060239053  0.061521112            1 
  475000    1.1585222   -4.7626503    345.91239  0.060686385  0.061517632            5 
  476000    1.1589624   -4.7651568    346.64188  0.060686603  0.061516101            2 
  477000    1.1884794   -4.7642089    347.16993  0.060651631  0.061513036            3 
  478000    1.1642423   -4.7956953    346.31454  0.060375616  0.061509233            5 
  479000    1.1707265   -4.7804587    348.04054   0.06054985  0.061504433            7 
  480000    1.1723068   -4.8088744     349.0664  0.060601806   0.06149961            3 
  481000    1.1735503   -4.7491628    350.01351  0.060639901  0.061496446            1 
  482000    1.1544811   -4.7922287    349.82948  0.060482275  0.061492705            1 
  483000    1.1720379   -4.8003492    347.49901  0.059954971  0.061486191            4 
  484000    1.2062185   -4.8102858    349.88021  0.060241084   0.06147998            1 
  485000    1.1908346   -4.7948522    348.76504  0.059925265  0.061473057            9 
  486000    1.1425525   -4.8018754    350.67467  0.060129402  0.061465607            3 
  487000    1.1601298   -4.8162027    351.30969  0.060114594  0.061457777            5 
  488000    1.1620098   -4.8526055    352.50073  0.060194796  0.061451623            6 
  489000    1.1677922   -4.7928694     353.1121  0.060175885  0.061444946            3 
  490000    1.1905088   -4.8124479    353.04295  0.060041317  0.061438157            5 
  491000    1.1630771   -4.7781086    354.75406  0.060209447   0.06143011            3 
  492000    1.1895172    -4.773378    355.81142  0.060266162  0.061422415            3 
  493000    1.1626908   -4.7793655    357.03957  0.060351517    0.0614153            2 
  494000    1.1741621   -4.8301477    354.11943  0.059736747  0.061407609            2 
  495000    1.2132038   -4.8162919    356.64989  0.060042068  0.061399595            2 
  496000    1.1665918   -4.7889486    357.64779  0.060088674  0.061390825            1 
  497000    1.1684845   -4.7821376    359.05835  0.060204284  0.061381976            3 
  498000    1.1610259   -4.8416362    358.90384  0.060057537  0.061374063            1 
  499000    1.1670281   -4.8113326    359.30943  0.060004915  0.061365426            2 
  500000    1.1578397   -4.8137439    359.97204   0.05999534  0.061355986            1 
  501000    1.1605591   -4.7944924     361.9416  0.060203193  0.061347996            3 
  502000    1.1504444   -4.8319203    360.45548  0.059836567  0.061339352            4 
  503000    1.1739407   -4.7874907    362.55136  0.060064837   0.06132997            2 
  504000    1.1810229   -4.8080531    364.06601  0.060196099  0.061321791            2 
  505000    1.1779638   -4.8188157    361.94265   0.05972651  0.061312547            2 
  506000    1.1447217   -4.8161751    362.83729  0.059755812  0.061302607            2 
  507000    1.1708531   -4.8230732    364.43907  0.059901227  0.061292565            5 
  508000    1.1604376   -4.7755105    366.23524   0.06007796  0.061283446            2 
  509000    1.1673802   -4.8125315    363.99143  0.059592572  0.061275027            2 
  510000    1.2004995   -4.8305888    366.00284  0.059804385  0.061264821            5 
  511000    1.1769353   -4.8069896    367.42512  0.059919296  0.061255524            1 
  512000    1.1550683   -4.7933422    369.29603  0.060106775  0.061247473            2 
  513000    1.1844882   -4.7988024    369.64504  0.060046303   0.06123948            2 
  514000     1.186417   -4.8158966    371.43654  0.060219932  0.061231912            2 
  515000    1.1541747   -4.7858479    371.50207  0.060113604  0.061224771            2 
  516000     1.187334   -4.8320017    370.58368  0.059848786   0.06121804            2 
  517000    1.1631542   -4.8184578    373.04239  0.060129335  0.061211646            3 
  518000    1.1807428   -4.7938745     372.8954  0.059989608  0.061204672            3 
  519000     1.143256   -4.7897958    373.82032  0.060022531  0.061196967            4 
  520000    1.1622626    -4.797188    372.92363  0.059763402  0.061189617            2 
  521000    1.1731601   -4.8248683    375.63332  0.060082106  0.061181154            1 
  522000    1.1543247   -4.8247467    374.42537  0.059774165   0.06117272            1 
  523000     1.153884    -4.809722    377.41407  0.060136085  0.061164805            2 
  524000    1.1782117   -4.8197044    376.83186  0.059928731  0.061156976            3 
  525000     1.176946   -4.8310632    377.26469  0.059883284  0.061148914            2 
  526000    1.1760219   -4.8329699    377.63056  0.059827401  0.061140775            6 
  527000    1.1641697   -4.8257176    379.78468  0.060054504  0.061134881            3 
  528000    1.1885867   -4.7927162    381.26597  0.060174553  0.061127799            1 
  529000    1.1800904   -4.8084049    380.70841  0.059972969  0.061120941            3 
  530000    1.1907226   -4.8095995    381.13814  0.059927381  0.061114966            2 
  531000     1.168735   -4.8234774    383.44773  0.060176982  0.061108447            2 
  532000    1.1747496    -4.815395    384.41801  0.060215854  0.061101545            3 
  533000    1.1727507   -4.7792795    384.74378  0.060153812  0.061095562            3 
  534000    1.1657307   -4.8084921    383.54645  0.059854314  0.061090387            4 
  535000    1.1677027   -4.8424667    384.80203  0.059938011  0.061084338            2 
  536000    1.1769609   -4.8031614    386.95208   0.06016046  0.061079674            4 
  537000    1.1818874   -4.7829463    387.36635  0.060112717  0.061072867            3 
  538000    1.1712437   -4.8544913    387.70757  0.060053836  0.061067302            3 
  539000    1.1322627    -4.801352    387.69744  0.059940854  0.061061007            2 
  540000    1.1612445   -4.7619052    390.26346  0.060225843  0.061054866            2 
  541000    1.1557861   -4.7997671    389.21378  0.059952831  0.061047958            1 
  542000    1.1595286   -4.8224968     388.8896  0.059792374  0.061041599            3 
  543000    1.1813815   -4.8254477    390.17517  0.059879554  0.061034747            7 
  544000    1.1525595   -4.7997899    390.85843  0.059874147  0.061028093            2 
  545000    1.1623237   -4.7756123    392.69906  0.060045727   0.06102085            3 
  546000    1.1639183   -4.8221628    391.47127  0.059748363  0.061013053            1 
  547000    1.1585426   -4.8098021    393.72528  0.059982523  0.061005371            1 
  548000    1.1705977   -4.8170112     392.1394  0.059631903  0.060997442            3 
  549000    1.1555072   -4.8200877     395.2275   0.05999203  0.060990552            3 
  550000    1.1657659    -4.786675    396.39048  0.060059163  0.060983274            2 
  551000    1.1715068   -4.8339831    394.77814  0.059706313  0.060975576            3 
  552000    1.1655292   -4.8532541    395.57554   0.05971853  0.060968153            4 
  553000    1.1819019   -4.7960493    399.09176   0.06014041  0.060961078            4 
  554000    1.1709861   -4.7825279    397.94384  0.059859182  0.060953061            3 
  555000    1.1954439   -4.8225037    395.95214  0.059452273  0.060944032            2 
  556000    1.1704608   -4.7879192    399.83715  0.059927631  0.060935094            2 
  557000    1.1704706   -4.8287298    399.18992  0.059723207  0.060925758            2 
  558000    1.1631556   -4.8468669    399.06438  0.059597428  0.060917382            2 
  559000     1.151747   -4.8193177    401.81784  0.059901288  0.060908031            2 
  560000    1.1710403   -4.8246118    401.77373  0.059787757  0.060899849            7 
  561000    1.1583074    -4.833117    400.71735  0.059524265  0.060891212            4 
  562000    1.1674254   -4.8249183    400.88368  0.059443014  0.060882853            2 
  563000    1.1688716   -4.8410706    401.51939  0.059431526  0.060872977            2 
  564000    1.1277383   -4.8328946    402.34705  0.059448442  0.060864384            1 
  565000    1.1257391   -4.7872813     403.9318  0.059576961  0.060854688            3 
  566000    1.1555524   -4.8517534    403.00887  0.059335817  0.060843881            3 
  567000    1.1582686   -4.8423866    404.66131  0.059474032  0.060832481            3 
  568000    1.1331544   -4.8344033     405.6269  0.059510988  0.060822584            4 
  569000    1.1506712   -4.8390949    404.66874  0.059266071  0.060812743            3 
  570000    1.1601445    -4.818406    406.38743  0.059413367  0.060802308            3 
  571000    1.1745043   -4.8504849    407.85702  0.059523792  0.060792365            2 
  572000    1.1667844   -4.8736104    407.36884  0.059348607  0.060781174            3 
  573000     1.171003   -4.8421818    407.53263  0.059268852  0.060768546            4 
  574000    1.1650064   -4.8350061    408.11186   0.05924969  0.060757279            2 
  575000    1.1695369   -4.8171905    410.14209  0.059440883  0.060745532            4 
  576000    1.1494814   -4.8055922     410.3043  0.059361154  0.060734711            3 
  577000    1.1756468    -4.832001    410.12398  0.059232233   0.06072385            3 
  578000    1.1858461   -4.8100637     411.3961  0.059313164  0.060712234            3 
  579000    1.1521865   -4.8360041    411.49381  0.059224786  0.060700454            2 
  580000    1.1986739   -4.7933403    414.70631   0.05958424  0.060688433            2 
  581000    1.1485912   -4.8210372    411.65026  0.059043353  0.060675371            2 
  582000    1.1359923   -4.8123656    413.92191   0.05926717  0.060662285            2 
  583000    1.1684545   -4.8110208    413.95397  0.059170093  0.060649899            3 
  584000    1.1292139   -4.8321024    415.09282  0.059231281  0.060637819            2 
  585000    1.1798537   -4.8417604    414.96816  0.059112274  0.060626323            5 
  586000    1.1357536   -4.8155649    415.28475   0.05905642  0.060614908            2 
  587000    1.1457244   -4.8110848    417.00861   0.05920054  0.060603426            3 
  588000    1.1534473   -4.8619769     416.4791  0.059024816  0.060590567            2 
  589000    1.1565173   -4.8361002    417.16838  0.059022125  0.060576399            4 
  590000    1.1513093   -4.8271355     416.1901  0.058783913  0.060562208            4 
  591000     1.202184   -4.8468902    416.96745  0.058794056  0.060548347            3 
  592000    1.1244793   -4.7956749    421.06551  0.059271608  0.060533761            2 
  593000    1.1665345    -4.829238    420.37018  0.059073942  0.060519931            3 
  594000    1.1600344   -4.8694752    420.51701  0.058995091  0.060506442            3 
  595000    1.1582487   -4.8108268    421.82477  0.059079099  0.060492916            2 
  596000    1.1486807   -4.8693743    422.92748  0.059134156  0.060480306            1 
  597000    1.1627711   -4.8386039     422.2349  0.058938429  0.060467123            2 
  598000    1.1705032   -4.8467953    422.52869  0.058880809  0.060454073            4 
  599000    1.1270199   -4.8452705    423.14726  0.058868567  0.060441293            2 
  600000    1.1626376   -4.8304296    425.37555  0.059079937   0.06042834            1 
  601000     1.154242   -4.8289767    424.93421   0.05892044  0.060415543            1 
  602000    1.1360676   -4.8240703    425.43872  0.058892404  0.060401492            2 
  603000    1.1527802   -4.8274418    426.35379  0.058921198  0.060388587            3 
  604000    1.1488926   -4.8420082    426.15412  0.058796098   0.06037507            2 
  605000    1.1621156   -4.8318955    426.62264  0.058763448  0.060362029            4 
  606000    1.1582908   -4.8363332    426.99455  0.058717623  0.060347954            2 
  607000    1.1478856   -4.8243338     428.5554  0.058835173  0.060335255            1 
  608000    1.1380832   -4.8217281    429.65126  0.058888605   0.06032258            3 
  609000    1.1260031   -4.8221884    429.33324  0.058748391  0.060309293            4 
  610000    1.1341678   -4.8348209    430.06065  0.058751455  0.060296431            3 
  611000    1.1563656   -4.8383013    430.85851  0.058764117   0.06028303            4 
  612000    1.1391567   -4.8492761     432.1607  0.058845411  0.060269513            2 
  613000    1.1674441   -4.8207514     433.1332   0.05888162   0.06025635            2 
  614000     1.167391   -4.8447453    433.05051  0.058774499  0.060243193            2 
  615000    1.1504279   -4.8170451    434.07247  0.058817408  0.060230058            3 
  616000    1.1378641   -4.8335825    434.34759  0.058759144  0.060216033            1 
  617000    1.1490464   -4.8057195    435.15721  0.058773259  0.060203783            3 
  618000     1.140651   -4.8194601    435.92381  0.058781528  0.060190486            1 
  619000    1.1385549   -4.8321227     435.6473   0.05864934  0.060176475            4 
  620000    1.1431829   -4.8448696     435.3136  0.058509893  0.060162828            4 
  621000     1.133258   -4.8378004    437.60266  0.058722848  0.060148072            3 
  622000    1.1611899   -4.8246901      437.194  0.058573687  0.060133523            5 
  623000    1.1496339   -4.8391192    437.37984  0.058504527  0.060118674            2 
  624000     1.146257   -4.8505253    439.17755  0.058650847   0.06010412            3 
  625000    1.1491673   -4.7932357    440.39393   0.05871919  0.060089912            4 
  626000    1.1508518   -4.8292725    439.55351  0.058513513  0.060075726            5 
  627000    1.1558856   -4.8381267    439.63903  0.058431557  0.060061008            3 
  628000     1.156091   -4.8311191    440.58037  0.058463426   0.06004659            2 
  629000    1.1453226   -4.8651619    440.08169   0.05830441  0.060031863            2 
  630000    1.1522203   -4.8415875    442.80659    0.0585723  0.060017103            2 
  631000    1.1559332   -4.8918851    441.86269  0.058354819  0.060003458            6 
  632000    1.1741164   -4.8422714     443.7059  0.058505525  0.059988814            1 
  633000     1.128069   -4.8357263    444.47809  0.058514757  0.059973612            2 
  634000    1.1391043   -4.8498372    444.43988   0.05841744  0.059959439            2 
  635000    1.1447994   -4.8552089    445.39704  0.058451055  0.059944609            2 
  636000    1.1485635   -4.8223557    445.00405  0.058307659  0.059930134            4 
  637000    1.1515799   -4.8042757    446.40877  0.058399891  0.059916061            3 
  638000     1.120395    -4.827005    445.35699  0.058170976  0.059900129            2 
  639000    1.1678879   -4.8369769    447.07534  0.058304034  0.059884748            2 
  640000    1.1527999   -4.8776421    445.38315  0.057992598  0.059868932            2 
  641000      1.16738   -4.8748825    446.92578  0.058102675  0.059853332            3 
  642000    1.1543232    -4.835391    447.64132  0.058105052  0.059837409            2 
  643000    1.1272463   -4.8446436    446.68023  0.057890128  0.059820091            2 
  644000     1.169757   -4.8627077    450.49946  0.058294444   0.05980365            3 
  645000    1.1462659   -4.8433421    449.17325   0.05803272  0.059786972            2 
  646000    1.1495909    -4.856453    450.91537  0.058167618  0.059770884            3 
  647000    1.1429375   -4.8419462    451.17368  0.058110984   0.05975516            3 
  648000    1.1540742   -4.8299115    452.64426  0.058210424  0.059739415            2 
  649000    1.1416578   -4.8553111    452.68053  0.058125389  0.059723438            1 
  650000    1.1051315   -4.8625709    451.78539  0.057921204  0.059706057            3 
  651000    1.1576732   -4.8932209    451.58129  0.057806104  0.059689835            6 
  652000    1.1476263   -4.8235053    456.92326  0.058400212  0.059673893            1 
  653000    1.1609618   -4.8404889    455.41688   0.05811854  0.059659285            1 
  654000     1.151862   -4.8414578     455.0656  0.057984914  0.059642512            1 
  655000    1.1470985   -4.8219535    456.80644  0.058117867  0.059626582            3 
  656000    1.1450332   -4.8653314    454.92596  0.057790391  0.059610393            2 
  657000    1.1481022   -4.8903503    454.11132  0.057599102  0.059593094            3 
  658000    1.1383121   -4.8506909    457.40899  0.057929204  0.059577246            3 
  659000    1.1430194   -4.8618231    457.13073  0.057806111  0.059560995            3 
  660000     1.131912   -4.8439965    457.76201  0.057798234  0.059544874            3 
  661000    1.1494358   -4.8648203    458.40124  0.057791382  0.059529546            4 
  662000    1.1312863    -4.851273    460.31981  0.057945596  0.059513144            4 
  663000    1.1358855    -4.822812    459.21596  0.057719451  0.059496804            4 
  664000    1.1248389   -4.8619892    462.56574  0.058052929  0.059481608            2 
  665000     1.147902   -4.8367877    461.15663  0.057789051  0.059464917            2 
  666000    1.1276262    -4.855068    459.82816  0.057536056  0.059448028            2 
  667000    1.1428087   -4.8370676    463.01612  0.057848091  0.059431025            3 
  668000    1.1383707   -4.8483335    462.96072  0.057754581  0.059414156            4 
  669000    1.1624272   -4.8741295    462.91828  0.057662965  0.059397043            2 
  670000    1.1478296   -4.8429317     463.2136  0.057613631   0.05937955            4 
  671000    1.1376197    -4.842248     464.0157  0.057627384  0.059363241            5 
  672000    1.1323604   -4.8519837    466.53909   0.05785455  0.059345815            4 
  673000    1.1531537   -4.8344159    465.65463  0.057659068  0.059329234            2 
  674000    1.1643364   -4.8851529     465.4111   0.05754341  0.059312744            6 
  675000    1.1198275   -4.8514632    466.81996  0.057632094  0.059296236            2 
  676000    1.1462239   -4.8543356    466.88107  0.057554373     0.059279            5 
  677000    1.1635661   -4.8642164    468.51562  0.057670559  0.059261897            3 
  678000    1.1451928   -4.8523857    468.63066  0.057599639  0.059244853            6 
  679000    1.1590606   -4.8623464    468.50495  0.057499381  0.059227974            4 
  680000    1.1642362   -4.8975435    468.96498  0.057471199  0.059210651            4 
  681000     1.130578   -4.8929537    469.29348  0.057427004  0.059193526            3 
  682000    1.1782969   -4.8330497    471.02959  0.057554935  0.059177335            2 
  683000    1.1395124   -4.8953138    470.46464  0.057401737  0.059161509            2 
  684000    1.1407045   -4.8589824    473.06523  0.057634652  0.059145471            3 
  685000    1.1350896   -4.8691065    473.09674  0.057554348  0.059129354            2 
  686000    1.1523116   -4.8570967     473.8157  0.057557786  0.059113026            2 
  687000    1.0961114   -4.8612744    474.69269  0.057580384  0.059095895            3 
  688000    1.1237162   -4.8849383    473.46657   0.05734818  0.059079365            5 
  689000    1.1337242   -4.8715015    474.30047  0.057365804  0.059062484            1 
  690000    1.1177486   -4.8301892     475.8919  0.057474868  0.059045536            2 
  691000    1.1406204   -4.8895547    475.34531  0.057325773  0.059029262            2 
  692000    1.1446237   -4.8581392    476.47018  0.057378394  0.059012609            2 
  693000    1.1731086   -4.8537367    477.08404  0.057369413  0.058994795            1 
  694000    1.1455149   -4.8520814    477.21078  0.057301967  0.058978733            1 
  695000    1.1217946   -4.8234174    477.00184  0.057194465  0.058962098            1 
  696000    1.1706108   -4.8460662     480.7658  0.057562955  0.058945024            1 
  697000    1.1462512   -4.8747651    477.97348  0.057146518  0.058927854            4 
  698000    1.1271687   -4.8513252    477.81421  0.057045632  0.058910489            3 
  699000    1.1772998   -4.8844738    479.72218  0.057191486  0.058893293            5 
  700000    1.1290472   -4.8827315    480.08157  0.057152568   0.05887593            7 
  701000    1.1363723   -4.8392962    481.71036  0.057264664  0.058858969            3 
  702000    1.1771192   -4.8535983    483.81328  0.057432725  0.058842837            2 
  703000    1.1241234   -4.8445904    484.88122  0.057477622  0.058826854            3 
  704000    1.1451644   -4.8679202    482.37298  0.057099074  0.058809638            3 
  705000    1.1525097   -4.8842178     485.0709  0.057336986   0.05879237            5 
  706000    1.1465264   -4.8373533    483.82898  0.057109181  0.058775398            2 
  707000    1.1099958   -4.9158856    482.77325  0.056903966  0.058757498            3 
  708000    1.1345934   -4.9041836    484.10919  0.056980837  0.058739332            4 
  709000    1.1104112   -4.8575224    484.53233  0.056950203  0.058721468            3 
  710000    1.1275945   -4.8553012    484.63649  0.056882217  0.058703846            2 
  711000    1.1363962   -4.8799627    485.17918   0.05686582  0.058685752            3 
  712000    1.1345004   -4.8816717    486.45631  0.056935429  0.058667838            3 
  713000      1.16302   -4.8235531    487.67212  0.056997677  0.058649184            3 
  714000    1.1421385   -4.8326537    486.35527  0.056764154  0.058630169            1 
  715000    1.1311044   -4.8920072    488.20374  0.056900202  0.058610264            1 
  716000    1.1406952   -4.8525662    487.78714  0.056772246  0.058590542            2 
  717000    1.1352979   -4.8637402    487.77098  0.056691188  0.058570671            1 
  718000    1.1168047   -4.8580883    487.63456  0.056596398  0.058550657            3 
  719000    1.1331607   -4.8802079    489.53232  0.056737636  0.058531281            3 
  720000    1.1163233   -4.8711991    487.32941  0.056403866  0.058511673            2 
  721000    1.1429321   -4.8927744    488.68595  0.056482426  0.058492312            4 
  722000    1.1253538   -4.8416087    488.72477  0.056408676  0.058473233            5 
  723000    1.1311191   -4.9095702    489.74991  0.056448814  0.058453749            3 
  724000    1.1375098   -4.8618385    490.36652  0.056441818  0.058433409            2 
  725000    1.1371177   -4.8628281    492.90362  0.056655588  0.058413326            6 
  726000    1.1263512   -4.8459055    493.94891  0.056697534  0.058394306            2 
  727000     1.144244    -4.854589    495.24509  0.056768122  0.058376549            1 
  728000    1.1439077   -4.8467762    495.16193  0.056680624  0.058358176            2 
  729000    1.1201034   -4.8908167    495.39972  0.056630054  0.058339524            3 
  730000    1.1285566   -4.8625103    495.83311  0.056601953  0.058321095            6 
  731000    1.1069521   -4.8583594    498.14626  0.056788219  0.058303705            2 
  732000    1.1164132   -4.8673685    498.11391  0.056706956  0.058285566            2 
  733000    1.1390111   -4.8799842    496.32099  0.056425761  0.058266932            2 
  734000    1.1561209   -4.8775845    497.66133  0.056501059  0.058247908            3 
  735000    1.1310814   -4.8625853    499.33833  0.056614323  0.058229639            1 
  736000     1.133385   -4.8535953    499.78364  0.056587821  0.058211187            2 
  737000    1.1397565   -4.8827222    499.15601  0.056440073  0.058191934            2 
  738000    1.1160841   -4.8606242    500.45143  0.056509872  0.058173398            2 
  739000    1.1544341   -4.8964569    500.26489  0.056412369   0.05815508            3 
  740000    1.1131903   -4.8787615    503.17137  0.056663443  0.058137458            3 
  741000     1.130723   -4.8759607    503.73197  0.056650019  0.058119725            4 
  742000    1.1108912   -4.8451954    503.72661  0.056573069   0.05810175            2 
  743000     1.129516   -4.8596431     505.2791  0.056671052  0.058084304            2 
  744000    1.1237585   -4.8850872    505.72741  0.056645095   0.05806728            1 
  745000    1.1155125   -4.8667277    504.56651  0.056439207  0.058050468            2 
  746000    1.1345264   -4.8561785    507.11935   0.05664872  0.058033205            3 
  747000    1.1382929   -4.8691481    507.94951  0.056665496  0.058016426            1 
  748000    1.1342704   -4.8357139    508.28073  0.056626641  0.058000329            2 
  749000    1.1366029   -4.8891222    507.66021  0.056481999  0.057984444            3 
  750000    1.1284783    -4.886276    508.80223  0.056533581  0.057968948            2 
  751000    1.1379463   -4.8906501    509.17733  0.056499925  0.057952887            4 
  752000    1.1179632   -4.8793234    510.13816  0.056531267   0.05793691            3 
  753000    1.1207156   -4.8772899    511.77558  0.056637403  0.057921433            2 
  754000     1.122307   -4.8702386    512.39205  0.056630421  0.057906045            2 
  755000    1.1535089   -4.8689387    510.76672  0.056376018  0.057890497            2 
  756000    1.1241568    -4.914672    511.00523  0.056327737  0.057873879            2 
  757000    1.1396137   -4.9064526    513.84924  0.056566407  0.057857761            5 
  758000    1.1459771   -4.8933903    514.66841   0.05658184  0.057841952            3 
  759000    1.1032666   -4.8872309    517.09876  0.056774128  0.057827076            3 
  760000    1.1182348   -4.8667391    513.49872  0.056304684  0.057810833            2 
  761000    1.1295556   -4.8652405    515.85214  0.056488408  0.057795254            3 
  762000    1.1436172   -4.8575539    519.15113  0.056775057  0.057779454            1 
  763000     1.136365   -4.8606159    516.14674  0.056372515  0.057764016            4 
  764000    1.1315872   -4.8609821    516.34174  0.056319998  0.057748936            4 
  765000    1.1470541   -4.8858059    517.75325  0.056400136   0.05773312            2 
  766000    1.1263823   -4.8851186    519.51533  0.056518204  0.057717555            4 
  767000    1.1325502   -4.8704378    518.02829  0.056282952  0.057702474            3 
  768000    1.1510234   -4.8604653     521.0842  0.056541255  0.057686523            4 
  769000    1.1572815   -4.8478175    519.71545  0.056319403  0.057670172            3 
  770000    1.1695788   -4.8704393    519.73603  0.056248488   0.05765369            2 
  771000    1.1179095   -4.8845321     518.7452  0.056068439  0.057636388            2 
  772000    1.1199131   -4.9106484    518.47694  0.055966855  0.057618736            3 
  773000    1.1123359   -4.8924966    519.01808   0.05595279  0.057601463            2 
  774000    1.1063261   -4.9176099    521.01449  0.056095445  0.057584131            4 
  775000    1.1364144     -4.87331    522.08889  0.056138591  0.057567268            4 
  776000    1.1115922   -4.9069401    523.08269  0.056172969  0.057550403            1 
  777000    1.1420762   -4.8612244    525.58856  0.056369429  0.057533799            7 
  778000    1.1354156    -4.862484    523.46485    0.0560695  0.057517066            6 
  779000    1.1517123   -4.8972273    524.38421  0.056095872   0.05750022            1 
  780000    1.1027076   -4.8977071    525.59873  0.056153711   0.05748402            2 
  781000    1.1328995   -4.9064756    524.69573   0.05598546  0.057467166            2 
  782000    1.1230514   -4.8873152      526.738    0.0561315  0.057450059            3 
  783000    1.1152998   -4.9072114    526.68155  0.056053805   0.05743364            3 
  784000    1.1501465   -4.9056219    526.75835  0.055990471  0.057416876            2 
  785000    1.1453671   -4.8627822    528.35349  0.056088481  0.057400036            4 
  786000    1.1403019   -4.9258122    529.94814  0.056186189  0.057383507            3 
  787000    1.1267444   -4.8979485    529.08975  0.056023904  0.057367363            4 
  788000     1.132286   -4.8796651    530.43631  0.056095211  0.057350697            2 
  789000    1.1069413   -4.9028188    530.04379  0.055982656   0.05733429            4 
  790000    1.1235328   -4.8545327    529.67118  0.055872487  0.057317571            3 
  791000    1.1224889   -4.9035646    527.74975  0.055599426  0.057300604            2 
  792000     1.117459   -4.8756908    530.15403    0.0557822  0.057283015            2 
  793000      1.12651   -4.8504463    531.73084  0.055877558  0.057266306            1 
  794000    1.1232567   -4.9162231    529.61133  0.055584732  0.057249943            3 
  795000    1.1638212   -4.9226602    530.83792  0.055643388  0.057232797            5 
  796000    1.1060275   -4.8788906    532.84909  0.055784033  0.057216333            2 
  797000    1.1363125   -4.8785419    533.60698  0.055793285  0.057199266            2 
  798000    1.1136543   -4.8687949    535.58529  0.055929959   0.05718169            2 
  799000    1.1375765   -4.9294415    534.01471  0.055696153  0.057165724            2 
  800000    1.1288943   -4.8852532     534.9342  0.055722313   0.05714954            3 
  801000    1.1266287   -4.8719721    537.45625  0.055915132  0.057133463            1 
  802000    1.1050735   -4.8895351    539.75062  0.056083813  0.057117204            2 
  803000    1.1263552   -4.9201072    536.08634  0.055633701  0.057101235            4 
  804000    1.1286244   -4.9149093    537.72463   0.05573431  0.057083814            1 
  805000    1.1016114   -4.8867406    540.42346  0.055944458  0.057067123            5 
  806000    1.1227912   -4.9013569    538.10089  0.055634914  0.057050472            2 
  807000    1.1338545   -4.9100009    539.19613  0.055679072  0.057034207            2 
  808000    1.1249566   -4.9274168    538.87183  0.055576715  0.057017662            3 
  809000    1.1386965    -4.879955    541.72052  0.055801454  0.057000708            2 
  810000    1.1131665   -4.9006404    541.46857  0.055706643  0.056984417            2 
  811000    1.1101064   -4.8989363     544.0424  0.055902425   0.05696904            4 
  812000    1.1284994   -4.9380296    541.07412  0.055528954  0.056952242            2 
  813000    1.1399773   -4.9276416    541.44492  0.055498659  0.056935232            4 
  814000    1.1186611   -4.8844321    542.49508   0.05553799  0.056918247            3 
  815000    1.1025143   -4.8863779    543.34648  0.055556899  0.056901433            6 
  816000    1.1295079   -4.9101583    543.60274  0.055514985  0.056884862            3 
  817000    1.1317068   -4.9342337    544.93868  0.055583301  0.056868163            4 
  818000    1.1147647   -4.8760426    545.81258  0.055604378  0.056852014            2 
  819000    1.1082929   -4.8985799    548.13476  0.055772767  0.056836313            5 
  820000    1.1337525   -4.8704358    549.22249  0.055815294  0.056820213            2 
  821000    1.1130195   -4.9051283    548.05511  0.055628817  0.056804857            7 
  822000    1.1203465    -4.929274    548.34783  0.055590818  0.056789074            2 
  823000    1.1014754   -4.8835981    549.93957  0.055684444  0.056774262            3 
  824000    1.1316939   -4.8841722    551.82792  0.055807839  0.056759125            2 
  825000    1.1012975   -4.9140749    551.47728  0.055704776  0.056744317            2 
  826000    1.0986122   -4.9008667    553.44243  0.055835597  0.056729314            1 
  827000    1.1471729   -4.9166343    552.15265  0.055638115   0.05671458            2 
  828000    1.1311601    -4.888388     553.4245  0.055698923  0.056699955            3 
  829000    1.1002732   -4.9209772    552.51643  0.055540454  0.056684873            3 
  830000     1.094502   -4.8748973    556.79446  0.055903059  0.056670637            2 
  831000    1.1151456   -4.8593967    555.85836  0.055741914  0.056656154            4 
  832000     1.101063   -4.8856356    554.14004  0.055502808  0.056641014            4 
  833000     1.112612   -4.9180847    556.63448  0.055685722  0.056626402            4 
  834000    1.1037481   -4.8870919    556.52354  0.055607867  0.056612137            2 
  835000    1.1148644   -4.8959985    557.45073  0.055633806   0.05659811            5 
  836000    1.1265703   -4.9110077    558.50531   0.05567238  0.056583789            3 
  837000    1.1113526   -4.9152451    558.46393  0.055601746  0.056569952            2 
  838000    1.1441878   -4.8834018    558.77489  0.055566317  0.056555748            1 
  839000    1.0980562   -4.8845038     557.5052  0.055373977  0.056541526            2 
  840000    1.1172643   -4.9161081    558.74092  0.055430647  0.056526993            2 
  841000    1.1072518   -4.8988111    560.24298  0.055513573  0.056512635            6 
  842000    1.1085998   -4.9098958    561.86065  0.055607744  0.056498369            2 
  843000    1.1314546   -4.8990233    561.86319  0.055542032  0.056485248            2 
  844000    1.1150693   -4.8799323    563.36295  0.055624304  0.056471209            5 
  845000    1.1039521   -4.9068759    565.03163  0.055723041  0.056457416            2 
  846000    1.1433221    -4.925297    565.40321  0.055693776  0.056443146            2 
  847000    1.1110772   -4.9254785    565.82217  0.055669241  0.056429679            3 
  848000    1.1103743   -4.9115867    565.26573  0.055548912  0.056416452            1 
  849000    1.0945416   -4.9037854    567.59312  0.055711928  0.056403901            2 
  850000    1.1147114   -4.8830615    569.32692  0.055816365  0.056391426            4 
  851000    1.1108559   -4.9011335    569.93811  0.055810626   0.05637897            7 
  852000     1.098123   -4.9507552    567.73183  0.055529326  0.056366042            5 
  853000    1.1204659   -4.9225743    569.75873  0.055662244  0.056353162            4 
  854000    1.1174799   -4.8895399    570.34933  0.055654697  0.056339906            2 
  855000    1.1183529   -4.9040071    568.88053  0.055446445  0.056326972            2 
  856000    1.1155608   -4.9541381    569.51381  0.055443323  0.056313595            4 
  857000    1.1114103   -4.9351059    570.09535  0.055435176  0.056300481            1 
  858000    1.1093266   -4.9124931    571.28528  0.055486139  0.056287496            3 
  859000     1.124611   -4.9242653    571.04624  0.055398354  0.056273816            2 
  860000    1.0855649   -4.9467257    572.54146  0.055478823  0.056260569            5 
  861000    1.1033467    -4.915847    573.05861  0.055464441  0.056247166            1 
  862000    1.1114662   -4.9184501    574.58565  0.055547724  0.056234054            2 
  863000    1.0984072   -4.9340912    573.22399  0.055351872  0.056220401            2 
  864000     1.124053   -4.8995681    573.84922  0.055348112  0.056207725            2 
  865000    1.1188223   -4.8930128    574.11636  0.055309861  0.056194402            5 
  866000    1.1040303   -4.9202418    575.31519  0.055361354  0.056181931            2 
  867000    1.1301095   -4.9267909    575.92542  0.055356153  0.056169201            2 
  868000    1.1095286   -4.8983148    577.98354  0.055489971  0.056156141            2 
  869000    1.1389779   -4.9294919    577.40755  0.055370881   0.05614275            5 
  870000    1.1032107   -4.9326294     579.5644  0.055513831  0.056129791            2 
  871000    1.1174436   -4.9032306    577.75091  0.055276589  0.056116408            2 
  872000    1.1106688    -4.931489      577.573  0.055196196  0.056102735            3 
  873000    1.1005351   -4.9121909    578.76138  0.055246409  0.056089386            4 
  874000    1.1128368   -4.9039505    578.39162  0.055147943  0.056076135            3 
  875000    1.0956824   -4.9152787    581.81702  0.055411145  0.056062186            6 
  876000    1.1145649   -4.9577759    579.46556  0.055124197   0.05604836            4 
  877000    1.1034553   -4.8806549    583.23393  0.055419416  0.056034809            3 
  878000    1.1223251   -4.9243717    582.36214  0.055273552  0.056021575            2 
  879000     1.111232   -4.9265854    582.23238  0.055198367  0.056007875            2 
  880000    1.0887313   -4.9487371    580.29926  0.054952582  0.055994173            2 
  881000    1.1238751   -4.9170806    581.35315  0.054989893  0.055980084            3 
  882000    1.1288875   -4.9048329    584.34661  0.055210375  0.055965495            2 
  883000    1.1190105   -4.8983215    582.38779  0.054962985   0.05595093            4 
  884000     1.109681    -4.901724    584.94154  0.055141548   0.05593705            2 
  885000    1.1188427   -4.9464124    583.43784   0.05493765  0.055923074            3 
  886000    1.0886045   -4.8762318    585.92416  0.055109496  0.055908066            1 
  887000    1.1098437   -4.9362301    585.00491  0.054961003  0.055893017            2 
  888000    1.1191753   -4.9113347    584.00095  0.054804894  0.055877972            3 
  889000    1.1012101   -4.8616979    589.66303     0.055274  0.055864182            5 
  890000    1.1169149   -4.9399015    584.63441  0.054741049  0.055849822            3 
  891000    1.1370956   -4.8876559     588.3656  0.055028582  0.055836123            2 
  892000    1.0993894    -4.906953    587.09113  0.054847826  0.055822561            1 
  893000    1.1172013   -4.9209785    588.84511  0.054950085  0.055807644            5 
  894000    1.1283683   -4.9051491     589.5163  0.054951183  0.055792945            2 
  895000     1.115173   -4.9384389    589.78843  0.054915124  0.055778317            2 
  896000    1.0950353   -4.9467464    589.40224  0.054817917  0.055763751            3 
  897000    1.1010378   -4.8957137    590.80317  0.054886954  0.055750175            4 
  898000    1.1204502   -4.9074073     591.1247   0.05485567  0.055736452            2 
  899000    1.0838262   -4.9543168    591.56964  0.054835895  0.055722362            1 
  900000    1.1204193   -4.9339136    591.76436  0.054792996  0.055708292            5 
  901000     1.100234   -4.9197451    591.83442  0.054738662  0.055694158            2 
  902000    1.0985315   -4.9256918    593.54871  0.054836355  0.055680069            2 
  903000    1.1169345   -4.9059439    594.78683  0.054889888  0.055665671            4 
  904000    1.1183056   -4.9136958     594.7336  0.054824262  0.055651581            2 
  905000    1.0999033   -4.9575349    592.86592  0.054591705  0.055637003            4 
  906000    1.1017286   -4.9242283    595.07125  0.054734294  0.055622177            2 
  907000    1.1014206   -4.8759842    595.95701  0.054755329  0.055607373            3 
  908000    1.1283736   -4.8698975    597.21651   0.05481062  0.055592906            3 
  909000    1.1123382   -4.9236853    595.77934  0.054618568  0.055577908            2 
  910000    1.0957055   -4.8727555    597.44041   0.05471066   0.05556268            5 
  911000    1.1057322   -4.8926462    596.74162  0.054586683  0.055547901            3 
  912000    1.1075465   -4.9034888    598.66735  0.054702792  0.055533319            2 
  913000    1.1115091   -4.9650242     598.3889  0.054617461  0.055518468            5 
  914000    1.1219984   -4.9179566    598.28069  0.054547838  0.055503881            3 
  915000      1.09235   -4.9141996     599.6825  0.054615893  0.055489415            3 
  916000     1.099109   -4.9298534     601.1016  0.054685371  0.055475751            4 
  917000    1.0811036    -4.914546    601.61391  0.054672292  0.055461703            4 
  918000    1.1077505   -4.9342643       601.98  0.054645969  0.055448221            2 
  919000    1.1015923   -4.9287734    603.43931  0.054718834  0.055434319            5 
  920000    1.0850885   -4.9311555    603.75949   0.05468836  0.055420638            4 
  921000    1.1268222   -4.9110696    603.79226  0.054631946  0.055407022            4 
  922000    1.1175029   -4.9278149    603.36345  0.054533934  0.055393242            2 
  923000    1.1026386   -4.9385741    605.02819  0.054625153  0.055379725            7 
  924000    1.1040471   -4.9113296    605.73985  0.054630218  0.055366221            2 
  925000    1.1089289   -4.9442041    605.05156  0.054509149  0.055352807            2 
  926000    1.1244904   -4.9186211      607.218  0.054645249  0.055339421            3 
  927000    1.0988642   -4.9372807     607.7939   0.05463807  0.055325537            3 
  928000    1.1168704   -4.9257683    608.30588  0.054625169  0.055312661            4 
  929000    1.0945439    -4.946824    607.91986  0.054531742  0.055299744            4 
  930000    1.0897218   -4.9090909    609.98769  0.054658395  0.055287723            4 
  931000     1.102608   -4.9426166    611.29492  0.054716696  0.055274821            5 
  932000    1.1171183     -4.91778    610.88505  0.054621339   0.05526201            3 
  933000    1.0905736    -4.883254    612.29307  0.054688556  0.055249922            3 
  934000    1.1008092   -4.9571402    611.46703  0.054556301  0.055237264            3 
  935000    1.1169075   -4.9287316    613.49887  0.054679043  0.055224208            3 
  936000    1.1042225   -4.9618148    612.90065  0.054567365  0.055211607            3 
  937000    1.1024111   -4.8881664    616.60748  0.054838801  0.055199702            1 
  938000    1.1028751   -4.9300229    615.99522  0.054725943  0.055187687            3 
  939000    1.0881216   -4.9383166    615.82175  0.054652267  0.055175449            4 
  940000    1.1144158    -4.918461    617.93691  0.054781641  0.055163267            2 
  941000    1.1188122   -4.9390499    616.96602  0.054637444  0.055151128            3 
  942000    1.1216724   -4.9298913    617.76273  0.054649923  0.055139748            2 
  943000    1.0982266   -4.9348722    618.05846  0.054618104  0.055128181            4 
  944000    1.0854586   -4.9383149    617.88602  0.054545023  0.055116204            2 
  945000    1.0955525   -4.9306227    620.64919  0.054730969  0.055104269            2 
  946000    1.0832716   -4.9409634    619.54191  0.054575573  0.055092185            3 
  947000    1.0975987   -4.9231982    621.00937  0.054647076  0.055080036            3 
  948000    1.1077912   -4.8937907    622.20352  0.054694403  0.055068209            3 
  949000    1.0801739   -4.9766833    620.48497   0.05448586  0.055056859            4 
  950000    1.0937764   -4.9462746    621.51674  0.054519012  0.055045904            2 
  951000    1.1019898   -4.9583267    622.35571  0.054535201  0.055034453            2 
  952000    1.0897553   -4.9532351    623.58556  0.054585571  0.055023389            3 
  953000    1.0996335   -4.9130631    625.09109  0.054659941  0.055011893            3 
  954000    1.0940262   -4.9444749    623.33844  0.054449549  0.055000644            1 
  955000    1.0843974   -4.9455184    624.53132  0.054496625  0.054988909            2 
  956000    1.0888698    -4.952069    625.68529   0.05454021  0.054977627            2 
  957000    1.1071314   -4.8926112    629.55785  0.054820432  0.054966603            3 
  958000    1.0729583   -4.9354078    627.72922  0.054604143   0.05495523            3 
  959000    1.0926728   -4.9710994    626.35514  0.054427801  0.054943859            9 
  960000    1.1140259   -4.9533799    626.90953   0.05441923  0.054931979            3 
  961000    1.1012183   -4.9354858    629.31486  0.054571181   0.05491992            3 
  962000    1.0950933   -4.9453138    628.93111  0.054481212  0.054908033            4 
  963000    1.0917633   -4.9483818    629.45373  0.054469863  0.054896648            2 
  964000    1.0710265   -4.9492347    627.13424  0.054212849  0.054884986            3 
  965000    1.0965647   -4.9328183    628.32769  0.054259731  0.054872715            2 
  966000    1.1053521   -4.9323405    631.30689  0.054460567  0.054860261            3 
  967000    1.0745648   -4.9689783    630.48676  0.054333571  0.054848142            5 
  968000    1.1017083   -4.9145187    630.92861   0.05431548  0.054835962            2 
  969000    1.0811574   -4.9252347     633.4303   0.05447457  0.054824143            4 
  970000    1.0903286   -4.9606973    631.25662  0.054231669  0.054813106            3 
  971000    1.0733886   -4.9430089    633.03475   0.05432842  0.054801246            4 
  972000      1.07862   -4.9571698    632.68509  0.054242549  0.054789449            3 
  973000    1.1030867   -4.9465416     633.8902  0.054290013  0.054777178            2 
  974000    1.1198551   -4.9522406     635.3915  0.054362723  0.054765879            2 
  975000    1.1047074   -4.9667535    635.31613  0.054300524  0.054754065            4 
  976000    1.1060035   -4.9727681    634.00482  0.054132925  0.054742395            2 
  977000    1.0901036   -4.9724489    635.60629  0.054214115  0.054730367            7 
  978000    1.0872045   -4.9810028    637.07032  0.054283429  0.054719042            5 
  979000    1.0944626   -4.9491118     638.0663  0.054312759  0.054707508            2 
  980000    1.0722195   -4.9658187    639.28578  0.054361036  0.054696414            2 
  981000    1.1020798   -4.9219074    639.98913   0.05436537  0.054685525            3 
  982000    1.1241547   -4.9422419    639.43267  0.054262786  0.054674341            2 
  983000    1.1190083   -4.9227019    640.93479  0.054334926  0.054663747            6 
  984000    1.0875263   -4.9493764    641.08609  0.054292521  0.054652768            2 
  985000    1.1009969   -4.9821444    638.25323  0.053997735  0.054641359            2 
  986000    1.1083642   -4.9437986    642.01854  0.054261202  0.054629835            1 
  987000    1.0841249   -4.9316974     642.7546  0.054268372  0.054618522            2 
  988000    1.0996384   -4.9038903    641.33919  0.054094061  0.054606582            5 
  989000    1.1017987   -4.9704398    641.14515  0.054023015  0.054595184            5 
  990000    1.1100018   -4.9551996    644.82675  0.054278346  0.054583715            1 
  991000    1.0937131   -4.9319196    644.93741   0.05423288  0.054572759            1 
  992000    1.1012516   -4.9811679    646.77396   0.05433249  0.054562049            2 
  993000    1.1005587   -4.9616807    645.36694  0.054159696  0.054551533            2 
  994000    1.0943148   -4.9642657    647.53155  0.054286682  0.054540406            3 
  995000    1.1170834   -4.9528227    650.64403    0.0544928  0.054530012            6 
  996000    1.0991717   -4.9621445    647.07611  0.054139568   0.05452024            4 
  997000    1.0989692   -4.9468164    647.34037  0.054107353  0.054509901            2 
  998000    1.0791604   -4.9424099    648.05528  0.054112832  0.054499135            4 
  999000     1.093911   -4.9585806      649.683  0.054194445  0.054488428            2 
 1000000    1.0849768   -4.9208588    651.88474  0.054323728  0.054478147            5 
 1001000    1.1006804   -4.9705487    651.18988  0.054211612  0.054467472            3 
 1002000    1.0624356   -4.9621363    650.23428  0.054078034  0.054456299            2 
 1003000    1.1014209   -4.9352631    653.25567  0.054275147  0.054445177            2 
 1004000    1.0989618   -4.9827912    648.80783  0.053851912  0.054434206            3 
 1005000    1.1028313   -4.9764546    652.40955  0.054096977  0.054422589            4 
 1006000    1.1037512   -4.9462843     652.5545  0.054055211   0.05441126            1 
 1007000    1.0946746   -4.9750555    652.97004  0.054035919  0.054400354            4 
 1008000    1.0963753    -4.965483    653.77542  0.054048894   0.05438933            7 
 1009000    1.0974676   -4.9962836    654.14694  0.054026011   0.05437777            4 
 1010000    1.0990875   -4.9356488    656.34682  0.054154028   0.05436616            2 
 1011000    1.1045738    -4.949671    655.72954  0.054049583  0.054354841            6 
 1012000    1.0767909   -4.9371269    657.59695  0.054149947  0.054343698            2 
 1013000    1.0828774   -4.9511011    656.69555  0.054022339   0.05433227            6 
 1014000    1.0771373   -4.9634973    655.92081  0.053905392  0.054320891            3 
 1015000    1.0947765   -4.9790279    655.72941  0.053836569   0.05430982            2 
 1016000      1.07013   -4.9447948    657.56831  0.053934409  0.054298436            5 
 1017000    1.0630052    -4.974399    659.57616  0.054045899  0.054287121            4 
 1018000    1.0817438   -4.9700551    657.55895  0.053827681  0.054276285            4 
 1019000    1.0908862    -4.968414    660.73103  0.054034268   0.05426558            2 
 1020000    1.0991138   -4.9921042    661.06651  0.054008702  0.054255128            4 
 1021000    1.0605431   -4.9809442     662.8075  0.054097902  0.054244568            2 
 1022000    1.0797411   -4.9937646    659.60506  0.053783844  0.054234267            4 
 1023000    1.0491894   -4.9641274    663.97147  0.054086956  0.054224195            3 
 1024000    1.1019364   -4.9765717    663.20831   0.05397203  0.054214794            2 
 1025000    1.0876914   -4.9987018    664.85957  0.054053624  0.054205081            3 
 1026000    1.0859406   -4.9448824    664.10184  0.053939395  0.054195009            2 
 1027000    1.1061889   -4.9767085    664.65985  0.053932152  0.054185055            4 
 1028000    1.0797086   -4.9614678    666.32418  0.054014606  0.054175586            6 
 1029000    1.0680191   -4.9725412    665.74538   0.05391524  0.054165404            2 
 1030000    1.0768687   -4.9717933     666.1183  0.053893066  0.054154871            2 
 1031000    1.0800066   -4.9274477    671.90022  0.054308133   0.05414462            2 
 1032000    1.0789219   -4.9773778    669.23488  0.054040285  0.054134537            4 
 1033000    1.0864887   -4.9763304    666.65387  0.053779757  0.054124335            5 
 1034000    1.0900389   -4.9795688    669.09799  0.053924725  0.054113936            4 
 1035000    1.0845627   -4.9670144    667.56939  0.053749549  0.054103726            3 
 1036000    1.0992005   -4.9437515    671.17033  0.053987318   0.05409307            5 
 1037000    1.0622577   -4.9790375    668.46211  0.053717624  0.054082313            2 
 1038000    1.0999599   -5.0019287    668.18869  0.053643922  0.054071642            7 
 1039000    1.0972071   -4.9823438    670.47328  0.053775528  0.054061093            3 
 1040000    1.0965908   -4.9787952    668.77577  0.053587802   0.05405025            4 
 1041000    1.1012747   -4.9649812    672.29324  0.053817902   0.05403909            3 
 1042000    1.0740033   -4.9713965    672.32828  0.053769056  0.054028268            4 
 1043000    1.0871359   -4.9184361    672.79652  0.053754915  0.054017941            2 
 1044000     1.091693   -4.9510273    674.62274  0.053849197  0.054007834            2 
 1045000    1.1093538   -4.9753843     674.2094  0.053764705  0.053997761            2 
 1046000    1.0793028    -4.985048     674.7345  0.053755138  0.053987694            4 
 1047000    1.0940146   -4.9525428    678.80966  0.054028149  0.053977268            2 
 1048000    1.0836847   -4.9292534    680.26615   0.05409241  0.053967231            5 
 1049000    1.0759303   -4.9421403    678.48132  0.053899056  0.053957378            3 
 1050000    1.0584003   -4.9585126    677.58603  0.053776669  0.053947217            2 
 1051000    1.0693934   -4.9723687    679.14968  0.053849483  0.053937049            2 
 1052000    1.0932719   -4.9848735    678.06669  0.053712507  0.053926808            7 
 1053000    1.0807803   -4.9555776    679.11341  0.053744334  0.053916292            2 
 1054000    1.0639937   -4.9866968    676.93896  0.053521423  0.053905929            2 
 1055000    1.1278763   -4.9753484    681.34113  0.053818415   0.05389559            5 
 1056000    1.0858977   -4.9852296    679.47907  0.053620507  0.053885686            2 
 1057000    1.0703788   -4.9628448    681.82736  0.053754916  0.053875354            2 
 1058000    1.0939715   -4.9817348    681.96179  0.053714696   0.05386479            5 
 1059000    1.0486762   -4.9696281    681.88746  0.053658125  0.053854923            2 
 1060000     1.096098   -4.9952834    682.73833  0.053674397  0.053844477            3 
 1061000     1.067718   -5.0038376    679.49724  0.053369246  0.053834062            5 
 1062000    1.0639486   -4.9688478    684.96146  0.053747761  0.053823827            3 
 1063000    1.0975962   -4.9780441    684.70409  0.053677022  0.053813596            4 
 1064000    1.0703093   -4.9826352    683.41299  0.053525453  0.053803515            4 
 1065000    1.0959147   -4.9919084    683.68683  0.053496622  0.053793013            5 
 1066000    1.0682833   -4.9460613    686.02895   0.05362953  0.053782974            3 
 1067000    1.0842323    -4.944726    689.91157  0.053882503  0.053773197            4 
 1068000    1.0713315   -4.9945391     686.6022  0.053573829   0.05376329            2 
 1069000     1.072891    -4.992383    687.03752  0.053557649  0.053753505            4 
 1070000    1.1067257   -4.9835666    688.04666  0.053586188  0.053743827            5 
 1071000     1.088785   -4.9858943     687.7989  0.053516877  0.053733704            2 
 1072000    1.0751905   -4.9845286    690.45419  0.053673367   0.05372377            1 
 1073000    1.0803572   -4.9604483    690.39797  0.053618979  0.053713722            3 
 1074000    1.0563656   -4.9841664    686.51127  0.053267479  0.053703421            3 
 1075000    1.0903948   -4.9673402    689.98261  0.053487024  0.053692604            3 
 1076000    1.0884441   -4.9936977    690.08506  0.053445249  0.053682174            2 
 1077000    1.0577911   -4.9583901    691.65995  0.053517483  0.053671213            2 
 1078000    1.0793853   -4.9597746    691.70592  0.053471392  0.053661071            3 
 1079000    1.1110915   -4.9666073    694.53594  0.053640403  0.053650687            9 
 1080000    1.0905461   -4.9838576    690.40186  0.053271749  0.053639703            6 
 1081000    1.0899873   -4.9639993    694.45467  0.053534896  0.053628897            4 
 1082000    1.0744718   -4.9754746    692.32986   0.05332177  0.053617675            6 
 1083000    1.0766365   -5.0183107     693.2361  0.053342267  0.053606663            5 
 1084000    1.0748557   -4.9729225    692.72185  0.053253525  0.053595518            2 
 1085000    1.0884054   -5.0027063    691.85337   0.05313774  0.053584489            4 
 1086000    1.0693298   -4.9643907    696.58963  0.053452243  0.053573386            2 
 1087000    1.0589364   -5.0281095    692.62691  0.053099273  0.053562132            2 
 1088000     1.071512   -4.9863932    693.49263  0.053116776  0.053550966            3 
 1089000    1.0859335   -4.9718036    697.81242  0.053398563  0.053539892            3 
 1090000    1.0860241   -4.9801884    696.64171   0.05326007  0.053529283            2 
 1091000    1.0795337   -5.0205722    697.39523  0.053268808  0.053518432            4 
 1092000     1.054129   -5.0017134    697.35071  0.053216629  0.053507503            3 
 1093000    1.0655269    -4.986595    696.05205  0.053068928  0.053496759            5 
 1094000    1.0814585   -4.9560723     698.9969  0.053244736  0.053486229            4 
 1095000    1.0891317   -5.0093923    698.81184  0.053182027   0.05347602            4 
 1096000    1.0678169   -5.0065662    701.97115  0.053373719  0.053466304            2 
 1097000    1.0623758   -4.9869091    700.64266  0.053224146  0.053456408            4 
 1098000    1.0813447   -4.9922735    702.65582  0.053328462  0.053446599            8 
 1099000    1.0738305   -4.9929556    703.63759  0.053354382  0.053436911            4 
 1100000    1.1045453   -4.9796214    706.39875  0.053515057  0.053427072            3 
 1101000    1.0960279   -5.0336346    704.74777  0.053341491  0.053417483            2 
 1102000    1.1019374   -5.0282146    704.25149  0.053255557  0.053407808            2 
 1103000    1.0800565   -4.9902694    705.92496  0.053333708  0.053397944            8 
 1104000    1.0831754   -5.0029925    706.34475  0.053317085  0.053388868            3 
 1105000    1.0776172   -4.9760621    709.18831  0.053483281  0.053379657            2 
 1106000    1.0484426   -4.9722631    708.91951  0.053414671  0.053370481            5 
 1107000    1.0589106   -5.0184346    710.17128   0.05346065   0.05336103            8 
 1108000    1.0875201    -5.007081    706.32433   0.05312307  0.053351432            2 
 1109000    1.0714771   -4.9948406    707.93752  0.053196387  0.053341749            9 
 1110000    1.0691482   -4.9765302    706.75741  0.053059866  0.053332164            2 
 1111000    1.0861012   -5.0048486    710.19629  0.053270049  0.053322007            2 
 1112000    1.0534336   -4.9789499    709.83909  0.053195375   0.05331199            7 
 1113000    1.0610909   -4.9806043    711.77894  0.053292823  0.053301472            6 
 1114000     1.064791    -4.985674    712.26834  0.053281593  0.053291477            4 
 1115000    1.0826592   -4.9822757    709.88771  0.053055883  0.053281343            3 
 1116000    1.0690129   -4.9843903    711.93391  0.053161134   0.05327064            3 
 1117000    1.0621259   -4.9661988     711.9828  0.053117189  0.053259715            3 
 1118000    1.0586324   -4.9689624    712.31421   0.05309438  0.053249062            2 
 1119000    1.0648152   -4.9571052    711.99976  0.053023515  0.053237946            3 
 1120000    1.0900696   -4.9763348    712.69941   0.05302823  0.053227231            3 
 1121000    1.0399032   -5.0166995    709.70404  0.052758254  0.053216617            2 
 1122000     1.071847   -4.9770955    713.51165  0.052994032  0.053205942           10 
 1123000    1.0762425   -4.9748795    715.16974  0.053069883  0.053195485            1 
 1124000    1.0811755   -4.9853111    711.00049  0.052713559  0.053184863            1 
 1125000     1.082302   -4.9617227    713.84261   0.05287723  0.053174448            4 
 1126000    1.0563635   -4.9998518    717.26463  0.053083528  0.053163804            2 
 1127000     1.046978   -4.9772251    718.13019  0.053100428  0.053153312            6 
 1128000    1.1026876   -4.9972335    714.54294  0.052788338  0.053142591            3 
 1129000    1.0766353   -4.9681611    718.36391  0.053023613  0.053132141            6 
 1130000    1.0769603   -4.9995241    716.69143   0.05285335  0.053121774            2 
 1131000    1.0679047   -4.9822558    718.53354  0.052942347  0.053111278            3 
 1132000    1.0645413   -5.0115854     718.6986   0.05290773  0.053100839            4 
 1133000    1.0459174   -4.9939504    720.42445   0.05298797  0.053090724            6 
 1134000    1.0706764   -4.9872901    723.75735  0.053186166  0.053080783            2 
 1135000    1.0706181   -5.0120517    721.37183  0.052964158  0.053070942           13 
 1136000    1.0998346   -5.0041819    723.00514  0.053037349  0.053060793            3 
 1137000     1.089196   -5.0084904    722.76709  0.052973255  0.053051081            3 
 1138000    1.0716698    -4.993023    725.57158  0.053132073  0.053041739            5 
 1139000    1.0458061   -4.9776522     722.5157  0.052861845  0.053031835            2 
 1140000    1.0557313   -4.9949518    723.64828  0.052898266  0.053021931            2 
 1141000      1.07504   -5.0052036    724.31369  0.052900503    0.0530122            3 
 1142000    1.0524583   -5.0381776    721.16743  0.052624594  0.053001784            3 
 1143000    1.0739098   -5.0312992    724.70078  0.052836161  0.052991762            3 
 1144000    1.0743505   -4.9869646    728.51706  0.053067968  0.052981813            4 
 1145000    1.0573251   -5.0214004    726.66353  0.052886719  0.052971768            4 
 1146000    1.0853211   -5.0151165    727.90743  0.052931023   0.05296197            6 
 1147000     1.069882   -4.9751858     726.1007  0.052753611  0.052952359            6 
 1148000    1.0603954   -5.0279351    726.11948  0.052709022  0.052942299            2 
 1149000    1.0666352   -5.0056245    727.00086  0.052727071  0.052932078            6 
 1150000    1.0631284   -4.9775363    727.80485  0.052739482  0.052921564            4 
 1151000    1.0828633   -4.9715143    727.01151  0.052636223   0.05291109            3 
 1152000    1.0723449   -4.9867508    730.88346   0.05287062  0.052900535            4 
 1153000    1.0593018   -5.0200117    727.37019  0.052570843  0.052889892            4 
 1154000    1.0448163   -4.9835502    729.00241  0.052643155  0.052879463            2 
 1155000    1.0755863   -5.0384161    725.21726  0.052324478  0.052868577            3 
 1156000    1.0812959   -5.0113503     727.7734   0.05246348  0.052857524            3 
 1157000    1.0635098   -4.9787332    731.86049   0.05271251  0.052846682            4 
 1158000    1.0550094   -4.9868844    730.79209  0.052590105  0.052835891            3 
 1159000    1.0781991   -4.9803618    734.00202  0.052775526  0.052825446            2 
 1160000    1.0753854   -5.0152645    733.34326  0.052682705  0.052814875            2 
 1161000    1.0595236   -5.0041172    730.94691  0.052465325   0.05280438            3 
 1162000    1.0671243   -5.0050801    735.44989  0.052743108  0.052794204            2 
 1163000    1.0524281   -4.9945591    736.01823   0.05273848  0.052783926            2 
 1164000    1.0606344   -5.0051706    735.27118  0.052639689  0.052773412            2 
 1165000    1.0560993   -5.0339352    734.06896  0.052508509  0.052762946            5 
 1166000    1.0515432   -5.0355511    731.91922  0.052309835  0.052751935            4 
 1167000    1.0790329   -5.0235565    733.32282   0.05236524  0.052740659            3 
 1168000    1.0488058   -5.0011966    732.90133  0.052290335  0.052729562            4 
 1169000     1.070736   -5.0257237    734.70748  0.052374357  0.052718385            3 
 1170000    1.0433666   -4.9797642    735.53753  0.052388713  0.052707153            3 
 1171000    1.0865731   -5.0146839    734.81047  0.052292234   0.05269599            3 
 1172000    1.0778758   -5.0099985    735.32051  0.052283882  0.052684459            2 
 1173000    1.0868866   -5.0148188    736.25486  0.052305688   0.05267296            3 
 1174000    1.0568962   -5.0140994     739.8184  0.052514083  0.052661498            3 
 1175000    1.0736484    -5.019592       736.65  0.052244681  0.052650485            3 
 1176000    1.0397134    -5.027817    739.20365  0.052381211  0.052639323            2 
 1177000     1.074455   -4.9794548     737.3061  0.052202358  0.052628117            3 
 1178000     1.059229   -5.0064942    740.38479  0.052375834  0.052617008           11 
 1179000    1.0459346   -4.9550078    741.26629  0.052393716  0.052606067            2 
 1180000    1.0696972   -5.0050845    738.99469   0.05218889  0.052594986            2 
 1181000    1.0616596   -5.0194598    739.75912   0.05219864  0.052583486            1 
 1182000    1.0596002   -5.0204727    737.93334  0.052025757  0.052572017            2 
 1183000    1.0782386   -4.9965176    741.12874  0.052206871  0.052560436            3 
 1184000    1.0573747   -4.9872182    745.49334   0.05246997  0.052549138            3 
 1185000    1.0686646   -5.0116982    741.69745  0.052158751   0.05253777            2 
 1186000    1.0541898   -5.0478611    739.05135  0.051928847  0.052526098            4 
 1187000    1.0729218   -5.0089152    742.36888  0.052118006  0.052514025            6 
 1188000    1.0399616   -4.9962591    741.78361  0.052033081  0.052502271            2 
 1189000    1.0572279   -4.9948895     745.8487  0.052274229  0.052490577            4 
 1190000    1.0450074   -5.0080319    741.86722  0.051951486  0.052479123            3 
 1191000    1.0763008   -5.0290451    741.78794  0.051902318  0.052467019            2 
 1192000    1.0586068   -5.0262893    746.67416  0.052200374  0.052455318            3 
 1193000     1.077553   -5.0166349    744.03188  0.051972051  0.052443589            3 
 1194000    1.0670465   -5.0183094    745.59918   0.05203791  0.052431995            2 
 1195000    1.0387208   -4.9836303     746.2928  0.052042734  0.052420651            3 
 1196000     1.059839   -5.0337863    749.26318  0.052206186  0.052409138            4 
 1197000    1.0480045   -5.0182133    743.98913    0.0517954  0.052397318            3 
 1198000    1.0495434   -5.0007872    747.30255  0.051982648  0.052385749            8 
 1199000    1.0489961   -4.9796937    750.03949  0.052129517  0.052374687            4 
 1200000    1.0813298   -4.9928587    751.29317  0.052173137  0.052363433            4 
 1201000    1.0584483   -5.0198792    747.65823  0.051877479   0.05235191            2 
 1202000    1.0516335   -4.9926879    748.00627  0.051858449  0.052340233            2 
 1203000    1.0678795   -5.0112388    749.97143   0.05195147   0.05232832            4 
 1204000     1.074529   -5.0165547    751.29122  0.051999669  0.052316759            3 
 1205000    1.0531973   -5.0061236    752.51366  0.052041055  0.052305337            3 
 1206000    1.0447753   -4.9881757    752.66766  0.052008544  0.052293694            3 
 1207000      1.04957   -5.0168714    753.90584  0.052050941   0.05228213            6 
 1208000    1.0483627   -5.0156966    749.95924  0.051735599  0.052270559            2 
 1209000    1.0613866   -5.0073094    755.83974  0.052098135  0.052259079            2 
 1210000    1.0550855   -5.0133689     752.1701  0.051802348  0.052247454            5 
 1211000    1.0572284   -4.9697405    755.24199   0.05197096  0.052235999            3 
 1212000    1.0522342   -5.0126555    752.50505  0.051739896   0.05222392            4 
 1213000    1.0486328   -4.9870916    755.84054  0.051926391  0.052212583            2 
 1214000     1.070585   -5.0101454    755.36944   0.05185128  0.052201247            3 
 1215000    1.0451251   -5.0547999    753.79308  0.051700486  0.052189816            4 
 1216000    1.0622996   -5.0089393    760.33274  0.052106136  0.052178304            2 
 1217000    1.0611459   -4.9957392    756.84357  0.051824402    0.0521669            2 
 1218000    1.0566089   -5.0343654    755.83292  0.051712706  0.052155572            1 
 1219000    1.0822224   -5.0426436    757.01366  0.051751002  0.052143772            1 
 1220000    1.0722062   -5.0064928    758.62122   0.05181839  0.052132415            4 
 1221000    1.0487142   -5.0098382    759.22716  0.051817306  0.052121347            3 
 1222000    1.0612074    -5.062046    758.30084  0.051711732   0.05210999            4 
 1223000    1.0507224   -5.0367385    760.03708  0.051787754  0.052099013            1 
 1224000    1.0532973   -5.0116574    762.79756  0.051933385  0.052088116            3 
 1225000    1.0702602   -5.0017742    759.48098  0.051665373  0.052076722            4 
 1226000     1.067926   -5.0113895    762.65242    0.0518388  0.052065304            2 
 1227000    1.0544835   -5.0170593    762.48684  0.051785305  0.052054074            2 
 1228000    1.0546126   -5.0086509    762.85591  0.051768181  0.052042923            3 
 1229000     1.077816   -5.0217024    762.64703  0.051711895  0.052031955            3 
 1230000    1.0417199   -5.0076927    767.57354  0.052003627  0.052020969            3 
 1231000    1.0670726   -5.0076782    764.58638  0.051759164  0.052010402            4 
 1232000    1.0654586   -5.0138121    764.24233   0.05169388  0.051999769            1 
 1233000    1.0542488   -5.0072678    764.93111  0.051698507  0.051988963            4 
 1234000    1.0402332   -5.0308693    764.47934  0.051626104  0.051978042            2 
 1235000    1.0495745   -5.0351256    767.41168  0.051782164  0.051966978            9 
 1236000    1.0697332   -5.0147876    765.25954  0.051595169  0.051955962            2 
 1237000    1.0616509   -5.0081216    767.93157  0.051733466    0.0519449            3 
 1238000    1.0350352   -4.9762874    768.34719  0.051719655  0.051933827            4 
 1239000    1.0536054   -5.0402999    768.80641  0.051708798  0.051922829            1 
 1240000    1.0582122   -5.0296748    766.07589  0.051483595  0.051911482            4 
 1241000    1.0497145   -5.0486416    769.80057  0.051692222  0.051900246            2 
 1242000    1.0482432   -5.0272974     769.7492  0.051647155  0.051888642            4 
 1243000    1.0546425   -5.0441702    766.54411  0.051390729  0.051877191            2 
 1244000     1.043557    -5.000234      770.346    0.0516041  0.051866203            3 
 1245000    1.0468712   -5.0338641    771.40264  0.051633376  0.051855122            5 
 1246000     1.050744   -4.9937785    772.72766  0.051680555  0.051844504            4 
 1247000    1.0631027   -5.0260912    770.71562  0.051504652  0.051833605            4 
 1248000    1.0480714   -5.0073431    772.35928  0.051573136  0.051822543            3 
 1249000    1.0540638   -5.0474399      770.144  0.051384041  0.051811427            4 
 1250000    1.0572117   -5.0655911    771.67015  0.051444677  0.051800469            3 
 1251000    1.0552614   -5.0367957    774.41722  0.051586545  0.051789774            2 
 1252000    1.0404424   -5.0170735    776.58389  0.051689556  0.051778667            2 
 1253000    1.0345413   -5.0319692    775.01204  0.051543764  0.051767521            2 
 1254000    1.0754608    -5.033783    773.63918  0.051411429  0.051756155            4 
 1255000    1.0501403   -5.0315483    776.67613   0.05157212  0.051745319            2 
 1256000    1.0416354   -5.0304098    777.87704  0.051610738  0.051734495            4 
 1257000    1.0429529   -5.0309571     775.6428  0.051421559  0.051723353            4 
 1258000    1.0347447   -5.0363748    775.29106  0.051357383   0.05171199            6 
 1259000    1.0806126   -5.0654942    775.09916   0.05130389  0.051700985            5 
 1260000    1.0219756   -5.0214995    776.01879  0.051323994  0.051690052            4 
 1261000    1.0747822   -5.0423188     779.7873  0.051532335  0.051679336            2 
 1262000    1.0301156   -5.0350312    777.25056  0.051323993  0.051668252            2 
 1263000    1.0501266   -5.0352304    781.13076  0.051539374  0.051657348            2 
 1264000      1.03992   -5.0574512    778.59051  0.051331125  0.051646528            7 
 1265000    1.0625834   -5.0510947    779.47912  0.051349085  0.051635644            2 
 1266000    1.0615234   -5.0124731    781.96095   0.05147189  0.051624521            4 
 1267000    1.0277386   -5.0631225    779.89412  0.051295325  0.051613598            4 
 1268000    1.0606902   -5.0518299    781.22999  0.051342665  0.051602684            2 
 1269000    1.0492232   -5.0158997     780.8589  0.051277837  0.051592151            1 
 1270000     1.025472   -4.9769576    787.28891  0.051659377  0.051581461            3 
 1271000     1.036039     -5.04097    780.94512  0.051202801   0.05157071            4 
 1272000    1.0705227   -5.0345787    783.97497  0.051361044   0.05155971            2 
 1273000    1.0465294   -5.0293197     784.9302  0.051383229  0.051548739            1 
 1274000    1.0623121   -5.0277307    784.11361  0.051289482  0.051537675            6 
 1275000    1.0803125   -5.0215647    785.11047   0.05131441  0.051526629            3 
 1276000    1.0124962   -5.0498527    785.44858  0.051296276  0.051515271            4 
 1277000    1.0403844   -5.0326758    785.04602  0.051229837  0.051504148            3 
 1278000    1.0431764   -5.0215969    787.57898  0.051354915  0.051492991            3 
 1279000    1.0290082    -5.085093    786.49904  0.051244399  0.051481568            2 
 1280000    1.0384407   -5.0390907    786.54001  0.051207032  0.051470359            4 
 1281000    1.0623694   -5.0449254     785.4704  0.051097476  0.051458825            3 
 1282000    1.0400849   -5.0366153    785.38617  0.051052143  0.051447287            2 
 1283000    1.0729267   -5.0582504    782.67577  0.050836306  0.051435534            3 
 1284000    1.0586061   -5.0376158     783.8212  0.050871054  0.051423739            5 
 1285000    1.0371122   -5.0301564    785.16142   0.05091838   0.05141194            4 
 1286000    1.0574682   -5.0267685    788.31254   0.05108298  0.051400092            2 
 1287000    1.0241274   -5.0137459    788.14515  0.051032449  0.051387988            1 
 1288000    1.0417942   -5.0657219    785.36465   0.05081293  0.051375914            3 
 1289000    1.0397632   -5.0203797     788.2987  0.050963195  0.051363628            3 
 1290000    1.0326617   -5.0648907    787.94235  0.050900669  0.051351718            4 
 1291000    1.0254232   -5.0330579    789.21613  0.050943463  0.051339645            2 
 1292000     1.049409   -5.0496526    788.02739   0.05082736  0.051327357            3 
 1293000    1.0504432   -5.0532856    787.29599  0.050740912  0.051315471            5 
 1294000    1.0692058   -5.0716651    789.70391  0.050856769  0.051303132            4 
 1295000    1.0540083   -5.0502843    789.63412  0.050813007  0.051290767            2 
 1296000    1.0284289    -5.026751    791.79313  0.050912624  0.051278819            3 
 1297000     1.051393   -5.0663287    788.92843  0.050689311  0.051266647            4 
 1298000    1.0617816   -5.0022936    792.41562  0.050874141  0.051254497            3 
 1299000     1.053063   -5.0581187    790.07505  0.050684825  0.051242306            2 
 1300000    1.0233809    -5.045317    790.61151  0.050680225  0.051230035            5 
 1301000    1.0177327   -5.0492286    791.47829   0.05069679  0.051217809            3 
 1302000     1.042984   -5.0559791    788.86295   0.05049046  0.051205382            3 
 1303000    1.0264496   -5.0385064    791.16408   0.05059888   0.05119271            3 
 1304000    1.0590111   -5.0207197    793.05819  0.050681122   0.05118019            2 
 1305000     1.034382    -5.099081    793.27742  0.050656285  0.051167786           11 
 1306000    1.0516568   -5.0357091    792.29968   0.05055511  0.051155078            6 
 1307000    1.0449216   -5.0226181      793.228  0.050575619  0.051142891            4 
 1308000    1.0462004   -5.0300999    796.90791  0.050771401  0.051130709            2 
 1309000    1.0605603   -5.0477086    796.03455  0.050677015  0.051118565            2 
 1310000    1.0703183   -5.0347101    794.47312  0.050539002  0.051106621            4 
 1311000    1.0358763   -5.0757992    793.61003   0.05044559  0.051094344            7 
 1312000    1.0354007   -5.0396872     799.6719  0.050792168  0.051082142            4 
 1313000    1.0646806   -5.0425033    796.80664  0.050571632  0.051070034            3 
 1314000    1.0366363   -5.0761196     797.1665  0.050555967  0.051057898            5 
 1315000    1.0300262   -5.0403563    798.40948  0.050596292  0.051045804            3 
 1316000    1.0169541   -5.0119552    797.64743  0.050509589  0.051033488            2 
 1317000    1.0415688   -5.0719686    795.64925  0.050344802  0.051020916            2 
 1318000    1.0395326   -5.0748786    797.62735  0.050431674  0.051008525            3 
 1319000    1.0528337   -5.0108745    800.10094  0.050549718  0.050995875            4 
 1320000    1.0476483   -5.0463474     796.8244  0.050304571  0.050983391            4 
 1321000    1.0347377   -5.0383121    797.16022  0.050287675  0.050970964            2 
 1322000    1.0530189   -5.0299057    802.13766  0.050563393  0.050958805            3 
 1323000    1.0536291   -5.0641404    801.45919  0.050482438  0.050946556            2 
 1324000    1.0556734   -5.0657416    801.33922  0.050436758  0.050933943            3 
 1325000    1.0347119   -5.0344105    802.78115  0.050489381  0.050921534            2 
 1326000    1.0831308   -5.0378121    807.99416  0.050778919  0.050909381            3 
 1327000    1.0432389   -5.0790141    802.83327  0.050416558  0.050897415            4 
 1328000    1.0379458   -5.0723069    801.67244   0.05030575  0.050885186           10 
 1329000    1.0552857   -5.0409981    802.59038  0.050325457  0.050873102            2 
 1330000    1.0625011   -5.0301868    806.83667  0.050553676  0.050860926            3 
 1331000    1.0156192   -5.0771407    804.63783  0.050378026  0.050848787            4 
 1332000    1.0189633   -5.0631836    803.26829  0.050254522  0.050836294            2 
 1333000     1.040122   -5.0901182    801.07491  0.050079702  0.050824044            1 
 1334000    1.0398046   -5.0372669    808.49474  0.050505669  0.050811844            4 
 1335000    1.0297411   -5.0786679    807.25548   0.05039048  0.050799742            2 
 1336000    1.0319971   -5.0768187    806.26478  0.050290967  0.050787531            1 
 1337000    1.0491709   -5.0808919    807.08446  0.050304441  0.050775578            2 
 1338000    1.0169831   -5.0598518    807.97317  0.050322195  0.050763532            2 
 1339000    1.0484156    -5.037187     808.2039  0.050298973  0.050751112            4 
 1340000    1.0219568   -5.0711929    810.72836   0.05041843  0.050738969            5 
 1341000    1.0274751   -5.0711488    808.09568  0.050217231  0.050727004            3 
 1342000    1.0141376   -5.0456719    810.20144  0.050310571  0.050715046            3 
 1343000    1.0425756   -5.0702371    809.39117  0.050222832  0.050703048            4 
 1344000    1.0229917     -5.03537    811.05355  0.050288538  0.050691071            4 
 1345000    1.0471241    -5.065329    812.38411  0.050333588   0.05067927            3 
 1346000    1.0262843   -5.0803007    812.51037   0.05030401  0.050667096            3 
 1347000    1.0417283   -5.0592828    813.16698  0.050307287  0.050655216            7 
 1348000    1.0418459   -5.0620209    811.74965  0.050182347  0.050643439            4 
 1349000    1.0449828   -5.0470641    813.96019  0.050281702  0.050631683            7 
 1350000    1.0488167   -5.0819041    815.33825  0.050329522  0.050619974            3 
 1351000    1.0504413   -5.0802404    814.31039  0.050228867  0.050608293            3 
 1352000    1.0012461   -5.0760469    813.29318  0.050129018  0.050596458            3 
 1353000    1.0555858    -5.050014    815.80547  0.050246703  0.050584458            3 
 1354000    1.0379562   -5.0346224    818.75957  0.050391406  0.050572812            3 
 1355000    1.0330242   -5.1123565    816.14192   0.05019323  0.050561245            4 
 1356000    1.0367992   -5.0436956    814.99815  0.050085923  0.050549484            6 
 1357000    1.0367161   -5.0725128    816.01738  0.050111605  0.050537829            3 
 1358000    1.0331801   -5.0472602    816.38564  0.050097302  0.050525981            5 
 1359000     1.045359    -5.041447    818.59062  0.050195648  0.050514186            3 
 1360000    1.0642252   -5.0501986    819.95578  0.050242388  0.050502469            2 
 1361000    1.0290637   -5.0402481    820.15301  0.050217549   0.05049072            3 
 1362000    1.0040592   -5.0686308    816.30278  0.049945104  0.050478849            5 
 1363000    1.0294221   -5.0428756    823.37773   0.05034102  0.050467241            3 
 1364000    1.0297274   -5.0614311     820.8644  0.050150562  0.050455653            3 
 1365000    1.0212801     -5.05045    822.72201  0.050227229  0.050443884            3 
 1366000    1.0333777   -5.0568163    822.70184  0.050189229  0.050432377            5 
 1367000    1.0453013   -5.0579075    823.28581  0.050188113  0.050420741            3 
 1368000     1.057929   -5.0601691    823.11337  0.050140922  0.050409158            2 
 1369000    1.0520491   -5.0709565    823.80006  0.050146096  0.050398042            6 
 1370000    1.0032006   -5.1290723    821.50951  0.049970165  0.050386858            2 
 1371000    1.0353914   -5.0416024    824.42267  0.050110787  0.050376008            4 
 1372000    1.0326881   -5.0897113    825.68591  0.050150991  0.050365189            4 
 1373000    1.0390686   -5.0437475    829.56248   0.05034975  0.050354133            3 
 1374000    1.0242554   -5.0740166    825.65281  0.050075983   0.05034326            2 
 1375000    1.0264964    -5.104457    826.70402  0.050103274  0.050332304            4 
 1376000     1.015328   -5.0661581    827.92017  0.050140514  0.050321469            4 
 1377000    1.0179019   -5.0438092    830.41896  0.050255323  0.050310739            2 
 1378000    1.0120546   -5.0949702    829.54116  0.050165769  0.050300094            2 
 1379000    1.0347051   -5.0366391    835.30871  0.050477925    0.0502897            6 
 1380000     1.036664   -5.0649898    830.57855   0.05015571  0.050279369            3 
 1381000    1.0167132   -5.0753741    831.08501  0.050149952  0.050268777            5 
 1382000    1.0227203   -5.0708574     831.9269   0.05016443  0.050258297            2 
 1383000    1.0098763   -5.0498131    835.46168  0.050341148  0.050247897            4 
 1384000    1.0098596    -5.058954    830.63122  0.050013922  0.050237457            4 
 1385000    1.0517767   -5.0875818    833.34444  0.050141061  0.050226839            3 
 1386000    1.0076944   -5.0676254    832.99434  0.050083835  0.050216244            7 
 1387000    1.0063454   -5.0532552    836.01894  0.050229449  0.050205868            4 
 1388000    1.0436037   -5.0725582    835.65701   0.05017153   0.05019537            4 
 1389000     1.019558   -5.0916327    834.72997  0.050079792  0.050184671            7 
 1390000    1.0280872    -5.081317    836.83866  0.050170183  0.050174326            2 
 1391000     1.048967   -5.0481059    836.64097  0.050122272     0.050164            3 
 1392000    1.0207378   -5.1089832    837.74155  0.050152152  0.050153718            2 
 1393000    1.0290939   -5.0497201    840.16975  0.050261411   0.05014351            3 
 1394000    1.0707696   -5.1119953    835.15793  0.049925749  0.050132978            5 
 1395000    1.0179289   -5.0647899     839.5598  0.050152915  0.050122751            2 
 1396000     1.030273   -5.0434347    838.96213  0.050081311  0.050112642            4 
 1397000    1.0450173   -5.0572643    842.75057  0.050271449  0.050102956            2 
 1398000    1.0351025   -5.0716412    842.21819  0.050203755  0.050093054            2 
 1399000    1.0619404   -5.0835897     841.4631  0.050122892  0.050083442            3 
 1400000    1.0394987   -5.0982296    844.79776  0.050285581  0.050073709            4 
 1401000      1.02313   -5.0768692    844.73574  0.050245999  0.050064426            3 
 1402000    1.0499269   -5.0970678    845.96336  0.050283129  0.050054733            2 
 1403000    1.0409667   -5.0942309    844.31967   0.05014966  0.050045182            2 
 1404000    1.0170555    -5.057492    846.07388   0.05021806  0.050035268            6 
 1405000    1.0156577   -5.0789227    843.58877  0.050034921  0.050025493            4 
 1406000    1.0227048   -5.0764664    844.32233  0.050042813   0.05001557            3 
 1407000    1.0320975   -5.0716534    846.93271  0.050161852  0.050006031            4 
 1408000    1.0358133    -5.079112    846.09812   0.05007683    0.0499966            8 
 1409000    1.0479695   -5.0659924    848.85726  0.050204475  0.049987027            1 
 1410000    1.0539632   -5.0936708     847.3061  0.050077192  0.049977254            3 
 1411000    1.0145462   -5.0448712    850.13423  0.050208731  0.049967478            3 
 1412000    1.0234658   -5.1056981    849.11535   0.05011304  0.049957784            5 
 1413000    1.0458654   -5.0878069     845.5433  0.049866908   0.04994764            3 
 1414000    1.0320993   -5.1033702    844.57137  0.049774362  0.049937607            3 
 1415000    1.0298367    -5.095221     846.9576  0.049879718  0.049927834            3 
 1416000     1.015667   -5.0777726    849.41447  0.049989081  0.049918165            7 
 1417000    1.0447697   -5.0671511    851.37736   0.05006924  0.049908389            6 
 1418000    1.0229688   -5.0806181    846.88768   0.04977008  0.049898861            6 
 1419000    1.0234445   -5.1042169    848.52148  0.049830954  0.049888826            5 
 1420000    1.0264039   -5.0718632    848.66439  0.049804248  0.049878756            3 
 1421000    1.0256757   -5.0823222    851.82849  0.049954755  0.049868968            4 
 1422000    1.0188236   -5.0789457    853.78139  0.050034071  0.049858972            2 
 1423000    1.0220653   -5.0678897     858.7649  0.050290753  0.049849392            4 
 1424000    1.0235165   -5.1187654     851.6304  0.049837922  0.049839643            5 
 1425000    1.0326933   -5.1183838    854.73767  0.049984659  0.049829651            5 
 1426000     1.014128    -5.082914    855.53524  0.049996215  0.049819645            2 
 1427000     1.019326   -5.0489899    852.96177  0.049810895  0.049809854            2 
 1428000    1.0188281   -5.0930525     854.2733   0.04985255  0.049800018            1 
 1429000     1.018652   -5.0711982    853.84535  0.049792708  0.049790287            4 
 1430000    1.0082999   -5.1158992    854.76286  0.049811356   0.04978055            3 
 1431000     1.022499   -5.0719377    857.47425  0.049934443  0.049770976            3 
 1432000    1.0019711   -5.0693777    856.98083  0.049870858  0.049761426            2 
 1433000    1.0096719   -5.0950059     856.6092  0.049814445  0.049751752            2 
 1434000    1.0296727   -5.0633963    856.77021  0.049789064  0.049742074            2 
 1435000    1.0267486   -5.0583123    862.09569  0.050063629  0.049732663            2 
 1436000    1.0222249   -5.0847601    857.79844  0.049779389  0.049723081            2 
 1437000    1.0358206     -5.09751    854.89151  0.049576172  0.049713042            6 
 1438000    1.0091478    -5.090758    858.54895  0.049753648  0.049702947            4 
 1439000    1.0259718   -5.0839887    855.03949  0.049515838  0.049692863            6 
 1440000    1.0206644   -5.0984365    855.44558  0.049504953  0.049682443            4 
 1441000    1.0304433   -5.0712563    858.55153  0.049650216  0.049672296            3 
 1442000    1.0311327   -5.1091416    858.87979  0.049634754  0.049661941            2 
 1443000    1.0259991   -5.0700778    860.77108   0.04970958  0.049651642            1 
 1444000    1.0265057   -5.1137235     857.4866  0.049485607  0.049641185            2 
 1445000    1.0208043   -5.0917865    861.73983  0.049696645  0.049631368            5 
 1446000    1.0037635   -5.0746432    861.67056  0.049658285    0.0496213            3 
 1447000     1.028544   -5.1172381    863.12839  0.049707924  0.049610996            4 
 1448000    1.0174218   -5.1011372    863.15177  0.049674941  0.049600674            4 
 1449000    1.0230439   -5.0852331    865.50796  0.049776165  0.049590929            5 
 1450000    1.0129004   -5.0953656    860.92503   0.04947845  0.049581038            4 
 1451000    1.0329056   -5.0932396    864.64529  0.049658011  0.049571346            4 
 1452000    1.0118228    -5.102955    861.78489  0.049459647  0.049561667            3 
 1453000    1.0234661   -5.0704624      868.292  0.049798807  0.049551731            5 
 1454000    1.0294597   -5.1035193    867.59306  0.049724499  0.049541729            5 
 1455000   0.99652115   -5.1157933    866.35643  0.049619498  0.049531732            3 
 1456000    1.0251154   -5.0902464    864.75788  0.049493927  0.049521463            2 
 1457000    1.0085147   -5.0889738    869.30535   0.04972005  0.049511441            1 
 1458000    1.0122069    -5.107641    868.22193  0.049624024  0.049501264            2 
 1459000    1.0063629   -5.0890224      867.727  0.049561743  0.049491475            4 
 1460000    1.0182336   -5.1134597    866.01531  0.049430098  0.049481449            4 
 1461000    1.0363801   -5.1260233    866.13801  0.049403263  0.049471247            3 
 1462000    0.9897747   -5.0451488    868.03831  0.049477788  0.049461218            2 
 1463000    1.0344726   -5.0579559    868.90197  0.049493163    0.0494512            4 
 1464000    1.0087526    -5.098958    869.81064  0.049511079  0.049441007            1 
 1465000    1.0260229   -5.0882233     871.7885   0.04958979  0.049430717            2 
 1466000    1.0360495   -5.0845622    870.13516  0.049461981   0.04942058            4 
 1467000    1.0212977   -5.0863203    870.20012  0.049431954    0.0494104            3 
 1468000    0.9883538   -5.0987215    870.09748  0.049392454  0.049400282            4 
 1469000    1.0208734   -5.1210951    871.73642  0.049451805  0.049390055            3 
 1470000    1.0166909   -5.0884785    872.52533  0.049462887  0.049379875            5 
 1471000    1.0205062    -5.092591    873.14982   0.04946464  0.049369709            4 
 1472000    1.0377783   -5.1223269    870.77334  0.049296498  0.049359604            2 
 1473000    1.0211736   -5.1150258     874.6634  0.049483107  0.049349486            2 
 1474000    1.0056059   -5.0886104    873.37734  0.049376829   0.04933946            3 
 1475000    1.0243896   -5.1424038    870.88563  0.049202578  0.049329217            5 
 1476000    1.0050944   -5.1479281    874.96021  0.049399289   0.04931886            5 
 1477000    1.0036429   -5.1026889    874.27088  0.049326951  0.049308627            3 
 1478000     1.014911   -5.1038522    872.64404  0.049201852   0.04929861            4 
 1479000    1.0317385   -5.0621163    878.67349   0.04950831   0.04928857            5 
 1480000    1.0354583   -5.0909617    873.21364  0.049167435  0.049278386            3 
 1481000    1.0242214   -5.1048372    875.34821  0.049254344  0.049268037            6 
 1482000    1.0248228   -5.0635747    873.54167  0.049119527  0.049257855            5 
 1483000   0.99651592    -5.079799    877.04649   0.04928335  0.049247746            4 
 1484000    1.0043066   -5.1318139    875.66312  0.049172457  0.049237478            5 
 1485000    1.0089528   -5.1088832    875.08385  0.049106838   0.04922706            3 
 1486000     1.000194    -5.087508     877.7602  0.049223878  0.049216872            3 
 1487000    1.0337435   -5.1147538    874.36926  0.049000743  0.049206537            3 
 1488000    1.0006618   -5.0944677    876.40581  0.049081866  0.049196079            4 
 1489000    1.0265482   -5.0694862    880.46937  0.049276325  0.049185633            4 
 1490000    1.0137994   -5.0938884    876.83891  0.049040208  0.049175258            5 
 1491000    1.0222116    -5.105533    878.95217  0.049125428   0.04916482            2 
 1492000   0.99889605   -5.1109017    877.61805  0.049017988  0.049154309            4 
 1493000    1.0150493   -5.1503397    876.44216  0.048919522  0.049143932            3 
 1494000    1.0038102    -5.089123    879.70201  0.049068609   0.04913358            2 
 1495000    1.0192725   -5.0966967     877.4062  0.048907815  0.049123138            3 
 1496000    1.0138632   -5.1160185    880.02041  0.049020745  0.049112608            3 
 1497000    1.0059908   -5.1081194    881.72529  0.049082904  0.049102345            4 
 1498000    1.0281181   -5.0957103    881.25609  0.049024037  0.049091882            3 
 1499000    1.0188254   -5.1098908    882.35625  0.049052493  0.049081456            3 
 1500000    1.0080923   -5.1142529    883.76778   0.04909821  0.049071073            3 
 1501000    1.0035277   -5.1320116     879.5781  0.048832895  0.049060599            2 
 1502000    1.0085611    -5.168655    879.47034  0.048794404  0.049049645            2 
 1503000    1.0037828   -5.1129805    882.19914  0.048913237  0.049039002            3 
 1504000    1.0074643   -5.1060364    882.31162  0.048886947   0.04902843            5 
 1505000    1.0096067   -5.1018703    880.14878  0.048734706  0.049017786            3 
 1506000    1.0341959   -5.1294176    883.67015  0.048897197  0.049007264            3 
 1507000    1.0071077   -5.0838709    884.50573  0.048910956  0.048996624            7 
 1508000    1.0309005   -5.1353193     884.1037  0.048856305  0.048985963            9 
 1509000    1.0120734   -5.1361521     884.3365  0.048836785  0.048975465            1 
 1510000    1.0189142   -5.1458925    884.90902  0.048836039  0.048964985            3 
 1511000    1.0179312   -5.1173146    884.93627  0.048805221  0.048954253            3 
 1512000    1.0067298   -5.0943019    887.32107   0.04890438   0.04894383            4 
 1513000    1.0067558   -5.1101262    888.32301  0.048927242  0.048932984            3 
 1514000   0.97335938   -5.1224087    887.22358  0.048834411  0.048922458            3 
 1515000    1.0065917   -5.0935105    887.64319  0.048825258  0.048911941            5 
 1516000    1.0201819   -5.1113234    886.34312  0.048721588  0.048901498            3 
 1517000    1.0460097   -5.1136486    887.72178  0.048765204  0.048891041            5 
 1518000    1.0019256   -5.0976568     888.4877  0.048775126  0.048880756            7 
 1519000    1.0023018   -5.1267074    893.45012  0.049015258  0.048870511            8 
 1520000    1.0183284   -5.1102199     893.2991  0.048974731  0.048860073            1 
 1521000    1.0330501   -5.1174742    896.71048  0.049129437  0.048849844            3 
 1522000   0.98936265   -5.0973314     892.4943  0.048866311  0.048839651            4 
 1523000    1.0024506   -5.1382608    892.97369  0.048860456  0.048829292            3 
 1524000    1.0257386   -5.1100875    892.49242  0.048802079  0.048818935            3 
 1525000   0.99474235   -5.1146732    893.52216  0.048826348   0.04880857            2 
 1526000    1.0116761   -5.1134144    891.84182   0.04870259  0.048798224            7 
 1527000    1.0171653   -5.1136867    892.72559  0.048718926  0.048788085            3 
 1528000    1.0237561   -5.1120302    895.67901  0.048848113  0.048777927            2 
 1529000    0.9917858   -5.1420894    895.80735   0.04882316  0.048767576            2 
 1530000    1.0084299   -5.1293959    893.49426  0.048665265  0.048757195            3 
 1531000    1.0249432   -5.1173832     893.3708  0.048626758  0.048746556            4 
 1532000   0.99237869   -5.1089562    897.75582  0.048833541  0.048736278            5 
 1533000    1.0092561   -5.1262762    895.53806  0.048681129  0.048726143            7 
 1534000     1.002138   -5.1563947    894.25801  0.048579857    0.0487155            4 
 1535000    1.0161005   -5.1221375     897.4158  0.048719641   0.04870538            4 
 1536000    1.0102175   -5.1466438    895.46612  0.048582146  0.048695606            2 
 1537000     1.005698   -5.1059741    899.12814  0.048749086  0.048685378            2 
 1538000    1.0149452   -5.1315808      902.281  0.048888221  0.048675671            6 
 1539000    1.0060415   -5.1455542    896.91987  0.048566161  0.048666002            6 
 1540000   0.98511265   -5.1420697    899.47292  0.048672777  0.048656116            5 
 1541000     1.014551   -5.1270836    899.60716  0.048648451  0.048646128            2 
 1542000    1.0024553   -5.1088358    902.61846   0.04877964  0.048636407            4 
 1543000    0.9936778   -5.1200931     900.7353  0.048646322  0.048626375            2 
 1544000   0.99568506   -5.1197376    904.50372  0.048818206  0.048616312            6 
 1545000    1.0064522   -5.1242045    903.62213  0.048739058  0.048606475            3 
 1546000   0.99963313    -5.128724    900.44007   0.04853601  0.048596671            1 
 1547000   0.99252746   -5.1338148    904.85432  0.048742422   0.04858684            4 
 1548000    1.0145561   -5.1615616    900.19677  0.048460205  0.048576952           10 
 1549000    1.0172127   -5.1174266    903.85448  0.048625698  0.048567086            3 
 1550000    1.0077116   -5.1257067    904.26118  0.048616193  0.048557107            7 
 1551000    1.0124867   -5.1512154    905.64041  0.048658952  0.048547296            3 
 1552000   0.98379049    -5.106521    906.69928  0.048684454  0.048537545            2 
 1553000    0.9971506   -5.1203464    905.62602  0.048595515  0.048527701            3 
 1554000    1.0032914   -5.1073098     908.5521  0.048721155  0.048517929            3 
 1555000    1.0196142    -5.132205      907.853  0.048652358   0.04850819            2 
 1556000    1.0046747   -5.1263647    906.43664  0.048545236  0.048498377            5 
 1557000    1.0215921   -5.1092811    908.11907  0.048604103  0.048488398            5 
 1558000   0.99213326    -5.145505    908.27539  0.048581268  0.048478535            1 
 1559000    1.0240244   -5.1630936    904.26307  0.048335636  0.048468683            3 
 1560000    1.0086774   -5.1536405    908.86772  0.048550626  0.048458675            5 
 1561000   0.97881763   -5.1821525    905.36353  0.048332454  0.048448764            5 
 1562000    1.0022898   -5.1098575    909.80662  0.048538552   0.04843899            2 
 1563000    1.0070079   -5.1608525    908.01921    0.0484122  0.048429064            2 
 1564000   0.97810292   -5.1291141    911.77992  0.048581624  0.048419179            2 
 1565000   0.98879429   -5.1098262    910.65802  0.048490842  0.048409145            3 
 1566000   0.99061938   -5.0973269    912.90844  0.048579632  0.048399442            4 
 1567000   0.98239221    -5.160312    910.18934  0.048404028  0.048389335            3 
 1568000    1.0036662   -5.1539785     912.8675  0.048515492  0.048379109            5 
 1569000    1.0063204   -5.1432362    909.44882  0.048302997  0.048369066            2 
 1570000    1.0106171   -5.1225205    913.21917  0.048472355  0.048359227            2 
 1571000    1.0058982   -5.1500219    911.23167  0.048336074  0.048349457            2 
 1572000    1.0307697   -5.1294706     912.6513  0.048380582  0.048339441            4 
 1573000   0.99911253   -5.1386328    913.83163  0.048412356  0.048329467            2 
 1574000     1.004063   -5.1437988    909.68618  0.048162123  0.048319534           11 
 1575000   0.99874155   -5.1560272    911.20535  0.048211923  0.048309394            4 
 1576000   0.99683542   -5.1437044    915.88399  0.048428722  0.048299308            5 
 1577000   0.99844646    -5.163492    915.09404  0.048356269  0.048289259            3 
 1578000   0.99691316   -5.1196538    916.36191  0.048392581   0.04827925            3 
 1579000   0.98155574   -5.1636026    908.70227  0.047957688  0.048269273            3 
 1580000    1.0225608   -5.1374275    915.28009  0.048274266  0.048259041            7 
 1581000    1.0000675   -5.1545524    916.10715  0.048287326  0.048249022            1 
 1582000   0.98720961   -5.1154174    919.82589  0.048452691  0.048239183            2 
 1583000    1.0201765   -5.1324528    916.43279  0.048243461  0.048228872            4 
 1584000    1.0173868   -5.1405356    913.08831  0.048037053  0.048218552            3 
 1585000    1.0299443   -5.1357611    916.30322  0.048175774  0.048208372            2 
 1586000    1.0002492   -5.1392336    917.03366  0.048183778  0.048198333            3 
 1587000   0.97351899   -5.1285092    916.18363  0.048108781  0.048188294            4 
 1588000   0.98581117   -5.1092419    918.51592  0.048200878   0.04817794            2 
 1589000   0.99355967     -5.12778    918.20545  0.048154261  0.048167785            2 
 1590000    0.9966747   -5.0967865      918.942  0.048162579  0.048157394            8 
 1591000    1.0140684   -5.1195639    920.73848  0.048226402  0.048147078            5 
 1592000   0.99913562   -5.1142873     922.1601  0.048270525  0.048136774            5 
 1593000   0.99985177   -5.1252763    917.87069  0.048015834  0.048126447            4 
 1594000   0.99428243   -5.1196611    919.06846   0.04804833  0.048115824            5 
 1595000   0.99842238   -5.1524345     917.6665  0.047944958  0.048105363            4 
 1596000   0.98597005   -5.1132096    923.18638  0.048203132  0.048094881            2 
 1597000   0.98834672   -5.1289356    921.89343  0.048105481  0.048084251            2 
 1598000    1.0169294   -5.1974007    915.69673  0.047752228  0.048073513            1 
 1599000   0.99635179   -5.1191951    918.67591  0.047877627  0.048063003            3 
 1600000   0.98707168   -5.1437507    921.32171  0.047985506  0.048052532            2 
 1601000     1.011648   -5.0990588    922.35471  0.048009302  0.048042068            4 
 1602000   0.97657178    -5.132271    922.23819  0.047973272  0.048031513            3 
 1603000   0.99599657   -5.1491909    922.90051  0.047977777  0.048021391            6 
 1604000   0.99526073   -5.1384653     919.8214  0.047787895  0.048010986            4 
 1605000   0.98008624   -5.1176476    926.21042  0.048089845  0.048000658            6 
 1606000   0.99341976   -5.1603884    925.53598  0.048024906  0.047990437            4 
 1607000   0.98374218   -5.1839782    919.42909  0.047678339  0.047980146            6 
 1608000      0.97855    -5.138116    923.02364  0.047834973  0.047969628            4 
 1609000     1.002341   -5.1595539    925.62188  0.047939812  0.047959114            9 
 1610000   0.98842111   -5.1403106    926.36099  0.047948291   0.04794876            6 
 1611000   0.99832823    -5.153228    924.30212  0.047812028  0.047938399            4 
 1612000   0.96175693   -5.1361922    927.46748  0.047946003   0.04792808            4 
 1613000    1.0050563   -5.1648087    927.37244  0.047911368  0.047917733            6 
 1614000   0.99497302   -5.1580225    926.32047  0.047827368  0.047907435            5 
 1615000   0.98348578   -5.1674767    926.37115  0.047800369  0.047897239            2 
 1616000   0.98023428   -5.1290235    926.90525  0.047798332  0.047887095            6 
 1617000   0.99600921   -5.1271733    932.21369  0.048042347  0.047876903            6 
 1618000   0.98852073   -5.1472605    930.96123  0.047948147  0.047866741            3 
 1619000   0.98051905    -5.150755    927.93431   0.04776273  0.047856484            4 
 1620000   0.97559089   -5.1666514    926.08116   0.04763792  0.047846258            2 
 1621000   0.99981324   -5.1597036    929.05649  0.047761489  0.047836009            1 
 1622000    0.9928409   -5.1158792    930.23328  0.047792503   0.04782596            3 
 1623000   0.98333246   -5.1245208    935.07541  0.048011676  0.047815779            2 
 1624000    1.0028933   -5.1525991    934.21354  0.047937887  0.047805917            3 
 1625000    1.0227329   -5.1258164    934.29757  0.047912696  0.047796061            4 
 1626000   0.97715761   -5.1497409    932.11842  0.047771547  0.047786178            2 
 1627000    0.9919269   -5.1720995    937.22475  0.048003726   0.04777631            3 
 1628000    1.0004933   -5.1631353    936.39657  0.047931847  0.047766653            6 
 1629000   0.98373635    -5.147742    931.85189  0.047669935  0.047756585            4 
 1630000   0.98423833   -5.1324939    938.25852  0.047968227  0.047746793            2 
 1631000   0.96683936   -5.2076606     931.3877  0.047587763  0.047736756            6 
 1632000   0.99099122   -5.1493648    936.56371  0.047822902  0.047726561            3 
 1633000   0.99221081   -5.1612172    935.90421  0.047759961  0.047716699            2 
 1634000    1.0033139    -5.123947    940.75187  0.047977962  0.047706981            4 
 1635000   0.97078956   -5.1797362    934.41339  0.047625555  0.047697109            4 
 1636000   0.98234478   -5.1684354    936.64316  0.047710022  0.047687165            5 
 1637000   0.98199451   -5.1443503    937.87552  0.047743612  0.047677158            4 
 1638000    1.0062154   -5.2084387    936.21772  0.047630124  0.047667152            2 
 1639000    1.0034948   -5.1604846    938.03962  0.047693696  0.047656985            4 
 1640000   0.98045715   -5.1262189    939.39001  0.047733232  0.047647184            2 
 1641000    0.9896461   -5.1328136    938.74051  0.047671161  0.047637257            5 
 1642000   0.97849041    -5.173226    938.59962  0.047634979  0.047627173            4 
 1643000   0.99928931   -5.1181984    939.34344  0.047643713  0.047617076            1 
 1644000    1.0193844   -5.1477958    939.83227  0.047639511  0.047607387            3 
 1645000    0.9924507   -5.1189804    942.84633  0.047763238  0.047597508            5 
 1646000   0.98544306   -5.1766107    939.45236  0.047562392  0.047587419            4 
 1647000   0.99476765   -5.1356404    941.71707  0.047648101  0.047577402            2 
 1648000   0.99556721   -5.1662621    940.42553   0.04755388  0.047567438            5 
 1649000   0.98755751   -5.1699152     940.7348  0.047540671  0.047557441            2 
 1650000   0.97288234   -5.1436573    943.98492  0.047676006  0.047547191            2 
 1651000   0.96967217   -5.1559198    941.51087  0.047522253  0.047536926            2 
 1652000   0.99740638   -5.1651084    943.57215  0.047597465  0.047526607            5 
 1653000   0.99011647   -5.1606547     941.4717   0.04746278  0.047516463            5 
 1654000   0.98308701   -5.1492213    944.01802  0.047562375  0.047506333            6 
 1655000   0.96455911   -5.1271794    944.04555  0.047535022  0.047496179            3 
 1656000   0.98523754   -5.1856428    944.20463  0.047514323  0.047486051            6 
 1657000   0.98388531   -5.1853429    942.80133  0.047415074  0.047475719           10 
 1658000    0.9992304   -5.1381266    945.56223  0.047525243  0.047465596            4 
 1659000   0.98094877   -5.1767041    946.64372   0.04755092  0.047455479            5 
 1660000    0.9681231   -5.1937173    943.12537  0.047345651  0.047445136            3 
 1661000   0.98480411   -5.1544123    950.34429  0.047679324  0.047434882            3 
 1662000   0.98859371    -5.155871    946.80237  0.047473043  0.047424819            2 
 1663000   0.98349984     -5.17512    946.33455  0.047421054  0.047414698            2 
 1664000   0.98755711   -5.1742422    945.56914  0.047354224  0.047404407            3 
 1665000   0.99166438   -5.1641143    947.41451  0.047418143  0.047393816            4 
 1666000   0.99142391   -5.1722889    942.95795  0.047166764   0.04738328            7 
 1667000   0.97479428    -5.160447    944.71076  0.047226093  0.047372689            7 
 1668000   0.99174852   -5.1515128    946.83783  0.047304048  0.047362046            6 
 1669000   0.97107476   -5.1618002    946.28111  0.047247909   0.04735141            3 
 1670000   0.97501703   -5.1493947     948.2714  0.047318932  0.047340964            3 
 1671000   0.99354134    -5.159328     946.3771  0.047196145  0.047330443            5 
 1672000   0.97786821    -5.171871    949.86168  0.047341591  0.047320065            3 
 1673000    0.9831761   -5.1150902    953.14063   0.04747662  0.047309579            2 
 1674000   0.99424138   -5.1623466    949.39183   0.04726164   0.04729936            2 
 1675000    1.0000697   -5.1748031    950.95123  0.047311007  0.047288914            3 
 1676000   0.98690455   -5.1602278    946.81374  0.047077055  0.047278474            2 
 1677000   0.97243645   -5.1449128    951.59071   0.04728636   0.04726811            3 
 1678000   0.97462933   -5.1724292    947.95898   0.04707782  0.047257531            3 
 1679000   0.97275995   -5.1331883    950.83305  0.047192429  0.047247075            2 
 1680000   0.97029325   -5.1923596    947.66793  0.047007338  0.047236397            4 
 1681000   0.99117665   -5.1520363     954.3569  0.047310971  0.047225759            3 
 1682000   0.97170261    -5.189837     950.7813  0.047105693  0.047215253            2 
 1683000   0.99986707   -5.2050765    949.16584  0.046997714  0.047204599            6 
 1684000    1.0152492   -5.1743951    953.48264  0.047183425  0.047193985            3 
 1685000   0.98155479   -5.1941638    947.70388  0.046869628  0.047183275            4 
 1686000   0.96084865   -5.1829956     953.1004  0.047108561  0.047172478            2 
 1687000   0.95327678   -5.1791951    952.57442  0.047054654  0.047161712            3 
 1688000   0.99981146   -5.1755769    951.88111  0.046992551  0.047151143            4 
 1689000   0.99757776   -5.1837877    953.09133  0.047024439  0.047140674            4 
 1690000    0.9881167   -5.1585028    955.74455  0.047127443   0.04713003            7 
 1691000   0.98102351   -5.1425791    953.45058  0.046986526  0.047119403            3 
 1692000   0.98998229   -5.1424407    957.27699  0.047147212  0.047108978            4 
 1693000   0.95622208   -5.1865145    955.49612  0.047031705  0.047098904            3 
 1694000   0.96894303   -5.1615046    961.01937  0.047275648  0.047088631            3 
 1695000   0.98257665   -5.1914421    958.98423    0.0471477  0.047078507            5 
 1696000   0.99472598   -5.1593015    958.00636  0.047071853  0.047068473            6 
 1697000   0.97640978   -5.2068193    956.70026  0.046979977  0.047058157            2 
 1698000   0.98997347   -5.1547478    962.70704  0.047247106   0.04704793            3 
 1699000    0.9794681   -5.1932669    955.91113  0.046885969  0.047037707            3 
 1700000    1.0046325   -5.1890732    958.01228  0.046961386  0.047027691            4 
 1701000   0.97331734   -5.1812643    958.51663  0.046958487  0.047017327            6 
 1702000   0.99264402   -5.1549646    962.73537  0.047137454  0.047007195            2 
 1703000   0.97531793   -5.1417325    965.11236  0.047226089  0.046997086            2 
 1704000   0.97208492   -5.1819103    956.05422   0.04675539  0.046986896            5 
 1705000   0.98763505   -5.1781399    960.44713  0.046942675  0.046976538            2 
 1706000   0.96661747   -5.1447565    962.84161  0.047032123  0.046966149            4 
 1707000   0.99378147   -5.1784027    959.46701  0.046839827  0.046955781            4 
 1708000   0.97324851   -5.1753332    962.99111  0.046984344  0.046945397            3 
 1709000   0.97944737   -5.1618907     960.4643   0.04683364   0.04693504           10 
 1710000   0.99880701   -5.1605986    962.17164  0.046889456  0.046924455            3 
 1711000   0.98110121   -5.1929529    962.07975  0.046857576   0.04691407            4 
 1712000   0.94406587   -5.1394575    962.54129  0.046852672  0.046903646            3 
 1713000   0.99055787   -5.1455526    963.20642  0.046857678  0.046893147            3 
 1714000   0.96704251   -5.1302103    965.44175   0.04693902  0.046882726            2 
 1715000   0.97222421   -5.1636455    962.27442  0.046757746  0.046872189            4 
 1716000   0.97410984   -5.1875027    961.32555  0.046684419  0.046861512            6 
 1717000   0.98494967   -5.2168163    961.93999  0.046687051  0.046850656            2 
 1718000    0.9955486   -5.1536852     963.3388  0.046727726  0.046840037            2 
 1719000   0.98277675   -5.1928163    963.07714  0.046687858  0.046829258            5 
 1720000    0.9756929   -5.1559002    963.06064  0.046659915  0.046818771            5 
 1721000   0.97181178   -5.1962805    962.77897  0.046619164  0.046808086            4 
 1722000   0.98184092    -5.179098    962.39006   0.04657327  0.046797487            6 
 1723000   0.95213226   -5.1848982     965.2691  0.046685486  0.046786816            4 
 1724000   0.94987265   -5.1910225    963.31717  0.046564055  0.046775939            4 
 1725000   0.96468349   -5.1881495    965.04756  0.046620655  0.046765116            4 
 1726000   0.95109932   -5.1739388    965.12063  0.046597172  0.046754633            5 
 1727000    0.9747163   -5.2116456    964.53462  0.046541914  0.046743831            4 
 1728000   0.96863348   -5.1967311    965.75695  0.046573927  0.046733024            3 
 1729000   0.98355116   -5.1805642     964.5087  0.046486827  0.046722102            3 
 1730000   0.98333592    -5.167917    968.72227  0.046662922  0.046711487            4 
 1731000   0.97229276    -5.186606    965.68213  0.046489608  0.046700784            2 
 1732000   0.96204777   -5.1852884      966.154   0.04648547  0.046690142            4 
 1733000   0.97869763   -5.1740666    967.01431  0.046500015  0.046679351           11 
 1734000   0.97992625   -5.1838114    969.00776  0.046569001  0.046668812            5 
 1735000   0.97231909   -5.2187077    967.98739   0.04649315  0.046658099            3 
 1736000   0.98562091   -5.1671647    971.04986  0.046613376  0.046647549            5 
 1737000   0.97440383   -5.1936648    969.19652  0.046497626   0.04663684            1 
 1738000    0.9720625   -5.1894502    971.76363   0.04659396  0.046626036            4 
 1739000   0.98700413   -5.1758348    971.21649  0.046540947   0.04661528            3 
 1740000    1.0045845   -5.1890795    970.04925  0.046458297  0.046604437            4 
 1741000   0.97573785   -5.2033966    972.58272  0.046552878  0.046593563            6 
 1742000   0.98489251   -5.1627361    969.56133  0.046381617  0.046582888            3 
 1743000   0.96497145   -5.1864866    972.90986  0.046515101  0.046572466            6 
 1744000   0.97613132   -5.1781873    972.75468  0.046481015  0.046561484           10 
 1745000   0.96601803   -5.2141051    969.33241  0.046290946  0.046550736            5 
 1746000   0.97570115   -5.1817287    972.70191  0.046425254  0.046539867            6 
 1747000   0.98713108   -5.1776502    972.00291  0.046365336  0.046529235            4 
 1748000   0.96341901   -5.1941645    969.50848  0.046219893  0.046518627            5 
 1749000   0.97680237   -5.1930527    976.42237  0.046522888  0.046507851           11 
 1750000    0.9783613   -5.1569271    975.77342  0.046465401  0.046497243           11 
 1751000   0.96502242   -5.2126267    969.96952  0.046162646  0.046486327            3 
 1752000   0.95786007   -5.1806506    973.62229  0.046310041  0.046475403            3 
 1753000   0.98461443   -5.1898147    974.80485  0.046339839  0.046464421            3 
 1754000   0.96167135   -5.1711981    978.58121  0.046492836  0.046453659            3 
 1755000   0.96017901   -5.1753984    974.87124  0.046290182  0.046442952            4 
 1756000   0.98490123    -5.165117    980.07431   0.04651074  0.046432381            4 
 1757000   0.99141256   -5.1862776    976.42081  0.046310985  0.046421663            5 
 1758000    0.9921322    -5.194926    972.69401  0.046107983  0.046410983            4 
 1759000   0.97211478   -5.1984353    978.35161  0.046349801  0.046400253            5 
 1760000   0.97920017   -5.1735399    976.17456  0.046220386  0.046389454            6 
 1761000   0.97161423   -5.1813005     975.2859  0.046152087  0.046378538            6 
 1762000   0.97140669   -5.1958706    973.63367  0.046047752  0.046367815            7 
 1763000   0.97210479   -5.1982397    977.50393  0.046204572  0.046356882            3 
 1764000   0.96460432   -5.1848207    978.54486  0.046227554  0.046346123            3 
 1765000   0.98382013   -5.1960921    973.62888  0.045969258  0.046335273            1 
 1766000   0.97249088   -5.1789515    978.84574  0.046189399  0.046324479            5 
 1767000   0.98863369   -5.2004009    978.78836  0.046160553  0.046313519            3 
 1768000   0.98281095   -5.1817094    977.88397  0.046091816  0.046302608            3 
 1769000   0.96937218   -5.1909666    979.19127  0.046127345   0.04629183            3 
 1770000   0.98873834   -5.2054133     977.7415  0.046033027  0.046280823            3 
 1771000   0.96666877   -5.2243408     978.8699  0.046060131  0.046269964            3 
 1772000   0.95958187   -5.1980883     977.5029  0.045969851  0.046259276           11 
 1773000   0.98062065   -5.2033816    980.29481  0.046075146  0.046248465           10 
 1774000   0.97845777   -5.2401227    975.04779  0.045802696  0.046237536            4 
 1775000   0.96912027   -5.2235536    980.61927  0.046038463   0.04622687            4 
 1776000   0.97343143   -5.2147158     983.0085  0.046124648  0.046216211            3 
 1777000   0.99681141    -5.205744    984.47823  0.046167615   0.04620567            6 
 1778000   0.96977749   -5.2132512    983.61651  0.046101261  0.046194869            2 
 1779000   0.97988428   -5.2044072    982.49382  0.046022757  0.046184289            3 
 1780000   0.99856041   -5.1759919    984.64538   0.04609763  0.046173534            3 
 1781000   0.96579583   -5.1831691    983.53858   0.04601996  0.046162889            5 
 1782000   0.95472495   -5.2228522    986.61892  0.046138184  0.046152289            5 
 1783000   0.94761774   -5.1945079    986.34855   0.04609967  0.046141691            5 
 1784000   0.97342977   -5.2020284    987.94788  0.046148537  0.046131089            2 
 1785000   0.98176339   -5.2123763    983.35981  0.045908488  0.046120484            4 
 1786000   0.95636409   -5.2084689     985.6833  0.045991195  0.046109731            3 
 1787000   0.97586666   -5.2052987    983.98849  0.045886424   0.04609905            2 
 1788000   0.98059938    -5.212706    986.36906  0.045971712  0.046088298            4 
 1789000   0.96048519   -5.1908139    983.79128   0.04582594  0.046077418            2 
 1790000   0.94794139   -5.2077509    986.62077  0.045932065   0.04606668            2 
 1791000   0.94570176   -5.1976231    986.13203  0.045883679  0.046055823            4 
 1792000   0.96225153    -5.181881    987.00967  0.045898887  0.046045112            4 
 1793000   0.97701721   -5.1793765    989.39337  0.045984075  0.046034366            4 
 1794000   0.94707694   -5.1886326    987.98629  0.045893083  0.046023771            3 
 1795000   0.93805968   -5.2182306    985.21161    0.0457387  0.046012858            3 
 1796000   0.96346723   -5.1811217    987.15826  0.045803557  0.046002153            4 
 1797000   0.96529865   -5.1899472    986.98493   0.04577003   0.04599112            5 
 1798000   0.95634009   -5.2268469    985.56348  0.045678693  0.045980118            6 
 1799000   0.98830095   -5.2103158    986.51234  0.045697255  0.045969145            3 
 1800000   0.95708261   -5.1895078    990.18878  0.045842073  0.045958032            3 
 1801000   0.96008754   -5.2113731    988.05979   0.04571811  0.045946959            6 
 1802000   0.95813752   -5.2123753    987.01453  0.045644401  0.045936077            5 
 1803000   0.91672712   -5.1919056    988.89637  0.045706063  0.045925231            7 
 1804000   0.95126846    -5.238641    986.50497  0.045570259  0.045914271            8 
 1805000   0.96950469    -5.220175    989.36844  0.045677213  0.045903389            5 
 1806000   0.96881037   -5.2342888    989.05309   0.04563737  0.045892213            7 
 1807000   0.95120121   -5.1910151     989.9703  0.045654413  0.045881389            3 
 1808000   0.96748849   -5.2139552     990.4893  0.045653084  0.045870302            2 
 1809000   0.94715944   -5.1822628    991.83811  0.045689981  0.045859349            3 
 1810000   0.96362286   -5.1952043    989.62582  0.045562883  0.045848444            2 
 1811000   0.93553446   -5.2314269    993.01579  0.045693714  0.045837475            8 
 1812000   0.94656085   -5.2194149    991.79286  0.045612255  0.045826362            2 
 1813000   0.98405799   -5.2168183    993.90633   0.04568424  0.045815223            5 
 1814000   0.98012869   -5.2034294    995.96124  0.045753456  0.045804203            3 
 1815000   0.96172624   -5.1969568    993.20175   0.04560155  0.045793332            4 
 1816000   0.95892449   -5.1911579    994.08984  0.045617192  0.045782643            5 
 1817000   0.94072622   -5.1785862    997.34377  0.045741321   0.04577164            3 
 1818000   0.96275518   -5.2270892    991.45847  0.045446391  0.045760557            4 
 1819000   0.96103867   -5.1933028     997.3297  0.045690384  0.045749605            2 
 1820000   0.95394727   -5.2158443    990.94973  0.045373156  0.045738723            8 
 1821000   0.93778628   -5.2461888    991.96577  0.045394736  0.045727691            4 
 1822000   0.96942706   -5.2336504    992.68512  0.045402722  0.045716551            3 
 1823000   0.95199979   -5.2023143    995.02138  0.045484612   0.04570555            8 
 1824000   0.97623798   -5.2199021    996.14415  0.045510972    0.0456944            2 
 1825000   0.94011646   -5.2087433    999.49288  0.045638944  0.045683437            4 
 1826000   0.93977574   -5.2164121    997.16938  0.045507912  0.045672477            5 
 1827000   0.96245592    -5.226396    995.96904  0.045428254   0.04566172            2 
 1828000   0.97732768    -5.225552    998.93915  0.045538801  0.045650941            4 
 1829000   0.95458695   -5.2156835    998.14893  0.045477899  0.045640155            5 
 1830000   0.96434443   -5.2193825    1001.9828  0.045627633  0.045629193            4 
 1831000   0.95409905   -5.2130195     997.7525  0.045410181  0.045618485            4 
 1832000    0.9685609   -5.2297045    999.76278  0.045476837  0.045607845            5 
 1833000   0.95205231   -5.2022147    999.29772  0.045430884  0.045596901            3 
 1834000   0.96597277   -5.1939076    1000.9688  0.045482041  0.045586024            2 
 1835000   0.94531367   -5.2362412    998.89153  0.045362921  0.045575238            3 
 1836000    0.9686171   -5.2020621     999.1264  0.045348874  0.045564529            4 
 1837000   0.97154712   -5.2088003    1003.4925  0.045522251  0.045553792            5 
 1838000   0.97570551    -5.184501     1002.121  0.045435301  0.045543063            7 
 1839000   0.96320923   -5.2365477    1002.8194  0.045442242   0.04553222            5 
 1840000   0.94693229    -5.219143    1000.0059   0.04529012  0.045521277            8 
 1841000   0.95131411   -5.2268367    1001.9392  0.045353031  0.045510456            3 
 1842000   0.95418268   -5.2640632    1000.2284  0.045251011  0.045499601            4 
 1843000   0.95511787    -5.196353    1000.1183  0.045221482  0.045488483            4 
 1844000   0.95120597   -5.2273228    999.73339  0.045179564  0.045477402            4 
 1845000   0.97617917    -5.264314    999.03618  0.045123585  0.045466064            3 
 1846000   0.96537746   -5.2170102     1005.802  0.045404569  0.045454928            3 
 1847000   0.95616301   -5.1942778    1005.8024  0.045380005  0.045443925            8 
 1848000   0.95096972   -5.2459424    1003.4924   0.04525128  0.045432932            4 
 1849000   0.96352176   -5.2351676    1002.9373  0.045201789  0.045421827            5 
 1850000   0.96286023    -5.246113    1003.5199  0.045203599  0.045410711            6 
 1851000   0.95953627   -5.2155216     1004.891  0.045240904  0.045399736            4 
 1852000   0.92872568   -5.2478784    1002.8197  0.045123277  0.045388833            3 
 1853000   0.95392158   -5.2189828    1004.8926   0.04519215  0.045377727            6 
 1854000    0.9639617    -5.237653    1002.1809  0.045045889  0.045366805            3 
 1855000   0.94174128   -5.2278078    1002.7867  0.045048818  0.045355644            3 
 1856000   0.95321147   -5.2215159    1006.1111  0.045173809  0.045344476            3 
 1857000   0.94906634   -5.2306806    1005.4312  0.045118975  0.045333344            2 
 1858000   0.95499871   -5.2159082    1003.4564  0.045006119  0.045322309            3 
 1859000   0.93785086    -5.229552    1005.5812  0.045077155  0.045311132            4 
 1860000   0.93371082    -5.200088    1006.6071  0.045098882  0.045300026            2 
 1861000   0.97468902   -5.2083272    1007.6269  0.045120316  0.045289017            3 
 1862000   0.95082226   -5.2091096    1004.6621  0.044963395  0.045278072            2 
 1863000   0.95337224    -5.224152    1008.4421  0.045108342  0.045267016            2 
 1864000   0.94778691   -5.2516682    1005.5595  0.044955271    0.0452562            8 
 1865000   0.94653834   -5.2379685    1011.4108   0.04519262  0.045245213            2 
 1866000   0.95622267   -5.2108563    1011.6026  0.045176963  0.045234301            9 
 1867000   0.94597069   -5.2391149    1006.6119  0.044930007  0.045223338            3 
 1868000   0.94410413   -5.2282334     1009.296  0.045025697  0.045212294            6 
 1869000   0.94874119   -5.2287375    1006.8427  0.044892218  0.045201251            2 
 1870000   0.95826441   -5.2317356    1012.9005  0.045138169  0.045190289            7 
 1871000   0.91503543    -5.242556    1011.3462  0.045044816  0.045179481            4 
 1872000   0.95659565   -5.2042282    1013.4928   0.04511631  0.045168787            3 
 1873000   0.93065087   -5.2300266    1013.3481  0.045085784  0.045157949            9 
 1874000   0.93967587    -5.218903     1010.383  0.044929873  0.045147008            4 
 1875000   0.94562457   -5.2396449    1009.8009  0.044880041  0.045136021            7 
 1876000   0.96126338   -5.2367018    1010.9088  0.044905332  0.045125091            3 
 1877000   0.91490258   -5.2245063    1008.8052  0.044788011  0.045114071            2 
 1878000   0.95967539   -5.2439535    1008.9743  0.044771666  0.045103048            9 
 1879000   0.94383892   -5.2575065     1014.532  0.044994323  0.045092158            4 
 1880000   0.94575908    -5.220984    1015.1981  0.044999916  0.045081442            3 
 1881000   0.94834341   -5.2133706    1013.7355  0.044911196  0.045070836            6 
 1882000   0.95249283   -5.2338076    1017.2473  0.045042831  0.045060152            3 
 1883000   0.97695948   -5.2294545    1015.1298  0.044925199  0.045049355            3 
 1884000   0.99219995   -5.2271403    1014.6641  0.044880754  0.045038688            3 
 1885000    0.9477809   -5.2214304    1017.0165  0.044960941  0.045028074            7 
 1886000   0.93723313   -5.2587476     1015.246  0.044858872  0.045017235            6 
 1887000    0.9514474   -5.2775882    1014.6228   0.04480758  0.045006283            3 
 1888000   0.94495123   -5.2239068    1019.8979  0.045016679  0.044995605            5 
 1889000    0.9414892   -5.2468778    1020.2159  0.045006877   0.04498486            4 
 1890000    0.9585216   -5.2454557    1019.6174  0.044956675  0.044974067            2 
 1891000   0.94535838   -5.1864587    1025.5187  0.045192961  0.044963713            5 
 1892000   0.93279232   -5.2796038    1017.6696   0.04482336  0.044953211            5 
 1893000   0.95576355   -5.2377286     1019.501  0.044880305  0.044942611            5 
 1894000   0.94623321   -5.2089737    1020.6512  0.044907217  0.044932202            6 
 1895000   0.95523415   -5.2259747     1018.198  0.044775637  0.044921576            3 
 1896000   0.94231008   -5.1945886    1021.5782  0.044900588  0.044911148            2 
 1897000   0.97811309   -5.2782285    1016.7307  0.044663974  0.044900698            6 
 1898000    0.9492232   -5.2516788    1019.8459  0.044777216  0.044890131            7 
 1899000   0.96890943   -5.2592558    1020.0793  0.044763882  0.044879552            9 
 1900000   0.95265199   -5.2529752    1021.0667  0.044783627  0.044868906            3 
 1901000   0.94871304   -5.2135743    1025.4962  0.044954244  0.044858577            7 
 1902000   0.94687273   -5.2428806    1021.5401  0.044757278  0.044847998            2 
 1903000   0.91982234   -5.2422461    1020.9383  0.044707403  0.044837515            6 
 1904000   0.94968031   -5.2132954    1025.8575  0.044899224   0.04482689            5 
 1905000   0.92737057   -5.2037673    1025.3098  0.044851698   0.04481634            2 
 1906000   0.93246407   -5.2437648    1019.2965  0.044565254  0.044805838            2 
 1907000   0.94847454   -5.2412019    1026.5432  0.044858556  0.044795198            9 
 1908000   0.95871308   -5.2054496    1022.6289  0.044664085  0.044784584            3 
 1909000   0.94140133   -5.2176723    1026.8218  0.044823721  0.044774209            2 
 1910000   0.94788684   -5.2457295    1023.7029  0.044664175  0.044763702            6 
 1911000   0.95425723   -5.2341273     1023.401  0.044627638  0.044752996            5 
 1912000    0.9281899   -5.2518982    1026.2104  0.044726745  0.044742328            4 
 1913000   0.97717269   -5.2796277    1020.1833  0.044440813  0.044731671            9 
 1914000   0.93699257   -5.2455627    1025.0515   0.04462955  0.044720952            5 
 1915000   0.95096992   -5.2578255    1026.7624  0.044680697  0.044710205            2 
 1916000   0.95373883   -5.2064149     1027.797  0.044702376  0.044699524            5 
 1917000   0.93465371    -5.282568    1023.2633  0.044481971  0.044688794            5 
 1918000   0.96975936   -5.2575706    1021.9514  0.044401783  0.044677922            3 
 1919000   0.93569647   -5.2578937    1025.3723  0.044527198  0.044666948            2 
 1920000   0.93749143   -5.2548495    1023.6193  0.044427921  0.044656083            6 
 1921000    0.9336914   -5.2479578    1026.5058   0.04453001  0.044645315            5 
 1922000   0.93223926   -5.2619109    1023.6572  0.044383332  0.044634408            3 
 1923000   0.95292205   -5.2412516    1028.3698  0.044564472  0.044623648            6 
 1924000    0.9304951   -5.2676756     1025.638   0.04442299  0.044612828            6 
 1925000   0.95045358   -5.2460306     1026.643  0.044443421  0.044601925            2 
 1926000   0.96057444   -5.2465071    1026.1151  0.044397505  0.044591176            6 
 1927000   0.93248086   -5.2486242    1031.0468  0.044587737  0.044580427            3 
 1928000   0.93992891   -5.2914006    1027.4678  0.044409917  0.044569582            5 
 1929000   0.94569538    -5.207235    1031.7288  0.044570971  0.044558657            8 
 1930000   0.92384438   -5.2489776    1031.0028  0.044516527   0.04454801           10 
 1931000   0.95886751   -5.2429433    1031.0696  0.044496359    0.0445373            3 
 1932000   0.92687522   -5.2558729    1029.0138  0.044384653  0.044526649            4 
 1933000   0.94399125   -5.2736467    1028.5976   0.04434375  0.044515756            6 
 1934000   0.92951943   -5.2551741    1030.7094  0.044411815  0.044504993            3 
 1935000   0.94666335    -5.248885    1030.3627  0.044373933  0.044494332            3 
 1936000   0.96031623   -5.2421952    1032.6973  0.044451502  0.044483782            4 
 1937000   0.96934667   -5.2510384    1029.9065  0.044308486  0.044473199            5 
 1938000   0.93119011   -5.2556816     1030.698  0.044319659   0.04446236            3 
 1939000     0.937507   -5.2482813    1030.3209  0.044280595  0.044451622            6 
 1940000   0.94468113   -5.2595891    1032.7861  0.044363665    0.0444407            4 
 1941000   0.93483081   -5.2831122     1032.515   0.04432917   0.04442998            4 
 1942000   0.93994117   -5.2286999    1036.5947  0.044481406  0.044419328            4 
 1943000   0.93819114    -5.282928    1033.8346  0.044340136  0.044408627            4 
 1944000   0.92946928   -5.2733738    1033.5738  0.044306146  0.044398029            3 
 1945000   0.93905921   -5.2449667      1035.65  0.044372322  0.044387413            4 
 1946000   0.94054316   -5.2415888    1039.7461  0.044524927   0.04437698            7 
 1947000   0.96271025   -5.2186368    1035.4711  0.044319085  0.044366553            2 
 1948000   0.95169234    -5.249759    1037.5293  0.044384383  0.044356276            4 
 1949000   0.95947275   -5.2696503    1038.7663  0.044414497   0.04434584            3 
 1950000   0.92665445   -5.2553475    1037.7226  0.044347119  0.044335426            2 
 1951000   0.94865623   -5.2418166     1043.914  0.044588844  0.044325134            4 
 1952000   0.95490461   -5.2417458    1037.3253  0.044284722  0.044314714            3 
 1953000   0.94811552   -5.2454618    1038.4422  0.044309702  0.044304302            5 
 1954000   0.94283647   -5.2308655     1042.358  0.044454024  0.044293922            5 
 1955000   0.94808029   -5.2774047     1037.169  0.044210102  0.044283458            2 
 1956000   0.92815716   -5.2701359    1042.1702  0.044400569  0.044272991            5 
 1957000   0.94481821   -5.2837349    1040.2226  0.044294949  0.044262628            4 
 1958000   0.92602621    -5.275589    1039.3447  0.044234965  0.044252455            5 
 1959000   0.91886439    -5.292497    1037.8569  0.044149094  0.044242037            2 
 1960000   0.91551204   -5.2562405    1042.5146  0.044324598  0.044231633            4 
 1961000   0.94215233   -5.2414998    1041.3208  0.044251265  0.044221176            5 
 1962000   0.94761078   -5.2275669    1043.6289  0.044326744  0.044210962            4 
 1963000   0.95939522    -5.276684    1041.4684  0.044212448  0.044200658            4 
 1964000   0.95688907   -5.2597566    1040.1657  0.044134662  0.044190345            3 
 1965000   0.93987011   -5.2445215     1044.744  0.044306362  0.044180181            2 
 1966000   0.95320629   -5.2332656    1039.4154   0.04405796  0.044169871            8 
 1967000   0.94302303   -5.2413259     1042.676  0.044173697  0.044159439            3 
 1968000   0.92673805   -5.2814486    1043.7844  0.044198187  0.044149102            8 
 1969000   0.93444315   -5.2720235    1044.5472  0.044208025  0.044138605            2 
 1970000   0.95790069   -5.2729445     1038.951  0.043948856  0.044128203            3 
 1971000   0.93896975   -5.2618303    1044.1679  0.044147129  0.044117735            2 
 1972000   0.94062757    -5.272362    1041.9842  0.044032464  0.044107194            4 
 1973000    0.9320121   -5.2472195    1042.8737  0.044047716  0.044096546            2 
 1974000   0.92488452   -5.2479698    1040.6325  0.043930787   0.04408586            3 
 1975000   0.94236489   -5.2524017    1042.8435  0.044001834  0.044075229            4 
 1976000   0.95364874    -5.251606     1044.998   0.04407043  0.044064549            4 
 1977000   0.93819907   -5.2347005    1044.4785  0.044026239  0.044053928            3 
 1978000   0.95492333   -5.2757232    1043.6335  0.043968383  0.044043287            5 
 1979000   0.96056648   -5.3314603     1041.361  0.043850472  0.044032581            5 
 1980000   0.93052269   -5.2504394    1046.5945   0.04404859  0.044021876            3 
 1981000   0.94712453   -5.2511473    1045.6627  0.043987156  0.044011377            2 
 1982000   0.92961738   -5.2838113     1043.408  0.043870166  0.044000602            2 
 1983000   0.94814705   -5.2661848    1044.3729  0.043888592  0.043989933            9 
 1984000   0.92588559   -5.2623881    1046.9756  0.043975791     0.043979            4 
 1985000   0.92817893    -5.252497    1042.0785  0.043748046  0.043968156            2 
 1986000    0.9306126   -5.2773933    1045.7968  0.043882042  0.043957332            2 
 1987000   0.94157077   -5.2478141    1047.3177  0.043923743  0.043946843            7 
 1988000   0.92549706    -5.281084    1046.4396  0.043864838  0.043936162            5 
 1989000   0.94605755   -5.2671679    1045.1662  0.043789432  0.043925482            3 
 1990000   0.92097413   -5.2898905    1047.6338  0.043870764  0.043914728            4 
 1991000   0.92982711   -5.2631408    1043.4827  0.043674982  0.043903992            4 
 1992000   0.93388203   -5.2831896    1045.4431  0.043735068  0.043893295            2 
 1993000    0.9322994   -5.2782839    1048.3301  0.043833838  0.043882495            2 
 1994000   0.93396259   -5.2859088    1044.9485  0.043670531  0.043871792            4 
 1995000   0.92034846   -5.2527952    1049.9064  0.043855739  0.043861068            8 
 1996000   0.93555086   -5.2708168    1048.8911  0.043791377    0.0438506            4 
 1997000   0.93253996   -5.2827884     1046.338  0.043662913  0.043840063            4 
 1998000   0.93321556   -5.2581058    1051.3567  0.043850379  0.043829575            3 
 1999000    0.9426073   -5.3018694    1049.2336  0.043739937  0.043819028            4 
 2000000   0.92799346   -5.2929118    1050.6995  0.043779147   0.04380857            3 
 2001000    0.9275155   -5.2600935    1051.7487  0.043800961  0.043797976            6 
 2002000   0.93564391   -5.2613252     1053.006  0.043831418  0.043787607            9 
 2003000   0.95374308   -5.2662203    1051.5247  0.043747907  0.043777225            4 
 2004000   0.92783982   -5.2756315      1049.89  0.043658102  0.043766677            3 
 2005000   0.93218529   -5.2606535    1055.8617  0.043884525  0.043756126            3 
 2006000   0.91071761   -5.2769073    1055.0104  0.043827284  0.043745566            2 
 2007000   0.94465321   -5.2654191    1050.5473  0.043620133  0.043734895            5 
 2008000   0.93520438   -5.2878953    1049.4985  0.043554886  0.043724278            1 
 2009000   0.92115919   -5.2729922    1054.0335  0.043721315  0.043713486            5 
 2010000   0.92188321   -5.2845792    1049.4277  0.043508612  0.043702699           11 
 2011000   0.92349931   -5.3022393    1050.2914  0.043522767  0.043691861            2 
 2012000   0.93447097    -5.265684    1052.8817  0.043608422  0.043681084            2 
 2013000    0.9371411    -5.257229     1056.098  0.043719906  0.043670419            7 
 2014000   0.92922579   -5.2904402    1048.7404   0.04339376  0.043659612            4 
 2015000   0.93474866   -5.2992871    1049.7231  0.043412864  0.043648712            4 
 2016000   0.93871464   -5.2277026    1056.0164  0.043651472  0.043638088            3 
 2017000   0.93704468   -5.2664149    1052.3222  0.043477202  0.043627568            2 
 2018000   0.93110199   -5.2843126    1055.5255  0.043587938  0.043616827            4 
 2019000   0.91752749   -5.2561863    1053.7509  0.043493102  0.043606237            9 
 2020000    0.9463358   -5.2560782    1054.9376  0.043520527  0.043595438            3 
 2021000   0.93259268   -5.2856903    1054.4145  0.043477424  0.043584899            5 
 2022000   0.93718557   -5.2734173    1054.1545  0.043445207  0.043574171            4 
 2023000   0.90660387   -5.2534282    1054.3003  0.043429736  0.043563358            3 
 2024000   0.94487823   -5.3082176    1055.0582  0.043439483  0.043552556            4 
 2025000   0.94221531   -5.2637086    1055.3749  0.043431065  0.043541836            6 
 2026000   0.92112301    -5.305639    1056.3452  0.043449539  0.043531065            2 
 2027000   0.92553783   -5.2740041    1057.6109  0.043480138  0.043520146            3 
 2028000   0.91557681   -5.2724741    1056.2959  0.043404662  0.043509381            5 
 2029000   0.92180147    -5.242888     1061.513  0.043597545  0.043498619           11 
 2030000   0.94708004   -5.2604256    1056.5064  0.043370541  0.043487786            4 
 2031000   0.93097167    -5.273566     1055.661  0.043314498  0.043476886            5 
 2032000   0.92661937   -5.3062931     1056.042  0.043308811  0.043465948            3 
 2033000   0.91005406   -5.2476809    1058.9719  0.043407604  0.043455083            3 
 2034000   0.93004126   -5.2719277    1059.4873  0.043407379  0.043444435            3 
 2035000   0.92190692   -5.2799392    1059.0098  0.043366493  0.043433658            3 
 2036000   0.90921258   -5.2878672    1058.4908  0.043323953  0.043422992           10 
 2037000   0.93419815   -5.2574948    1058.7437  0.043313029   0.04341211            7 
 2038000   0.93933939   -5.2991133    1056.4344  0.043197351  0.043401322            2 
 2039000   0.92639987   -5.3153003    1059.0015  0.043281081  0.043390531            4 
 2040000   0.91878005   -5.2418354    1061.6228  0.043366945  0.043379772            2 
 2041000   0.92106885   -5.2967173    1059.0181  0.043239346  0.043368978            4 
 2042000    0.9000411   -5.3035267    1057.3477  0.043150005   0.04335804            9 
 2043000   0.93466571   -5.3016953    1063.5784  0.043383031  0.043347345            3 
 2044000   0.91952481   -5.2939024    1062.7384  0.043327562  0.043336745            4 
 2045000   0.93604741   -5.2967288    1060.0977  0.043198765  0.043326108            4 
 2046000   0.93299424   -5.2863415    1062.5819  0.043278835   0.04331538           12 
 2047000   0.91213228   -5.2954365    1062.8477  0.043268512   0.04330468            4 
 2048000   0.91606564   -5.3119048    1061.4258  0.043189524  0.043293957           10 
 2049000   0.92545341   -5.2973367    1063.4389  0.043250323  0.043283352            5 
 2050000   0.92118726   -5.2720589     1064.386  0.043267723  0.043272699            4 
 2051000   0.92530341   -5.2784756    1064.7187  0.043260145   0.04326208            4 
 2052000   0.92211567   -5.2927216    1063.3539  0.043183637  0.043251269            2 
 2053000   0.91846444   -5.2904831    1063.4746  0.043167502  0.043240498            5 
 2054000   0.93923143   -5.2629382    1062.2552  0.043097014  0.043229754            3 
 2055000   0.90449269   -5.2929602    1061.8496  0.043059594  0.043219032            6 
 2056000   0.94150529   -5.2827259     1065.452  0.043184661  0.043208259            3 
 2057000   0.94312667   -5.2893744    1063.3036  0.043076634  0.043197473            5 
 2058000   0.91939097   -5.3054565    1066.1623  0.043171459  0.043186892            7 
 2059000   0.93394989   -5.3130901    1064.6448  0.043089073  0.043176446            7 
 2060000   0.92211451   -5.2906158    1068.5213   0.04322497  0.043165911            5 
 2061000   0.91600501   -5.2934608    1065.8091  0.043094334  0.043155378            4 
 2062000   0.91468559   -5.2792552    1067.0769  0.043124673  0.043144746            3 
 2063000   0.92350796   -5.2668499    1068.4683  0.043159974  0.043134177            4 
 2064000   0.92061498   -5.2882214     1067.084  0.043083172   0.04312357            5 
 2065000   0.92466426   -5.2715569    1068.1884  0.043106877  0.043112953            6 
 2066000   0.90516603   -5.2817601    1065.8195   0.04299046  0.043102378            3 
 2067000   0.89769505   -5.2855762    1066.5624  0.042999614  0.043091796            3 
 2068000   0.92592616   -5.2926785    1069.9608  0.043115765  0.043081053            7 
 2069000   0.92964388   -5.2894714    1068.2163  0.043024661  0.043070496            4 
 2070000    0.9004919   -5.2876338    1068.1886  0.043002762  0.043060017            3 
 2071000   0.93522805    -5.293314    1069.4577  0.043033065  0.043049355            6 
 2072000   0.91931101   -5.2844782     1073.128  0.043159911  0.043038836            3 
 2073000   0.89614545   -5.2763594     1069.378  0.042988343  0.043028163            6 
 2074000   0.89293904   -5.2493418    1071.5664  0.043055544  0.043017642            3 
 2075000   0.91198055   -5.2844449    1071.2438  0.043021839  0.043007252            4 
 2076000   0.92549076   -5.2938468    1071.4281  0.043008512  0.042996778            5 
 2077000   0.91741406   -5.3144534    1072.6675  0.043037535  0.042986163            4 
 2078000   0.91254032   -5.3037414    1068.6585   0.04285605  0.042975604            3 
 2079000   0.91040077   -5.3026523    1070.4909  0.042908886  0.042964849            8 
 2080000   0.91383488     -5.28403    1075.5661   0.04309159   0.04295443            4 
 2081000   0.91334505   -5.3002901    1071.1014  0.042892096  0.042944018            5 
 2082000   0.90584428   -5.3499361    1069.8981  0.042823329   0.04293345            5 
 2083000   0.92931365   -5.2973209    1072.8079  0.042919183    0.0429229            4 
 2084000    0.9127795    -5.307242    1075.3583  0.043000573  0.042912423            5 
 2085000   0.88651826   -5.2917523    1070.8565   0.04280002    0.0429019            3 
 2086000    0.9330829   -5.2729984    1072.1485  0.042831116  0.042891501            3 
 2087000   0.92866989   -5.2743384    1075.6083  0.042948742  0.042881067            5 
 2088000   0.90778653   -5.2866468    1076.0809  0.042947035  0.042870646            4 
 2089000   0.91838509   -5.2972095     1074.651  0.042869437  0.042860065            6 
 2090000   0.89730961   -5.3095052    1071.1969  0.042711201   0.04284951            8 
 2091000   0.90813108   -5.3021541    1076.6255  0.042907123  0.042838957            3 
 2092000   0.91490654   -5.3078958    1075.2685  0.042832555  0.042828501            2 
 2093000    0.9406548   -5.2745978    1078.5235   0.04294169  0.042817946            6 
 2094000   0.91144701   -5.3261664    1076.9322  0.042857854  0.042807588            5 
 2095000   0.93102698   -5.2994156    1079.1066  0.042923891  0.042797225            5 
 2096000   0.92261359   -5.3125933    1075.4408  0.042757666  0.042786801            3 
 2097000   0.90982625   -5.2905322    1080.2297  0.042927585  0.042776352            5 
 2098000   0.90908943   -5.3427045    1076.7524  0.042769003  0.042765921            3 
 2099000   0.92678925   -5.2740573    1078.3309  0.042811295  0.042755586            4 
 2100000   0.90769581   -5.2962146    1077.4443  0.042755725  0.042745212            4 
 2101000   0.91585788   -5.3315396    1077.7691  0.042748258  0.042734827            3 
 2102000   0.91974927   -5.2936348    1081.2515  0.042865982  0.042724647            5 
 2103000   0.91528192   -5.3226186     1080.373  0.042810788  0.042714353            4 
 2104000   0.91710334   -5.3153921    1078.5258  0.042717278  0.042703938            4 
 2105000    0.9226323   -5.3400204    1079.0891  0.042719285  0.042693564            4 
 2106000   0.91426102    -5.335425    1076.1981  0.042584602  0.042683105            3 
 2107000     0.912243   -5.3453695    1080.7399  0.042744026  0.042672662            4 
 2108000   0.88498158   -5.3030202    1079.1796  0.042662066  0.042662316            3 
 2109000     0.883101   -5.3129229    1079.9436  0.042672023  0.042652038            5 
 2110000   0.90645446   -5.3093818    1080.5444   0.04267553   0.04264181            3 
 2111000   0.91175854   -5.3067594    1082.8254  0.042745359  0.042631563            5 
 2112000   0.93351561   -5.3378119    1080.3032  0.042625601  0.042621233            8 
 2113000    0.9006499   -5.2931085    1085.0842  0.042793982  0.042611023            4 
 2114000   0.89295548    -5.293966    1082.2053  0.042660253  0.042600863            3 
 2115000   0.91561826   -5.2841342    1087.0918  0.042832618  0.042590751            5 
 2116000   0.92330677   -5.3217946    1082.3263  0.042624695  0.042580621            3 
 2117000   0.90488612   -5.3270972    1081.5077  0.042572339  0.042570186            3 
 2118000   0.91313705   -5.3066321    1084.1934  0.042657908  0.042559844            6 
 2119000   0.88227621   -5.2852382    1085.0078  0.042669806  0.042549664           10 
 2120000   0.91014622   -5.3199215    1082.3881  0.042546702  0.042539453            8 
 2121000    0.9263848   -5.3017227    1084.2572  0.042600077   0.04252921            4 
 2122000   0.92250094   -5.3281606    1085.8876  0.042644031  0.042519003            3 
 2123000   0.90661454   -5.3211411     1083.729  0.042539213  0.042508852            4 
 2124000   0.90885784   -5.3246411    1082.2816  0.042462398  0.042498482            4 
 2125000   0.91328851   -5.3177115     1081.361  0.042406313  0.042488252            3 
 2126000   0.92267642    -5.325398     1084.647  0.042515171  0.042477961            3 
 2127000   0.90035162   -5.3046307    1086.5033  0.042567911  0.042467652            3 
 2128000   0.91244165   -5.3423264    1082.1769  0.042378481  0.042457347            4 
 2129000   0.90767698    -5.323234    1085.6737   0.04249545  0.042447062            4 
 2130000   0.91351246   -5.3038263    1087.1917  0.042534887  0.042436887            5 
 2131000    0.9111069   -5.2800449    1088.7315  0.042575142   0.04242684            3 
 2132000   0.92314424   -5.3260827    1089.9037  0.042600991  0.042416844            6 
 2133000   0.91525972   -5.3366992    1088.5303   0.04252736  0.042406658            3 
 2134000   0.91100535   -5.3032576    1088.1157  0.042491241  0.042396452            3 
 2135000   0.90020899   -5.3231066     1089.508  0.042525684  0.042386439            4 
 2136000   0.91393135   -5.3380706    1087.6908  0.042434879  0.042376248            4 
 2137000   0.91919239    -5.304589    1091.6018  0.042567534  0.042366145            5 
 2138000   0.90249923   -5.3052762    1087.3912  0.042383506  0.042356012            4 
 2139000   0.90675157   -5.3132599    1091.4176  0.042520555  0.042345868            4 
 2140000    0.9307913   -5.3204453    1088.9375  0.042404106  0.042335825            5 
 2141000   0.92273352   -5.3193543    1087.7543  0.042338249  0.042325711            7 
 2142000   0.90927444   -5.3217318    1092.4029  0.042499334  0.042315585            4 
 2143000   0.92645149   -5.3050446    1095.9405  0.042617069  0.042305577            3 
 2144000   0.91881321   -5.3298333    1091.9512  0.042442134  0.042295388            3 
 2145000   0.89616927    -5.298191    1090.7422  0.042375375  0.042285329            2 
 2146000   0.91381011   -5.3132388    1094.2678  0.042492536  0.042275243            3 
 2147000   0.90136002   -5.2813761    1092.3262  0.042397385  0.042265179            5 
 2148000    0.9027537    -5.324686    1089.6271  0.042272933    0.0422551            5 
 2149000   0.91689634    -5.332757    1093.5316  0.042404667  0.042244998            5 
 2150000   0.90898586   -5.3116176    1096.7143  0.042508307  0.042235012            5 
 2151000   0.90197903   -5.3247547    1090.7291  0.042256667  0.042224897            3 
 2152000   0.89315079   -5.3198701    1095.2344  0.042411493  0.042214985            2 
 2153000   0.88867799   -5.3369373    1093.7019  0.042332479   0.04220504            5 
 2154000   0.88994898   -5.3088303    1095.4385   0.04238001  0.042195099            7 
 2155000   0.90005081   -5.3103685    1099.2151  0.042506386  0.042185307            3 
 2156000   0.90696649   -5.3180914    1093.6883  0.042273048  0.042175413            2 
 2157000   0.91385673   -5.3139806    1092.7768  0.042218234  0.042165411            9 
 2158000   0.90125763   -5.3586432    1094.7241   0.04227387  0.042155357            4 
 2159000   0.91390319   -5.3569422    1093.1227  0.042192479  0.042145407            4 
 2160000   0.91840549   -5.3360325    1096.4627  0.042301804  0.042135434           11 
 2161000   0.89487449   -5.3288554    1095.2823  0.042236707   0.04212529            5 
 2162000   0.91423562   -5.3490687    1093.0618  0.042131585  0.042115022            7 
 2163000   0.91810398   -5.3374366    1094.7758  0.042178138  0.042104877            2 
 2164000   0.90371082   -5.3308904    1093.9778  0.042127918   0.04209468            8 
 2165000   0.89708929   -5.3411997    1097.8767  0.042258533  0.042084454            5 
 2166000   0.89250969   -5.3479002    1097.4319   0.04222191  0.042074282            5 
 2167000   0.88201379   -5.3455218    1092.3216  0.042005909  0.042064038            4 
 2168000   0.89545603   -5.3125752    1097.5922  0.042189121  0.042053873            5 
 2169000   0.90131399   -5.3598253    1095.1293  0.042075047  0.042043836            6 
 2170000   0.92004121   -5.3070354    1097.2861  0.042138484  0.042033661            5 
 2171000    0.8921865   -5.3152887    1100.1815  0.042230212  0.042023528            1 
 2172000   0.88596509     -5.34085    1097.2264  0.042097393  0.042013492            3 
 2173000   0.90734084   -5.3094906    1098.2609  0.042117691  0.042003392            3 
 2174000   0.90392604   -5.3345854    1095.0343  0.041974637   0.04199331            5 
 2175000   0.89339671    -5.335933    1095.2705  0.041964387  0.041983212            5 
 2176000   0.91252886   -5.3589942    1096.5379  0.041993639  0.041973081            2 
 2177000   0.90201195   -5.3253469    1101.0623   0.04214754  0.041962923            6 
 2178000   0.90814827    -5.342473    1100.1787   0.04209438  0.041952813            4 
 2179000   0.89196954   -5.3093202    1099.0084  0.042030303  0.041942827            4 
 2180000   0.88998046   -5.3527854    1096.9854  0.041933692  0.041932741            4 
 2181000   0.90995294   -5.3367307    1100.8549  0.042062316  0.041922624            5 
 2182000   0.92510683   -5.3114417    1102.0466  0.042088552  0.041912528            3 
 2183000   0.90313298   -5.3210764    1103.7049  0.042132575   0.04190247            3 
 2184000   0.91303193   -5.3438691    1099.9753  0.041970976  0.041892306           14 
 2185000   0.89012221   -5.3164458     1105.314  0.042155379  0.041882144            6 
 2186000   0.90885535   -5.3486505    1105.3027  0.042135664  0.041872152            3 
 2187000   0.88560836   -5.3318582    1102.5098  0.042009976  0.041862265            6 
 2188000   0.92695695   -5.3371223    1104.1906   0.04205479  0.041852105            7 
 2189000   0.88837154   -5.3445128    1102.7089  0.041979172  0.041841988            7 
 2190000    0.8994775   -5.3437935    1104.6175  0.042032628  0.041831848            5 
 2191000    0.9078379   -5.3484552    1101.5846   0.04189809  0.041821636            5 
 2192000   0.91341958   -5.3538618    1099.3897  0.041795534  0.041811518           10 
 2193000   0.90324102   -5.3432798    1102.5805  0.041897725  0.041801319            9 
 2194000   0.91316821   -5.3626871    1103.1374   0.04189978  0.041791255            4 
 2195000   0.90421131   -5.3763186    1099.8141  0.041754523  0.041781086            4 
 2196000   0.89950201   -5.3297884    1103.9085  0.041890881  0.041771011            4 
 2197000   0.90607182   -5.3414827    1104.6464  0.041899801   0.04176092            4 
 2198000   0.89729392   -5.3205629    1105.4559   0.04191143  0.041750925            4 
 2199000   0.89982333   -5.3324986    1107.1615  0.041957009  0.041740967            4 
 2200000   0.89948515   -5.3109304    1109.5534  0.042028538  0.041731044            5 
 2201000     0.916668    -5.353773    1105.9107  0.041871523  0.041721003            4 
 2202000   0.90675966   -5.3576032    1105.1725  0.041824572  0.041710977            2 
 2203000   0.89566033   -5.3292847    1106.2993  0.041848211  0.041700863            2 
 2204000   0.87203474   -5.3398745    1106.7325  0.041845602    0.0416908            5 
 2205000   0.89089841   -5.3371441    1107.2894  0.041847674  0.041680624            2 
 2206000   0.89339622   -5.3287112    1107.7864  0.041847478  0.041670453            3 
 2207000   0.92523225    -5.319027    1109.0065  0.041874586  0.041660344            9 
 2208000   0.89236707   -5.3463546    1109.1276  0.041860191  0.041650383            3 
 2209000   0.87735054   -5.3178176    1109.9149  0.041870941  0.041640402            4 
 2210000   0.89043541   -5.3300753    1108.0086  0.041780112  0.041630494            3 
 2211000   0.88601615   -5.3514902    1107.6495   0.04174768   0.04162028            6 
 2212000   0.89180035   -5.3292278    1106.9456  0.041702292  0.041610243            9 
 2213000   0.90244521   -5.3451811    1109.7034  0.041787295   0.04160023            8 
 2214000   0.89418125   -5.3240054    1110.6872   0.04180545  0.041590186            2 
 2215000   0.90174292   -5.3516498    1106.8301  0.041641462  0.041580234            4 
 2216000   0.88750268   -5.3661401    1105.6707  0.041579074  0.041570105            7 
 2217000   0.88000587   -5.3552435    1106.7935  0.041602522  0.041559998            3 
 2218000    0.9016054   -5.3460541    1111.6142  0.041764886  0.041549943            4 
 2219000   0.90268059   -5.3581711    1111.3882  0.041737579  0.041539954            3 
 2220000   0.91168233   -5.3307528    1111.6967  0.041730357  0.041530085            8 
 2221000   0.90595814   -5.3136196    1110.5636  0.041669054  0.041520155            4 
 2222000   0.90836435   -5.3357479    1112.7006  0.041730446  0.041510145            4 
 2223000   0.89474258   -5.3187219    1116.6077  0.041858137  0.041500138            5 
 2224000   0.90261808   -5.3309869    1112.3635  0.041680289   0.04149034           10 
 2225000   0.89236178    -5.330848    1112.7736  0.041676915  0.041480387            6 
 2226000    0.8992842   -5.3545184    1112.9902  0.041666301  0.041470446            7 
 2227000   0.88685195   -5.3600549    1112.3265  0.041622754  0.041460546           11 
 2228000   0.91207676   -5.3328621    1116.4881  0.041759729  0.041450554            3 
 2229000   0.90435675   -5.3399654    1112.5465  0.041593631  0.041440668            5 
 2230000   0.89856922   -5.3672595     1112.529  0.041574328  0.041430732            5 
 2231000   0.88155144   -5.3381933    1117.9974  0.041759951  0.041420859            2 
 2232000   0.87388258   -5.3321939    1116.1875  0.041673667  0.041411009            6 
 2233000    0.9087863    -5.360279     1114.584  0.041595165  0.041401181            4 
 2234000   0.89300043   -5.3580488    1112.9123  0.041514184  0.041391338            8 
 2235000   0.86442334   -5.3502389    1115.6543  0.041597849  0.041381557            4 
 2236000   0.89203129   -5.3237992    1119.2762  0.041714231  0.041371759           10 
 2237000   0.89213021   -5.3473464    1117.6092  0.041633482   0.04136187            5 
 2238000    0.8904709   -5.3596041    1111.2838  0.041379351  0.041351945            5 
 2239000   0.88834916   -5.3698036    1116.3119  0.041548007  0.041342072            4 
 2240000   0.91129813    -5.350206    1117.1454  0.041560467  0.041332191            5 
 2241000   0.89882238   -5.3594071    1117.6491  0.041560655  0.041322363            3 
 2242000   0.90542655   -5.3408963    1116.8433  0.041512166  0.041312601            3 
 2243000   0.87008191   -5.3654199    1114.5319  0.041407783  0.041302772            3 
 2244000   0.86496742    -5.371631    1114.8695  0.041401869  0.041292728            3 
 2245000   0.89948776   -5.3648999    1117.0045  0.041462676   0.04128276            5 
 2246000   0.90504015   -5.3525141    1118.0311  0.041482304  0.041272846            3 
 2247000   0.89350173   -5.3619384    1118.1355  0.041467715   0.04126298            2 
 2248000    0.9066839   -5.3443981    1117.6006  0.041429442  0.041252988            3 
 2249000   0.89044413   -5.3655102    1116.8146  0.041381896  0.041242947           11 
 2250000   0.89482602   -5.3500113    1118.7529  0.041435291  0.041232921            7 
 2251000   0.89619487   -5.3595722    1117.1072  0.041355959  0.041222757            9 
 2252000   0.90136195   -5.3267697    1121.9572  0.041517065  0.041212618            3 
 2253000   0.88671123   -5.3424592    1120.0704   0.04142885  0.041202553            5 
 2254000   0.88679194   -5.3698365    1115.7093  0.041249235   0.04119244            4 
 2255000   0.89491684   -5.3544946    1121.8083  0.041456329  0.041182387            3 
 2256000   0.88682946   -5.3177324    1116.9011  0.041256691  0.041172241            4 
 2257000   0.87776893   -5.3595272     1120.591  0.041374651  0.041162288            9 
 2258000   0.88409764   -5.3346289    1121.9053  0.041404832  0.041152354            6 
 2259000   0.90132971    -5.342975    1118.7386  0.041269684   0.04114229            6 
 2260000   0.89840388   -5.3617035    1120.4202   0.04131343  0.041132136            2 
 2261000   0.89881703   -5.3919889    1117.0776  0.041171959  0.041121996           21 
 2262000   0.89245497   -5.3435659    1119.7565  0.041252452  0.041111897            4 
 2263000    0.8716941   -5.3919079    1119.8569   0.04123792  0.041101807            8 
 2264000   0.90098456   -5.3690478    1121.2734  0.041271844  0.041091677           14 
 2265000   0.88851862   -5.3693593    1115.5899  0.041044514    0.0410815            5 
 2266000   0.88638489   -5.3828987    1118.7709  0.041143385  0.041071356            8 
 2267000   0.89474629   -5.3572746    1123.2654   0.04129045  0.041061329           11 
 2268000    0.8941109   -5.3819678    1120.3075  0.041163561  0.041051195            7 
 2269000   0.89704275    -5.362727     1122.231  0.041216063   0.04104107            3 
 2270000   0.88424238    -5.375427    1116.2416  0.040978033  0.041030945            3 
 2271000    0.8943342   -5.3895801    1120.6722  0.041122568  0.041020822            5 
 2272000   0.87543384   -5.3843503     1117.805  0.040999304  0.041010696            7 
 2273000   0.90481721   -5.3349413    1120.1906  0.041068729   0.04100059            4 
 2274000   0.89657663   -5.3583136    1123.9962  0.041190128  0.040990448            6 
 2275000    0.9034804   -5.3254596    1123.2569  0.041144941  0.040980378            5 
 2276000   0.89352464   -5.3697251    1123.1482  0.041122883  0.040970314            6 
 2277000   0.89047972   -5.3412119    1122.9254  0.041096671  0.040960137            6 
 2278000   0.87339801   -5.4057464    1123.7926  0.041110354  0.040949941            7 
 2279000   0.89423888   -5.3671873    1121.9526  0.041025033  0.040939651            4 
 2280000   0.91265534   -5.3856806    1122.8329  0.041039213  0.040929603            5 
 2281000   0.88424925   -5.3584882    1125.2108  0.041108095  0.040919564           11 
 2282000    0.8872255   -5.3772168    1125.5024  0.041100729  0.040909478            6 
 2283000   0.88870555   -5.3528336    1126.0993  0.041104516  0.040899476            3 
 2284000   0.88874821   -5.3646096    1126.1635  0.041088862  0.040889572            4 
 2285000    0.8935451   -5.3297141    1125.1204  0.041032837  0.040879551            6 
 2286000    0.8882351   -5.3705372    1128.5649  0.041140451   0.04086965            7 
 2287000   0.87852234    -5.346078    1127.1715   0.04107169  0.040859921            5 
 2288000   0.89967488   -5.3747519    1129.2603  0.041129818  0.040850009            4 
 2289000   0.88153177   -5.3589909    1129.7854  0.041130968  0.040840092            4 
 2290000   0.85634813   -5.3618942    1128.0016  0.041048092  0.040830128           10 
 2291000   0.89559746    -5.397555    1127.1867  0.041000535  0.040820177            8 
 2292000   0.87300615     -5.37797     1125.654  0.040926919  0.040810194           10 
 2293000   0.88798677   -5.3688678    1131.7934  0.041132191  0.040800257            3 
 2294000   0.89265862   -5.3388565    1131.5825  0.041106601  0.040790345            2 
 2295000    0.8752719   -5.3869288    1126.9708  0.040921234  0.040780416            5 
 2296000   0.91037529   -5.4002137    1127.4435  0.040920569  0.040770341            5 
 2297000   0.88721116   -5.3858904    1129.4113  0.040974142  0.040760426           11 
 2298000   0.88037454   -5.3510834    1130.3163  0.040989131  0.040750479            6 
 2299000   0.88043694   -5.3539796    1129.4145  0.040938615  0.040740639            4 
 2300000   0.88352829   -5.3845301    1127.4892  0.040851058  0.040730735            6 
 2301000   0.88062399   -5.3395697    1127.8745  0.040847258  0.040720856            4 
 2302000   0.87729323   -5.3860339    1131.2486  0.040951658  0.040711116            5 
 2303000   0.88850158   -5.4013297    1131.0057  0.040925087  0.040701327            3 
 2304000   0.91067583   -5.3816177    1130.0377  0.040872311  0.040691541            5 
 2305000   0.89047725   -5.3785561     1131.935  0.040923173  0.040681788            9 
 2306000   0.88010382   -5.3833848    1129.9084   0.04083219   0.04067196            4 
 2307000   0.88064715   -5.3738937    1130.7329  0.040844273  0.040662216            6 
 2308000   0.89358102   -5.3828658     1132.139  0.040877346   0.04065239            4 
 2309000   0.88603504   -5.3647958    1132.2634  0.040864133  0.040642453            1 
 2310000   0.89187249   -5.3651421    1132.4758  0.040854104  0.040632626            6 
 2311000   0.86533967   -5.3709843    1132.5157  0.040837867  0.040622889            4 
 2312000   0.91336773   -5.3940495    1133.5331  0.040856873  0.040613146            2 
 2313000   0.86551821   -5.3983185    1132.7224  0.040810001  0.040603253            9 
 2314000   0.86878243   -5.3825173    1134.6577  0.040862062  0.040593485            6 
 2315000   0.87618075   -5.3709813    1134.2761  0.040830674  0.040583858            3 
 2316000    0.8526479   -5.4148809     1130.378  0.040672782  0.040574146           16 
 2317000    0.8824046   -5.3556134    1137.7848  0.040921622  0.040564361            4 
 2318000   0.89625271   -5.3803853    1136.5539  0.040859716  0.040554698            6 
 2319000   0.86815036   -5.3667456    1137.3935   0.04087227    0.0405451            2 
 2320000   0.88662681    -5.380536    1135.6872  0.040793361  0.040535426            4 
 2321000   0.89564262   -5.3530113    1138.2367  0.040867322  0.040525676            6 
 2322000    0.8781971   -5.4110531    1134.1889  0.040704454  0.040515988            2 
 2323000   0.90020853   -5.3566277    1139.7246  0.040885514  0.040506202            4 
 2324000    0.8611262   -5.4187234    1135.6561  0.040722035  0.040496405            7 
 2325000   0.87020801   -5.3699243    1136.9207  0.040749846  0.040486706            4 
 2326000   0.86515646   -5.4131478    1137.3153  0.040746464  0.040476945            3 
 2327000   0.87545023   -5.4120739    1131.0144   0.04050331  0.040467061            4 
 2328000   0.87706339   -5.3855276    1138.0515   0.04073781  0.040457137            7 
 2329000   0.87629612   -5.3960922    1141.0814  0.040828733  0.040447239            6 
 2330000    0.8849676   -5.3601616    1139.8253  0.040766285  0.040437446            4 
 2331000   0.89765852   -5.3620958    1138.4848  0.040700873  0.040427728            7 
 2332000   0.85937594   -5.3442235    1139.9679  0.040736417   0.04041794            7 
 2333000   0.87783952   -5.3946664    1134.7725  0.040533381  0.040407968            5 
 2334000   0.89722927   -5.3682457    1136.8923  0.040591699  0.040398075            3 
 2335000   0.87634206   -5.3812838    1140.4475  0.040701195  0.040388166            6 
 2336000   0.89971438   -5.3883883    1135.3151  0.040500681  0.040378346            3 
 2337000   0.86737577   -5.3728729    1136.4194  0.040522729  0.040368451           12 
 2338000   0.87094043   -5.4020973    1133.3769  0.040396951  0.040358582            7 
 2339000   0.87450241   -5.4080095    1139.2567  0.040589165  0.040348691            6 
 2340000   0.85019679   -5.3828007    1138.9738  0.040561746  0.040338892            2 
 2341000   0.86115012   -5.3576247     1142.485  0.040669409  0.040329191            5 
 2342000   0.88374205   -5.3716453    1138.8498  0.040522696   0.04031958            8 
 2343000   0.86519431   -5.4001893     1138.813  0.040504091  0.040309609           10 
 2344000   0.87182972   -5.3727568    1140.9962  0.040564426  0.040299769            5 
 2345000    0.8774986   -5.3834908    1140.7324  0.040537753  0.040290008            7 
 2346000   0.87350865   -5.3876861     1138.095  0.040426791  0.040280174            6 
 2347000   0.88574986   -5.3752932    1141.3898  0.040526553  0.040270413            6 
 2348000   0.85970918   -5.3899143    1139.1814  0.040430911  0.040260618            6 
 2349000   0.88048273   -5.3764822     1142.832  0.040543208  0.040250703            4 
 2350000   0.89046961    -5.397303    1142.2466  0.040505199  0.040241011            8 
 2351000   0.88061704    -5.346547     1147.627  0.040678683  0.040231336            5 
 2352000   0.87470988   -5.4142941    1141.5601  0.040446432  0.040221765            3 
 2353000   0.85872431   -5.3817338    1141.7474  0.040435875  0.040211962            7 
 2354000   0.88920946   -5.4127142    1142.3522  0.040440108   0.04020233            6 
 2355000   0.87405935   -5.4008824    1141.8981  0.040406868  0.040192616            6 
 2356000   0.87987302   -5.4045664    1141.9271  0.040390744  0.040182767            4 
 2357000   0.88156762   -5.3887851    1144.3435   0.04045904  0.040173078           14 
 2358000   0.88837034   -5.3832915    1149.0214  0.040607201  0.040163434            2 
 2359000   0.87849468   -5.3824029    1147.9454  0.040551979  0.040153699            4 
 2360000   0.86595106   -5.4152348    1143.2862  0.040370274  0.040144077            4 
 2361000   0.86540091   -5.3801298    1147.6674  0.040507814  0.040134484            3 
 2362000    0.8746921   -5.4025192    1143.2898  0.040336218   0.04012481            6 
 2363000   0.88349649   -5.3696997    1150.1667   0.04056167  0.040115287            4 
 2364000   0.87972526   -5.4097894    1144.9359  0.040360121  0.040105728            5 
 2365000   0.84917816   -5.4054037    1147.7808  0.040443297  0.040096131            3 
 2366000   0.88529648   -5.4041561    1149.2664  0.040478528  0.040086625            6 
 2367000   0.87083564   -5.3899515    1151.3265  0.040533957  0.040077132            3 
 2368000   0.87184911   -5.3912657    1149.3492  0.040447255   0.04006763            6 
 2369000   0.88159959    -5.377795    1150.6008  0.040474208  0.040058167            4 
 2370000   0.87190305   -5.4007819    1148.2256  0.040373614  0.040048803            9 
 2371000   0.87790477     -5.36983    1151.1457  0.040459217  0.040039308            5 
 2372000   0.86740077   -5.3786945    1153.4966  0.040524753  0.040029833            5 
 2373000   0.87329604   -5.4072075    1148.9032   0.04034637   0.04002041            4 
 2374000   0.87470795   -5.4069362    1149.5619  0.040352496  0.040010982            4 
 2375000   0.87554427   -5.4276973    1149.1362   0.04032057  0.040001437            7 
 2376000   0.88908698    -5.400334    1150.8191  0.040362623  0.039991869            4 
 2377000   0.87105152   -5.3802978    1147.1652  0.040217545  0.039982228            7 
 2378000   0.87483244   -5.4190564    1147.8887  0.040225986  0.039972581            8 
 2379000    0.8665937   -5.4336833    1144.6733  0.040096445  0.039962906            3 
 2380000   0.86393733   -5.3979399     1150.959  0.040299684  0.039953201            9 
 2381000   0.87388199   -5.3736602    1151.6428  0.040306693  0.039943569            3 
 2382000   0.87467002   -5.4130591    1151.8774  0.040297977  0.039933957            9 
 2383000   0.87290973   -5.4139571    1155.3453   0.04040234  0.039924479            5 
 2384000   0.85868069   -5.4345027     1149.738  0.040189389  0.039914958           10 
 2385000   0.85836919    -5.407731    1152.7697  0.040278468  0.039905276            3 
 2386000   0.85535808   -5.3902527    1153.5352  0.040288319  0.039895719            5 
 2387000   0.86172583    -5.377285    1153.1085  0.040256547  0.039886159            4 
 2388000    0.8701585   -5.4053684    1153.3294  0.040247398  0.039876641            5 
 2389000   0.89755738   -5.3969413    1154.0136  0.040254416   0.03986707           10 
 2390000   0.85337895   -5.4035686    1153.3812  0.040215523  0.039857564            5 
 2391000   0.86305892   -5.3695583     1152.195  0.040157361  0.039848107            5 
 2392000   0.86182914   -5.3707691    1153.7169  0.040193592  0.039838679            6 
 2393000   0.87331853   -5.3968623    1152.6152  0.040138433  0.039829183            7 
 2394000   0.87598963   -5.4134191    1153.2911  0.040145193  0.039819755            9 
 2395000   0.86401012    -5.377294    1154.0582  0.040155122  0.039810189            3 
 2396000   0.85262211   -5.3963868    1157.0951  0.040243987  0.039800789            5 
 2397000    0.8792658   -5.4336685    1150.5964  0.040001267  0.039791213            8 
 2398000   0.86450516   -5.4061317    1156.9782  0.040206361  0.039781565            6 
 2399000   0.87506483   -5.4033393    1155.5869  0.040141269  0.039772051            7 
 2400000   0.85365381   -5.3782131    1153.3467   0.04004676  0.039762516            4 
 2401000   0.85088248   -5.4491952    1153.3223  0.040029234  0.039752921            3 
 2402000   0.86151533   -5.4075316     1155.534  0.040089302  0.039743229            9 
 2403000   0.87089448   -5.4156862    1156.7582  0.040115073  0.039733815            8 
 2404000   0.86260816   -5.4130864    1156.2117  0.040079439  0.039724314            6 
 2405000   0.85732697   -5.4188147    1155.5334  0.040039271  0.039714731            4 
 2406000    0.8547044     -5.42114     1153.978  0.039968759  0.039705213            7 
 2407000   0.87259562   -5.4220394    1158.2661  0.040100614  0.039695656           10 
 2408000   0.85412244   -5.4196715    1156.6937  0.040029543  0.039686096            4 
 2409000   0.87748648   -5.4335627     1158.345  0.040070049  0.039676677            4 
 2410000   0.86095423   -5.4248467    1157.3375  0.040018587  0.039667162            4 
 2411000   0.85427661   -5.4199031    1156.3308  0.039967192   0.03965765            6 
 2412000   0.86854215   -5.3851544    1158.1003  0.040011757  0.039648297            3 
 2413000   0.86967476   -5.4328036    1157.2215  0.039964827  0.039638813            3 
 2414000   0.88505997   -5.4365714    1157.6905   0.03996446  0.039629304           10 
 2415000   0.86121041   -5.4386414    1157.1446  0.039929075  0.039619792            5 
 2416000   0.87101398   -5.4259242    1158.2331  0.039950094  0.039610243           10 
 2417000   0.88089462   -5.4094841    1157.8753  0.039921227  0.039600717            5 
 2418000   0.89787534   -5.3967029    1158.0475  0.039910653  0.039591239            3 
 2419000   0.86290938   -5.4045781    1158.8799  0.039922831  0.039581603            5 
 2420000   0.87169189   -5.4117624    1156.9515  0.039839928  0.039572147            9 
 2421000   0.86037088   -5.4220412    1160.5203  0.039946315   0.03956254            3 
 2422000   0.85343724   -5.4240127    1160.3994  0.039925662  0.039552898            5 
 2423000   0.85852482   -5.4547486      1159.67  0.039884096  0.039543369            4 
 2424000   0.86120227   -5.4454885    1158.8168  0.039838312  0.039533835            4 
 2425000   0.86318866   -5.3895581    1161.1575  0.039902318  0.039524426            7 
 2426000   0.85215396   -5.3952211    1163.3311  0.039960534  0.039514975            4 
 2427000   0.86401512   -5.4301467    1157.9394   0.03975894  0.039505565            5 
 2428000   0.85441441   -5.3978596    1160.5512  0.039832208  0.039496055            3 
 2429000   0.85739664   -5.4043097     1159.683  0.039786023  0.039486575            9 
 2430000    0.8821443   -5.4148137    1160.7778  0.039807196  0.039477045            8 
 2431000   0.86116484   -5.4194986    1161.3695  0.039811102   0.03946759            3 
 2432000   0.87369118    -5.397178    1164.8122  0.039912699  0.039458146            6 
 2433000   0.85697639   -5.4091084    1162.8272  0.039828306  0.039448698            5 
 2434000   0.86004523   -5.3928576    1162.7965   0.03981089  0.039439265            4 
 2435000   0.86423624     -5.40822    1166.1746  0.039910151  0.039429915            6 
 2436000   0.89028871   -5.4106785    1164.2225  0.039826988  0.039420568            4 
 2437000   0.84029367   -5.4140973    1166.1791   0.03987755  0.039411147            6 
 2438000   0.84992299    -5.441015     1165.092  0.039824036  0.039401719            7 
 2439000   0.85426538   -5.4330214    1164.7364  0.039795558  0.039392186            4 
 2440000   0.86929416   -5.4102394     1167.765  0.039882684   0.03938276            4 
 2441000   0.86940535   -5.4010811    1165.8798  0.039801986  0.039373268            5 
 2442000   0.86011744   -5.4326659    1164.7653  0.039747655  0.039364016           12 
 2443000   0.86314899   -5.4191302    1163.6804  0.039694379  0.039354648            5 
 2444000     0.857584   -5.3914149     1169.112   0.03986334    0.0393454            4 
 2445000   0.85808837   -5.4372959    1166.3559  0.039753098  0.039336172            3 
 2446000   0.87539757   -5.4152897    1163.6533   0.03964477   0.03932687            6 
 2447000   0.86203814   -5.4286699    1165.7484  0.039699917  0.039317668            7 
 2448000   0.85133083   -5.4001986    1166.8039  0.039719631  0.039308384            6 
 2449000   0.87191482   -5.4204034    1166.6242  0.039697299  0.039299033            4 
 2450000    0.8770198   -5.4220997    1166.4248  0.039674314  0.039289575            4 
 2451000   0.86892371   -5.4186084    1168.7929  0.039738639  0.039280248            6 
 2452000   0.85668127   -5.4279464    1166.5478  0.039646131  0.039270851            7 
 2453000    0.8678272   -5.3943954    1171.0146  0.039781715  0.039261457            4 
 2454000   0.85659838   -5.4357245    1169.9717  0.039730091  0.039252165            6 
 2455000   0.88167995   -5.4445815    1167.1383  0.039617728  0.039242835            4 
 2456000   0.85840626   -5.4610184    1169.9511  0.039697037  0.039233506            4 
 2457000   0.84694729   -5.4027182    1166.7616  0.039572704  0.039224195            4 
 2458000   0.86588095   -5.4191295    1169.2034  0.039639388  0.039214973            6 
 2459000   0.84946353   -5.4685059    1167.6919  0.039572045  0.039205659            4 
 2460000   0.82532567    -5.426045    1174.8685  0.039799069  0.039196397            3 
 2461000   0.85816061   -5.4275045    1169.7416  0.039609292  0.039187145            3 
 2462000   0.85101224   -5.4416717    1170.2147  0.039609216  0.039177945            4 
 2463000   0.85457121   -5.4619142    1167.4079   0.03949817  0.039168589            5 
 2464000   0.86016444   -5.4286341    1168.3327  0.039513415  0.039159313            9 
 2465000   0.85462748   -5.4483981    1172.8767  0.039651005   0.03915009           10 
 2466000   0.83552945   -5.4372599    1173.3299  0.039650239   0.03914087            3 
 2467000   0.86981277   -5.4116459    1174.7698  0.039682805   0.03913163            6 
 2468000   0.87007085   -5.4399345    1174.4228  0.039655011  0.039122473            4 
 2469000   0.84784923   -5.4368746    1174.6772  0.039647536   0.03911335            6 
 2470000   0.85667555   -5.4129927    1175.2901  0.039652163  0.039104278            5 
 2471000   0.86140154   -5.4399118    1174.3886  0.039605713  0.039095166            5 
 2472000   0.85099096   -5.4249305      1172.08  0.039511867  0.039085974            4 
 2473000   0.85748834   -5.4454906       1175.7  0.039617874  0.039076856            4 
 2474000   0.84014056   -5.4636076    1174.2542  0.039553159  0.039067616            5 
 2475000    0.8718051   -5.4436298      1173.35  0.039506735  0.039058324            3 
 2476000   0.87172882   -5.4522654    1172.6929  0.039468662  0.039049106            8 
 2477000   0.85052313   -5.4108113    1176.0065  0.039564209  0.039039938            3 
 2478000   0.85765239   -5.4456197    1171.9911  0.039413206  0.039030732            6 
 2479000    0.8624719   -5.4499565    1175.3415  0.039509935   0.03902154            3 
 2480000   0.86724953   -5.4280751    1177.3389  0.039561118  0.039012364            3 
 2481000    0.8777174   -5.4504281    1175.6585   0.03948873   0.03900319            5 
 2482000   0.85184648   -5.4536629    1174.2645  0.039426018  0.038993985           12 
 2483000   0.84445227   -5.4349187    1178.4198  0.039549598  0.038984821            4 
 2484000   0.85203022    -5.468301     1176.341  0.039463935  0.038975738            9 
 2485000   0.84678715   -5.4253547    1176.2251   0.03944417  0.038966573            6 
 2486000   0.84963628   -5.4349233     1183.493  0.039671928  0.038957481            3 
 2487000   0.85740783   -5.4082029    1177.5143  0.039455645   0.03894842            6 
 2488000   0.87054431   -5.4376772    1178.0438  0.039457523  0.038939323            5 
 2489000   0.84933061   -5.4027656    1179.9435  0.039505274  0.038930362            4 
 2490000    0.8339358   -5.4393821    1178.5746  0.039443593  0.038921441            6 
 2491000   0.85205671   -5.4918807    1175.6263  0.039329127  0.038912374            5 
 2492000   0.84287047   -5.4534068    1179.6921  0.039449307  0.038903199           14 
 2493000   0.85734581   -5.4681253    1176.8417  0.039338204  0.038894126            6 
 2494000   0.85877421   -5.4416615    1178.0798  0.039363801  0.038884948            6 
 2495000   0.83710462   -5.4260425     1176.945   0.03931012  0.038875901            7 
 2496000   0.86831631   -5.4418087    1177.9458  0.039327783  0.038866809            6 
 2497000   0.87218242   -5.4711997    1174.2543  0.039188836  0.038857689           13 
 2498000   0.85232108   -5.4317612      1182.02  0.039432211  0.038848586            7 
 2499000     0.852556   -5.4611772    1175.5419  0.039200411  0.038839524            6 
 2500000   0.87046667   -5.4522372    1178.2379  0.039274596  0.038830398           10 
 2501000    0.8465548   -5.4409109    1180.5479  0.039335862  0.038821385            4 
 2502000   0.88348639    -5.464215    1178.5807   0.03925462  0.038812297            7 
 2503000   0.84205899   -5.4298583    1180.8748  0.039315315  0.038803318            3 
 2504000   0.84405581   -5.4242667    1181.4245  0.039317909  0.038794357            3 
 2505000   0.84784384   -5.4534972    1181.9386  0.039319314  0.038785322            5 
 2506000   0.83315907   -5.4293938     1182.437  0.039320197  0.038776164            6 
 2507000   0.84928079   -5.4219749    1183.5773  0.039342417  0.038767151            5 
 2508000   0.85060213    -5.447963    1181.7478  0.039265943  0.038758093            5 
 2509000   0.82563543   -5.4415085    1185.1356  0.039362814  0.038749011            7 
 2510000   0.83523004   -5.4164923    1185.4496  0.039357558  0.038740023            8 
 2511000   0.82740275   -5.4414463    1182.4466   0.03924222  0.038731004            3 
 2512000   0.85594804   -5.4502319    1185.7505  0.039336202  0.038722042            3 
 2513000   0.85535869   -5.4624737    1188.0794  0.039397778  0.038713185            8 
 2514000   0.84256613   -5.4274231    1185.5493  0.039298241  0.038704391            6 
 2515000   0.85617935   -5.4411514    1185.3408  0.039275704  0.038695545            7 
 2516000   0.85822056   -5.4490666    1183.1881  0.039188794  0.038686625            5 
 2517000   0.84681227   -5.4579199    1186.0422  0.039267721  0.038677753            4 
 2518000    0.8584766   -5.4546875    1184.4923   0.03920083  0.038668763            8 
 2519000    0.8481255   -5.4368461    1193.4845  0.039482746   0.03866002            4 
 2520000   0.84787219   -5.4568913    1188.4179  0.039299533  0.038651178            7 
 2521000   0.85236926   -5.4490331    1184.7671  0.039163264  0.038642341            2 
 2522000   0.84640101   -5.4357046    1188.5557  0.039272922  0.038633599            9 
 2523000   0.85794069   -5.4500244    1188.9168  0.039269281  0.038624794           10 
 2524000   0.86598178   -5.4318363    1187.9371  0.039221377  0.038615997            5 
 2525000   0.86425173   -5.4398909    1186.3379  0.039153066  0.038607118            7 
 2526000   0.85194784   -5.4180889    1189.6382  0.039246443  0.038598345            3 
 2527000   0.83968971   -5.4760344    1187.0335  0.039145018  0.038589487            8 
 2528000   0.82957941   -5.4652357    1188.0351  0.039162549  0.038580575            8 
 2529000   0.84406529   -5.4371045    1190.6411  0.039232933  0.038571707            4 
 2530000   0.82917015   -5.4632951    1188.9201   0.03916074  0.038562853           12 
 2531000   0.84264593   -5.4917506    1188.6227  0.039135477  0.038553938            6 
 2532000   0.83365488   -5.4932315    1186.0903  0.039036672  0.038544925            7 
 2533000   0.83869531   -5.4709529    1186.4686  0.039033708  0.038536005            8 
 2534000   0.84051809   -5.4488743    1188.1601  0.039073932  0.038527063            7 
 2535000   0.83918161   -5.4372817    1190.0471  0.039120549   0.03851816            6 
 2536000   0.86183186   -5.4248929    1191.8076  0.039162972  0.038509279            5 
 2537000     0.833711   -5.4554961    1190.1684  0.039093693  0.038500423            5 
 2538000   0.85984122   -5.4521598    1190.6541  0.039094237  0.038491519            6 
 2539000   0.83510387   -5.4379246    1190.3274  0.039068116  0.038482612            5 
 2540000   0.84695524   -5.4805411    1185.8621  0.038906236  0.038473642           11 
 2541000   0.84021274   -5.4549379    1188.9087  0.038990841    0.0384647            6 
 2542000   0.84984263     -5.44322    1193.6826  0.039132001  0.038455892            4 
 2543000    0.8441033   -5.4531369    1192.1535  0.039066507  0.038447064            5 
 2544000   0.86928929   -5.4576351    1189.4211  0.038961643  0.038438096            4 
 2545000   0.83762171   -5.4501412     1193.111  0.039067158  0.038429219            7 
 2546000   0.84938749   -5.4439628     1190.608  0.038969886    0.0384204            5 
 2547000    0.8259521   -5.4753247    1193.4971  0.039049112  0.038411476           12 
 2548000   0.83555486   -5.4374984    1192.7227   0.03900846  0.038402627            5 
 2549000   0.85356308   -5.4530481    1192.5532  0.038987617  0.038393747            5 
 2550000   0.84407119   -5.4587067    1195.0331  0.039053369  0.038384916            5 
 2551000   0.83349971   -5.4538619    1193.4776  0.038987246  0.038376159            3 
 2552000   0.85337201   -5.4429256    1192.8232  0.038950601  0.038367241            4 
 2553000     0.845245   -5.4671897     1191.536  0.038893327  0.038358329            3 
 2554000   0.81840863   -5.4478209    1197.5105  0.039073037  0.038349567            3 
 2555000   0.84442055   -5.4492591    1195.3034  0.038985761  0.038340806            5 
 2556000   0.84526562   -5.4443268    1196.8166  0.039019842  0.038331993           17 
 2557000   0.85056994   -5.4632837    1198.8105  0.039069566  0.038323192           12 
 2558000   0.84277429   -5.4651813    1189.7641  0.038759581  0.038314353            6 
 2559000   0.83825085   -5.4715604    1194.9341  0.038912794   0.03830547            6 
 2560000   0.84978111   -5.4372493    1196.1353  0.038936695  0.038296662           12 
 2561000   0.83995626   -5.4685536    1196.9978  0.038949558  0.038287835            8 
 2562000   0.85131023   -5.4633405    1196.5953  0.038921263  0.038278937            9 
 2563000   0.83221577   -5.4652544    1192.8461  0.038784174  0.038269946           11 
 2564000   0.85559809   -5.4529783    1192.5979  0.038760983  0.038261038            4 
 2565000   0.84288728   -5.4731504    1187.6497  0.038585109  0.038252079            6 
 2566000   0.81490927   -5.4736135     1192.472  0.038726684  0.038242993            5 
 2567000   0.83018024   -5.4632373    1193.7743  0.038753873  0.038233976            2 
 2568000   0.82007327    -5.440328    1198.7429  0.038900015  0.038225019            6 
 2569000   0.84165205   -5.4513876    1196.4842  0.038811605  0.038216194           11 
 2570000   0.83603898   -5.4590344     1198.178  0.038851427  0.038207325            3 
 2571000    0.8344548   -5.4699481    1193.8451  0.038695875  0.038198348            8 
 2572000   0.84099752   -5.4561787     1194.922  0.038715721  0.038189454            7 
 2573000   0.83962634   -5.4515713    1195.3549  0.038714694  0.038180538            5 
 2574000   0.84820884   -5.4768885    1196.3397  0.038731537  0.038171627           10 
 2575000   0.83663781   -5.4774757    1195.1929  0.038679381  0.038162669            7 
 2576000   0.82092738   -5.4710903    1197.5968  0.038742132  0.038153723            6 
 2577000   0.86201028     -5.48208    1195.2331  0.038650662  0.038144781           13 
 2578000   0.81303371   -5.4760992    1197.8601  0.038720587  0.038135757            7 
 2579000   0.83244078   -5.4813477    1197.0647  0.038679873  0.038126795            6 
 2580000   0.85936908   -5.4713982    1195.4017  0.038611167  0.038117811            4 
 2581000   0.82809253   -5.4911068    1196.4699  0.038630696  0.038108838           10 
 2582000   0.83799045   -5.4618336    1198.9045  0.038694311  0.038099912            9 
 2583000   0.83580124   -5.4452456    1198.6726  0.038671849  0.038091022            3 
 2584000   0.83612996    -5.472151    1198.4572  0.038649936  0.038082134            4 
 2585000   0.84854752   -5.4750782    1198.2689  0.038628913  0.038073275            5 
 2586000   0.85620229   -5.4681518    1197.7766  0.038598111  0.038064448            6 
 2587000   0.80404173   -5.4694424    1197.4065  0.038571271  0.038055544            9 
 2588000   0.82948557   -5.4479494    1200.3817  0.038652168  0.038046726            5 
 2589000    0.8413721   -5.4971784    1197.5087  0.038544762  0.038037852            8 
 2590000   0.83327282    -5.445659    1199.5026  0.038594035  0.038028981            4 
 2591000   0.84760682   -5.4470068     1201.647   0.03864811  0.038020157            4 
 2592000   0.81642827   -5.4883202     1197.616  0.038503601  0.038011333           14 
 2593000   0.84514017   -5.4844535    1204.1559   0.03869893  0.038002509            7 
 2594000   0.83790113   -5.4448599    1205.4012  0.038724017  0.037993648            4 
 2595000    0.8369699   -5.4923315    1200.2033  0.038542175  0.037984845            5 
 2596000   0.84232247   -5.5096062     1200.325  0.038531234  0.037975911            5 
 2597000   0.83170906   -5.4657313    1205.4135  0.038679679  0.037967038            7 
 2598000   0.84945621   -5.4674537    1202.9968  0.038587274  0.037958333            8 
 2599000   0.84886556   -5.4930595    1203.9425  0.038602748  0.037949612           10 
 2600000    0.8457656   -5.4837893    1201.8065  0.038519439  0.037940798           10 
 2601000   0.82198729   -5.4973467    1200.0832  0.038449418  0.037931895            7 
 2602000   0.84149522    -5.486031    1200.7825  0.038457037  0.037922957            9 
 2603000   0.84846118   -5.4523086    1201.3256   0.03845965   0.03791406            3 
 2604000   0.82507405   -5.4715468    1203.0968  0.038501561  0.037905144            8 
 2605000   0.81934506   -5.4962222    1203.9187  0.038513074  0.037896267            4 
 2606000   0.83686519   -5.4910229    1204.0036   0.03850101  0.037887383            6 
 2607000   0.82132551   -5.4828804    1203.3108  0.038464096  0.037878479            3 
 2608000   0.83373799   -5.5045302    1202.9846  0.038438924  0.037869613            3 
 2609000   0.81238274   -5.4844385    1208.1405  0.038588875  0.037860742            5 
 2610000   0.83842559   -5.4847252    1205.6824  0.038495606  0.037851802            7 
 2611000   0.82329531   -5.4775739    1204.3596  0.038438644  0.037842971           10 
 2612000   0.81978723   -5.4759728    1202.4305  0.038362383  0.037834096           13 
 2613000   0.83107272   -5.4830461    1206.6926  0.038483625  0.037825255            3 
 2614000   0.83419368   -5.4722676    1202.4714  0.038334335  0.037816557            5 
 2615000   0.83146025   -5.4972814    1204.5532  0.038386015  0.037807869            3 
 2616000   0.84449222    -5.475341    1206.5658  0.038435453  0.037799029            5 
 2617000   0.83044616   -5.4702578    1203.0621    0.0383092  0.037790219            3 
 2618000   0.83090053   -5.4782715    1205.6514  0.038376988  0.037781291            9 
 2619000   0.82757496   -5.4838379    1205.8565   0.03836886   0.03777236            9 
 2620000   0.82622423     -5.51666    1205.9384  0.038356821  0.037763459            4 
 2621000   0.80631795   -5.4654491    1209.2562  0.038447673  0.037754636            7 
 2622000   0.82210212   -5.4837933    1208.5446  0.038410393   0.03774576            5 
 2623000   0.81485532   -5.5106075    1206.6407  0.038335262  0.037736869            7 
 2624000   0.85130186   -5.4935532    1205.8387  0.038295182  0.037728039            7 
 2625000   0.84137296   -5.4697546    1206.1589   0.03829076   0.03771927            8 
 2626000   0.82993393   -5.4816384    1207.4983  0.038318682  0.037710443            3 
 2627000   0.83220927   -5.4982517    1205.3227  0.038235082  0.037701581            7 
 2628000   0.82998335   -5.5067203    1208.1869  0.038311356  0.037692617            9 
 2629000    0.8257576   -5.4987706     1204.406  0.038176937  0.037683744            4 
 2630000   0.83841126   -5.4731611    1208.6078  0.038295558  0.037674849            8 
 2631000   0.81564835   -5.5042729    1210.2188   0.03833203  0.037666016            5 
 2632000   0.82655663   -5.4665326    1211.9531  0.038372374  0.037657137           10 
 2633000   0.83087738   -5.4820391    1209.1057  0.038267682  0.037648302            5 
 2634000   0.82971292   -5.4861196    1207.9381  0.038216213  0.037639545            6 
 2635000   0.82566129   -5.5125408    1207.5962  0.038190899  0.037630824            5 
 2636000   0.83902648   -5.4983609    1210.4229  0.038265771  0.037622072            5 
 2637000   0.84423727   -5.4698326    1211.5834  0.038287933  0.037613349           10 
 2638000   0.81394912   -5.4743407     1215.154  0.038386213    0.0376047            6 
 2639000   0.83592276    -5.494026    1210.5834   0.03822734  0.037596014            6 
 2640000   0.80820713   -5.5027324    1213.0002  0.038289147  0.037587275            5 
 2641000   0.83361396   -5.4960707     1212.997  0.038274548  0.037578584            9 
 2642000   0.82776435   -5.4951309    1208.3181  0.038112482  0.037569745            5 
 2643000   0.84224934   -5.4854894    1207.8141   0.03808217  0.037560953            2 
 2644000   0.83540647   -5.5277017    1210.6805   0.03815811  0.037551977            5 
 2645000   0.82501146   -5.4920513    1211.9793  0.038184603   0.03754304            3 
 2646000   0.81663389   -5.5133226    1212.7167  0.038193394    0.0375343            9 
 2647000   0.82798043   -5.5077983    1211.8816  0.038152674  0.037525462            6 
 2648000   0.84926166   -5.5023304     1212.335  0.038152537   0.03751657            4 
 2649000   0.83404315    -5.499318    1208.8091  0.038027215  0.037507707            3 
 2650000   0.80485083   -5.4912387    1211.3004  0.038091207  0.037498826            5 
 2651000   0.82281595   -5.5205386    1207.3903  0.037953926  0.037489922            4 
 2652000   0.82785483   -5.5196713     1215.183  0.038184485  0.037481029            5 
 2653000   0.83520924   -5.4824606    1211.2208  0.038045635  0.037472248            9 
 2654000   0.83926965   -5.5378169    1210.7927  0.038017857  0.037463512           11 
 2655000   0.82630825    -5.522296    1213.3312  0.038083215  0.037454749            7 
 2656000   0.80942915   -5.4798737     1214.402  0.038102473  0.037445864            6 
 2657000    0.8275892   -5.5033783    1216.8031  0.038163439  0.037437094            5 
 2658000   0.82100653    -5.524747    1212.1924  0.038004527  0.037428299            7 
 2659000    0.8285388   -5.4838974    1216.6387  0.038129582  0.037419598            3 
 2660000   0.82899537   -5.4883519    1216.8642  0.038122311  0.037411036            5 
 2661000   0.82371729   -5.5130017    1216.7632  0.038104823  0.037402359            4 
 2662000   0.83899412   -5.4922881    1215.7872  0.038059954  0.037393693            4 
 2663000   0.80482801   -5.5148582    1212.9988  0.037958405  0.037384946            3 
 2664000   0.83413868   -5.4683805    1216.5098  0.038053984  0.037376171            8 
 2665000   0.81767546   -5.4677128    1219.6984  0.038139412  0.037367479            3 
 2666000   0.81738821   -5.5070227     1215.563  0.037995843   0.03735877            4 
 2667000   0.81496867   -5.5122361    1214.8352  0.037958855  0.037350081            6 
 2668000   0.82686266   -5.5041175     1217.915  0.038040822  0.037341405           11 
 2669000   0.81394886   -5.4728893    1222.2848  0.038163006  0.037332794           11 
 2670000   0.83089843   -5.5210549    1216.5205  0.037968804  0.037324151            7 
 2671000   0.84952357   -5.5121649    1215.0276  0.037908013  0.037315475            6 
 2672000   0.81891295     -5.46449    1220.8863  0.038076545  0.037306827            4 
 2673000   0.81228744   -5.4956384    1218.0582  0.037974129  0.037298217            4 
 2674000    0.8364265   -5.4985049    1216.6986  0.037917559  0.037289518            3 
 2675000   0.81097911   -5.5126094    1219.8828  0.038002578  0.037280839            4 
 2676000   0.82633082   -5.5009899    1219.4503   0.03797491  0.037272245            3 
 2677000   0.83049501   -5.5065931    1221.0509  0.038010551  0.037263611            2 
 2678000    0.8255222   -5.5089594    1219.0369  0.037933685   0.03725494           11 
 2679000   0.82417605   -5.5141338    1220.5794  0.037967506  0.037246349            5 
 2680000   0.84197578   -5.5125596    1221.2418  0.037973938  0.037237802            7 
 2681000   0.81874699   -5.5059217     1221.475  0.037967022  0.037229218            6 
 2682000   0.81360468   -5.4804826    1221.7428  0.037961186  0.037220718           12 
 2683000   0.83555788   -5.5091321    1221.3687  0.037935418   0.03721228            5 
 2684000   0.81356414   -5.5263282     1218.432  0.037830103  0.037203713            6 
 2685000   0.81799872   -5.5087736    1222.9921  0.037957546  0.037195093            5 
 2686000   0.82699003   -5.4784668    1223.5863  0.037961849  0.037186598            5 
 2687000   0.82526337   -5.4708255    1222.9044  0.037926572  0.037178114            4 
 2688000   0.82703908   -5.5068425    1225.9143  0.038005775  0.037169658            4 
 2689000   0.82834252   -5.4969085    1220.2573  0.037816329   0.03716107            4 
 2690000   0.84076082   -5.4872737    1225.1061  0.037952482  0.037152579            3 
 2691000   0.82211346   -5.4968862    1225.4758  0.037949828   0.03714409            6 
 2692000   0.81012599   -5.5092582    1219.8858  0.037762685  0.037135656            5 
 2693000   0.83148013   -5.5103152    1222.3361  0.037824487  0.037127132            6 
 2694000   0.82301721   -5.5107622    1222.7439  0.037823062  0.037118703            3 
 2695000   0.82697653    -5.511846    1223.7553  0.037840299  0.037110302            6 
 2696000   0.82711294   -5.5138218    1222.3293  0.037782185  0.037101857            3 
 2697000   0.82354977   -5.5175793    1223.6815  0.037809957  0.037093396           11 
 2698000   0.83412907   -5.5276558    1223.0283  0.037775768  0.037084843           16 
 2699000   0.82457916   -5.4879605    1221.7523  0.037722374  0.037076314            6 
 2700000   0.81505234   -5.5199126    1221.0595  0.037687021  0.037067819           20 
 2701000    0.8183341   -5.5280031    1223.5055  0.037748535  0.037059256            8 
 2702000   0.80918097   -5.5357877     1225.611  0.037799499  0.037050688           12 
 2703000   0.83490361   -5.5218468    1221.8888  0.037670761  0.037042077            5 
 2704000   0.83499993   -5.5176961    1224.1742  0.037727263  0.037033478            3 
 2705000   0.81649611   -5.5232391    1226.0608  0.037771436   0.03702501            7 
 2706000   0.81022526    -5.534911    1225.1724  0.037730119   0.03701653            5 
 2707000   0.81943393   -5.5156545    1225.9101  0.037738889  0.037007955            8 
 2708000   0.81874507    -5.519722    1227.7243  0.037780781   0.03699948            6 
 2709000   0.81237083   -5.5153582    1225.4566  0.037697079  0.036990937            3 
 2710000   0.82688769   -5.5345855    1226.3839  0.037711683  0.036982409            3 
 2711000   0.82679838   -5.5321697    1225.6351  0.037674755   0.03697389            4 
 2712000   0.82820507   -5.4947742    1227.8532   0.03772902  0.036965459            7 
 2713000   0.82751243   -5.5172808    1222.6483  0.037555238  0.036956963            5 
 2714000   0.82229674   -5.5316668    1225.1132  0.037617086  0.036948422            5 
 2715000    0.8118517   -5.5218182    1225.7723   0.03762346  0.036939881            3 
 2716000   0.82031685   -5.5034451    1226.5307  0.037632877   0.03693148            5 
 2717000    0.8069327   -5.5097468     1227.124  0.037637222  0.036923033            8 
 2718000   0.80632016   -5.5391819    1229.8502   0.03770696  0.036914549            3 
 2719000   0.81621992    -5.518487    1225.9361   0.03757313  0.036906104            4 
 2720000   0.80430507   -5.5218348    1229.2169  0.037659832  0.036897684            3 
 2721000   0.79399422   -5.5006404    1232.2637  0.037739303  0.036889232            4 
 2722000   0.81216818   -5.4836388    1230.3222  0.037666001  0.036880877            7 
 2723000   0.81693293   -5.5233733     1229.087  0.037614366   0.03687259            6 
 2724000    0.8255197   -5.5384435    1229.8903  0.037625132  0.036864123            5 
 2725000    0.8083653   -5.5110813    1228.8802  0.037580434  0.036855641            9 
 2726000   0.81143741   -5.5379647    1228.7364  0.037562252  0.036847216           10 
 2727000   0.81483337   -5.5418008    1227.9489  0.037524414  0.036838817            8 
 2728000   0.81933722   -5.5606042     1226.872  0.037477763  0.036830266           11 
 2729000   0.79668653   -5.5443146    1225.4433    0.0374204   0.03682172            5 
 2730000   0.79668465   -5.5447466    1227.0186  0.037454779  0.036813212            6 
 2731000   0.82046474   -5.5469724    1231.2195   0.03756925  0.036804731            9 
 2732000   0.79408501   -5.5113502    1230.3132  0.037527854  0.036796332           10 
 2733000   0.82897699   -5.5010993    1234.2663  0.037634659  0.036787888            6 
 2734000   0.81949247    -5.555809    1228.1983  0.037435939  0.036779496            5 
 2735000   0.82890654   -5.5189228    1229.9305  0.037475029  0.036771032            4 
 2736000   0.80540167   -5.5380637    1232.3153  0.037533971  0.036762594            5 
 2737000   0.82179575   -5.5323729    1227.1503  0.037362999   0.03675405            4 
 2738000   0.80285052   -5.5499764    1228.6466  0.037394892  0.036745435            8 
 2739000   0.79558502   -5.5223208    1230.1105   0.03742578  0.036737008            5 
 2740000   0.82231367   -5.5384827    1233.1701  0.037505174  0.036728518            4 
 2741000   0.82175468   -5.5157474    1234.0733  0.037518949  0.036720095            4 
 2742000   0.83918004   -5.5210605    1232.0441  0.037443596  0.036711776            5 
 2743000   0.80719677   -5.5199639    1234.9116  0.037517063  0.036703445            5 
 2744000   0.82868431   -5.5330502    1230.6696  0.037374564  0.036694952            5 
 2745000    0.8343982   -5.5244321    1232.9873  0.037431309  0.036686485           16 
 2746000   0.78647831   -5.5001832    1234.5625  0.037465481  0.036678186            4 
 2747000   0.81078676   -5.5269919    1231.7589   0.03736679  0.036669713            5 
 2748000   0.81637365   -5.5434473    1233.7261   0.03741285  0.036661152            8 
 2749000   0.81600331   -5.5207703    1234.2425  0.037414894  0.036652701            4 
 2750000   0.80842804   -5.5196221    1234.9727  0.037423414  0.036644291            7 
 2751000   0.80517225   -5.5562962     1233.113  0.037353479  0.036635787            4 
 2752000   0.81772284   -5.5080453    1238.4074  0.037500223  0.036627344            5 
 2753000   0.81446187   -5.5288448    1235.8771  0.037410011  0.036619018            4 
 2754000   0.81314059    -5.549217    1235.1834  0.037375434  0.036610638            6 
 2755000   0.80162773   -5.5345061    1236.2095  0.037392906  0.036602194            6 
 2756000   0.80866327   -5.5707839    1234.4308  0.037325555  0.036593754           10 
 2757000   0.81592536   -5.5243101    1234.0433  0.037300306  0.036585291            3 
 2758000   0.80571606    -5.557054    1235.0778  0.037318039  0.036576871            5 
 2759000   0.82916831   -5.5495825    1234.5653  0.037289032  0.036568441            5 
 2760000   0.80820893   -5.5289019    1234.7368  0.037280699  0.036560065            9 
 2761000    0.8046636   -5.5630692    1239.9116  0.037423384  0.036551668           10 
 2762000    0.8207666   -5.5265922     1236.716   0.03731342   0.03654328           10 
 2763000   0.82018477   -5.5273568    1235.8171  0.037272804  0.036534957            5 
 2764000   0.81810683   -5.5204848    1242.1284  0.037449601  0.036526764            4 
 2765000   0.81787781     -5.53258    1237.9382  0.037309772   0.03651858            4 
 2766000   0.81587496      -5.5251    1241.5577  0.037405328  0.036510437            7 
 2767000   0.80673674   -5.5337186    1242.9093  0.037432516  0.036502324           17 
 2768000   0.81252161   -5.5438669    1237.5874  0.037258773  0.036494082            5 
 2769000   0.79726351   -5.5403106    1239.1657  0.037292816  0.036485855            3 
 2770000    0.8163205   -5.5488904    1242.3745  0.037375886  0.036477611            3 
 2771000   0.80220323   -5.5461461    1237.8751  0.037227086  0.036469277           10 
 2772000   0.80643381   -5.5391811    1240.2784  0.037285907  0.036461039           18 
 2773000   0.81729273   -5.5334312    1239.4019  0.037246119  0.036452667            6 
 2774000   0.81833788   -5.5605219    1238.9496  0.037219105   0.03644437            4 
 2775000   0.79576623   -5.5566806    1238.0736  0.037179386  0.036436068            6 
 2776000   0.81031293   -5.5229142    1237.1762  0.037139054  0.036427841            9 
 2777000   0.81670937   -5.5167148     1238.752  0.037172968  0.036419676            4 
 2778000   0.79676454   -5.5307509    1241.9771  0.037256332  0.036411478            3 
 2779000    0.8131486   -5.5546263    1239.3967  0.037165549  0.036403271            7 
 2780000   0.82173897   -5.5541869    1241.4411  0.037213463  0.036395082           11 
 2781000   0.79163019   -5.5301666      1242.19  0.037222522  0.036386884            8 
 2782000    0.8074485   -5.5609943     1241.392  0.037185237   0.03637868            6 
 2783000   0.81115009   -5.5433573    1242.4738  0.037204269  0.036370348            3 
 2784000   0.81007751   -5.5423754    1240.6811  0.037137245  0.036362059            9 
 2785000   0.79806197   -5.5586582    1238.9206  0.037071233  0.036353864            4 
 2786000   0.81513253   -5.5172151    1242.0941  0.037152852  0.036345577            9 
 2787000   0.81453074   -5.5386175    1240.4675  0.037090883   0.03633731            4 
 2788000   0.81569049   -5.5698923    1242.5777  0.037140653  0.036329068            8 
 2789000   0.81993154   -5.5707277    1242.8889  0.037136636  0.036320842            6 
 2790000   0.80201057   -5.5346226    1243.9804  0.037155927  0.036312628            7 
 2791000   0.80051205   -5.5373841    1245.4723  0.037187159  0.036304411            3 
 2792000   0.81641984   -5.5247374    1244.6494  0.037149279  0.036296186            5 
 2793000   0.83104242   -5.5618979    1244.1896  0.037122257  0.036287903            7 
 2794000   0.80572913     -5.56971    1241.3451  0.037024133  0.036279661           10 
 2795000   0.81755836   -5.5764434     1240.275  0.036978981  0.036271421           13 
 2796000   0.81611933   -5.5466781    1244.8952  0.037103456  0.036263078            5 
 2797000   0.79968616    -5.562253    1245.5975  0.037111115  0.036254796            5 
 2798000   0.80748979   -5.5681077    1242.0258  0.036991475  0.036246588            4 
 2799000   0.82487243   -5.5984607    1245.0194  0.037067388  0.036238292           17 
 2800000   0.79614458   -5.5163242    1249.6935  0.037193259  0.036230029            4 
 2801000   0.81184161   -5.5214992    1245.3191  0.037049837  0.036221808           13 
 2802000   0.79785893   -5.5727479    1242.9691  0.036966725  0.036213592            3 
 2803000   0.79034848   -5.5400247     1245.355  0.037024467  0.036205304            9 
 2804000   0.77853846   -5.5727225    1243.7786  0.036964413  0.036196981            5 
 2805000   0.80593142   -5.5628498    1245.9547  0.037015887  0.036188687           10 
 2806000   0.79740471   -5.5566966     1245.761   0.03699694  0.036180337            9 
 2807000   0.77985645    -5.533341    1247.6908  0.037041052  0.036172198            7 
 2808000   0.80462326   -5.5522235    1245.8459  0.036973108  0.036163966            9 
 2809000   0.79815556   -5.5684598    1246.0974  0.036967409  0.036155783            4 
 2810000   0.80776535   -5.5441322    1248.6261  0.037029244  0.036147616            4 
 2811000    0.8163446   -5.5785491    1244.1179  0.036882422  0.036139423            9 
 2812000   0.79962717    -5.555876    1250.1625   0.03704844  0.036131193            5 
 2813000    0.8069514   -5.5641181    1246.8885  0.036938277   0.03612295            7 
 2814000   0.79492549    -5.515237    1251.6638  0.037066567  0.036114863            3 
 2815000   0.80788411    -5.541521    1247.3016  0.036924262  0.036106764            9 
 2816000   0.81589499   -5.5259453    1247.9908  0.036931545    0.0360985           16 
 2817000   0.80067388   -5.5658563    1246.5465  0.036875709  0.036090302            8 
 2818000   0.79463644   -5.5554639    1247.2333  0.036882934  0.036082133            4 
 2819000   0.80708137   -5.5326803    1249.3075  0.036931166  0.036073927            4 
 2820000   0.79845838   -5.5563235    1248.1484  0.036883817  0.036065815            3 
 2821000    0.7991225   -5.5646249    1246.3726  0.036818286  0.036057679            4 
 2822000   0.79877852    -5.544691    1252.9933  0.037000747   0.03604957            7 
 2823000   0.80493093   -5.5453562    1250.2765  0.036907441  0.036041444            5 
 2824000   0.80502953   -5.5504239    1253.5205    0.0369901   0.03603327            7 
 2825000     0.817503   -5.5459332     1249.674  0.036863541   0.03602511            4 
 2826000   0.80842837   -5.5544913    1249.4887  0.036845032  0.036017013            5 
 2827000   0.79670054   -5.5478013    1250.1922  0.036852735  0.036008876            5 
 2828000   0.79820947   -5.5810405    1247.7444  0.036767573  0.036000708            3 
 2829000    0.7885906   -5.5540971    1250.2043  0.036827039  0.035992479            9 
 2830000   0.80402107   -5.5836776    1246.2999  0.036699056    0.0359843            8 
 2831000    0.7917466   -5.5477687    1251.5741  0.036841343  0.035976125            7 
 2832000   0.78233609   -5.5560174    1250.4442  0.036795087  0.035968029            6 
 2833000   0.80254916   -5.5614957    1251.9562  0.036826574   0.03595996            5 
 2834000   0.79887038   -5.5621962    1251.8236   0.03680968   0.03595181            6 
 2835000   0.80432171   -5.5551541    1249.8871  0.036739773   0.03594364            5 
 2836000     0.804112   -5.5346169    1250.4109  0.036742212  0.035935377            6 
 2837000   0.79965475   -5.5859289    1252.2171  0.036782314  0.035927213            8 
 2838000   0.80286261   -5.5834558    1253.5261  0.036807789  0.035918998           10 
 2839000   0.81159829   -5.5639202    1253.5315  0.036794984  0.035910876            8 
 2840000   0.78535189   -5.5531697    1253.2284  0.036773134   0.03590275           11 
 2841000   0.79476813   -5.5787309    1250.7618   0.03668784  0.035894567            8 
 2842000   0.79692131   -5.5502518    1250.8376  0.036677153   0.03588645            4 
 2843000   0.79458284   -5.5557123    1252.3786  0.036709422  0.035878288            5 
 2844000   0.78228659    -5.595376    1251.9518  0.036684008  0.035870074            8 
 2845000   0.78720214   -5.5336164    1253.2931  0.036710401  0.035861957            6 
 2846000   0.79031481   -5.5162188    1257.3368  0.036815906  0.035853764            8 
 2847000   0.79608767   -5.5530144    1253.2247  0.036682609  0.035845737            6 
 2848000   0.81079893   -5.5703914    1251.2478  0.036611885  0.035837531           11 
 2849000   0.81895041   -5.5491539    1252.5736  0.036637813  0.035829414            6 
 2850000   0.78904725    -5.583162    1252.9202  0.036635095  0.035821304            5 
 2851000   0.81377946   -5.5730275    1255.4312  0.036695638   0.03581315            5 
 2852000   0.79436863   -5.5629773    1256.6263  0.036717693  0.035804959            9 
 2853000   0.79560249   -5.5716527    1255.3463  0.036667435  0.035796827            8 
 2854000   0.80439656   -5.5585692    1255.3582  0.036654934  0.035788701            5 
 2855000   0.78713922   -5.5775966    1255.7676  0.036654045   0.03578066            5 
 2856000    0.7936919   -5.5526522    1257.8483  0.036701922  0.035772514           11 
 2857000   0.77790899   -5.5658839    1255.5474  0.036621964  0.035764492            7 
 2858000   0.79897828   -5.6086179    1257.5805  0.036668432  0.035756412            7 
 2859000   0.79201834   -5.5662439     1256.971  0.036637839   0.03574837           10 
 2860000   0.78131936   -5.5624979    1258.6489  0.036673919  0.035740319            5 
 2861000   0.80484486   -5.5924676    1255.9495  0.036582474  0.035732275            4 
 2862000   0.77368518   -5.5626499    1259.9116  0.036685058  0.035724232            6 
 2863000   0.80083694   -5.5745019    1257.9772  0.036615938  0.035716188            8 
 2864000    0.7932562   -5.5903917     1253.934  0.036485511  0.035708151            3 
 2865000   0.78476146   -5.5607663    1259.8326  0.036644345  0.035700069            6 
 2866000   0.80481915    -5.576319    1256.5211  0.036535272  0.035692005            7 
 2867000   0.80095194   -5.5807659    1260.2325  0.036630407  0.035684017           14 
 2868000   0.79264161   -5.5472198    1260.8996  0.036637018  0.035676052           15 
 2869000   0.79128686   -5.5910437    1254.3579  0.036434236  0.035667991            4 
 2870000   0.78820211   -5.5458281    1261.4279  0.036626825  0.035659907            4 
 2871000   0.79875685    -5.569554    1258.0707  0.036516624  0.035651841           10 
 2872000   0.78243764   -5.5755404    1259.3176  0.036540088  0.035643745            6 
 2873000   0.77170858   -5.5789394    1255.2277  0.036408739   0.03563562            7 
 2874000   0.78177144   -5.5404833    1260.1346  0.036538349  0.035627506            4 
 2875000   0.77985504   -5.5710827    1262.6247  0.036597817  0.035619465            2 
 2876000   0.81259626   -5.5945838    1258.1094  0.036454258  0.035611315            7 
 2877000   0.79813919   -5.5790838    1261.4604  0.036538652  0.035603232            6 
 2878000   0.79809436   -5.5629442    1261.4694  0.036526217  0.035595152           18 
 2879000   0.79308556   -5.5848383    1258.6002   0.03643048  0.035587085           11 
 2880000   0.78889805   -5.5542058    1263.5615  0.036561385  0.035579024            4 
 2881000    0.7859185    -5.581451      1260.44  0.036458405   0.03557091            2 
 2882000   0.79187126   -5.5661393    1260.0694   0.03643504  0.035562761            7 
 2883000   0.79822962   -5.5817373    1261.6929  0.036469329  0.035554681            8 
 2884000   0.79974908   -5.6194547    1259.7761  0.036401297   0.03554658            4 
 2885000   0.79320492   -5.5803402     1262.416  0.036464933  0.035538506            8 
 2886000   0.78891154   -5.5573992    1259.3452   0.03636363  0.035530475            6 
 2887000   0.80630997   -5.5987875    1259.3086  0.036349977  0.035522362            5 
 2888000   0.79078772   -5.5842048    1259.2664  0.036336172  0.035514309           14 
 2889000   0.79859933   -5.5936268    1263.6133  0.036448983  0.035506323            9 
 2890000   0.78436862   -5.5786607    1259.9311  0.036330193  0.035498322            6 
 2891000   0.79416805   -5.5739537    1264.5637  0.036451162  0.035490411            8 
 2892000    0.7999298   -5.5582391    1259.7009  0.036298436  0.035482444            5 
 2893000   0.79972829    -5.569999    1263.9411  0.036408028  0.035474512            4 
 2894000   0.78340633   -5.5723253    1263.8756   0.03639356  0.035466431           10 
 2895000   0.80244714    -5.591393    1265.8997  0.036439254   0.03545849            9 
 2896000   0.77920595    -5.557956    1262.8072  0.036337684  0.035450591            5 
 2897000   0.79467151   -5.5676965    1265.9907  0.036416716  0.035442685            9 
 2898000    0.7790685   -5.5809712    1265.1297  0.036379392  0.035434808            9 
 2899000   0.80429876    -5.616152    1261.8295  0.036271976  0.035426776            5 
 2900000   0.77375165   -5.5930951    1260.4446  0.036219671  0.035418762           14 
 2901000   0.78822217   -5.5346868    1268.6973  0.036444252   0.03541084            8 
 2902000   0.77954745   -5.5981294    1261.7225  0.036231407  0.035402902           13 
 2903000     0.782147   -5.5573411    1264.4786  0.036298042  0.035394858            6 
 2904000   0.78440735   -5.5984966    1264.6275  0.036289815  0.035386894           11 
 2905000   0.78387238   -5.5884765    1262.1647  0.036206675  0.035378853            4 
 2906000   0.78919556   -5.5473959    1265.3121  0.036284472  0.035370832            6 
 2907000   0.80491016   -5.5875465    1264.5025  0.036248781  0.035362765            6 
 2908000   0.78164613    -5.613486    1265.6404  0.036268924  0.035354746            7 
 2909000   0.77472718   -5.5872617    1263.4323  0.036193203  0.035346728            4 
 2910000   0.79297388   -5.5879996     1266.491  0.036268356  0.035338689            6 
 2911000   0.77837814   -5.5906642    1266.4732  0.036255386  0.035330632            9 
 2912000   0.77572322   -5.5809951    1264.9679  0.036199858   0.03532266            3 
 2913000   0.79681638   -5.5897029    1267.1847   0.03625085  0.035314646            8 
 2914000   0.79242121   -5.5943681    1267.3646  0.036243555  0.035306577            7 
 2915000    0.7902016   -5.5961583    1262.4764  0.036091378  0.035298611           15 
 2916000    0.7843023   -5.5750647    1269.0366  0.036266479  0.035290663           11 
 2917000   0.79911814    -5.593219    1267.4642  0.036209126  0.035282729           11 
 2918000   0.76970988   -5.6134005    1266.7476  0.036176252  0.035274809            7 
 2919000   0.77362119   -5.6011297    1266.8789  0.036167607  0.035266917           14 
 2920000   0.81237592    -5.596284    1264.0411  0.036074231  0.035258908           10 
 2921000   0.77792674   -5.6059124    1266.2766   0.03612566  0.035250902            6 
 2922000   0.79071305   -5.5857821    1264.6114  0.036065804  0.035242959            7 
 2923000   0.78166187   -5.6308727    1265.6753  0.036083798  0.035234965           10 
 2924000   0.78350835   -5.6212584    1263.8161   0.03601847  0.035226874            5 
 2925000   0.78704681   -5.6159631    1267.3315  0.036106311  0.035218859           11 
 2926000   0.78096258    -5.602239    1267.9437  0.036111406   0.03521089           11 
 2927000   0.77284369    -5.607495    1265.1302  0.036018967  0.035202846           10 
 2928000   0.79692067   -5.5903334    1267.8352  0.036083653  0.035194817            4 
 2929000   0.78244255   -5.5975127    1269.7435  0.036125625  0.035186833           10 
 2930000   0.77962254   -5.6250314    1269.3369  0.036101732  0.035178915            8 
 2931000   0.78732269   -5.5970615    1267.0162  0.036023435  0.035170974            5 
 2932000   0.79043023   -5.5885557    1270.0925  0.036098583  0.035163071            5 
 2933000   0.77879485     -5.58306    1271.9744  0.036139744  0.035155163           14 
 2934000   0.77799941   -5.5826796    1272.1411   0.03613216  0.035147243            4 
 2935000   0.77915545   -5.5828457    1271.9541   0.03611454  0.035139352            6 
 2936000   0.77278084   -5.5856992    1270.4792  0.036060376  0.035131404           10 
 2937000   0.78369134   -5.5873246    1270.8516  0.036058666  0.035123341            4 
 2938000   0.76986513   -5.5945668    1268.3061  0.035974191  0.035115311            9 
 2939000   0.79030243   -5.6086638    1268.0682  0.035955206  0.035107281            4 
 2940000   0.77838902   -5.6021961    1271.1139  0.036029304  0.035099291            7 
 2941000   0.76786531   -5.6106995    1271.1344  0.036017636  0.035091216           15 
 2942000   0.79184261   -5.6014653    1269.9733  0.035972505  0.035083216           16 
 2943000    0.7893078   -5.5976698    1268.8027  0.035927136  0.035075199           10 
 2944000   0.77631105   -5.5914127    1271.4935  0.035991096  0.035067228            7 
 2945000   0.78061579   -5.5880088    1270.9397  0.035963205    0.0350592            7 
 2946000   0.77555157   -5.5869173    1273.3623  0.036019527  0.035051218            6 
 2947000   0.78819052    -5.607028    1269.9356  0.035910405  0.035043197           16 
 2948000   0.75932119   -5.5826659    1272.2447  0.035963497  0.035035164            6 
 2949000   0.76861919   -5.6387578    1271.2917  0.035924372  0.035027181            6 
 2950000   0.78478422   -5.5970334    1270.6826  0.035894988  0.035019174           11 
 2951000   0.80234888   -5.5896818    1270.4141  0.035875243  0.035011214            7 
 2952000    0.7780283   -5.5830152     1272.809  0.035930697  0.035003295            8 
 2953000   0.77335623   -5.6108269    1270.1911  0.035844653  0.034995346            9 
 2954000   0.77718332   -5.6297052    1270.6341  0.035845015  0.034987393            8 
 2955000   0.77454979   -5.6220458    1271.9993  0.035871386  0.034979418            4 
 2956000    0.7646372    -5.610618    1272.2457  0.035866194  0.034971406            7 
 2957000   0.77675445   -5.5876518    1277.3142  0.035996906  0.034963385            6 
 2958000   0.77265743   -5.6059609    1272.2257  0.035841383  0.034955457            5 
 2959000   0.79133943   -5.5955097    1275.2664  0.035914905  0.034947527           10 
 2960000   0.77874818   -5.5957076    1273.9211  0.035864896  0.034939624           14 
 2961000     0.769832   -5.5994506    1272.7665   0.03582029  0.034931606            8 
 2962000   0.77095488   -5.6001877    1273.4819  0.035828322  0.034923625           13 
 2963000   0.78942644   -5.6121122    1272.8872  0.035799505  0.034915562            6 
 2964000   0.77170444   -5.5906469    1272.5989  0.035779322   0.03490752            4 
 2965000   0.75390136   -5.6295724    1274.7378  0.035827369  0.034899527            9 
 2966000   0.76901538   -5.6058053    1275.4829  0.035836223  0.034891462            6 
 2967000   0.77741047   -5.6172932    1271.9542  0.035725038  0.034883434            7 
 2968000   0.77429686   -5.6001596    1272.1691  0.035719035  0.034875309           19 
 2969000   0.77529162   -5.6008883    1273.7199  0.035750531  0.034867181            8 
 2970000   0.77166656   -5.6326156    1272.4785  0.035703661  0.034859072            4 
 2971000    0.7743947    -5.593143    1271.4313  0.035662273  0.034851015           18 
 2972000   0.77567436   -5.6258041    1271.4548  0.035650931   0.03484295            3 
 2973000   0.77687806     -5.63566    1272.5006  0.035668252   0.03483486            7 
 2974000   0.77545746   -5.5962943     1275.834  0.035749664  0.034826734            7 
 2975000    0.7757946   -5.5971737    1275.7248  0.035734589  0.034818738           10 
 2976000   0.77377255   -5.6235436    1271.4309  0.035602344  0.034810696           17 
 2977000   0.78028576   -5.6125499      1273.02  0.035634868  0.034802586            8 
 2978000    0.7642071   -5.6235639    1273.9718  0.035649537  0.034794542            9 
 2979000   0.78001294   -5.6183119    1273.0953  0.035613051  0.034786476            7 
 2980000   0.76861754   -5.5994876    1277.7315  0.035730747  0.034778456            5 
 2981000   0.78848716   -5.6401022    1272.2325  0.035565037  0.034770406            8 
 2982000   0.77750155   -5.6185742    1272.4315  0.035558673  0.034762286           10 
 2983000   0.78452099   -5.6294966    1275.6919  0.035637833  0.034754227           10 
 2984000   0.78203047   -5.6294164    1274.2704  0.035586193  0.034746162            3 
 2985000   0.77780605   -5.6094943    1277.5037  0.035664535  0.034738153            3 
 2986000    0.7658078   -5.6026524    1277.8704  0.035662827  0.034730098            6 
 2987000   0.78163772   -5.5957473    1275.6443  0.035588782  0.034721995            3 
 2988000   0.78468228   -5.6175901    1277.5308  0.035629486  0.034713907            5 
 2989000    0.7573337   -5.6082982    1272.2176  0.035469432  0.034705777           12 
 2990000    0.7723966   -5.5878321    1277.0974  0.035593573  0.034697615            4 
 2991000   0.77039949   -5.6215363    1274.5187  0.035509827  0.034689586            5 
 2992000   0.78336864   -5.6056746    1277.4983  0.035580947  0.034681484           11 
 2993000   0.78339787   -5.6430878     1273.677  0.035462662  0.034673409            5 
 2994000   0.78164794   -5.6203751    1279.0342  0.035599929   0.03466526            4 
 2995000   0.77175871   -5.5966756    1273.5894  0.035436544  0.034657179           10 
 2996000   0.78491475   -5.6233634    1278.9323  0.035573327  0.034649193            4 
 2997000    0.7726124   -5.6101436    1277.5883  0.035524088  0.034641131            3 
 2998000   0.77456197   -5.6350895    1276.6799  0.035486989  0.034633097            8 
 2999000   0.78589733   -5.5826488    1276.6003  0.035472943  0.034625087           10 
 3000000   0.76746841   -5.6332549    1274.3856    0.0353996  0.034617022            7 
 3001000   0.76788603   -5.6132751    1277.2363  0.035466963  0.034609009            6 
 3002000   0.76725859   -5.6231345    1273.8697  0.035361696  0.034601036           14 
 3003000   0.79479429   -5.6024937    1279.0492  0.035493652  0.034592939            8 
 3004000    0.7812371   -5.5958963    1279.7765  0.035502011  0.034584928            5 
 3005000   0.76409472   -5.6148103    1278.0243  0.035441605   0.03457688            5 
 3006000   0.77030455   -5.6297101    1276.1253  0.035377171  0.034568812            7 
 3007000   0.79644746   -5.6423488    1273.5367  0.035293667  0.034560771            4 
 3008000   0.75965399   -5.5845578    1283.3452  0.035553667  0.034552727            7 
 3009000    0.7849162   -5.6151646    1274.8212  0.035305783  0.034544707            4 
 3010000   0.76558339   -5.6173109    1273.5077   0.03525769  0.034536698            6 
 3011000    0.7584682    -5.636355    1275.7836  0.035308968  0.034528655            8 
 3012000   0.77919925   -5.6306836    1279.5128  0.035400421  0.034520592            3 
 3013000   0.80667992   -5.6361279    1277.1201  0.035322494  0.034512591            4 
 3014000   0.75429999   -5.5920668    1275.4347  0.035264175   0.03450453            4 
 3015000   0.75974983   -5.6096324    1280.6187  0.035395763  0.034496434            4 
 3016000   0.77295178   -5.6423493    1278.7897  0.035333492  0.034488344            5 
 3017000   0.77088572   -5.6191129    1279.7897    0.0353494   0.03448018           15 
 3018000    0.7666655   -5.6299003    1279.4682  0.035328812  0.034472019           10 
 3019000    0.7602456    -5.613509     1280.471  0.035344788  0.034463837            4 
 3020000   0.78307586   -5.6076045    1278.4345  0.035276891  0.034455729            7 
 3021000   0.77492924   -5.6469313    1275.8933  0.035195116  0.034447667            5 
 3022000   0.75369971   -5.6066294    1279.1901  0.035274381   0.03443957            4 
 3023000   0.77730057   -5.6256722    1277.4881  0.035215793  0.034431522            6 
 3024000   0.76742849   -5.6136318    1278.2442  0.035224985  0.034423415            3 
 3025000   0.78721883   -5.6400484    1279.9315  0.035259822  0.034415313            9 
 3026000   0.78368587   -5.6197278    1280.6704  0.035268517  0.034407214            8 
 3027000   0.76780847   -5.6263232    1280.8474  0.035261739  0.034399057            9 
 3028000   0.76776581   -5.6151347    1278.1988    0.0351772  0.034390885            6 
 3029000   0.75936763   -5.6507314    1276.4932  0.035118665  0.034382645            8 
 3030000   0.77461092   -5.6748373    1274.6654  0.035056805  0.034374447            6 
 3031000   0.77407646   -5.6368004    1277.1474  0.035113478  0.034366259            6 
 3032000   0.77369401   -5.6021515    1281.3938  0.035218607  0.034358128            3 
 3033000   0.76733184   -5.6232313    1278.2109  0.035119544  0.034349956           11 
 3034000   0.78651308   -5.6250558    1276.2897  0.035055199  0.034341777            8 
 3035000   0.76382173   -5.6245901    1280.6622  0.035163708  0.034333677            7 
 3036000   0.77715385   -5.6238039    1278.6887  0.035097956  0.034325489            5 
 3037000    0.7618684   -5.6127135     1279.622  0.035112006  0.034317358            4 
 3038000   0.77377672   -5.6485653    1277.5561  0.035043781  0.034309131            5 
 3039000   0.76069224   -5.6549096    1278.2131  0.035050267  0.034300872            8 
 3040000   0.75959905   -5.6354563    1278.0659  0.035034701   0.03429269            7 
 3041000   0.79010877   -5.6288571    1279.3968  0.035059653  0.034284445            5 
 3042000   0.75915067   -5.6246232    1275.9354  0.034953303   0.03427624            7 
 3043000    0.7639437    -5.621407    1276.4664  0.034956359  0.034267926            5 
 3044000   0.75515517   -5.6181692    1280.3087  0.035050063  0.034259674           14 
 3045000   0.76870709   -5.6130366    1281.8712  0.035081314  0.034251386            8 
 3046000   0.77013083   -5.6373852    1277.5734  0.034952216  0.034243121            6 
 3047000    0.7790547   -5.6463757    1277.6128  0.034941822  0.034234886           15 
 3048000   0.76171125   -5.6389267    1278.6591  0.034958966  0.034226656            4 
 3049000   0.74134105   -5.6814236    1277.9597  0.034928382  0.034218397           10 
 3050000    0.7598135   -5.6563407    1279.8164  0.034967662  0.034210117            6 
 3051000   0.76068059   -5.6217823    1278.6032  0.034923062  0.034201895            8 
 3052000   0.77730156   -5.6516984    1278.3049  0.034903477  0.034193628            4 
 3053000   0.75778817   -5.6294367    1282.8717  0.035016697  0.034185381            6 
 3054000   0.75924079   -5.6117549    1279.8689  0.034923295  0.034177202            4 
 3055000   0.76844856   -5.6427038    1277.2296  0.034839868  0.034168926            8 
 3056000   0.76796026   -5.6310469    1278.6899  0.034868288  0.034160628            5 
 3057000    0.7508865   -5.6356596    1278.2177  0.034844011  0.034152394            6 
 3058000   0.77677448   -5.6528983    1279.2925  0.034861907  0.034144107            7 
 3059000   0.77320858   -5.6220014    1277.7198  0.034807666  0.034135771            5 
 3060000   0.77491943    -5.656587    1278.5772  0.034819641  0.034127522            8 
 3061000   0.74629525   -5.6573265    1277.6371  0.034782671  0.034119219            3 
 3062000   0.75334386     -5.68265    1280.6957  0.034854553  0.034110881            8 
 3063000   0.74459888   -5.6275954    1278.1672  0.034774382  0.034102564           10 
 3064000   0.76579219   -5.6588487    1283.3658  0.034904423   0.03409422           14 
 3065000   0.76287389    -5.649575    1278.8676  0.034770734  0.034085881           13 
 3066000   0.77734405   -5.6615172    1280.9365  0.034815625  0.034077519            6 
 3067000   0.76805423   -5.6349164    1279.8477  0.034774691  0.034069174            4 
 3068000   0.74913946   -5.6487794    1278.6369  0.034730468  0.034060873            8 
 3069000   0.75495512   -5.6530576    1279.1907  0.034734187  0.034052501            4 
 3070000   0.75309035   -5.6290683    1280.1824  0.034749795  0.034044131            8 
 3071000   0.76477851   -5.6757727    1280.0215  0.034734112  0.034035779            4 
 3072000   0.76846014   -5.6551661    1279.9366  0.034720502  0.034027459           21 
 3073000   0.76001969   -5.6680106    1281.0435   0.03473922  0.034019122            4 
 3074000   0.75157005    -5.634395    1284.5515  0.034823017   0.03401085           10 
 3075000   0.76202686   -5.6203657    1279.6773  0.034679603  0.034002574            6 
 3076000    0.7653085   -5.6605495    1282.0211  0.034731823  0.033994318            7 
 3077000   0.74991868   -5.6425857    1280.8242  0.034688123  0.033985979           24 
 3078000   0.75384177   -5.6645467    1277.2871  0.034581089  0.033977626            6 
 3079000   0.76078357   -5.6571846     1279.696  0.034635054   0.03396927            4 
 3080000   0.75887608   -5.6337732    1279.6697  0.034623099  0.033960947            4 
 3081000   0.76487434   -5.6725452    1280.2084  0.034626431  0.033952626            6 
 3082000   0.76629049   -5.6420884    1283.5116  0.034704511  0.033944298            5 
 3083000   0.75036703   -5.6335663    1286.7678  0.034781267   0.03393596            7 
 3084000   0.76103814   -5.6670556    1280.8187  0.034609238  0.033927618           19 
 3085000   0.74120368   -5.6357782    1279.5583  0.034563973  0.033919237            7 
 3086000   0.76171309   -5.6554848    1284.3609  0.034682461  0.033910829            4 
 3087000   0.75920021     -5.65285    1281.6386  0.034597737  0.033902421           11 
 3088000     0.755052   -5.6413899    1282.3157  0.034604805  0.033893998           16 
 3089000   0.77019652    -5.647434    1277.6456  0.034467616  0.033885563            4 
 3090000   0.73945207   -5.6358786    1280.4642  0.034532477  0.033877198            8 
 3091000   0.76719998   -5.6624347    1281.4602  0.034548156  0.033868792           16 
 3092000   0.75266651   -5.6330506    1281.8743  0.034548143  0.033860433            5 
 3093000   0.76071976   -5.6609956    1281.6044  0.034529702  0.033852028            8 
 3094000   0.75981914   -5.6895106    1280.7692  0.034496046  0.033843644            6 
 3095000   0.75901871     -5.64879     1280.206  0.034469737  0.033835295            9 
 3096000   0.75653458   -5.6398309    1279.4696  0.034438782  0.033826925            6 
 3097000   0.74772586   -5.6632884    1282.2015  0.034501171  0.033818491            6 
 3098000   0.75700192   -5.6660222    1279.4819   0.03441688  0.033810043            6 
 3099000    0.7527687   -5.6809174    1279.2479  0.034399481  0.033801582            6 
 3100000    0.7369335   -5.6484314    1283.5791  0.034504814   0.03379309            7 
 3101000   0.75587642   -5.6706042    1281.0958  0.034426954  0.033784694            8 
 3102000   0.74759783   -5.6529974    1280.7272  0.034405954  0.033776308           12 
 3103000   0.75069907   -5.6545184    1281.5549  0.034417095  0.033767958           17 
 3104000   0.73774031   -5.6549913    1279.4623  0.034349825   0.03375962            5 
 3105000   0.75141591   -5.6652897     1282.067   0.03440867  0.033751184            3 
 3106000   0.76742747    -5.663273    1278.9546  0.034314085  0.033742823            7 
 3107000   0.74936455   -5.6587259    1280.5864  0.034346809  0.033734486            4 
 3108000   0.75203031    -5.649787      1282.17  0.034378216  0.033726073           11 
 3109000   0.75186123   -5.6624369    1286.5469  0.034484477  0.033717587            6 
 3110000   0.75573733   -5.6613109    1284.3198  0.034413714  0.033709194            4 
 3111000   0.75332214   -5.6758101    1279.8727  0.034283529  0.033700835            7 
 3112000   0.76571979   -5.6553159    1284.8649  0.034406194  0.033692495           10 
 3113000    0.7591265   -5.6828925    1280.1764  0.034269634  0.033684109            9 
 3114000   0.74815102   -5.6647135    1279.6331  0.034244088   0.03367572            4 
 3115000   0.73563562    -5.663559    1283.1083  0.034326065  0.033667282           11 
 3116000   0.76476115   -5.6444602    1282.0202  0.034285948  0.033658898            9 
 3117000   0.74514096   -5.6704802    1284.5097  0.034341505  0.033650624           10 
 3118000   0.75597883   -5.6594082     1282.676  0.034281484  0.033642283           10 
 3119000   0.74912305   -5.6641061     1285.264  0.034339638  0.033633912            7 
 3120000   0.74860049   -5.6411564      1287.62   0.03439156  0.033625537            5 
 3121000   0.77095857   -5.6734025    1281.6871  0.034222126  0.033617095            5 
 3122000   0.75412947   -5.6778473    1283.2193  0.034252063   0.03360867            8 
 3123000    0.7409751   -5.6613307    1283.0778  0.034237319  0.033600215            6 
 3124000   0.75681063   -5.6783656    1281.4609   0.03418323  0.033591755            5 
 3125000    0.7562862   -5.6508472    1285.8802  0.034290137  0.033583362            5 
 3126000   0.74787937    -5.655754    1287.4539  0.034321122  0.033575024           13 
 3127000    0.7430447   -5.6701911    1284.2335  0.034224323  0.033566687           22 
 3128000   0.74114492    -5.676691    1281.4213  0.034138463  0.033558341            9 
 3129000    0.7463515   -5.6312739    1282.6275  0.034159676  0.033549882            7 
 3130000   0.73504131   -5.6677598    1284.2157  0.034191046  0.033541497            3 
 3131000   0.75526959    -5.647206    1283.0929  0.034150242  0.033533084            6 
 3132000   0.75744521   -5.6714824    1281.7894  0.034104657  0.033524681            8 
 3133000   0.76930665   -5.6714298    1284.6807  0.034170675  0.033516214            8 
 3134000   0.74700184   -5.6929445     1278.981  0.034008217  0.033507787            7 
 3135000   0.75218986   -5.6421653    1286.7804  0.034204688  0.033499375            7 
 3136000   0.75222913   -5.6794655    1284.3634  0.034129555   0.03349088            8 
 3137000   0.73997602   -5.6847856    1283.4924  0.034095536  0.033482407            7 
 3138000   0.75113145     -5.66601    1283.0257  0.034072278   0.03347395           10 
 3139000   0.74000631   -5.6795975    1282.1019    0.0340369  0.033465496            7 
 3140000   0.76459016    -5.701538    1280.3786  0.033980324  0.033456971           10 
 3141000   0.72814006   -5.6671631    1280.7327    0.0339789  0.033448477            7 
 3142000   0.74217744   -5.7106921    1278.9147  0.033919867  0.033440005           10 
 3143000   0.74035441   -5.6696032    1284.0785  0.034045989  0.033431495           14 
 3144000   0.74754419   -5.6621344    1283.9782  0.034032501  0.033422997           12 
 3145000   0.75022438   -5.7010326    1280.2187  0.033922065  0.033414498            5 
 3146000   0.75511936   -5.6423064    1288.3723   0.03412726  0.033406005           14 
 3147000   0.72902604   -5.6411086    1287.8219   0.03410184  0.033397561           10 
 3148000   0.74909878   -5.6545007    1286.1798  0.034047538  0.033389097            7 
 3149000   0.73408899   -5.6581072    1284.7664  0.033999323  0.033380618            9 
 3150000   0.74557716   -5.6953482    1283.3829   0.03395193  0.033372061           10 
 3151000   0.75061721   -5.6512922    1282.6801  0.033922568  0.033363533            8 
 3152000   0.74210879   -5.6638725    1286.0401  0.034000636  0.033355088           13 
 3153000   0.74716267    -5.698755    1280.8601  0.033852948  0.033346582            7 
 3154000   0.74680289   -5.6678334    1284.3783  0.033935168  0.033338079            9 
 3155000   0.75769816   -5.7088379     1283.778  0.033908559  0.033329623            7 
 3156000   0.76052967    -5.676583    1286.2909  0.033964165  0.033321087            3 
 3157000   0.74616688   -5.6721809    1284.9054  0.033916836  0.033312587            6 
 3158000   0.75505675   -5.6977726    1283.0872  0.033858116  0.033304086           27 
 3159000   0.75968658   -5.6916871    1286.4024  0.033934853  0.033295614            6 
 3160000   0.76532633   -5.6807453    1283.1475  0.033838277  0.033287141            7 
 3161000   0.75034759   -5.7051169    1286.0917  0.033905192  0.033278677            7 
 3162000   0.74286098   -5.6689549    1285.1693  0.033870158   0.03327017            6 
 3163000   0.74117474   -5.7045542    1280.7387   0.03374272  0.033261718            9 
 3164000   0.74218068   -5.6696641    1286.4778  0.033883211   0.03325328            5 
 3165000   0.77213089   -5.7013754    1283.1633  0.033785237  0.033244833            8 
 3166000   0.74813649   -5.6799266    1283.8833  0.033793518  0.033236357            7 
 3167000   0.75399056   -5.6637446    1288.9223  0.033915437  0.033227864            6 
 3168000    0.7507076   -5.6715009    1284.7475  0.033794915  0.033219414           15 
 3169000   0.73137237   -5.6814385     1282.775  0.033732382  0.033210904            7 
 3170000   0.73746644   -5.6749478     1285.766  0.033800367  0.033202387           16 
 3171000   0.75396196   -5.6768781    1288.0081  0.033848631  0.033193877           14 
 3172000   0.74256954   -5.6606114    1288.6682    0.0338553   0.03318545           11 
 3173000   0.74046858   -5.6836212    1284.5786  0.033737227  0.033176979           18 
 3174000   0.74559821   -5.6675753    1285.8617  0.033760283  0.033168424            7 
 3175000   0.73688022   -5.6968692    1283.5561  0.033689137  0.033159924            5 
 3176000   0.75695317   -5.6737074     1283.845   0.03368611  0.033151414            9 
 3177000   0.73290409   -5.6972515    1286.2392  0.033738306  0.033142915            8 
 3178000   0.72646273   -5.6902425    1287.0494  0.033748934  0.033134378            8 
 3179000   0.76004854      -5.7042    1283.7855  0.033652761   0.03312591            6 
 3180000   0.73248596   -5.6871511     1286.747  0.033719784  0.033117414            4 
 3181000   0.75530316   -5.6735543    1288.7468  0.033761574  0.033108934           17 
 3182000   0.74976405   -5.6854998    1288.0304  0.033732203  0.033100477            8 
 3183000   0.72307109   -5.6944569    1282.6459  0.033580634  0.033091964            9 
 3184000   0.74698244   -5.7059751     1284.654  0.033622644  0.033083494           12 
 3185000   0.73716493    -5.711111    1287.5057  0.033686702  0.033075018           14 
 3186000   0.74126633   -5.6907215    1287.4511    0.0336747  0.033066485            9 
 3187000   0.73156057    -5.719051     1290.411  0.033741529  0.033058001           19 
 3188000   0.75513634   -5.6932538    1286.8859    0.0336388  0.033049501            8 
 3189000   0.75796025   -5.6800361    1287.4096  0.033641935  0.033040999            9 
 3190000   0.74064748   -5.6864507    1285.3463   0.03357749  0.033032536            4 
 3191000   0.75406086   -5.7216409    1286.9972  0.033610081   0.03302407            8 
 3192000   0.75337811   -5.6750029    1287.0576  0.033601128  0.033015599            6 
 3193000   0.74371386   -5.6778459    1288.7231  0.033634072   0.03300718            7 
 3194000   0.73785654   -5.6862621    1289.6241   0.03364705   0.03299877            7 
 3195000   0.73919401     -5.69013    1290.7657  0.033666292  0.032990342            5 
 3196000   0.73613196   -5.6985488    1289.8554  0.033632024  0.032981929            9 
 3197000   0.73028577   -5.7043977    1290.7045  0.033643637  0.032973509           10 
 3198000   0.74608449   -5.7235669    1286.1697   0.03351495  0.032964998            7 
 3199000   0.74740681   -5.6875737     1290.769  0.033624283  0.032956561           11 
 3200000   0.75019931   -5.7268679    1289.1256   0.03357098  0.032948164           10 
 3201000   0.73618979   -5.7009014    1290.3839  0.033593248   0.03293975            9 
 3202000   0.75426968   -5.7003944    1288.9299  0.033544918  0.032931303           15 
 3203000   0.74602659   -5.7158826    1293.4117  0.033651049  0.032922897           11 
 3204000   0.74131088   -5.7039083    1290.7448  0.033571181  0.032914552            5 
 3205000   0.74279233   -5.7264082    1287.5127   0.03347667  0.032906162           17 
 3206000   0.72000654   -5.7078622    1291.9278  0.033580989  0.032897779            8 
 3207000   0.75032125   -5.7059007    1288.5406  0.033482502  0.032889355            8 
 3208000   0.73587434   -5.7008769    1286.1462  0.033409867  0.032880923           11 
 3209000   0.73448333   -5.7020092    1290.8022  0.033520364   0.03287252            8 
 3210000   0.73082149   -5.7049854    1286.1647   0.03338953  0.032864126            6 
 3211000   0.73241875   -5.7053006    1288.3746  0.033436483   0.03285571            8 
 3212000   0.74137943   -5.6952138     1289.975  0.033467595  0.032847283            8 
 3213000   0.72792753    -5.684134     1292.406   0.03352023  0.032838835            7 
 3214000    0.7386235   -5.6899997     1290.389  0.033457503  0.032830418            4 
 3215000   0.72892445   -5.7179564    1286.6974  0.033351409   0.03282193            7 
 3216000   0.71929556   -5.7042779    1288.2998  0.033382561  0.032813444           16 
 3217000   0.72891787   -5.6819339    1290.9871  0.033441797  0.032804938           16 
 3218000   0.74422779   -5.6908979    1290.0888  0.033408141  0.032796426            7 
 3219000   0.73016197   -5.6945292    1292.8798  0.033470016  0.032787956            8 
 3220000   0.73177627   -5.6930128     1289.243  0.033365501  0.032779513            7 
 3221000   0.72636663   -5.6660135    1290.4151  0.033385469  0.032771064            4 
 3222000   0.72733867   -5.7027167    1286.5795  0.033275903  0.032762614            6 
 3223000   0.73695317   -5.6991295    1289.1829  0.033332891  0.032754107            6 
 3224000   0.72907329   -5.6816208    1292.8278  0.033416765  0.032745623            7 
 3225000   0.73858294    -5.698791    1290.9702  0.033358403    0.0327371           12 
 3226000    0.7377981   -5.6910626    1290.1295  0.033326345  0.032728633            9 
 3227000   0.70602356   -5.7214928    1289.3192  0.033295092  0.032720136            9 
 3228000   0.73600953   -5.7067777    1289.6211  0.033292572  0.032711631            9 
 3229000   0.71532224   -5.7244014    1288.8632  0.033262703  0.032703074           17 
 3230000   0.74480867   -5.7103882    1288.5057  0.033243182  0.032694525            4 
 3231000   0.74896133   -5.6850121    1292.1606  0.033327159  0.032686014            8 
 3232000   0.73460801   -5.6888811    1293.0037  0.033338585  0.032677536            9 
 3233000   0.74770635   -5.6881052    1292.4956  0.033315177  0.032669062           12 
 3234000   0.72489977   -5.6870465    1289.0856  0.033217007  0.032660577            9 
 3235000   0.71410829    -5.703598    1289.6607  0.033221553  0.032652027           15 
 3236000   0.74040998   -5.7088502     1285.871  0.033113694  0.032643491           10 
 3237000   0.73047415   -5.7109718    1288.2245  0.033164055  0.032634931           11 
 3238000   0.72738121   -5.7050337    1291.2953  0.033232841  0.032626389            6 
 3239000   0.72137361   -5.7240051    1289.8991  0.033186661  0.032617822            6 
 3240000   0.73559778    -5.702386     1290.389  0.033189018  0.032609255            8 
 3241000   0.73800465   -5.7112001    1289.1607  0.033147194  0.032600708            5 
 3242000   0.73050178   -5.7220728    1287.5986  0.033096818  0.032592137           10 
 3243000   0.73615981   -5.7074041    1291.4602  0.033185841  0.032583559           10 
 3244000   0.74341485   -5.7086979      1291.39  0.033173809  0.032575014           13 
 3245000   0.73508764   -5.7027094    1288.1652  0.033080769  0.032566509           28 
 3246000   0.73103004   -5.7210896    1289.0562  0.033093454  0.032557993            8 
 3247000   0.71734975   -5.7029669    1295.0797  0.033237852   0.03254948           10 
 3248000   0.72303101   -5.7361262    1291.1854  0.033127705  0.032540998            7 
 3249000   0.72014442   -5.7003082    1289.0481  0.033062689  0.032532505            7 
 3250000   0.73044482    -5.711548    1292.4354  0.033139369  0.032524027           13 
 3251000    0.7393126    -5.715995    1289.8753  0.033063552  0.032515543            8 
 3252000   0.73118169   -5.7287743    1293.0229  0.033134043  0.032506973           10 
 3253000   0.74478061   -5.7051295    1289.7533  0.033040098  0.032498428           14 
 3254000   0.71128605   -5.6942863    1293.8898  0.033135878  0.032489971            5 
 3255000   0.72233631    -5.706977    1292.6994  0.033095222  0.032481542            7 
 3256000   0.71508208   -5.6921447    1294.2113  0.033123753  0.032473106           10 
 3257000   0.72387766   -5.7416497    1289.9728  0.033005138  0.032464581           21 
 3258000   0.72107426   -5.6981041    1290.9109  0.033019001  0.032456067            9 
 3259000   0.73974281   -5.7206118    1290.6238  0.033001529  0.032447586           13 
 3260000   0.72757152   -5.6886753    1294.0356  0.033078619  0.032439136           10 
 3261000   0.71412429   -5.7304319    1288.8185  0.032935156  0.032430644            9 
 3262000   0.72558795   -5.7609321    1288.8517  0.032925908  0.032422086            8 
 3263000    0.7382769   -5.7283363    1291.3711   0.03298016  0.032413549            5 
 3264000   0.72771906   -5.7238603    1293.8769  0.033034031  0.032404999            9 
 3265000   0.73499415   -5.7167009    1295.7005  0.033070457  0.032396514            6 
 3266000    0.7367543   -5.7129402    1289.4076  0.032899766  0.032388042            5 
 3267000   0.73042792   -5.6987814     1295.828  0.033053464  0.032379589           10 
 3268000    0.7389106    -5.720963    1293.4169  0.032981868  0.032371128           17 
 3269000   0.72456142   -5.7150761    1294.3244  0.032994912  0.032362671            6 
 3270000   0.72537424    -5.708534    1289.5219  0.032862435  0.032354195           15 
 3271000   0.72620128   -5.7275134    1293.3806  0.032950694  0.032345711            7 
 3272000   0.72553446   -5.7372594    1289.4518  0.032840562  0.032337197           10 
 3273000   0.73369144   -5.7392712    1289.9843  0.032844085  0.032328623            8 
 3274000   0.73099663   -5.7361469    1294.1693  0.032940576  0.032320155            7 
 3275000   0.71755777   -5.7164732    1294.2048  0.032931419  0.032311652            7 
 3276000   0.72939995   -5.7274957    1291.8625  0.032861786  0.032303182            5 
 3277000   0.74699056   -5.7362118    1294.7967  0.032926373  0.032294694            8 
 3278000   0.73709662   -5.7184269    1294.0623  0.032897659  0.032286255            7 
 3279000   0.71823802   -5.7123498    1295.7501  0.032930521  0.032277758           12 
 3280000   0.73715453   -5.7290072    1294.1207  0.032879083  0.032269203            9 
 3281000   0.74452366   -5.7273203    1292.8112  0.032835801  0.032260705            7 
 3282000   0.72134286   -5.7505609    1289.7689  0.032748549   0.03225217           12 
 3283000   0.71634045   -5.7487818    1289.6977  0.032736768  0.032243626           10 
 3284000   0.73543307   -5.7452142    1290.3079  0.032742282   0.03223506           10 
 3285000   0.74233357     -5.75703    1288.9117  0.032696897  0.032226517            7 
 3286000   0.72358161   -5.7295412    1292.1872  0.032770015   0.03221798            8 
 3287000   0.73821846   -5.7402669    1291.0909  0.032732251  0.032209395            7 
 3288000   0.71641833   -5.7238809    1293.8887  0.032793206  0.032200843            8 
 3289000   0.72737692   -5.7340914    1293.7773  0.032780413  0.032192336            6 
 3290000   0.72989868     -5.73919    1293.2223   0.03275639  0.032183832            6 
 3291000    0.7293184   -5.7537657    1289.3513  0.032648417  0.032175281           25 
 3292000   0.72439081   -5.7135112     1295.176  0.032785946  0.032166735           10 
 3293000   0.71430013   -5.7326493    1292.0312  0.032696406  0.032158229           14 
 3294000   0.71863928   -5.7403144    1290.7543  0.032654177   0.03214973           11 
 3295000   0.73011906   -5.7074235    1292.2519  0.032682142  0.032141169            8 
 3296000   0.73190693   -5.6957481    1296.6347  0.032783039  0.032132656            9 
 3297000   0.74369743   -5.7021063    1293.3761  0.032690731  0.032124177            7 
 3298000   0.72401359   -5.7194207    1294.6887  0.032713985  0.032115749            4 
 3299000   0.73427297   -5.7157758    1296.1491   0.03274096  0.032107272           11 
 3300000   0.72683875   -5.7138465    1291.2505  0.032607336  0.032098746            8 
 3301000   0.71801613   -5.7490689    1290.5657   0.03258017  0.032090162           10 
 3302000   0.71351049   -5.7017391    1295.9551  0.032706317  0.032081646            6 
 3303000   0.71646954   -5.7208902    1297.2377  0.032728774  0.032073119            8 
 3304000   0.70662962   -5.7304314    1293.8905  0.032634446  0.032064598           13 
 3305000   0.72828111   -5.7084917    1293.2774  0.032609112  0.032056107           10 
 3306000   0.71006564   -5.7564678    1292.2229  0.032572668  0.032047569            7 
 3307000    0.7230946   -5.7500874    1292.2261  0.032562898  0.032039048           21 
 3308000   0.71763432   -5.7198145    1296.2382  0.032654125  0.032030564            9 
 3309000     0.713876   -5.7219925    1295.9345  0.032636609  0.032022113            7 
 3310000   0.72727517   -5.7370964    1294.7344  0.032596537  0.032013632            8 
 3311000   0.71764879   -5.7336684    1294.8177  0.032588788  0.032005161           19 
 3312000   0.71611074   -5.7320736    1294.0913  0.032560672  0.031996748            6 
 3313000   0.72335923   -5.7444479    1292.8371  0.032519294  0.031988303           12 
 3314000   0.70982049    -5.752777     1293.465  0.032525271  0.031979902            7 
 3315000   0.71316283   -5.7879064    1289.4256  0.032413917  0.031971391            8 
 3316000   0.71770277   -5.7555117     1291.532  0.032457077  0.031962867            5 
 3317000   0.73335182   -5.7329448     1296.586  0.032574264  0.031954388           14 
 3318000   0.71867059   -5.7245905    1296.2109  0.032555026  0.031945939           10 
 3319000   0.72145133   -5.7203261    1295.8249  0.032535526  0.031937506           14 
 3320000    0.7078461   -5.7286988    1297.5743  0.032569635  0.031929059            8 
 3321000   0.71162465   -5.7469343    1294.4327  0.032480998   0.03192057           13 
 3322000   0.71411727   -5.7299488    1294.8994  0.032482927  0.031912107           11 
 3323000   0.71537899   -5.7219754    1294.8636  0.032472254   0.03190366            9 
 3324000   0.71409791   -5.7457757    1294.0129  0.032441157   0.03189523           12 
 3325000   0.73278729    -5.767916    1291.3667   0.03236508   0.03188675            9 
 3326000    0.7195492    -5.723059    1291.4634  0.032357772  0.031878265            8 
 3327000   0.70417533   -5.7332505    1296.0509  0.032462952   0.03186979            7 
 3328000   0.71347738   -5.7447523    1297.0547  0.032478333  0.031861341            5 
 3329000   0.70498505   -5.7463813    1296.1444   0.03244579  0.031852947            8 
 3330000   0.71662442   -5.7319429    1298.8057  0.032502645  0.031844518            9 
 3331000   0.74437001   -5.7602323    1293.1443  0.032351254  0.031836033            9 
 3332000    0.7209022   -5.7378672    1296.4951  0.032425347  0.031827533           11 
 3333000   0.71583207   -5.7401778    1296.6346  0.032419106  0.031819089            3 
 3334000   0.73430916    -5.732525     1295.797  0.032388447  0.031810677            5 
 3335000   0.71750846   -5.7032561    1299.4137  0.032469109  0.031802278           15 
 3336000   0.72426723   -5.7315438    1299.0943  0.032451398  0.031793882            9 
 3337000   0.70160661   -5.7607281    1295.0911  0.032341702  0.031785418           11 
 3338000   0.70754395   -5.7627228    1296.0186  0.032355169  0.031776927           12 
 3339000   0.71809014    -5.739402    1296.9708  0.032369242  0.031768477           14 
 3340000   0.71567261   -5.7682503    1296.0423  0.032336384  0.031760028           16 
 3341000   0.70824785    -5.745775    1297.8698   0.03237229  0.031751557           12 
 3342000   0.71449658   -5.7614441    1295.3171  0.032298951  0.031743021           11 
 3343000   0.71784199   -5.7690913    1296.2824  0.032313351  0.031734509            7 
 3344000   0.71901645   -5.7152102    1301.4176  0.032431658  0.031726072            8 
 3345000   0.70881743   -5.7749233    1295.5172  0.032274968  0.031717697           13 
 3346000   0.71167584   -5.7476687    1300.0267  0.032377634  0.031709322            6 
 3347000   0.71564332   -5.7340725    1300.7849  0.032386837  0.031700952            9 
 3348000   0.72491826   -5.7396761    1298.5567  0.032321702  0.031692593           11 
 3349000   0.70788946   -5.7855077    1299.7221   0.03234105  0.031684196            4 
 3350000   0.71909488   -5.7502863     1300.103   0.03234087  0.031675805            6 
 3351000   0.72709608   -5.7604437    1296.7043  0.032246699  0.031667401           11 
 3352000   0.70759276   -5.7355867    1297.7539  0.032263173   0.03165897            7 
 3353000   0.71513182   -5.7619901    1300.0273  0.032310054  0.031650593           11 
 3354000   0.72986645   -5.7444763    1300.1546  0.032303582  0.031642245            9 
 3355000   0.69522438   -5.7591897     1298.133  0.032243741  0.031633906            4 
 3356000   0.71710795    -5.763259    1299.0484  0.032256864  0.031625578           16 
 3357000   0.71981997   -5.7722601     1297.761  0.032215297  0.031617239            6 
 3358000   0.70969445    -5.728327     1299.192  0.032241215  0.031608873            9 
 3359000    0.7219171   -5.7394572    1297.5929  0.032191943  0.031600506            4 
 3360000   0.69942067   -5.7594577    1301.8957   0.03228908  0.031592118            7 
 3361000    0.7288987    -5.769937    1297.5857   0.03217261  0.031583707           17 
 3362000   0.70399661   -5.7633115     1298.691  0.032190438  0.031575334            8 
 3363000   0.70198585   -5.7524101     1300.786  0.032232779  0.031567014            6 
 3364000   0.71516881   -5.7593184    1301.1347  0.032231834  0.031558729            4 
 3365000   0.71094933   -5.7626791    1296.9032  0.032117465  0.031550463            5 
 3366000   0.71948997   -5.7804916    1298.0637  0.032136654  0.031542118            6 
 3367000   0.70192388   -5.7560972    1302.4283  0.032235133  0.031533756           11 
 3368000   0.71207987   -5.7342607    1301.4039  0.032200214  0.031525455            8 
 3369000   0.70125855   -5.7529126    1302.5535  0.032219093  0.031517153            5 
 3370000   0.70692862   -5.7618306    1297.3565  0.032081021  0.031508783           11 
 3371000   0.71311997   -5.7626953    1303.5907  0.032225617  0.031500466            7 
 3372000   0.71868025   -5.7486918    1300.0008  0.032127343  0.031492105           15 
 3373000   0.70682563   -5.7581608    1300.6624  0.032134164  0.031483745           18 
 3374000   0.70721972   -5.7310097    1300.9387  0.032131463  0.031475405           14 
 3375000   0.70889881    -5.773892    1300.3768  0.032108069  0.031467078            5 
 3376000   0.71482173   -5.7807366    1300.6546  0.032105415  0.031458688            7 
 3377000   0.71353962   -5.7606652    1299.8456  0.032075944  0.031450304           17 
 3378000   0.71257937   -5.7500166    1300.7059  0.032087673   0.03144194            8 
 3379000    0.7012274   -5.7290805     1300.965  0.032084567  0.031433653           11 
 3380000   0.71804431   -5.7534008    1299.7684  0.032045571  0.031425365            6 
 3381000   0.70216144   -5.7631882    1303.1087  0.032118424   0.03141704           11 
 3382000   0.72776663   -5.7926279    1301.5699  0.032071011  0.031408673           17 
 3383000   0.72119722   -5.7791966    1303.4963  0.032108984  0.031400362            7 
 3384000   0.71742454   -5.8028217    1296.3801  0.031924253  0.031391993           26 
 3385000    0.7033864   -5.7771521    1301.6063  0.032043483  0.031383633            9 
 3386000   0.72181385   -5.7509975    1302.5598  0.032057487  0.031375306            8 
 3387000   0.70460807   -5.7755048    1300.2943  0.031992283  0.031366999            7 
 3388000   0.70221647    -5.760996    1302.3127  0.032032484  0.031358655           14 
 3389000   0.72629976   -5.7520328    1301.5937  0.032005354  0.031350367            5 
 3390000   0.71175705   -5.7668991     1299.453  0.031943289    0.0313421            7 
 3391000   0.72025635     -5.76975    1302.9529  0.032019879  0.031333828            7 
 3392000     0.711286   -5.7660525    1303.7041  0.032028893  0.031325509           22 
 3393000   0.70653473   -5.8105491    1300.2277  0.031934072  0.031317206           10 
 3394000   0.71175098   -5.7788449    1299.3219  0.031902424  0.031308848            9 
 3395000   0.73203023   -5.7392184    1305.0537  0.032033718  0.031300583           16 
 3396000   0.69090309   -5.7522541    1304.6824  0.032015174  0.031292308           17 
 3397000   0.71861073   -5.7681777    1302.3523   0.03194859  0.031284022            6 
 3398000   0.71213048    -5.761637    1301.3998  0.031915829  0.031275673           21 
 3399000   0.71679006    -5.799435    1303.4252  0.031956095  0.031267379            9 
 3400000   0.71632561    -5.772957    1300.6067  0.031877614  0.031259053           19 
 3401000   0.72927569   -5.7608409    1304.3084  0.031958943  0.031250726           12 
 3402000   0.70829896   -5.7477565    1301.4952   0.03188064  0.031242416            8 
 3403000    0.7111562   -5.7731421    1301.3694  0.031868191  0.031234085            4 
 3404000    0.7103185   -5.7596066    1303.0743  0.031900565  0.031225778           11 
 3405000   0.68792724   -5.7588342    1303.9786  0.031913327  0.031217538            8 
 3406000   0.72288622   -5.7627526    1303.0724  0.031881786  0.031209311           14 
 3407000   0.70583343   -5.7750722    1302.1548  0.031849986     0.031201           26 
 3408000   0.70289338   -5.7868278    1301.6633  0.031828621   0.03119267           11 
 3409000   0.71160782    -5.816924    1303.7301  0.031869808  0.031184283            7 
 3410000   0.70194513   -5.7789034     1300.049  0.031770503  0.031175906           11 
 3411000   0.70388625   -5.7684878    1302.7495  0.031827166  0.031167518           12 
 3412000   0.70226009   -5.7616555    1303.9032  0.031846015  0.031159157           11 
 3413000   0.70677937   -5.7876634    1298.7371  0.031710545  0.031150777           17 
 3414000   0.71318195   -5.7725169    1301.5377  0.031769618  0.031142359            9 
 3415000   0.69718567    -5.776558    1301.9358  0.031770028  0.031134037           16 
 3416000   0.71764415   -5.7840219    1301.2411  0.031743783  0.031125649           17 
 3417000   0.68897436   -5.7481374    1302.6977  0.031770015  0.031117301            5 
 3418000   0.71534105   -5.7815018     1301.074  0.031721134  0.031108939            9 
 3419000   0.69185697   -5.7480291    1303.6046  0.031773535  0.031100572            7 
 3420000    0.7003661    -5.785127    1303.5405  0.031762683  0.031092224           11 
 3421000   0.70830618   -5.7603719    1301.6638  0.031707682  0.031083883            7 
 3422000   0.70460188   -5.7757586    1302.1905  0.031711244  0.031075581           10 
 3423000   0.71169176   -5.7835591    1301.2054  0.031677997  0.031067249           30 
 3424000   0.69990412    -5.759822    1301.6177  0.031678779  0.031058917           12 
 3425000   0.71693293   -5.7737711    1304.2335  0.031733174  0.031050611            6 
 3426000   0.70293455   -5.7789807    1303.5119  0.031706361  0.031042362            9 
 3427000   0.70301545   -5.7519838    1306.2845   0.03176453  0.031034121            7 
 3428000   0.69886827   -5.7906941    1306.2125  0.031753512  0.031025819            9 
 3429000   0.70717141   -5.7621401    1304.3692  0.031699457  0.031017538            4 
 3430000   0.71103185   -5.7569779    1302.3909  0.031642149  0.031009273            7 
 3431000   0.70936475   -5.7776687    1303.1155  0.031650528  0.031000984           10 
 3432000   0.69428896   -5.7776287    1300.4281  0.031576052  0.030992639           14 
 3433000   0.70383298   -5.7805626    1303.2057  0.031634278  0.030984238            6 
 3434000   0.71072009   -5.7976419    1303.0874  0.031622195  0.030975851            7 
 3435000   0.69419124   -5.7583844    1303.5197  0.031623477  0.030967523           14 
 3436000   0.70010391   -5.7890714    1302.5712  0.031591269  0.030959228            5 
 3437000   0.70705099   -5.7877932    1301.8704  0.031565087  0.030950855           26 
 3438000   0.70779346   -5.7736511    1300.8042  0.031530061  0.030942494            5 
 3439000   0.69874423   -5.7750348    1303.4517  0.031585047  0.030934165           10 
 3440000   0.70496535   -5.7746803    1305.6043  0.031628012  0.030925852           11 
 3441000   0.69256408   -5.7915435    1305.9384  0.031626911  0.030917549            9 
 3442000   0.72435065   -5.7643242    1302.2145  0.031527563  0.030909251           11 
 3443000    0.6883482   -5.7463529    1304.7122   0.03157886  0.030900975            6 
 3444000   0.70515429   -5.7729612    1301.2015  0.031484744  0.030892671           14 
 3445000     0.712154   -5.7964908    1305.7898  0.031586594  0.030884356            6 
 3446000   0.71181557    -5.768876    1303.5281  0.031522733  0.030876133            6 
 3447000   0.70620766   -5.7751568    1305.3022  0.031556479  0.030867898            9 
 3448000   0.70609223   -5.8239272    1306.4422  0.031574879  0.030859661           17 
 3449000   0.69306258   -5.8272677     1303.887  0.031503988  0.030851339            9 
 3450000   0.68446347   -5.7670778    1303.9834  0.031497183  0.030843085           10 
 3451000   0.69231263   -5.7778239    1304.8761  0.031509614  0.030834848            5 
 3452000   0.71038849   -5.7734333    1305.9919  0.031527421  0.030826597           18 
 3453000   0.70716714   -5.7909715    1303.8925  0.031467624  0.030818372           18 
 3454000   0.71699296   -5.7705166     1305.724  0.031502703  0.030810115           13 
 3455000   0.71921935   -5.8104125    1303.0958  0.031430192  0.030801848           32 
 3456000   0.69632108   -5.8147002     1301.523  0.031383175  0.030793516           11 
 3457000   0.69978257   -5.7921952    1304.3414  0.031442034  0.030785137            8 
 3458000   0.69025402   -5.8300643    1300.0169  0.031328729  0.030776731           12 
 3459000   0.70272546   -5.7802341    1304.0805   0.03141757   0.03076837            9 
 3460000   0.70590256   -5.8046727    1305.9615  0.031453794      0.03076           19 
 3461000   0.68686612   -5.7953597    1302.3892  0.031358692  0.030751687           20 
 3462000   0.68751479     -5.79094    1304.6097  0.031403083  0.030743369           20 
 3463000   0.69974573   -5.7674507    1307.5809  0.031465514  0.030735081            7 
 3464000    0.6868121   -5.8019955    1304.4372  0.031380803  0.030726794           13 
 3465000   0.69393136   -5.7917911      1303.39   0.03134656   0.03071846           17 
 3466000   0.68639238   -5.7660205    1305.5815  0.031390208  0.030710173            9 
 3467000    0.6888999   -5.8027123     1306.392  0.031400634  0.030701862            8 
 3468000   0.70018286   -5.7993263    1307.4505  0.031417016  0.030693577           11 
 3469000   0.70569254   -5.7863307    1306.6281  0.031388204  0.030685327            9 
 3470000   0.70665788   -5.8031598    1308.4639  0.031423244  0.030677067           11 
 3471000    0.6875713   -5.7969869     1302.299  0.031266182  0.030668805           12 
 3472000   0.69163954   -5.7932312    1304.5657   0.03131158  0.030660515           13 
 3473000   0.67669779   -5.7741655    1307.9672  0.031384183  0.030652264           14 
 3474000   0.70150367   -5.7946122    1309.2666  0.031406318  0.030644029            6 
 3475000   0.68296869   -5.7959421    1308.4984  0.031378859  0.030635796           11 
 3476000   0.70603785    -5.817225     1305.255  0.031292074  0.030627539            8 
 3477000   0.69458796   -5.7848364     1305.649  0.031292516  0.030619229           11 
 3478000   0.70921727   -5.7973044    1306.4479  0.031302661  0.030610982            8 
 3479000   0.70635536   -5.7872611    1303.7631  0.031229355  0.030602696           10 
 3480000   0.70372496   -5.8006075    1304.7559  0.031244154  0.030594456           11 
 3481000   0.68496281   -5.8024191    1304.1055  0.031219609  0.030586129           12 
 3482000   0.69942966   -5.7910538    1305.4495  0.031242808  0.030577866            5 
 3483000   0.69303694   -5.7974158    1307.4493  0.031281686  0.030569591           12 
 3484000   0.70794665   -5.7832769    1306.8863  0.031259239  0.030561384           16 
 3485000   0.70951763   -5.8032447    1304.5325  0.031193987   0.03055315           18 
 3486000   0.69746741   -5.7932309     1307.213  0.031249115  0.030544891           11 
 3487000   0.69601205    -5.830526    1306.1403  0.031214517  0.030536654           11 
 3488000   0.69714693   -5.7733581    1309.1625  0.031277773  0.030528427            6 
 3489000   0.70975552   -5.8143081     1309.046  0.031266026  0.030520205            8 
 3490000   0.70108646   -5.8209045     1309.176  0.031260171  0.030511988           10 
 3491000   0.69211549   -5.8019056    1309.0679  0.031248638  0.030503777           11 
 3492000   0.68335756   -5.8152288    1304.2604  0.031124962   0.03049559           24 
 3493000   0.70110303    -5.801809    1307.8174   0.03120091  0.030487414           16 
 3494000   0.68714068   -5.7522535    1312.4554    0.0313026  0.030479259            7 
 3495000   0.68712815   -5.7717102    1309.2159  0.031216401   0.03047113            8 
 3496000   0.68256948   -5.7901635    1309.1169  0.031205113  0.030462982           18 
 3497000   0.69520104   -5.8101228    1305.2671   0.03110445  0.030454828           14 
 3498000   0.69798171   -5.8138061    1305.8082  0.031108448  0.030446685           11 
 3499000   0.68214898   -5.8010994    1307.6033   0.03114231  0.030438556           16 
 3500000   0.68755873   -5.7915185    1308.7245  0.031160108  0.030430381            8 
 3501000   0.70356349   -5.8083744    1307.1351  0.031113375  0.030422173           22 
 3502000    0.6960869   -5.8146155    1309.3163  0.031156393  0.030413941           21 
 3503000    0.6792531   -5.8048787    1306.5523  0.031081747  0.030405723           14 
 3504000   0.69337147   -5.8217804     1305.622  0.031050753  0.030397526            7 
 3505000    0.6940343   -5.7850351    1310.8545  0.031166298  0.030389339           11 
 3506000   0.69170619   -5.7958982    1306.9414  0.031064398  0.030381157            3 
 3507000   0.70902781   -5.7945015    1305.7723  0.031027762  0.030372996           15 
 3508000   0.69275805   -5.8463734    1306.3809  0.031033374  0.030364791            5 
 3509000   0.69101856   -5.8003517    1308.4571  0.031073836  0.030356584            9 
 3510000   0.68588558   -5.8227711    1309.6333  0.031092909  0.030348458            7 
 3511000   0.67792838   -5.7791422    1310.8397  0.031112686  0.030340322           12 
 3512000   0.68562754   -5.8030864    1309.1807  0.031064462  0.030332183           10 
 3513000   0.67517689   -5.8047569    1305.3968   0.03096586  0.030324004           11 
 3514000    0.6989399   -5.8177838    1313.9463  0.031159796  0.030315809           23 
 3515000   0.69197119   -5.8135726    1309.9966  0.031057293  0.030307648           22 
 3516000   0.68626804   -5.8054458    1312.1447  0.031099373  0.030299469           10 
 3517000   0.69795905   -5.8106444    1306.7985  0.030963853  0.030291278            7 
 3518000    0.6837406   -5.7905472    1311.8028  0.031073593  0.030283066           21 
 3519000   0.68077831    -5.823074    1309.9255  0.031020307  0.030274892           18 
 3520000   0.68707696   -5.8454941    1306.3074  0.030925837  0.030266674           10 
 3521000   0.69168297   -5.8149403    1309.8274  0.031000364  0.030258487           11 
 3522000   0.70954198   -5.8093479    1308.1176  0.030951108  0.030250264            9 
 3523000   0.68051037   -5.8286923    1308.9782  0.030962679  0.030242054           19 
 3524000   0.69312725   -5.8152219    1306.7691  0.030901652   0.03023379           10 
 3525000   0.68379373   -5.8224635    1307.8878  0.030919332  0.030225563            7 
 3526000    0.6848683   -5.8282958    1306.1923  0.030870492  0.030217312           10 
 3527000   0.68286231   -5.8403353    1307.0769   0.03088264  0.030209033           23 
 3528000   0.68829152   -5.8267333     1306.464   0.03085941  0.030200804            6 
 3529000   0.69134005   -5.8363935    1305.4309   0.03082627  0.030192562           13 
 3530000   0.69009001   -5.8053793    1307.6409   0.03086971  0.030184294            9 
 3531000   0.69957252   -5.8163718    1307.8354  0.030865557  0.030176063           17 
 3532000   0.67176037   -5.8165356    1308.4861  0.030872171  0.030167856           16 
 3533000   0.68131933   -5.8225895    1306.2346  0.030810327  0.030159615           12 
 3534000   0.69857052   -5.8306376    1305.6455  0.030787716  0.030151344            7 
 3535000   0.68665196   -5.8074893    1306.8526  0.030807465  0.030143117           10 
 3536000   0.69487988   -5.8026663    1310.5448  0.030885766  0.030134912           18 
 3537000   0.67730917   -5.8389411    1308.5078   0.03082904  0.030126685            6 
 3538000   0.69768319   -5.8072295    1309.1588   0.03083566  0.030118533           11 
 3539000   0.67789756   -5.8297579    1306.5377  0.030765228  0.030110338           12 
 3540000   0.68640307    -5.836571    1309.1891  0.030818953  0.030102147           24 
 3541000   0.67953689   -5.8247492    1311.6392   0.03086791  0.030093966           11 
 3542000   0.67042573   -5.7900798    1314.1199  0.030917559  0.030085846           11 
 3543000   0.68357138    -5.822183    1307.3026  0.030748486  0.030077698           11 
 3544000   0.67971799   -5.8332755     1310.598  0.030817297  0.030069562            6 
 3545000   0.67837084   -5.8256644    1306.8672  0.030720904  0.030061394           12 
 3546000   0.68013026   -5.8393062    1308.2954  0.030745803  0.030053166            6 
 3547000   0.69876631   -5.8274387    1308.5053  0.030742066  0.030044951            8 
 3548000   0.68967524   -5.8217826    1315.1262  0.030888908  0.030036792           37 
 3549000   0.67658071   -5.8020343      1310.44  0.030770171  0.030028653           17 
 3550000   0.69496908   -5.8129421     1309.466  0.030738639  0.030020474           11 
 3551000   0.68452055   -5.8181595      1312.54  0.030802123   0.03001228            7 
 3552000   0.68596396   -5.8139065    1307.8124  0.030682535  0.030004093           16 
 3553000   0.68571651   -5.8153565    1308.6518  0.030693586  0.029995867           16 
 3554000   0.68154516   -5.8300296    1305.5328  0.030611818  0.029987642            8 
 3555000   0.68358809   -5.8294247    1309.1484   0.03068796  0.029979443           16 
 3556000    0.6646421    -5.831925    1311.7182  0.030739552   0.02997124            4 
 3557000   0.68107061   -5.8107054    1309.0885  0.030669302  0.029963064            6 
 3558000   0.66413956   -5.8379326    1309.0317  0.030659353  0.029954843            8 
 3559000   0.67247029   -5.8158358    1306.6634  0.030595283  0.029946636            8 
 3560000   0.68063902   -5.8440309    1308.4486  0.030628479  0.029938482           14 
 3561000   0.67285303    -5.830881    1311.2036  0.030684349   0.02993035           12 
 3562000   0.68441149   -5.8141912    1311.7183  0.030687777  0.029922227           10 
 3563000   0.68246056   -5.8434251    1307.5329  0.030581272  0.029914049           17 
 3564000   0.67000929   -5.8235322    1310.2624  0.030636512  0.029905836           10 
 3565000   0.68511681   -5.8542501    1312.3757  0.030677319   0.02989766           12 
 3566000   0.68594701   -5.8307622    1310.0071  0.030613365  0.029889476            8 
 3567000   0.68197676   -5.8160005    1310.9184  0.030626072  0.029881322            6 
 3568000   0.68996361   -5.8272537    1310.3308  0.030603765  0.029873142           17 
 3569000   0.68340902   -5.8476938    1306.9613  0.030516514  0.029864988           26 
 3570000   0.67673544   -5.8592912    1306.0317  0.030486268  0.029856765           26 
 3571000    0.6727496   -5.8399128    1309.6585  0.030562365  0.029848561           11 
 3572000   0.69167134   -5.8353824    1311.3224  0.030592628  0.029840384            6 
 3573000     0.673172    -5.833821    1310.5419  0.030565863  0.029832246            9 
 3574000   0.67603867   -5.8500214     1308.534  0.030510493   0.02982411           13 
 3575000   0.65499095   -5.8449245    1307.4807  0.030477406  0.029815939           13 
 3576000   0.66369698   -5.8387758    1309.1693  0.030508234  0.029807786           14 
 3577000   0.66964927   -5.8428099    1311.7905  0.030560769  0.029799643           18 
 3578000   0.67667437   -5.8478949    1305.8143  0.030413041  0.029791479           20 
 3579000   0.69445736   -5.8271328    1311.9603  0.030547646  0.029783302           19 
 3580000   0.68771198   -5.8440287    1309.3481  0.030478308  0.029775152           16 
 3581000   0.68061074   -5.8412106    1306.3594  0.030400246  0.029766977            9 
 3582000   0.68892218     -5.85805    1309.4909  0.030464611  0.029758807           11 
 3583000   0.67957208   -5.8431268      1309.35  0.030452834  0.029750638           13 
 3584000   0.66252121   -5.8387616    1310.1292  0.030462453  0.029742463            8 
 3585000   0.68581066   -5.8469236    1312.2575  0.030503428  0.029734323           13 
 3586000   0.68720573   -5.8670389    1308.0107  0.030396233  0.029726165           11 
 3587000    0.6750657   -5.8541624    1309.1847  0.030415034   0.02971805           10 
 3588000   0.67079998   -5.8241975    1309.6165  0.030416584  0.029709924            8 
 3589000   0.68698273    -5.865251    1308.2765  0.030376996  0.029701806            9 
 3590000   0.67277698   -5.8621763    1307.1741  0.030342945  0.029693649           22 
 3591000   0.67723116   -5.8645151    1308.9562  0.030375851  0.029685498           32 
 3592000   0.69596334   -5.8123804     1311.052  0.030416018  0.029677382           10 
 3593000   0.65486052    -5.827431    1312.5073  0.030441305  0.029669251            7 
 3594000   0.67340968   -5.8469415    1310.8901  0.030395338  0.029661097           24 
 3595000   0.67222825   -5.8403532    1310.4476  0.030376626  0.029652897           10 
 3596000   0.67372759   -5.8410642    1313.2925  0.030434104   0.02964471           14 
 3597000   0.67398236    -5.825638     1307.384  0.030288758  0.029636508            8 
 3598000   0.66669942    -5.840875    1308.9097  0.030315677  0.029628358            8 
 3599000   0.67227429   -5.8317009    1311.3277  0.030363242  0.029620205           19 
 3600000   0.67558627    -5.828795    1310.1516  0.030327584  0.029612093           14 
 3601000   0.65496587    -5.816238     1311.632  0.030353421  0.029603981            8 
 3602000   0.67033627   -5.8346329    1309.3964  0.030293273  0.029595895            6 
 3603000   0.66488787   -5.8607881    1305.4802  0.030194286  0.029587723           12 
 3604000   0.68216886   -5.8552061    1313.9491   0.03038173  0.029579564            5 
 3605000   0.67946533   -5.8498633     1308.774  0.030253676  0.029571373           12 
 3606000   0.66611682   -5.8601982    1307.2167  0.030209297  0.029563164           14 
 3607000   0.67020968   -5.8688476    1306.0833  0.030174736  0.029554958           10 
 3608000   0.68927964   -5.8500478    1308.3473  0.030218664   0.02954676           27 
 3609000   0.67379871   -5.8664123    1307.1401  0.030182416  0.029538559           17 
 3610000   0.69191633   -5.8682945    1309.6684  0.030232418  0.029530378            9 
 3611000   0.66947332   -5.8647436    1308.4352  0.030195588  0.029522128            9 
 3612000   0.66816374   -5.8650555    1309.5647  0.030213287  0.029513902            6 
 3613000   0.66797854   -5.8593646    1310.1082   0.03021746   0.02950569           12 
 3614000   0.67256639    -5.859454     1307.498  0.030148911  0.029497507           20 
 3615000   0.67130868   -5.8647291    1308.6927  0.030168111  0.029489264            4 
 3616000   0.67568904   -5.8763673    1313.2327  0.030264396   0.02948107            4 
 3617000    0.6841328   -5.8514666    1307.3764  0.030121105    0.0294729            5 
 3618000   0.66236753   -5.8629086    1311.5608  0.030209158  0.029464741           16 
 3619000   0.66454545   -5.8447995    1312.1287  0.030213887  0.029456554            9 
 3620000   0.66553601   -5.8798642    1305.8154  0.030060207   0.02944839            7 
 3621000   0.65691299   -5.8663143    1308.7329  0.030119049  0.029440202           19 
 3622000   0.68002757   -5.8738564    1308.5609  0.030106776  0.029432032           19 
 3623000   0.68679536   -5.8323734    1312.0643  0.030179047  0.029423901           13 
 3624000   0.66837809    -5.901234    1307.7913  0.030072464  0.029415708           10 
 3625000    0.6754289   -5.8590687    1311.1078  0.030140409  0.029407527            9 
 3626000   0.67403785   -5.8524101    1308.3899  0.030069633  0.029399339            8 
 3627000   0.67115232   -5.8591789    1310.8895  0.030118773   0.02939114           13 
 3628000     0.662881   -5.8609814    1313.3151  0.030166187   0.02938298           12 
 3629000   0.67078525   -5.8395562    1311.8496  0.030124221  0.029374838           18 
 3630000   0.65890174   -5.8730568    1307.6451    0.0300194  0.029366719            9 
 3631000    0.6707933   -5.8576735      1311.42   0.03009777  0.029358566           23 
 3632000   0.67666497   -5.8583279    1309.5833   0.03004734  0.029350436           22 
 3633000   0.68113796   -5.8709635    1311.9883  0.030094235  0.029342325           20 
 3634000   0.68203318   -5.8553864    1309.9918  0.030040172  0.029334219            9 
 3635000    0.6651527   -5.8610663    1311.2058   0.03005974  0.029326137            7 
 3636000   0.67620345   -5.8406631    1312.1675  0.030073513  0.029318016           12 
 3637000    0.6819788   -5.8555643     1310.193  0.030020002    0.0293099           20 
 3638000   0.67339166   -5.8528567    1312.0848  0.030055084  0.029301797            6 
 3639000   0.66829605   -5.8640844    1310.9129  0.030019989  0.029293666           10 
 3640000   0.67746911   -5.8835687    1309.9809  0.029990404  0.029285543           20 
 3641000   0.68176831   -5.8472967    1313.5951  0.030064889   0.02927738            7 
 3642000   0.67907826   -5.8783705    1308.4867  0.029939746  0.029269241           13 
 3643000   0.66394437   -5.8693211    1312.3093  0.030018969  0.029261107           12 
 3644000   0.66952598     -5.89297    1311.2467  0.029986432  0.029252972           19 
 3645000   0.65893064   -5.8519785    1315.8935  0.030084443   0.02924487           25 
 3646000   0.66939787   -5.8505486    1310.5757  0.029954647  0.029236802           10 
 3647000   0.67178977   -5.8598895    1313.0411  0.030002767  0.029228713            9 
 3648000   0.66346374   -5.8567416    1312.1249  0.029973613  0.029220642           15 
 3649000   0.67874798   -5.8632567    1311.7275  0.029956323  0.029212575           13 
 3650000   0.67021245   -5.8581447    1310.2181  0.029913656  0.029204464           23 
 3651000    0.6683627   -5.8620291    1311.7961  0.029941479  0.029196365           10 
 3652000   0.65235163   -5.8786479    1311.2491    0.0299208  0.029188256           11 
 3653000   0.67408892   -5.8625513    1312.9316  0.029950991  0.029180193           13 
 3654000    0.6750993   -5.8458395    1312.8532  0.029941006  0.029172196            5 
 3655000   0.66094553   -5.8753993     1313.887  0.029956384  0.029164144           15 
 3656000   0.66879785   -5.8666328      1311.64  0.029896973  0.029156091            9 
 3657000   0.66730815   -5.8596017    1312.6556  0.029911941  0.029148044           11 
 3658000   0.67259507   -5.8656718    1309.9745  0.029842684  0.029139995           14 
 3659000   0.67001195   -5.8596902    1311.1235  0.029860697  0.029131907           27 
 3660000   0.65749365   -5.8393485    1315.0133  0.029941105  0.029123891           21 
 3661000   0.67171928    -5.874564    1313.6016  0.029900793  0.029115852           19 
 3662000   0.66759682   -5.8412658    1314.5914  0.029915151  0.029107824            7 
 3663000   0.65709552   -5.8540541    1315.2456  0.029921866  0.029099808            7 
 3664000   0.66129343   -5.8531478    1316.1033  0.029933209  0.029091808            9 
 3665000   0.68122029   -5.8428791    1312.4838  0.029842741  0.029083776           22 
 3666000   0.66571849     -5.86185    1310.3003  0.029784969  0.029075721           10 
 3667000   0.66135291   -5.8564025    1314.5323  0.029873019  0.029067686            8 
 3668000   0.67767887   -5.8482277    1314.7272  0.029869301  0.029059714            7 
 3669000   0.66792805   -5.8617423     1315.605  0.029881099  0.029051749           11 
 3670000   0.66302507     -5.86494    1316.3703  0.029890335   0.02904378           15 
 3671000   0.66590068   -5.8629531    1313.9833  0.029828006  0.029035788           12 
 3672000   0.66132278   -5.8824686    1314.9508  0.029841839  0.029027802           11 
 3673000   0.67722788   -5.8506543    1318.4569  0.029913261  0.029019814            6 
 3674000   0.66923663   -5.8647894    1314.6146  0.029817968  0.029011897           12 
 3675000   0.66030402    -5.865308    1316.4781  0.029852111  0.029003929           11 
 3676000   0.65083983   -5.8767012    1316.5164  0.029844858  0.028995967           20 
 3677000   0.67086607   -5.8984405    1314.2298   0.02978492  0.028987992           11 
 3678000   0.65274162   -5.8613317    1315.8104  0.029812633  0.028980049           21 
 3679000   0.66285749   -5.8811024    1316.3704  0.029817214   0.02897208           13 
 3680000   0.65247533   -5.8758894    1315.7363  0.029794754  0.028964117            5 
 3681000   0.66418022    -5.905261    1312.7855  0.029719857  0.028956166           13 
 3682000   0.66516994   -5.8736127    1314.0654  0.029740751  0.028948174            9 
 3683000   0.66540786   -5.8550075    1316.2459  0.029782014  0.028940189           11 
 3684000   0.67223603   -5.8773576    1315.7949  0.029763727  0.028932263           14 
 3685000   0.65640756   -5.8769707    1317.1586  0.029786489  0.028924337            9 
 3686000   0.67793219    -5.850566    1319.2336  0.029825321  0.028916443            7 
 3687000   0.66413152   -5.8677427    1318.1881  0.029793601  0.028908536            8 
 3688000   0.65528137   -5.8811978    1315.3932   0.02972237  0.028900601           11 
 3689000   0.65827827    -5.884105    1315.3348  0.029712994  0.028892645           12 
 3690000   0.69052621   -5.8658834    1316.1648  0.029723685  0.028884729           18 
 3691000   0.66856658   -5.8761574    1313.9915  0.029666564  0.028876848           10 
 3692000   0.66715109   -5.8818675      1313.59  0.029649468  0.028868941           12 
 3693000   0.65801158   -5.8769237     1315.096  0.029675421  0.028861037           25 
 3694000   0.66197975   -5.8796431     1314.682  0.029658049  0.028853074            8 
 3695000   0.66399127   -5.8918605    1318.0068  0.029725007  0.028845132           10 
 3696000   0.66284507   -5.8761565    1318.2236  0.029721853   0.02883721            6 
 3697000   0.65827145   -5.9080017    1311.1679  0.029554773  0.028829251           15 
 3698000   0.65834695   -5.8875087    1315.2162  0.029638007  0.028821309            8 
 3699000    0.6628254   -5.8758814    1320.3613  0.029745907  0.028813395           13 
 3700000   0.64671555   -5.8794347     1314.382  0.029603197  0.028805471           13 
 3701000   0.66726804   -5.8852539    1316.8471  0.029650704  0.028797529           15 
 3702000   0.65917675   -5.8796698    1318.1357  0.029671703  0.028789622            6 
 3703000   0.67083246   -5.8724411    1311.6828  0.029518471   0.02878171           20 
 3704000   0.65160253   -5.8682526    1318.8297  0.029671295  0.028773791           15 
 3705000   0.64991847   -5.8841251    1313.5847  0.029545314  0.028765848           20 
 3706000   0.66021981   -5.8936798    1311.5359  0.029491272  0.028757887           17 
 3707000   0.66425018   -5.8780426    1315.3303  0.029568615  0.028749921           21 
 3708000   0.64040298   -5.8721164     1316.121  0.029578413  0.028741999           17 
 3709000   0.67139736   -5.8886784    1315.5343  0.029557254  0.028734062           12 
 3710000   0.65760611   -5.8906726    1313.9465  0.029513622   0.02872614           20 
 3711000   0.66335674   -5.8876111    1313.8775  0.029504121  0.028718163            9 
 3712000   0.64974127   -5.9218536    1313.1878  0.029480688  0.028710178           27 
 3713000   0.64682137   -5.8973968    1315.1414  0.029516594   0.02870225           11 
 3714000   0.65360805   -5.8791722    1315.8672  0.029524933  0.028694328           16 
 3715000   0.65925207   -5.8852612    1316.6772  0.029535155  0.028686415           11 
 3716000   0.65007276   -5.8733212    1315.7455  0.029506312  0.028678505           16 
 3717000   0.66551522   -5.9006863    1318.3195  0.029556082  0.028670534           13 
 3718000   0.65381352   -5.8817032    1313.1174  0.029431536  0.028662593            8 
 3719000   0.66738146   -5.9005465    1316.5954  0.029501554  0.028654649           16 
 3720000   0.67052539   -5.8932214    1315.3294  0.029465265  0.028646706            8 
 3721000    0.6622589   -5.8963131    1313.8836  0.029424967  0.028638721            9 
 3722000   0.64867333   -5.9051701    1314.4203  0.029429077  0.028630768           25 
 3723000   0.65095271   -5.8771083    1317.8678  0.029498338  0.028622786            7 
 3724000   0.65187645   -5.8889334    1317.3161  0.029478073  0.028614879           14 
 3725000   0.65737952   -5.8998362    1312.1726  0.029355092  0.028606918           18 
 3726000   0.64086393   -5.8992553    1314.2977  0.029394741  0.028598926           14 
 3727000   0.65751732   -5.8909033    1313.6266  0.029371849  0.028590993           19 
 3728000   0.66166723   -5.8896914    1313.5481  0.029362216   0.02858302            8 
 3729000   0.65326081   -5.8721544     1315.342  0.029394431  0.028575092           18 
 3730000   0.65000843   -5.8985967    1313.3717  0.029342532  0.028567118           19 
 3731000   0.65286234   -5.8991626    1315.6314  0.029385139  0.028559119           14 
 3732000   0.65795926   -5.8932007    1314.9712  0.029362522  0.028551135           14 
 3733000   0.64782842   -5.8842981    1315.3899  0.029364003  0.028543169           14 
 3734000   0.65571204   -5.9073529    1314.4872  0.029335994  0.028535191           20 
 3735000   0.65281199   -5.8935356    1315.6031  0.029353036  0.028527154           13 
 3736000    0.6473001   -5.9257497     1311.522  0.029254149  0.028519127           14 
 3737000   0.66439859    -5.915961    1312.0032   0.02925705  0.028511064           39 
 3738000   0.64124442   -5.9216775    1310.5615  0.029217084  0.028503015           14 
 3739000   0.66397051   -5.8758342    1316.3804  0.029338959  0.028495028           12 
 3740000    0.6593393   -5.9181501    1312.8048  0.029251444  0.028487031           13 
 3741000   0.65973619    -5.905018    1314.3288  0.029277572  0.028479039           17 
 3742000   0.64631078   -5.8983372    1314.9075  0.029282637  0.028471068           12 
 3743000   0.66231455   -5.9253494     1311.847  0.029206674  0.028463101           48 
 3744000   0.66115148   -5.8897211    1316.8649  0.029310561  0.028455194            9 
 3745000   0.65511252   -5.9122717    1314.6992  0.029254543  0.028447252           10 
 3746000   0.66600402   -5.9076418    1311.4012  0.029173367  0.028439292           14 
 3747000   0.64944688   -5.8815358    1316.8825  0.029287485  0.028431351           28 
 3748000   0.66039338   -5.9052992    1313.7734  0.029210544  0.028423448            9 
 3749000   0.65105716   -5.8817789      1316.07  0.029253801  0.028415559           15 
 3750000   0.65639523   -5.9041989    1313.7919  0.029195375  0.028407668           13 
 3751000   0.63541496   -5.8967505    1317.5278   0.02927059  0.028399765           24 
 3752000   0.65974963   -5.9135098    1315.4482  0.029216601  0.028391856            9 
 3753000   0.64316511   -5.9062471    1315.6738  0.029213825  0.028383959            9 
 3754000   0.64387513   -5.9115809    1312.0627  0.029125882   0.02837601           32 
 3755000   0.64951041   -5.9059672    1316.4188  0.029214798  0.028368021           15 
 3756000   0.64943109   -5.9033642    1312.7137  0.029124817  0.028360067           24 
 3757000   0.65521468   -5.9163573    1317.1979  0.029216526  0.028352099           21 
 3758000   0.65252598   -5.9399333    1313.8652   0.02913485  0.028344116            6 
 3759000   0.65526389   -5.9013069    1315.5269  0.029163937   0.02833615           20 
 3760000   0.66175151   -5.9139468    1316.5841  0.029179611  0.028328219           15 
 3761000   0.63440271    -5.909937    1316.8648  0.029178074  0.028320304            8 
 3762000   0.65159111   -5.8965259    1318.3527  0.029203276  0.028312442           11 
 3763000   0.64418438   -5.8935575    1314.2471  0.029104595  0.028304572            7 
 3764000   0.65556173    -5.895671    1317.2799  0.029164008  0.028296648            5 
 3765000   0.64761134   -5.9361941    1312.9069  0.029059471  0.028288712            7 
 3766000    0.6437217   -5.9337399    1315.4296  0.029107576  0.028280795            9 
 3767000    0.6516794   -5.9222209    1315.3142  0.029097297  0.028272886            8 
 3768000   0.65085966   -5.9162808    1314.5667  0.029073043  0.028264964           24 
 3769000   0.65744006   -5.9246148    1314.8453  0.029071489  0.028257039           10 
 3770000   0.65337514   -5.9550277    1311.3962  0.028987537  0.028249067           11 
 3771000   0.63446982   -5.9313217      1312.03  0.028993856  0.028241083           10 
 3772000   0.64850253   -5.9241111    1314.7121  0.029045424  0.028233142           13 
 3773000   0.64014397   -5.9178673     1317.364  0.029096299  0.028225245           12 
 3774000   0.65575644    -5.939614    1315.0402  0.029037277  0.028217359           12 
 3775000   0.65650956   -5.9191194    1314.2566  0.029012287  0.028209461           18 
 3776000    0.6427189   -5.9448909     1314.171  0.029002715  0.028201539           23 
 3777000   0.65439017   -5.9307227    1312.6615  0.028961731   0.02819358           26 
 3778000   0.64254198    -5.932752    1315.9702  0.029027047  0.028185633           16 
 3779000   0.63711192   -5.9196202    1316.1491   0.02902331  0.028177709           12 
 3780000   0.64909643   -5.9168606    1311.6236  0.028915863  0.028169791           16 
 3781000   0.65005639   -5.9227941    1312.9004  0.028936356  0.028161856           22 
 3782000   0.63759815   -5.9366989      1314.35  0.028960646  0.028153902            9 
 3783000   0.65197071   -5.9206287     1313.204  0.028927747  0.028145953            9 
 3784000   0.63206423   -5.9442872     1313.845  0.028934218  0.028137978           21 
 3785000   0.64652841   -5.9371162    1314.3804  0.028938362  0.028130003            7 
 3786000   0.63839754   -5.9184471    1315.0445  0.028945335  0.028122012           17 
 3787000   0.65778633   -5.9323154    1313.6355  0.028906688   0.02811405           18 
 3788000   0.64052711   -5.9184763    1314.1561  0.028910509  0.028106096           17 
 3789000   0.65991758   -5.9387306    1314.8025  0.028917094  0.028098131            7 
 3790000   0.65628116    -5.905718    1314.4885  0.028902562  0.028090154           26 
 3791000   0.62678391   -5.9231911    1313.5589  0.028874503  0.028082175           15 
 3792000   0.63332213   -5.9252535    1313.6672  0.028869269  0.028074253           12 
 3793000   0.66015107   -5.9181222    1316.9124  0.028932955  0.028066304           11 
 3794000   0.66226544   -5.9413536    1311.7231  0.028811349  0.028058381           11 
 3795000   0.65145857   -5.9099179    1312.2123    0.0288145  0.028050422           16 
 3796000   0.63459481   -5.9429471    1314.7114  0.028861772  0.028042485            6 
 3797000   0.63755767   -5.9151022    1314.6508   0.02885284  0.028034582            8 
 3798000   0.62048085   -5.8940819     1315.503  0.028863941  0.028026681           12 
 3799000   0.65394683   -5.9168217    1312.9637  0.028800643  0.028018779           14 
 3800000   0.64409483   -5.9137081    1314.3583  0.028823648   0.02801087           21 
 3801000   0.64031252   -5.9195852    1317.4275  0.028883353  0.028002941           13 
 3802000   0.64037132   -5.9082627    1316.7747  0.028861448  0.027995066           11 
 3803000    0.6433974   -5.9133925    1313.2391  0.028776385  0.027987156           11 
 3804000   0.65806353   -5.8983159     1317.204  0.028855678   0.02797927           16 
 3805000   0.63851888   -5.9143964    1317.4351  0.028853157  0.027971419           27 
 3806000   0.64623542   -5.9116933    1315.9102  0.028812187  0.027963541            8 
 3807000   0.64009009   -5.9108212    1314.9403  0.028783389  0.027955641           14 
 3808000   0.64545359   -5.9159938    1312.0241  0.028712013  0.027947749           16 
 3809000   0.65357315   -5.9435526     1313.546   0.02873777  0.027939784           44 
 3810000   0.63261764   -5.9135118    1317.4794  0.028816259  0.027931864           21 
 3811000   0.63588883   -5.9309629    1315.1927  0.028758697  0.027923935           14 
 3812000   0.65675099   -5.9621036    1311.6359  0.028673398  0.027916031           29 
 3813000   0.63207901   -5.9482808    1315.3017  0.028745994  0.027908102           19 
 3814000   0.63849849   -5.9190168    1315.3085  0.028738606  0.027900196           49 
 3815000   0.62300076   -5.9241135    1315.5835   0.02873708  0.027892282           23 
 3816000   0.64467135   -5.9340384    1315.0799  0.028718551   0.02788441           30 
 3817000   0.63762884   -5.9100571    1317.2167  0.028757678  0.027876527           14 
 3818000   0.63744714   -5.8963699    1318.3716  0.028775354  0.027868675           20 
 3819000   0.62338863   -5.9155855    1313.4365  0.028660132  0.027860796           25 
 3820000   0.63664726   -5.9138452    1314.1067  0.028667249  0.027852875           10 
 3821000   0.64846481   -5.9485802    1312.7702  0.028630599  0.027844976            9 
 3822000   0.64548272   -5.9266619    1316.0027  0.028693587  0.027837047           17 
 3823000   0.63412532   -5.9461389    1314.3075  0.028649129  0.027829098           11 
 3824000   0.64510812   -5.9129246    1313.5094  0.028624246  0.027821179            4 
 3825000   0.64705829   -5.9334964    1316.1883  0.028675127  0.027813284           16 
 3826000   0.63612583   -5.9501915    1314.6723  0.028634612  0.027805353           22 
 3827000   0.63096146   -5.9521667    1314.4355  0.028621972  0.027797394           36 
 3828000   0.63156938   -5.9397363    1317.1871  0.028674398  0.027789438           15 
 3829000    0.6455537   -5.9325681    1313.6747  0.028590464  0.027781509           44 
 3830000   0.62232846   -5.9444053    1312.4008  0.028555283   0.02777357           15 
 3831000   0.63405746    -5.936722    1315.9614   0.02862528  0.027765629           24 
 3832000   0.64272591   -5.9630151    1314.6801  0.028589947   0.02775772           31 
 3833000   0.63648298   -5.9527811     1313.198  0.028550266  0.027749789           12 
 3834000   0.64353869   -5.9473007    1314.2479  0.028565639  0.027741869           28 
 3835000   0.64656735   -5.9769427    1310.1749  0.028469685   0.02773395           22 
 3836000   0.63940753   -5.9828994    1311.8292    0.0284982   0.02772599           13 
 3837000   0.62781222   -5.9255123     1312.937  0.028514835  0.027718034           22 
 3838000   0.65213482   -5.9607397    1315.4904  0.028562845  0.027710133           10 
 3839000   0.63673503   -5.9588592    1311.9279  0.028478074  0.027702247           16 
 3840000   0.63926107   -5.9496137    1317.5213  0.028592041  0.027694356            8 
 3841000   0.63924174   -5.9463183    1312.0004  0.028464817  0.027686469           19 
 3842000   0.64012529   -5.9483171    1315.6883  0.028537399  0.027678573           17 
 3843000   0.63843451    -5.951345    1316.3598  0.028544536   0.02767067           10 
 3844000   0.63029999   -5.9513755    1315.9684  0.028528624  0.027662737           16 
 3845000   0.64787619   -5.9742115    1312.5836  0.028447846  0.027654785           10 
 3846000   0.63925226   -5.9519627    1312.6657  0.028442228  0.027646836            9 
 3847000   0.64731422   -5.9518154    1313.4776  0.028452421  0.027638913           26 
 3848000   0.62722274   -5.9393334    1315.4318  0.028487348  0.027630998           14 
 3849000   0.64668184   -5.9467945    1314.7672  0.028465558  0.027623067           17 
 3850000   0.63969694   -5.9547471    1311.2975  0.028383062  0.027615162           29 
 3851000    0.6255073   -5.9527167    1313.9231  0.028432509  0.027607278           40 
 3852000    0.6378109    -5.939304    1315.1581  0.028451845  0.027599348           20 
 3853000   0.64035713   -5.9422149    1313.5796  0.028410322  0.027591461           25 
 3854000   0.64726772    -5.953219    1313.3386  0.028397738  0.027583533           26 
 3855000   0.64623366   -5.9755709    1312.3975  0.028370028  0.027575614           21 
 3856000   0.63212886   -5.9502067    1311.1845  0.028336455  0.027567697           30 
 3857000   0.64357616   -5.9460564      1312.73  0.028362501  0.027559779           17 
 3858000   0.62536299   -5.9342131    1314.4954  0.028393283  0.027551841           18 
 3859000   0.63283046   -5.9465544    1314.5883   0.02838793  0.027543941           20 
 3860000   0.64244519   -5.9414158    1314.0232  0.028368376  0.027536023           14 
 3861000    0.6244753   -5.9365581    1316.7323  0.028419501   0.02752816           14 
 3862000   0.64363409   -5.9256948    1315.8675  0.028393481  0.027520304           14 
 3863000   0.64308558    -5.935779    1316.6841  0.028403748  0.027512461           17 
 3864000   0.61800302   -5.9400074    1313.8212  0.028334653  0.027504635           16 
 3865000   0.63471547   -5.9361913    1317.2229  0.028400667  0.027496802           19 
 3866000   0.63128128   -5.9355112    1316.2575   0.02837251  0.027488951           11 
 3867000    0.6261652   -5.9412878    1317.1386   0.02838416  0.027481076           11 
 3868000   0.62626119   -5.9293816    1316.3941  0.028360783  0.027473211           12 
 3869000   0.62434693   -5.9586739    1314.9912  0.028323237  0.027465324           11 
 3870000   0.62988859   -5.9443023    1316.1455  0.028340773  0.027457432           12 
 3871000   0.63325862   -5.9547829    1312.1492  0.028247422  0.027449528           12 
 3872000   0.64451888   -5.9697759     1312.403  0.028245587  0.027441647           13 
 3873000   0.62606491   -5.9424793     1312.546  0.028241372  0.027433731            8 
 3874000    0.6307018   -5.9384072    1313.9446  0.028264167   0.02742585           27 
 3875000   0.63949057   -5.9501188    1315.1284   0.02828233  0.027417962           19 
 3876000    0.6279816   -5.9424513    1311.3088  0.028192914  0.027410082           11 
 3877000   0.63486112   -5.9715434    1312.7427  0.028216462  0.027402192           16 
 3878000    0.6251002   -5.9782676    1313.9584   0.02823531  0.027394249           35 
 3879000   0.62192388   -5.9761008    1310.6295  0.028156515  0.027386311           11 
 3880000   0.63693906   -5.9656677    1311.6626  0.028171448  0.027378393            8 
 3881000   0.64573745   -5.9586802    1313.2959  0.028199259  0.027370499           12 
 3882000   0.64018519   -5.9912588     1312.623  0.028177549  0.027362596           24 
 3883000   0.65967026   -5.9716005    1311.0162   0.02813581  0.027354684           11 
 3884000   0.62151957   -5.9894291    1311.5486  0.028139989  0.027346792            9 
 3885000   0.63340673   -5.9625195    1312.6249  0.028155832  0.027338895            8 
 3886000   0.61964395   -5.9691598    1313.1626  0.028160117  0.027330984           10 
 3887000   0.63873443   -5.9513765    1313.3684  0.028157285  0.027323072           20 
 3888000   0.62145003   -5.9849758    1311.8982  0.028118532   0.02731517           17 
 3889000   0.62313773   -5.9486149     1313.646  0.028148753    0.0273073           14 
 3890000   0.63349239   -5.9454438    1312.7784  0.028122931  0.027299481           12 
 3891000     0.630785   -5.9555336    1315.4435  0.028172782  0.027291617           13 
 3892000   0.63076108   -5.9591091    1313.2572  0.028118731  0.027283762           12 
 3893000   0.63510551   -5.9639894    1313.6643  0.028120222  0.027275915           40 
 3894000   0.63088877   -5.9457585    1316.8279  0.028180704  0.027268067           18 
 3895000   0.61360721   -5.9680827     1314.276   0.02811887  0.027260227           14 
 3896000   0.62521835    -5.960602    1313.1534  0.028087642  0.027252365           26 
 3897000   0.63346995   -5.9581655    1313.7635   0.02809348  0.027244519            6 
 3898000   0.62372384   -5.9748097    1312.8778  0.028067337  0.027236697           16 
 3899000   0.64078851   -5.9510822    1314.6048  0.028097051  0.027228848           21 
 3900000   0.62596302   -5.9508062    1314.1161  0.028079404  0.027221008           11 
 3901000   0.63475064   -5.9618907    1313.3348  0.028055516  0.027213147            4 
 3902000   0.62075419   -5.9567519    1313.9227  0.028060881  0.027205322            7 
 3903000   0.65030926   -5.9588645     1315.599  0.028089483  0.027197492           30 
 3904000   0.63760254   -5.9625663    1313.6665  0.028041037  0.027189687           10 
 3905000   0.61927327   -5.9670997    1310.6878  0.027970291  0.027181856           16 
 3906000   0.62794025   -5.9852255    1314.2674  0.028039498  0.027173991            7 
 3907000   0.62679612   -5.9697255    1316.0961  0.028071327  0.027166131            9 
 3908000   0.62266651   -5.9744485    1315.1611  0.028044207  0.027158288           15 
 3909000   0.62547465   -5.9661437    1313.5653  0.028003013  0.027150482           10 
 3910000    0.6186197   -5.9504243    1314.0289   0.02800573    0.0271427           57 
 3911000    0.6213108   -5.9707351    1314.0324  0.027998645  0.027134871           38 
 3912000   0.62905567   -5.9513653    1314.4378  0.028000124  0.027127048           38 
 3913000   0.63530803   -5.9571234    1314.3868  0.027991882  0.027119234           11 
 3914000   0.63732829     -5.96814    1313.6579  0.027969211  0.027111421           12 
 3915000   0.62671549   -5.9716863    1314.5796  0.027981686  0.027103582           23 
 3916000   0.62787357   -5.9818421    1309.8266  0.027873395  0.027095723           11 
 3917000   0.61906552   -5.9525251    1312.6363  0.027926056  0.027087872           18 
 3918000   0.62363586   -5.9599075    1311.5238  0.027895265  0.027080035           11 
 3919000   0.61992056   -5.9348389    1311.1104  0.027879356  0.027072224           14 
 3920000   0.62236065   -5.9499558    1313.7058  0.027927419  0.027064408           11 
 3921000    0.6255598   -5.9615971    1312.5331  0.027895372  0.027056617           16 
 3922000   0.61638712   -5.9672501    1314.3868  0.027927647  0.027048809           12 
 3923000   0.62135038   -5.9924108    1314.5571  0.027924146  0.027040976           34 
 3924000   0.61902099   -5.9620012    1315.2711  0.027932194  0.027033165           21 
 3925000   0.60322086   -5.9764578    1312.4609  0.027865413  0.027025338           23 
 3926000   0.62780752   -5.9686196    1310.7702  0.027822428  0.027017519           10 
 3927000   0.62663864   -5.9945067    1312.2612  0.027846982  0.027009712           14 
 3928000   0.63351654    -5.975228    1311.6331  0.027826567  0.027001882           25 
 3929000   0.63488426   -5.9840305    1314.9252  0.027889309  0.026994064           39 
 3930000   0.60401312   -5.9763041    1312.8324  0.027837838  0.026986243           15 
 3931000   0.62971801   -5.9866175    1310.7984  0.027787637  0.026978424            8 
 3932000   0.62103348   -5.9720956    1314.1409  0.027851409  0.026970647           40 
 3933000   0.63411591    -5.957411     1312.819   0.02781632  0.026962885           43 
 3934000   0.62678861   -5.9727725    1314.6855  0.027848787  0.026955126           12 
 3935000    0.6176617   -5.9668497    1315.6102  0.027861291  0.026947381           17 
 3936000   0.61010174   -5.9719858    1316.6762  0.027876783  0.026939654           10 
 3937000   0.62071692   -5.9790653    1313.3938  0.027800225  0.026931858           19 
 3938000   0.62883119    -5.985593    1314.2222  0.027810695   0.02692408           35 
 3939000   0.61291294   -5.9734164    1314.5126  0.027809779  0.026916286           30 
 3940000   0.62017532   -5.9765671    1313.3738  0.027778634  0.026908486           17 
 3941000   0.63643415   -5.9885972    1313.4635  0.027773481   0.02690067           13 
 3942000   0.61611376   -5.9992191    1310.7223  0.027708488  0.026892858           21 
 3943000    0.6214203   -6.0011292    1313.3834  0.027757702  0.026885068           21 
 3944000   0.63029072   -5.9952615    1314.7519  0.027779579  0.026877303           30 
 3945000   0.61719921   -5.9825998    1313.9457  0.027755508  0.026869512           31 
 3946000    0.6309356   -5.9825045    1317.2276  0.027817782  0.026861759           18 
 3947000   0.63020585   -5.9931927    1314.6235  0.027755753   0.02685401           50 
 3948000   0.61229302   -6.0016644     1311.887  0.027690961  0.026846233           48 
 3949000   0.60991183   -6.0102886     1312.667  0.027700408   0.02683844           21 
 3950000    0.6200306   -5.9596733    1313.2853   0.02770644  0.026830664           22 
 3951000   0.61819163   -6.0236031    1311.6839  0.027665652  0.026822909           33 
 3952000   0.63361573   -5.9920864    1313.5035  0.027697021  0.026815161           25 
 3953000   0.63050876   -5.9682095    1317.3855   0.02777185  0.026807448           21 
 3954000   0.63422438   -5.9800436    1317.5111  0.027767473  0.026799737           19 
 3955000   0.62313933   -5.9866717    1315.1249  0.027710174  0.026792007           22 
 3956000   0.62367549   -6.0100696    1311.7156  0.027631354   0.02678427           17 
 3957000   0.60838729   -5.9915375    1314.6706  0.027686601  0.026776527           17 
 3958000   0.60680222   -5.9937165    1316.8722   0.02772596  0.026768777           10 
 3959000   0.62884058   -5.9970922    1315.3963   0.02768789  0.026761043            9 
 3960000   0.60554115   -6.0014912    1313.9522  0.027650508  0.026753286           25 
 3961000    0.6214579   -6.0116049    1313.7751  0.027639802  0.026745492           31 
 3962000   0.62244637   -5.9947098    1312.4895  0.027605787  0.026737748           13 
 3963000   0.62905688   -6.0076679    1314.2898  0.027636677   0.02673004           32 
 3964000   0.60494105   -6.0129199    1315.1507  0.027647802  0.026722311           21 
 3965000   0.61509057   -5.9741324    1313.6469  0.027609224  0.026714612           36 
 3966000    0.6015906   -5.9828106    1317.5548  0.027684375   0.02670691           18 
 3967000   0.61850246   -5.9927033      1313.75  0.027597471  0.026699189           20 
 3968000   0.61948409   -6.0125441    1312.8194  0.027570971   0.02669148           47 
 3969000   0.61874768   -5.9747274     1315.323  0.027616592  0.026683752           14 
 3970000   0.61398621   -5.9966748    1318.2234  0.027670516   0.02667609           20 
 3971000   0.60952127    -5.983802    1316.0754  0.027618471  0.026668399           20 
 3972000   0.62157632   -5.9984333    1316.1733  0.027613572  0.026660726           34 
 3973000   0.61896488   -5.9822209    1317.2911  0.027630068  0.026653052           18 
 3974000   0.62165705   -5.9707352    1318.2246  0.027642689  0.026645374           30 
 3975000   0.63653009   -5.9938921     1315.311  0.027574654  0.026637702           41 
 3976000    0.6169179   -5.9832144    1318.0934  0.027626036  0.026630057           22 
 3977000   0.61522466   -5.9959561     1318.248  0.027622328  0.026622423           12 
 3978000   0.60708237   -6.0048629    1316.2368  0.027573252  0.026614779           49 
 3979000   0.61657314   -5.9861425    1317.0647  0.027583662  0.026607146           21 
 3980000   0.62120678   -5.9793573    1315.4061  0.027542004  0.026599496           22 
 3981000   0.61693791   -6.0113299    1314.4686  0.027515462  0.026591836           14 
 3982000   0.61681675    -6.000424    1318.0976  0.027584497  0.026584164           22 
 3983000    0.6209779   -6.0112297    1315.1699  0.027516317  0.026576495            9 
 3984000   0.62198458   -5.9905678    1314.4243  0.027493815  0.026568822           19 
 3985000   0.61816266   -6.0141076    1315.8474  0.027516676  0.026561125           32 
 3986000    0.6191917   -5.9939602    1313.8319  0.027467635  0.026553449           19 
 3987000   0.62102372   -6.0089124    1313.3646  0.027450979  0.026545741           15 
 3988000   0.61606799   -5.9903912    1314.8431   0.02747499   0.02653808           10 
 3989000   0.62537334   -5.9868938    1317.2735  0.027518876  0.026530472           13 
 3990000   0.61500362   -5.9794794    1319.3826  0.027556028  0.026522866            8 
 3991000   0.60826826   -5.9951619    1319.1417  0.027544094  0.026515261           13 
 3992000   0.60876028   -5.9938931    1315.5718  0.027462672  0.026507637           33 
 3993000      0.62497   -5.9877009    1319.4092   0.02753588  0.026500012           22 
 3994000   0.60594002   -6.0130516    1312.1046  0.027376578  0.026492374           28 
 3995000   0.61029323   -5.9901889     1315.728  0.027445307  0.026484719           14 
 3996000   0.62248922   -6.0083103    1316.4641  0.027453789  0.026477088           21 
 3997000   0.61169716   -5.9859336    1318.1848  0.027482796  0.026469464           16 
 3998000   0.60836272   -6.0127315    1314.9918  0.027409366  0.026461838            7 
 3999000   0.60423889    -6.007163    1316.0005  0.027423534  0.026454217           15 
 4000000   0.60815591   -6.0256418    1315.4568   0.02740535  0.026446576           17 
 4001000   0.61830308   -6.0143882     1314.229  0.027372927  0.026438921           10 
 4002000   0.61277449   -6.0214962    1315.8186  0.027399187  0.026431278           12 
 4003000   0.60860735   -6.0086017     1314.245  0.027359584  0.026423637           59 
 4004000    0.6201808    -6.033606    1314.6425  0.027361025  0.026415997           16 
 4005000    0.6209291   -6.0124342    1318.8282  0.027441286  0.026408343           37 
 4006000    0.6041398   -6.0070834    1315.9772  0.027375129  0.026400733           15 
 4007000   0.62235557   -6.0023408    1320.3445  0.027459124  0.026393114           21 
 4008000   0.61248402   -6.0110308    1315.7525  0.027356797  0.026385494           36 
 4009000   0.59544026   -6.0091491     1317.947   0.02739559  0.026377848           21 
 4010000   0.61933541   -5.9853512    1317.0728   0.02737059  0.026370203           48 
 4011000   0.61568215   -6.0095719    1313.9088   0.02729803  0.026362554           43 
 4012000   0.60774863   -5.9913422    1312.1723  0.027255157  0.026354905           51 
 4013000   0.61224216   -6.0010718    1317.0234  0.027349103  0.026347246           61 
 4014000   0.60962479   -6.0050365    1314.9412  0.027299063  0.026339582           80 
 4015000   0.60011708   -6.0194993    1314.7543  0.027288384  0.026331925           39 
 4016000   0.61753174   -6.0354663    1313.9538  0.027264977  0.026324274           17 
 4017000   0.62084708   -6.0043133    1315.0871    0.0272817  0.026316644           24 
 4018000   0.61646587   -6.0420468    1316.1583  0.027297128  0.026309026           12 
 4019000   0.61387578   -6.0063744    1317.2547  0.027313069  0.026301403           21 
 4020000   0.59742973   -6.0166078    1316.4194  0.027288959  0.026293821           17 
 4021000   0.61624557   -5.9843067    1318.9991  0.027335636  0.026286252           20 
 4022000   0.59703133   -6.0084612    1316.7058  0.027281323  0.026278669           21 
 4023000   0.60046345   -6.0137963    1317.5775  0.027292599  0.026271106            8 
 4024000   0.60288915   -6.0038779    1314.3167  0.027218287  0.026263526           22 
 4025000   0.60176427   -5.9946532    1317.5532  0.027278535  0.026255959           25 
 4026000   0.61314211   -6.0115216    1319.3683  0.027309329  0.026248367           15 
 4027000   0.59678973   -6.0070933    1314.9626  0.027211378  0.026240775            8 
 4028000    0.6019633    -6.010445    1316.0533  0.027227186  0.026233194            9 
 4029000   0.61226666   -6.0442771    1316.0293  0.027219933  0.026225598           21 
 4030000   0.60152528   -6.0210554    1316.8554   0.02723026  0.026218027           13 
 4031000    0.5930218   -6.0169122    1315.7555  0.027200767  0.026210455           19 
 4032000   0.60440406   -6.0271832    1314.4257  0.027166536  0.026202893           18 
 4033000   0.59252135   -6.0140793    1318.7673   0.02724951  0.026195344           22 
 4034000   0.60683551   -6.0107019    1317.6651  0.027219985  0.026187805           32 
 4035000   0.60466441    -6.007681    1316.7764  0.027194885  0.026180258           10 
 4036000    0.6017926   -6.0190817    1317.0682  0.027194173  0.026172728           32 
 4037000   0.60567641   -6.0264226      1318.14  0.027209562  0.026165166           28 
 4038000   0.59516501   -6.0342069    1320.3609  0.027248656  0.026157596           43 
 4039000   0.60223858    -6.005765    1318.3672  0.027200776  0.026150071           19 
 4040000   0.60977289   -5.9882696    1320.7201  0.027242575  0.026142535           22 
 4041000   0.61081481   -6.0348609     1318.461  0.027189247  0.026135009           47 
 4042000   0.60108234   -6.0221402    1317.9653  0.027172302  0.026127482           45 
 4043000   0.58937016   -5.9921126    1316.2474  0.027130172  0.026119963           84 
 4044000   0.60876219   -6.0101744    1319.3531  0.027187461  0.026112416           22 
 4045000   0.61242907   -6.0388682    1314.4259  0.027079232  0.026104892           16 
 4046000   0.60516335   -6.0206964    1315.0877  0.027086169  0.026097337           15 
 4047000   0.60675584   -6.0324719    1316.7329  0.027113354  0.026089804           19 
 4048000   0.60038722   -6.0308424    1315.6905  0.027085197  0.026082288           21 
 4049000   0.60650093   -6.0287025    1315.8696  0.027082194  0.026074755           30 
 4050000   0.60633026   -6.0026404    1320.2566  0.027165774  0.026067242           11 
 4051000   0.60922774   -6.0160053     1315.848  0.027068378  0.026059733           13 
 4052000   0.59967722   -6.0378936    1314.3935  0.027031784  0.026052199           16 
 4053000   0.60577167   -6.0221373    1314.4603   0.02702649  0.026044664           37 
 4054000   0.60229777    -6.033809    1316.4481  0.027060683  0.026037125           17 
 4055000   0.60142492   -6.0380548    1316.8684  0.027062648  0.026029575           37 
 4056000   0.58631542   -6.0374886    1317.3334  0.027065528   0.02602206           50 
 4057000   0.61554231    -6.025413     1316.859  0.027049113  0.026014532           35 
 4058000   0.59826475   -6.0370631    1315.2451  0.027009305  0.026006991           37 
 4059000   0.59685951   -6.0401471    1318.6083  0.027071699  0.025999468           69 
 4060000   0.59999978   -6.0302303    1313.8228  0.026966807  0.025991918           70 
 4061000   0.61186811   -6.0459748    1318.7587  0.027061453  0.025984377           40 
 4062000   0.58290752   -6.0477076    1316.1325  0.027000913   0.02597681           38 
 4063000   0.59708143   -6.0399535     1318.043  0.027033452  0.025969257           37 
 4064000    0.5985844   -6.0247758    1316.4098  0.026993311  0.025961739           17 
 4065000   0.60789983   -6.0311357    1315.5513  0.026969072  0.025954218           27 
 4066000   0.60309027   -6.0442644    1318.5196  0.027023274  0.025946676           23 
 4067000    0.6037243   -6.0750313    1315.6537  0.026957907  0.025939155           22 
 4068000   0.60160554    -6.039699    1312.9219   0.02689532  0.025931631           17 
 4069000   0.59580634    -6.027765    1318.4357  0.027001633  0.025924133           31 
 4070000   0.60337074   -6.0254277    1318.6032  0.026998428  0.025916622           17 
 4071000   0.59955775   -6.0370993     1317.596  0.026971178  0.025909124            9 
 4072000   0.59235062   -6.0342387    1315.5345  0.026922367  0.025901644           17 
 4073000   0.59568956   -6.0321851    1316.9979  0.026945698  0.025894189           28 
 4074000   0.59973146   -6.0232689    1320.6442  0.027013668   0.02588671           27 
 4075000   0.60449152   -6.0450794     1318.469  0.026962557  0.025879244           13 
 4076000   0.60051337   -6.0266125    1316.9521  0.026924929  0.025871746           17 
 4077000   0.59402764   -6.0450478    1317.2507  0.026924427  0.025864267           26 
 4078000    0.6007297   -6.0245096    1317.2151  0.026917099  0.025856792           22 
 4079000   0.60052991   -6.0307205    1315.6892  0.026879324  0.025849325           17 
 4080000   0.60607085   -6.0283841    1317.6477   0.02691274  0.025841844           24 
 4081000   0.61078448   -6.0482683    1316.7088  0.026886973  0.025834374           11 
 4082000   0.58865653   -6.0489728    1316.9151  0.026884598  0.025826884           42 
 4083000   0.59327935   -6.0169295    1321.9965  0.026981723  0.025819418           36 
 4084000   0.58931611   -6.0575896    1316.6303  0.026865621  0.025811973           44 
 4085000   0.59868978   -6.0327772    1317.1211  0.026869056  0.025804538           26 
 4086000   0.60126728   -6.0653248    1314.2018   0.02680294  0.025797088           39 
 4087000   0.61612005   -6.0120932    1319.1491  0.026897257  0.025789644           26 
 4088000    0.5934317   -6.0374887     1317.045  0.026847786  0.025782211           25 
 4089000   0.60665376   -6.0555001     1317.208  0.026844543  0.025774795           26 
 4090000    0.5944905    -6.026503    1317.9386  0.026852865  0.025767374           23 
 4091000   0.61148334   -6.0451348    1317.8548  0.026844594  0.025759968           29 
 4092000   0.59339513   -6.0421174    1316.4266  0.026808947  0.025752564           15 
 4093000    0.5975646   -6.0553717    1317.5139  0.026824535  0.025745164           32 
 4094000    0.5903297   -6.0558014    1318.5429  0.026838929  0.025737751           20 
 4095000   0.60847628   -6.0398339    1317.0129  0.026801238  0.025730349            9 
 4096000   0.60662364   -6.0317515    1315.4768  0.026763444  0.025722957           26 
 4097000   0.59952347   -6.0468261    1319.7982   0.02684481  0.025715595           28 
 4098000   0.59854179   -6.0479093    1316.5067  0.026771326  0.025708222           42 
 4099000   0.58418837   -6.0563732    1322.0691  0.026877878  0.025700843           27 
 4100000   0.59827476   -6.0292273     1320.512  0.026839674  0.025693482           26 
 4101000    0.5847847   -6.0557233    1321.1563  0.026846222  0.025686109           36 
 4102000   0.60220454   -6.0335179    1318.9258  0.026794366  0.025678723           33 
 4103000   0.60356343   -6.0598117    1316.3611  0.026735743  0.025671315           38 
 4104000   0.59818802   -6.0585084    1316.9342  0.026740867  0.025663909           23 
 4105000   0.58203328   -6.0461448    1318.0864  0.026757743  0.025656525           17 
 4106000   0.58793294   -6.0473019    1315.1603   0.02669184  0.025649108           20 
 4107000   0.58647581   -6.0599022    1316.2619  0.026707691  0.025641724           33 
 4108000   0.60070173   -6.0416729     1318.933  0.026755376  0.025634341           22 
 4109000   0.59918391   -6.0324117    1320.7933  0.026786592  0.025626969           18 
 4110000   0.58368559   -6.0308116    1319.6994  0.026757896  0.025619631           48 
 4111000   0.58968549   -6.0419644    1318.0887  0.026718735  0.025612252           25 
 4112000   0.58605309   -6.0522133     1322.322   0.02679803  0.025604865           35 
 4113000   0.58567085   -6.0281197    1320.5482  0.026755575  0.025597514           15 
 4114000   0.59741983   -6.0443521    1318.4048  0.026705656  0.025590174           27 
 4115000   0.59908596   -6.0379653    1317.7618  0.026686145  0.025582856           12 
 4116000   0.60208313   -6.0197554    1320.3749  0.026732567  0.025575531           23 
 4117000   0.59754267    -6.054556    1319.4691  0.026707738  0.025568207           19 
 4118000   0.58415142   -6.0547495    1319.6044   0.02670399  0.025560871           16 
 4119000   0.59557421   -6.0587754    1318.8919  0.026683093  0.025553507           15 
 4120000   0.58648325   -6.0595517    1317.9174  0.026656905  0.025546165           15 
 4121000   0.59595361   -6.0642994    1316.4913  0.026621599  0.025538818           12 
 4122000   0.58452307   -6.0663407    1320.2466   0.02669106  0.025531476           11 
 4123000   0.58204462    -6.043541    1317.1564  0.026622128  0.025524138           43 
 4124000   0.59414832   -6.0612719    1318.7281  0.026647431  0.025516791           29 
 4125000   0.60131278   -6.0360999    1322.2464  0.026712049  0.025509486           14 
 4126000   0.59340206    -6.030595     1322.222  0.026705082  0.025502174           12 
 4127000   0.58758655   -6.0421388    1324.1534   0.02673761   0.02549484           24 
 4128000   0.58129611   -6.0576205    1317.8391  0.026603665  0.025487521           16 
 4129000   0.59847906   -6.0492101    1318.7743  0.026616096  0.025480223           45 
 4130000   0.58712641   -6.0461819     1323.295  0.026700868  0.025472907           19 
 4131000   0.59683323   -6.0526039    1321.0609  0.026649336  0.025465632           13 
 4132000   0.60857948   -6.0493418    1320.9314  0.026640276  0.025458374           15 
 4133000   0.59688608   -6.0520554    1316.6382  0.026547266  0.025451112           27 
 4134000   0.58613274   -6.0512367    1320.6998  0.026622718  0.025443837           61 
 4135000   0.58331315   -6.0731152    1319.3544  0.026589165  0.025436518           65 
 4136000   0.58140805   -6.0446567    1322.6014  0.026648159  0.025429195           45 
 4137000   0.58365028   -6.0600807    1319.9959  0.026589232  0.025421897           95 
 4138000   0.58131714   -6.0540053     1319.748  0.026577816  0.025414581           14 
 4139000   0.59331782   -6.0638475    1318.9563  0.026555455  0.025407275           25 
 4140000   0.59410914    -6.088297    1318.8728   0.02654736   0.02539995           50 
 4141000   0.57360424   -6.0587271    1320.0861  0.026565365  0.025392629           34 
 4142000   0.59202317   -6.0772406    1317.6851  0.026510646  0.025385303           42 
 4143000   0.59113138   -6.0539762    1318.3873  0.026518369  0.025377994           34 
 4144000   0.58598976   -6.0606807    1316.4729  0.026473474   0.02537067           28 
 4145000   0.59478376   -6.0508718    1319.5273  0.026528495  0.025363372           26 
 4146000   0.57674259   -6.0716614    1317.6497  0.026484355  0.025356055           25 
 4147000   0.58418557   -6.0575723    1317.4293   0.02647354  0.025348747           67 
 4148000   0.58744096   -6.0606203    1318.7788  0.026494271  0.025341438           61 
 4149000   0.59673026   -6.0937244    1317.0057  0.026452272  0.025334106           74 
 4150000   0.58568107   -6.0894892    1317.7723  0.026461291  0.025326781           53 
 4151000   0.58050665   -6.0969124    1319.1481  0.026482536  0.025319457           45 
 4152000   0.59389866   -6.0806438    1318.7363  0.026467892  0.025312152           27 
 4153000   0.59250557   -6.0552311    1316.2334  0.026411296  0.025304864           35 
 4154000   0.58048682   -6.0856914    1316.8869  0.026418049  0.025297589           44 
 4155000   0.57142254   -6.0851782    1322.9465  0.026533223  0.025290302           82 
 4156000    0.5824835   -6.0716806    1319.9788  0.026467332   0.02528302           69 
 4157000   0.59739537   -6.0819854    1319.5684  0.026452738   0.02527574           47 
 4158000   0.57396938   -6.0752503    1318.3014  0.026420983   0.02526844           16 
 4159000   0.58914772   -6.0757285    1319.7977  0.026444611  0.025261133           24 
 4160000   0.59494126   -6.0620405    1318.7929  0.026418127  0.025253845           30 
 4161000   0.58825023   -6.0778903    1319.9005   0.02643396  0.025246564           33 
 4162000   0.58062204    -6.074414    1319.9211  0.026428022  0.025239275           25 
 4163000   0.58963036   -6.0619652    1318.9526  0.026402285  0.025231991           22 
 4164000   0.58317311   -6.0626343    1318.3875  0.026384637  0.025224678           24 
 4165000   0.59355443   -6.0555964    1317.6456  0.026363457  0.025217379           21 
 4166000   0.57909956   -6.0903305    1317.5218  0.026354652  0.025210091           39 
 4167000   0.57698448   -6.0565387    1318.6661  0.026371212  0.025202811           28 
 4168000   0.58348563   -6.0542993     1316.757  0.026326716  0.025195544           22 
 4169000   0.60193974   -6.0857351    1317.7271  0.026339791  0.025188256           16 
 4170000    0.5800318   -6.0716583    1316.7975  0.026314899  0.025180973           28 
 4171000   0.58934244   -6.0560705    1319.1897  0.026356384  0.025173712           60 
 4172000   0.59359157   -6.0696363    1316.7053  0.026300441  0.025166453           65 
 4173000   0.57895824   -6.0537046    1317.6335  0.026312674  0.025159207           51 
 4174000   0.58758979   -6.0482576    1317.0638  0.026294997  0.025151959           27 
 4175000    0.5785544   -6.0613658    1320.5111  0.026357507  0.025144706           44 
 4176000   0.57117168   -6.0708927    1321.8659  0.026378231  0.025137485           55 
 4177000   0.60019953   -6.0700284    1319.5162  0.026325039  0.025130243           34 
 4178000   0.58387092   -6.0747819     1317.253  0.026273596  0.025123011           23 
 4179000   0.58778118   -6.0569998    1321.9233  0.026360439  0.025115779           17 
 4180000   0.58639875   -6.0939477    1320.7476  0.026330694  0.025108554           13 
 4181000    0.5803602   -6.0329336    1318.1302  0.026272228  0.025101354           17 
 4182000   0.58446701   -6.0856715    1322.6853  0.026356714  0.025094129           26 
 4183000   0.56545969   -6.0850966    1321.4407  0.026325618  0.025086911           17 
 4184000   0.57458975   -6.0615689    1321.4227  0.026318967   0.02507966           23 
 4185000   0.58800303   -6.0890138    1318.0442  0.026245405  0.025072438           16 
 4186000   0.57630787   -6.0842218    1318.9904  0.026257972  0.025065208           19 
 4187000   0.57881811   -6.0804514     1320.967   0.02629104  0.025057996           34 
 4188000   0.58188602   -6.0932847     1318.493  0.026235534  0.025050724           23 
 4189000   0.58545688   -6.0635077    1322.7188  0.026313337  0.025043469           30 
 4190000   0.57700859   -6.0888852    1320.0596  0.026254168  0.025036244           26 
 4191000   0.58648146   -6.0874121    1319.0614  0.026228056  0.025029029           16 
 4192000   0.57794597   -6.0581399    1319.4266  0.026229059  0.025021808           22 
 4193000   0.58785241   -6.0780709    1318.1856  0.026198139  0.025014576           41 
 4194000   0.56980166   -6.0753809    1319.8797  0.026225555  0.025007336           20 
 4195000   0.57837081   -6.0963625    1317.8977   0.02617993  0.025000097           30 
 4196000   0.57449525     -6.09617    1317.6702  0.026169173  0.024992862           23 
 4197000   0.57689336   -6.0917179    1315.2374  0.026114634  0.024985601           55 
 4198000   0.57459758   -6.1028334    1316.9792  0.026142989  0.024978342           32 
 4199000   0.59176768    -6.088963    1318.5542  0.026168019  0.024971079           16 
 4200000   0.57989648   -6.1084892    1317.1337  0.026133606  0.024963827           31 
 4201000   0.57531993   -6.0927875    1313.2327  0.026050002  0.024956583           37 
 4202000   0.57525535   -6.1024622    1317.4078  0.026126601  0.024949363           24 
 4203000   0.57390768    -6.076701    1318.3393  0.026138855  0.024942136           35 
 4204000   0.58557157   -6.0831384    1317.7818  0.026121587  0.024934908           23 
 4205000   0.58866769   -6.0674712    1318.0969  0.026121619  0.024927707           14 
 4206000   0.59448479   -6.0625572    1320.0644   0.02615439  0.024920528           26 
 4207000   0.58077701   -6.0668501    1321.0109  0.026166921  0.024913351           14 
 4208000   0.58007622   -6.0762823    1318.7375  0.026115683  0.024906177            9 
 4209000   0.57042973   -6.0824649    1315.7412  0.026050154     0.024899           48 
 4210000   0.58669646   -6.0730197    1318.3854  0.026096307  0.024891798           19 
 4211000   0.57617526   -6.0785146    1319.5893  0.026113933  0.024884606           29 
 4212000   0.57538505   -6.0912926    1317.4483  0.026065375  0.024877428           21 
 4213000   0.58478889   -6.0835148    1319.8487  0.026106667  0.024870219           32 
 4214000   0.57831311   -6.0728791    1317.7084  0.026058147  0.024863033           19 
 4215000   0.57565844   -6.0725782    1321.1515  0.026120037  0.024855842           16 
 4216000   0.56765093   -6.1080785    1319.4483  0.026080177  0.024848669           15 
 4217000   0.57358353   -6.0835666    1319.9999  0.026084892  0.024841497           51 
 4218000   0.57029347   -6.1021893    1318.9579  0.026058122  0.024834302           18 
 4219000   0.56804998   -6.0689242    1322.0309  0.026112643   0.02482714           17 
 4220000   0.56871565    -6.098867    1317.5199  0.026017376  0.024819972           45 
 4221000   0.57760307   -6.0678138    1318.2843  0.026026302  0.024812786           17 
 4222000   0.56893808   -6.0955251     1316.014  0.025975328  0.024805601           27 
 4223000   0.57455188     -6.11555    1316.6867  0.025982451  0.024798421           27 
 4224000   0.57981609   -6.1001445    1314.3053  0.025929318  0.024791214           27 
 4225000   0.56974656   -6.1043012    1317.2844  0.025981941  0.024784025           27 
 4226000   0.57149951    -6.090501    1317.8975  0.025987883  0.024776835           23 
 4227000   0.58052092   -6.0865342    1318.1424  0.025986563  0.024769646           45 
 4228000    0.5827063   -6.1141882    1315.7326  0.025932919   0.02476244           20 
 4229000   0.58133113   -6.0966761    1320.3223  0.026017228  0.024755221           14 
 4230000   0.57123727   -6.1140027    1317.0218  0.025946055  0.024747993           26 
 4231000    0.5734487   -6.0923495    1316.2724  0.025925163  0.024740781           63 
 4232000   0.55073132   -6.1122044    1317.3612  0.025940478  0.024733584           54 
 4233000   0.56877289   -6.0877863    1317.8377   0.02594373  0.024726401           35 
 4234000   0.57277284   -6.0991784     1316.934  0.025919817  0.024719222           19 
 4235000   0.57765224   -6.0772515    1319.2215  0.025958706  0.024712048            9 
 4236000   0.58751912   -6.1153062    1318.9906  0.025948037  0.024704862           61 
 4237000   0.58930897   -6.1090969    1312.8272  0.025820691  0.024697668           17 
 4238000   0.57215316   -6.0985958    1319.1961  0.025939833  0.024690483           26 
 4239000   0.57119431   -6.1042249    1319.1523  0.025932851  0.024683313           44 
 4240000   0.57367305   -6.1002925    1318.9574  0.025922906  0.024676134           57 
 4241000   0.57154944   -6.0971501    1316.6424  0.025871304   0.02466895           61 
 4242000   0.59208317   -6.0938561    1318.2799  0.025897373   0.02466179           44 
 4243000   0.57283958    -6.110809    1316.4491  0.025855312  0.024654618           50 
 4244000   0.57384178   -6.1182256    1313.4446  0.025790226  0.024647417           76 
 4245000    0.5679054   -6.1217152      1317.32  0.025860228   0.02464025           37 
 4246000   0.58367463   -6.1004463    1315.6201  0.025820775  0.024633079           30 
 4247000   0.56506784   -6.1087822    1319.9803  0.025900249  0.024625886           45 
 4248000   0.56393641   -6.1058188    1316.0502  0.025817055  0.024618692           46 
 4249000   0.56303889   -6.0906727    1317.4719  0.025838862  0.024611494           26 
 4250000   0.57560678   -6.1108041    1316.2596  0.025809012  0.024604319           46 
 4251000   0.56948674   -6.0671146    1318.8974   0.02585465  0.024597166           19 
 4252000   0.55501436   -6.0924641    1319.3914  0.025858251  0.024590019           27 
 4253000    0.5665197   -6.1104829    1316.5992  0.025797461  0.024582886           21 
 4254000   0.56494906   -6.0921414    1317.2436  0.025804019  0.024575757           22 
 4255000   0.55851793   -6.0942347       1316.2  0.025777517  0.024568617           24 
 4256000   0.56992261   -6.0916048    1316.6083  0.025779455  0.024561487           21 
 4257000   0.57160038    -6.124176    1315.3987  0.025749719  0.024554351           25 
 4258000   0.57452153   -6.1005073    1316.8731  0.025772528  0.024547219           18 
 4259000   0.56890709   -6.0950087    1315.6333  0.025742218  0.024540092           24 
 4260000   0.56212969    -6.088522    1318.4137  0.025790564  0.024532953           21 
 4261000   0.56860553   -6.1029739     1316.253  0.025742256  0.024525843           35 
 4262000   0.56926315   -6.1032215    1317.5373  0.025761326  0.024518713           47 
 4263000   0.56174398   -6.1007062    1318.2145  0.025768522  0.024511585           52 
 4264000   0.56680931   -6.0996446    1317.8494  0.025755343  0.024504461           20 
 4265000   0.56752783   -6.1033787    1317.1767  0.025736161  0.024497338           36 
 4266000   0.55947765    -6.108751    1317.7345  0.025741024  0.024490207           52 
 4267000   0.56607498   -6.1091115    1315.4667  0.025690702  0.024483094           27 
 4268000   0.57636893   -6.0929468    1316.5069  0.025704992  0.024475963            9 
 4269000   0.56960071   -6.1220819    1315.8764  0.025686664  0.024468822           10 
 4270000   0.57356315   -6.1247195    1312.9996  0.025624504  0.024461699           17 
 4271000   0.56409227   -6.1071483    1314.8971  0.025655528  0.024454556           44 
 4272000   0.57650804   -6.0849501    1317.9197  0.025708483  0.024447435           28 
 4273000   0.57648643   -6.1133127    1316.9835  0.025684209  0.024440302           61 
 4274000   0.56761604   -6.1134077    1317.0478  0.025679453  0.024433168           36 
 4275000   0.58300776   -6.1276236     1313.894  0.025611968  0.024426031           42 
 4276000    0.5661712   -6.1364616    1314.3456   0.02561478  0.024418891           32 
 4277000   0.55946949   -6.1164478    1316.0769  0.025642524  0.024411748           22 
 4278000   0.56707124   -6.1178048    1315.9216  0.025633506  0.024404624           70 
 4279000   0.56669376   -6.1112417    1315.4433  0.025618199  0.024397513           68 
 4280000   0.55932427   -6.1185891    1314.7834  0.025599366  0.024390399           77 
 4281000   0.54633653   -6.1181057    1313.4264  0.025566971   0.02438326           80 
 4282000   0.57470917   -6.1275224    1315.5254  0.025601849  0.024376142           39 
 4283000   0.55414957   -6.1186745    1316.8002  0.025620674  0.024369018           95 
 4284000   0.57664805   -6.1101824    1316.2525  0.025604041  0.024361907          127 
 4285000   0.57029928   -6.1218721    1317.0077  0.025612752  0.024354808           88 
 4286000   0.55707096   -6.1097682    1316.0858  0.025588851  0.024347692           49 
 4287000   0.55947317    -6.120805    1318.7436  0.025634546  0.024340588          110 
 4288000   0.56692696   -6.1006789    1317.2313  0.025599178   0.02433351           95 
 4289000   0.56597344   -6.1248546    1316.3839  0.025576745  0.024326418           99 
 4290000   0.56274463   -6.1091753     1319.188  0.025625253  0.024319348           83 
 4291000   0.56591021   -6.0982087    1319.6986  0.025629197  0.024312271           80 
 4292000   0.56898799   -6.1209288    1318.9793   0.02560926  0.024305196           69 
 4293000   0.55995061   -6.1229111     1319.274  0.025609014   0.02429813          130 
 4294000   0.56196951   -6.1204585    1318.2137  0.025582474  0.024291064           90 
 4295000   0.55691145    -6.114051    1316.5964  0.025545137  0.024283994           62 
 4296000   0.56280249   -6.1276895    1316.8864  0.025544817  0.024276928           99 
 4297000   0.55047037   -6.1116539    1318.7997  0.025575977  0.024269852          126 
 4298000   0.56865486   -6.1173884    1318.7046  0.025568182   0.02426278          124 
 4299000   0.55601065   -6.1095331    1317.8176  0.025545041  0.024255703          152 
 4300000   0.56901911   -6.1269028    1316.5594  0.025514718  0.024248649          161 
 4301000   0.57037589   -6.1351607    1315.9287  0.025496564  0.024241574          176 
 4302000   0.56059631   -6.1360778    1316.4438  0.025500616  0.024234474          123 
 4303000   0.57284936   -6.1377188    1315.4077  0.025474624  0.024227379           97 
 4304000   0.56510691   -6.1253629    1314.9432  0.025459712  0.024220287          120 
 4305000   0.56109813   -6.1422877    1316.7066  0.025487932  0.024213218           78 
 4306000   0.56712713   -6.1363673     1316.111  0.025470488  0.024206126          108 
 4307000   0.56705373   -6.1570806    1315.6064  0.025454811  0.024199029          109 
 4308000   0.56465487   -6.1399989    1317.9589  0.025494409  0.024191915           55 
 4309000   0.56894346   -6.1316188    1315.8242  0.025447208  0.024184824          191 
 4310000   0.56479172   -6.1380387    1315.7889  0.025440621  0.024177741          125 
 4311000   0.56053165   -6.1185357    1319.8473   0.02551317  0.024170674           94 
 4312000   0.55336955   -6.1352239    1318.5207  0.025481615  0.024163598           46 
 4313000   0.55333342   -6.1413272    1314.2555  0.025393297  0.024156514           75 
 4314000    0.5597472   -6.1389866    1315.3363  0.025408288  0.024149423          129 
 4315000   0.56672579    -6.133058    1315.1491  0.025398784  0.024142363          100 
 4316000   0.55223816   -6.1426719    1319.6858  0.025480495  0.024135287           51 
 4317000   0.55525215   -6.1366148    1315.3955  0.025391775  0.024128219           46 
 4318000   0.56067337   -6.1315503     1316.621  0.025409545  0.024121149           53 
 4319000   0.57054767   -6.1233624    1315.7989    0.0253878  0.024114105           66 
 4320000   0.56477551   -6.1427689    1315.2011  0.025370391  0.024107064           56 
 4321000   0.56961674   -6.1293575    1319.3596  0.025444719  0.024100017           57 
 4322000   0.55500341   -6.1210468    1318.5296  0.025422829  0.024092985           61 
 4323000   0.55774282   -6.1093208     1318.568  0.025417688  0.024085946          101 
 4324000   0.56712852   -6.1551906    1317.7287  0.025395635  0.024078912           68 
 4325000   0.56169918   -6.1311022    1319.4639  0.025423196  0.024071859           45 
 4326000   0.56599175   -6.1463501    1316.6242  0.025362617  0.024064812           63 
 4327000   0.56432748   -6.1501027     1313.722  0.025300863  0.024057746           83 
 4328000   0.56995461   -6.1100076    1317.4847  0.025367465  0.024050694           63 
 4329000   0.55549612   -6.1633184     1313.611  0.025287038  0.024043638          118 
 4330000   0.55937586    -6.155777    1315.2544  0.025312825  0.024036574          138 
 4331000   0.55092262   -6.1337299     1312.702  0.025257869  0.024029512           82 
 4332000   0.55653049   -6.1452861    1315.1905  0.025299909  0.024022477           92 
 4333000   0.53749126   -6.1316586     1317.203  0.025332775  0.024015453          123 
 4334000   0.54642317   -6.1163433    1318.3051  0.025348121  0.024008412          100 
 4335000   0.56169402   -6.1500241    1317.3536  0.025323984  0.024001371          120 
 4336000   0.55492882   -6.1376271    1315.2869  0.025278423  0.023994355           88 
 4337000   0.56050984   -6.1445868    1316.8876  0.025303351  0.023987337          132 
 4338000   0.57472162   -6.1442196    1318.0522  0.025319891  0.023980314          126 
 4339000   0.55659018   -6.1363518      1315.87  0.025272145  0.023973299          162 
 4340000    0.5594575   -6.1301137    1316.5319   0.02527903   0.02396627           99 
 4341000    0.5527908   -6.1315133    1317.6381  0.025294442   0.02395925          110 
 4342000   0.56016914   -6.1438906    1320.7045  0.025347468  0.023952236          115 
 4343000   0.54855274   -6.1464196    1316.6584  0.025263996   0.02394522           81 
 4344000   0.56191859    -6.144558    1315.7102  0.025239991  0.023938202           80 
 4345000   0.55062298   -6.1542817     1314.695  0.025214711  0.023931174           89 
 4346000   0.55493296   -6.1469035    1316.5636  0.025244738  0.023924151          109 
 4347000   0.55236982   -6.1327108    1315.2347  0.025213456  0.023917145          107 
 4348000   0.55635243   -6.1390975    1312.8024   0.02516104  0.023910128           74 
 4349000    0.5595204   -6.1619769    1314.6217  0.025190114   0.02390312           81 
 4350000   0.56849324   -6.1550228    1315.4962  0.025201076  0.023896111           98 
 4351000   0.55658264   -6.1412618    1314.4582  0.025175404  0.023889124           91 
 4352000   0.55640667   -6.1529831    1316.0239    0.0251996  0.023882135           57 
 4353000   0.55944284   -6.1366069    1316.9327  0.025211209  0.023875148           70 
 4354000   0.54843146    -6.124866     1316.317  0.025193635  0.023868144          110 
 4355000    0.5571369   -6.1607434    1313.1654  0.025127542  0.023861139          120 
 4356000   0.55422684   -6.1538429    1316.0161   0.02517631  0.023854142          117 
 4357000   0.55017755   -6.1547183    1317.9791  0.025208077  0.023847156          102 
 4358000   0.55015711   -6.1638061    1314.3673  0.025133228  0.023840163          189 
 4359000   0.54704738   -6.1659902    1316.5433  0.025169063   0.02383317          163 
 4360000   0.57516661   -6.1466614    1315.7821   0.02514874  0.023826188          128 
 4361000   0.55379772   -6.1408637      1315.02   0.02512841  0.023819198          184 
 4362000   0.55442906   -6.1651875    1314.9027  0.025120409  0.023812226          132 
 4363000   0.56445196   -6.1653637    1314.0781  0.025098901  0.023805241          191 
 4364000   0.56363872   -6.1605355     1314.047  0.025092556  0.023798251          130 
 4365000   0.56418537   -6.1517274    1317.9989  0.025162254  0.023791277           93 
 4366000    0.5653583   -6.1470784    1315.7463  0.025113496  0.023784329          139 
 4367000   0.55094006   -6.1675868    1315.5365  0.025103741  0.023777356          101 
 4368000   0.55723283   -6.1803424    1317.2711  0.025131087  0.023770377          172 
 4369000    0.5515704   -6.1512961    1316.0004  0.025101098  0.023763407          157 
 4370000   0.55316416   -6.1479462    1316.8704  0.025111945  0.023756436           57 
 4371000   0.55796951    -6.144824     1315.746  0.025084764  0.023749471          146 
 4372000   0.54670933   -6.1496757    1315.3022  0.025070566  0.023742504          125 
 4373000    0.5626318   -6.1538437     1316.111  0.025080246  0.023735539          147 
 4374000   0.55202201    -6.149965    1314.3697  0.025041337   0.02372856          103 
 4375000    0.5532185   -6.1700693    1313.4478  0.025018054  0.023721577           98 
 4376000   0.54906406   -6.1738826     1316.277  0.025066214  0.023714618          172 
 4377000   0.55294043   -6.1560229    1315.3201  0.025042268  0.023707655          112 
 4378000   0.55840482   -6.1676032    1313.1124  0.024994526  0.023700686           56 
 4379000   0.54724945   -6.1686796    1316.2711  0.025048928  0.023693712           42 
 4380000   0.55785175   -6.1669368    1316.0187  0.025038407   0.02368675           53 
 4381000   0.54691114   -6.1691664    1314.0067  0.024994422  0.023679784           61 
 4382000   0.55506838   -6.1651348    1314.8578  0.025004903  0.023672823           35 
 4383000   0.54608837   -6.1419099     1316.789  0.025035916  0.023665873           37 
 4384000   0.55254443   -6.1626679    1315.5015  0.025005731  0.023658927           36 
 4385000   0.54007473    -6.166295    1314.0888  0.024973181  0.023651984           28 
 4386000   0.54629811   -6.1462002    1315.6155  0.024996495  0.023645032           28 
 4387000   0.55957303   -6.1664172    1315.8131   0.02499455  0.023638102           26 
 4388000   0.54744077   -6.1753887    1316.4929  0.025001765  0.023631168           29 
 4389000   0.55401484   -6.1495025    1317.9096  0.025022966  0.023624245           22 
 4390000   0.55576588    -6.156152    1315.0987  0.024963908  0.023617328           52 
 4391000   0.54612213   -6.1570364    1317.3463  0.025000878  0.023610393          101 
 4392000    0.5430868    -6.163991    1316.1107  0.024971743  0.023603487          114 
 4393000   0.55422906   -6.1660851    1313.5697  0.024917855  0.023596567           32 
 4394000   0.54791098   -6.1652758    1313.7381  0.024915378   0.02358967           17 
 4395000   0.55606758   -6.1521528    1316.0856  0.024954221  0.023582778           33 
 4396000   0.54793417   -6.1614174    1315.4047  0.024935637  0.023575879           26 
 4397000   0.54339487     -6.17182    1315.6625  0.024934852  0.023568977           30 
 4398000   0.54937717   -6.1847413    1316.1858  0.024939098  0.023562037           42 
 4399000   0.54973811    -6.168422    1315.8201  0.024926501  0.023555109           36 
 4400000   0.55305499   -6.1696116    1314.9053   0.02490351  0.023548176           25 
 4401000   0.55614663   -6.1683322    1315.2437  0.024904259  0.023541255           22 
 4402000   0.54139002   -6.1734246    1315.8571  0.024910213  0.023534343           22 
 4403000   0.55142301   -6.1717949    1314.8784  0.024886033  0.023527433           26 
 4404000   0.56500891   -6.1624051     1312.144  0.024828641  0.023520531           43 
 4405000   0.53544571   -6.1782619    1313.8075  0.024854474  0.023513608           42 
 4406000   0.53740919   -6.1642972    1316.1947  0.024893984   0.02350669           41 
 4407000    0.5454021   -6.1915023    1314.6597  0.024859309  0.023499771          106 
 4408000   0.55451109   -6.1686332    1315.6682  0.024872736  0.023492847          127 
 4409000   0.54475527   -6.1782671    1315.9944  0.024873259  0.023485919           91 
 4410000    0.5432184   -6.1648649    1314.1422  0.024832619  0.023479009           56 
 4411000   0.55308118   -6.1666184    1313.5393    0.0248156  0.023472085           57 
 4412000   0.54525842   -6.1691451    1315.2457  0.024842204  0.023465189           41 
 4413000   0.53211543   -6.1807133    1314.5512   0.02482346  0.023458284           69 
 4414000   0.54813863    -6.179669    1316.6118   0.02485674  0.023451388           57 
 4415000   0.54833761   -6.1607169     1315.851   0.02483675  0.023444483           50 
 4416000   0.54454195   -6.1595271    1312.4973  0.024767838  0.023437595           20 
 4417000   0.53943009   -6.1815539    1316.0784  0.024829793  0.023430709           37 
 4418000   0.54704742   -6.1660456    1316.2078  0.024826615  0.023423818           40 
 4419000   0.53928142   -6.1550692    1315.0869  0.024799859  0.023416929           45 
 4420000   0.54076376     -6.16017    1316.8532  0.024827549  0.023410043           47 
 4421000    0.5513798   -6.1685817    1313.6686  0.024761905  0.023403157           83 
 4422000   0.55387123    -6.167186    1315.1843   0.02478487  0.023396263           37 
 4423000   0.54766489   -6.1555698    1313.3914  0.024745486  0.023389391           43 
 4424000   0.54273116    -6.163727    1315.2258  0.024774446  0.023382517           31 
 4425000   0.54146408   -6.1818018    1314.6997  0.024758939  0.023375628           67 
 4426000    0.5391744   -6.1781053    1311.4643   0.02469243  0.023368744           39 
 4427000   0.52517065   -6.2003201    1316.0133  0.024772481  0.023361842           41 
 4428000   0.52850342   -6.1774304    1315.2865  0.024753209  0.023354962           33 
 4429000   0.54637305   -6.1611794    1314.0872  0.024725055  0.023348078           22 
 4430000   0.54173612   -6.1959996    1311.9249  0.024678797  0.023341188           37 
 4431000   0.54563922   -6.2022354    1312.3727   0.02468165  0.023334294           41 
 4432000   0.53191759   -6.1787799    1312.3003   0.02467472   0.02332741           27 
 4433000   0.54321923   -6.1836368    1314.2215  0.024705269  0.023320544           21 
 4434000   0.54824223   -6.1796869    1311.3356   0.02464546  0.023313658           23 
 4435000   0.54400986   -6.1942901    1313.7026  0.024684379  0.023306783           39 
 4436000   0.54038383   -6.1731505    1314.7464  0.024698422   0.02329991           41 
 4437000   0.54141825   -6.1694967    1316.5068  0.024725918  0.023293044           38 
 4438000   0.53953184   -6.1649409    1313.5869  0.024665519  0.023286182           24 
 4439000   0.54240595   -6.1686933    1312.1845  0.024633636  0.023279335           32 
 4440000   0.53725779   -6.1532545    1316.3153  0.024705618  0.023272498           39 
 4441000   0.56232644   -6.1840898    1312.2713   0.02462417  0.023265654           32 
 4442000   0.55337222   -6.1916741    1312.8643  0.024629753  0.023258807           23 
 4443000   0.53654893   -6.1775504    1314.4195  0.024653378  0.023251972           29 
 4444000   0.54381248    -6.172167    1314.9797  0.024658335  0.023245144           25 
 4445000    0.5294448   -6.1766103    1313.9919  0.024634269  0.023238299           34 
 4446000   0.54312322   -6.1787002    1316.3268  0.024672492  0.023231475           26 
 4447000    0.5439865    -6.179659    1312.5805  0.024596741  0.023224636           17 
 4448000    0.5503936    -6.179031    1314.2373  0.024622251  0.023217781           30 
 4449000   0.55312831   -6.1908303    1310.3986  0.024544815  0.023210952           42 
 4450000   0.55545534   -6.1865432    1315.9135  0.024642575   0.02320411           39 
 4451000   0.53769768    -6.187394    1315.2554  0.024624717  0.023197271           27 
 4452000   0.54851861   -6.1852061    1313.1202  0.024579219  0.023190443           26 
 4453000   0.54451341   -6.1862765    1313.7244  0.024585006  0.023183592           39 
 4454000   0.53719291   -6.1871628    1311.1925  0.024532114  0.023176742           95 
 4455000   0.54991348   -6.2132502    1315.2841  0.024603144  0.023169915           76 
 4456000   0.53674613   -6.1852251    1312.8568  0.024552229  0.023163089           71 
 4457000   0.54619378   -6.1665333    1314.9202    0.0245853  0.023156261           50 
 4458000   0.54346111   -6.1796231    1312.2112  0.024529145  0.023149448           36 
 4459000   0.54331198     -6.18001    1312.5457  0.024529896  0.023142639           29 
 4460000   0.53783493   -6.1744815    1314.8346  0.024567163   0.02313581           46 
 4461000   0.53970043   -6.1844254    1315.6859   0.02457756  0.023129003           81 
 4462000   0.52546226   -6.1757393    1315.9452  0.024576894   0.02312221           53 
 4463000   0.53345516   -6.1776307    1315.4188  0.024561558  0.023115426           52 
 4464000   0.53450935   -6.1822185    1313.1328   0.02451338  0.023108666           73 
 4465000   0.54286444   -6.1842437    1315.5785  0.024553536  0.023101897           59 
 4466000   0.53407371   -6.1818388    1312.9949  0.024499831  0.023095129           92 
 4467000   0.53200184   -6.1899011    1316.2741  0.024555521  0.023088349           44 
 4468000   0.54373371   -6.1791051    1316.6656  0.024557326  0.023081587           34 
 4469000   0.54030656   -6.1844667     1314.504  0.024511525   0.02307483           32 
 4470000   0.52903653   -6.1835827     1315.803  0.024530258  0.023068067           43 
 4471000   0.53938311   -6.1571615    1315.0772  0.024511243   0.02306131           42 
 4472000    0.5400109   -6.1772679    1315.4208  0.024512165   0.02305454           30 
 4473000   0.54555026   -6.1969074    1314.0234   0.02448065  0.023047758           24 
 4474000   0.52433551   -6.1832149    1313.9262  0.024473368  0.023040975           45 
 4475000   0.53969302   -6.1665022     1316.544  0.024516649  0.023034215           26 
 4476000     0.546981   -6.1830194    1314.3951  0.024471164  0.023027463           39 
 4477000   0.53067027   -6.1699983    1316.5044  0.024504958  0.023020696           39 
 4478000   0.52856456   -6.1868428    1315.9277  0.024488754  0.023013942           62 
 4479000   0.53678872   -6.1755114    1316.3085  0.024490372  0.023007205           75 
 4480000   0.53574316   -6.1771871    1317.2866  0.024503098   0.02300046           51 
 4481000   0.53177116   -6.1926226    1315.3286  0.024461217  0.022993725           55 
 4482000   0.54854501   -6.1784353    1313.8076  0.024427481  0.022986956           78 
 4483000   0.52841853    -6.191143    1313.0384  0.024407733  0.022980182           60 
 4484000    0.5494574   -6.1761213    1319.4669   0.02452176  0.022973414           79 
 4485000   0.53105349    -6.189763    1312.7579  0.024391636  0.022966649           36 
 4486000   0.53905716   -6.1877349     1314.401  0.024416723  0.022959897           64 
 4487000   0.53288318   -6.1743836    1312.9902   0.02438508  0.022953147           54 
 4488000   0.52978761   -6.1764029    1312.7227  0.024374679  0.022946399           38 
 4489000    0.5330948   -6.1816008    1312.2924  0.024361262  0.022939645           97 
 4490000   0.54049938   -6.1876212    1314.9229  0.024404657  0.022932889           50 
 4491000   0.53532667   -6.2069763     1315.259   0.02440546  0.022926131           53 
 4492000   0.53369038   -6.2024672    1315.0865  0.024396826  0.022919363          119 
 4493000   0.53476497   -6.1910617    1315.1251  0.024392112  0.022912611           57 
 4494000   0.53174735   -6.2062954    1311.7078  0.024323316  0.022905852           28 
 4495000   0.55082478   -6.1927192    1312.7301  0.024336857  0.022899099           58 
 4496000   0.52677197   -6.2016271    1313.9848  0.024354701  0.022892347           59 
 4497000   0.53026013   -6.2152329    1314.0303  0.024350128  0.022885609           32 
 4498000   0.52244884    -6.205102    1313.6047  0.024336829  0.022878868           57 
 4499000   0.53027467   -6.2025211    1313.3127  0.024326011  0.022872126           42 
 4500000   0.52736824   -6.2180286    1312.3665  0.024303083  0.022865411           50 
 4501000   0.53294085   -6.1933339     1314.561  0.024338314  0.022858679           76 
 4502000   0.53148211   -6.1783299     1314.191  0.024326059  0.022851967           55 
 4503000   0.53060745   -6.1958541    1314.0181  0.024317456  0.022845247           62 
 4504000   0.52429004    -6.191374    1314.7836   0.02432622  0.022838525          108 
 4505000    0.5232559   -6.2298752    1312.3103  0.024275069  0.022831789           71 
 4506000   0.52591166   -6.2082932      1312.47  0.024272637  0.022825068           41 
 4507000   0.52369466   -6.2118899     1314.721  0.024308872   0.02281835           58 
 4508000   0.52900053   -6.1937952    1311.4004  0.024242095  0.022811631           82 
 4509000     0.527341   -6.2046299    1311.9688  0.024247223  0.022804906          124 
 4510000   0.51926136   -6.2010232    1313.4686   0.02426956  0.022798201          100 
 4511000   0.52957304   -6.2268882    1311.5546  0.024228822  0.022791477           67 
 4512000   0.53443713   -6.2108986    1315.4119  0.024294695  0.022784752          178 
 4513000   0.52119485   -6.2085539    1315.4707  0.024290397  0.022778053          104 
 4514000   0.52622576   -6.1976199    1315.2946  0.024281764  0.022771355           39 
 4515000   0.53940116   -6.2000731    1314.0192  0.024252846  0.022764663           60 
 4516000   0.53183935   -6.2146889    1315.4102  0.024273144  0.022757965           55 
 4517000   0.51166799   -6.2010332    1313.3771  0.024230262  0.022751283           41 
 4518000   0.52615454    -6.204262    1311.9578  0.024198719  0.022744585           47 
 4519000   0.53147074   -6.2017974    1314.3093  0.024236729  0.022737881           87 
 4520000   0.53650322   -6.2214903    1313.1273  0.024209573  0.022731171           59 
 4521000    0.5344549   -6.1983231    1315.5538  0.024248946  0.022724477           48 
 4522000   0.52170359   -6.2269469    1316.5191  0.024261373  0.022717802           36 
 4523000   0.52885389   -6.2069613    1313.3276  0.024197206  0.022711116           88 
 4524000   0.53562229   -6.2018435      1313.12  0.024188035  0.022704433          124 
 4525000   0.53404173   -6.2136705    1313.5253  0.024190152  0.022697753          182 
 4526000    0.5171535   -6.2196877    1312.9383     0.024174  0.022691084          153 
 4527000   0.53807463   -6.2253895    1316.3578  0.024231607  0.022684401          170 
 4528000   0.52481983    -6.208189    1312.2192  0.024150089  0.022677719          133 
 4529000   0.50915906   -6.2239269    1313.4096   0.02416666  0.022671026           72 
 4530000   0.52325773   -6.2217815    1314.8818  0.024188408  0.022664319          137 
 4531000    0.5182355   -6.2175378     1313.195  0.024152046  0.022657621           71 
 4532000   0.52325896   -6.2253931    1313.8995   0.02415967  0.022650927          116 
 4533000   0.52322135   -6.2249313    1312.4815  0.024128273  0.022644232           84 
 4534000   0.54752146   -6.2254032     1312.337  0.024120295  0.022637542           87 
 4535000   0.51656897   -6.2188543    1310.5614  0.024082349  0.022630851          111 
 4536000   0.52384188   -6.2292163     1312.441  0.024111571  0.022624162          189 
 4537000   0.52448011   -6.2093242    1313.4686   0.02412513  0.022617489          136 
 4538000   0.53079825   -6.2092349    1313.2129  0.024115119  0.022610813          160 
 4539000   0.52258582   -6.2165555    1312.0683  0.024088792  0.022604125          258 
 4540000   0.52070519   -6.2136441    1313.0241   0.02410103  0.022597452          223 
 4541000    0.5316829   -6.2313291     1312.414  0.024084527  0.022590768          275 
 4542000   0.53751374   -6.1975737    1314.2786  0.024113434  0.022584098          287 
 4543000   0.54243155   -6.2229224    1311.0237  0.024048421  0.022577423          277 
 4544000   0.51875184   -6.2016758     1311.294  0.024048085   0.02257074          266 
 4545000   0.52006199   -6.2210358    1310.4175  0.024026724   0.02256407          272 
 4546000   0.52766269   -6.2380963    1313.6034   0.02407984  0.022557387          371 
 4547000   0.53157633    -6.227299    1311.8447  0.024042313  0.022550689          329 
 4548000   0.52345618   -6.2358013    1309.8927  0.024001259  0.022544006          378 
 4549000   0.52221866   -6.2384766    1310.9752  0.024015813  0.022537314          358 
 4550000   0.52252786   -6.2374288    1313.3057  0.024053218  0.022530609          393 
 4551000   0.52101538   -6.2487343    1311.3634  0.024012367  0.022523914          351 
 4552000   0.52985796   -6.2321124     1312.123  0.024020999  0.022517237          398 
 4553000   0.52308542    -6.230444    1311.5117  0.024004534  0.022510543          332 
 4554000    0.5255358   -6.2278393     1309.793  0.023967813  0.022503868          324 
 4555000   0.52191357   -6.2292723    1309.8662   0.02396389  0.022497198          402 
 4556000   0.53338812   -6.2148878    1314.1278  0.024036578  0.022490533          448 
 4557000    0.5199653   -6.2254123    1309.8331  0.023952767  0.022483863          311 
 4558000   0.52468442   -6.2058629     1310.625  0.023961989   0.02247721          467 
 4559000   0.52268801   -6.2261879    1311.7115  0.023976594  0.022470552          429 
 4560000   0.52048853   -6.2208498    1311.2025  0.023962035  0.022463892          373 
 4561000   0.52033559   -6.2248697    1312.9483  0.023988677  0.022457249          402 
 4562000   0.52884737    -6.199989    1314.0873  0.024004225  0.022450599          443 
 4563000     0.511773   -6.2455396    1309.4629   0.02391451  0.022443957          364 
 4564000    0.5278908   -6.2348298    1310.1936  0.023922612  0.022437298          450 
 4565000    0.5270868   -6.2340055    1310.9243  0.023930709  0.022430646          382 
 4566000    0.5196076   -6.2277868    1310.3517  0.023915018  0.022423996          440 
 4567000   0.52478174   -6.2345899    1311.0867  0.023923193  0.022417366          365 
 4568000   0.53022997   -6.2277918    1312.9859  0.023952604  0.022410748          353 
 4569000   0.52491504   -6.2251302    1315.8381  0.023999381  0.022404127          325 
 4570000   0.51699302   -6.2270229    1312.5338  0.023933876  0.022397515          379 
 4571000   0.53494419   -6.2369271    1311.7875  0.023915036  0.022390878          358 
 4572000   0.51504069   -6.2154824    1310.0241  0.023877664  0.022384236          339 
 4573000   0.52135132   -6.2088921    1311.3967  0.023897454  0.022377612          372 
 4574000   0.52368622   -6.2240604    1310.4146  0.023874336  0.022370992          465 
 4575000   0.51664219   -6.2327068     1313.793  0.023930656  0.022364361          370 
 4576000   0.51939558   -6.2327472    1310.8481  0.023871796  0.022357737          398 
 4577000    0.5177477   -6.2528924    1311.4255  0.023877094  0.022351112          459 
 4578000   0.51314102   -6.2441872    1310.1184  0.023848085  0.022344482          543 
 4579000   0.52731289   -6.2448451    1308.2908  0.023809615  0.022337849          514 
 4580000   0.53046457   -6.2483705    1308.6497  0.023810949  0.022331206          420 
 4581000   0.53379644   -6.2408922     1310.696  0.023842975  0.022324585          318 
 4582000   0.51044528   -6.2549685    1313.5921  0.023890443  0.022317947          485 
 4583000    0.5217451   -6.2314955    1312.3767   0.02386313  0.022311319          405 
 4584000   0.52100966   -6.2478197    1311.3639  0.023839512  0.022304693          368 
 4585000   0.51665832   -6.2322416    1311.8764  0.023843628   0.02229806          422 
 4586000    0.5164235   -6.2468429    1311.6799  0.023834858   0.02229144          293 
 4587000   0.50803944    -6.254625    1310.2121  0.023802995  0.022284796          420 
 4588000   0.51949157   -6.2486032    1310.1105  0.023795962  0.022278169          481 
 4589000   0.51648656   -6.2470988    1309.8901  0.023786775  0.022271527          495 
 4590000   0.50895613   -6.2496195     1311.461  0.023810112  0.022264899          482 
 4591000   0.51820273   -6.2423867    1311.1957  0.023800111  0.022258272          329 
 4592000    0.5138505   -6.2486423     1310.422  0.023780887  0.022251654          589 
 4593000   0.50762085   -6.2439168    1311.6284  0.023797597  0.022245047          494 
 4594000   0.52112405   -6.2426755    1310.7124  0.023775801  0.022238415          638 
 4595000   0.51098566   -6.2532368    1310.9211  0.023774413  0.022231802          506 
 4596000   0.51483293   -6.2509707     1311.988  0.023788584  0.022225187          525 
 4597000   0.51922182   -6.2503342    1308.3424  0.023717322  0.022218576          548 
 4598000    0.5130799   -6.2475324    1311.2011  0.023763976  0.022211972          577 
 4599000   0.51101615   -6.2463031    1311.3622  0.023761727  0.022205376          657 
 4600000   0.51039057   -6.2508609    1311.2229  0.023754038  0.022198783          661 
 4601000    0.5250103   -6.2470265    1309.4552  0.023716858  0.022192199          501 
 4602000   0.51363986   -6.2436381    1309.5774  0.023713918  0.022185619          614 
 4603000   0.52059616   -6.2633603     1310.822  0.023731298  0.022179025          493 
 4604000   0.51851099    -6.262655    1310.8426  0.023726517  0.022172442          532 
 4605000   0.51658062   -6.2544109    1308.0155  0.023670204  0.022165846          409 
 4606000   0.52302813   -6.2649779    1308.4151  0.023672295  0.022159231          397 
 4607000   0.51477919   -6.2461484    1310.6106  0.023706869  0.022152638          580 
 4608000   0.51644332   -6.2593249    1310.0956  0.023692412  0.022146054          628 
 4609000   0.51107421   -6.2424147    1311.9199  0.023720255  0.022139461          531 
 4610000   0.51329602   -6.2619945    1308.2639  0.023649021  0.022132859          470 
 4611000   0.51876563   -6.2541768     1311.284  0.023698475  0.022126263          436 
 4612000   0.51142906   -6.2539522    1308.7771  0.023648039  0.022119682          493 
 4613000   0.51706737   -6.2582192    1307.7929  0.023625133  0.022113092          505 
 4614000   0.51867307   -6.2672672    1308.0948  0.023625466  0.022106496          573 
 4615000   0.51900198     -6.27593    1310.4982  0.023663744  0.022099903          619 
 4616000   0.51468995   -6.2628235    1310.3459  0.023655869  0.022093302          618 
 4617000   0.51089802   -6.2725395    1307.0621  0.023591475  0.022086693          443 
 4618000   0.51457727    -6.270158    1310.6028   0.02365026  0.022080088          605 
 4619000   0.49613704   -6.2887767    1310.0037   0.02363433  0.022073485          579 
 4620000   0.50842951   -6.2903589    1308.8739  0.023608837  0.022066883          548 
 4621000   0.52053986    -6.271655     1306.911  0.023568329  0.022060291          633 
 4622000    0.5070331   -6.2798596     1308.892  0.023598947  0.022053712          655 
 4623000   0.51322381   -6.2755447    1309.4723  0.023604302  0.022047134          556 
 4624000   0.51337921   -6.2818204    1306.4895  0.023545442  0.022040552          387 
 4625000   0.50751033   -6.2564664    1307.3427  0.023555725  0.022033964          597 
 4626000   0.52234452   -6.2630905    1308.4397  0.023570394  0.022027387          619 
 4627000   0.51516511   -6.2599068     1308.226   0.02356145  0.022020813          422 
 4628000   0.50284694   -6.2617393    1307.9624  0.023551614  0.022014243          488 
 4629000   0.52002959   -6.2730288    1308.2236  0.023551228  0.022007676          675 
 4630000   0.51077888   -6.2701964    1308.6946  0.023554618  0.022001116          613 
 4631000   0.50764931    -6.279749    1308.9128  0.023553458  0.021994555          633 
 4632000   0.51088394   -6.2797519     1309.959  0.023567196  0.021987994          660 
 4633000   0.51851266   -6.2664868    1309.0588  0.023545917  0.021981434          645 
 4634000   0.49880828   -6.2622665    1309.6173  0.023550879  0.021974867          624 
 4635000   0.49956084   -6.2794636    1308.0387  0.023517416  0.021968302          767 
 4636000   0.51244102   -6.2812772    1307.1447  0.023496273  0.021961731          512 
 4637000   0.51660222   -6.2613289    1306.6005  0.023481426  0.021955174          698 
 4638000   0.50525879    -6.258073    1308.3556  0.023507898  0.021948616          688 
 4639000   0.50834082   -6.2773681    1311.0021  0.023550373  0.021942067          743 
 4640000   0.51762353   -6.2808509    1308.6195  0.023502505  0.021935509          798 
 4641000   0.50412055   -6.2753193     1304.677   0.02342665  0.021928941          774 
 4642000   0.50925907   -6.2682339     1309.078   0.02350061  0.021922379          680 
 4643000   0.50758408   -6.2694569    1309.3125  0.023499757  0.021915827          643 
 4644000   0.51164954   -6.2582576    1310.0551  0.023508024  0.021909286          706 
 4645000   0.51529395   -6.2744137    1308.4479  0.023474127  0.021902739          720 
 4646000   0.51342667   -6.2850906    1308.4162  0.023468506  0.021896204          693 
 4647000   0.51600305   -6.2606168    1307.9636   0.02345534  0.021889656          748 
 4648000      0.51485   -6.2716581    1307.4273   0.02344068  0.021883109          640 
 4649000   0.51390796   -6.2836319      1307.07  0.023429231  0.021876575          761 
 4650000   0.50870986   -6.2783995    1305.5167  0.023396357  0.021870053          707 
 4651000   0.50306654   -6.2734779    1307.4894  0.023426671  0.021863526          788 
 4652000   0.50729483   -6.2839387    1306.6631  0.023406834  0.021857008          680 
 4653000   0.50451923   -6.2770361    1307.9772  0.023425339  0.021850485          800 
 4654000   0.49981481    -6.276226     1308.484   0.02342938  0.021843963          851 
 4655000   0.50330715   -6.2879292    1307.0012  0.023397802  0.021837434          774 
 4656000   0.51816675   -6.2913099    1305.9291  0.023373587  0.021830899          786 
 4657000   0.50792947   -6.2946858    1306.1634  0.023372761  0.021824365          787 
 4658000   0.50211099    -6.277164    1308.0959  0.023402316  0.021817835          715 
 4659000   0.51142117   -6.2807779     1307.424  0.023385275  0.021811317          683 
 4660000    0.5051896    -6.288563    1307.0768  0.023374049  0.021804777          732 
 4661000   0.51368292   -6.3034826    1306.5488  0.023359594  0.021798236          747 
 4662000   0.50735365   -6.2766588    1305.6095  0.023337793  0.021791708          754 
 4663000   0.51077685   -6.3004806    1305.6751   0.02333396  0.021785179          820 
 4664000   0.50809561   -6.2784891    1307.8778  0.023368315  0.021778643          780 
 4665000   0.49783517   -6.2802363    1306.5932  0.023340357  0.021772131          836 
 4666000   0.51653648   -6.2867631    1305.0957   0.02330861  0.021765615          787 
 4667000   0.50187796   -6.2838799    1308.9573  0.023372567  0.021759096          786 
 4668000   0.49770562   -6.2944719    1304.4538  0.023287164  0.021752572          848 
 4669000   0.50576452   -6.2886888    1310.0011  0.023381187   0.02174605          821 
 4670000   0.50342125   -6.2752232    1309.0065  0.023358432  0.021739532          734 
 4671000   0.51705007   -6.2908321    1306.1987  0.023303338  0.021733031          761 
 4672000    0.5051552   -6.2714676    1307.8828  0.023328389   0.02172653          791 
 4673000   0.49556653   -6.3082258    1306.5805  0.023300172  0.021720029          771 
 4674000   0.49880276   -6.2850428    1303.9023  0.023247438  0.021713517          790 
 4675000   0.51078985   -6.2898222    1305.8125  0.023276515  0.021707013          737 
 4676000   0.50983319   -6.2996464    1305.8613  0.023272407    0.0217005          820 
 4677000   0.51500464   -6.2956274    1308.2277  0.023309595  0.021693992          805 
 4678000   0.49992091    -6.290111    1307.2028  0.023286355  0.021687481          699 
 4679000   0.50396347    -6.294455    1307.4566  0.023285898  0.021680971          795 
 4680000   0.50411502   -6.2959346    1308.5118  0.023299711  0.021674459          831 
 4681000   0.50348989   -6.2893452    1307.2163  0.023271672  0.021667956          766 
 4682000   0.50659448   -6.3008598    1305.8341  0.023242099  0.021661456          744 
 4683000   0.48982712   -6.3243379    1305.1615  0.023225168  0.021654942          804 
 4684000    0.5105629   -6.3291292    1303.7278  0.023194702  0.021648418          809 
 4685000   0.50401392   -6.3160214    1307.2438   0.02325229  0.021641921          811 
 4686000   0.49426624   -6.2850002    1307.8476  0.023258067  0.021635423          804 
 4687000   0.49256987   -6.3067523    1306.0757    0.0232216  0.021628909          777 
 4688000   0.50686672   -6.3043787    1306.6245  0.023226403  0.021622404          797 
 4689000   0.49653619   -6.2866422    1307.1677  0.023231104  0.021615901          773 
 4690000   0.50252181    -6.313067    1306.0363  0.023206047  0.021609394          805 
 4691000    0.5055567   -6.2988966    1306.5761  0.023210689  0.021602904          823 
 4692000   0.50233102   -6.3029586    1305.5105  0.023186816  0.021596422          745 
 4693000   0.49538356   -6.3017207    1305.0384  0.023173493  0.021589934          838 
 4694000   0.50105151   -6.2972713    1304.6731  0.023162071   0.02158344          849 
 4695000   0.50701085    -6.306402    1307.9503  0.023215306  0.021576947          834 
 4696000   0.49845897   -6.3000014    1307.1922  0.023196908  0.021570465          786 
 4697000   0.51078869   -6.3013696    1306.2938   0.02317603  0.021563982          834 
 4698000   0.49192969   -6.2992148    1306.1408  0.023168384  0.021557511          915 
 4699000   0.50523625   -6.3264123    1304.2101  0.023129213  0.021551036          822 
 4700000    0.5008833   -6.3062766    1305.8047  0.023152565  0.021544569          827 
 4701000   0.51339777   -6.3108916    1305.8461  0.023148374  0.021538103          825 
 4702000   0.50876256   -6.3064149    1304.5459  0.023120409   0.02153165          752 
 4703000   0.50963657   -6.3138375    1302.3841  0.023077186  0.021525173          859 
 4704000   0.49801166   -6.3153984    1305.6873  0.023130798  0.021518714          683 
 4705000   0.48924253   -6.3035856    1306.5725  0.023141561  0.021512243          763 
 4706000   0.49389153   -6.2794627    1305.3777  0.023115485  0.021505776          798 
 4707000   0.49819172   -6.3154819    1302.5897  0.023061216  0.021499309          854 
 4708000   0.49506143   -6.3118137    1305.5961  0.023109531  0.021492849          972 
 4709000   0.49645405   -6.3004506    1304.9586  0.023093343  0.021486398          813 
 4710000   0.49938871   -6.2768766    1306.3733   0.02311347  0.021479957          802 
 4711000   0.50213299   -6.2901064    1306.9815  0.023119322  0.021473528          869 
 4712000   0.49917273   -6.3021295    1306.4219  0.023104519  0.021467104          907 
 4713000   0.50305493    -6.274107    1304.0885  0.023058359  0.021460669          797 
 4714000   0.49651011   -6.3066353    1304.0512  0.023052806  0.021454238          883 
 4715000   0.49615633   -6.2846255    1304.4133  0.023054317  0.021447815          839 
 4716000   0.49496038    -6.289593    1305.7541  0.023073122  0.021441392          824 
 4717000   0.48918913   -6.3062927    1306.5325  0.023081982  0.021434972          716 
 4718000   0.50766703   -6.2965729    1304.6785  0.023044343  0.021428553          832 
 4719000   0.49220527   -6.2929176    1303.6077   0.02302055   0.02142212          716 
 4720000   0.47995309   -6.3057195    1305.3981  0.023047283  0.021415688          896 
 4721000   0.49916028   -6.3108892    1305.1265  0.023037607  0.021409261          736 
 4722000    0.4956354   -6.3074221    1305.5101  0.023039497  0.021402844          871 
 4723000    0.4939913   -6.3098981    1306.1219  0.023045415  0.021396423          824 
 4724000   0.48936702   -6.3169507    1304.6188   0.02301402  0.021390008          776 
 4725000   0.49966445   -6.3188566    1306.8496  0.023048494  0.021383605          701 
 4726000   0.50236206   -6.3118813    1306.3307  0.023034468  0.021377193          888 
 4727000   0.48495014   -6.3010565    1308.3406  0.023065028  0.021370783          754 
 4728000   0.49867884   -6.3048574    1306.0557  0.023019875  0.021364381          761 
 4729000   0.48701492   -6.3145425    1305.8388  0.023011186  0.021357976          823 
 4730000   0.49404888   -6.3055386    1304.2701  0.022978684  0.021351573          866 
 4731000   0.49338645   -6.3118649    1305.9371   0.02300319   0.02134516          870 
 4732000   0.47790193   -6.3076727    1304.8953  0.022979982  0.021338741          937 
 4733000   0.49252651   -6.3316356     1302.577  0.022934308  0.021332324          929 
 4734000   0.49373862   -6.3012504     1304.615   0.02296534  0.021325907          844 
 4735000   0.49732258   -6.3234101    1303.3398  0.022938047  0.021319497          961 
 4736000   0.49612466    -6.307109    1301.9354  0.022908492  0.021313092          830 
 4737000   0.49854823   -6.3118628    1305.3122   0.02296306  0.021306683          894 
 4738000   0.50113355   -6.3220336    1306.5266  0.022979572  0.021300281          987 
 4739000   0.49126397   -6.3040516    1306.3227  0.022971139  0.021293882          880 
 4740000   0.49890495   -6.3177779    1305.3573   0.02294932  0.021287484          859 
 4741000   0.51096122   -6.3277446    1303.3634  0.022909433  0.021281087          926 
 4742000   0.49572711   -6.3390897    1305.9786  0.022950559  0.021274699          808 
 4743000   0.49681255   -6.3301783    1304.0575  0.022911967  0.021268303          894 
 4744000   0.48780124   -6.3202476    1301.8852  0.022868979   0.02126191          966 
 4745000   0.49459158   -6.3362311    1303.5525   0.02289344  0.021255518          917 
 4746000   0.50115644   -6.3272844     1302.751  0.022874544  0.021249128          862 
 4747000   0.49634212   -6.3143888    1305.7118  0.022921701  0.021242746          938 
 4748000   0.49657548   -6.3300401    1304.2788  0.022891723  0.021236359          989 
 4749000   0.49392402   -6.3276156    1306.6152  0.022927901  0.021229979          987 
 4750000   0.48715523   -6.3323004    1302.5182  0.022851197  0.021223594          973 
 4751000   0.48980505   -6.3361702    1304.2643  0.022877013  0.021217218         1013 
 4752000   0.49780193    -6.326809     1302.111  0.022834438  0.021210836         1020 
 4753000   0.48507907   -6.3099555    1304.3479  0.022868854  0.021204459          922 
 4754000   0.48655612   -6.3176491    1303.0236  0.022840829   0.02119808          926 
 4755000   0.49513828   -6.3236511    1306.0172   0.02288849  0.021191702          980 
 4756000   0.49797318   -6.3112104    1303.3274  0.022836547  0.021185318          873 
 4757000    0.4981356   -6.3369697    1302.7616  0.022821834  0.021178942          981 
 4758000   0.50356678   -6.3328664    1302.5306  0.022812993  0.021172558          955 
 4759000   0.48354026   -6.3310097    1301.2488  0.022785753  0.021166188         1123 
 4760000   0.49103304   -6.3251159    1304.0272  0.022829608  0.021159826          976 
 4761000   0.50020339   -6.3192571    1303.2225  0.022810728  0.021153453         1038 
 4762000   0.49858185   -6.3426506    1303.0141   0.02280229  0.021147079          969 
 4763000   0.49159405   -6.3106728    1302.4656  0.022787907    0.0211407          962 
 4764000   0.49376155   -6.3269048    1302.9388  0.022791402  0.021134328          941 
 4765000   0.48760581   -6.3403225    1303.0882   0.02278923  0.021127952          986 
 4766000   0.49114285   -6.3484766    1302.3865  0.022772179  0.021121577          993 
 4767000   0.49444495   -6.3485401    1300.4997   0.02273442  0.021115212          947 
 4768000   0.48356996   -6.3538834    1301.6396  0.022749574  0.021108842          960 
 4769000   0.49088012   -6.3196886    1303.1235  0.022770733  0.021102478          933 
 4770000   0.48319318   -6.3338609    1304.1502  0.022783897  0.021096125         1007 
 4771000   0.47584517    -6.346006    1302.9299  0.022757806  0.021089765         1030 
 4772000    0.4716792   -6.3320934    1304.9436  0.022788202   0.02108341         1037 
 4773000   0.49867529   -6.3316221    1301.2541  0.022719012  0.021077057         1040 
 4774000   0.49635092   -6.3266845    1303.1244    0.0227469  0.021070705          967 
 4775000   0.48876626   -6.3438152    1304.1768  0.022760502   0.02106436         1016 
 4776000   0.47303407   -6.3460353    1300.8495   0.02269768   0.02105802         1061 
 4777000   0.48666317    -6.325916    1305.4943  0.022773956  0.021051673         1045 
 4778000   0.49330045   -6.3443719    1304.6916   0.02275519   0.02104533         1044 
 4779000   0.48121397   -6.3519685    1301.0525  0.022686972  0.021038988         1054 
 4780000   0.49751266   -6.3497816    1302.7714  0.022712193   0.02103265          954 
 4781000   0.48203305   -6.3323776     1304.132  0.022731157  0.021026314         1053 
 4782000   0.47675151   -6.3318483    1300.8891  0.022669893  0.021019988         1079 
 4783000   0.48665438   -6.3255448    1305.5391   0.02274617  0.021013659         1066 
 4784000   0.48006207   -6.3407943    1301.6959  0.022674469   0.02100733         1084 
 4785000    0.4788125   -6.3384906    1304.4981  0.022718532  0.021001009         1073 
 4786000   0.48759743   -6.3393736    1302.9274  0.022686437  0.020994687          957 
 4787000   0.48637056   -6.3376972    1304.6583  0.022711829  0.020988377         1013 
 4788000   0.49237667   -6.3336563    1303.0944  0.022679867   0.02098206         1102 
 4789000    0.4849655   -6.3411158    1301.5539  0.022648325  0.020975748         1048 
 4790000   0.48104128   -6.3343282    1301.4462  0.022641723  0.020969431         1031 
 4791000   0.48259278   -6.3200841    1303.4372  0.022671627  0.020963117          923 
 4792000   0.48273327    -6.332941    1302.7039  0.022654144  0.020956806         1052 
 4793000   0.48987843   -6.3535041     1302.455   0.02264509  0.020950492         1027 
 4794000   0.48512629   -6.3512839    1302.0483  0.022633297  0.020944183         1051 
 4795000   0.48331949   -6.3422693    1300.2165  0.022596741  0.020937871         1101 
 4796000   0.48079798   -6.3525168    1303.4966  0.022649023  0.020931567         1047 
 4797000   0.49100066   -6.3457829    1303.5538  0.022645295   0.02092526         1043 
 4798000   0.49500473   -6.3453321    1302.3709  0.022620031  0.020918959         1063 
 4799000   0.47725215   -6.3557242    1300.3945  0.022580998  0.020912653         1156 
 4800000   0.48383023   -6.3463808    1301.0384  0.022587472  0.020906348         1149 
 4801000   0.49053379   -6.3564698    1300.9385  0.022581034  0.020900045         1128 
 4802000   0.48338564   -6.3665555     1302.794  0.022608531  0.020893742         1146 
 4803000   0.47535354   -6.3546209    1301.5305  0.022581902  0.020887436         1201 
 4804000   0.47235988    -6.354438     1301.718  0.022580454  0.020881127         1256 
 4805000    0.4953961   -6.3324427    1301.9149   0.02257917  0.020874828         1085 
 4806000   0.48983438    -6.350233    1300.7528  0.022554321  0.020868547         1120 
 4807000   0.48755404   -6.3517663    1302.0958  0.022572912  0.020862261         1264 
 4808000   0.48598375   -6.3365568    1303.3893  0.022590635  0.020855962         1183 
 4809000   0.49010713   -6.3548886    1302.2723  0.022566581  0.020849684         1165 
 4810000   0.49454927   -6.3477845    1304.0231  0.022592223  0.020843405         1189 
 4811000   0.47233968   -6.3483627    1302.7823  0.022566034   0.02083713         1245 
 4812000   0.48232913   -6.3638876    1303.3934  0.022571929  0.020830855         1177 
 4813000   0.48190254   -6.3430264    1301.2133  0.022529491  0.020824574         1139 
 4814000   0.48001104   -6.3473864    1302.6101  0.022548992  0.020818305         1231 
 4815000   0.47857363   -6.3626048    1301.4355  0.022523978  0.020812041         1275 
 4816000   0.48017427   -6.3286962    1302.7863  0.022542676  0.020805783         1352 
 4817000   0.48554301   -6.3664523    1300.7469  0.022502715   0.02079952         1474 
 4818000    0.4761922   -6.3570299    1301.3085  0.022507757  0.020793257         1368 
 4819000   0.48289352   -6.3362641    1301.1068  0.022499599  0.020786992         1378 
 4820000   0.48431191   -6.3460175    1299.5286  0.022467645  0.020780734         1331 
 4821000   0.47622012   -6.3595199    1302.2819  0.022510576  0.020774475         1296 
 4822000   0.47624443   -6.3600326    1300.4243  0.022473805  0.020768219         1319 
 4823000   0.48615628   -6.3404539    1302.7494  0.022509319  0.020761971         1358 
 4824000   0.49340271   -6.3478743    1304.2313  0.022530253  0.020755722         1356 
 4825000   0.47589109   -6.3634024    1300.4247  0.022459839  0.020749477         1293 
 4826000   0.47833963   -6.3534917    1301.1652  0.022467971  0.020743223         1358 
 4827000   0.47606261   -6.3603029    1301.0871  0.022461969  0.020736977         1416 
 4828000   0.48538758   -6.3625156    1303.0383  0.022490995  0.020730731         1335 
 4829000   0.47754746   -6.3616394    1300.5598  0.022443566  0.020724487         1409 
 4830000    0.4803503   -6.3507105    1304.4387  0.022505844  0.020718253         1356 
 4831000   0.47259124   -6.3491785    1304.6369  0.022504604  0.020712017         1286 
 4832000   0.47783292   -6.3511716    1303.4613  0.022479673  0.020705779         1268 
 4833000   0.47727462   -6.3630394    1302.4367  0.022457354  0.020699546         1324 
 4834000   0.47883001   -6.3510466    1304.1309  0.022481914  0.020693307         1326 
 4835000   0.46537382   -6.3550424      1300.92  0.022421924  0.020687091         1324 
 4836000   0.47866583   -6.3503434    1301.8366  0.022433082  0.020680872         1360 
 4837000   0.48228053   -6.3570575    1299.0627  0.022380654  0.020674646         1324 
 4838000   0.47173539    -6.367416    1301.0457  0.022410184  0.020668418         1461 
 4839000   0.47936694   -6.3519422    1300.7975  0.022401279  0.020662193         1386 
 4840000   0.47802502   -6.3668371    1303.2331  0.022438586  0.020655975         1414 
 4841000   0.46069135    -6.348418    1303.9997  0.022447148  0.020649758         1481 
 4842000   0.48149029   -6.3616985    1301.3335  0.022396625  0.020643546         1461 
 4843000   0.46546964   -6.3601832    1302.4038  0.022410417  0.020637331         1452 
 4844000   0.48034769   -6.3510043    1304.4596  0.022441158  0.020631119         1407 
 4845000   0.48014011   -6.3547139    1300.2284   0.02236375  0.020624898         1474 
 4846000   0.47092259   -6.3749506    1300.6697  0.022366723  0.020618678         1380 
 4847000   0.47546759   -6.3691874    1300.7279  0.022363109  0.020612463         1416 
 4848000   0.47451958   -6.3627444    1298.5595  0.022321223  0.020606242         1377 
 4849000   0.47798345   -6.3743227    1301.1794  0.022361646  0.020600027         1445 
 4850000    0.4714715   -6.3609779    1302.5978  0.022381405  0.020593814         1417 
 4851000   0.46961167   -6.3626712    1300.5112  0.022340946    0.0205876         1416 
 4852000   0.47712915   -6.3660073    1300.8865  0.022342789  0.020581379         1410 
 4853000   0.48160459   -6.3654774    1300.1232  0.022325078  0.020575165         1517 
 4854000   0.46599702   -6.3741668    1301.9439  0.022351736  0.020568952         1534 
 4855000   0.47553017   -6.3701102    1300.6299  0.022324578  0.020562738         1562 
 4856000   0.48151606   -6.3801347    1298.9974  0.022291964  0.020556526         1512 
 4857000    0.4741769     -6.37558    1300.7229   0.02231698  0.020550315         1559 
 4858000   0.47968552   -6.3799077    1301.3959  0.022323931   0.02054411         1490 
 4859000   0.47198475   -6.3686662    1300.8206  0.022309471   0.02053791         1541 
 4860000    0.4722208   -6.3754259    1298.0104  0.022256695  0.020531704         1581 
 4861000   0.47527377   -6.3651267    1300.5599  0.022295822    0.0205255         1550 
 4862000   0.47361175   -6.3836297    1298.8363  0.022261694  0.020519303         1645 
 4863000   0.47620888   -6.3810807    1299.2378  0.022263998   0.02051311         1558 
 4864000   0.47589952   -6.3632575    1299.0807  0.022256728  0.020506914         1653 
 4865000   0.47082539   -6.3828379    1299.8805  0.022265854  0.020500717         1579 
 4866000   0.48077308    -6.375417    1300.9933  0.022280335  0.020494518         1566 
 4867000   0.46702076   -6.3689241    1300.0145  0.022258998  0.020488328         1633 
 4868000    0.4797045   -6.3726715     1301.266   0.02227585  0.020482142         1681 
 4869000   0.48074115   -6.3710848    1300.8942  0.022264911  0.020475953         1624 
 4870000   0.47964628   -6.3709455    1300.6519  0.022256193  0.020469766         1648 
 4871000   0.47332962   -6.3611056    1301.4207  0.022264777  0.020463586         1589 
 4872000   0.47143265   -6.3659403    1302.1944  0.022273439  0.020457411         1631 
 4873000   0.47772603   -6.3706363    1298.2668  0.022201704  0.020451233         1754 
 4874000   0.47174391   -6.3796367    1300.0872  0.022228273  0.020445052         1641 
 4875000    0.4648322    -6.367062     1297.538  0.022180137  0.020438871         1698 
 4876000    0.4834886   -6.3774695    1298.9272  0.022199329  0.020432692         1744 
 4877000   0.47650158   -6.3628992    1299.4477  0.022203672  0.020426523         1651 
 4878000   0.46380589   -6.3926538    1298.2479  0.022178624  0.020420357         1698 
 4879000   0.46734291   -6.3731743    1299.8073  0.022200713  0.020414187         1606 
 4880000   0.47104108   -6.3721744    1300.3418  0.022205291  0.020408021         1696 
 4881000   0.46033936    -6.374158    1298.1866  0.022163946  0.020401858         1661 
 4882000   0.46334594    -6.387264    1298.6264  0.022166913  0.020395689         1648 
 4883000   0.47013043   -6.3699153    1301.5876  0.022212909  0.020389523         1640 
 4884000   0.46274377   -6.3818382    1299.1965  0.022167562  0.020383367         1668 
 4885000   0.46967965   -6.3645412    1300.0174  0.022177029  0.020377211         1677 
 4886000   0.47018068   -6.3771468    1299.7535  0.022167988  0.020371041         1704 
 4887000   0.46911102   -6.3684259    1299.3024   0.02215576  0.020364882         1730 
 4888000   0.45792706   -6.4000647    1299.9881  0.022162918  0.020358725         1704 
 4889000   0.47031393   -6.3778776     1299.193  0.022144832  0.020352566         1615 
 4890000   0.46876866   -6.3875018    1298.8681  0.022134767  0.020346411         1626 
 4891000   0.48268328   -6.3684629    1299.9013  0.022147845  0.020340264         1547 
 4892000    0.4646823    -6.390914    1297.9007  0.022109237  0.020334116         1711 
 4893000   0.47415145   -6.3758283    1298.1955  0.022109739  0.020327968         1724 
 4894000   0.47574537   -6.3857832    1298.2191  0.022105625  0.020321825         1765 
 4895000   0.47602575   -6.3966354    1299.4403  0.022121899  0.020315679         1710 
 4896000     0.465054   -6.3890857    1299.0823  0.022111287  0.020309541         1666 
 4897000    0.4675029    -6.380611    1298.3431  0.022094192  0.020303407         1644 
 4898000   0.45614487   -6.3922329    1299.8152  0.022114727  0.020297277         1736 
 4899000   0.45800355   -6.3933663    1298.9323  0.022095195  0.020291139         1687 
 4900000   0.46501964   -6.3700872    1299.7513  0.022104614  0.020285011         1713 
 4901000   0.46990338   -6.3858171    1298.7207   0.02208258   0.02027888         1721 
 4902000   0.46471755    -6.396526    1299.2984  0.022087896  0.020272755         1596 
 4903000   0.46685906   -6.3883315    1299.4937   0.02208671   0.02026663         1799 
 4904000   0.46731113   -6.3707935    1297.8829  0.022054834  0.020260498         1680 
 4905000   0.47132795   -6.3917212    1299.0065  0.022069428  0.020254371         1714 
 4906000   0.46125059   -6.3845075    1300.7177  0.022093996  0.020248253         1774 
 4907000   0.46938465   -6.3779993    1298.6748  0.022054799   0.02024213         1756 
 4908000   0.47069296   -6.3926445    1297.5553  0.022031298  0.020236009         1827 
 4909000   0.46300556   -6.3901263     1298.249  0.022038585  0.020229891         1762 
 4910000   0.46909858   -6.4034971    1298.4025  0.022036702   0.02022377         1719 
 4911000   0.46089351   -6.3994227    1298.4628  0.022033238  0.020217649         1836 
 4912000   0.47711113   -6.3792352    1300.9535  0.022071008  0.020211538         1868 
 4913000   0.47033673   -6.3967622    1297.3162   0.02200482  0.020205423         1723 
 4914000   0.46052063   -6.3959399    1295.9275  0.021976792  0.020199304         1915 
 4915000   0.45748348   -6.3917765    1297.5466  0.021999773  0.020193194         1844 
 4916000   0.46472178   -6.3934518    1297.7285  0.021998381  0.020187085         1931 
 4917000   0.45976556   -6.3932686    1297.6259  0.021992168  0.020180978         1797 
 4918000   0.46524419   -6.3885079    1297.8116  0.021990842  0.020174877         1840 
 4919000   0.46995755   -6.4094712    1298.2004  0.021992959  0.020168775         1871 
 4920000   0.46419452   -6.3987953    1297.6048  0.021978401  0.020162671         1886 
 4921000   0.46531831   -6.3950067     1298.307  0.021985826  0.020156566         1870 
 4922000   0.47199635   -6.4025557    1298.1424  0.021978572  0.020150467         1844 
 4923000   0.46250167   -6.3902816     1299.212  0.021992213  0.020144373         1784 
 4924000   0.45739794   -6.3807239    1297.0739  0.021951563  0.020138273         1838 
 4925000   0.47241414   -6.4052415    1297.5846  0.021955746  0.020132182         1835 
 4926000   0.45660457    -6.401176    1299.2458  0.021979392  0.020126088         1753 
 4927000   0.46085369   -6.4008404    1299.3237  0.021976248  0.020119997         1823 
 4928000   0.46347651   -6.3993026    1297.6255  0.021943072  0.020113905         1770 
 4929000   0.46003521   -6.4009223    1296.8674  0.021925803  0.020107817         1735 
 4930000   0.46477415   -6.3865358    1299.4062   0.02196427  0.020101734         1733 
 4931000   0.45810029   -6.3983607    1297.4941  0.021927501  0.020095657         1872 
 4932000   0.46510479   -6.4206934    1297.4806  0.021922827  0.020089576         1861 
 4933000   0.46204911     -6.39074    1296.6384  0.021904156  0.020083493         1848 
 4934000   0.46326806   -6.4249137     1297.807  0.021919453  0.020077412         1950 
 4935000   0.47240129   -6.4128962    1298.5073  0.021926838  0.020071332         1823 
 4936000   0.45644533   -6.3953004    1297.0096   0.02189711  0.020065257         1833 
 4937000   0.46122814   -6.3916982    1296.5055  0.021884165  0.020059179         1809 
 4938000   0.46605223   -6.3961593    1298.1947  0.021908241  0.020053107         1796 
 4939000   0.46450126   -6.4074952    1300.0148  0.021934514  0.020047036         1811 
 4940000   0.46120069   -6.3953584    1296.9216  0.021877895  0.020040967         1815 
 4941000   0.46119862   -6.3872609    1297.7872  0.021888065  0.020034903         1753 
 4942000   0.46796322   -6.4039778    1296.1616  0.021856226  0.020028837         1859 
 4943000   0.46620747   -6.3967836    1296.2882  0.021853938  0.020022773         1822 
 4944000   0.45904552   -6.4273674    1296.1833  0.021847749  0.020016708         1705 
 4945000    0.4580547   -6.4031576     1296.158  0.021842905  0.020010644         1882 
 4946000   0.46348966   -6.4037623    1297.0812  0.021854044  0.020004584         1717 
 4947000   0.45806381   -6.4148751    1296.2197  0.021835114  0.019998525         1770 
 4948000   0.45733083    -6.408474    1298.4206  0.021867769  0.019992475         1795 
 4949000   0.46028959   -6.4143627    1295.7906  0.021819064  0.019986423         1819 
 4950000   0.46289021   -6.3974598    1295.5453  0.021810527  0.019980375         1837 
 4951000   0.44964438   -6.4151532    1295.4306  0.021804191  0.019974328         1860 
 4952000   0.45880512   -6.4185411    1296.6798   0.02182081  0.019968273         1838 
 4953000   0.46153254   -6.4128049    1294.1317  0.021773534  0.019962223         1877 
 4954000   0.45521584   -6.4048924    1295.1191  0.021785747  0.019956186         1830 
 4955000   0.46040093   -6.4127754    1295.0556  0.021780283  0.019950152         1803 
 4956000      0.46826   -6.3992661    1298.8757  0.021840121  0.019944117         1802 
 4957000     0.459113   -6.4148541    1297.1537  0.021806767  0.019938084         1824 
 4958000   0.45648628   -6.4053118    1300.1604  0.021852904  0.019932053         1818 
 4959000    0.4622201   -6.3889569    1299.6046  0.021839157  0.019926023         1765 
 4960000   0.45933307   -6.4027469    1296.3844  0.021780651  0.019919995         1829 
 4961000   0.47477613   -6.4159375    1294.5572  0.021745569   0.01991396         1862 
 4962000   0.46369815   -6.4146697    1296.2211   0.02176913   0.01990793         1872 
 4963000   0.45958002   -6.4338138    1294.3325  0.021733033  0.019901894         1834 
 4964000   0.45356209   -6.4130291    1293.7981  0.021719683  0.019895862         1773 
 4965000     0.459845   -6.4131355    1297.2821  0.021773786  0.019889836         1805 
 4966000   0.46763222   -6.4100762    1297.1525  0.021767226  0.019883812         1813 
 4967000   0.45656524   -6.4154104    1298.0526  0.021777945  0.019877793         1846 
 4968000   0.45825484   -6.4161774    1295.6049  0.021732503  0.019871773         1884 
 4969000   0.45848011   -6.4194149    1294.1417  0.021703591  0.019865747         1894 
 4970000   0.44691623    -6.425452    1295.2128  0.021717183   0.01985973         1898 
 4971000   0.45994102   -6.4110796     1294.469  0.021700346  0.019853711         1924 
 4972000   0.46436685   -6.4192827    1295.9234  0.021720358  0.019847696         1843 
 4973000   0.46162726    -6.427272    1296.8283  0.021731152  0.019841681         1909 
 4974000   0.45643167    -6.423553    1294.5606  0.021688792  0.019835661         1912 
 4975000   0.46195641   -6.4084725    1295.3955  0.021698417   0.01982965         1856 
 4976000   0.45090632   -6.4228421    1297.5394  0.021729961  0.019823646         1916 
 4977000   0.45584915   -6.4236671    1296.1585  0.021702473  0.019817641         1830 
 4978000    0.4564886   -6.4155383    1294.8031  0.021675424  0.019811638         2013 
 4979000    0.4496289   -6.4292898    1294.4429  0.021665042  0.019805638         1953 
 4980000   0.45908014   -6.4050519    1294.5443  0.021662387  0.019799633         1844 
 4981000     0.462242   -6.4183352    1295.0756  0.021666928  0.019793637         1831 
 4982000   0.45839989   -6.4140794    1296.0615  0.021679069  0.019787636         1884 
 4983000    0.4566564     -6.41561    1295.7768  0.021669958  0.019781633         1836 
 4984000   0.46094069   -6.4314768    1296.5488  0.021678518  0.019775639         1939 
 4985000   0.45312647    -6.422961    1298.8562  0.021712742  0.019769644         1900 
 4986000   0.45812239   -6.4204179     1297.482  0.021685419  0.019763652         1875 
 4987000   0.45288551   -6.4208682    1295.6337  0.021650185   0.01975766         1915 
 4988000   0.46355146   -6.4198236    1294.1164  0.021620496  0.019751672         1908 
 4989000   0.46105566   -6.4343015    1293.6905  0.021609049  0.019745681         1963 
 4990000   0.46019812   -6.4128467    1295.8763   0.02164122  0.019739691         1920 
 4991000   0.44729619    -6.431653    1294.4892  0.021613725  0.019733708         1957 
 4992000   0.46457264   -6.4306261    1294.6611  0.021612265  0.019727724         2026 
 4993000    0.4624044   -6.4169835    1296.5092  0.021638782  0.019721744         1958 
 4994000   0.46052376   -6.4185267    1295.5489  0.021618424  0.019715769         1954 
 4995000   0.44816727    -6.438843    1293.6243  0.021581988  0.019709797         1953 
 4996000   0.44415967   -6.4356689    1293.5674  0.021576718  0.019703824         1909 
 4997000   0.46274419   -6.4256171    1295.2469  0.021600408  0.019697859         1934 
 4998000   0.45105607   -6.4259103    1294.2144  0.021578872  0.019691897         1934 
 4999000   0.44381232   -6.4168432    1296.2744  0.021608895  0.019685939         1916 
 5000000   0.45365879   -6.4390602    1297.0215  0.021617026  0.019679977         1985 
 5001000   0.45613217   -6.4244258    1296.3472  0.021601466  0.019674015         2021 
 5002000    0.4543136   -6.4341256    1293.5201  0.021550048  0.019668049         1995 
 5003000   0.45866775   -6.4454335    1294.8927  0.021568603  0.019662092         1992 
 5004000   0.44706651   -6.4310465    1294.8101  0.021562918  0.019656126         1991 
 5005000   0.45840936   -6.4273023    1295.1654  0.021564526  0.019650173         1938 
 5006000   0.46191584   -6.4247012    1294.9881  0.021557266  0.019644231         1973 
 5007000   0.44744269   -6.4368647    1294.6124  0.021546709  0.019638285         1941 
 5008000   0.45237432   -6.4315711    1296.2021  0.021568859  0.019632346         1994 
 5009000   0.45366441   -6.4251494    1293.3768  0.021517549  0.019626411         1981 
 5010000   0.44244021   -6.4293745    1295.5464  0.021549341  0.019620473         1931 
 5011000   0.44343096   -6.4352748    1296.5969  0.021562511  0.019614534         1939 
 5012000   0.45877322   -6.4287658    1296.9071  0.021563366  0.019608602         1957 
Loop time of 12863.1 on 48 procs for 5000000 steps with 4000 atoms

Performance: 67169.030 tau/day, 388.710 timesteps/s
99.4% CPU use with 48 MPI tasks x no OpenMP threads

MPI task timing breakdown:
Section |  min time  |  avg time  |  max time  |%varavg| %total
---------------------------------------------------------------
Pair    | 932.96     | 1003.2     | 1075.1     |  98.6 |  7.80
Neigh   | 87.853     | 90.702     | 93.725     |  15.1 |  0.71
Comm    | 802.08     | 885.08     | 968.19     | 120.0 |  6.88
Output  | 15.16      | 15.164     | 15.247     |   0.3 |  0.12
Modify  | 10709      | 10749      | 10773      |  16.8 | 83.56
Other   |            | 120.1      |            |       |  0.93

Nlocal:        83.3333 ave          92 max          78 min
Histogram: 4 3 10 9 6 12 1 2 0 1
Nghost:        2382.38 ave        2406 max        2364 min
Histogram: 1 2 10 7 12 8 2 3 2 1
Neighs:        16334.5 ave       18319 max       13731 min
Histogram: 1 3 6 5 6 3 8 6 4 6
FullNghs:      32668.6 ave       36202 max       30209 min
Histogram: 4 2 8 9 9 9 3 3 0 1

Total # of neighbors = 1568094
Ave neighs/atom = 392.02350
Neighbor list builds = 268491
Dangerous builds = 0

#clear
#
#next RN
#
#jump SELF
Total wall time: 3:34:26
