
units lj                  # Use reduced LJ style units
atom_style atomic         # Uncharged point particles
atom_modify map hash      # Needed for indexing of clusters etc
                          # Used to be able to find where atoms are in relation to each other.

lattice fcc 1.0 spacing 1 1 1
Lattice spacing in x,y,z = 1.5874011 1.5874011 1.5874011
region box block 0 10 0 10 0 10 units lattice
create_box 2 box
Created orthogonal box = (0.0000000 0.0000000 0.0000000) to (15.874011 15.874011 15.874011)
  3 by 4 by 4 MPI processor grid
create_atoms 1 box
Created 4000 atoms
  using lattice units in orthogonal box = (0.0000000 0.0000000 0.0000000) to (15.874011 15.874011 15.874011)
  create_atoms CPU = 0.003 seconds
set type 1 type/fraction 2 0.61 78393
Setting atom values ...
  2454 settings made for type/fraction
mass 1 1.0
mass 2 1.0
pair_style lj/cut  3.5
pair_modify tail  yes
pair_coeff 1  1  1.0  1.0   # Intearaction between 1 and 1 set with epsilon = 1 and sigma = 1
pair_coeff 1  2  1.5  0.8
pair_coeff 2  2  0.5  0.88

write_data data.0
System init for write_data ...
Neighbor list info ...
  update every 1 steps, delay 10 steps, check yes
  max neighbors/atom: 2000, page size: 100000
  master list distance cutoff = 3.8
  ghost atom cutoff = 3.8
  binsize = 1.9, bins = 9 9 9
  1 neighbor lists, perpetual/occasional/extra = 1 0 0
  (1) pair lj/cut, perpetual
      attributes: half, newton on
      pair build: half/bin/atomonly/newton
      stencil: half/bin/3d
      bin: standard
WARNING: Not all mixed pair coeffs generated from mixing. Use write_data with 'pair ij' option to store all pair coeffs. (../write_data.cpp:312)


#############################
#   M E L T   S Y S T E M   #
#############################

velocity all create 2.4 1741580 mom yes dist gaussian # Assign velocities
                                                    # Temperature 2.4, random number seed, zero linear momentum
                                                                                # Gaussian distribution

timestep 0.002   # simulation timestep
thermo 1000       # output thermodynamic data every 1000 steps bf 100

# Define a fix  in this case with index 1 applied to all
# particles in the simulation. This fix is for simulations
# in the anisotropic NPT ensemble. Note that we use the MTK
# correction.
fix 1 all npt temp 2.4 2.4 0.1 iso 5.68 5.68 0.5 mtk yes tchain 5 pchain 5 # Use NPT ensemble
                                                                         # Set temperature and pressure and damping
                                                                         # Numbers of thermostats in chain and in barostat
run 10000          # run for 10000 steps
Per MPI rank memory allocation (min/avg/max) = 3.642 | 3.644 | 3.648 Mbytes
Step Temp E_pair E_mol TotEng Press Volume 
       0          2.4   -4.6675525            0   -1.0684525   -4.0420614         4000 
    1000    2.4179839   -4.4158398            0  -0.78977063    5.4980035    3627.1623 
    2000    2.4356018   -4.4465887            0  -0.79409926    5.8863528    3582.1646 
    3000    2.3742464     -4.39305            0  -0.83257069    5.6113283    3625.7419 
    4000    2.4036645   -4.3971895            0  -0.79259412    5.7825685    3609.5103 
    5000    2.4140178   -4.3711122            0  -0.75099075    5.7386887    3622.9419 
    6000    2.3850398   -4.4430907            0  -0.86642534    5.5555686    3600.9786 
    7000    2.3971122   -4.4728392            0  -0.87806975     5.866615    3565.1716 
    8000    2.3817064   -4.3884502            0  -0.81678377    5.6441947    3632.9168 
    9000    2.4259295   -4.4068728            0  -0.76888833    5.5971335     3627.785 
   10000    2.4128676   -4.4087868            0  -0.79039013    6.0426937    3583.4809 
Loop time of 2.71862 on 48 procs for 10000 steps with 4000 atoms

Performance: 635617.197 tau/day, 3678.340 timesteps/s
99.4% CPU use with 48 MPI tasks x no OpenMP threads

MPI task timing breakdown:
Section |  min time  |  avg time  |  max time  |%varavg| %total
---------------------------------------------------------------
Pair    | 1.1808     | 1.2704     | 1.4506     |   3.4 | 46.73
Neigh   | 0.21728    | 0.22423    | 0.25569    |   1.2 |  8.25
Comm    | 0.74671    | 0.89944    | 1.0066     |   5.0 | 33.08
Output  | 0.00024352 | 0.00025008 | 0.00031815 |   0.0 |  0.01
Modify  | 0.24892    | 0.30884    | 0.3721     |   7.1 | 11.36
Other   |            | 0.01545    |            |       |  0.57

Nlocal:        83.3333 ave          91 max          73 min
Histogram: 2 2 3 4 5 7 11 5 5 4
Nghost:        1769.46 ave        1805 max        1743 min
Histogram: 3 5 7 12 1 10 5 2 0 3
Neighs:        10642.1 ave       11885 max        9164 min
Histogram: 2 2 2 7 6 9 6 8 2 4

Total # of neighbors = 510819
Ave neighs/atom = 127.70475
Neighbor list builds = 908
Dangerous builds = 231

# Equilibrate just above the melting temperature to avoid step fn in T

fix 1 all npt temp 1.25 1.25 0.1 iso 5.68 5.68 0.5 mtk yes tchain 5 pchain 5
run 2000
Per MPI rank memory allocation (min/avg/max) = 3.644 | 3.646 | 3.650 Mbytes
Step Temp E_pair E_mol TotEng Press Volume 
   10000    2.4128676   -4.4087868            0  -0.79039013    6.0426937    3583.4809 
   11000    1.2659657   -6.4826011            0   -4.5841272    5.7486157    2759.4743 
   12000    1.2461774   -6.5666072            0   -4.6978084    5.6220006    2740.3362 
Loop time of 0.672902 on 48 procs for 2000 steps with 4000 atoms

Performance: 513596.250 tau/day, 2972.201 timesteps/s
99.6% CPU use with 48 MPI tasks x no OpenMP threads

MPI task timing breakdown:
Section |  min time  |  avg time  |  max time  |%varavg| %total
---------------------------------------------------------------
Pair    | 0.29336    | 0.32493    | 0.39097    |   2.9 | 48.29
Neigh   | 0.040278   | 0.043409   | 0.051996   |   0.9 |  6.45
Comm    | 0.18607    | 0.25506    | 0.28657    |   3.5 | 37.90
Output  | 5.0234e-05 | 5.4773e-05 | 0.00021859 |   0.0 |  0.01
Modify  | 0.037323   | 0.044413   | 0.050381   |   1.6 |  6.60
Other   |            | 0.005041   |            |       |  0.75

Nlocal:        83.3333 ave          89 max          78 min
Histogram: 2 7 3 9 6 7 3 2 4 5
Nghost:        2114.60 ave        2132 max        2097 min
Histogram: 1 3 7 1 11 10 6 4 3 2
Neighs:        13944.0 ave       15317 max       12476 min
Histogram: 2 4 6 2 4 13 3 9 3 2

Total # of neighbors = 669314
Ave neighs/atom = 167.32850
Neighbor list builds = 142
Dangerous builds = 5

#############################
# L I N E A R  Q U E N C H  #
#############################

# Define solid atoms. This closely follows ten Wolde  Ruiz-Montero and Frenkel  Faraday Discuss  1996  104  93-110
# Compute components of the per-atom q6 vector
compute q6 all orientorder/atom degrees 1 6 components 6 nnn NULL cutoff 1.3 # compute the Q6 parameter.
                                                                             # Use all neighbours within 1.3 unit cell.

# get number of connections
compute coord_number all coord/atom orientorder q6 0.5

# An atom is solid if it has 8 or more connections (of a possible 14)
variable is_solid atom c_coord_number>=8
group solid dynamic all var is_solid    # Must be dynamic to update
dynamic group solid defined

# do clustering
compute cluster solid cluster/atom 1.3 # Create a cluster where all atoms within are solid and max 1.3 units from another member

# define chunks one chunk per cluster
compute clus_chunks solid chunk/atom c_cluster nchunk every compress yes  # Says which atoms are in which chunk

# count the size of each chunk
compute size_chunks solid property/chunk clus_chunks count


# Find the maximum entry in the vector of chunk sizes
variable max_n equal max(c_size_chunks)


# Thermo style which includes this variable
# thermo_style custom step temp pe vol v_max_n

thermo ${N}  # Print the thermo information every 100 steps
thermo 1000  

# Reset the npt fix at a lower temperature (below freezing)
fix 1  all npt temp  ${temp} ${temp}  0.1  iso  5.68  5.68  0.5  mtk yes tchain  5  pchain  5
fix 1  all npt temp  0.45 ${temp}  0.1  iso  5.68  5.68  0.5  mtk yes tchain  5  pchain  5
fix 1  all npt temp  0.45 0.45  0.1  iso  5.68  5.68  0.5  mtk yes tchain  5  pchain  5

dump dmp2 all dcd ${N} traj.dcd
dump dmp2 all dcd 1000 traj.dcd


compute msd all msd com yes
variable twopoint equal c_msd[4]/6/(step*dt+1.0e-6)
fix 9 all vector 10 c_msd[4]
variable fit equal slope(f_9)/6/(10*dt)
thermo_style custom step temp pe c_msd[4] v_twopoint v_fit v_max_n

fix 1 all npt temp 1.25 ${temp} 0.1 iso 5.68 5.68 0.5 mtk yes tchain 5 pchain 5
fix 1 all npt temp 1.25 0.45 0.1 iso 5.68 5.68 0.5 mtk yes tchain 5 pchain 5
run 500000 # 5000000  # Run for this many steps
Neighbor list info ...
  update every 1 steps, delay 10 steps, check yes
  max neighbors/atom: 2000, page size: 100000
  master list distance cutoff = 3.8
  ghost atom cutoff = 3.8
  binsize = 1.9, bins = 8 8 8
  4 neighbor lists, perpetual/occasional/extra = 1 3 0
  (1) pair lj/cut, perpetual
      attributes: half, newton on
      pair build: half/bin/atomonly/newton
      stencil: half/bin/3d
      bin: standard
  (2) compute orientorder/atom, occasional
      attributes: full, newton on
      pair build: full/bin/atomonly
      stencil: full/bin/3d
      bin: standard
  (3) compute coord/atom, occasional
      attributes: full, newton on
      pair build: full/bin/atomonly
      stencil: full/bin/3d
      bin: standard
  (4) compute cluster/atom, occasional
      attributes: full, newton on
      pair build: full/bin/atomonly
      stencil: full/bin/3d
      bin: standard
Per MPI rank memory allocation (min/avg/max) = 9.846 | 9.851 | 9.855 Mbytes
Step Temp PotEng c_msd[4] v_twopoint v_fit v_max_n 
   12000    1.2461774   -6.5666072 9.7779309e-31 6.7902295e-33 8.3333333e+20            2 
   13000    1.2503396   -6.5683395   0.50284437 0.0032233612  0.042545561            2 
   14000    1.2612577   -6.5959983   0.97580303 0.0058083512  0.039747666            2 
   15000    1.2285328   -6.5447663    1.4825663 0.0082364793  0.040305016            4 
   16000    1.2403962   -6.5753034    1.9171471  0.009985141  0.040245479            2 
   17000    1.2561649   -6.5645958    2.4565809  0.012042063  0.040360871            5 
   18000    1.2469213   -6.6033362    2.8749086  0.013309762  0.040035528            2 
   19000    1.2339651   -6.5606004    3.2661107  0.014325047   0.03935418            2 
   20000    1.2642789   -6.5155779    3.6892912  0.015372046  0.038516184            4 
   21000    1.2380506   -6.5968409    4.0984205  0.016263573   0.03788098            2 
   22000    1.2161727   -6.5749084    4.5884222  0.017380387  0.037612522            2 
   23000    1.2350825   -6.6323131    4.9795313   0.01804178  0.037404934            2 
   24000    1.2255551   -6.5989274    5.5037017  0.019110075  0.037296209            2 
   25000    1.2645449   -6.5866826    5.9184107  0.019728035  0.037319049            4 
   26000    1.2559508   -6.6667918    6.2984743  0.020187417  0.037226901            2 
   27000    1.2379332    -6.613329    6.8489871  0.021138849  0.037190498            4 
   28000     1.224242   -6.5952587    7.2800197  0.021666725  0.037306864            3 
   29000    1.2210766   -6.6111206    7.7292216  0.022210407   0.03735753            4 
   30000    1.2573172   -6.6339821     8.095756  0.022488211  0.037298671            3 
   31000    1.2063133   -6.6252797     8.381785   0.02253168  0.037094634            3 
   32000    1.2148435   -6.6285977    8.7391159  0.022758114  0.036814072            3 
   33000    1.2324233   -6.6503534    9.2290174  0.023305599  0.036587652            2 
   34000    1.2394885   -6.6522369    9.5984727  0.023525668  0.036393031            3 
   35000    1.2017534   -6.6155174    9.9967932  0.023801888  0.036236011            2 
   36000    1.2158268   -6.6709083    10.456479  0.024204812  0.036051109            4 
   37000    1.2174665   -6.6697459    10.794152  0.024311153   0.03592587            4 
   38000    1.2070781   -6.6195643    11.251203   0.02467369  0.035796806            2 
   39000    1.2046766    -6.698752    11.601098  0.024788671  0.035672279            4 
   40000     1.199496   -6.6372093    11.953514  0.024903153  0.035529314            2 
   41000    1.1830641   -6.6224177    12.441584  0.025287771  0.035384686            1 
   42000    1.1783437   -6.7219792    12.987437  0.025768725  0.035342329            3 
   43000     1.209925   -6.6549989    13.230945  0.025641365  0.035283645            2 
   44000    1.2160305   -6.6400766    13.626937  0.025808593  0.035185991            2 
   45000    1.1951402     -6.71382    14.096602  0.026104818  0.035101731            2 
   46000    1.1826404   -6.7042373    14.423546  0.026129612  0.035047347            3 
   47000    1.1906742   -6.6916312    14.919164  0.026452418   0.03498727            4 
   48000    1.2284199   -6.7506621    15.331844  0.026617784  0.034931523            5 
   49000    1.1772127   -6.7245041    15.710544  0.026718611  0.034899278            3 
   50000    1.2020431   -6.6715192    16.151437  0.026919062   0.03485141            1 
   51000    1.1924039   -6.7209735    16.438183  0.026859776  0.034783811            3 
   52000    1.1490126   -6.6631555    16.950067  0.027163569  0.034733482            2 
   53000    1.1564848   -6.7114971    17.307749  0.027213441  0.034691507            3 
   54000    1.1647813   -6.7031105    17.784549  0.027445292  0.034671819            1 
   55000    1.1790317    -6.672048    18.121438  0.027456725  0.034622965            9 
   56000     1.170686   -6.7484879    18.380834  0.027352431  0.034578123            3 
   57000    1.1844622   -6.7408332    18.848252  0.027555924  0.034525147            2 
   58000     1.156985    -6.778404    19.066135  0.027393872  0.034455256            3 
   59000    1.1554846   -6.6980517    19.540484  0.027599553  0.034384159            2 
   60000    1.1579698   -6.7230588    19.915828  0.027660872  0.034308754            6 
   61000    1.1843094   -6.7282615    20.096717  0.027454532  0.034216812            1 
   62000     1.183501   -6.7139845    20.426907   0.02745552  0.034110003            3 
   63000    1.1459803   -6.7747929    20.656167  0.027322972  0.033991954            2 
   64000    1.1685747   -6.7530206    20.927972  0.027249963  0.033855332            4 
   65000    1.1389506    -6.763923    21.168682  0.027139335  0.033718999            2 
   66000    1.1523271   -6.7406597    21.532979  0.027188105  0.033570084            8 
   67000    1.1667924   -6.7669985    21.791227  0.027103516  0.033417192            5 
   68000    1.1599628   -6.7801387     22.19881  0.027204424  0.033271843            3 
   69000    1.1568284   -6.7828086    22.447035  0.027109946  0.033140411            3 
   70000    1.1411523   -6.7736253    22.814828  0.027160509  0.033010818            3 
   71000    1.1373951   -6.8164921    23.174997    0.0272007  0.032889163            2 
   72000    1.1531704   -6.8067635    23.425637  0.027113005  0.032766019            3 
   73000    1.1353148   -6.7667198    23.859561  0.027236941  0.032631267            2 
   74000    1.1458208   -6.7984475    24.211964  0.027265725  0.032515895            4 
   75000    1.1342989   -6.7779449    24.679384  0.027421537  0.032414881            5 
   76000    1.1481087   -6.8103714    24.936859  0.027343047  0.032320074            1 
   77000    1.1415379   -6.8033308    25.260101  0.027337772   0.03222148            6 
   78000    1.1209756   -6.8140302    25.446262  0.027186177  0.032115153            6 
   79000    1.1364814   -6.7837093    25.931127  0.027353509  0.032005883            1 
   80000    1.1415799   -6.8203898    26.348049  0.027445885  0.031919263            4 
   81000    1.1630599   -6.8452256    26.494348   0.02725756  0.031833927            4 
   82000    1.1217634   -6.7835413     26.81486  0.027250874  0.031739571            1 
   83000    1.1521959   -6.8178739    27.105889  0.027214747  0.031636235            7 
   84000    1.1580495   -6.8415319    27.331879   0.02711496  0.031534718            2 
   85000    1.1725309   -6.8317168    27.714419  0.027170999  0.031439067            3 
   86000    1.1081302   -6.8797341    28.075384  0.027204829   0.03135312            5 
   87000    1.1314309   -6.8532396    28.535746   0.02733309  0.031275131            2 
   88000      1.09878   -6.8775809    28.865737  0.027334978  0.031202056            2 
   89000    1.1062572   -6.8638717    29.145555  0.027289846  0.031126027            4 
   90000    1.1092113   -6.8704209    29.506751  0.027321066  0.031056877            5 
   91000    1.1236859   -6.8744892    29.748767   0.02724246   0.03098692            4 
   92000    1.1053855   -6.9219126    29.938157  0.027117896  0.030909733            4 
   93000    1.1156473   -6.8522542    30.350995  0.027196232  0.030835961            2 
   94000     1.110274   -6.8844917    30.605189  0.027132259   0.03076241            3 
   95000    1.1214909   -6.8952906    30.851596  0.027062803  0.030692504            3 
   96000    1.1088105   -6.8323456    31.190274   0.02707489  0.030615906            4 
   97000    1.0985045   -6.8757081    31.443564  0.027013371  0.030538221            1 
   98000    1.1211665   -6.8702446    31.754102  0.027001787  0.030461301            3 
   99000    1.1041619   -6.8748198    31.942903  0.026887966  0.030378098            3 
  100000    1.1026481   -6.8597239    32.313546  0.026927955  0.030293429            3 
  101000    1.1119006   -6.9411892    32.475057  0.026794601  0.030212941            2 
  102000    1.0905597   -6.9119901    32.908763  0.026886244  0.030133651            8 
  103000     1.117881   -6.8899913    33.186434  0.026849865   0.03005748            2 
  104000    1.1120235   -6.9463215     33.38017  0.026746931  0.029978096            2 
  105000    1.0762418    -6.907631    33.587894  0.026657058  0.029897376            5 
  106000    1.0985391   -6.9319206    33.899854  0.026650828  0.029816391            2 
  107000    1.1039879   -6.9286047     34.05795  0.026524883  0.029734576            2 
  108000    1.1174216    -6.940317    34.338227  0.026495545  0.029649587            2 
  109000     1.086396   -6.9347997     34.64559  0.026487454  0.029567378            2 
  110000    1.1026756   -6.9497424    34.940377  0.026469982  0.029485456            2 
  111000    1.0849987   -6.9718017    35.159197  0.026395793   0.02940264            6 
  112000    1.0965248   -6.9881277    35.177337  0.026173614  0.029315182            2 
  113000    1.0877739   -6.9466483    35.548953  0.026216042  0.029222958            3 
  114000    1.0762556   -7.0134561    35.707406  0.026101905  0.029131664            2 
  115000    1.0641893   -6.9493712    36.003995  0.026089851  0.029042808            3 
  116000    1.1021191   -6.9738137    36.319178  0.026091364  0.028958525            2 
  117000    1.0780577   -6.9720841    36.627098  0.026087677  0.028874996            3 
  118000    1.0773507   -6.9871088     36.89167  0.026053439  0.028793257            2 
  119000    1.0895103   -7.0062456    37.246337  0.026082869   0.02871651            2 
  120000    1.0564184   -7.0054872    37.601421  0.026112097  0.028640204            2 
  121000    1.0905659   -7.0778458    37.564375  0.025870781  0.028566773            3 
  122000    1.0639514   -7.0171054    37.972663  0.025937611  0.028489042            4 
  123000     1.071173   -7.0254131    38.535088  0.026107783  0.028416984            2 
  124000    1.0817643    -7.022295    38.690245  0.026001508  0.028352063            4 
  125000    1.0695694    -7.025333    38.921797  0.025947864   0.02828411           10 
  126000     1.051466   -7.0055457    39.109107  0.025865812  0.028214888            3 
  127000    1.0602284   -7.0351625    39.319542  0.025800224    0.0281454            7 
  128000    1.0657039   -7.0235393    39.544577  0.025745167  0.028075722            3 
  129000    1.0369311   -7.0310243    39.853996  0.025745475  0.028005389            2 
  130000    1.0570255   -7.0115222    40.244892  0.025798007  0.027940577            2 
  131000    1.0739357   -7.0621931    40.221175  0.025585989  0.027874165            2 
  132000    1.0443613   -7.0617401    40.621488  0.025644879  0.027807488            3 
  133000    1.0564447   -7.0672062    40.741355  0.025527165  0.027737422            5 
  134000     1.061634   -7.0254766    41.198745   0.02562111  0.027667927            4 
  135000      1.03296   -7.0551496    41.394758   0.02555232  0.027601521            4 
  136000    1.0367856   -7.0838976    41.582196  0.025479287   0.02753741            2 
  137000     1.048688   -7.0961713    41.651314  0.025335349  0.027470249            3 
  138000    1.0441977   -7.0643834    41.910271  0.025308135  0.027401033            2 
  139000    1.0561438   -7.0414517     42.14024  0.025263933  0.027333189            5 
  140000    1.0407754   -7.0363447    42.390108  0.025232207  0.027263739            2 
  141000    1.0431131   -7.0495674    42.638903  0.025200297  0.027194702            2 
  142000    1.0347306   -7.0818556    42.777857  0.025104376  0.027124297            3 
  143000    1.0245845   -7.1322479    42.906207  0.025003617  0.027053147            3 
  144000    1.0357808   -7.0784287    43.326937  0.025073459  0.026985077            4 
  145000    1.0243771   -7.1623218    43.379937  0.024930998  0.026916898            6 
  146000     1.036603   -7.1353326    43.751994  0.024972599  0.026848522            3 
  147000    1.0499599   -7.1161967    43.920054   0.02489799  0.026780958            4 
  148000    1.0315836   -7.0993471    44.090233  0.024825581  0.026713564            8 
  149000    1.0311405   -7.1373039    44.363836  0.024811989  0.026644657            4 
  150000    1.0212893   -7.1395815    44.404729  0.024669294  0.026572474            3 
  151000     1.025986    -7.126287    44.616558  0.024622824  0.026500055            3 
  152000    1.0413106   -7.1315816    44.778831  0.024549797  0.026426826           10 
  153000    1.0336987   -7.1755049    44.889837  0.024449802  0.026354062            5 
  154000    1.0201925   -7.1553758    44.989956  0.024345214  0.026277555            3 
  155000    1.0186445   -7.1929323    45.187816  0.024294525  0.026201772            8 
  156000    1.0257147   -7.1675081    45.563733  0.024339601  0.026127343            3 
  157000    1.0381984   -7.1491685    45.876906  0.024350799  0.026055747            4 
  158000    1.0093331   -7.1574094    46.023603  0.024274052  0.025984793            5 
  159000    1.0118206   -7.1590919    46.297084  0.024264719  0.025913701            4 
  160000     1.012764   -7.1848627     46.32882  0.024129594  0.025843881            4 
  161000    1.0069225   -7.1609364    46.387339   0.02401001   0.02576985            2 
  162000    1.0128023   -7.1496286    46.605955  0.023974256  0.025695465            4 
  163000    1.0105843   -7.1699623    46.742041  0.023896749  0.025622288            8 
  164000    1.0358329   -7.1535125    46.927342  0.023845194  0.025548763            3 
  165000    1.0253053   -7.1954726    47.185163   0.02383089  0.025474281            3 
  166000    1.0063885   -7.1848453    47.294301  0.023742119  0.025398978            3 
  167000   0.99355368   -7.2003276    47.603961  0.023754472  0.025325776            6 
  168000   0.98811399    -7.279391    47.588525  0.023605419  0.025251415            5 
  169000   0.99023042   -7.2054648    47.840298  0.023589891  0.025178156            3 
  170000    1.0049506   -7.1975752    48.044383  0.023551168  0.025105996            6 
  171000    0.9908617   -7.2728985    48.134603  0.023457409  0.025033402            6 
  172000   0.97070413   -7.2398978    48.402721  0.023450931   0.02496094            8 
  173000   0.98509871   -7.2379892    48.482089  0.023353607  0.024888482            8 
  174000   0.99058642   -7.2359338     48.70041  0.023323951  0.024815136            3 
  175000    1.0013171   -7.2480048    48.819381  0.023247324  0.024741509            4 
  176000   0.96972732   -7.2574272    48.836112  0.023123159  0.024667777            4 
  177000    0.9965524   -7.3168508    48.993887  0.023066802  0.024591886            6 
  178000   0.97645243   -7.2450936    48.870782  0.022879579  0.024515471           14 
  179000   0.98219983   -7.2751398    49.132703  0.022873698  0.024437661            5 
  180000   0.97899867   -7.2814019    49.356767  0.022850355  0.024360182            3 
  181000   0.95080369   -7.2669917    49.383746  0.022736531  0.024281705            3 
  182000   0.97247641   -7.3133965    49.490772   0.02266061  0.024203535            3 
  183000   0.99670756   -7.3139413    49.518291  0.022549313  0.024125216            3 
  184000    0.9878064   -7.2666856    49.911835  0.022604998   0.02404832            4 
  185000   0.95479417   -7.3086871    50.159975  0.022594583  0.023973963            3 
  186000    0.9880834   -7.3061657      50.1663  0.022475941  0.023898371            5 
  187000   0.98125399   -7.3020058    50.302867  0.022416607  0.023821426            6 
  188000   0.97898765   -7.2946697    50.344961  0.022316029  0.023744835            3 
  189000   0.96891869   -7.3233037    50.669671  0.022341125  0.023668762            8 
  190000   0.97382898   -7.3020665    50.753348   0.02226024  0.023592143            3 
  191000   0.97583448     -7.33918    50.680833  0.022112056  0.023515837            3 
  192000   0.96611287   -7.3493205    50.702861   0.02200645  0.023438603            9 
  193000   0.95988165   -7.3295865    50.820187  0.021943086  0.023360949            2 
  194000   0.96949172    -7.319212    50.914328  0.021870416  0.023282115            6 
  195000   0.96408427   -7.3479617    51.039428  0.021811721  0.023203241            8 
  196000   0.94860266     -7.30092    51.064963  0.021711294   0.02312484            4 
  197000   0.96170936   -7.3464768    51.319418  0.021708722  0.023044707            4 
  198000   0.96390625   -7.3884534    51.165847  0.021534447  0.022966205            4 
  199000   0.95318469    -7.387691    51.436521  0.021539582  0.022887247            7 
  200000   0.94214857   -7.3414503    51.673623  0.021530676  0.022809818            9 
  201000   0.93219005   -7.4232784     51.64789   0.02141289  0.022732992            3 
  202000   0.93013715     -7.35832    51.936867    0.0214261  0.022656522            4 
  203000   0.94986086    -7.397618    51.952421  0.021326938  0.022579899            4 
  204000   0.95611965    -7.357322    52.174032  0.021312921  0.022502804            5 
  205000   0.92802753   -7.3961931    52.206608  0.021222198  0.022426223            6 
  206000   0.94948478   -7.3762515    52.120386  0.021084298  0.022349926            9 
  207000   0.95635859   -7.3900301    52.310175  0.021058847  0.022273768            6 
  208000   0.91741476   -7.3802694    52.555058  0.021055712  0.022197572            5 
  209000   0.93087271   -7.4017925    52.386693  0.020887836  0.022120359            3 
  210000   0.93742677   -7.4164594    52.557322   0.02085608  0.022043883            4 
  211000   0.90077514    -7.399673     52.79422  0.020850798  0.021968635           13 
  212000   0.91478504    -7.435925    52.868097  0.020781485  0.021893099            7 
  213000   0.92782567   -7.3910188    52.952638  0.020716994  0.021818463            7 
  214000   0.91507345   -7.4459332    53.029829  0.020650245  0.021743398           10 
  215000   0.92511094   -7.4596696    53.028028  0.020553499  0.021667773            3 
  216000   0.91486692    -7.412048    53.336367  0.020577302  0.021592925           13 
  217000   0.91151317   -7.4926202    53.266509  0.020455649  0.021517885            5 
  218000   0.91311482   -7.4589589    53.221707  0.020344689  0.021442961            4 
  219000   0.94602181   -7.4825484    53.561095  0.020380934  0.021368959            6 
  220000   0.90829828   -7.4581184    53.624404  0.020312274  0.021295672            6 
  221000   0.90294079   -7.4632417    53.749317  0.020267465  0.021223015            4 
  222000   0.93179201   -7.5221001     53.76189   0.02018089  0.021149812            6 
  223000   0.90495099   -7.4658854    53.965478  0.020166472  0.021077389           12 
  224000   0.92578305    -7.477175    54.022939  0.020097819   0.02100532            7 
  225000   0.89324351   -7.5326591    54.167689  0.020062107  0.020933604            5 
  226000   0.92465968   -7.4829107    54.360448  0.020044413  0.020862722            6 
  227000   0.90813565   -7.4912518    54.423299  0.019979185  0.020792732            7 
  228000   0.90366589   -7.5298491    54.526239  0.019929181  0.020723005           24 
  229000   0.90001767   -7.5121492    54.762708  0.019928205  0.020653787           10 
  230000    0.9146334   -7.4926391    54.755175  0.019838831  0.020584493            9 
  231000   0.89944253   -7.5355963    54.534799  0.019673448   0.02051422            3 
  232000   0.89832308   -7.5492415    54.715078  0.019653404  0.020442993            5 
  233000   0.89382414    -7.510791    54.688531   0.01955956  0.020371532            6 
  234000   0.89094593   -7.4998336    54.799335  0.019515433  0.020300524           11 
  235000   0.89881223   -7.4961899    54.930832  0.019479018  0.020230182            5 
  236000   0.88964624   -7.5301077    54.960741  0.019407041  0.020159404           11 
  237000    0.8961963   -7.5270539    54.897937  0.019303072  0.020088505            4 
  238000    0.8739506   -7.5352315    55.144638  0.019308346  0.020018608            5 
  239000   0.89151749   -7.5320028     55.14811  0.019228769  0.019948844            4 
  240000   0.86440258   -7.5642425     55.04804  0.019113903  0.019878768            4 
  241000   0.88993409   -7.5410163    55.137601  0.019065561  0.019807634            9 
  242000   0.87091382    -7.594519     55.18505  0.019003116  0.019736921            5 
  243000   0.86574107   -7.5900772    55.277102  0.018956482  0.019666428            8 
  244000   0.89818373   -7.5634651    55.285335  0.018881603  0.019595271           15 
  245000    0.8639768   -7.5595731    55.411765  0.018847539  0.019524639            9 
  246000    0.8650374   -7.6226107    55.254843  0.018717765  0.019453729            8 
  247000   0.87377945    -7.602666    55.296226  0.018655947  0.019382898            6 
  248000   0.86042772   -7.5928486    55.365459  0.018603985  0.019312108           20 
  249000   0.87804503    -7.586991     55.32897  0.018517058  0.019241626           10 
  250000   0.86014385   -7.6083299    55.693216  0.018564405   0.01917202           18 
  251000   0.84293556   -7.5962929    55.834735  0.018537429  0.019103693            6 
  252000   0.86783339   -7.6180289    55.832422  0.018463103  0.019035734            5 
  253000   0.86451997   -7.6283624    55.743854  0.018360953  0.018967513            7 
  254000   0.84793871   -7.6445519    55.908875  0.018342807  0.018899329           28 
  255000   0.85525525   -7.6399138    55.835547  0.018246911  0.018830084           21 
  256000   0.86412685   -7.6828322    55.903383  0.018197716  0.018761055            6 
  257000   0.83130392   -7.6252993    56.127539  0.018199591  0.018693456            4 
  258000   0.85810911   -7.6627164    56.129543  0.018129697  0.018625827           14 
  259000   0.84889744   -7.6860951     56.00554  0.018019801  0.018557711           16 
  260000   0.85618244    -7.682713    56.079712  0.017974267  0.018490178           25 
  261000   0.85667747   -7.6955329     56.09481   0.01791022  0.018422504           20 
  262000   0.83968979   -7.7277046    56.163341  0.017863658  0.018355071           25 
  263000   0.84832446   -7.6882831    56.310799  0.017842459  0.018288255           10 
  264000   0.83764326   -7.7092083    56.301461  0.017771926   0.01822151           26 
  265000   0.83444083   -7.7100632    56.307529   0.01770677  0.018155325           28 
  266000   0.81908686   -7.6780189    56.491575  0.017697862  0.018089604           11 
  267000   0.84134544    -7.698588    56.534785  0.017645064  0.018024247            8 
  268000   0.83281731   -7.6992993    56.479689  0.017562092  0.017957879           16 
  269000   0.83199166   -7.6779947    56.655091  0.017551144  0.017891691           18 
  270000   0.83396824   -7.7108638    56.429623   0.01741655  0.017825497           17 
  271000   0.84167948   -7.7378597    56.371243   0.01733433  0.017759565           15 
  272000   0.85764989   -7.7479518    56.557606  0.017327698  0.017693548            8 
  273000   0.85590122   -7.7698367    56.550912  0.017262183  0.017627855           19 
  274000   0.82809805   -7.7116412    56.751753  0.017260265  0.017562584           13 
  275000   0.83616477   -7.7314166    56.586395  0.017147392  0.017497082           16 
  276000   0.83705739   -7.7789263    56.661956  0.017108079  0.017431067           16 
  277000   0.82365797   -7.7950981    56.464729  0.016986982  0.017365523           12 
  278000    0.8294477   -7.7495408    56.645835  0.016980166  0.017300445            9 
  279000    0.8311274   -7.7987532     56.71722  0.016940627  0.017235441            7 
  280000    0.8193375   -7.7724123    56.789985  0.016901781  0.017170843            9 
  281000   0.83076109   -7.7799563    56.822965  0.016851413  0.017106331           12 
  282000   0.81803326   -7.8132622     56.68164  0.016749894  0.017042298           15 
  283000   0.81990012   -7.7854916    56.867922   0.01674556  0.016978664           18 
  284000   0.81820023   -7.8046719    56.781584  0.016661263  0.016914806            8 
  285000   0.82392605   -7.8122225    56.728888  0.016587394  0.016851283           21 
  286000    0.8167406   -7.8046267    57.031774   0.01661765  0.016787969           11 
  287000   0.80933208    -7.805573     56.90378  0.016522584  0.016724947           10 
  288000   0.80714974    -7.828913    56.651959  0.016392349  0.016661661            8 
  289000   0.82704638   -7.8317723    56.809879  0.016381165  0.016598561           16 
  290000   0.80344783    -7.839788    56.943673  0.016363125  0.016535434           29 
  291000   0.80715441   -7.8295248     56.83715  0.016276389  0.016472225           31 
  292000   0.78893177   -7.8335763     56.97834  0.016260942  0.016409572           59 
  293000   0.79556538   -7.8468603    56.922558  0.016189578  0.016347434           21 
  294000   0.81478106   -7.8385221    57.130544  0.016193465  0.016285318           34 
  295000   0.80492099    -7.871268    56.988954  0.016098575   0.01622352           11 
  296000    0.7748869   -7.8742619    57.055637  0.016062961  0.016162071           20 
  297000   0.81238444   -7.8714293    57.039872  0.016004453   0.01610053           17 
  298000   0.79047783   -7.8807802    57.023703  0.015946226  0.016039368           26 
  299000   0.79625652   -7.8676623    57.054156  0.015901381   0.01597785           18 
  300000   0.78485155   -7.8594795    56.948889  0.015819136  0.015916157           35 
  301000    0.7864392   -7.8701119    56.861308  0.015742333  0.015855011           27 
  302000   0.78081823   -7.8847175    56.987293  0.015724971  0.015794515           15 
  303000   0.77985093   -7.9215688     57.03619  0.015686521  0.015734065           16 
  304000   0.78242569     -7.90876     57.02422  0.015631639  0.015673777           24 
  305000   0.79164901   -7.8993058    57.096817  0.015600223  0.015613613           27 
  306000   0.77895571   -7.8942884    57.049291  0.015536299  0.015553678           21 
  307000   0.77881499    -7.906096    57.022835  0.015478511  0.015493797           38 
  308000   0.77272703   -7.9160718    57.044644  0.015434157  0.015434126           29 
  309000     0.780211   -7.9027844    56.982335  0.015367404   0.01537461           16 
  310000   0.77124149   -7.9530123     56.98998  0.015319887  0.015315181           26 
  311000   0.76447233   -7.9129693    57.236799  0.015336763  0.015256265           37 
  312000   0.76729549   -7.9153064    57.179092  0.015272193  0.015197538           36 
  313000   0.77223562   -7.9519256    57.076185  0.015196002  0.015138963           27 
  314000   0.76158786   -7.9520803    57.153923  0.015168239  0.015080631           13 
  315000    0.7603338   -7.9572436    57.135779  0.015115285  0.015022351           20 
  316000   0.77447123   -7.9558217    57.133815  0.015066934  0.014964442           24 
  317000   0.75689264   -7.9487287     57.14897  0.015023388  0.014906554           31 
  318000   0.77872549   -7.9641638    57.134554  0.014972367  0.014849072           29 
  319000   0.76020108   -7.9709808    57.161826  0.014932556   0.01479174           33 
  320000   0.76904912   -7.9458053    57.238944  0.014905975  0.014734332           18 
  321000   0.75427307   -7.9691397    57.224484  0.014855785  0.014677353           17 
  322000   0.74659616   -7.9579219    57.140227  0.014787843  0.014620525           28 
  323000   0.75481928   -7.9922156    57.064191  0.014722443  0.014563921           34 
  324000   0.77469796    -7.997262    57.164329  0.014702759  0.014507049           25 
  325000   0.73830835   -7.9707787    57.141863   0.01465176  0.014450454           34 
  326000   0.74375439   -8.0119613    57.145989   0.01460787  0.014394306           18 
  327000   0.73490042   -8.0161995    57.100567  0.014551623  0.014338397           16 
  328000   0.73596073   -8.0049324    57.132195  0.014515293  0.014282611           31 
  329000   0.75108997   -7.9934873    57.122055  0.014468606   0.01422675           42 
  330000   0.72652074   -8.0322041    56.963286  0.014384668  0.014171106           70 
  331000   0.72339817   -8.0205994    57.082617  0.014371253  0.014115434           41 
  332000   0.73733601   -8.0255005    56.917801  0.014286597  0.014060059           14 
  333000   0.73526057   -8.0366531    57.077627   0.01428369  0.014004974           47 
  334000   0.74745695   -8.0400149    57.138959  0.014256227  0.013950363           30 
  335000   0.72655353   -7.9899479    57.173358  0.014222228  0.013896135           29 
  336000   0.72243541   -8.0393733    57.242448  0.014197036  0.013842092           27 
  337000   0.72950218   -8.0220891    57.215177  0.014148164  0.013788591           73 
  338000   0.71689764   -8.0305446    57.177954  0.014097129  0.013734982           57 
  339000   0.72084313   -8.0590402    57.058429  0.014026163    0.0136816           50 
  340000   0.72784837    -8.016373    57.327947  0.014050967  0.013628512           33 
  341000   0.73342177   -8.0697394    57.171849  0.013971615  0.013575638           55 
  342000   0.73480593    -8.062486    57.277465  0.013956497  0.013523094           54 
  343000   0.71414743   -8.0683523    57.275174  0.013915251   0.01347072           56 
  344000   0.72659554   -8.0625627    57.248433  0.013868322  0.013418548           56 
  345000   0.71112892   -8.0724199    57.290758  0.013838347  0.013366386           54 
  346000   0.71566931   -8.1101178    57.081256  0.013747894  0.013314461           38 
  347000   0.70974073   -8.1119744    57.187566  0.013733806  0.013262796           52 
  348000   0.71240703   -8.0926258    57.254592  0.013710391  0.013211181           57 
  349000   0.70460001   -8.0946054     57.24996      0.01367  0.013159849           71 
  350000   0.70957258   -8.1077567    57.225536  0.013625128  0.013108944           54 
  351000   0.70663719   -8.1208693    57.161963  0.013571216  0.013058136           33 
  352000   0.68784615   -8.1216838    57.183683  0.013537804  0.013007541           28 
  353000   0.71409724   -8.1258277    57.138493  0.013488785  0.012957055           48 
  354000    0.6998277   -8.1181962     57.15795  0.013455261  0.012906843           56 
  355000   0.69758676   -8.0874276    57.133475  0.013411614  0.012856765           34 
  356000   0.69823088    -8.111795    57.131704  0.013373526  0.012806824           66 
  357000   0.69804075   -8.1177101    57.179759  0.013347283  0.012757153           20 
  358000   0.68655362   -8.1715965    57.084567  0.013287841  0.012707985           69 
  359000   0.69225708   -8.1268324     57.24476  0.013288013  0.012658939           38 
  360000   0.68629185   -8.1418055    57.105464  0.013218857  0.012610059           19 
  361000    0.7004146   -8.1445957    57.151993  0.013192981  0.012561399           43 
  362000   0.70049847    -8.127203    57.225468   0.01317345   0.01251315           45 
  363000   0.68596654   -8.1522672     57.18067  0.013126876  0.012464737           24 
  364000   0.68148343   -8.1483286    57.143077  0.013082206  0.012416611           29 
  365000   0.69813475   -8.1721689    57.075391  0.013030911  0.012368638           30 
  366000   0.67540507    -8.148654    57.092746  0.012999259   0.01232099           53 
  367000    0.6917152   -8.1504251    57.103646  0.012966314  0.012273599           36 
  368000   0.67140222   -8.1643057    57.141885  0.012939738  0.012226299           35 
  369000   0.69915407   -8.1840362    57.092089  0.012893426  0.012179136           22 
  370000   0.66830407   -8.1818968    57.124195   0.01286581  0.012132115           34 
  371000   0.67818554   -8.1890224    57.051524  0.012814808  0.012085278           43 
  372000   0.67662646   -8.2157023    57.127378  0.012797352  0.012038759           40 
  373000   0.66772549   -8.1826889    57.039774   0.01274347  0.011992391           81 
  374000   0.68769612   -8.1931634    57.225818  0.012750851  0.011946398           37 
  375000   0.67636232   -8.1844881     57.23965  0.012719922  0.011900734           70 
  376000   0.65526814   -8.2074895    57.249593  0.012688296  0.011855407           99 
  377000   0.66844451   -8.1955177    57.193833  0.012642315  0.011810116           76 
  378000   0.66694044   -8.2019375    57.126924  0.012594119  0.011765019           56 
  379000   0.65605846   -8.2145802    57.109139  0.012556979  0.011719961           77 
  380000   0.66328447   -8.2548351    57.110009  0.012524125  0.011675156           52 
  381000   0.66960722   -8.2417888    57.020443  0.012471663  0.011630423           59 
  382000   0.66288185   -8.2309616    57.173171  0.012472332  0.011586014           58 
  383000   0.65673605   -8.2201714    57.123984  0.012429065   0.01154178           91 
  384000   0.65571263   -8.2597881    57.117847  0.012395366  0.011497719           67 
  385000   0.65277517   -8.2520554     57.10523  0.012360439  0.011453759           59 
  386000   0.66376692    -8.254137    57.077276  0.012322383  0.011410083           83 
  387000   0.65165982    -8.257773    57.190876  0.012315004  0.011366664           62 
  388000   0.65040595   -8.2672568    57.106961  0.012265241   0.01132345           67 
  389000   0.66563726    -8.255146    57.033567  0.012217988  0.011280372           40 
  390000   0.65249075   -8.2586031    56.895694    0.0121572   0.01123741           66 
  391000   0.64408672   -8.2555755    57.064103     0.012162  0.011194523           90 
  392000   0.64129635    -8.274605    56.926554  0.012101733  0.011151994           65 
  393000   0.64590865   -8.2536872    57.022131  0.012091207   0.01110959           73 
  394000   0.64963225   -8.2976335    56.993812  0.012054529  0.011067362           73 
  395000   0.64573441   -8.2819141    56.963857  0.012017691  0.011025209           68 
  396000   0.63628874   -8.2799617    56.987854  0.011992394  0.010983222           65 
  397000   0.64626072   -8.2990706    56.902532  0.011944276  0.010941337           55 
  398000   0.64424404   -8.2889785    57.058436  0.011946909  0.010899796           49 
  399000   0.64537208   -8.2901814    56.956396  0.011895655  0.010858319           68 
  400000   0.63410289    -8.288915    56.886829  0.011851423  0.010817138           47 
  401000   0.62638556   -8.3096156    56.975365  0.011840267  0.010776172           60 
  402000   0.62806506   -8.3106396      56.8616  0.011787231  0.010735315           53 
  403000   0.61739054    -8.316835    56.875697  0.011760897  0.010694666           79 
  404000   0.63729481   -8.3168252    56.817462  0.011719773  0.010654201           86 
  405000   0.62015324   -8.3101158    56.903613  0.011708562  0.010613845          115 
  406000   0.62442143   -8.3308524    56.817602  0.011662069  0.010573763           92 
  407000   0.61821736   -8.3328828    56.846234  0.011639278  0.010533812           92 
  408000   0.60541494    -8.313049    56.928047  0.011627461  0.010494059           60 
  409000   0.62113823    -8.319368    56.866482  0.011586488  0.010454526           61 
  410000   0.62875925   -8.3243613    56.868091  0.011558555   0.01041519           41 
  411000   0.62414274   -8.3524331     56.83107  0.011522926  0.010375945           51 
  412000    0.6187911   -8.3307982    57.049194  0.011539076  0.010336912           36 
  413000   0.59228061   -8.3659081    56.874204  0.011475828  0.010298001           65 
  414000   0.61640783   -8.3399963    56.792384  0.011431639  0.010259264           66 
  415000   0.61613289   -8.3510688    56.821963  0.011410033   0.01022071           70 
  416000   0.60909347   -8.3413464    56.834207  0.011385058  0.010182401           61 
  417000   0.59861291   -8.3624676    56.817419    0.0113544  0.010144244           46 
  418000   0.62215442   -8.3588755    56.817222  0.011327197  0.010106287          110 
  419000    0.5912051    -8.337267    56.904043  0.011317431  0.010068432           99 
  420000   0.59599058   -8.3612129    56.717275  0.011253428  0.010030792           79 
  421000   0.58469241    -8.355384    56.870917   0.01125711 0.0099933337           41 
  422000    0.5884054   -8.3629069    56.801248  0.011216676 0.0099559996           29 
  423000   0.59871155   -8.3638169    56.818864   0.01119363 0.0099189042           61 
  424000   0.59089075   -8.3870638    56.882186  0.011179675 0.0098819601           52 
  425000   0.59007657    -8.385937    56.854882  0.011148016 0.0098451943          101 
  426000   0.58892385   -8.3878447    56.836013  0.011118156 0.0098085921           63 
  427000   0.58726235    -8.379013    56.753939    0.0110761 0.0097722114           45 
  428000   0.57578482   -8.3934774    56.791175  0.011057472  0.009735945           41 
  429000   0.57232236   -8.3812506    56.797459  0.011032917  0.009699875           78 
  430000   0.58531566   -8.4100627    56.726204   0.01099345  0.009663951           47 
  431000   0.57667431    -8.387607    56.750418  0.010972625 0.0096282215          113 
  432000   0.59016771    -8.415981     56.71456  0.010940309 0.0095926061           73 
  433000   0.57659551    -8.380906    56.793948  0.010930321 0.0095571895           72 
  434000   0.57988487   -8.3946606    56.716078  0.010890184 0.0095219063           77 
  435000   0.55858786   -8.4037159    56.813447  0.010883802 0.0094867426           90 
  436000   0.56015583   -8.4193502    56.800424   0.01085635 0.0094517131           95 
  437000   0.56679308   -8.4098598    56.657291  0.010804213 0.0094169098           94 
  438000   0.57945217   -8.4129762    56.576469  0.010764168 0.0093822885           46 
  439000   0.57618925   -8.4111335    56.715284  0.010765999 0.0093478083           89 
  440000   0.56209549   -8.4043753    56.781056  0.010753988  0.009313457           67 
  441000   0.56295499    -8.445646    56.689645  0.010712329 0.0092792301           66 
  442000   0.55319257   -8.4243026    56.672146  0.010684794 0.0092451719           71 
  443000   0.56107217   -8.4423387    56.641254  0.010654863 0.0092112458           92 
  444000   0.56604245   -8.4211243    56.684504  0.010638983 0.0091775808           91 
  445000   0.54578967    -8.432425    56.637967  0.010606361 0.0091439943           93 
  446000   0.55109667   -8.4472663    56.668617  0.010588307 0.0091106159           79 
  447000   0.56179529   -8.4433402    56.552231  0.010542922 0.0090773325           67 
  448000     0.557005    -8.444216    56.632012  0.010534228 0.0090441368          113 
  449000   0.55574937   -8.4495739    56.681174  0.010519891 0.0090110841           98 
  450000    0.5433778   -8.4727967    56.625164  0.010486141 0.0089782198          101 
  451000   0.56356385   -8.4632185     56.57818  0.010454209 0.0089454968           77 
  452000   0.55473341   -8.4613276    56.574681  0.010430435 0.0089129757           86 
  453000   0.55079308   -8.4560059    56.581459  0.010408657 0.0088805582           81 
  454000   0.54895561   -8.4643991    56.531121  0.010376491 0.0088482277          150 
  455000   0.53235884   -8.4653903    56.547793  0.010356739 0.0088160381           96 
  456000   0.53883136   -8.4707137    56.555946  0.010335516  0.008783998           86 
  457000   0.54937244   -8.4815339    56.519581  0.010306269 0.0087521535           72 
  458000   0.53252955   -8.4931848    56.516092  0.010283132 0.0087203707           57 
  459000   0.53972103   -8.4726385    56.568383  0.010270222 0.0086887862           82 
  460000   0.53489509   -8.4719867    56.491051  0.010233886 0.0086573218           75 
  461000   0.53196755   -8.5017049    56.504074  0.010214041 0.0086260334           80 
  462000   0.52835766   -8.4908383    56.493695   0.01019006  0.008594819           76 
  463000   0.52920268   -8.4932652    56.504016  0.010169909 0.0085637748           96 
  464000   0.51952912   -8.5115066    56.486043  0.010144763 0.0085328435           89 
  465000    0.5273489   -8.5013405    56.440858  0.010114849  0.008502035          133 
  466000   0.52774918    -8.504411     56.41249  0.010088071 0.0084714125          158 
  467000    0.5254992   -8.4958444    56.329066  0.010051582 0.0084408726          103 
  468000   0.52259607   -8.5186791    56.442559  0.010050313 0.0084104716           77 
  469000   0.51592902   -8.5189305    56.284033  0.010000717  0.008380211           98 
  470000   0.50330548   -8.5129454    56.400956   0.01000017 0.0083500691          109 
  471000   0.51086405    -8.513013    56.457762 0.0099889882 0.0083200567           99 
  472000   0.52522126   -8.5212204    56.380809 0.0099542389 0.0082902198           73 
  473000   0.51360037   -8.5232149    56.356233 0.0099288641 0.0082604905           73 
  474000   0.50851298   -8.5242408    56.347456 0.0099063742 0.0082308767          187 
  475000   0.50958849   -8.5212282    56.417159 0.0098977472 0.0082014919          148 
  476000   0.51813772   -8.5284354    56.315781 0.0098592054 0.0081721704          153 
  477000   0.50298469    -8.537607    56.330391 0.0098410886 0.0081429748           67 
  478000   0.51032956   -8.5239078    56.382023 0.0098295018 0.0081139787           76 
  479000   0.50941934   -8.5541526     56.35406 0.0098041163 0.0080850796          110 
  480000   0.49610496   -8.5280253    56.351593 0.0097832627 0.0080563582           89 
  481000   0.50675258   -8.5618881    56.283713  0.009751163 0.0080277551          132 
  482000   0.50214103   -8.5388834    56.360083  0.009744136 0.0079992297           85 
  483000   0.48813925   -8.5553533    56.401651 0.0097311336 0.0079709383          123 
  484000   0.50080491   -8.5326346    56.405948 0.0097117679 0.0079427006           91 
  485000   0.49247798   -8.5449862    56.318396 0.0096767004 0.0079145908           80 
  486000   0.48962889   -8.5552359    56.299306 0.0096535162 0.0078866171           68 
  487000   0.48530837   -8.5640257    56.287398  0.009631656 0.0078587588          108 
  488000   0.49049647   -8.5866516    56.210518 0.0095987907 0.0078310486           78 
  489000   0.47145901   -8.5371896    56.226178   0.00958183 0.0078033964           78 
  490000   0.48167125   -8.5592162    56.396451 0.0095912332 0.0077758806           73 
  491000    0.4867642   -8.5642141    56.311636 0.0095573042 0.0077484912          110 
  492000    0.4928801   -8.5673942    56.280705 0.0095326397 0.0077212287          146 
  493000   0.48248711   -8.5616889    56.221586 0.0095033107 0.0076941007           66 
  494000   0.48065403   -8.5744814    56.156891 0.0094731597 0.0076670925          166 
  495000   0.47341699   -8.5697062    56.187373 0.0094591537 0.0076402274          103 
  496000   0.46809467   -8.5902769    56.162952 0.0094359799 0.0076134836           57 
  497000   0.47022846   -8.5818747    56.243168  0.009430444   0.00758686           91 
  498000   0.46747659    -8.568784     56.20685   0.00940543 0.0075603633           86 
  499000    0.4658579   -8.6007957    56.272659 0.0093975717 0.0075340111           78 
  500000   0.46579585   -8.5869213    56.185098 0.0093641829 0.0075077235          102 
  501000   0.47158092   -8.6091821    56.176111 0.0093439972 0.0074815978           79 
  502000   0.46868053   -8.5932727    56.182615 0.0093264633 0.0074555611           80 
  503000   0.46658703   -8.5895651    56.162425 0.0093045767 0.0074296681           88 
  504000   0.45941889   -8.5986909    56.149692 0.0092840099 0.0074038441          142 
  505000   0.46282012   -8.6132437    56.179829 0.0092705988 0.0073781222           85 
  506000   0.45980469   -8.5970462    56.217673 0.0092585101 0.0073525179          114 
  507000    0.4538986   -8.6092431    56.070327 0.0092160301 0.0073270477          115 
  508000   0.45603006   -8.6102521    56.108391 0.0092041324 0.0073016324           82 
  509000   0.46013735   -8.6182265    56.185747 0.0091987143 0.0072763595          117 
  510000   0.45894656   -8.6179845    56.231168 0.0091880993  0.007251235           71 
  511000   0.45067509   -8.6200261    56.156688 0.0091579725 0.0072262096          141 
  512000   0.45186846   -8.6302303    56.097146 0.0091303949 0.0072013039          126 
Loop time of 1308.93 on 48 procs for 500000 steps with 4000 atoms

Performance: 66007.880 tau/day, 381.990 timesteps/s
99.4% CPU use with 48 MPI tasks x no OpenMP threads

MPI task timing breakdown:
Section |  min time  |  avg time  |  max time  |%varavg| %total
---------------------------------------------------------------
Pair    | 94.809     | 101.4      | 110.61     |  32.7 |  7.75
Neigh   | 9.0872     | 9.4916     | 9.9712     |   6.9 |  0.73
Comm    | 84.165     | 91.913     | 99.008     |  34.8 |  7.02
Output  | 1.0254     | 1.0263     | 1.0486     |   0.3 |  0.08
Modify  | 1088.1     | 1093       | 1096.5     |   5.9 | 83.50
Other   |            | 12.12      |            |       |  0.93

Nlocal:        83.3333 ave          89 max          77 min
Histogram: 1 3 2 8 6 13 3 5 4 3
Nghost:        2415.33 ave        2433 max        2400 min
Histogram: 4 2 6 6 10 5 8 4 2 1
Neighs:        16682.4 ave       19216 max       13990 min
Histogram: 2 4 7 6 3 8 4 4 8 2
FullNghs:      33362.4 ave       35736 max       30823 min
Histogram: 1 3 3 8 9 8 5 5 3 3

Total # of neighbors = 1601395
Ave neighs/atom = 400.34875
Neighbor list builds = 26639
Dangerous builds = 0

#clear
#
#next RN
#
#jump SELF
Total wall time: 0:21:52
