
units lj                  # Use reduced LJ style units
atom_style atomic         # Uncharged point particles
atom_modify map hash      # Needed for indexing of clusters etc
                          # Used to be able to find where atoms are in relation to each other.

lattice fcc 1.0 spacing 1 1 1
Lattice spacing in x,y,z = 1.5874011 1.5874011 1.5874011
region box block 0 10 0 10 0 10 units lattice
create_box 2 box
Created orthogonal box = (0.0000000 0.0000000 0.0000000) to (15.874011 15.874011 15.874011)
  3 by 4 by 4 MPI processor grid
create_atoms 1 box
Created 4000 atoms
  using lattice units in orthogonal box = (0.0000000 0.0000000 0.0000000) to (15.874011 15.874011 15.874011)
  create_atoms CPU = 0.002 seconds
set type 1 type/fraction 2 0.04 78393
Setting atom values ...
  161 settings made for type/fraction
mass 1 1.0
mass 2 1.0
pair_style lj/cut  3.5
pair_modify tail  yes
pair_coeff 1  1  1.0  1.0   # Intearaction between 1 and 1 set with epsilon = 1 and sigma = 1
pair_coeff 1  2  1.5  0.8
pair_coeff 2  2  0.5  0.88

write_data data.0
System init for write_data ...
Neighbor list info ...
  update every 1 steps, delay 10 steps, check yes
  max neighbors/atom: 2000, page size: 100000
  master list distance cutoff = 3.8
  ghost atom cutoff = 3.8
  binsize = 1.9, bins = 9 9 9
  1 neighbor lists, perpetual/occasional/extra = 1 0 0
  (1) pair lj/cut, perpetual
      attributes: half, newton on
      pair build: half/bin/atomonly/newton
      stencil: half/bin/3d
      bin: standard
WARNING: Not all mixed pair coeffs generated from mixing. Use write_data with 'pair ij' option to store all pair coeffs. (../write_data.cpp:312)


#############################
#   M E L T   S Y S T E M   #
#############################

velocity all create 2.4 6583654 mom yes dist gaussian # Assign velocities
                                                    # Temperature 2.4, random number seed, zero linear momentum
                                                                                # Gaussian distribution

timestep 0.002   # simulation timestep
thermo 1000       # output thermodynamic data every 1000 steps bf 100

# Define a fix  in this case with index 1 applied to all
# particles in the simulation. This fix is for simulations
# in the anisotropic NPT ensemble. Note that we use the MTK
# correction.
fix 1 all npt temp 2.4 2.4 0.1 iso 5.68 5.68 0.5 mtk yes tchain 5 pchain 5 # Use NPT ensemble
                                                                         # Set temperature and pressure and damping
                                                                         # Numbers of thermostats in chain and in barostat
run 10000          # run for 10000 steps
Per MPI rank memory allocation (min/avg/max) = 3.642 | 3.644 | 3.648 Mbytes
Step Temp E_pair E_mol TotEng Press Volume 
       0          2.4   -8.1195307            0   -4.5204307   -2.5632236         4000 
    1000    2.4041119   -4.5056373            0  -0.90037097    5.6927739    5049.4095 
    2000    2.3348715   -4.4280814            0  -0.92664974    5.4651301     5113.286 
    3000    2.4405172     -4.49404            0  -0.83417934    5.5603285    5084.4778 
    4000     2.382532   -4.4697587            0  -0.89685416    5.7425088    5064.3345 
    5000    2.3577939   -4.4198541            0  -0.88404749    5.8909456    5061.9298 
    6000    2.3900993    -4.433822            0  -0.84956935      5.77134    5085.8581 
    7000    2.3809252   -4.4620464            0  -0.89155137    5.8875135    5040.5293 
    8000    2.3915389    -4.509937            0  -0.92352546    5.6275931    5054.6455 
    9000     2.450105   -4.5225701            0   -0.8483314    5.5474252    5059.7057 
   10000    2.4578698   -4.4576922            0  -0.77180913     5.770212    5073.4485 
Loop time of 2.05261 on 48 procs for 10000 steps with 4000 atoms

Performance: 841855.321 tau/day, 4871.848 timesteps/s
99.7% CPU use with 48 MPI tasks x no OpenMP threads

MPI task timing breakdown:
Section |  min time  |  avg time  |  max time  |%varavg| %total
---------------------------------------------------------------
Pair    | 0.85614    | 0.92086    | 0.99571    |   3.2 | 44.86
Neigh   | 0.16772    | 0.17375    | 0.18291    |   0.8 |  8.47
Comm    | 0.65255    | 0.71793    | 0.8073     |   4.4 | 34.98
Output  | 0.00023888 | 0.0002454  | 0.00041408 |   0.0 |  0.01
Modify  | 0.20302    | 0.22566    | 0.25061    |   2.6 | 10.99
Other   |            | 0.01416    |            |       |  0.69

Nlocal:        83.3333 ave          91 max          75 min
Histogram: 1 4 4 6 4 8 11 4 5 1
Nghost:        1408.73 ave        1434 max        1389 min
Histogram: 5 4 7 5 7 7 5 2 4 2
Neighs:        7502.40 ave        8329 max        6482 min
Histogram: 1 1 3 5 8 12 6 6 5 1

Total # of neighbors = 360115
Ave neighs/atom = 90.028750
Neighbor list builds = 903
Dangerous builds = 183

# Equilibrate just above the melting temperature to avoid step fn in T

fix 1 all npt temp 1.25 1.25 0.1 iso 5.68 5.68 0.5 mtk yes tchain 5 pchain 5
run 2000
Per MPI rank memory allocation (min/avg/max) = 3.643 | 3.645 | 3.648 Mbytes
Step Temp E_pair E_mol TotEng Press Volume 
   10000    2.4578698   -4.4576922            0  -0.77180913     5.770212    5073.4485 
   11000    1.2553211   -5.9423508            0   -4.0598399     5.781459    4212.3622 
   12000    1.2562241   -5.9582933            0   -4.0744282    5.8909889    4197.0444 
Loop time of 0.453092 on 48 procs for 2000 steps with 4000 atoms

Performance: 762759.713 tau/day, 4414.119 timesteps/s
99.6% CPU use with 48 MPI tasks x no OpenMP threads

MPI task timing breakdown:
Section |  min time  |  avg time  |  max time  |%varavg| %total
---------------------------------------------------------------
Pair    | 0.19701    | 0.21178    | 0.22685    |   1.7 | 46.74
Neigh   | 0.030765   | 0.031996   | 0.033833   |   0.4 |  7.06
Comm    | 0.13726    | 0.15726    | 0.17697    |   2.3 | 34.71
Output  | 4.8514e-05 | 4.9793e-05 | 6.423e-05  |   0.0 |  0.01
Modify  | 0.040474   | 0.047592   | 0.053052   |   1.8 | 10.50
Other   |            | 0.004417   |            |       |  0.97

Nlocal:        83.3333 ave          92 max          76 min
Histogram: 2 6 2 6 8 12 8 1 2 1
Nghost:        1597.85 ave        1617 max        1582 min
Histogram: 5 4 2 5 11 11 3 2 3 2
Neighs:        9077.33 ave       10286 max        8155 min
Histogram: 3 4 6 6 12 10 4 1 1 1

Total # of neighbors = 435712
Ave neighs/atom = 108.92800
Neighbor list builds = 142
Dangerous builds = 7

#############################
# L I N E A R  Q U E N C H  #
#############################

# Define solid atoms. This closely follows ten Wolde  Ruiz-Montero and Frenkel  Faraday Discuss  1996  104  93-110
# Compute components of the per-atom q6 vector
compute q6 all orientorder/atom degrees 1 6 components 6 nnn NULL cutoff 1.3 # compute the Q6 parameter.
                                                                             # Use all neighbours within 1.3 unit cell.

# get number of connections
compute coord_number all coord/atom orientorder q6 0.5

# An atom is solid if it has 8 or more connections (of a possible 14)
variable is_solid atom c_coord_number>=8
group solid dynamic all var is_solid    # Must be dynamic to update
dynamic group solid defined

# do clustering
compute cluster solid cluster/atom 1.3 # Create a cluster where all atoms within are solid and max 1.3 units from another member

# define chunks one chunk per cluster
compute clus_chunks solid chunk/atom c_cluster nchunk every compress yes  # Says which atoms are in which chunk

# count the size of each chunk
compute size_chunks solid property/chunk clus_chunks count


# Find the maximum entry in the vector of chunk sizes
variable max_n equal max(c_size_chunks)


# Thermo style which includes this variable
# thermo_style custom step temp pe vol v_max_n

thermo ${N}  # Print the thermo information every 100 steps
thermo 1000  

# Reset the npt fix at a lower temperature (below freezing)
fix 1  all npt temp  ${temp} ${temp}  0.1  iso  5.68  5.68  0.5  mtk yes tchain  5  pchain  5
fix 1  all npt temp  0.45 ${temp}  0.1  iso  5.68  5.68  0.5  mtk yes tchain  5  pchain  5
fix 1  all npt temp  0.45 0.45  0.1  iso  5.68  5.68  0.5  mtk yes tchain  5  pchain  5

dump dmp2 all dcd ${N} traj.dcd
dump dmp2 all dcd 1000 traj.dcd


compute msd all msd com yes
variable twopoint equal c_msd[4]/6/(step*dt+1.0e-6)
fix 9 all vector 10 c_msd[4]
variable fit equal slope(f_9)/6/(10*dt)
thermo_style custom step temp pe c_msd[4] v_twopoint v_fit v_max_n

fix 1 all npt temp 1.25 ${temp} 0.1 iso 5.68 5.68 0.5 mtk yes tchain 5 pchain 5
fix 1 all npt temp 1.25 0.45 0.1 iso 5.68 5.68 0.5 mtk yes tchain 5 pchain 5
run 2000000 # 5000000  # Run for this many steps
Neighbor list info ...
  update every 1 steps, delay 10 steps, check yes
  max neighbors/atom: 2000, page size: 100000
  master list distance cutoff = 3.8
  ghost atom cutoff = 3.8
  binsize = 1.9, bins = 9 9 9
  4 neighbor lists, perpetual/occasional/extra = 1 3 0
  (1) pair lj/cut, perpetual
      attributes: half, newton on
      pair build: half/bin/atomonly/newton
      stencil: half/bin/3d
      bin: standard
  (2) compute orientorder/atom, occasional
      attributes: full, newton on
      pair build: full/bin/atomonly
      stencil: full/bin/3d
      bin: standard
  (3) compute coord/atom, occasional
      attributes: full, newton on
      pair build: full/bin/atomonly
      stencil: full/bin/3d
      bin: standard
  (4) compute cluster/atom, occasional
      attributes: full, newton on
      pair build: full/bin/atomonly
      stencil: full/bin/3d
      bin: standard
Per MPI rank memory allocation (min/avg/max) = 9.736 | 9.744 | 9.749 Mbytes
Step Temp PotEng c_msd[4] v_twopoint v_fit v_max_n 
   12000    1.2562241   -5.9582933            0            0 8.3333333e+20            2 
   13000    1.2490555   -5.9647757   0.57262164 0.0036706514   0.04694815            3 
   14000    1.2540586   -5.9720754    1.0973052 0.0065315784  0.044824788            2 
   15000    1.2326567   -5.9940051    1.6392277 0.0091068204  0.044966911            3 
   16000    1.2422098    -5.997378    2.1712646  0.011308669  0.044897893            3 
   17000    1.2636056   -5.9672125      2.76633  0.013560441  0.045374431            2 
   18000     1.239487   -5.9921207    3.2845328   0.01520617  0.045836142            2 
   19000    1.2327677   -5.9935202    3.7595018  0.016489043  0.045241016            5 
   20000    1.2615236    -5.978295    4.3320173  0.018050072  0.045070474            2 
   21000    1.2449261   -5.9865749    4.8865163  0.019390937  0.045030923            1 
   22000     1.225945   -5.9649623     5.413697  0.020506427   0.04505397            4 
   23000    1.2517155   -5.9682715    5.9894096  0.021700759  0.045022844            3 
   24000    1.2527924   -5.9814646     6.487614  0.022526437  0.045071588            4 
   25000    1.2450201    -5.990076    7.1294332  0.023764777  0.045192408            3 
   26000    1.2421889   -5.9653751    7.6437487  0.024499194  0.045267894            3 
   27000    1.2315758   -5.9439936    8.1621242  0.025191741   0.04528021            3 
   28000    1.2333744   -6.0034431    8.6500478   0.02574419  0.045212142            4 
   29000    1.2564503   -6.0156576    9.2685816  0.026633855  0.045206071            3 
   30000    1.2348245   -5.9977537    9.9196369  0.027554546  0.045332326            8 
   31000    1.2710501    -5.962166    10.507963  0.028247212  0.045521244            3 
   32000    1.2270991   -6.0104672    11.001477  0.028649679  0.045694777            2 
   33000    1.2252588   -5.9806315    11.373247   0.02872032  0.045625225            2 
   34000    1.2297946   -5.9766644    11.953423  0.029297606  0.045531333            3 
   35000    1.2436297   -5.9598255    12.467675   0.02968494  0.045445885            2 
   36000    1.2430608   -6.0155124    13.140257  0.030417262  0.045446567            4 
   37000     1.233446   -5.9938336    13.724214  0.030910391  0.045484952            3 
   38000    1.2232273   -6.0040547    14.035855  0.030780384  0.045439651            4 
   39000    1.2244874   -6.0170844    14.492942  0.030967824  0.045336156            1 
   40000    1.2312025    -6.008893    15.089853  0.031437194  0.045215893            2 
   41000    1.2714617   -6.0196757    15.498739  0.031501502  0.045104375            3 
   42000    1.2120157   -6.0196452    15.968856  0.031684238  0.044950891            2 
   43000    1.2191094   -5.9588174    16.426098  0.031833523  0.044797829            6 
   44000     1.246727   -5.9792659    16.867391  0.031945815  0.044608724            2 
   45000    1.2333344   -5.9887357    17.252967  0.031949939  0.044401901            3 
   46000    1.2378389   -5.9937738      17.8244  0.032290579  0.044206952            5 
   47000    1.2372393   -5.9799808    18.299923  0.032446672  0.044041489            2 
   48000     1.261969   -6.0457673    18.754875  0.032560546  0.043911942            2 
   49000    1.2333886   -5.9999597     19.27503  0.032780663  0.043775653            2 
   50000    1.2016217   -5.9895442    19.706957  0.032844928    0.0436204            2 
   51000    1.2288232   -5.9993759    20.374694  0.033291983  0.043505479            4 
   52000    1.2397138   -6.0382596    20.907901  0.033506251  0.043424104            7 
   53000    1.2611797   -6.0185943    21.397861  0.033644435  0.043360531            2 
   54000    1.2367101   -6.0193264    21.916659  0.033822004  0.043287821            2 
   55000    1.2012102   -5.9988932    22.594687  0.034234374  0.043240758            3 
   56000    1.2258033    -6.021373    23.057178  0.034311277  0.043211388            3 
   57000    1.2008859   -6.0075579     23.52747  0.034396886  0.043192986            2 
   58000    1.2329226   -5.9780422    24.176595  0.034736486  0.043194942            1 
   59000    1.2262075   -6.0121021    24.738152  0.034940892  0.043211007            2 
   60000    1.2429251   -6.0199927    25.128701  0.034900973  0.043224453            4 
   61000    1.2021269   -5.9948634    25.813918  0.035264914   0.04322525            1 
   62000     1.239532   -6.0130499    26.219139  0.035240778  0.043228682            3 
   63000     1.210902   -6.0026148    26.793083  0.035440586  0.043214841            5 
   64000    1.2401241   -5.9997987    27.250052  0.035481839  0.043213096            4 
   65000    1.2379172   -5.9962249    27.886404  0.035751799  0.043203551            5 
   66000    1.2146746     -6.01055    28.308575   0.03574315   0.04320972            4 
   67000     1.191409   -5.9717611    28.941378  0.035996738  0.043220559            7 
   68000    1.2202904   -6.0473686    29.547359  0.036209999  0.043238332            4 
   69000    1.2152145    -6.030223    30.007913  0.036241441  0.043257614            2 
   70000    1.2482569   -5.9781761    30.553274  0.036372944   0.04328013            2 
   71000    1.2404865    -5.994974    30.979267  0.036360642  0.043290707            1 
   72000     1.216661   -6.0285451    31.404947  0.036348318  0.043294491            6 
   73000    1.2484863   -6.0355827    32.069274   0.03660876  0.043301539            2 
   74000    1.2262708   -6.0298013    32.519572  0.036621139  0.043314745            5 
   75000     1.250476   -6.0295557    33.183306   0.03687034    0.0433244            2 
   76000    1.2439339   -6.0275511    33.535625  0.036771519  0.043338747            3 
   77000    1.2111853   -6.0415978    34.159681  0.036969352  0.043354003            2 
   78000    1.2353686   -5.9909909    34.695059  0.037067371  0.043367042            3 
   79000    1.2189523   -6.0082749    35.408689  0.037350937   0.04339232            6 
   80000    1.2368344   -6.0401212    35.957812  0.037456053  0.043420503            3 
   81000    1.2359693   -6.0289641    36.610442  0.037665063  0.043453345            3 
   82000    1.2349381   -6.0188761    37.255558  0.037861339  0.043503301            3 
   83000    1.2126764   -6.0131898    37.771496  0.037923188  0.043550992            2 
   84000    1.2175561   -6.0380366    38.289914  0.037986025  0.043597776            4 
   85000    1.2425542   -6.0385244    38.661746  0.037903673  0.043633539            4 
   86000    1.2047366   -6.0206736    39.303971  0.038085243  0.043667764            2 
   87000    1.1933348   -6.0160514      39.9777  0.038292816  0.043705559            2 
   88000    1.2433185   -6.0230304    40.269161  0.038133675  0.043734796            3 
   89000    1.2129776   -6.0886849    40.591604  0.038007119  0.043744606            9 
   90000    1.2039919   -6.0091911    41.272679  0.038215443   0.04374821            2 
   91000    1.2389337   -6.0586388    41.307289  0.037827188  0.043744581            3 
   92000    1.2217816   -5.9758904    42.111569  0.038144537  0.043738542            2 
   93000     1.234437   -6.0477023    42.774669  0.038328556  0.043742448            2 
   94000    1.2384222   -6.0346765    43.383746  0.038460768  0.043752077            3 
   95000    1.1937256   -6.0140048    43.691521  0.038325896  0.043756311            3 
   96000    1.2190078   -6.0578723    44.125324  0.038303232  0.043757993            5 
   97000    1.2233566   -6.0305598    44.737777  0.038434517   0.04375862            7 
   98000    1.1844312   -6.0731703    45.107362    0.0383566      0.04375            5 
   99000    1.2304578   -6.0468021    45.735754   0.03849811  0.043742574            4 
  100000    1.2234717   -6.0117133    46.425023  0.038687519  0.043744466            3 
  101000    1.1927233   -6.0581058     46.98471  0.038766262  0.043752115            2 
  102000     1.220301   -6.0868569    47.322502  0.038662175  0.043756324            4 
  103000    1.2279359    -6.044998    47.809549  0.038680865  0.043744564            3 
  104000    1.1984332   -6.0211319    48.081462  0.038526812  0.043730369            3 
  105000    1.2123815   -6.0297499    48.614424  0.038582876  0.043711261            4 
  106000    1.2178878   -6.0650031    49.211242  0.038688083   0.04369264            3 
  107000     1.216048   -6.0614049    49.883358  0.038849967  0.043676983            3 
  108000    1.2275957   -6.1110986    50.319796  0.038827003  0.043671101            5 
  109000    1.2094634   -6.0374447    50.813564   0.03884829  0.043656425            3 
  110000    1.2104824   -6.0773747      51.1445  0.038745833  0.043634391            3 
  111000    1.2133856   -6.0258579    51.571435  0.038717293  0.043616988            7 
  112000     1.220027   -6.0550057     52.31176   0.03892244  0.043600711            2 
  113000    1.1959611   -6.0748771    52.595123  0.038786964   0.04358113            3 
  114000    1.2189881   -6.0532594    53.097213  0.038813752  0.043560986            3 
  115000    1.1994459   -6.0319715    53.640527  0.038869947  0.043539824            3 
  116000     1.199621   -6.0585779    53.682266  0.038564846   0.04350929            2 
  117000     1.196277   -6.0661368    54.148605  0.038567382  0.043472222            4 
  118000    1.2301947   -6.0512124     54.93949  0.038799075  0.043441549            8 
  119000    1.2131125    -6.037219    55.187488    0.0386467  0.043411558            3 
  120000    1.2393756    -6.045509     55.67511   0.03866327  0.043379513            2 
  121000    1.1799655   -6.0320145    56.055574  0.038605767  0.043344609            3 
  122000    1.1977539   -6.0725569    56.613261   0.03867026  0.043306387            4 
  123000     1.207394   -6.0510351    57.298353  0.038820022  0.043272703            3 
  124000    1.2156683   -6.0369398    57.893176  0.038906704  0.043243342            4 
  125000    1.2103512   -6.0226904    58.760954  0.039173969  0.043221886            4 
  126000    1.2046622    -6.030244    59.042298  0.039049139  0.043207875            3 
  127000    1.1787492   -6.0961811     59.58318  0.039096575   0.04319241            3 
  128000    1.2041114   -6.0591684    59.874033   0.03898049  0.043171246            4 
  129000    1.2167718   -6.0362527    60.155694  0.038860267  0.043147834            4 
  130000      1.21314   -6.0458954    60.941516  0.039065074  0.043119778            4 
  131000    1.1952137   -6.0854888    61.243393  0.038958901   0.04309281            2 
  132000    1.1946827   -6.0567181    61.718669  0.038963806  0.043067563            7 
  133000    1.1939796   -6.0767566    61.965608  0.038825569  0.043038149            4 
  134000    1.2052669   -6.0406187    62.579065  0.038917329  0.043007178            3 
  135000     1.210256   -6.0195638    62.608922  0.038647483  0.042968004            2 
  136000    1.1914121   -6.0605379    63.307729  0.038791501  0.042928771            3 
  137000    1.2059208   -6.0644093    63.799617  0.038807553  0.042892355            5 
  138000    1.1998567   -6.0505429     64.77043  0.039112578  0.042862266            4 
  139000    1.2067815   -6.0524118    65.034973  0.038989792  0.042836408            2 
  140000    1.2104592   -6.0727206    65.388542  0.038921751   0.04280641            5 
  141000    1.2136149   -6.0642807    65.656696  0.038804193  0.042778232            2 
  142000    1.2208139   -6.0698199    66.097084  0.038789369  0.042750188            5 
  143000    1.1634095   -6.0920374    66.922039  0.038998857  0.042722468            3 
  144000    1.1942807   -6.0873332    67.518932  0.039073456  0.042696766            3 
  145000    1.2081014   -6.0476654    67.941949  0.039047097  0.042669073            4 
  146000    1.2207168   -6.0856522    68.325286  0.038998451  0.042641041            3 
  147000    1.1935403   -6.0504611    68.374865  0.038761261  0.042611596            4 
  148000    1.1991811   -6.0812528    68.994072  0.038848014   0.04258069            2 
  149000    1.1790524   -6.0976626    69.708888  0.038987074  0.042555049            5 
  150000    1.2069371   -6.0538242    70.444947  0.039136081  0.042531539            2 
  151000    1.2023149    -6.055389    70.811743  0.039079328  0.042508924            2 
  152000    1.2216629   -6.0750486    70.955622  0.038901109  0.042483775            2 
  153000    1.2109115    -6.082786     71.92361  0.039174079  0.042459376            2 
  154000    1.1906241   -6.1163393    72.198484  0.039068444  0.042438542            4 
  155000    1.1801947    -6.052486    73.099131  0.039300608  0.042418002            3 
  156000    1.1903162   -6.0583956    73.223015  0.039114858  0.042395836            6 
  157000    1.1923045   -6.0936475    73.733544    0.0391367  0.042376245            3 
  158000    1.2010095   -6.0984728    73.675869  0.038858581   0.04235196            3 
  159000    1.1804706   -6.1082315      74.2166  0.038897589  0.042324003            4 
  160000    1.1767299   -6.0551952    74.657683   0.03888421  0.042295357           10 
  161000    1.1969371   -6.1103068    75.452904  0.039054298  0.042270098            7 
  162000    1.2099388   -6.0734212    76.170593  0.039182403  0.042247077            5 
  163000     1.217166   -6.1091513    76.320482  0.039018651  0.042223878            8 
  164000    1.1876264   -6.0734148    76.984986  0.039118387  0.042198847            2 
  165000    1.1997686   -6.0992811    77.154386  0.038966861   0.04217552            5 
  166000    1.1791918   -6.1078075    77.723437   0.03901779  0.042150907            4 
  167000     1.138934    -6.078511    78.292567  0.039068147   0.04212737            2 
  168000    1.1995307   -6.0851391    78.587978  0.038982132    0.0421047            4 
  169000    1.1895067   -6.0922616    79.353866  0.039129125   0.04208059            4 
  170000    1.2001575   -6.0918489    79.866758  0.039150372  0.042057235            3 
  171000    1.1860275   -6.1221904    80.015281  0.038993802   0.04203581            3 
  172000    1.1637458   -6.0840953    80.607725   0.03905413  0.042011259            3 
  173000    1.1613159    -6.060974    80.743558  0.038893814   0.04198896            4 
  174000    1.1620215   -6.1133055      81.4052  0.038987165  0.041965993            2 
  175000    1.1871968   -6.0862014    82.086353  0.039088739  0.041943025            2 
  176000    1.1988139   -6.0808896    82.187966  0.038914757  0.041921531            2 
  177000    1.1991012   -6.1027471    83.016997  0.039085215   0.04190157            6 
  178000    1.1831516   -6.0757518    83.687463  0.039179524  0.041885049            9 
  179000    1.1756337   -6.1010107     84.07263  0.039139958  0.041871241            3 
  180000    1.1938359   -6.0758619     84.83363  0.039274829  0.041855558            4 
  181000    1.1879181    -6.119821    84.897722  0.039087349   0.04183987            2 
  182000    1.1844678   -6.0929077    85.525941  0.039160229  0.041823078            5 
  183000    1.2184934   -6.0534363     86.19097  0.039249075  0.041807144            4 
  184000     1.196396    -6.076922    86.687439  0.039260615  0.041793922            4 
  185000    1.2035557   -6.1274807    86.817409  0.039106941  0.041781073            3 
  186000    1.1768658   -6.1296539    87.900356   0.03938188  0.041768313            6 
  187000    1.1843482   -6.1003567     88.26771  0.039334986  0.041754337            4 
  188000     1.164251   -6.1297438    88.576746  0.039262742  0.041738719           13 
  189000    1.1823594   -6.1229014    88.956953  0.039222642  0.041723551            5 
  190000    1.2062295   -6.1184348    89.344777  0.039186306  0.041708249            4 
  191000    1.1660283   -6.0998309    89.934641  0.039238499  0.041695108            2 
  192000    1.1821852   -6.1111497    90.864205  0.039437589  0.041682341            3 
  193000    1.1683978    -6.144832    90.613726  0.039125097  0.041669414            4 
  194000    1.1715517   -6.1309144    91.229286  0.039187838  0.041655936            3 
  195000    1.2071407    -6.113832    91.903137  0.039274845  0.041642808            4 
  196000    1.1656813   -6.1354788    92.309072  0.039247054  0.041630623            5 
  197000    1.2038953   -6.1304004    92.973402   0.03932885  0.041622122            3 
  198000    1.1826916   -6.1289886    93.797072  0.039476882  0.041613344            4 
  199000     1.177365   -6.1037893    94.210556  0.039451657  0.041604462            6 
  200000    1.1792654   -6.1051133    94.541923  0.039392468  0.041596034            5 
  201000    1.1620227    -6.105808    95.140661  0.039444718  0.041586692            2 
  202000     1.149446   -6.0770563    95.535766  0.039412445  0.041578879            4 
  203000    1.1592816   -6.1306907    96.114575  0.039455901  0.041570676            3 
  204000     1.187917    -6.081508    96.624133  0.039470643  0.041564355            4 
  205000    1.1765607   -6.1786878     96.93639  0.039405036  0.041556191            3 
  206000    1.1718818   -6.1090368    97.401178  0.039401771  0.041549034            2 
  207000     1.200782   -6.0677323    97.617458  0.039298493  0.041541758            5 
  208000    1.1828677   -6.0740614    98.172399   0.03933189  0.041529935            2 
  209000     1.156026   -6.0985381    98.221951  0.039163457  0.041515348            5 
  210000    1.1473323   -6.1495155    98.404212   0.03904929  0.041497465            5 
  211000      1.16227   -6.1197274    99.039655  0.039115187  0.041478673            5 
  212000    1.1757586   -6.0744106     99.21764  0.039000645  0.041460992            3 
  213000    1.1590259   -6.1205282    99.953281  0.039105352  0.041442538            4 
  214000    1.1577626   -6.1327818    100.26482  0.039043933  0.041424688            4 
  215000     1.154346   -6.0870001    100.61611  0.038998492  0.041405433            3 
  216000    1.2004492   -6.0934901    101.39257  0.039117502  0.041386536            1 
  217000    1.1625235   -6.1145934    101.12741   0.03883541  0.041366385            3 
  218000    1.1707926   -6.1239715    101.91087  0.038956754  0.041345183            3 
  219000    1.1686999   -6.1515363    102.64394  0.039057815  0.041325555            2 
  220000    1.1899749   -6.1271924    103.17144   0.03908009  0.041307558            5 
  221000    1.1533842   -6.1121947    104.27931  0.039321007  0.041292866            2 
  222000    1.1584966   -6.1337004     104.6371  0.039278189  0.041281757            4 
  223000     1.160967   -6.1378577    104.59749  0.039087252   0.04126936            3 
  224000     1.171814   -6.0845117    105.27178   0.03916361  0.041254378            1 
  225000    1.1465094   -6.1254104    105.61797  0.039117768  0.041239621            3 
  226000    1.1825696   -6.1068428    105.98719  0.039080822  0.041225106            4 
  227000    1.1703705   -6.1032018    105.95778  0.038897864  0.041207823            6 
  228000    1.1405408   -6.1520463    106.32077  0.038859929   0.04118735            4 
  229000    1.1656102   -6.1304823    106.66837  0.038816728  0.041166362            4 
  230000    1.1735822   -6.1374459    107.39025  0.038909511  0.041144564            3 
  231000    1.1325149   -6.1689317    107.74664  0.038869641  0.041123409            4 
  232000    1.1554898   -6.1140665    108.52937  0.038983251  0.041104683            3 
  233000    1.1552916    -6.132574    108.64625  0.038857742  0.041085581            3 
  234000     1.163807   -6.1607851    108.54171  0.038654456  0.041061927            4 
  235000    1.1598846   -6.1318367    108.64847  0.038527827  0.041035272            3 
  236000    1.1448996   -6.1234006    109.17892   0.03855188  0.041005918            2 
  237000    1.1799293   -6.1852879    109.39455  0.038465032  0.040974816            2 
  238000     1.154734    -6.161305    109.79266  0.038442807  0.040945183            3 
  239000    1.1478778   -6.1605242    110.19809  0.038423323  0.040914786            3 
  240000    1.1652113   -6.1578674     110.6949  0.038435728  0.040886252            3 
  241000      1.15456    -6.130483    111.07303  0.038406994  0.040856073            3 
  242000    1.1417657   -6.1642546    111.00769   0.03822579  0.040823724            3 
  243000    1.1559067   -6.1464285    111.70164  0.038306461  0.040790405            2 
  244000     1.170317   -6.1056796    112.05269  0.038269361   0.04075989            3 
  245000    1.1739254   -6.1372329    112.53169  0.038276085  0.040728069            2 
  246000    1.1503031   -6.1458772    112.72472  0.038185879  0.040695645            3 
  247000    1.1411265   -6.1229703    113.48478  0.038287713  0.040661898            3 
  248000     1.126291    -6.092927    113.94331  0.038287403  0.040629428            4 
  249000    1.1480899    -6.137274    114.03127  0.038163077  0.040596737            3 
  250000    1.1640637   -6.1287805    114.41135  0.038137116  0.040563725            4 
  251000    1.1553319   -6.1026856    115.00705  0.038182952  0.040530944            3 
  252000    1.1552414   -6.1344783    115.35929  0.038147913  0.040498097            7 
  253000    1.1746673   -6.1578744    115.46075  0.038030551  0.040464222            6 
  254000    1.1304192   -6.1529142    116.14309  0.038104687  0.040433941            4 
  255000    1.1560685   -6.1162814    116.86122  0.038189942   0.04040416            3 
  256000    1.1524159   -6.1506043    116.97944  0.038079245  0.040374416            5 
  257000    1.1671069   -6.1457533    117.50295  0.038100828  0.040345408            4 
  258000    1.1679164   -6.1683289    118.09115  0.038143136  0.040316071            5 
  259000    1.1271026   -6.1491853    118.45483   0.03811288   0.04028725            3 
  260000    1.1574066   -6.1396505     119.1212  0.038179871  0.040258577            6 
  261000    1.1339464   -6.1233882    119.42239  0.038129754  0.040230385            6 
  262000    1.1563345   -6.1529421    119.54154  0.038022119  0.040202486            3 
  263000    1.1617214   -6.1606439    119.76012  0.037946806  0.040172892            4 
  264000    1.1229759   -6.1286977    120.17167  0.037932977   0.04014293            3 
  265000     1.173926   -6.1536617    120.47518  0.037885277  0.040112753            3 
  266000    1.1404606   -6.1436481    121.10745  0.037940931  0.040083392            2 
  267000    1.1445406   -6.2061342    121.54758    0.0379362  0.040054359            3 
  268000    1.1564946   -6.1398789    122.02061  0.037941733  0.040025776            3 
  269000    1.1454601   -6.1329314    122.24173  0.037869185  0.039998783            7 
  270000    1.1729073   -6.1485874    122.82737  0.037909682  0.039971806            3 
  271000    1.1557508   -6.1511301    123.73287  0.038048238  0.039943847            3 
  272000    1.1173426   -6.1460652    124.33393  0.038092504  0.039918502            2 
  273000     1.150684   -6.1742502    124.20076   0.03791232  0.039894204            1 
  274000    1.1463099   -6.1572305    125.17695  0.038070848  0.039869648            7 
  275000    1.1395945    -6.160837    125.35524  0.037986436  0.039846554            2 
  276000     1.141179   -6.1659339    125.83961  0.037995051  0.039822897            5 
  277000    1.1241233     -6.21816    125.82802  0.037854399  0.039798181            8 
  278000    1.1512406   -6.1857695    126.32318  0.037866662   0.03977275            5 
  279000    1.1430876   -6.1632241    126.79972  0.037873274  0.039748137            5 
  280000    1.1348386   -6.1256226    127.23263  0.037866853  0.039722477            6 
  281000     1.157937   -6.1850112      127.572  0.037832739  0.039697338            6 
  282000    1.1340233   -6.1725625    128.55546  0.037989203   0.03967227            3 
  283000    1.1551915   -6.1630465    128.36684  0.037799423  0.039648886            3 
  284000    1.1431555   -6.1220295    128.81477  0.037797762  0.039624924            3 
  285000    1.1388236   -6.2029113    129.09062  0.037745794  0.039599381            3 
  286000    1.1377315   -6.1975348    129.40838  0.037706404  0.039573483            3 
  287000    1.1326398    -6.127182     130.3332  0.037843555  0.039549046            2 
  288000    1.1390128   -6.1247004    130.37805  0.037725129  0.039523374            4 
  289000    1.1447988   -6.1842222    131.21069  0.037834686   0.03949958            4 
  290000    1.1521364   -6.1423532    131.71666  0.037849616  0.039476793            3 
  291000    1.1335612   -6.1578336    132.19271  0.037855874  0.039455774            4 
  292000    1.1418354   -6.1774546    132.50033  0.037814022  0.039434893            4 
  293000    1.1510012   -6.2154667    133.04911  0.037841043  0.039413373            4 
  294000    1.1621152   -6.1975067    133.22497   0.03776218  0.039391764            4 
  295000    1.1368717   -6.1106201    133.75552  0.037784047  0.039370379            6 
  296000    1.1212084   -6.1974867    134.01615  0.037729773  0.039348138            2 
  297000    1.1499064   -6.1889647    134.84948  0.037836554  0.039326372            3 
  298000    1.1284463   -6.1824643    134.68387  0.037663275  0.039304027            3 
  299000    1.1394847   -6.1567797    135.32233  0.037715252  0.039282463            3 
  300000    1.1473848   -6.1623024    135.85486  0.037737461   0.03926025            2 
  301000    1.1277371   -6.1504565    136.59566  0.037817182    0.0392398            7 
  302000    1.1497193   -6.1677015    137.53244  0.037950453  0.039220886            4 
  303000    1.1431608   -6.1807716    137.42892  0.037796733  0.039202606            4 
  304000    1.1147903   -6.2168778    137.79833  0.037773666  0.039183489            3 
  305000    1.1345414   -6.1519146    138.07868  0.037726416  0.039165093            5 
  306000    1.1502885   -6.1834608    138.75754     0.037788  0.039147574            5 
  307000    1.1408033   -6.1893137    139.06137  0.037747386   0.03913004            4 
  308000    1.1420807   -6.1717609    139.40472  0.037717727  0.039111761            4 
  309000    1.1289088   -6.2000872    139.87742  0.037723144  0.039092934            3 
  310000     1.120286   -6.1722847    140.53919  0.037779352  0.039075253            3 
  311000    1.1152682   -6.2004232    140.47309  0.037640162  0.039057405            3 
  312000    1.1215566    -6.210127    140.69381  0.037578475   0.03904073            2 
  313000    1.1329598   -6.1972959    141.16734   0.03758449  0.039022081            3 
  314000    1.1187457    -6.170654    142.43957  0.037802434  0.039003855            4 
  315000    1.1428018   -6.2275632    141.90778  0.037541741  0.038985734            2 
  316000    1.1197676   -6.1864302    142.67807  0.037626074  0.038966172            2 
  317000    1.1235767   -6.1963535    143.30516   0.03767223  0.038947867            3 
  318000    1.1089559   -6.2295306    143.38951  0.037575866  0.038929695            7 
  319000    1.1474535   -6.1451657    144.22637   0.03767669  0.038911698            5 
  320000    1.1176898   -6.2066246    144.59607  0.037655227  0.038895237           10 
  321000     1.128634   -6.2083914    144.55009  0.037525984  0.038877792            7 
  322000    1.1210446   -6.2152481    145.12888  0.037559234  0.038858667            2 
  323000    1.1104527   -6.2068937    145.99805  0.037667196  0.038840526            4 
  324000    1.1256986    -6.182864    145.68856  0.037471338  0.038821814            4 
  325000    1.1331913   -6.2300676    145.87555  0.037403988  0.038802527            4 
  326000    1.1422648   -6.1779991     146.7222  0.037505674  0.038783055            2 
  327000    1.1415354   -6.2198505    146.83102   0.03741871   0.03876299            4 
  328000     1.108701   -6.1954459    147.23254   0.03740664  0.038743823            3 
  329000    1.1645659   -6.1785474    147.52087  0.037365976  0.038725539            4 
  330000    1.1186616   -6.1913694    148.47533  0.037493769  0.038707668            4 
  331000    1.1224749   -6.2118695    149.36318  0.037604022  0.038690913            4 
  332000    1.1218157   -6.1896234     149.1327  0.037432907  0.038673215            4 
  333000    1.1223011   -6.2052888    149.38326  0.037383197  0.038654348            6 
  334000    1.1415993   -6.2102666    149.61656   0.03732948  0.038634929            5 
  335000     1.122112   -6.1777863    149.84805  0.037275634  0.038615258            3 
  336000    1.1495949   -6.2010388    150.01613  0.037206381  0.038595279            3 
  337000    1.1008662   -6.1862033     150.1638  0.037132492  0.038573195            4 
  338000    1.1459464   -6.2040107    150.62923  0.037137384  0.038550954            4 
  339000    1.1261612    -6.212671    150.92664  0.037100944  0.038528931            9 
  340000    1.1035823   -6.1519069    151.77669   0.03720017  0.038507795            5 
  341000    1.0897767   -6.2393433    151.84039  0.037106645  0.038487355            8 
  342000    1.1058476   -6.1997375    152.43382  0.037142743  0.038466668            6 
  343000    1.1170674   -6.1920782    152.92393  0.037153531  0.038446565            5 
  344000    1.1200574    -6.168633    153.29913  0.037136417  0.038426573            4 
  345000    1.1094343   -6.2045871    153.76221   0.03714063  0.038406314            2 
  346000    1.1485907   -6.1969942    154.24955  0.037150662  0.038386316            3 
  347000    1.1022775    -6.155973     154.5557  0.037117124  0.038367319            5 
  348000    1.1106053   -6.2055817    154.93364  0.037100967  0.038348172            2 
  349000    1.1151041   -6.2289011    155.29562  0.037081094  0.038329045            3 
  350000    1.1200899   -6.2445118    155.55347   0.03703654   0.03830985            2 
  351000    1.0861158   -6.1985651    156.21359  0.037087748  0.038290803            6 
  352000    1.1138861   -6.2073955    156.79353   0.03711968  0.038271894            3 
  353000    1.1068223   -6.2085196    156.82828   0.03702273  0.038253386            2 
  354000     1.122022   -6.1664157    157.64522  0.037110456   0.03823408            5 
  355000    1.0855577   -6.1735224    157.41451  0.036951763  0.038215758            8 
  356000    1.1011714   -6.2451926     157.8332  0.036945975   0.03819658            4 
  357000    1.1010501   -6.2060264    158.41363  0.036977971  0.038176876            5 
  358000    1.0726526   -6.2144181    158.45011  0.036883172  0.038156353            3 
  359000    1.1055311   -6.2048953    159.54082  0.037033616  0.038135706            2 
  360000    1.1182698   -6.2205045    159.94978  0.037025413   0.03811676            7 
  361000    1.1035586   -6.2252859    160.64254  0.037082764  0.038098086            2 
  362000    1.1368794   -6.2206407    160.40273  0.036925122  0.038079328            2 
  363000    1.0814812   -6.1902091    160.59862   0.03686837  0.038060543            4 
  364000    1.1089764   -6.2197834    162.03539  0.037096015  0.038043238            5 
  365000    1.0893686   -6.2573633    161.48935  0.036869714  0.038026547            6 
  366000    1.1243894   -6.2033095    162.97205  0.037106568  0.038008964            4 
  367000    1.1222524   -6.2238375    162.03804  0.036793379  0.037991005            3 
  368000    1.1024093   -6.1896815    162.64254  0.036830285  0.037972019            3 
  369000    1.0812577   -6.2350928     162.8376  0.036774525   0.03795303            3 
  370000    1.1226266   -6.2515669    163.47668  0.036819073  0.037934304            3 
  371000    1.1153496   -6.2208966    163.57437  0.036741772  0.037914989            4 
  372000    1.0889666      -6.2364     164.0163  0.036742004  0.037895526            5 
  373000    1.0894576   -6.1952736     164.5696  0.036767114  0.037876036            4 
  374000    1.0947938   -6.2584421    164.68881  0.036695368   0.03785618            5 
  375000    1.1034249   -6.2402015    164.90898  0.036646439  0.037836257            6 
  376000    1.1123716   -6.2570095    165.65929  0.036715268  0.037816693            4 
  377000    1.1068227   -6.2230321    165.75118  0.036638192  0.037798181            4 
  378000    1.0926063    -6.264012    166.22658  0.036646071  0.037779225            3 
  379000    1.1183732   -6.2409301    166.94237  0.036706765  0.037759733            2 
  380000    1.1172006   -6.2346815    166.39055  0.036489155  0.037740382            4 
  381000    1.0982273   -6.2335183     166.8873  0.036502035  0.037719784            8 
  382000    1.0982696   -6.2401756    167.61882   0.03656606  0.037699851            9 
  383000    1.1094448   -6.2196106    167.91446  0.036534914  0.037679564            3 
  384000    1.1027928   -6.1998362    168.26799   0.03651649  0.037659873            6 
  385000    1.0791533   -6.2381184    168.87695  0.036553452  0.037641255            5 
  386000    1.1048454   -6.2325232    169.62665  0.036620607  0.037622893            3 
  387000     1.113223   -6.2117663     170.5867  0.036732709  0.037604566            3 
  388000    1.0969423   -6.2527743    171.39154  0.036810899  0.037586825            3 
  389000    1.0917873   -6.2432353    170.73564  0.036575758  0.037569637            6 
  390000    1.1182147   -6.2112827    171.17963  0.036576844  0.037551554            4 
  391000    1.0952218   -6.2442827    171.67183    0.0365882   0.03753356            4 
  392000    1.0976578   -6.2103676    172.14012  0.036594414   0.03751605            5 
  393000    1.0654412   -6.2273182    172.08789  0.036490222  0.037497864            3 
  394000    1.0835055   -6.2432799    172.53753   0.03649271  0.037479965            2 
  395000    1.0941815   -6.3007693    173.18148  0.036536177  0.037462358            4 
  396000    1.1087402   -6.2475812    173.94647  0.036604898  0.037445459            3 
  397000    1.1214105   -6.2581506    174.53902  0.036637073   0.03742961            2 
  398000    1.1123053   -6.2301025    175.17705  0.036678612  0.037414037            4 
  399000    1.1002623   -6.2342651    174.94637  0.036538507  0.037398402            3 
  400000    1.0668948    -6.240237    174.38739  0.036330706  0.037380581            6 
  401000    1.0933757   -6.2322638    176.01827  0.036579025  0.037363166            8 
  402000     1.083821   -6.2693894    175.30314  0.036339788  0.037347002            6 
  403000    1.0916274   -6.2500682    176.25264  0.036445955  0.037330087            6 
  404000    1.0786222   -6.2444429    176.42215  0.036390707  0.037313318            5 
  405000    1.1165876   -6.2629987    176.72072  0.036362288  0.037296613            3 
  406000    1.0976227   -6.2539985    177.55717  0.036444411   0.03727968            4 
  407000    1.0948611    -6.254171    178.30406  0.036507792  0.037264006            3 
  408000    1.1153769   -6.2509314    178.62436  0.036483734  0.037248604            7 
  409000    1.0725364   -6.2352741    179.26486  0.036525032  0.037233729            6 
  410000    1.0746653   -6.2277852    179.81583  0.036547933   0.03721907            2 
  411000    1.0862854   -6.2506952    179.68949  0.036433393  0.037204333            2 
  412000    1.0938318    -6.310294    180.36727  0.036482053  0.037189104            3 
  413000    1.0983613   -6.2407751    180.11516  0.036342848   0.03717435            3 
  414000    1.0777889   -6.2713528    180.49896  0.036332318  0.037160106            2 
  415000    1.0906418   -6.2529398    180.78444  0.036302095  0.037144684            2 
  416000    1.0606284   -6.2633927    181.23631   0.03630535  0.037128692            5 
  417000    1.1016419   -6.2169603    182.19674  0.036410219  0.037112592           11 
  418000    1.0594963   -6.2869038    181.60781  0.036205705  0.037096089            3 
  419000    1.0968973   -6.2662055    182.77729  0.036351888  0.037079859            5 
  420000    1.0847563   -6.3164338    182.24511  0.036159744  0.037063226            4 
  421000     1.092023   -6.2718398    183.19515  0.036261906  0.037046909            4 
  422000    1.0751241   -6.2592595    183.75393   0.03628632  0.037031119            5 
  423000      1.09322   -6.2764562    183.93607   0.03623642  0.037015336            3 
  424000    1.1048171   -6.2826306    184.57763   0.03627705  0.036999506            2 
  425000    1.1069442   -6.2522682       184.38   0.03615294  0.036982825            3 
  426000    1.0748165   -6.2578192    184.84499  0.036159035  0.036965848            3 
  427000    1.0699178   -6.2789711    184.65681  0.036037629  0.036949179            5 
  428000    1.0826356   -6.2608782    185.24135  0.036067241  0.036932501            7 
  429000    1.0765356   -6.3140992    185.29921  0.035994407   0.03691536            3 
  430000    1.0636526   -6.2853535    185.57721  0.035964575  0.036897776            3 
  431000    1.0551082    -6.292197    186.17998  0.035997677  0.036879748            2 
  432000    1.0656354   -6.2980318    186.69228  0.036013171  0.036861615            5 
  433000    1.0607132    -6.264928    186.98094  0.035985555  0.036843639           11 
  434000    1.0896342   -6.2547749    187.49326  0.036001009  0.036825611            5 
  435000    1.0847182   -6.2451559    187.80878  0.035978693  0.036807511           11 
  436000    1.0666656   -6.2507553    187.68279  0.035872093  0.036789915            2 
  437000    1.0801981   -6.2840667    188.23147  0.035894636  0.036771329            2 
  438000    1.0824072   -6.2670696     188.6576  0.035893759  0.036752862            2 
  439000      1.09398   -6.2577301    188.73926  0.035827499  0.036734614           11 
  440000    1.0783673   -6.2982846    188.84296  0.035765713     0.036716            7 
  441000    1.0879122   -6.2800565    189.08483  0.035730315  0.036697633            6 
  442000    1.0889436   -6.2509342    190.21858  0.035863231  0.036680325            8 
  443000      1.09761   -6.3085523    190.31603  0.035800608  0.036662432            6 
  444000    1.0566959   -6.3015655    190.38746  0.035733381  0.036644421            4 
  445000    1.0669864   -6.2685284    191.11659  0.035789624  0.036626071            7 
  446000    1.0945676   -6.2717917    191.36223  0.035755275  0.036608283            4 
  447000    1.0768077   -6.2713572    191.42467  0.035686926   0.03659035            6 
  448000    1.0594759    -6.301437    191.80738  0.035678456  0.036572154            6 
  449000    1.0887518    -6.275397    191.86232  0.035609191  0.036553525            5 
  450000    1.0656709   -6.2876137     192.3964  0.035628964  0.036535118            5 
  451000    1.0796791   -6.2880028    192.58281  0.035584407  0.036516411            2 
  452000    1.0615415   -6.2670944       193.37  0.035650812  0.036497842            6 
  453000    1.0764565   -6.2754927      193.552  0.035605592  0.036479142            5 
  454000    1.0932498   -6.2638738    194.35317  0.035674224  0.036460695            3 
  455000    1.0575814   -6.2689337    194.47021  0.035617255  0.036442516            7 
  456000    1.0743563   -6.3015584    194.51151  0.035546694  0.036424519            5 
  457000    1.0884326    -6.313291    194.89791  0.035539371  0.036406161            3 
  458000    1.0469754   -6.2686711    195.07356  0.035493734  0.036387923            4 
  459000    1.0684283   -6.3043226    195.86991  0.035560986  0.036369982            3 
  460000    1.0455283   -6.3076328    195.89445  0.035488125   0.03635181            4 
  461000    1.0816405   -6.2458679    196.93931   0.03560002  0.036333958            4 
  462000    1.0728652    -6.288737    196.74581   0.03548806  0.036316702            8 
  463000    1.0593691   -6.2786448    197.22018  0.035496792  0.036299176            7 
  464000    1.0674529   -6.2803191     197.3607  0.035445529  0.036281102            3 
  465000    1.0647479    -6.306809    198.34962  0.035546526  0.036263753            4 
  466000    1.0693667   -6.2665166    198.34197  0.035468879  0.036245933            2 
  467000     1.048588   -6.2821697    197.88724  0.035311784  0.036227613            5 
  468000    1.0734378   -6.3117295    198.10051  0.035274307   0.03620887            3 
  469000     1.068975   -6.3101126    198.27264  0.035229681  0.036190248            3 
  470000    1.0786296   -6.2843928    199.00021  0.035283725  0.036171074            6 
  471000    1.0610453   -6.3171714    198.66549  0.035149591  0.036151637            4 
  472000    1.0731221   -6.2953305    199.64131  0.035247406  0.036132224            6 
  473000    1.0846469   -6.3293641    199.51686  0.035150962  0.036112555            5 
  474000    1.1013569   -6.2886101    200.00878  0.035163288    0.0360929            6 
  475000    1.0591258   -6.2830719    201.76318  0.035397049   0.03607391            4 
  476000    1.0603866   -6.2611235    202.03715  0.035370649  0.036056054            6 
  477000    1.0508612   -6.2989557    202.33011  0.035347678  0.036038269            7 
  478000    1.0522114    -6.311849    201.70694  0.035165086  0.036020706            4 
  479000    1.0564394   -6.2840842    203.10496  0.035334892  0.036003153            5 
  480000    1.0416542   -6.2965606    202.57316  0.035168951  0.035986257            3 
  481000     1.033876   -6.2755515    204.10465  0.035361167  0.035969797            6 
  482000    1.0781706   -6.3001013    203.89885  0.035252221  0.035952937            3 
  483000     1.064547   -6.3155573     204.3329  0.035254124  0.035935913            3 
  484000    1.0536962   -6.3251614    204.32307  0.035179592  0.035918846            4 
  485000    1.0309633   -6.3315758    204.65228  0.035163622  0.035901989            9 
  486000     1.072807   -6.3283352    204.51983  0.035068557  0.035885082            5 
  487000    1.0670421    -6.295224    205.93355  0.035238459  0.035868347            5 
  488000    1.0533847   -6.2832438    206.07339  0.035190128  0.035851725            3 
  489000    1.0524778   -6.3256773    206.19302  0.035138551  0.035834916            4 
  490000    1.0649713    -6.330788     206.3241  0.035089132  0.035817855            4 
  491000    1.0607635   -6.3085856    206.99413  0.035131387  0.035801108            6 
  492000    1.0282369   -6.3086382    207.64443  0.035170127  0.035784387            3 
  493000    1.0532785   -6.3144196    207.39048  0.035055863  0.035767199            7 
  494000    1.0458315    -6.279498      208.812  0.035224696  0.035750023            4 
  495000    1.0896934   -6.3409039    208.26606  0.035061627  0.035733364            7 
  496000    1.0267742   -6.3327025     207.9349  0.034935299  0.035715483            5 
  497000    1.0439561   -6.3354938    207.62812  0.034813569  0.035697326            4 
  498000    1.0539886   -6.3058919    208.10528  0.034823508  0.035678767            4 
  499000    1.0411337   -6.3143772     209.1193  0.034923063   0.03566042            4 
  500000    1.0352111    -6.319537     209.8245   0.03497075  0.035643033            4 
  501000    1.0665868   -6.3016852    210.20721  0.034964605  0.035626101            5 
  502000    1.0342563   -6.3503504    210.60745  0.034961397  0.035608974            9 
  503000     1.062535   -6.3006033    210.53879  0.034880516  0.035592219            6 
  504000    1.0723414   -6.3682782    210.85847  0.034864164  0.035575208            3 
  505000    1.0592733    -6.334629    210.97691  0.034814672  0.035557957            5 
  506000     1.024847   -6.3261979    211.86882  0.034892756  0.035540581            4 
  507000    1.0409851   -6.2964096    211.93074  0.034834112  0.035523316            4 
  508000    1.0322925   -6.3158352    212.12623  0.034797611  0.035506239            3 
  509000    1.0455898   -6.2979483    213.33934  0.034927856  0.035488446            2 
  510000    1.0375062   -6.3256893    213.12393  0.034824172  0.035471756            7 
  511000    1.0600144   -6.3507347    213.96861  0.034893773  0.035455111            3 
  512000    1.0535623   -6.3202665    214.03805  0.034836922  0.035438883            4 
  513000    1.0717887   -6.3591101    213.38483  0.034662903  0.035422164           10 
  514000    1.0367103   -6.3190169    214.30146  0.034744076  0.035405936            3 
  515000    1.0358068   -6.3458953    214.96404  0.034783826   0.03539011           14 
  516000    1.0745368   -6.3572872    214.81955  0.034693081  0.035373732            4 
  517000    1.0554094    -6.331642    216.14305  0.034839305  0.035357741            4 
  518000    1.0673664   -6.3603956    215.98589  0.034746764  0.035341786            3 
  519000    1.0359264   -6.3339715    216.48505  0.034759963  0.035325472            5 
  520000    1.0341983   -6.3449905     216.1486  0.034639198  0.035309057            5 
  521000    1.0413974   -6.3598495    216.69818  0.034660617   0.03529276            3 
  522000    1.0303898   -6.3267896     217.5574  0.034731386  0.035276089            4 
  523000    1.0531687    -6.335509    217.39289  0.034638765  0.035259399            4 
  524000    1.0647896   -6.3668135    217.39756  0.034573403  0.035242429            7 
  525000    1.0445139   -6.3384037    217.60821  0.034540986  0.035224919            5 
  526000    1.0581714   -6.3527414    217.47691  0.034454517  0.035207269            7 
  527000    1.0430277   -6.3239131    217.58736  0.034406603   0.03518961            9 
  528000    1.0589305   -6.3642738    218.35931  0.034463274  0.035171481            2 
  529000    1.0394581   -6.3158706    219.17278  0.034526273  0.035154075            4 
  530000    1.0620388   -6.3284463    219.77363  0.034555602  0.035136932            8 
  531000    1.0262006   -6.3715203    220.03463  0.034531486  0.035120064            6 
  532000    1.0368754   -6.3895154    220.43725  0.034529644  0.035102983            3 
  533000    1.0215595    -6.377108     220.7067  0.034506989  0.035086566            6 
  534000    1.0353952   -6.3576085    221.35011  0.034542776  0.035070603            3 
  535000    1.0428985    -6.355066    221.77554  0.034544477  0.035054984            3 
  536000    1.0464183   -6.3662934    221.31733  0.034408789  0.035038704            4 
  537000    1.0325045   -6.3480706    221.74539   0.03441114  0.035022342            3 
  538000    1.0115925   -6.3376101    222.02731  0.034390847  0.035006109            6 
  539000    1.0348625    -6.349769    222.34497  0.034376156  0.034989373            4 
  540000    1.0435461   -6.3249603    223.46659  0.034485585  0.034972988            3 
  541000    1.0398521   -6.3684737    223.11517   0.03436771  0.034956204            3 
  542000    1.0590767   -6.3586167    223.65854  0.034387844  0.034939348            4 
  543000    1.0421138   -6.3331006    223.80681  0.034347269  0.034922719            4 
  544000    1.0382418   -6.3559774    223.61683  0.034255028  0.034905938            6 
  545000    1.0431266   -6.3525972    223.96556  0.034245498  0.034889149            5 
  546000    1.0125365   -6.3329289    225.41026  0.034403275  0.034872351            6 
  547000    1.0171846    -6.381285    224.83734  0.034253099  0.034855682            8 
  548000    1.0312152   -6.3449954    225.45555  0.034284603  0.034838887            8 
  549000   0.99568923   -6.3406929    224.94795  0.034145104  0.034822456            6 
  550000    1.0353845   -6.3459264    224.84122  0.034066852  0.034805115            8 
  551000    1.0160075   -6.3661602    225.44651  0.034096569  0.034787355            9 
  552000    1.0391201   -6.3557034    225.84551  0.034095034  0.034769568            4 
  553000     1.036089   -6.3755817    226.06883  0.034067033  0.034751551            6 
  554000    1.0332513   -6.3384159    226.42777  0.034059532  0.034733776            5 
  555000    1.0349662   -6.3775082    226.79648  0.034053526  0.034716536            6 
  556000    1.0710086   -6.3912292    227.10007   0.03403778   0.03469887            5 
  557000    1.0250745   -6.3502614    228.34366  0.034162726  0.034681553            6 
  558000    1.0209252   -6.3120472    228.43823  0.034115626  0.034664562            6 
  559000    1.0007198   -6.3390447    227.91906  0.033977201   0.03464806            6 
  560000    1.0210142   -6.3828563    229.22879  0.034111427  0.034631306            4 
  561000    1.0372111   -6.4178804    228.56871  0.033952571  0.034614007            5 
  562000     1.037011   -6.3599828    229.21192  0.033987533   0.03459674            7 
  563000    1.0300545    -6.390512    230.23611  0.034078762  0.034579803            3 
  564000    1.0042795   -6.3781572    230.68166  0.034084169  0.034563199            3 
  565000    1.0368446    -6.335502    230.78384  0.034038914  0.034546736            7 
  566000    1.0157696   -6.3462998    231.26441   0.03404953   0.03453077            4 
  567000     1.030454   -6.3802218     231.7011  0.034053659  0.034514232            2 
  568000    1.0206621   -6.3814186    231.08906  0.033903911  0.034496993            5 
  569000    1.0359501    -6.341094    231.84293  0.033954735  0.034479854            3 
  570000    1.0374314   -6.4032249    231.00429  0.033772556    0.0344625            9 
  571000    1.0040474   -6.3478597    232.16955  0.033883472  0.034444289            5 
  572000    1.0243108   -6.3996954    231.47858   0.03372357  0.034426153            8 
  573000    1.0329807   -6.3496952    232.55773   0.03382166  0.034408668            7 
  574000    1.0502192   -6.3193744    233.98841  0.033970443  0.034392042            7 
  575000    1.0216612   -6.3627488     233.0295  0.033772391  0.034375249            5 
  576000     1.040881   -6.3961326    233.11448  0.033726053  0.034357729           18 
  577000    1.0061405   -6.4146447    234.14107  0.033815868  0.034340436           10 
  578000    1.0130025   -6.3754063    235.06002  0.033889853  0.034323816            3 
  579000     1.005388   -6.3844872    234.84079  0.033799768  0.034307386            4 
  580000    1.0219329    -6.325204    235.31706  0.033809922  0.034290932            6 
  581000    1.0210618   -6.3765224    235.45292  0.033771216  0.034274547            6 
  582000    1.0324694   -6.3966283    235.25177  0.033684388  0.034258175            4 
  583000    1.0099915   -6.3802786    235.96193   0.03372812  0.034241162            6 
  584000    0.9927742   -6.3588499    235.99703  0.033675375  0.034224232            7 
  585000    1.0225871   -6.3806373    236.34044  0.033666729  0.034207163            3 
  586000     1.014248   -6.3844588    236.21655   0.03359166  0.034189718            6 
  587000    1.0164918   -6.3915351    236.65794  0.033597096  0.034172235            4 
  588000    0.9993076   -6.4231467     237.0197  0.033591228  0.034154397            3 
  589000    1.0108389   -6.3782237    236.68271  0.033486518  0.034136389           11 
  590000    1.0162372   -6.3929356     236.8299  0.033450551  0.034118613           11 
  591000   0.99102761   -6.3778048    237.70371  0.033517161  0.034101018            4 
  592000    1.0026288   -6.3719758    238.63893  0.033592192   0.03408336            5 
  593000    1.0221072   -6.4116444    237.72695  0.033407384  0.034065395            7 
  594000    1.0182065   -6.3745779    238.33987  0.033437131  0.034047645            3 
  595000    1.0224198   -6.4080661    238.89972  0.033459344  0.034029711            6 
  596000    1.0089207   -6.3789446    238.91719  0.033405648  0.034012187            3 
  597000    1.0099667     -6.37824    239.32458  0.033406558  0.033994709            5 
  598000   0.99356525   -6.3651681     239.5276  0.033378985  0.033977242            4 
  599000     1.007015   -6.4106729    239.57451  0.033329787   0.03395983            5 
  600000    1.0224489   -6.3622833    239.91027   0.03332087  0.033941903            3 
  601000     1.017279   -6.3786056       240.72  0.033377703  0.033923697            7 
  602000    1.0034281   -6.4198268    239.76431  0.033189965   0.03390552            8 
  603000    1.0011064   -6.4162105    240.20382  0.033195663   0.03388705            6 
  604000   0.99644266   -6.3987548    240.64726  0.033201884  0.033868878            5 
  605000   0.98507579   -6.3806134    241.09589    0.0332088  0.033850564            3 
  606000    1.0279274   -6.3983148    241.01033  0.033142234  0.033831708            7 
  607000    1.0056524   -6.3910319    240.89346   0.03307159  0.033813017            7 
  608000    1.0184279   -6.3983916    241.18542  0.033057212  0.033794332            3 
  609000     1.031665    -6.390589    241.74137  0.033079005  0.033775322            6 
  610000    1.0258196   -6.4305426    242.47023  0.033124348  0.033756542            8 
  611000    1.0069783   -6.4131386    242.32011  0.033049661  0.033737642            4 
  612000     1.009214   -6.3861339    242.55126  0.033027133  0.033718583            6 
  613000    1.0143597   -6.3799787    241.90036  0.032884769  0.033699467            5 
  614000     1.016261   -6.4189348    242.96788  0.032976097  0.033680111            5 
  615000    1.0203366   -6.4345468    242.90571  0.032914053  0.033660643            4 
  616000    1.0263172    -6.368901    243.70269  0.032968437  0.033641405            3 
  617000    1.0265012   -6.4248675    243.34285  0.032866403  0.033622258            7 
  618000   0.99681148    -6.393195    243.44503     0.032827  0.033602842            5 
  619000    1.0165157   -6.4139926    243.92668   0.03283881  0.033583273            5 
  620000    1.0040651   -6.4102449     244.1296  0.032813118  0.033563606            6 
  621000   0.98566159   -6.4011098     244.1896   0.03276833  0.033543943            9 
  622000    1.0080471   -6.4312635    244.60648    0.0327715   0.03352444            3 
  623000    1.0114614    -6.413268    244.62118  0.032720864  0.033505119            9 
  624000    1.0121958   -6.4210837    245.17993  0.032743046  0.033485822            3 
  625000    1.0081694   -6.3854496    245.96394  0.032795192  0.033466514            5 
  626000    1.0239393     -6.41752    246.32916  0.032791422  0.033447585            6 
  627000   0.98632236   -6.4065858    246.33417  0.032739788  0.033428657            7 
  628000   0.99098397    -6.410788    246.25643   0.03267734   0.03340931            5 
  629000    1.0125276   -6.4317782     247.0757   0.03273393  0.033389871            5 
  630000    1.0119649   -6.3829306    247.18516   0.03269645   0.03337047            5 
  631000   0.98971718   -6.4258739    247.16619  0.032642127  0.033351248            3 
  632000   0.99930139   -6.3878949    247.70214  0.032661147  0.033332222            5 
  633000    0.9807743    -6.387472    248.49157  0.032713477  0.033313032            4 
  634000   0.98196058   -6.4052453    247.71754  0.032560139  0.033293703            9 
  635000   0.99164657   -6.3995654     249.1008  0.032690394  0.033274513            4 
  636000    1.0031606   -6.4321032    248.20587  0.032521733  0.033255112            6 
  637000   0.99461381   -6.3994842    248.50927  0.032510371  0.033235489            5 
  638000    1.0076878   -6.4451246    248.10462   0.03240656  0.033215562            5 
  639000    1.0062076   -6.4187963    248.32441  0.032384508  0.033195488            4 
  640000    0.9909923   -6.3887408    250.08272  0.032562854  0.033175726            4 
  641000    1.0051309   -6.3961188    249.80876  0.032476437  0.033156295            3 
  642000    1.0140358   -6.4164949    249.43909  0.032377868    0.0331368            3 
  643000   0.99214001   -6.4078574    249.44216  0.032327911  0.033117077            5 
  644000    0.9918306   -6.4474868    250.07646   0.03235979  0.033097272           10 
  645000    1.0086823    -6.409685    250.57618  0.032374183  0.033077325            5 
  646000   0.98397296   -6.4472721    251.00878  0.032379874   0.03305758            4 
  647000    1.0056855   -6.4202384    251.17424  0.032351139  0.033038295            8 
  648000   0.98172084   -6.4329024    251.67627  0.032365775  0.033018689            3 
  649000    1.0034802   -6.4279795    250.91935  0.032218715  0.032998823            9 
  650000   0.99687941    -6.437793    252.41145  0.032360442  0.032979316            8 
  651000    0.9951343   -6.4419802    252.01231  0.032259641  0.032959735            3 
  652000    1.0043301   -6.4415098    253.20838  0.032363035  0.032940489            8 
  653000   0.99844245   -6.4455845    252.54921  0.032229353  0.032921175            9 
  654000   0.99360309   -6.4419748    253.05541  0.032244573  0.032901639            4 
  655000   0.97788941   -6.4020082     253.1412  0.032206259  0.032882081            5 
  656000   0.98421916   -6.4226861    252.79551  0.032113251  0.032862635            8 
  657000   0.99270908   -6.4316812    253.54697  0.032159687  0.032842829            7 
  658000    0.9790436   -6.4613107    252.76732  0.032012072  0.032822867            4 
  659000   0.98413308   -6.4255554    252.93906  0.031985212  0.032802778            7 
  660000   0.98292538    -6.457214      253.397  0.031994571  0.032782279            5 
  661000    1.0006552   -6.4397408    253.48672  0.031957478  0.032762264           10 
  662000   0.99641197   -6.4078838    254.26784  0.032007533  0.032741989           14 
  663000   0.97758767   -6.4223339    254.52084  0.031991056  0.032721652            3 
  664000   0.97774689    -6.468058    254.85311  0.031984577  0.032701476            5 
  665000    1.0037443   -6.4449164    254.07965  0.031839555  0.032681233            5 
  666000   0.97047123   -6.4554017    255.06222  0.031914692  0.032660891            7 
  667000    1.0019235   -6.4424603    255.31264  0.031898131  0.032640408            6 
  668000   0.98480113   -6.4553916    255.02612  0.031814635   0.03261943           10 
  669000   0.98974523   -6.4387559    255.21596  0.031790727  0.032598414            5 
  670000   0.97691311   -6.4641854    254.83262  0.031695599  0.032577039            5 
  671000   0.96876013   -6.4452789    255.57912  0.031741073  0.032556031            3 
  672000   0.99127182   -6.4313991    255.50463  0.031684603  0.032534965           10 
  673000   0.97397092   -6.4405579    256.21455  0.031725427  0.032513892            5 
  674000   0.97749678   -6.4687034    255.61518  0.031604251   0.03249285            6 
  675000   0.98200014   -6.4410815    256.50236  0.031666958  0.032471712            8 
  676000   0.98656859   -6.4477223    257.02645   0.03168472  0.032450979            4 
  677000   0.98882373   -6.4408285    256.16978  0.031532469  0.032430427            4 
  678000   0.98808875   -6.4624075    256.83302   0.03156748  0.032409656            5 
  679000   0.99824209   -6.4281623    257.56153  0.031610398  0.032389359            7 
  680000   0.97214925   -6.4207251    257.99124  0.031616573  0.032368912            3 
  681000    1.0077743   -6.4473345    257.75326  0.031541026    0.0323482            6 
  682000   0.97157813   -6.4475581    258.19609  0.031548887  0.032327163            9 
  683000   0.98774116   -6.4691552    257.88229  0.031464408  0.032305839            9 
  684000    0.9768886    -6.473668    258.90473  0.031542974  0.032284415            5 
  685000   0.97356258   -6.4609903    258.37151  0.031432057  0.032263149            6 
  686000   0.98466875    -6.454126    258.04411  0.031346467  0.032241843           10 
  687000   0.94232429   -6.4808691    259.22545  0.031444135  0.032220714           11 
  688000   0.98014096   -6.4772267    258.94509  0.031364473  0.032199432            5 
  689000   0.98629287   -6.4194393     259.6964  0.031409821   0.03217859            6 
  690000   0.97873307   -6.4433752    259.95576  0.031395623  0.032157848            3 
  691000   0.98892741    -6.430819    260.03338  0.031359548  0.032136902            5 
  692000   0.96036622   -6.4704862    260.35044  0.031352413   0.03211615            3 
  693000   0.97439632   -6.4747664    260.20353  0.031289506  0.032095195            4 
  694000   0.95987583   -6.4744337    260.72464  0.031306993   0.03207422           15 
  695000   0.98151568   -6.4586201    260.77303  0.031267749  0.032053499            7 
  696000   0.96785225   -6.4388393    261.86481  0.031353545  0.032032991            6 
  697000   0.97620274   -6.4637377    262.10264  0.031336997  0.032012638            4 
  698000   0.98161763   -6.4620403    263.18358  0.031421153  0.031992392            7 
  699000    0.9916016   -6.4588861    262.18833   0.03125755  0.031972089            3 
  700000   0.97299595   -6.4406801     262.9483  0.031303369   0.03195173           11 
  701000   0.96592492   -6.4381291    263.08057  0.031274437  0.031931575            8 
  702000   0.97563215   -6.4658391    263.10984  0.031233362  0.031911527            5 
  703000   0.93875273    -6.480996    263.41793  0.031225454  0.031891404            8 
  704000   0.97053833   -6.4933185    263.36641  0.031175001  0.031871336           11 
  705000   0.98222215   -6.4476822    264.77677  0.031297491  0.031851573            7 
  706000    0.9795008   -6.4874276    264.54499  0.031225801  0.031832069            4 
  707000   0.97403284   -6.4795773    265.15764  0.031253847  0.031812644            3 
  708000   0.97448276   -6.4810292     265.5254  0.031252989   0.03179333           15 
  709000   0.97220805   -6.4892668     264.7539   0.03111823  0.031774039            6 
  710000    0.9610823   -6.4910172    265.44342  0.031155331  0.031754243            8 
  711000   0.98206743   -6.4805819    265.68658  0.031140012  0.031734811            6 
  712000   0.96997094   -6.4621659     265.4211  0.031065204  0.031715211           10 
  713000   0.97350809   -6.4658228    266.51087  0.031149003  0.031695576            4 
  714000   0.95480129    -6.469158     266.5874  0.031114309  0.031676345            5 
  715000   0.94321219   -6.5061616    265.30866  0.030921755  0.031656564            6 
  716000   0.97871664   -6.4982338    266.33103  0.030997559  0.031636576            4 
  717000    0.9383439   -6.4858978    266.85543  0.031015276  0.031616411           10 
  718000    0.9646211    -6.502556    266.89197  0.030976319  0.031596321            9 
  719000   0.95515791   -6.4833492    266.85412   0.03092885  0.031576273            5 
  720000   0.96134242   -6.5007444    267.02871    0.0309061  0.031556137            4 
  721000   0.98766582   -6.4662114    267.01183  0.030861284   0.03153626            6 
  722000   0.95084647   -6.5028953    267.50203  0.030875119  0.031516164            8 
  723000   0.94564614   -6.4873391    267.14639  0.030791423  0.031496105            3 
  724000   0.94526105    -6.520806    266.64452  0.030691128  0.031475723            8 
  725000   0.94349336   -6.4973079     267.5991  0.030758517  0.031455315            7 
  726000   0.97892728   -6.4896243    268.62034  0.030833373  0.031435081           11 
  727000   0.97202568   -6.4753239    269.09838  0.030845756  0.031414752            6 
  728000   0.99166576   -6.4936818    268.83978  0.030773785  0.031394991            3 
  729000   0.96182507   -6.4746256    269.33488  0.030788167  0.031375018            8 
  730000   0.95989393    -6.475629    269.15506  0.030725463  0.031355338            9 
  731000    0.9599242   -6.4650472     269.3602  0.030706817  0.031335503            7 
  732000   0.97589005    -6.479459    269.14482  0.030640348  0.031315548            6 
  733000   0.97911648   -6.5264726    269.40849  0.030628524  0.031295259           10 
  734000   0.94708875   -6.4582641    269.82809  0.030634433  0.031274822            7 
  735000   0.94637295   -6.4716007    269.45265  0.030550187  0.031254487            6 
  736000   0.96867559   -6.5146286    270.33696  0.030608804  0.031234297           10 
  737000   0.97116103   -6.4572121    270.54537  0.030590838  0.031214078            4 
  738000   0.98669361   -6.4898969    271.03209  0.030604346   0.03119418            7 
  739000   0.93804605   -6.4423212    270.90961  0.030549122  0.031174045            5 
  740000   0.96749247    -6.522222      270.483  0.030459797  0.031153754            3 
  741000   0.96230553   -6.5337066     270.4598  0.030416082  0.031133353            6 
  742000   0.95266089   -6.5232753    271.42427  0.030483408  0.031113033            5 
  743000   0.95381979   -6.4646635    272.31802  0.030542622  0.031093003            8 
  744000   0.95952473   -6.4796013    271.76925  0.030440104  0.031073461            8 
  745000   0.95912781   -6.4919063    272.07712  0.030433682  0.031053729            7 
  746000   0.95352043   -6.5068083    273.46696  0.030548141  0.031034332            4 
  747000   0.95938196   -6.5271509    272.68867  0.030420423  0.031014858            4 
  748000   0.93406934   -6.4969028    273.49515  0.030469602  0.030995459           16 
  749000    0.9509017   -6.5135904    273.21227  0.030397448  0.030976246            8 
  750000   0.95572953   -6.4968719     273.5124  0.030390266  0.030957128           11 
  751000   0.94698995   -6.5133927    274.45871  0.030454806  0.030938084            4 
  752000   0.96970813   -6.4915607    274.74115  0.030445606  0.030919127           10 
  753000   0.94083525   -6.5252495    274.33059  0.030359738  0.030900095            3 
  754000   0.96240111   -6.4821224    275.52439  0.030451414  0.030881113            9 
  755000   0.95143678   -6.4962166    275.37552  0.030394649  0.030862003            8 
  756000   0.94808942   -6.5038822    275.26324  0.030342068   0.03084272            6 
  757000   0.96541751   -6.5071172    275.11523  0.030285692  0.030823478            7 
  758000   0.95834386   -6.4933895    275.71545  0.030311725  0.030803861            6 
  759000   0.93259293    -6.505869    275.09631  0.030203811  0.030784452            5 
  760000   0.95101496   -6.4933843    275.67451  0.030227468  0.030764898            5 
  761000   0.95361135   -6.5235539    275.15079  0.030130397  0.030745443            6 
  762000   0.95295385   -6.5386276    275.77256  0.030158854  0.030726115            7 
  763000   0.95388542   -6.4896868    276.48407  0.030197037  0.030706881            5 
  764000   0.96797362   -6.5113573    276.66783  0.030177555  0.030687704            9 
  765000    0.9456712   -6.5237645    277.08187   0.03018321  0.030668335            4 
  766000   0.97506429   -6.4878001    277.60616  0.030200844  0.030649183           10 
  767000   0.94287719   -6.5315815    277.10848  0.030107397  0.030630221            5 
  768000   0.93888354   -6.5334793     277.2906  0.030087955  0.030610812            6 
  769000   0.95254021   -6.5158463    278.47839  0.030177546  0.030591438            5 
  770000   0.93894963   -6.5492052    277.82428  0.030067563  0.030572175           12 
  771000   0.93013183   -6.5526387    278.07326  0.030055476   0.03055319            7 
  772000   0.95107498   -6.5256153    279.04991  0.030121968  0.030534155           12 
  773000   0.95334095   -6.5430252    278.29422  0.030001533  0.030515422           14 
  774000   0.95789263   -6.5206187    279.05119  0.030044271  0.030496688           11 
  775000   0.93451151   -6.5303097    279.15651  0.030016829  0.030478014            5 
  776000   0.93542742   -6.5252484    279.80592  0.030047887  0.030459391            5 
  777000   0.92942834    -6.531959    280.10845  0.030041661  0.030440927           12 
  778000   0.96622491    -6.549841    280.78232  0.030075227  0.030422856           23 
  779000   0.92228287    -6.519659    281.51673  0.030115183  0.030404673            3 
  780000   0.93341269   -6.5074761     280.8335  0.030003579  0.030386709            5 
  781000   0.93941249   -6.5393211    280.57103  0.029937156  0.030368498           15 
  782000   0.93400396    -6.520454    281.56935  0.030005258  0.030350345            7 
  783000   0.92499016   -6.5207661    281.00042  0.029906388  0.030332048           10 
  784000   0.92922017   -6.5482881     281.4943  0.029920737  0.030313613            8 
  785000   0.92512914   -6.5333726    281.77454  0.029912372  0.030295245           10 
  786000   0.92766583   -6.5118175    282.57784  0.029959483  0.030276933           10 
  787000   0.92078707     -6.52422    282.43788  0.029906594  0.030258706            6 
  788000   0.93311472    -6.535962    282.08508  0.029831333  0.030240364            6 
  789000   0.93274482   -6.5788691    282.13983  0.029799306  0.030222009           14 
  790000   0.91464821    -6.530356    282.77626   0.02982872   0.03020363            6 
  791000   0.93235193   -6.5613087    282.99121  0.029813654  0.030185318            8 
  792000   0.92648117   -6.5087379    282.57632  0.029732357  0.030166746            6 
  793000   0.93410816   -6.5220798    283.64205  0.029806857  0.030148306            6 
  794000     0.953709   -6.5264468    283.14552  0.029717205  0.030129687            7 
  795000   0.94049065   -6.5314003     282.8414  0.029647945  0.030111188           13 
  796000   0.92455788   -6.5531263    283.88498  0.029719952  0.030092708            4 
  797000   0.92780215   -6.5465631    284.00637  0.029695355  0.030074137            6 
  798000   0.95296948    -6.547216    284.23024   0.02968152  0.030055591            6 
  799000   0.92430907   -6.5446988    284.44076  0.029666328  0.030037353            5 
  800000   0.92249759   -6.5495463    284.67777  0.029653935  0.030019053            6 
  801000   0.91836626   -6.5508923    285.14881  0.029665919  0.030000619            6 
  802000   0.94220731   -6.5532953     284.8081  0.029593526  0.029982142            8 
  803000   0.93261874    -6.590931    284.57815   0.02953281  0.029963684            7 
  804000   0.93591408   -6.5508907    285.08024  0.029548117  0.029945246            8 
  805000   0.93009443   -6.5644647    285.65008  0.029570402  0.029926842            8 
  806000   0.93923084    -6.536143    285.50217  0.029518421  0.029908393            3 
  807000   0.91220203   -6.5441118    286.16252  0.029550033  0.029889934            9 
  808000   0.93923062   -6.5599191    285.73255  0.029469116  0.029871512            5 
  809000   0.92625401   -6.5647666    286.38099  0.029499484  0.029852706           15 
  810000   0.95387594   -6.5101226    285.93723   0.02941741  0.029834253            4 
  811000   0.92395283   -6.5528715    286.29141  0.029417531  0.029815704            6 
  812000   0.93261244   -6.5643167    286.38682  0.029391094  0.029797129            9 
  813000   0.94095398   -6.5315159    285.71792  0.029286379  0.029778314            5 
  814000   0.92155275   -6.5499618    286.23022  0.029302848  0.029759286            6 
  815000   0.93331359   -6.5276325    286.75422  0.029320472  0.029740725            6 
  816000   0.91443866   -6.5682331    287.82686  0.029394083  0.029722117            3 
  817000   0.91863086   -6.5634853    287.04659  0.029278518  0.029703582           14 
  818000   0.93939862   -6.5478373    287.63235  0.029302399   0.02968493           10 
  819000   0.93209628   -6.5568374    287.42637  0.029245662  0.029666583           30 
  820000   0.92643717   -6.5653287    287.62375  0.029230056  0.029647912            6 
  821000   0.92929908   -6.5967956    288.11387  0.029244201  0.029629064            6 
  822000   0.94927566   -6.5805068    287.90932  0.029187887  0.029610358            8 
  823000   0.93682714   -6.5609886    287.93111  0.029154628   0.02959159            7 
  824000   0.93104944   -6.5291273    289.73472   0.02930165  0.029573153            5 
  825000   0.91175301   -6.5666032    288.49976   0.02914139  0.029554712           12 
  826000   0.91964365   -6.5512585    288.90353  0.029146845  0.029536314            4 
  827000   0.92827365   -6.5547246    289.32468  0.029154038  0.029517718            6 
  828000   0.93261509   -6.5819704    289.89144   0.02917587  0.029499116            3 
  829000    0.9245809   -6.5584963    290.02758   0.02915436   0.02948059            6 
  830000   0.93285411   -6.5815781    290.48765  0.029165427  0.029462213            5 
  831000   0.91197448   -6.5529087    291.35306  0.029217114  0.029443791            9 
  832000   0.91161317   -6.5520722    290.44715  0.029091261  0.029425791           37 
  833000   0.91986203   -6.5705794    290.85002  0.029096641  0.029407638           12 
  834000   0.92584219   -6.5574048     291.2973  0.029106445  0.029389509            8 
  835000   0.93241535   -6.5855625    290.99828  0.029041744  0.029371228           18 
  836000   0.91540429   -6.5847256    291.60972  0.029067954  0.029353046            7 
  837000   0.91880975   -6.5685166    291.57148  0.029029418  0.029335073            9 
  838000   0.91943066   -6.5737504    291.36904  0.028974646   0.02931698            9 
  839000   0.89811057   -6.5552596    292.42812  0.029045304  0.029299186            7 
  840000   0.90764404    -6.609389    291.54578  0.028923193  0.029281065            3 
  841000   0.93056083   -6.5929319    292.02091  0.028935881  0.029262927           11 
  842000   0.93339782   -6.5801758    292.79059  0.028977691  0.029244832           10 
  843000   0.91541567   -6.5374677    293.49107  0.029012561  0.029226928           11 
  844000   0.93422869   -6.5869806    292.01827  0.028832768  0.029208854           15 
  845000   0.91448658   -6.5392452    292.99057  0.028894534  0.029190958           10 
  846000   0.93094135   -6.5517399    294.36163  0.028995433   0.02917303           12 
  847000   0.90639406   -6.5738835    293.26433  0.028853239  0.029154969           19 
  848000   0.90538759   -6.5401008    293.66194  0.028858288  0.029136798            8 
  849000   0.91223557   -6.5715976    293.41613   0.02880017  0.029118778           14 
  850000   0.93322961   -6.6216657    293.76149  0.028800146  0.029100621            8 
  851000   0.90405085   -6.5896894    293.71383  0.028761637  0.029082451           10 
  852000   0.90398666   -6.5632136    294.43398  0.028798316  0.029064241            4 
  853000   0.91038767   -6.5879869    295.03575  0.028823344  0.029046177            6 
  854000   0.91454612   -6.5998271    293.88991  0.028677782  0.029028183           10 
  855000   0.89919405   -6.5919928    294.85104  0.028737918  0.029010184            9 
  856000   0.89901353   -6.5739524    295.18642  0.028736996  0.028992051           10 
  857000   0.92923105   -6.5871472    294.48796  0.028635547  0.028974041            6 
  858000   0.88789086   -6.5860983    295.63725  0.028713797   0.02895601            4 
  859000   0.90980909   -6.5895233    295.00191  0.028618734  0.028938123            8 
  860000   0.93304619   -6.5741645     295.0929  0.028594274  0.028920196            7 
  861000   0.91656569   -6.5726706    295.89379  0.028638578  0.028902374            9 
  862000   0.89335131   -6.5733894    296.86561  0.028699304  0.028884724            8 
  863000   0.91185041   -6.5850721    296.28718  0.028610195  0.028867191            5 
  864000   0.90496014   -6.6208976    296.44811  0.028592603  0.028849453            5 
  865000   0.89754331   -6.5920531    297.55002  0.028665705  0.028831708            6 
  866000   0.91219184   -6.5831844    296.63268   0.02854433  0.028813947            8 
  867000   0.90348781   -6.5942165    297.32903  0.028578338  0.028796215           14 
  868000    0.8963462   -6.5911758    297.03355  0.028517046  0.028778418           11 
  869000   0.90034039   -6.5634348    297.91256  0.028568523  0.028760728           12 
  870000    0.8858715   -6.5657933    297.77675  0.028522677   0.02874308           11 
  871000   0.90731573   -6.6020588     297.3974  0.028453636  0.028725464            5 
  872000   0.89394206   -6.6161306    297.32448  0.028414036  0.028707453            6 
  873000   0.90017529   -6.6115652    297.09693  0.028359768  0.028689472            5 
  874000   0.89504637   -6.5787334    297.93644  0.028407364  0.028671548           11 
  875000    0.8995833   -6.5867907    297.83228  0.028364979   0.02865361            8 
  876000   0.89812635   -6.5904845     298.9334  0.028437348  0.028635723            4 
  877000   0.91458106    -6.593677    298.64225  0.028377257  0.028617815            8 
  878000    0.8616574   -6.5801809    298.43007  0.028324798  0.028600028           10 
  879000   0.90496777   -6.5868816    298.57447  0.028306263   0.02858231            6 
  880000   0.90830606   -6.6365274    299.37188   0.02834961  0.028564337            8 
  881000   0.90814104   -6.6263928    299.09253  0.028291008  0.028546385           14 
  882000   0.91241776   -6.6324319    299.04437  0.028254381  0.028528455           14 
  883000   0.88446466   -6.6004916    300.22827  0.028334113  0.028510664            7 
  884000   0.89245877   -6.5517553    299.50562  0.028233939  0.028492861            4 
  885000    0.8991038   -6.6088173    299.90445   0.02823959  0.028475231            5 
  886000   0.90119794    -6.617859      299.886  0.028205982  0.028457407            8 
  887000   0.89164762   -6.6047789    300.25669  0.028209009  0.028439429            7 
  888000   0.89980857    -6.643533    300.36384  0.028187297   0.02842166            5 
  889000   0.88837813   -6.5999386    300.71208  0.028188234  0.028404086            7 
  890000    0.8804869   -6.6454082     299.3484  0.028028876  0.028386343            6 
  891000    0.8911259   -6.6077017    300.96001  0.028148149  0.028368519           20 
  892000   0.91260397   -6.6140883    300.35822  0.028060372  0.028350612            6 
  893000   0.88835937   -6.6094019    300.66935  0.028057984  0.028332621            8 
  894000   0.89378182   -6.6223649    300.43981  0.028005203   0.02831449            7 
  895000   0.90061127   -6.5634596    302.38002  0.028154564  0.028296496           14 
  896000   0.89223983   -6.6067614    301.78507  0.028067808  0.028278784           11 
  897000   0.88715723   -6.6290407    301.77631  0.028035703  0.028261025           11 
  898000   0.89029521   -6.6026477    302.04462  0.028029382  0.028243166           16 
  899000   0.89403645   -6.5861734    302.35956  0.028027397  0.028225498            6 
  900000   0.89672665   -6.6147485    302.30248  0.027990971  0.028207839            5 
  901000   0.88892916   -6.6286029    302.32825  0.027962287  0.028189998            6 
  902000   0.89637301   -6.6258248    302.44254  0.027941846  0.028172129            5 
  903000   0.89891769    -6.633653    302.10958  0.027880175  0.028154303            4 
  904000   0.89687164   -6.6137778    302.90696  0.027922839  0.028136298           13 
  905000   0.89031676   -6.6383437    301.35277  0.027748874  0.028118342           18 
  906000   0.89116977   -6.6398932    302.70061   0.02784222  0.028100356           11 
  907000   0.86902153    -6.640026    302.13887  0.027759911  0.028082269            4 
  908000   0.87588813   -6.6101674    303.55347  0.027859166  0.028064266           11 
  909000   0.89522073   -6.6591052    303.02676  0.027780231  0.028046409            7 
  910000   0.89004365   -6.6182329    303.55701  0.027798261  0.028028538            4 
  911000   0.89708099   -6.6361479    303.93336  0.027802173  0.028010645            6 
  912000   0.87079752   -6.6181963    304.51076  0.027824449  0.027992825           12 
  913000   0.88363233   -6.5947185    304.95953  0.027834933  0.027975078            9 
  914000   0.88606836   -6.6274023     304.6342  0.027774817  0.027957388           15 
  915000   0.87585229   -6.6358626    304.07611  0.027693635  0.027939636           10 
  916000   0.90947082     -6.63715    303.96921  0.027653676  0.027921877            7 
  917000   0.89017838   -6.6202546    304.85988   0.02770446  0.027904086           12 
  918000   0.89147347   -6.6039123    304.41612  0.027633998  0.027886339            5 
  919000   0.87568893   -6.6366045    304.91222  0.027648914  0.027868442            5 
  920000   0.87963666   -6.6335136    305.71619  0.027691683  0.027850455           10 
  921000   0.88827363   -6.6225146    305.02256  0.027598856  0.027832591           12 
  922000    0.8736338   -6.6403429    305.59439  0.027620607  0.027814913           11 
  923000   0.87752732   -6.6561835    305.52523  0.027584438  0.027797054           14 
  924000   0.87381264   -6.6419751    305.70054  0.027570395  0.027779127           11 
  925000   0.89488868   -6.6438638    305.78962  0.027548614  0.027761263            6 
  926000   0.87270361   -6.6272455    305.51001  0.027493702   0.02774352           11 
  927000    0.9003646   -6.6166831    306.02799  0.027510606  0.027725669           11 
  928000   0.88745608   -6.6477943    305.76519  0.027457362  0.027707689            6 
  929000   0.88100421   -6.6451588    305.95964  0.027445249  0.027689838            6 
  930000   0.89705407   -6.6619304    305.80639  0.027402007   0.02767193           17 
  931000   0.89098375   -6.6342034    306.70818  0.027453292  0.027654064            8 
  932000   0.92057884   -6.6612481    306.91962  0.027442741  0.027636333           16 
  933000   0.87955948   -6.6345044    306.09291  0.027339488  0.027618508           12 
  934000    0.8714597   -6.6824492    306.84951  0.027377722  0.027600628            7 
  935000    0.8909133   -6.6493631    306.80118  0.027344134  0.027582699            3 
  936000   0.90649318    -6.669036    306.91722  0.027325251    0.0275647            6 
  937000   0.88730253   -6.6308526    307.14389  0.027316248  0.027546761           18 
  938000    0.8920398   -6.6623173     307.2608  0.027297513  0.027528934            5 
  939000   0.87131213   -6.6692045    307.20802  0.027263757  0.027511091            9 
  940000   0.87611895   -6.6559605    307.51635  0.027262088  0.027493187            8 
  941000   0.86969945   -6.6545684    307.63546  0.027243664  0.027475293           22 
  942000   0.90441991   -6.6640809     309.0141  0.027336704  0.027457483           11 
  943000   0.88079914   -6.6684959    308.12961  0.027229552  0.027439778            9 
  944000   0.88117084   -6.6543766    308.38364  0.027223132  0.027422032            4 
  945000    0.8559777   -6.6474547    308.18585  0.027176883  0.027404267           24 
  946000   0.89435435   -6.6731836    309.13215  0.027231515  0.027386479           12 
  947000   0.87302634   -6.6462307    309.12069   0.02720175   0.02736887           18 
  948000   0.87837763   -6.6797547    308.88082  0.027151971  0.027351293           20 
  949000   0.88806863    -6.688145    308.91078  0.027125991  0.027333639           17 
  950000   0.86528273   -6.6473659     309.3608  0.027136913  0.027315742            9 
  951000   0.86604933   -6.6763167    310.24208  0.027185601  0.027298021            8 
  952000    0.8740092   -6.6758814    309.69567  0.027109215  0.027280293           12 
  953000   0.88186853   -6.6417638    309.53477  0.027066699  0.027262739            4 
  954000   0.85490043   -6.6359114     309.4022  0.027026747  0.027245216           12 
  955000   0.86649101   -6.6202653    310.33041  0.027079442  0.027227686            7 
  956000   0.88642227    -6.663924       310.45  0.027061541  0.027210342            5 
  957000   0.86819004   -6.6404459    310.93443  0.027075447  0.027192974           12 
  958000   0.87075371   -6.6549147    311.33342  0.027081891  0.027175509            7 
  959000   0.84747457   -6.6426821    311.28332  0.027049298  0.027158243            5 
  960000   0.86456541   -6.6573308    311.75871  0.027062388   0.02714084            7 
  961000   0.85166034   -6.6719616    311.08674  0.026975958  0.027123503            6 
  962000    0.8773042   -6.6519543    311.28248  0.026964872   0.02710618            7 
  963000   0.86573827   -6.6854344    311.46778  0.026952906  0.027088829           20 
  964000   0.87778241   -6.6610891    311.68042  0.026943328  0.027071514           20 
  965000   0.86579195   -6.6421754    311.92319  0.026936372  0.027054219            4 
  966000   0.86828964   -6.6764026    312.22458  0.026934488  0.027036764            8 
  967000   0.86112489   -6.6743116    312.47136  0.026927901  0.027019412            8 
  968000   0.86983626   -6.6430191    311.87751  0.026848959  0.027002137           12 
  969000   0.86467051   -6.6530477    311.84288  0.026818273   0.02698475            7 
  970000   0.87870491   -6.6348216    313.14042  0.026902098  0.026967338            9 
  971000   0.84293448   -6.6826158    312.39856  0.026810724  0.026949996           39 
  972000   0.87139295   -6.6793167    312.57355  0.026798144  0.026932355           17 
  973000   0.87033182   -6.6993587     312.2564   0.02674344  0.026914808           27 
  974000   0.86420376   -6.6492441    312.25695  0.026716029  0.026897353           11 
  975000   0.86048383   -6.6926642    312.71771  0.026728009  0.026879786           19 
  976000   0.86323973   -6.7254334    312.95119  0.026720559  0.026862076           18 
  977000   0.85714478   -6.7127529    312.45417  0.026650817  0.026844185           11 
  978000   0.86389203   -6.7089094    312.36968  0.026616367  0.026826182            6 
  979000   0.85222047   -6.7084725    312.62055  0.026610533  0.026808257            7 
  980000   0.84736508   -6.6809447    312.32124  0.026557929  0.026790138           10 
  981000   0.84086442   -6.6824952    312.37794  0.026535673  0.026772104            6 
  982000   0.86337727   -6.6739149    313.60254  0.026612572  0.026754315           13 
  983000   0.86239897   -6.6751971    313.37295  0.026566035  0.026736617           17 
  984000   0.85322058     -6.70197    313.08176  0.026514377  0.026718852           17 
  985000   0.85732095   -6.6741743    313.74843   0.02654386  0.026701153            9 
  986000   0.84856229   -6.7022042    313.37312   0.02648522  0.026683619            9 
  987000   0.85625595   -6.6759853    313.94015  0.026506261  0.026666069            8 
  988000   0.86904316   -6.6780253    314.30456  0.026510168  0.026648491           23 
  989000   0.86466808   -6.6920959     314.0242   0.02645974  0.026630842            8 
  990000    0.8500714   -6.6987298    314.47049   0.02647058  0.026613159            4 
  991000   0.86865886   -6.6894574    314.58088  0.026453151  0.026595636            7 
  992000   0.84752971   -6.7014908    314.53148  0.026422336  0.026578021            5 
  993000   0.87300949   -6.7062058    314.24318  0.026371533  0.026560493            8 
  994000   0.86642139   -6.6995291    314.36405  0.026355135   0.02654296            8 
  995000   0.85845886   -6.7222409    314.51136  0.026340985  0.026525301            8 
  996000    0.8435467   -6.6792267    314.18715  0.026287412  0.026507531           17 
  997000   0.87446395   -6.7509294    314.43919  0.026282112  0.026489723            9 
  998000   0.86888787   -6.7194507    315.30653  0.026328201  0.026472029           18 
  999000   0.85137784   -6.6784647    315.54222  0.026321507  0.026454356            7 
 1000000   0.86573054   -6.7190846    314.87431  0.026239526  0.026436746            9 
 1001000   0.85411694   -6.6674504    315.98357  0.026305659  0.026419193           11 
 1002000   0.85042121   -6.6524458    316.67596   0.02633699  0.026401878           10 
 1003000   0.85877364    -6.693526    315.83029  0.026240469   0.02638445           11 
 1004000    0.8680266   -6.7469611    316.34829  0.026257328  0.026366889            8 
 1005000   0.84185762   -6.6942718    316.26308  0.026224136  0.026349279            5 
 1006000   0.84903659   -6.6866543     316.5245  0.026219723  0.026331727            7 
 1007000    0.8488035   -6.6799654     316.9312  0.026227342  0.026314143            8 
 1008000   0.84254266   -6.6741705    317.26435  0.026228865  0.026296753           22 
 1009000    0.8567433   -6.7231372    315.50775  0.026057793  0.026279164            9 
 1010000   0.86470664   -6.6807938    316.72499  0.026132425   0.02626154            7 
 1011000   0.86434561   -6.7189337    316.23043  0.026065812  0.026243803           30 
 1012000   0.84593268    -6.695594    316.62999  0.026072957  0.026226149            5 
 1013000   0.86064697   -6.7212573    316.80988  0.026062017  0.026208507            8 
 1014000   0.85946317   -6.7239854    316.68845  0.026026336  0.026190895            8 
 1015000    0.8472843   -6.6982852    316.65347  0.025997821   0.02617326           16 
 1016000   0.84174844   -6.7115465    316.73186  0.025978663  0.026155652            7 
 1017000   0.85213738   -6.6964818    317.98126  0.026055495   0.02613807           10 
 1018000   0.85107203    -6.683671    317.75528  0.026011401  0.026120474            7 
 1019000   0.85304193   -6.6932173    317.13919  0.025935491  0.026102891           13 
 1020000   0.85151908   -6.6951454    317.30081  0.025923269  0.026085322           11 
 1021000   0.84136401   -6.7279967    317.30732   0.02589841  0.026067727           10 
 1022000   0.84583366    -6.719416    317.39298  0.025880054  0.026050141           10 
 1023000   0.84420311   -6.7513371      317.416  0.025856631  0.026032327           14 
 1024000   0.85802447   -6.7354267    317.31128  0.025822858   0.02601449           10 
 1025000   0.83366406   -6.6929483    317.59713  0.025820905  0.025996751            8 
 1026000   0.86948965   -6.7292253    317.62706   0.02579817  0.025978935           12 
 1027000   0.84513418   -6.7112342    318.02162  0.025805065  0.025961239            4 
 1028000   0.86515303   -6.7058469    317.51654  0.025739019  0.025943623            5 
 1029000   0.82215963   -6.7351189    318.00335  0.025753429  0.025925882           10 
 1030000   0.83757849   -6.7249174    318.53384  0.025771346  0.025908155            7 
 1031000   0.84208236   -6.7000081    318.93744  0.025778972  0.025890605            6 
 1032000   0.82251463   -6.7000721    319.35634  0.025787818  0.025873248           13 
 1033000    0.8327432   -6.7296996    319.37679  0.025764504  0.025855927            5 
 1034000   0.83957128   -6.7557076     319.0653  0.025714482  0.025838564           12 
 1035000   0.86218475   -6.7028661    320.14112  0.025776257  0.025821303           17 
 1036000   0.83091679   -6.7103671    319.58804  0.025706888  0.025804176           26 
 1037000   0.82211202   -6.7299868    320.30726  0.025739896  0.025787084            8 
 1038000   0.83288522   -6.7012823    321.24709   0.02579055  0.025769937           24 
 1039000   0.83341253   -6.7285481     320.3801   0.02569619  0.025752853           20 
 1040000   0.83912653   -6.7312112     320.1164  0.025650353  0.025735657           29 
 1041000   0.83650899   -6.7376749    319.91212  0.025609359  0.025718442           10 
 1042000   0.85145735   -6.7291202     320.6309  0.025642266  0.025701287            5 
 1043000   0.84552719   -6.7148217    321.27711  0.025669312  0.025684205           31 
 1044000   0.83059517   -6.7495593     320.5509  0.025586758  0.025666997           16 
 1045000   0.83925614   -6.7135856      320.594   0.02556571  0.025649701            4 
 1046000   0.82756361   -6.7073087    320.96191  0.025570579  0.025632581           16 
 1047000   0.83497258   -6.6875492    320.81495  0.025534459  0.025615473            6 
 1048000   0.82488574   -6.7143522    321.06365  0.025529871  0.025598304            6 
 1049000   0.83004746   -6.7316017     320.8871  0.025491508  0.025581089           11 
 1050000   0.84564486   -6.7416547    320.48202  0.025435081  0.025563829           32 
 1051000   0.81976938    -6.730195    320.82195  0.025437833  0.025546572           19 
 1052000   0.85297213   -6.7470569    321.38968  0.025458625  0.025529329           17 
 1053000   0.81886552   -6.7428605    321.55705  0.025447693  0.025512143           15 
 1054000   0.81673266   -6.7310479    322.02575  0.025460606  0.025495109           14 
 1055000   0.81899913   -6.7209274    321.29045  0.025378392  0.025478041           20 
 1056000   0.84042504    -6.771467    322.05953  0.025415051  0.025460894           12 
 1057000   0.84462541   -6.7505759    322.45786  0.025422411  0.025443715           10 
 1058000   0.82512304   -6.7649896     322.5121  0.025402654  0.025426732           14 
 1059000   0.83300201   -6.7331278    322.50535  0.025378136  0.025409768           11 
 1060000    0.8218005   -6.7653401    322.78849  0.025376453  0.025392859           11 
 1061000   0.82766854   -6.7430766    323.75806  0.025428689  0.025375915           22 
 1062000    0.8309515   -6.7414653     322.1249  0.025276593  0.025359055            8 
 1063000    0.8129927   -6.7513857    323.18434  0.025335869  0.025342069            9 
 1064000   0.82751433   -6.7482713    323.06671  0.025302844  0.025325193           18 
 1065000   0.81934347   -6.7285496    323.29115  0.025296647  0.025308278           23 
 1066000   0.82846882   -6.7515386    323.72646  0.025306947  0.025291408           17 
 1067000   0.82874586   -6.7502909    323.74339  0.025284551  0.025274537           12 
 1068000   0.83351359   -6.7456373    323.56546  0.025246993  0.025257669           20 
 1069000   0.82081531   -6.7638789    324.39991  0.025288424  0.025240875           24 
 1070000   0.83554092   -6.7329945    323.66892   0.02520786  0.025224105           32 
 1071000   0.82173881   -6.7598863    323.66865  0.025184302  0.025207283           24 
 1072000   0.83369202   -6.7788514    324.21056  0.025202935  0.025190362           19 
 1073000    0.8134841    -6.755662    323.84534  0.025151082  0.025173407            9 
 1074000    0.8247056   -6.7731579    324.03786  0.025142602  0.025156623            7 
 1075000   0.82893264   -6.7749572    324.22923  0.025134049  0.025139915           22 
 1076000   0.82192627   -6.7370778    324.60477  0.025139774  0.025123106            8 
 1077000   0.81464195   -6.7727952     324.7437  0.025127182  0.025106318            9 
 1078000   0.82316869   -6.7544613    325.74938  0.025181616  0.025089644           16 
 1079000   0.82683129   -6.7464058    324.50572  0.025062227  0.025072974           16 
 1080000    0.8363749   -6.7393068    325.63338  0.025126032  0.025056279           10 
 1081000   0.79958246   -6.7216079    325.56368  0.025097416  0.025039733            7 
 1082000   0.82540558   -6.7452398    325.77637  0.025090602  0.025023135           10 
 1083000    0.8239054   -6.7787994    324.78415  0.024991086  0.025006439            7 
 1084000   0.81567489   -6.7532298    325.60439  0.025031088  0.024989627            7 
 1085000   0.81293046   -6.7650046    324.49357  0.024922701  0.024972847            9 
 1086000   0.80652031   -6.7561016    325.30965  0.024962373  0.024956027            9 
 1087000   0.81584358   -6.7593642    326.13613   0.02500277   0.02493924            7 
 1088000   0.82952988   -6.7688078     325.2209  0.024909689  0.024922373           14 
 1089000   0.81476878   -6.7791157    324.38726  0.024823022  0.024905387            7 
 1090000   0.80395739   -6.7853267    324.71641  0.024825413  0.024888373           11 
 1091000   0.82095616   -6.7732722    324.64986  0.024797575  0.024871344           24 
 1092000   0.82977488   -6.7849147    325.70875  0.024855674  0.024854349            7 
 1093000   0.83631991   -6.7719082    325.48708  0.024816033  0.024837426            9 
 1094000   0.80620101   -6.8009983    326.24136  0.024850804  0.024820472           28 
 1095000   0.82786603   -6.7798971    325.32741  0.024758555  0.024803474           11 
 1096000   0.83892886    -6.789241    326.35735  0.024814275  0.024786674           10 
 1097000   0.82828225    -6.757995    326.02189  0.024766172  0.024769881           25 
 1098000   0.81704638   -6.7653392    325.81582  0.024727976  0.024753098            5 
 1099000    0.8354752   -6.7787098    326.30462   0.02474254  0.024736237           20 
 1100000   0.82555216   -6.7735018    326.93618  0.024767892  0.024719324           20 
 1101000   0.81193358   -6.7729667    326.41452  0.024705913  0.024702552           10 
 1102000   0.82514884   -6.7855288    325.92293   0.02464632  0.024685767           26 
 1103000    0.8137032   -6.8054189    326.05559  0.024633997   0.02466879           14 
 1104000   0.82294274    -6.768314    327.10648  0.024691009  0.024651918           12 
 1105000   0.80309051   -6.8159709    326.61087  0.024631287  0.024635167           12 
 1106000   0.81288668   -6.7898565    326.77985  0.024621749  0.024618386           20 
 1107000   0.80118456   -6.8002633     327.3009  0.024638731  0.024601757           21 
 1108000   0.81475519   -6.7794214    327.77521  0.024652167  0.024585099            8 
 1109000   0.80834323   -6.7713476    328.35222  0.024673296  0.024568628           11 
 1110000   0.82109955   -6.7887191    328.12615  0.024634096  0.024552168           16 
 1111000   0.79334172   -6.7839997    328.28772  0.024624041  0.024535706           13 
 1112000   0.81588186   -6.7829391    327.96612  0.024577797  0.024519307            9 
 1113000   0.80713967   -6.8038043    328.59248  0.024602611  0.024502868           27 
 1114000   0.82001697   -6.7699297    328.91599  0.024604727  0.024486539            8 
 1115000   0.80198696   -6.7863632    328.07926  0.024520124  0.024470185           12 
 1116000   0.81472314   -6.7666905    328.51415  0.024530626   0.02445391           13 
 1117000   0.80224213   -6.7654608    329.43149  0.024577103  0.024437752           35 
 1118000   0.79099005   -6.8025481    329.34176  0.024548432  0.024421678           10 
 1119000   0.82408892   -6.8142036    328.35554  0.024453049  0.024405536           11 
 1120000   0.79924553   -6.7655564    329.57824   0.02452219  0.024389306           41 
 1121000   0.78284334   -6.7695342    329.52379  0.024496268  0.024373096           21 
 1122000   0.81350437    -6.785918    329.13448   0.02444552  0.024356862            9 
 1123000   0.80095133   -6.7834775    330.16671  0.024500349  0.024340623           12 
 1124000   0.80755494   -6.7562927    330.15696  0.024477829  0.024324354           16 
 1125000   0.82009815   -6.7824532    330.57469  0.024487014  0.024308098           10 
 1126000   0.79977641   -6.8106229    328.89226  0.024340753  0.024291892           16 
 1127000   0.78934386   -6.7867658    329.79045   0.02438557  0.024275669           10 
 1128000   0.78310662   -6.7953545    329.67171  0.024355179  0.024259428           16 
 1129000   0.81175507   -6.7811278    329.57933  0.024326789  0.024243234            7 
 1130000   0.81816257   -6.8141158    329.00234  0.024262709  0.024226987            9 
 1131000   0.80879613   -6.7835157    330.21061  0.024330283  0.024210776           11 
 1132000   0.78151004    -6.799919    331.16453  0.024379014  0.024194654           22 
 1133000   0.82270714   -6.7867953    330.79999  0.024330685  0.024178479           22 
 1134000   0.79235542   -6.7780215    329.92096  0.024244632  0.024162349           13 
 1135000   0.80251295   -6.8170538    330.12321  0.024238121  0.024146154           42 
 1136000   0.79288944     -6.79442    330.14872  0.024218656  0.024129969           24 
 1137000   0.81225361   -6.8287518    329.86811  0.024176789  0.024113675           22 
 1138000   0.80435051   -6.7975689    330.76438  0.024221176  0.024097463           17 
 1139000   0.79728845   -6.7991774    329.92594  0.024138567  0.024081083           24 
 1140000   0.80918485   -6.8399995    330.06423  0.024127502  0.024064717           10 
 1141000   0.80200174   -6.8075151     330.8311  0.024162365  0.024048502            7 
 1142000   0.79782289   -6.7867611    330.87325  0.024144283  0.024032257           17 
 1143000   0.79160206   -6.8323597    330.58251  0.024101962  0.024015929           16 
 1144000    0.7908778   -6.8355408     331.0825  0.024117315  0.023999652           10 
 1145000   0.80385754   -6.7860347    330.53824   0.02405664  0.023983408           13 
 1146000   0.78845907   -6.8018658     331.3762  0.024096583  0.023967214           23 
 1147000   0.80782936   -6.8297949    330.58932  0.024018404  0.023950969           11 
 1148000   0.79355261   -6.8336762    330.80345  0.024013026  0.023934683           25 
 1149000   0.78660708   -6.8325388    331.24482  0.024024138  0.023918395           24 
 1150000   0.80163216   -6.8482898    331.30956  0.024007939  0.023902256           11 
 1151000   0.79420669   -6.8219366    331.37353  0.023991712  0.023886198           15 
 1152000   0.80762849   -6.7934733    331.50591  0.023980463  0.023870089           21 
 1153000   0.78703514   -6.8127787    331.85722  0.023985055   0.02385397            8 
 1154000   0.80804984   -6.8001088    331.46656   0.02393606  0.023837813            8 
 1155000   0.78800581   -6.7907661    332.03996  0.023956707  0.023821708           13 
 1156000   0.79072994   -6.8182498    332.29326  0.023954243  0.023805599           21 
 1157000   0.78922721   -6.8115319    331.27422  0.023860142  0.023789491            7 
 1158000   0.79379239   -6.8273775    331.84138  0.023880353  0.023773326           15 
 1159000   0.79590807   -6.8349386    331.50209  0.023835353  0.023757242           16 
 1160000   0.78391104   -6.8277404    331.74155  0.023832008  0.023741113           18 
 1161000   0.78798716   -6.8212273    332.54521  0.023869165  0.023724931           18 
 1162000   0.78093213   -6.8443348    332.99916  0.023881179  0.023708857            7 
 1163000   0.80396103   -6.8720728    332.81383  0.023847365  0.023692652           22 
 1164000   0.77777076   -6.8513351    332.55022  0.023808005  0.023676429           11 
 1165000   0.77776684   -6.8329021    332.90361  0.023812848  0.023660225            6 
 1166000   0.80808318     -6.85343     332.8747  0.023790359  0.023644081           19 
 1167000   0.79142933    -6.793202    332.49299  0.023742716  0.023628003           13 
 1168000   0.78848154   -6.8475856    332.25711  0.023705559  0.023611912           29 
 1169000   0.78134222   -6.8360387    333.06751   0.02374305  0.023595792           21 
 1170000   0.78679898    -6.812255    331.97658  0.023645055  0.023579617           15 
 1171000   0.78185899   -6.8452751    333.03668  0.023700305   0.02356346           18 
 1172000   0.78678287   -6.8240414    333.66937  0.023725069  0.023547365           10 
 1173000   0.78536527   -6.8405919    332.81011  0.023643798  0.023531319            3 
 1174000   0.79154939   -6.8400994    333.68489  0.023685753  0.023515257           12 
 1175000   0.78905112   -6.8390973    333.79647  0.023673508   0.02349931           11 
 1176000   0.78707911   -6.8293795    333.91737  0.023661945  0.023483395           14 
 1177000   0.77888184   -6.8559689    334.46482  0.023680602  0.023467497            8 
 1178000   0.79529228   -6.8342016    334.62458  0.023671801  0.023451599           16 
 1179000   0.78542758   -6.8314494    333.93519  0.023602996  0.023435615           15 
 1180000   0.78376858   -6.8312264    333.64464  0.023562475  0.023419691            7 
 1181000   0.79929825    -6.857694    334.22655  0.023583584  0.023403881           21 
 1182000   0.79480971   -6.8549852    334.66927  0.023594844   0.02338806           11 
 1183000   0.77193906   -6.8506874    334.31726  0.023550103  0.023372228           22 
 1184000    0.7625409   -6.8476108    335.00115  0.023578347  0.023356377           10 
 1185000   0.78118238   -6.8117301     334.1247  0.023496814  0.023340591           18 
 1186000   0.77122622   -6.8662155     334.0466  0.023471515  0.023324838           21 
 1187000   0.79056428   -6.8683517    334.59555   0.02349028  0.023308942           78 
 1188000   0.78350038   -6.8613241    334.57391  0.023468989  0.023293009           17 
 1189000   0.77349722    -6.861141    334.53605  0.023446597  0.023277078           31 
 1190000   0.78501031   -6.8531407    334.24789  0.023406715  0.023261208           33 
 1191000   0.78488986   -6.8584961     334.6486  0.023415099  0.023245295           27 
 1192000   0.78315431   -6.8543995    335.15286  0.023430709  0.023229333           19 
 1193000   0.76537937   -6.8226533    335.35514  0.023425198  0.023213446           13 
 1194000   0.79650762   -6.8536192     334.8344  0.023369235  0.023197512           12 
 1195000   0.79698087   -6.8602718    335.31845  0.023383434  0.023181583           22 
 1196000   0.76613917   -6.8967168    334.93936  0.023337469  0.023165613           16 
 1197000   0.76075283   -6.8723878    334.28276  0.023272261  0.023149535           21 
 1198000   0.78507965   -6.8708686    335.02184  0.023304246  0.023133566            9 
 1199000   0.77707871   -6.8563961     334.3588  0.023238727  0.023117634            9 
 1200000   0.75997495   -6.8596911    335.44019  0.023294458  0.023101747           10 
 1201000   0.77889533   -6.8374648    334.57785  0.023215227  0.023085838           22 
 1202000   0.76881022   -6.8751502    335.09631  0.023231857  0.023069985            8 
 1203000   0.77895864   -6.8872237    335.53422   0.02324288  0.023054069            7 
 1204000    0.7775606   -6.8696833     335.5858  0.023227145  0.023038205           17 
 1205000   0.77316657   -6.8375134    335.48101  0.023200623  0.023022411           10 
 1206000   0.78187134   -6.8748534    335.63919  0.023192315  0.023006642           20 
 1207000   0.76714439   -6.8868692    336.66618  0.023244006  0.022990872           19 
 1208000   0.75708883   -6.8728628     335.8128  0.023165894  0.022975197            8 
 1209000   0.77225253    -6.880648    336.61202  0.023201821  0.022959478            7 
 1210000   0.77353465   -6.8843338    336.92411   0.02320414  0.022943755           23 
 1211000   0.76918434   -6.8952589    337.79541  0.023244936  0.022928077           12 
 1212000    0.7719861   -6.8883676    336.83268  0.023159563  0.022912326           19 
 1213000    0.7740146   -6.8825552    336.22913  0.023099006    0.0228966           27 
 1214000   0.78644478   -6.8940874    336.37515  0.023090002  0.022880863           31 
 1215000   0.76347836   -6.8589273    337.17072  0.023125564  0.022865257           30 
 1216000   0.76747013   -6.8847263    336.67571  0.023072623  0.022849715           44 
 1217000    0.7651099   -6.8824124    336.61711  0.023049651  0.022834065           31 
 1218000   0.76356747    -6.891168    337.26562  0.023075097  0.022818367           30 
 1219000   0.77212249   -6.9036347    336.94678  0.023034371  0.022802635           37 
 1220000   0.75819925   -6.8792599    336.50295  0.022985174  0.022786925           25 
 1221000   0.76378574   -6.8711264    336.78068  0.022985304  0.022771182           24 
 1222000     0.774997   -6.8902073    337.06745  0.022986051  0.022755489           33 
 1223000   0.76894664   -6.8770624    336.33412  0.022917288  0.022739809           18 
 1224000   0.76353404   -6.8734485    337.18598  0.022956562   0.02272419           48 
 1225000   0.76542878   -6.8724087    336.97839    0.0229237   0.02270852           35 
 1226000   0.76236535    -6.898867    337.50367  0.022940706  0.022692843           45 
 1227000   0.77352692   -6.8687214    337.40899  0.022915579  0.022677122           20 
 1228000   0.77053044   -6.9080194    337.46155  0.022900485  0.022661437           24 
 1229000     0.754658   -6.9067557    336.90504  0.022844117  0.022645818           15 
 1230000   0.75395974   -6.8829019    337.75685  0.022883256  0.022630124           14 
 1231000   0.76391918   -6.9002133      337.348  0.022836989  0.022614394           11 
 1232000    0.7673941   -6.9050763     336.9769  0.022793351  0.022598702           14 
 1233000    0.7684017   -6.8424625    337.18132  0.022788681   0.02258315           11 
 1234000   0.75845961   -6.8722214    338.15056  0.022835667  0.022567717           13 
 1235000   0.76196493   -6.9027308    338.10752  0.022814272  0.022552211           27 
 1236000    0.7473088   -6.9223425    337.67629   0.02276674  0.022536693           20 
 1237000    0.7598618   -6.9072387    337.29704  0.022722787  0.022521059           46 
 1238000   0.77288935   -6.8600124    338.30578  0.022772333  0.022505456           49 
 1239000   0.75374874   -6.8983104    338.57357  0.022771965  0.022489932           67 
 1240000   0.77601383   -6.9263101    337.94046  0.022711052  0.022474363           32 
 1241000   0.76936295   -6.8947172    338.10872  0.022704051  0.022458781           36 
 1242000   0.75504708   -6.8906023    338.39728  0.022705132  0.022443168           16 
 1243000   0.76931456   -6.9119346    337.87053  0.022651551  0.022427504           15 
 1244000   0.76969724   -6.8939494    337.83821  0.022631177  0.022411885           21 
 1245000   0.74893902   -6.8813749    338.13281  0.022632718  0.022396247           11 
 1246000   0.76267249   -6.9198018    337.80504  0.022592632  0.022380625           24 
 1247000   0.77078988   -6.9093076    338.04919  0.022590831  0.022364932           32 
 1248000   0.76756347   -6.8979648    338.24792  0.022585999   0.02234932           30 
 1249000   0.76326866   -6.9155427    338.29543  0.022571085  0.022333784           32 
 1250000   0.75060106   -6.9485225    338.48405  0.022565604  0.022318174           29 
 1251000   0.77083368   -6.9057472    338.18929   0.02252793  0.022302649           30 
 1252000   0.74735242   -6.9311327    338.75294  0.022547453  0.022287078           38 
 1253000   0.75662418    -6.894032    338.75688   0.02252972  0.022271565           27 
 1254000   0.76839706   -6.9250643    338.20998  0.022475411   0.02225609           22 
 1255000   0.74808212   -6.9305799    338.26692  0.022461283  0.022240599           23 
 1256000   0.75424687   -6.9119796    338.44715  0.022455358  0.022225045           48 
 1257000   0.74367016   -6.9110888    338.69808  0.022454129  0.022209523           13 
 1258000   0.74726333   -6.9028161    340.12933   0.02253109  0.022194045           20 
 1259000   0.74305615   -6.8948149     339.8934  0.022497577  0.022178667           23 
 1260000   0.75791349   -6.9077262    339.10996  0.022427907  0.022163211           32 
 1261000   0.74152257   -6.9283927    339.94742  0.022465465  0.022147804           19 
 1262000   0.76315787   -6.9094463    339.33726  0.022407373   0.02213231           38 
 1263000    0.7356084   -6.8879496    338.93795  0.022363285   0.02211692           27 
 1264000   0.73514087   -6.9059771    339.21692  0.022363985   0.02210153           11 
 1265000   0.75331117   -6.9298537    339.47675  0.022363422  0.022086113           24 
 1266000   0.72882561   -6.9141221    340.11713   0.02238791  0.022070755           18 
 1267000   0.74316468   -6.9081032    340.04309   0.02236537  0.022055409           12 
 1268000   0.75399223   -6.9006425    339.60549  0.022318973   0.02204021           23 
 1269000   0.74327407   -6.9240541    340.27157  0.022345125  0.022024904           18 
 1270000   0.73457302   -6.9367093    340.54923   0.02234575  0.022009632           17 
 1271000   0.75189207   -6.8948949    340.65213  0.022334916   0.02199442           26 
 1272000   0.76380336   -6.8996918    340.71984  0.022321792  0.021979204           18 
 1273000   0.75097513     -6.92093    339.94894  0.022253793  0.021963927           27 
 1274000   0.74981188   -6.9134295     339.6669  0.022217877  0.021948675           20 
 1275000   0.73430229    -6.893512    340.17162  0.022233439  0.021933509           15 
 1276000   0.72980603   -6.9116246    340.54259  0.022240243  0.021918316           11 
 1277000   0.72667712   -6.9116723     340.7364  0.022235474  0.021903155           24 
 1278000   0.74104449   -6.9118574    340.50757  0.022203154  0.021887991           12 
 1279000    0.7360825   -6.8972247    340.72833  0.022200178  0.021872753           40 
 1280000   0.75460534   -6.9043193    341.59066  0.022238975  0.021857597           13 
 1281000   0.72726009   -6.9151534    340.78465  0.022169181  0.021842404           26 
 1282000     0.746677   -6.9354364    339.69525  0.022081074  0.021827144           22 
 1283000   0.73185192   -6.9382256    340.79706  0.022135429  0.021811936           25 
 1284000   0.74387654   -6.9347936    339.85934   0.02205733  0.021796688           27 
 1285000   0.75363306   -6.9472273    339.89968  0.022042781  0.021781409           54 
 1286000   0.75259706   -6.9373961    340.64575  0.022073986  0.021766079           35 
 1287000   0.73302548   -6.9613568    340.32879  0.022036311  0.021750716           54 
 1288000   0.75363273   -6.9196868    340.64351  0.022039565  0.021735318           48 
 1289000   0.73503924   -6.9563979    340.72247  0.022027571   0.02172002           68 
 1290000   0.73928763    -6.926874    340.30489   0.02198352  0.021704809           67 
 1291000   0.74121996   -6.9346666    340.73249  0.021994093  0.021689598           53 
 1292000   0.74340463   -6.9138214    339.76705  0.021914799  0.021674423           76 
 1293000   0.73282154    -6.944752    340.76115   0.02196192  0.021659238          117 
 1294000   0.72673286   -6.9717199    340.59635  0.021934334  0.021643976           98 
 1295000   0.73278407   -6.9500786    341.07174  0.021947989  0.021628752           88 
 1296000   0.74252616   -6.9275661    340.68826  0.021906395  0.021613491           77 
 1297000   0.73450528     -6.94413    341.38586  0.021934326  0.021598342           32 
 1298000   0.73985372   -6.9303007    341.22621  0.021907178  0.021583187           30 
 1299000   0.73104472   -6.9484908    341.15045  0.021885454  0.021568026           15 
 1300000   0.74136303   -6.9373191    341.05733   0.02186265  0.021552873           23 
 1301000   0.74038991   -6.9517124    341.50362  0.021874431  0.021537678           41 
 1302000    0.7279809   -6.9184624    341.63087  0.021865775  0.021522665           31 
 1303000    0.7338773   -6.9279097    341.69658  0.021853196  0.021507659           12 
 1304000   0.74187284   -6.9544869    341.84336  0.021845818  0.021492602           24 
 1305000   0.73081241    -6.928007    341.83917   0.02182881  0.021477497           24 
 1306000   0.73705348   -6.9430356    341.35197  0.021781009  0.021462369           30 
 1307000   0.73045669   -6.9104063    341.93226  0.021801343  0.021447238           15 
 1308000   0.73687277   -6.9773086    341.47746  0.021755699  0.021432149           26 
 1309000   0.73922738   -6.9335846    341.41841   0.02173532  0.021417008           33 
 1310000   0.74623826   -6.9381177    341.86358  0.021747047  0.021401885           16 
 1311000   0.73066268    -6.915891    341.40975  0.021701611  0.021386786           19 
 1312000   0.73371829   -6.9452386    341.42321  0.021685926  0.021371682           74 
 1313000   0.72586704   -6.9447717    342.30634  0.021725459  0.021356595           96 
 1314000   0.72889614   -6.9727449    342.08681  0.021695003   0.02134158           70 
 1315000   0.73973101   -6.9466636    341.18512  0.021621364  0.021326554           52 
 1316000   0.71355065   -6.9515764    341.64527  0.021634072  0.021311483          117 
 1317000   0.71994074   -6.9542193    342.03129  0.021642071  0.021296427           47 
 1318000   0.72615445    -6.962416    341.13081  0.021568716   0.02128131           58 
 1319000    0.7433249   -6.9887385    340.94231  0.021540454  0.021266141           83 
 1320000   0.72966326   -6.9590906    341.40862  0.021553574  0.021250908           74 
 1321000   0.71391723   -6.9788826    341.76527  0.021559757  0.021235733           63 
 1322000   0.73002405   -6.9496007    342.11226  0.021565322   0.02122056           31 
 1323000   0.72149292   -6.9629816    342.29468  0.021560511  0.021205401           66 
 1324000   0.71616064   -6.9710729     343.1905   0.02160061  0.021190286           19 
 1325000   0.72207979   -6.9749128    342.04125  0.021512028  0.021175183           30 
 1326000   0.71996352   -6.9776558    341.74664   0.02147729  0.021160018           33 
 1327000   0.72814059   -6.9664429    342.33649  0.021498147  0.021144892           27 
 1328000   0.73099477    -6.978494    342.16909  0.021471454  0.021129731           23 
 1329000   0.72945434   -6.9765406    342.03454  0.021446861  0.021114544           66 
 1330000   0.72814092   -6.9560885    341.89223  0.021421819  0.021099418           39 
 1331000   0.72598401   -6.9396239    341.72264  0.021395106  0.021084354           45 
 1332000   0.73530855   -6.9694675    342.48494  0.021426736  0.021069357          127 
 1333000    0.7183029   -6.9837424    343.07093  0.021447295  0.021054324          126 
 1334000   0.73888207   -6.9877864    342.57142  0.021400014  0.021039277           69 
 1335000   0.73421464   -6.9721812    342.76182  0.021395869   0.02102422           52 
 1336000   0.73526964   -6.9929178    342.53839  0.021365918  0.021009165           27 
 1337000   0.72704706   -6.9502512    341.84337  0.021306617  0.020994181           39 
 1338000   0.71544259   -6.9609279    342.94806  0.021359495  0.020979203           33 
 1339000   0.71683356   -6.9839004    342.71427  0.021328994   0.02096425           33 
 1340000   0.71782328   -6.9586415    343.13217  0.021339066  0.020949285           12 
 1341000   0.70950647   -6.9627398    342.60143  0.021290171  0.020934366           24 
 1342000   0.71488406   -6.9509977    343.08791  0.021304515  0.020919367            9 
 1343000   0.72134946   -6.9727931    341.81909  0.021209921  0.020904412           24 
 1344000   0.70808024   -6.9738906    342.59716  0.021242383  0.020889402           12 
 1345000   0.72250042   -6.9832946    343.18586  0.021263065  0.020874411           29 
 1346000   0.71945623    -6.972067    342.98989  0.021235134  0.020859417           20 
 1347000   0.71412587   -6.9702849    342.68327    0.0212004  0.020844434           29 
 1348000   0.71665087   -6.9929301    342.10304  0.021148803  0.020829448           25 
 1349000   0.72235244   -6.9623609    343.31327  0.021207887  0.020814426           36 
 1350000   0.71853914   -6.9819527    342.82543  0.021162063  0.020799437           37 
 1351000   0.71069739   -6.9954402    342.38817  0.021119428  0.020784451           51 
 1352000   0.70848916   -7.0130875    342.85896  0.021132826  0.020769468          116 
 1353000    0.7066067    -6.989398    343.90749  0.021181787  0.020754495           25 
 1354000   0.72611887   -6.9971993    343.10062  0.021116483  0.020739536          106 
 1355000   0.69802684   -6.9737648    343.04801  0.021097663  0.020724566           31 
 1356000   0.71001037    -6.978082     343.6691  0.021120274  0.020709612           90 
 1357000   0.70931028   -6.9927233    343.57786  0.021099107  0.020694733           65 
 1358000   0.70603913   -6.9802963    342.76324  0.021033581  0.020679809           67 
 1359000    0.7097116    -6.997575    343.35916  0.021054646  0.020664907           57 
 1360000   0.70824565   -6.9784914     343.4486  0.021044645   0.02065005           67 
 1361000   0.71493504   -6.9968291    343.36246  0.021023908  0.020635188           64 
 1362000   0.70544931   -6.9971384    342.67664   0.02096651  0.020620352           75 
 1363000   0.70307283   -6.9854111    342.79647  0.020958454  0.020605427           82 
 1364000   0.70970463   -7.0234911    342.58367  0.020930087  0.020590512           90 
 1365000   0.69673873    -7.011962    342.95053  0.020937151  0.020575577           60 
 1366000    0.7175492   -6.9978125    343.14533  0.020933707  0.020560703           29 
 1367000   0.71593888   -7.0214908    343.57964  0.020944869  0.020545858           42 
 1368000   0.70710141   -6.9735619    343.50699  0.020925134  0.020531042           61 
 1369000   0.71322776   -7.0077233    343.62272  0.020916893  0.020516228           47 
 1370000   0.71104965   -6.9851437    343.58925  0.020899589  0.020501348           31 
 1371000   0.71413143   -6.9923793    343.59889  0.020884931  0.020486527           62 
 1372000   0.69728328   -7.0158253    343.24565  0.020848254  0.020471701           63 
 1373000   0.69993323   -6.9992803     342.9493  0.020815083  0.020456908           43 
 1374000   0.70986719   -7.0092582    344.34319  0.020884473  0.020442159           38 
 1375000   0.71088691    -7.023712    343.80513  0.020836675   0.02042734           74 
 1376000   0.72170466   -6.9882473    343.29678  0.020790745  0.020412559           87 
 1377000   0.70350306   -7.0172089    342.86678  0.020749623  0.020397758           53 
 1378000   0.71387558   -7.0137327     342.8484  0.020733454  0.020382968          113 
 1379000   0.69877591   -7.0034844    343.75686  0.020773318  0.020368192          104 
 1380000   0.70428202   -7.0078927    343.42216  0.020738053  0.020353422          115 
 1381000    0.7026022   -6.9933352    343.56048  0.020731383  0.020338659           64 
 1382000   0.70735659    -7.032671    343.99522  0.020742596  0.020323886          111 
 1383000   0.72097212   -7.0135265    343.80871   0.02071636  0.020309097           89 
 1384000   0.71670276     -7.01406    344.04898  0.020715859   0.02029431           86 
 1385000   0.69031439   -7.0196965    343.48537   0.02066699  0.020279507          144 
 1386000   0.69500226   -7.0408678    343.16741  0.020632961  0.020264672          112 
 1387000   0.68277682    -7.034186    343.80839  0.020656597   0.02024989          136 
 1388000   0.70619883    -7.038314    343.86821  0.020645305  0.020235106          191 
 1389000    0.6992376   -7.0060994    342.51698  0.020549375  0.020220284          170 
 1390000   0.70122137   -7.0406481    343.18637  0.020574723  0.020205413          237 
 1391000    0.7024527   -7.0005277    343.78713  0.020595922  0.020190607          210 
 1392000   0.69877329   -7.0170933    343.80592  0.020582251  0.020175782          189 
 1393000   0.70883646   -6.9800845    343.45949  0.020546751  0.020160971          179 
 1394000   0.69853865   -7.0277162    343.37937  0.020527222  0.020146161          177 
 1395000   0.69527908   -6.9824616    344.19691  0.020561345  0.020131374          174 
 1396000    0.6987077   -7.0456037     343.9867  0.020534067  0.020116582          276 
 1397000     0.690795   -7.0204233    344.04978  0.020523132  0.020101763          157 
 1398000   0.68942369    -7.036116    343.22769  0.020459447  0.020086895          259 
 1399000   0.68592345   -7.0527121    343.11586  0.020438162  0.020072089          275 
 1400000   0.69071746   -7.0370657     343.2152  0.020429476  0.020057211          376 
 1401000   0.68368053   -7.0591476    342.97311  0.020400494  0.020042372          344 
 1402000   0.69117326   -7.0508246    342.55148  0.020360882  0.020027495          357 
 1403000   0.70383999   -7.0379346    343.45855  0.020400247  0.020012611          240 
 1404000   0.69288915   -7.0444716     342.6521   0.02033785  0.019997725          338 
 1405000   0.69245501   -7.0488312    342.72792  0.020327872   0.01998286          290 
 1406000   0.67542501   -7.0364664      344.016  0.020389758  0.019968048          280 
 1407000   0.68956366   -7.0516282    342.70852  0.020297828  0.019953218          286 
 1408000     0.690122   -7.0640149    342.77796  0.020287522  0.019938328          266 
 1409000   0.69837663   -7.0858527    342.94774  0.020283164  0.019923391          463 
 1410000    0.6883448   -7.0379718    343.30518  0.020289904  0.019908499          418 
 1411000   0.70764219   -7.0668204    342.64999  0.020236829  0.019893656          359 
 1412000   0.69211116   -7.0480146    343.28978  0.020260256  0.019878833          538 
 1413000   0.68881064   -7.0679456    343.43197  0.020254303  0.019863992          405 
 1414000   0.68954121   -7.0461979    343.19008  0.020225724  0.019849157          399 
 1415000   0.69978949   -7.0679244    343.11026  0.020206729  0.019834284          456 
 1416000   0.70896464   -7.0689429    343.41936   0.02021065  0.019819424          661 
 1417000   0.69270463   -7.0833885    342.25159  0.020127711  0.019804549          614 
 1418000   0.67887615   -7.1006395    343.12929  0.020165097  0.019789702          393 
 1419000   0.68264655   -7.0587753    343.71607  0.020185346  0.019774882          668 
 1420000   0.69188229   -7.0530879    343.11497  0.020135855  0.019760111          553 
 1421000   0.68099949   -7.0915359    343.17251  0.020125059  0.019745308          443 
 1422000   0.67559101   -7.1026709    342.53495  0.020073543  0.019730477          527 
 1423000   0.70181395    -7.092046    343.64646  0.020124529  0.019715669          654 
 1424000   0.68717594   -7.1018761    343.67263  0.020111928  0.019700867          677 
 1425000   0.68169908   -7.0761898    343.84166    0.0201077  0.019686104          477 
 1426000   0.69384634   -7.0778273    343.74865  0.020088163  0.019671416          674 
 1427000   0.68101111   -7.0999728    343.90403   0.02008316  0.019656706          690 
 1428000   0.67267941   -7.0678769    343.96098   0.02007242  0.019641981          775 
 1429000    0.6761624   -7.0939908    342.99093  0.020001804  0.019627305          767 
 1430000   0.66267369   -7.0789382     343.1822  0.019998963  0.019612531          867 
 1431000   0.68628605   -7.0979092    343.48029  0.020002346  0.019597788          857 
 1432000   0.67779472   -7.0968573    343.24235  0.019974532  0.019583012          831 
 1433000   0.66285771   -7.1052265    343.65456  0.019984564  0.019568289          887 
 1434000   0.67592235   -7.1423579     343.4733  0.019960094   0.01955352         1025 
 1435000   0.68223718   -7.0990367    343.40921  0.019942463  0.019538765         1044 
 1436000   0.68428179    -7.116989    343.20458    0.0199167  0.019524043         1061 
 1437000   0.67513752   -7.1200797    342.94735  0.019887923  0.019509267         1042 
 1438000   0.69237757   -7.1160702     343.6879  0.019917008  0.019494485         1157 
 1439000   0.66479001   -7.1416388    342.80342  0.019851947  0.019479674         1192 
 1440000    0.6776833   -7.1501003    343.08124  0.019854238    0.0194648         1219 
 1441000   0.68331861   -7.1157014    342.49476  0.019806544   0.01944991         1233 
 1442000    0.6799543   -7.1450699    342.86448  0.019814175  0.019435052         1288 
 1443000   0.68920474   -7.1677767     342.1758  0.019760672  0.019420195         1298 
 1444000   0.68088377   -7.1514138    342.56273  0.019769317  0.019405358         1249 
 1445000   0.68232287   -7.1680674    342.28824  0.019739806  0.019390496         1385 
 1446000    0.6839499   -7.1761768    343.02533  0.019768633  0.019375646         1336 
 1447000    0.6664153   -7.1592803    343.35375  0.019773886  0.019360808         1355 
 1448000   0.67348716   -7.1808686     342.8918  0.019733644  0.019345939         1310 
 1449000   0.66899534   -7.1893456     342.7224  0.019710283  0.019331065         1481 
 1450000   0.66850861   -7.1796436    341.77977  0.019642515  0.019316181         1510 
 1451000     0.690515   -7.1754366    341.83755  0.019632297  0.019301304         1521 
 1452000   0.68973259   -7.1810919    342.37136  0.019649412  0.019286435         1564 
 1453000   0.67152868    -7.174773    341.94528  0.019611452  0.019271554         1536 
 1454000   0.68216545   -7.1798353    342.46269  0.019627618  0.019256674         1638 
 1455000   0.67674566   -7.1773153    342.26263   0.01960267  0.019241789         1590 
 1456000   0.67233983   -7.1887811    341.84492    0.0195653  0.019226862         1606 
 1457000   0.69120816   -7.2015699    342.23826  0.019574369  0.019211998         1723 
 1458000   0.66797997   -7.2103478    342.53522  0.019577916  0.019197077         1707 
 1459000   0.67402421    -7.212636     342.0857  0.019538822  0.019182139         1856 
 1460000    0.6696024    -7.230856    342.67333   0.01955898  0.019167246         1886 
 1461000   0.67021403   -7.2103935     342.3602  0.019527732  0.019152369         1801 
 1462000   0.66886652    -7.212594    342.21015  0.019505823  0.019137487         1835 
 1463000   0.66884435   -7.2082058     342.1176  0.019487218  0.019122634         1856 
 1464000   0.65914151   -7.2068278    342.00313  0.019467391  0.019107767         1987 
 1465000   0.65903755    -7.201787    342.21192  0.019465979  0.019092865         1885 
 1466000   0.67561363   -7.2267923    342.46298  0.019466972  0.019078005         1851 
 1467000   0.67060092   -7.2460483     342.1995  0.019438735  0.019063098         1952 
 1468000   0.66205345   -7.2244935     342.2326  0.019427373  0.019048225         1923 
 1469000   0.66577759   -7.2346075    341.66555  0.019381981  0.019033355         1952 
 1470000   0.66183011   -7.2579722    341.29389  0.019347726  0.019018473         2038 
 1471000   0.66495649   -7.2405137    341.69673  0.019357395  0.019003553         2075 
 1472000   0.67484839   -7.2493486     341.2015  0.019316208   0.01898866         2128 
 1473000   0.66370173   -7.2662432    341.68704  0.019330563   0.01897373         2134 
 1474000    0.6660928   -7.2697475     342.1104  0.019341384  0.018958807         2151 
 1475000   0.66584056   -7.2705689    341.31824  0.019283516  0.018943882         2153 
 1476000   0.65586898   -7.2541775    340.94059   0.01924913  0.018928972         2089 
 1477000   0.66122451   -7.2770318     341.9185  0.019291272     0.018914         2131 
 1478000   0.66306086   -7.2707367    341.87799  0.019275935  0.018899046         2144 
 1479000   0.63416874    -7.255987    341.53299  0.019243463  0.018884103         2197 
 1480000   0.66763303   -7.2541239    341.93219  0.019252939  0.018869195         2240 
 1481000   0.65502543   -7.2472758     342.3626  0.019264157   0.01885431         2209 
 1482000   0.66256698   -7.2590327    341.06548  0.019178221  0.018839397         2256 
 1483000   0.65493472   -7.2881618    341.19458  0.019172544  0.018824498         2215 
 1484000    0.6524265   -7.2794269    341.73902  0.019190197  0.018809599         2150 
 1485000   0.64927378   -7.2822928    341.60586  0.019169801  0.018794703         2239 
 1486000   0.64695876   -7.2760426    340.71035  0.019106682  0.018779823         2254 
 1487000   0.66335315   -7.2813627    341.20456  0.019121529  0.018764949         2225 
 1488000   0.66161903   -7.2925121    340.69853  0.019080339  0.018750079         2243 
 1489000   0.65819062   -7.2711111     341.2011  0.019095651   0.01873522         2244 
 1490000   0.66750373   -7.2765162    341.83393  0.019118229   0.01872039         2258 
 1491000   0.65633555   -7.2773608    341.80474  0.019103775  0.018705567         2229 
 1492000   0.67345747    -7.291312    341.12001  0.019052726  0.018690732         2196 
 1493000   0.65925447   -7.3017951    341.14449  0.019041331  0.018675884         2243 
 1494000   0.66442394   -7.2954701    341.09687   0.01902593  0.018661049         2244 
 1495000   0.65889746   -7.2977561    341.58036  0.019040154  0.018646236         2213 
 1496000   0.65240997    -7.291762    341.42279  0.019018649  0.018631423         2249 
 1497000   0.64687839   -7.2789861    341.10931  0.018988494  0.018616608         2225 
 1498000   0.65982073   -7.3132487    340.77632  0.018957294  0.018601793         2275 
 1499000   0.65844194   -7.2864605    340.40055  0.018923758  0.018586983         2285 
 1500000   0.65562851   -7.3089885    341.34463  0.018963591  0.018572179         2314 
 1501000   0.65410982    -7.329351    340.47271  0.018902549  0.018557354         2256 
 1502000    0.6516742   -7.3080279    340.56845  0.018895276  0.018542529         2259 
 1503000   0.66050056   -7.3078037    341.77428  0.018949561   0.01852773         2272 
 1504000   0.67023463     -7.30028    341.33156  0.018912431  0.018512941         2266 
 1505000   0.65019746   -7.2999105    340.54029  0.018856051  0.018498144         2274 
 1506000   0.65012067   -7.2872752    340.66419  0.018850387  0.018483346         2290 
 1507000   0.65980418   -7.3030855    341.85865  0.018903929  0.018468569         2238 
 1508000   0.65434407   -7.2965631    341.35957  0.018863813  0.018453824         2256 
 1509000   0.66975157   -7.3115391    340.85424  0.018823406   0.01843909         2351 
 1510000   0.64684568   -7.3166835    341.40679  0.018841434  0.018424367         2259 
 1511000   0.64019199   -7.3173804    340.09242  0.018756476   0.01840964         2287 
 1512000    0.6325436   -7.3181884     341.1107  0.018800193  0.018394915         2323 
 1513000   0.64467465   -7.2934856    341.02156  0.018782857  0.018380195         2303 
 1514000   0.65502033   -7.2894102    340.32034  0.018731855  0.018365489         2314 
 1515000   0.65824106   -7.3050323    341.10198  0.018762485  0.018350785         2313 
 1516000   0.65143114   -7.3349967    340.76711  0.018731701  0.018336089         2350 
 1517000   0.64990336    -7.310969    340.87395  0.018725223  0.018321417         2339 
 1518000   0.65255645   -7.2943481    340.53345  0.018694194  0.018306748         2370 
 1519000   0.64524691   -7.3114742    340.74523  0.018693506  0.018292078         2313 
 1520000   0.63106027    -7.329536    341.23766  0.018708205  0.018277435         2322 
 1521000   0.65171819   -7.3012145    341.54444  0.018712713  0.018262793         2329 
 1522000   0.66016916   -7.3217098    341.13304  0.018677893  0.018248144         2305 
 1523000   0.66424875   -7.3274991    340.55384  0.018633937  0.018233496         2413 
 1524000   0.63870825   -7.3231552    341.17845  0.018655864  0.018218858         2354 
 1525000   0.64258459   -7.3501193     340.8983  0.018628322   0.01820422         2439 
 1526000   0.65352084   -7.3275295    341.09283  0.018626738  0.018189599         2345 
 1527000   0.63837098   -7.3285387    341.45681  0.018634403  0.018174956         2392 
 1528000   0.63513036   -7.3324413    340.87972  0.018590735  0.018160345         2394 
 1529000   0.64950371   -7.3327388    340.81169  0.018574868   0.01814575         2329 
 1530000    0.6400547   -7.3251158    340.64678  0.018553746   0.01813114         2427 
 1531000   0.64662851   -7.3161604    341.05065   0.01856361  0.018116543         2393 
 1532000   0.65570122    -7.349139    340.37661  0.018514829  0.018101972         2377 
 1533000   0.63509885   -7.3151741    340.65757  0.018518024  0.018087359         2416 
 1534000   0.64124556   -7.3276989    341.42757  0.018547782  0.018072779         2435 
 1535000   0.63055687   -7.3323003    340.31432  0.018475262  0.018058215         2452 
 1536000   0.64797252   -7.3287806    340.02925  0.018447767   0.01804363         2403 
 1537000   0.64222214   -7.3271692    340.60003  0.018466711  0.018029052         2420 
 1538000   0.64191513   -7.3261737    339.83078  0.018413024  0.018014494         2411 
 1539000    0.6409776   -7.3344075    341.04354  0.018466728  0.017999949         2428 
 1540000   0.64830367   -7.3553249    340.50684  0.018425695  0.017985395         2458 
 1541000   0.62946561   -7.3410609     340.3932  0.018407592  0.017970846         2478 
 1542000   0.63790425   -7.3240005    340.33657  0.018392595  0.017956334         2433 
 1543000   0.64755094   -7.3521832    340.17851  0.018372138  0.017941809         2456 
 1544000   0.65072261   -7.3312945    340.20247  0.018361532  0.017927294         2407 
 1545000   0.62891299   -7.3345887     340.9477  0.018389844  0.017912796         2414 
 1546000   0.63965501   -7.3577329    340.82958  0.018371581  0.017898307         2490 
 1547000   0.64562986   -7.3507053    340.65763  0.018350443  0.017883825         2490 
 1548000    0.6367532   -7.3307364     339.7309  0.018288701  0.017869325         2464 
 1549000   0.64023325   -7.3501689    340.45073  0.018315619  0.017854832         2502 
 1550000   0.64060874   -7.3502043    340.40575  0.018301384  0.017840353         2450 
 1551000   0.64549343   -7.3617526    340.05855   0.01827093  0.017825876         2494 
 1552000   0.63346117      -7.3466    340.27247  0.018270644  0.017811415         2468 
 1553000   0.63254937   -7.3649698    339.49561  0.018217193  0.017796941         2554 
 1554000   0.63415359   -7.3434684     340.2708   0.01824704  0.017782501         2480 
 1555000   0.64129925   -7.3651128    340.46956  0.018245957  0.017768077         2472 
 1556000    0.6281521    -7.371335    340.63674  0.018243184  0.017753633         2521 
 1557000   0.64124109   -7.3819285    340.00787  0.018197809  0.017739192         2556 
 1558000   0.62582478   -7.3602253     339.3497  0.018150925   0.01772474         2573 
 1559000   0.64406701    -7.370657    340.33591  0.018191999  0.017710309         2486 
 1560000   0.62985965   -7.3504487    339.72102   0.01814749  0.017695892         2487 
 1561000   0.63940325   -7.3774082    339.39786  0.018118613   0.01768148         2536 
 1562000   0.64785331    -7.374375    340.05482  0.018142063  0.017667104         2457 
 1563000   0.62737599   -7.3470443    339.83532  0.018118753  0.017652715         2469 
 1564000   0.63264607   -7.3826325    339.86024  0.018108495  0.017638365         2550 
 1565000   0.63739274    -7.358772    339.96828  0.018102677  0.017624017         2499 
 1566000   0.62176806   -7.3730446    340.44673  0.018116578  0.017609702         2484 
 1567000   0.62763894   -7.3713093    339.78724  0.018069945  0.017595384         2529 
 1568000   0.62719483   -7.3588457    340.12553    0.0180764   0.01758108         2465 
 1569000   0.61752626   -7.3454798    339.83543   0.01804947  0.017566797         2480 
 1570000   0.64076493   -7.3533371     339.9655  0.018044878  0.017552533         2500 
 1571000   0.62482728   -7.3577771    339.88312  0.018029022  0.017538263         2512 
 1572000   0.61374657   -7.3907879    340.33972  0.018041758  0.017524004         2498 
 1573000   0.61959525    -7.359782    339.91328  0.018007697   0.01750974         2528 
 1574000   0.61497512   -7.3674605    339.24411  0.017960827  0.017495465         2512 
 1575000    0.6226678   -7.3952121    339.37759  0.017956486  0.017481198         2513 
 1576000   0.62065107   -7.3398134    340.41366  0.017999876  0.017466925         2516 
 1577000   0.61515381    -7.380636    339.64601  0.017947897  0.017452683         2474 
 1578000   0.61156717   -7.3900036    340.07392  0.017959121   0.01743845         2493 
 1579000   0.62865978   -7.3807199    339.92701  0.017939994  0.017424219         2512 
 1580000   0.62103496   -7.4012797    339.70866  0.017917123  0.017409999         2514 
 1581000   0.61294836   -7.3891958     339.6199  0.017901112  0.017395771         2502 
 1582000   0.62324066   -7.4027353    339.74431   0.01789635  0.017381558         2469 
 1583000   0.61595785   -7.3722799    339.68744  0.017882051  0.017367348         2561 
 1584000   0.61250422   -7.3823943    339.75725  0.017874434  0.017353175         2518 
 1585000   0.60875727   -7.3849078    340.00394  0.017876127   0.01733896         2562 
 1586000   0.61893629   -7.3754932    339.50525  0.017838653  0.017324763         2544 
 1587000   0.60493009   -7.3711864    339.43139  0.017823534  0.017310583         2552 
 1588000   0.62338127    -7.392274    339.51219  0.017816551  0.017296431         2492 
 1589000   0.60560193   -7.3925258    339.40125   0.01779952  0.017282279         2525 
 1590000   0.62407069   -7.3677389    339.38015   0.01778722  0.017268154         2573 
 1591000   0.62227729   -7.4060012    339.95807   0.01780631  0.017254046         2528 
 1592000   0.61130505   -7.3829336    339.62437  0.017777658  0.017239929         2545 
 1593000   0.60643161   -7.3792198    339.21719  0.017745197  0.017225805         2525 
 1594000   0.62543085    -7.399083    339.16926  0.017731559  0.017211711         2521 
 1595000   0.62058302   -7.4088275     340.0372  0.017765789  0.017197637         2477 
 1596000   0.62723088   -7.4002734    339.79186  0.017741847  0.017183564         2598 
 1597000    0.6137188   -7.3914891    339.65011  0.017723341  0.017169471         2489 
 1598000   0.61425908   -7.3791393    339.51524  0.017705217  0.017155417         2506 
 1599000   0.61323999   -7.3952913     339.2136  0.017678424  0.017141371         2550 
 1600000   0.60481163   -7.4112311    340.16755   0.01771706  0.017127338         2540 
 1601000   0.60071524   -7.3819095    339.74676  0.017684091   0.01711331         2502 
 1602000   0.61770768   -7.3947332    339.73879  0.017672638  0.017099306         2530 
 1603000   0.60629489   -7.4097831    339.12494  0.017629702  0.017085302         2569 
 1604000   0.61300923   -7.3974452    339.23415  0.017624385   0.01707132         2602 
 1605000   0.60564061   -7.3879165    338.74538  0.017588026  0.017057333         2572 
 1606000   0.60900745   -7.3986865    339.33945    0.0176079  0.017043354         2528 
 1607000   0.60833882   -7.4049677    339.19993  0.017589708  0.017029388         2565 
 1608000   0.60685572   -7.3971616    339.23263  0.017580464  0.017015435         2614 
 1609000   0.61063186   -7.3892309    339.34514  0.017575365  0.017001493         2543 
 1610000   0.62381492   -7.3806875    339.31561   0.01756292  0.016987574         2566 
 1611000   0.60868758   -7.4049674    339.19799  0.017545934  0.016973654         2503 
 1612000   0.61131843    -7.406869    339.31569  0.017541134  0.016959754         2546 
 1613000   0.60802823   -7.3832898    339.89574  0.017560226  0.016945847         2543 
 1614000   0.59887901   -7.4237373    339.83681  0.017546303   0.01693195         2555 
 1615000   0.60042966    -7.423836    339.38932  0.017512349  0.016918069         2571 
 1616000    0.5994294   -7.3856551    339.41563  0.017502869  0.016904184         2591 
 1617000     0.604291    -7.416332    338.75058  0.017457771  0.016890305         2526 
 1618000   0.60703948   -7.3940663    339.67679  0.017494684  0.016876465         2537 
 1619000   0.60893909   -7.4158172    339.15544  0.017457043  0.016862643         2568 
 1620000     0.610687   -7.3922947    339.10027   0.01744343  0.016848819         2554 
 1621000   0.60630074   -7.4043674     339.0964   0.01743247  0.016835002         2533 
 1622000   0.60865935   -7.4108474    339.04166   0.01741891   0.01682123         2511 
 1623000   0.62044592   -7.4011433    339.13952  0.017413202  0.016807433         2547 
 1624000   0.61754915   -7.4074467    339.10919  0.017400923  0.016793643         2495 
 1625000   0.60350101   -7.4160935    339.16805  0.017393233  0.016779875         2587 
 1626000   0.60439844    -7.396082      339.032  0.017375564  0.016766102         2557 
 1627000   0.60851844   -7.3843081     339.2684  0.017376992  0.016752355         2521 
 1628000   0.59947977   -7.4289007    339.37454  0.017371751  0.016738629         2533 
 1629000   0.60358682   -7.4022268    339.23985  0.017354197  0.016724885         2504 
 1630000   0.61542607   -7.4304775    339.23185  0.017343142  0.016711159         2565 
 1631000   0.60876121   -7.4199774    339.36524  0.017339324  0.016697432         2565 
 1632000   0.60329652   -7.4100721    338.80101  0.017299888  0.016683729         2563 
 1633000   0.60797789   -7.4251976    338.46888  0.017272345  0.016670025         2596 
 1634000   0.59961083   -7.4039665    338.66851  0.017271956  0.016656344         2560 
 1635000   0.60490896   -7.4082809    338.98244  0.017277392   0.01664266         2658 
 1636000    0.6069048    -7.410702    339.92944  0.017315069  0.016629007         2555 
 1637000   0.60905745   -7.4305925    339.08695  0.017261604   0.01661536         2551 
 1638000   0.60828629   -7.4118628     338.9129  0.017242211  0.016601714         2589 
 1639000   0.59394511   -7.4066914    339.06312  0.017239329  0.016588058         2569 
 1640000    0.5885994   -7.4135739    339.33332  0.017242547  0.016574427         2587 
 1641000   0.59058975   -7.4123058    339.34258   0.01723251  0.016560798         2584 
 1642000   0.60527129   -7.4040623    339.66619  0.017238439  0.016547177         2600 
 1643000   0.59578257   -7.4219177    339.21012  0.017204814  0.016533565         2595 
 1644000   0.59818382   -7.4170067    338.74326  0.017170684  0.016519968         2612 
 1645000   0.59095726   -7.4238883    339.17819  0.017182279  0.016506376         2582 
 1646000   0.61166538   -7.4318739    339.06561  0.017166141  0.016492805         2554 
 1647000   0.58326967   -7.4153164    338.49012    0.0171266  0.016479218         2557 
 1648000   0.59902192   -7.4175625    338.53145  0.017118297  0.016465642         2612 
 1649000   0.59452645   -7.4230016     338.8773  0.017125394  0.016452098         2569 
 1650000    0.6022036   -7.4232739    339.23595  0.017133129  0.016438573         2549 
 1651000   0.58511697   -7.4200403    338.55634  0.017088448  0.016425065         2529 
 1652000   0.58460687    -7.404694    338.79553   0.01709017  0.016411569         2604 
 1653000   0.59030992   -7.4247037    338.67673  0.017073842  0.016398088         2575 
 1654000   0.59339775   -7.4330587    338.96441  0.017078014  0.016384583         2594 
 1655000   0.58231379   -7.4416086     338.6421  0.017051465  0.016371087         2634 
 1656000    0.5883235   -7.4401861    338.58991  0.017038542  0.016357602         2596 
 1657000    0.5873331   -7.4358363     339.1755   0.01705771  0.016344142         2633 
 1658000    0.5999549   -7.4458841    339.24398  0.017050864  0.016330711         2585 
 1659000   0.58057744   -7.4195641    338.71909   0.01701422  0.016317276         2587 
 1660000   0.59733465   -7.4344594    338.53887  0.016994923  0.016303836         2587 
 1661000   0.59108459   -7.4377054    338.98989  0.017007319  0.016290417         2599 
 1662000   0.58719155   -7.4382606    339.07975  0.017001592  0.016277007         2579 
 1663000    0.5879795   -7.4380432     338.7864  0.016976669  0.016263632         2581 
 1664000   0.59260798   -7.4321116    338.75597  0.016964943  0.016250241         2594 
 1665000   0.59158921   -7.4294698    338.25534  0.016929697  0.016236864         2544 
 1666000   0.58657435   -7.4264796    338.61836  0.016937693  0.016223502         2600 
 1667000   0.59367433   -7.4369782    338.98929  0.016946075  0.016210141         2589 
 1668000   0.58837897   -7.4595704    338.28598  0.016900778  0.016196783         2561 
 1669000   0.59028909   -7.4525288    339.11474  0.016932032  0.016183445         2578 
 1670000   0.57793183    -7.443458    338.63621  0.016898014  0.016170121         2576 
 1671000   0.58273807   -7.4291232    339.29078  0.016920545  0.016156803         2551 
 1672000   0.57800576     -7.43877    338.53115  0.016872565  0.016143508         2550 
 1673000   0.59104029   -7.4439251    338.61397  0.016866606  0.016130224         2641 
 1674000    0.5947815   -7.4544384    338.60918  0.016856291  0.016116944         2586 
 1675000   0.57518766   -7.4486999     338.5751  0.016844532  0.016103671         2580 
 1676000   0.58394165   -7.4604681    338.48124  0.016829815  0.016090418         2622 
 1677000   0.58873686   -7.4477196    337.74306  0.016783098  0.016077172         2549 
 1678000   0.58660182   -7.4550161    338.15868  0.016793737  0.016063932         2598 
 1679000   0.59275119   -7.4446606    338.35621  0.016793538  0.016050711         2558 
 1680000   0.58551621   -7.4560361    337.98356  0.016765058    0.0160375         2610 
 1681000   0.58199404   -7.4357985    338.69797    0.0167905  0.016024277         2546 
 1682000   0.58877003   -7.4749341    338.20718  0.016756202  0.016011093         2615 
 1683000   0.57661807   -7.4590299    339.00037   0.01678552  0.015997908         2576 
 1684000   0.56744211   -7.4597987    338.33567   0.01674266  0.015984735         2547 
 1685000   0.58874163   -7.4440718    338.75223  0.016753325  0.015971562         2585 
 1686000   0.59021797   -7.4611825    338.53553  0.016732678  0.015958426         2623 
 1687000    0.5728669   -7.4482769    338.02177   0.01669738   0.01594529         2566 
 1688000   0.58701127   -7.4432428    338.48826  0.016710519  0.015932162         2625 
 1689000   0.57672686   -7.4316409    338.10835   0.01668188  0.015919059         2622 
 1690000   0.59218219   -7.4534028    338.59823  0.016696165  0.015905943         2606 
 1691000   0.57142698   -7.4521057    338.26856  0.016670045  0.015892849         2599 
 1692000   0.57447491   -7.4626673    338.16902  0.016655291  0.015879762         2603 
 1693000   0.56167466   -7.4409663    338.77661   0.01667536  0.015866697         2620 
 1694000   0.57516008   -7.4712328    338.44803  0.016649352  0.015853636         2572 
 1695000   0.58422077   -7.4550297    338.87147  0.016660348  0.015840595         2598 
 1696000   0.57391619    -7.452412    338.29377  0.016622139  0.015827556         2679 
 1697000   0.57795614   -7.4683183    338.57647  0.016626226  0.015814524         2646 
 1698000    0.5770421   -7.4567013    338.07916  0.016592028  0.015801512         2651 
 1699000   0.56457992   -7.4641969    338.56025  0.016605859  0.015788495         2623 
 1700000   0.56503284   -7.4535453    338.65663  0.016600815  0.015775517         2595 
 1701000   0.57683531   -7.4408658    337.66752  0.016542598  0.015762538         2641 
 1702000   0.56524959   -7.4795195    337.92325    0.0165454  0.015749567         2655 
 1703000   0.57008812   -7.4611077    337.84989  0.016532095  0.015736596         2627 
 1704000   0.56919998    -7.472126    338.31629  0.016545202  0.015723664         2657 
 1705000   0.58822665   -7.4633961    338.03107  0.016521558  0.015710727         2636 
 1706000   0.56958108   -7.4750117    338.24765  0.016522453  0.015697796         2613 
 1707000   0.58756215   -7.4579736    339.00748  0.016549867   0.01568487         2601 
 1708000   0.57245193   -7.4682699    338.48387  0.016514631  0.015671965         2619 
 1709000   0.56815598   -7.4867333    337.74066  0.016468727  0.015659049         2611 
 1710000   0.57884775   -7.4569891    338.16807  0.016479926  0.015646173         2638 
 1711000   0.56999972   -7.4635868    338.28421   0.01647595  0.015633313         2619 
 1712000   0.56898518   -7.4821952    338.27042  0.016465655  0.015620465         2672 
 1713000   0.56042374   -7.4780171    338.81687  0.016482627  0.015607628         2621 
 1714000   0.57170452   -7.4722904    337.60068   0.01641388  0.015594795         2605 
 1715000   0.57571767   -7.4828331    337.66575  0.016407471  0.015581984         2659 
 1716000   0.56750522   -7.4524229    337.80774  0.016404805  0.015569177         2635 
 1717000   0.57655658   -7.4715725    337.82557  0.016396116  0.015556387         2668 
 1718000   0.56661653   -7.4776985    338.22996  0.016406187    0.0155436         2670 
 1719000   0.57278463   -7.4619178    338.63492  0.016416275  0.015530835         2627 
 1720000   0.57012925   -7.4747614    338.00463  0.016376194  0.015518078         2630 
 1721000    0.5592158   -7.4779861    338.19911  0.016376095   0.01550534         2612 
 1722000   0.56466838   -7.4765374    338.42936  0.016377727  0.015492625         2628 
 1723000   0.56694434   -7.4756979    337.94627  0.016344857  0.015479906         2690 
 1724000   0.56153989   -7.4629586      338.368  0.016355762  0.015467199         2675 
 1725000   0.56915477   -7.4763163    338.26013  0.016341069  0.015454501         2618 
 1726000   0.56370249   -7.4841247    338.31136  0.016334075  0.015441828         2652 
 1727000   0.55743523   -7.4604454    337.62838  0.016291661  0.015429161         2688 
 1728000   0.55637585   -7.4784497    337.89754  0.016295213  0.015416497         2666 
 1729000   0.55785872   -7.4699028    338.67164  0.016323098  0.015403851         2590 
 1730000   0.55758981    -7.486721    338.20439  0.016291156  0.015391209         2667 
 1731000   0.57376035   -7.4906189    338.12609  0.016277975  0.015378589         2633 
 1732000   0.54304486   -7.4754141    338.39888  0.016281701  0.015365965         2650 
 1733000   0.56625997   -7.4780744    338.52157  0.016278206  0.015353355         2659 
 1734000   0.56673229   -7.4783308    338.29375   0.01625787  0.015340757         2598 
 1735000   0.55576761   -7.4816097    338.24229  0.016246027  0.015328182         2644 
 1736000    0.5653245    -7.499393    338.27239  0.016238114  0.015315605         2631 
 1737000   0.56205979   -7.4751151    337.41993  0.016187868  0.015303038         2602 
 1738000   0.56047452   -7.4696921    338.14668    0.0162134  0.015290478         2592 
 1739000   0.56011322    -7.466443    338.04951   0.01619942  0.015277926         2651 
 1740000   0.56750075   -7.4957678    337.64536  0.016170755  0.015265375         2710 
 1741000   0.55669185   -7.5016663    338.26322   0.01619104  0.015252848         2627 
 1742000   0.55311242   -7.5033588    338.19035   0.01617826  0.015240325         2664 
 1743000   0.57138774   -7.4954296    337.28619   0.01612575  0.015227805         2605 
 1744000   0.56214943    -7.479345    337.79849  0.016140983  0.015215305         2639 
 1745000   0.56357201   -7.4805601     337.7011  0.016127082  0.015202818         2632 
 1746000   0.55098366   -7.4806561    338.46435  0.016154274  0.015190346         2610 
 1747000   0.56761629   -7.5069306    337.78154  0.016112457  0.015177863         2636 
 1748000   0.54111367   -7.4852413     338.1224  0.016119489    0.0151654         2592 
 1749000    0.5619464   -7.5060597    337.83985   0.01609681  0.015152953         2667 
 1750000   0.55832503   -7.4862229    338.13744  0.016101783  0.015140518         2595 
 1751000   0.55439322   -7.4988465    338.14924  0.016093149  0.015128106         2662 
 1752000   0.54279245   -7.4883909    337.61704  0.016058649  0.015115693         2666 
 1753000   0.55646727   -7.4998355    337.58333  0.016047886    0.0151033         2669 
 1754000   0.55966471   -7.4964093    337.73267  0.016045832  0.015090911         2650 
 1755000   0.55830034   -7.5019476     337.9272  0.016045926  0.015078543         2666 
 1756000   0.55871254   -7.4881179     337.9721  0.016038919  0.015066191         2638 
 1757000   0.55600654   -7.4718397    337.66832  0.016015382  0.015053833         2633 
 1758000   0.53941793   -7.4966158     337.9258  0.016018477  0.015041493         2608 
 1759000   0.55497307   -7.4777281    338.07049  0.016016226  0.015029166         2672 
 1760000   0.55024455   -7.4933779    337.49561  0.015979906  0.015016846         2661 
 1761000   0.55451144   -7.5036964    337.42942  0.015967699  0.015004531         2617 
 1762000   0.55263495   -7.5046229    338.11037  0.015990842   0.01499224         2644 
 1763000   0.54427654   -7.4944889     337.6806  0.015961458  0.014979958         2659 
 1764000   0.55334113   -7.4992617    337.83877  0.015959881  0.014967686         2607 
 1765000   0.54747768   -7.5084504    337.66001  0.015942399  0.014955427         2678 
 1766000   0.54521696   -7.5010522    337.95854  0.015947458   0.01494317         2653 
 1767000   0.54718501    -7.499177    337.63518  0.015923183  0.014930928         2690 
 1768000    0.5453932   -7.4928548    338.00571  0.015931642  0.014918722         2630 
 1769000    0.5482111   -7.5182435    338.16941  0.015930347  0.014906508         2609 
 1770000   0.53924656   -7.4963701     337.4805  0.015888913  0.014894297         2673 
 1771000   0.55551375   -7.4996822    337.17651  0.015865637  0.014882093         2677 
 1772000   0.53642329   -7.5082601    337.41503    0.0158679  0.014869897         2721 
 1773000   0.54497051   -7.5030089    337.42919  0.015859616  0.014857735         2664 
 1774000   0.54456086   -7.4969527    337.17608  0.015838786  0.014845573         2646 
 1775000   0.54614391   -7.4988322    338.01241  0.015869127  0.014833425         2661 
 1776000   0.54197548   -7.4894372    337.85188   0.01585266  0.014821281         2642 
 1777000   0.53827599   -7.4943077    337.74645  0.015838794  0.014809156         2683 
 1778000   0.53788586    -7.507423    337.51391  0.015818987  0.014797045         2724 
 1779000   0.53662944   -7.4999323    336.98625  0.015785378  0.014784942         2670 
 1780000   0.54603659   -7.5066993    337.63722  0.015806986  0.014772847         2661 
 1781000   0.54248641   -7.5108704    337.82627  0.015806956  0.014760769         2638 
 1782000   0.54468243   -7.4996852    337.24094  0.015770713   0.01474869         2671 
 1783000    0.5485177   -7.5237063    337.01034  0.015751091  0.014736619         2664 
 1784000   0.53117257   -7.5129328    337.32853  0.015757125  0.014724568         2654 
 1785000   0.53873901   -7.5335991    337.62151  0.015761975  0.014712519         2601 
 1786000   0.54915919   -7.4982711      337.702  0.015756906  0.014700485         2655 
 1787000    0.5330217   -7.5258688    337.69046   0.01574755  0.014688457         2672 
 1788000   0.53661126   -7.5212373     337.9633  0.015751459  0.014676444         2678 
 1789000   0.54037586   -7.5155967    337.71824  0.015731239  0.014664443         2654 
 1790000   0.54691207   -7.5046027    337.43949  0.015709474  0.014652451         2680 
 1791000   0.53274614   -7.5092906    337.06537  0.015683295  0.014640461         2661 
 1792000   0.54102722   -7.5242919    337.12362  0.015677252  0.014628493         2666 
 1793000    0.5311639   -7.5225052    337.38079   0.01568046  0.014616536         2704 
 1794000   0.54136542   -7.4822175    338.28535  0.015713738  0.014604584         2690 
 1795000   0.53982138   -7.5221072    337.55484   0.01567107  0.014592657         2739 
 1796000   0.54154022   -7.5241062    337.50956  0.015660243  0.014580725         2633 
 1797000   0.52969596   -7.4983198    337.10563  0.015632797  0.014568811         2665 
 1798000   0.52946164   -7.5189076    337.84435   0.01565834  0.014556893         2690 
 1799000   0.54008259   -7.5174916    336.94759  0.015608097  0.014544996         2718 
 1800000   0.53495372   -7.5129346    337.08046  0.015605577   0.01453311         2669 
 1801000   0.53996266   -7.5272815    337.70256  0.015625697   0.01452124         2686 
 1802000    0.5296614   -7.5123681    337.64582  0.015614402  0.014509386         2682 
 1803000   0.53372083   -7.5279744    337.01627  0.015576644  0.014497542         2684 
 1804000   0.53210254   -7.5142575    336.91906  0.015563519    0.0144857         2712 
 1805000   0.54106106   -7.5250337    337.56441  0.015584691   0.01447387         2648 
 1806000   0.52492201   -7.5157154    337.70584  0.015582587  0.014462046         2612 
 1807000   0.52214382     -7.50739    337.51019  0.015564942  0.014450239         2652 
 1808000   0.53438918   -7.5262022    337.22552  0.015543212  0.014438451         2684 
 1809000   0.53712342   -7.5314328    336.96567  0.015522649  0.014426664         2678 
 1810000   0.52665498   -7.5342418    337.33111  0.015530898  0.014414886         2584 
 1811000   0.52027144   -7.5049988    336.86698  0.015500965  0.014403133         2628 
 1812000   0.53197652   -7.5327435    336.61113  0.015480644  0.014391374         2676 
 1813000   0.53510051   -7.5493927    337.12349  0.015495656  0.014379618         2674 
 1814000   0.52525313   -7.5262622     337.0792  0.015485079  0.014367885         2652 
 1815000   0.52579594     -7.53327    337.36153   0.01548951  0.014356167         2674 
 1816000   0.53409101   -7.5293493    336.64837  0.015448255   0.01434446         2735 
 1817000   0.52399466   -7.5387399    336.99602  0.015455697  0.014332753         2680 
 1818000   0.52258389   -7.5199992    336.77571  0.015437097  0.014321054         2634 
 1819000   0.53021235   -7.5254803    336.75312  0.015427575  0.014309365         2654 
 1820000   0.52634365   -7.5392853    337.40465  0.015448931  0.014297688         2658 
 1821000   0.53022731   -7.5426728     337.0376   0.01542365  0.014286013         2693 
 1822000   0.52982401   -7.5223182    336.53897  0.015392379  0.014274364         2669 
 1823000   0.53125222   -7.5395138    336.83384  0.015397414  0.014262731         2645 
 1824000   0.52592091   -7.5565683    337.10712  0.015401458  0.014251098         2617 
 1825000   0.52729878   -7.5479116    337.00449  0.015388333  0.014239488         2648 
 1826000   0.51302576   -7.5312687    337.05316  0.015382127  0.014227874         2644 
 1827000   0.52807876   -7.5478024    337.23441  0.015381975  0.014216274         2619 
 1828000    0.5206489   -7.5457842     336.8485  0.015355967  0.014204683         2700 
 1829000   0.53609911   -7.5263397     336.7607  0.015343571  0.014193104         2639 
 1830000   0.52008222   -7.5451496    336.89997  0.015341529  0.014181523         2650 
 1831000   0.53125636   -7.5336709    336.78675  0.015327997  0.014169958         2662 
 1832000   0.51690485   -7.5326289    337.17332  0.015337214  0.014158401         2638 
 1833000   0.52173144   -7.5414076     336.9289  0.015317735  0.014146868         2672 
 1834000   0.52269924   -7.5463374     336.3076  0.015281152  0.014135345         2693 
 1835000   0.51924732   -7.5349036    336.72554  0.015291805  0.014123826         2712 
 1836000   0.50505893   -7.5454919    336.44478  0.015270733  0.014112321         2727 
 1837000   0.51903973    -7.537109    337.09143  0.015291754  0.014100822         2675 
 1838000   0.52257528   -7.5253261    336.05462  0.015236426  0.014089337         2651 
 1839000   0.51155977   -7.5483238    336.53729  0.015250013   0.01407787         2739 
 1840000   0.51986382   -7.5420227    337.09992  0.015267206  0.014066406         2650 
 1841000   0.52030086   -7.5341257    337.07251  0.015257673  0.014054961         2625 
 1842000   0.51495641   -7.5535287    336.78102  0.015236202   0.01404353         2662 
 1843000   0.50931069   -7.5507736    336.47042  0.015213891  0.014032101         2675 
 1844000    0.5227965   -7.5423389    336.79526  0.015220321  0.014020684         2711 
 1845000   0.51933714   -7.5515806    336.75837  0.015210405  0.014009285         2725 
 1846000    0.5061206   -7.5512443    337.09641  0.015217425  0.013997905         2659 
 1847000   0.52080814   -7.5389508    336.35071  0.015175542  0.013986533         2718 
 1848000   0.51556603   -7.5393162    337.29596  0.015209955   0.01397517         2636 
 1849000   0.51504229   -7.5456417    336.81498  0.015180051  0.013963834         2702 
 1850000   0.51946422   -7.5511023    337.09726  0.015184561  0.013952496         2667 
 1851000   0.50191624   -7.5500168    336.97303  0.015170765  0.013941174         2663 
 1852000   0.52462794   -7.5495913    336.50987  0.015141733   0.01392985         2734 
 1853000   0.51371058    -7.539131    336.45326  0.015131015  0.013918539         2668 
 1854000   0.50819399   -7.5611538    336.67145  0.015132661  0.013907223         2674 
 1855000   0.52263117   -7.5495708    336.90164  0.015134845  0.013895928         2657 
 1856000   0.51295207    -7.560506    336.59411  0.015112882  0.013884637         2680 
 1857000    0.4959768   -7.5545182    337.00793  0.015123314  0.013873379         2700 
 1858000   0.51356841   -7.5601716    336.62293  0.015097907  0.013862114         2692 
 1859000   0.50785548   -7.5569285    337.18165  0.015114831  0.013850869         2728 
 1860000   0.50078169   -7.5436239    336.62542  0.015081784  0.013839642         2679 
 1861000   0.51046772   -7.5563001     335.5967  0.015027615  0.013828418         2698 
 1862000   0.51875728   -7.5627537    336.23765   0.01504823  0.013817198         2738 
 1863000   0.50693185   -7.5766356    336.44298  0.015049337   0.01380599         2716 
 1864000    0.5094349   -7.5508447     336.7749  0.015056102  0.013794789         2707 
 1865000   0.50573115   -7.5537911    336.68006  0.015043792   0.01378361         2715 
 1866000   0.51826993   -7.5424926    336.33642  0.015020383   0.01377244         2725 
 1867000   0.50217731    -7.547954    336.71951  0.015029437  0.013761284         2718 
 1868000   0.50967279   -7.5498116    337.10982  0.015038803  0.013750134         2675 
 1869000    0.5029184   -7.5502593    336.94391   0.01502336  0.013738984         2710 
 1870000   0.50547141   -7.5558831    336.51089  0.014996029  0.013727855         2696 
 1871000   0.50502193   -7.5325408     336.1431  0.014971633  0.013716739         2702 
 1872000   0.50325947   -7.5589299    336.89377  0.014997052  0.013705631         2734 
 1873000   0.50799933   -7.5431976    336.86783   0.01498789   0.01369454         2738 
 1874000   0.49350219   -7.5648911    336.67599  0.014971362  0.013683455         2719 
 1875000   0.50076053   -7.5583989    336.45018  0.014953341  0.013672383         2689 
 1876000   0.50633021   -7.5603875    336.81953  0.014961777  0.013661323         2666 
 1877000   0.49986483   -7.5441243    335.51815  0.014896029  0.013650263         2690 
 1878000   0.50427866   -7.5719233    336.14665  0.014915986  0.013639214         2727 
 1879000   0.50749193   -7.5743841    336.14809  0.014908111  0.013628181         2714 
 1880000   0.50543428   -7.5621976    336.18905  0.014901997  0.013617157         2705 
 1881000   0.50208525   -7.5656062      336.679  0.014915781  0.013606139         2730 
 1882000   0.49858356   -7.5646222    336.37506  0.014894397  0.013595122         2691 
 1883000   0.51459368   -7.5413785    336.06791  0.014872894  0.013584129         2703 
 1884000   0.49156515   -7.5672074    336.69991  0.014892954  0.013573149         2702 
 1885000   0.50853955   -7.5702294    337.04072   0.01490012  0.013562182         2726 
 1886000   0.49972002   -7.5572483    336.51197  0.014868857  0.013551219         2661 
 1887000     0.502732   -7.5713856    336.14364  0.014844711  0.013540261         2723 
 1888000   0.49458246   -7.5622966    336.56951  0.014855646  0.013529321         2677 
 1889000   0.49944784    -7.570451      336.754   0.01485592  0.013518389         2651 
 1890000   0.50826513   -7.5711726     335.7509  0.014803832  0.013507469         2707 
 1891000   0.51300991   -7.5840702    336.72865  0.014839091   0.01349656         2658 
 1892000   0.49455699   -7.5608155    337.00783  0.014843544   0.01348566         2700 
 1893000   0.49468795    -7.556343    336.65294   0.01482008  0.013474766         2695 
 1894000   0.49490643    -7.586531    336.12527  0.014789039  0.013463883         2696 
 1895000   0.49823636   -7.5755742    336.09867  0.014780065  0.013453007         2716 
 1896000   0.50647765   -7.5666166    335.69954  0.014754727  0.013442135         2688 
 1897000   0.49572706   -7.5685583     336.2757  0.014772259  0.013431284         2710 
 1898000   0.50166236   -7.5813991     336.7651  0.014785963  0.013420447         2697 
 1899000    0.4962945   -7.5729719     335.9301  0.014741535  0.013409617         2746 
 1900000   0.50103902   -7.5678214    336.17882  0.014744685  0.013398796         2714 
 1901000   0.50651717   -7.5785714    336.80382  0.014764327  0.013387992         2701 
 1902000   0.49645369   -7.5833458    336.31219  0.014735024  0.013377193         2688 
 1903000   0.49696358   -7.5731141    336.42508  0.014732224  0.013366398         2737 
 1904000   0.49435637   -7.5766102    336.06294  0.014708637  0.013355617         2733 
 1905000   0.49533722   -7.5776963    336.32195  0.014712246   0.01334485         2690 
 1906000   0.48882232   -7.5748642    336.40945  0.014708353  0.013334088         2714 
 1907000   0.49255821   -7.5835531    335.99827  0.014682672  0.013323339         2656 
 1908000    0.4846532   -7.5821379    335.98339  0.014674327  0.013312597         2727 
 1909000   0.48632695   -7.5670739    336.17855  0.014675159  0.013301865         2725 
 1910000   0.48456637   -7.5646483    336.06874  0.014662685  0.013291151         2681 
 1911000   0.49217394   -7.5855656    335.71403  0.014639544   0.01328044         2694 
 1912000   0.49042948   -7.5911801    336.53425  0.014667637  0.013269741         2701 
 1913000   0.48526001   -7.5932746    335.66668  0.014622176  0.013259057         2683 
 1914000   0.48789945   -7.5965136    336.33095  0.014643458  0.013248375         2707 
 1915000   0.48031499   -7.5853738    336.15751  0.014628264   0.01323771         2671 
 1916000   0.48284268   -7.5802826    336.58879  0.014639387  0.013227067         2701 
 1917000   0.49364333   -7.5785705    336.09888  0.014610454  0.013216424         2712 
 1918000   0.48380093   -7.5809313    335.99515   0.01459833  0.013205792         2746 
 1919000    0.4802346   -7.5972871     335.7671  0.014580819  0.013195164         2713 
 1920000   0.49058942   -7.5844335    335.87627  0.014577963  0.013184555         2690 
 1921000   0.48071175   -7.5895327    336.22054  0.014585309  0.013173956         2692 
 1922000   0.48695257   -7.5804149    336.24749  0.014578889  0.013163373         2707 
 1923000   0.49156494   -7.5829996    336.22981  0.014570541  0.013152787         2699 
 1924000   0.47594458   -7.6002139    336.84133  0.014589455  0.013142222         2706 
 1925000   0.49683784   -7.6006579    335.71344  0.014533049  0.013131672         2730 
 1926000   0.49034785   -7.5829395     336.4928  0.014559225  0.013121114         2679 
 1927000   0.48635815   -7.5915632    335.61735   0.01451381  0.013110584         2708 
 1928000   0.47980285   -7.5744177    335.49916  0.014501174  0.013100054         2688 
 1929000   0.48383774   -7.5788037    335.60644  0.014498291  0.013089537         2680 
 1930000    0.4800529   -7.5865455    335.71411  0.014495428  0.013079032         2701 
 1931000   0.48761064   -7.5991019    336.23787  0.014510525  0.013068535         2707 
 1932000   0.47470619   -7.5829007     335.7885  0.014483631  0.013058054         2684 
 1933000    0.4847385   -7.5868659    336.26474  0.014496669  0.013047588         2700 
 1934000   0.47313011   -7.5805369    336.19165  0.014486024  0.013037118         2706 
 1935000    0.4709652   -7.5904734    335.57003  0.014451767  0.013026654         2717 
 1936000   0.47831116   -7.5964103    335.76408  0.014452655    0.0130162         2702 
 1937000   0.48259946   -7.5964503    335.38577  0.014428918  0.013005768         2737 
 1938000   0.47721003   -7.5889944    335.65039  0.014432851  0.012995344         2711 
 1939000    0.4723035   -7.5848501    335.73723   0.01442914  0.012984938         2713 
 1940000   0.48000279   -7.5953293    335.78402  0.014423712  0.012974524         2751 
 1941000   0.48097813    -7.594592    335.79547  0.014416773  0.012964121         2762 
 1942000   0.47500781   -7.5813667    335.47317  0.014395519  0.012953738         2748 
 1943000   0.49034299   -7.5859336    335.76222  0.014400507  0.012943362         2737 
 1944000   0.46778166   -7.5847264    335.99929  0.014403262  0.012933002         2747 
 1945000   0.48117298   -7.5891852    336.02785   0.01439708  0.012922646         2770 
 1946000    0.4772754   -7.5845878    335.75141  0.014377844  0.012912297         2731 
 1947000   0.48000355   -7.5950445    335.36535  0.014353936  0.012901961         2775 
 1948000   0.47461312   -7.5986733    336.24984  0.014384405  0.012891634         2704 
 1949000   0.46945691   -7.6019055    335.30259  0.014336523  0.012881312         2723 
 1950000   0.48288116   -7.6018411    336.11136  0.014363733  0.012871001         2708 
 1951000   0.47146137   -7.5910866    336.08646  0.014355307  0.012860702         2704 
 1952000   0.47114304   -7.6004215     335.7107  0.014331912  0.012850412         2709 
 1953000   0.47760073   -7.5984745    335.13726  0.014300105  0.012840142         2745 
 1954000   0.47119264   -7.6057143    335.57851  0.014311605  0.012829881         2733 
 1955000   0.47714139    -7.598122    336.22816  0.014331976  0.012819626         2762 
 1956000   0.47277007   -7.6046264    335.61083  0.014298348  0.012809387         2758 
 1957000   0.47407064   -7.6051505    335.69098  0.014294455  0.012799144         2699 
 1958000   0.46903409   -7.5842956    336.11432  0.014305172   0.01278892         2739 
 1959000   0.46312916   -7.6147259    335.66871  0.014278914  0.012778698         2738 
 1960000   0.47059123   -7.5927772    335.84532  0.014279138  0.012768494         2699 
 1961000    0.4729198    -7.612566    335.21094  0.014244898  0.012758298         2765 
 1962000   0.46772045   -7.5957025    335.20011  0.014237178  0.012748111         2777 
 1963000   0.46024232   -7.5957288    335.65216  0.014249115  0.012737934         2771 
 1964000    0.4667208   -7.6121813    335.70222  0.014243984  0.012727772         2765 
 1965000   0.47969781   -7.5847222    335.25576  0.014217802  0.012717614         2810 
 1966000   0.47106038   -7.6003677    336.20367  0.014250749  0.012707477         2704 
 1967000   0.47247995   -7.6057673    335.93087  0.014231947  0.012697343         2740 
 1968000    0.4732436   -7.6053502    335.53252  0.014207847  0.012687219         2796 
 1969000   0.46499741   -7.6117708    335.89948  0.014216162  0.012677101         2727 
 1970000   0.45983824   -7.6136788    335.92603  0.014210069     0.012667         2701 
 1971000   0.45259289   -7.6011877    335.61419  0.014189675  0.012656901         2720 
 1972000   0.47055475   -7.6169855     335.7362  0.014187635  0.012646813         2714 
 1973000   0.46842588   -7.6089989    335.59773  0.014174596  0.012636734         2740 
 1974000   0.46822198   -7.5939183    335.20696  0.014150918  0.012626674         2760 
 1975000   0.46220101   -7.6130283    335.50164  0.014156187  0.012616616         2702 
 1976000    0.4716768   -7.6112075    335.41738   0.01414547   0.01260657         2749 
 1977000   0.44762646   -7.6071748     335.3074  0.014133679  0.012596533         2726 
 1978000   0.47431632   -7.6091271    335.88441  0.014150843  0.012586507         2731 
 1979000   0.47790017    -7.628292    335.53611  0.014129026  0.012576497         2743 
 1980000   0.46117466   -7.6138615    335.52152  0.014121276  0.012566498         2768 
 1981000   0.46754397   -7.6127199    335.95422   0.01413235  0.012556504         2798 
 1982000   0.47762913   -7.6351974      335.356  0.014100067  0.012546518         2716 
 1983000   0.44229762   -7.6282063    335.58903   0.01410275  0.012536538         2737 
 1984000    0.4618078   -7.6199899    335.38232  0.014086959  0.012526567         2766 
 1985000    0.4556196   -7.6128058    335.40899  0.014080982  0.012516606         2754 
 1986000    0.4608448   -7.6148814     335.4064  0.014073783  0.012506661         2742 
 1987000   0.46491894   -7.6139106    334.93621  0.014046981  0.012496721         2787 
 1988000   0.46046895    -7.630386    335.71865  0.014072713  0.012486792         2777 
 1989000   0.46346928   -7.6323817    335.47344  0.014055365  0.012476868         2797 
 1990000   0.45560354   -7.6163407    335.34524  0.014042933  0.012466961         2778 
 1991000   0.45470339   -7.6112074    335.46752  0.014040998  0.012457064         2756 
 1992000   0.46025904   -7.6148607    335.61941  0.014040303  0.012447173         2792 
 1993000   0.45377632   -7.6107764    335.29739  0.014019794  0.012437298         2701 
 1994000   0.45129871   -7.6232008    335.46533  0.014019781  0.012427428         2757 
 1995000   0.45059051   -7.6136818    335.49467   0.01401398  0.012417568         2722 
 1996000   0.45711506   -7.6265772    335.24377  0.013996483  0.012407713         2778 
 1997000   0.44930313   -7.6268031    335.70278  0.014008629  0.012397872         2747 
 1998000   0.44585267   -7.6310802    335.70187  0.014001579  0.012388036         2769 
 1999000   0.45332176   -7.6126057    335.42077  0.013982857   0.01237821         2734 
 2000000   0.44994168   -7.6286307    335.52953  0.013980397  0.012368396         2729 
 2001000   0.46112386   -7.6117482    335.05463  0.013953633  0.012358595         2771 
 2002000   0.44800999    -7.620446    335.41294  0.013961578  0.012348801         2759 
 2003000   0.46184274   -7.6165997    334.91828  0.013934027  0.012339027         2760 
 2004000   0.45407171   -7.6380117    335.91113   0.01396836  0.012329257         2762 
 2005000   0.46640238   -7.6275798    335.31887  0.013936777   0.01231949         2768 
 2006000   0.45207278   -7.6408228     335.4476  0.013935178  0.012309729         2708 
 2007000   0.44335281   -7.6256071    334.54508  0.013890761  0.012299981         2773 
 2008000   0.44948399   -7.6288342    335.53559   0.01392495  0.012290241         2744 
 2009000   0.44829813   -7.6297144    334.87847  0.013890761  0.012280508         2749 
 2010000   0.44481582   -7.6348112    335.54355  0.013911424  0.012270794         2769 
 2011000    0.4491704   -7.6349473    335.58866  0.013906376  0.012261078         2727 
 2012000   0.45797632   -7.6269217    335.05439  0.013877336  0.012251384         2766 
Loop time of 4277.4 on 48 procs for 2000000 steps with 4000 atoms

Performance: 80796.762 tau/day, 467.574 timesteps/s
99.4% CPU use with 48 MPI tasks x no OpenMP threads

MPI task timing breakdown:
Section |  min time  |  avg time  |  max time  |%varavg| %total
---------------------------------------------------------------
Pair    | 262.49     | 280.09     | 299.33     |  46.7 |  6.55
Neigh   | 26.73      | 27.214     | 27.704     |   4.1 |  0.64
Comm    | 227.12     | 249.17     | 265.13     |  56.5 |  5.83
Output  | 4.5464     | 4.5483     | 4.5802     |   0.2 |  0.11
Modify  | 3651.9     | 3669.5     | 3688       |  16.7 | 85.79
Other   |            | 46.92      |            |       |  1.10

Nlocal:        83.3333 ave          90 max          77 min
Histogram: 3 1 3 8 7 11 11 2 1 1
Nghost:        1758.83 ave        1773 max        1744 min
Histogram: 2 3 4 7 7 6 10 4 2 3
Neighs:        10668.5 ave       11842 max        9858 min
Histogram: 3 2 7 11 12 5 7 0 0 1
FullNghs:      21336.9 ave       23468 max       19581 min
Histogram: 3 2 5 5 11 13 6 2 0 1

Total # of neighbors = 1024169
Ave neighs/atom = 256.04225
Neighbor list builds = 107967
Dangerous builds = 2

#clear
#
#next RN
#
#jump SELF
Total wall time: 1:11:20
