
units lj                  # Use reduced LJ style units
atom_style atomic         # Uncharged point particles
atom_modify map hash      # Needed for indexing of clusters etc
                          # Used to be able to find where atoms are in relation to each other.

lattice fcc 1.0 spacing 1 1 1
Lattice spacing in x,y,z = 1.5874011 1.5874011 1.5874011
region box block 0 10 0 10 0 10 units lattice
create_box 2 box
Created orthogonal box = (0.0000000 0.0000000 0.0000000) to (15.874011 15.874011 15.874011)
  3 by 4 by 4 MPI processor grid
create_atoms 1 box
Created 4000 atoms
  using lattice units in orthogonal box = (0.0000000 0.0000000 0.0000000) to (15.874011 15.874011 15.874011)
  create_atoms CPU = 0.002 seconds
set type 1 type/fraction 2 0.71 78393
Setting atom values ...
  2865 settings made for type/fraction
mass 1 1.0
mass 2 1.0
pair_style lj/cut  3.5
pair_modify tail  yes
pair_coeff 1  1  1.0  1.0   # Intearaction between 1 and 1 set with epsilon = 1 and sigma = 1
pair_coeff 1  2  1.5  0.8
pair_coeff 2  2  0.5  0.88

write_data data.0
System init for write_data ...
Neighbor list info ...
  update every 1 steps, delay 10 steps, check yes
  max neighbors/atom: 2000, page size: 100000
  master list distance cutoff = 3.8
  ghost atom cutoff = 3.8
  binsize = 1.9, bins = 9 9 9
  1 neighbor lists, perpetual/occasional/extra = 1 0 0
  (1) pair lj/cut, perpetual
      attributes: half, newton on
      pair build: half/bin/atomonly/newton
      stencil: half/bin/3d
      bin: standard
WARNING: Not all mixed pair coeffs generated from mixing. Use write_data with 'pair ij' option to store all pair coeffs. (../write_data.cpp:312)


#############################
#   M E L T   S Y S T E M   #
#############################

velocity all create 2.4 8172548 mom yes dist gaussian # Assign velocities
                                                    # Temperature 2.4, random number seed, zero linear momentum
                                                                                # Gaussian distribution

timestep 0.002   # simulation timestep
thermo 1000       # output thermodynamic data every 1000 steps bf 100

# Define a fix  in this case with index 1 applied to all
# particles in the simulation. This fix is for simulations
# in the anisotropic NPT ensemble. Note that we use the MTK
# correction.
fix 1 all npt temp 2.4 2.4 0.1 iso 5.68 5.68 0.5 mtk yes tchain 5 pchain 5 # Use NPT ensemble
                                                                         # Set temperature and pressure and damping
                                                                         # Numbers of thermostats in chain and in barostat
run 10000          # run for 10000 steps
Per MPI rank memory allocation (min/avg/max) = 3.642 | 3.644 | 3.648 Mbytes
Step Temp E_pair E_mol TotEng Press Volume 
       0          2.4   -4.1166387            0   -0.5175387   -3.7043072         4000 
    1000     2.379313   -3.7100834            0  -0.14200608    5.3537768    3695.2194 
    2000    2.4041956   -3.7512771            0  -0.14588523    5.5382657    3651.7784 
    3000    2.3829096   -3.6452163            0 -0.071745522    5.5318716    3715.5184 
    4000    2.4087642   -3.6827196            0 -0.070476638    5.7185059    3678.3353 
    5000    2.4219312   -3.6881184            0  -0.05612983    5.7419523    3674.5317 
    6000    2.3659229   -3.7153428            0  -0.16734568    5.8672191     3655.455 
    7000    2.3607791    -3.706675            0  -0.16639166    5.6750828    3667.6513 
    8000    2.4258637   -3.6625717            0 -0.024685894    5.8223483    3671.9756 
    9000    2.3923864   -3.6999055            0  -0.11222306    5.8006435    3655.2892 
   10000    2.3850333   -3.6757615            0 -0.099105979    5.6457108    3694.2914 
Loop time of 2.89153 on 48 procs for 10000 steps with 4000 atoms

Performance: 597607.192 tau/day, 3458.375 timesteps/s
99.4% CPU use with 48 MPI tasks x no OpenMP threads

MPI task timing breakdown:
Section |  min time  |  avg time  |  max time  |%varavg| %total
---------------------------------------------------------------
Pair    | 1.1841     | 1.2557     | 1.4057     |   3.5 | 43.43
Neigh   | 0.218      | 0.22431    | 0.24695    |   1.3 |  7.76
Comm    | 0.77638    | 0.97654    | 1.105      |   7.0 | 33.77
Output  | 0.00025249 | 0.00025864 | 0.00032923 |   0.0 |  0.01
Modify  | 0.34159    | 0.41952    | 0.5173     |   7.2 | 14.51
Other   |            | 0.01525    |            |       |  0.53

Nlocal:        83.3333 ave          92 max          68 min
Histogram: 1 0 1 4 5 7 9 11 7 3
Nghost:        1725.69 ave        1760 max        1690 min
Histogram: 2 4 1 7 8 12 3 4 2 5
Neighs:        10315.1 ave       11690 max        8048 min
Histogram: 1 0 2 4 5 6 12 9 6 3

Total # of neighbors = 495123
Ave neighs/atom = 123.78075
Neighbor list builds = 910
Dangerous builds = 221

# Equilibrate just above the melting temperature to avoid step fn in T

fix 1 all npt temp 1.25 1.25 0.1 iso 5.68 5.68 0.5 mtk yes tchain 5 pchain 5
run 2000
Per MPI rank memory allocation (min/avg/max) = 3.644 | 3.646 | 3.650 Mbytes
Step Temp E_pair E_mol TotEng Press Volume 
   10000    2.3850333   -3.6757615            0 -0.099105979    5.6457108    3694.2914 
   11000    1.2637536   -5.4861378            0   -3.5909813    5.7652779    2793.3603 
   12000    1.2453184    -5.468012            0   -3.6005014    5.8536621    2792.1154 
Loop time of 0.662778 on 48 procs for 2000 steps with 4000 atoms

Performance: 521441.265 tau/day, 3017.600 timesteps/s
99.6% CPU use with 48 MPI tasks x no OpenMP threads

MPI task timing breakdown:
Section |  min time  |  avg time  |  max time  |%varavg| %total
---------------------------------------------------------------
Pair    | 0.29471    | 0.31943    | 0.36779    |   2.6 | 48.20
Neigh   | 0.040123   | 0.04266    | 0.046991   |   0.7 |  6.44
Comm    | 0.20114    | 0.25166    | 0.28225    |   3.3 | 37.97
Output  | 5.1979e-05 | 5.3662e-05 | 6.8781e-05 |   0.0 |  0.01
Modify  | 0.039736   | 0.044088   | 0.048342   |   1.1 |  6.65
Other   |            | 0.00488    |            |       |  0.74

Nlocal:        83.3333 ave          89 max          76 min
Histogram: 1 1 1 7 8 9 11 5 2 3
Nghost:        2087.06 ave        2111 max        2054 min
Histogram: 1 1 3 5 8 7 8 5 8 2
Neighs:        13666.4 ave       14625 max       12179 min
Histogram: 1 3 0 6 3 8 9 8 5 5

Total # of neighbors = 655989
Ave neighs/atom = 163.99725
Neighbor list builds = 141
Dangerous builds = 13

#############################
# L I N E A R  Q U E N C H  #
#############################

# Define solid atoms. This closely follows ten Wolde  Ruiz-Montero and Frenkel  Faraday Discuss  1996  104  93-110
# Compute components of the per-atom q6 vector
compute q6 all orientorder/atom degrees 1 6 components 6 nnn NULL cutoff 1.3 # compute the Q6 parameter.
                                                                             # Use all neighbours within 1.3 unit cell.

# get number of connections
compute coord_number all coord/atom orientorder q6 0.5

# An atom is solid if it has 8 or more connections (of a possible 14)
variable is_solid atom c_coord_number>=8
group solid dynamic all var is_solid    # Must be dynamic to update
dynamic group solid defined

# do clustering
compute cluster solid cluster/atom 1.3 # Create a cluster where all atoms within are solid and max 1.3 units from another member

# define chunks one chunk per cluster
compute clus_chunks solid chunk/atom c_cluster nchunk every compress yes  # Says which atoms are in which chunk

# count the size of each chunk
compute size_chunks solid property/chunk clus_chunks count


# Find the maximum entry in the vector of chunk sizes
variable max_n equal max(c_size_chunks)


# Thermo style which includes this variable
# thermo_style custom step temp pe vol v_max_n

thermo ${N}  # Print the thermo information every 100 steps
thermo 1000  

# Reset the npt fix at a lower temperature (below freezing)
fix 1  all npt temp  ${temp} ${temp}  0.1  iso  5.68  5.68  0.5  mtk yes tchain  5  pchain  5
fix 1  all npt temp  0.45 ${temp}  0.1  iso  5.68  5.68  0.5  mtk yes tchain  5  pchain  5
fix 1  all npt temp  0.45 0.45  0.1  iso  5.68  5.68  0.5  mtk yes tchain  5  pchain  5

dump dmp2 all dcd ${N} traj.dcd
dump dmp2 all dcd 1000 traj.dcd


compute msd all msd com yes
variable twopoint equal c_msd[4]/6/(step*dt+1.0e-6)
fix 9 all vector 10 c_msd[4]
variable fit equal slope(f_9)/6/(10*dt)
thermo_style custom step temp pe c_msd[4] v_twopoint v_fit v_max_n

fix 1 all npt temp 1.25 ${temp} 0.1 iso 5.68 5.68 0.5 mtk yes tchain 5 pchain 5
fix 1 all npt temp 1.25 0.45 0.1 iso 5.68 5.68 0.5 mtk yes tchain 5 pchain 5
run 500000 # 5000000  # Run for this many steps
Neighbor list info ...
  update every 1 steps, delay 10 steps, check yes
  max neighbors/atom: 2000, page size: 100000
  master list distance cutoff = 3.8
  ghost atom cutoff = 3.8
  binsize = 1.9, bins = 8 8 8
  4 neighbor lists, perpetual/occasional/extra = 1 3 0
  (1) pair lj/cut, perpetual
      attributes: half, newton on
      pair build: half/bin/atomonly/newton
      stencil: half/bin/3d
      bin: standard
  (2) compute orientorder/atom, occasional
      attributes: full, newton on
      pair build: full/bin/atomonly
      stencil: full/bin/3d
      bin: standard
  (3) compute coord/atom, occasional
      attributes: full, newton on
      pair build: full/bin/atomonly
      stencil: full/bin/3d
      bin: standard
  (4) compute cluster/atom, occasional
      attributes: full, newton on
      pair build: full/bin/atomonly
      stencil: full/bin/3d
      bin: standard
Per MPI rank memory allocation (min/avg/max) = 9.842 | 9.848 | 9.853 Mbytes
Step Temp PotEng c_msd[4] v_twopoint v_fit v_max_n 
   12000    1.2453184    -5.468012 4.1671577e-30 2.8938594e-32 8.3333333e+20            1 
   13000    1.2456884   -5.5038114   0.64430596 0.0041301662   0.05336917            3 
   14000     1.224026   -5.5334529    1.2917183 0.0076887994  0.053516884            3 
   15000    1.2593709   -5.5207616     1.894255  0.010523638  0.053006187            2 
   16000    1.2555145   -5.5517936    2.5323926  0.013189545  0.052731863            1 
   17000    1.2520155   -5.4845123    3.1476628  0.015429719  0.051827084            7 
   18000    1.2369442   -5.5210037    3.8099696  0.017638748  0.052081248            1 
   19000    1.2687413   -5.5065531    4.3892308  0.019251012  0.052305028            4 
   20000    1.2455375   -5.5296584    4.9399869  0.020583278  0.051742942            3 
   21000    1.2434875   -5.5500645    5.5061643  0.021849858  0.051350876            3 
   22000     1.231953   -5.5318525    6.1197832  0.023180997  0.050986569            3 
   23000    1.2319057   -5.5539359    6.7608556  0.024495853  0.050889414            9 
   24000    1.2388161   -5.5761147    7.3609825  0.025558967  0.050801161            4 
   25000    1.2325818   -5.5786962    7.9136116  0.026378705  0.050654988            2 
   26000    1.2569394   -5.4867325    8.4723122  0.027154846  0.050458182            4 
   27000    1.2239465   -5.5770047    9.0308422  0.027872969  0.050194563            7 
   28000    1.2398052   -5.5706032    9.7252457  0.028944183  0.050041399            2 
   29000    1.2118679    -5.540257    10.367585   0.02979191  0.050058987            9 
   30000    1.1888472   -5.5522175    11.031212  0.030642254  0.050171765            4 
   31000    1.2199035   -5.5555935    11.612361  0.031216025  0.050231928            1 
   32000    1.2196141   -5.5512938    12.036987  0.031346321  0.050164019            2 
   33000    1.2112705   -5.5682063    12.753587  0.032206027  0.050157945            2 
   34000    1.2150513   -5.5599375    13.376578  0.032785729  0.050187514            3 
   35000    1.2095391   -5.5784793     13.83938  0.032950905  0.050141199            3 
   36000    1.1829362   -5.6000564     14.42492  0.033391017  0.050010969            5 
   37000    1.1806755   -5.5774717    15.122351  0.034059349  0.049965157            2 
   38000    1.2222837     -5.59979    15.717414  0.034468013   0.04995019            3 
   39000    1.2037201   -5.5848164     16.16994  0.034551154  0.049934682            4 
   40000    1.1956185   -5.5972947    16.730121  0.034854417   0.04984443            2 
   41000    1.2173956    -5.596933    17.221014  0.035002061  0.049714332            1 
   42000    1.1908064   -5.6220386    17.828533  0.035374074  0.049605075            3 
   43000    1.2089337   -5.5919993    18.424043   0.03570551  0.049502509            3 
   44000    1.1962583   -5.6035186    19.007729  0.035999486  0.049447028            4 
   45000    1.1773013   -5.6044913    19.659563  0.036406598  0.049401702            2 
   46000    1.2075981   -5.6104623    20.118613  0.036446763  0.049333268            3 
   47000    1.1928702   -5.6012866    20.808953  0.036895306  0.049254613            1 
   48000    1.1636762   -5.6427245    21.416053  0.037180646  0.049234228            3 
   49000    1.1732709   -5.5942007    22.074091  0.037540971   0.04921991            2 
   50000    1.2004034   -5.5897547    22.728502  0.037880836  0.049236802            1 
   51000    1.1715115   -5.6609961    23.179389  0.037874818  0.049239897            2 
   52000     1.200078   -5.6755322    23.773691  0.038098863  0.049224863            2 
   53000    1.2028484   -5.6184386    24.612255  0.038698513   0.04926324            3 
   54000    1.1736816   -5.6188159    25.048735  0.038655454  0.049280342            5 
   55000    1.1987842   -5.6751833    25.365807   0.03843304  0.049233916            4 
   56000    1.1832009   -5.6727756     25.60139  0.038097307  0.049116417            4 
   57000    1.1664786   -5.7105003    26.021211  0.038042707  0.048992579            4 
   58000    1.1716042   -5.6942124    26.760175  0.038448528  0.048853578            2 
   59000    1.1947062    -5.705028    27.049272  0.038205187  0.048713319            4 
   60000    1.2040243   -5.6743443     27.52691  0.038231819   0.04852474            5 
   61000    1.1490975   -5.6887594    28.317399   0.03868497  0.048374251            3 
   62000     1.185045   -5.6940568    28.892992  0.038834666  0.048286954            4 
   63000    1.1481499   -5.6548756    29.591063  0.039141617  0.048225237            3 
   64000    1.1381155   -5.6896115     29.91096  0.038946562  0.048155209            2 
   65000    1.1910594   -5.6979295    30.330241  0.038884925  0.048046717            3 
   66000    1.1819606   -5.6899658    30.898212  0.039012893   0.04793766            5 
   67000    1.1516499   -5.7109183    31.452982  0.039120624  0.047837612            1 
   68000    1.1558323   -5.6865486    31.993881  0.039208187  0.047743757            3 
   69000    1.1652774   -5.6298762    32.389472  0.039117719  0.047634072            2 
   70000    1.1319125   -5.6865009     32.68936  0.038915905  0.047504452            2 
   71000    1.1762209   -5.6850625    33.169504  0.038931343   0.04735713            3 
   72000    1.1407177   -5.7155409    33.425469  0.038686886  0.047212314            2 
   73000    1.1414929   -5.7454813    33.745685  0.038522471  0.047046475            4 
   74000    1.1553885   -5.7292508     34.42054  0.038761869  0.046879325            3 
   75000    1.1454443   -5.6607962     34.93865  0.038820722  0.046726901            2 
   76000    1.1368935   -5.7367911    35.129331  0.038519003  0.046564659            1 
   77000    1.1356142   -5.6943704    35.621115   0.03855099  0.046391333            2 
   78000    1.1270385   -5.7368506    35.725669  0.038168449  0.046201432            5 
   79000      1.12798   -5.7302394    36.139336  0.038121662  0.045997802            4 
   80000    1.1234527   -5.7336059    36.644322  0.038171168  0.045797391            2 
   81000    1.1379952   -5.7302453     37.01787  0.038084228  0.045607931            1 
   82000    1.1367043   -5.7497976    37.594817  0.038206115  0.045431677            4 
   83000    1.1588046   -5.7390557    38.010344  0.038162996  0.045268002            4 
   84000    1.1344659    -5.765957    38.611062  0.038304625  0.045101854            4 
   85000    1.1438084   -5.7819078    39.205753  0.038437012  0.044956923            3 
   86000    1.1304499   -5.7515232    39.640966  0.038411788  0.044825521            2 
   87000    1.1422854   -5.7641827    40.009439  0.038323217   0.04469072            3 
   88000    1.1087139   -5.7516304    40.326816  0.038188273  0.044555859            2 
   89000    1.1232102   -5.7592242    40.661196  0.038072281  0.044414642            2 
   90000    1.0826145   -5.7539018    41.085442  0.038042076  0.044263963            2 
   91000    1.1442052   -5.7996935     41.42359   0.03793369  0.044119283            3 
   92000    1.1289597   -5.7547386    42.004362   0.03804743  0.043979801            5 
   93000    1.1317794   -5.7800065    42.436775  0.038025784  0.043851379            5 
   94000    1.1282339   -5.7736138    43.060735  0.038174411  0.043731657            3 
   95000    1.1064829   -5.7803756    43.577501  0.038225878  0.043620441            3 
   96000    1.1019292   -5.7896182    44.248754  0.038410377  0.043523446            6 
   97000    1.1259702   -5.7916675    44.840294  0.038522589  0.043431466            3 
   98000    1.1190794   -5.8148913    45.247422  0.038475699  0.043351494            2 
   99000    1.0991927   -5.8087738    45.975335  0.038699776  0.043276548            5 
  100000    1.1004969   -5.8214238    46.139805  0.038449837  0.043197617            2 
  101000    1.1224822   -5.8398124    46.578171  0.038430834  0.043114514            3 
  102000    1.1297072   -5.8309678     46.84861  0.038275008  0.043028794            2 
  103000    1.0991499   -5.8238682    47.242441  0.038222039  0.042939804            8 
  104000      1.08229   -5.8385647      47.9119  0.038390946  0.042852781            4 
  105000    1.1167334   -5.7922554    48.336919  0.038362634  0.042770081            2 
  106000    1.1117793   -5.8373766     48.75707   0.03833103  0.042696752            3 
  107000    1.0973658   -5.8768245    49.163333    0.0382892  0.042621536            3 
  108000     1.110051   -5.8547618     49.56011  0.038240826  0.042541723            2 
  109000    1.0832698   -5.8519206    49.688026  0.037987787  0.042454798            6 
  110000    1.1194127   -5.8393101    50.414085  0.038192489  0.042368976            3 
  111000    1.0948129   -5.8276373    50.722332  0.038079829  0.042283906            2 
  112000    1.0704398   -5.8195799    51.162507  0.038067341  0.042194544            5 
  113000    1.0698783   -5.8924627    51.399118  0.037904954    0.0421048            3 
  114000    1.0831399   -5.8516905    51.896915  0.037936342  0.042019636            4 
  115000    1.0675463   -5.8481092    52.291825  0.037892627  0.041931736            2 
  116000    1.0710635   -5.8854445    52.610793   0.03779511  0.041840525            3 
  117000    1.0751543   -5.8588336    53.176952  0.037875321  0.041758225            3 
  118000    1.0690568   -5.8866149    53.536659  0.037808375  0.041674978            2 
  119000    1.1046622   -5.9017784     53.62926  0.037555504  0.041583414            3 
  120000    1.0814904   -5.8538973     54.26176  0.037681778  0.041494649            3 
  121000    1.0940753    -5.868358    54.931712  0.037831757  0.041411841            3 
  122000    1.0675465   -5.9026381    54.982397  0.037556282  0.041331763            4 
  123000    1.0689827   -5.8978847    55.776266  0.037788798  0.041256488            3 
  124000    1.0800962   -5.9103638     56.11197  0.037709657  0.041177787            3 
  125000    1.0555836   -5.8855348    56.304568  0.037536378   0.04110124            6 
  126000    1.0683612   -5.9069502    56.633257  0.037455858  0.041019276            6 
  127000    1.0725523   -5.9460567    56.685983  0.037195527  0.040931667            3 
  128000    1.0493392   -5.8817939    57.440177  0.037395949  0.040844567            3 
  129000    1.0530682   -5.9245324    57.500931  0.037145304  0.040757346            2 
  130000    1.0748383   -5.9311788    57.891504  0.037109938  0.040670437            5 
  131000    1.0622911   -5.9327055    58.219141  0.037035077  0.040585147            4 
  132000    1.0575292   -5.9097671    58.814631  0.037130449   0.04049831            4 
  133000    1.0726602    -5.933279    58.905416  0.036908155  0.040410143            3 
  134000    1.0731801   -5.9088223    59.451109  0.036972083  0.040325337            5 
  135000     1.046962   -5.9525667    59.909086  0.036980917  0.040244926            3 
  136000    1.0590377   -5.9300209    60.360767  0.036985764  0.040161315            4 
  137000    1.0310138   -5.9701708    60.740928  0.036947037  0.040080073            6 
  138000    1.0579556   -5.9102152    61.343373  0.037043099  0.040001719            2 
  139000    1.0443372   -5.9677366     61.53916  0.036893981  0.039922187            3 
  140000    1.0459468   -5.9831695    61.509239  0.036612642   0.03983961            4 
  141000     1.046872   -5.9590187    61.857322  0.036558701  0.039752103            4 
  142000    1.0491606    -5.970502    61.897694  0.036324938  0.039657721            7 
  143000    1.0390639   -5.9564243    62.584179  0.036470966  0.039568178            2 
  144000    1.0449409   -6.0341295    62.942245   0.03642491  0.039480985            4 
  145000    1.0259782   -5.9772302    63.049333  0.036235249  0.039396489            5 
  146000    1.0384963   -5.9253817    64.029817  0.036546699  0.039312104            2 
  147000     1.042521   -5.9944718    64.168382  0.036376634  0.039230188            2 
  148000    1.0355513    -6.007331    64.341104  0.036228099  0.039145143            4 
  149000    1.0213179   -6.0075552    64.714314  0.036193688  0.039064283            3 
  150000    1.0328023   -5.9546674    65.344922  0.036302735  0.038984691            2 
  151000    1.0203344   -6.0026299    65.686843  0.036251017  0.038906572            3 
  152000    1.0426789   -6.0413748    65.631785  0.035982338  0.038824049            3 
  153000     1.019748   -5.9814035    66.080542   0.03599158  0.038742157            2 
  154000    1.0211301   -5.9917118    66.384107  0.035922136  0.038657563            3 
  155000    1.0184537   -6.0343281    66.348817  0.035671407  0.038569106            8 
  156000    1.0183133   -6.0321669    66.864522  0.035718228  0.038479285            6 
  157000    1.0089903   -6.0087231    67.298917  0.035721294  0.038394386            2 
  158000    1.0194625   -6.0079606    67.738731  0.035727179  0.038310876            2 
  159000    1.0303573   -6.0294102    67.904016  0.035589107  0.038227421            3 
  160000    1.0058683    -6.031858    68.077683  0.035457127  0.038140401            3 
  161000     1.012801   -6.0394066    68.197089    0.0352987   0.03805196           10 
  162000   0.99442384   -6.0165628    68.705817  0.035342498  0.037963008            5 
  163000    1.0124736   -6.0258057    69.128399  0.035341717   0.03787631            4 
  164000    0.9964041   -6.0176005    69.453253  0.035291287  0.037791313            3 
  165000    1.0019579   -5.9940502    69.615348  0.035159267  0.037706742            3 
  166000   0.98528146   -6.0556834    69.806878  0.035043613  0.037617737            3 
  167000    1.0134307   -6.0642479    70.147426  0.035003705  0.037527919            3 
  168000    1.0174592   -6.0113091    70.466151  0.034953448  0.037439359            4 
  169000    1.0019139   -6.0422188    70.642202  0.034833433  0.037350618            6 
  170000   0.98773747   -6.0521419    71.165622  0.034885108  0.037261898            4 
  171000   0.99940711   -6.0567999    71.185299  0.034690691  0.037173738            5 
  172000   0.98817116   -6.0906312    71.481907  0.034632707  0.037083199            3 
  173000    1.0033866   -6.0684443     71.51864  0.034450212   0.03699205            3 
  174000   0.99661463   -6.0883015    71.551072  0.034267755  0.036899888            2 
  175000   0.98672101   -6.0657593    71.898149  0.034237214  0.036806271            4 
  176000   0.97869273   -6.1147387    72.120232  0.034147837   0.03671146            3 
  177000   0.99762049   -6.1259591    72.303676  0.034041279   0.03661734            5 
  178000   0.97230216   -6.1077245    72.750656  0.034059296  0.036521876            5 
  179000   0.98722327   -6.0817113    72.941259  0.033957756  0.036426115            5 
  180000   0.97937496   -6.0955855    72.791708  0.033699865  0.036328701            3 
  181000   0.97850494   -6.0524235    73.354733  0.033772897  0.036230096            5 
  182000   0.97265093   -6.0979552    73.443507  0.033627979  0.036130621            7 
  183000   0.98417912   -6.1509082    73.551277  0.033493295  0.036029479            6 
  184000   0.97323386   -6.1254337    73.865538  0.033453595  0.035926805            7 
  185000   0.99960316   -6.1232713    73.871131  0.033275284  0.035825319            4 
  186000   0.96712543    -6.119321    74.190434  0.033239442  0.035723366            5 
  187000   0.98124946    -6.144642    74.354796  0.033134936  0.035622934            4 
  188000    0.9672275   -6.1838901    74.645006  0.033087325  0.035522418            4 
  189000   0.98928695   -6.1086557    75.002085  0.033069702  0.035422643            5 
  190000   0.96715147   -6.1402326    75.349612  0.033048075  0.035324827            3 
  191000   0.97767106   -6.1403516    75.338957    0.0328704   0.03522589            9 
  192000   0.95815621   -6.1533401    75.482444  0.032761478   0.03512472            7 
  193000   0.94641926   -6.1405356      75.8247  0.032739508   0.03502474            3 
  194000   0.94201822   -6.1590169    75.994863  0.032643841  0.034924977            3 
  195000   0.96437808    -6.164319    76.161751  0.032547757  0.034826935            7 
  196000   0.95139016   -6.1790668    76.431386  0.032496337  0.034728032            2 
  197000    0.9358199   -6.1742659    76.988652  0.032567112  0.034631024            5 
  198000   0.93364982   -6.2187969    76.869482  0.032352476  0.034534339            8 
  199000   0.95326636   -6.1494149    77.316342  0.032377028  0.034437471            9 
  200000   0.94699282   -6.1521696    77.343901  0.032226625  0.034342836            5 
  201000   0.94887084   -6.1726084    77.717342   0.03222112  0.034249733            2 
  202000   0.94149146   -6.1681118    77.931099  0.032149793  0.034154328            2 
  203000   0.96804908   -6.1757648    77.934383  0.031992768  0.034055188            7 
  204000   0.96402753   -6.1674746      78.2839  0.031978717  0.033958344            4 
  205000   0.93102018   -6.2124319     78.13434  0.031761927  0.033860875            6 
  206000   0.93427055   -6.2133751    78.266489  0.031661201  0.033762662            5 
  207000   0.94388713   -6.2006025    78.691136  0.031679201  0.033665165            8 
  208000   0.93376001   -6.2189664    79.100955  0.031691088  0.033569491            5 
  209000    0.9138381   -6.2050794    78.976948  0.031490011  0.033473775            2 
  210000   0.94403963   -6.2459744    78.894754  0.031307442  0.033375951            5 
  211000   0.94450026    -6.200624    79.398578  0.031358048  0.033277907            5 
  212000   0.92343353   -6.2346058    79.767177  0.031355022  0.033182212            6 
  213000   0.93055618   -6.1839077    79.942504   0.03127641  0.033087271           13 
  214000   0.91517809    -6.230751    80.084656  0.031185614  0.032992153           21 
  215000   0.91387892   -6.2838206    80.340992  0.031139919  0.032896708            6 
  216000   0.89638149   -6.2603116    80.511604  0.031061576  0.032802531            6 
  217000   0.90521005   -6.2367911    80.458022  0.030897858  0.032708881           10 
  218000   0.91998252   -6.2340021    80.678221  0.030840299   0.03261428            5 
  219000   0.92295966   -6.2498425    81.139277  0.030874915  0.032520185            4 
  220000   0.93378325   -6.2351692    81.188943  0.030753387  0.032428092            4 
  221000   0.92543123   -6.2686415    81.041455  0.030558618  0.032333744            5 
  222000   0.91288372   -6.2770974    81.498635  0.030592581   0.03224076            3 
  223000   0.90237951    -6.277681    81.817653  0.030574609  0.032149391            3 
  224000   0.92471382   -6.2681731     81.87901  0.030460941  0.032057907            8 
  225000   0.91416724   -6.2768163    82.046147  0.030387462  0.031965169            4 
  226000   0.90006104   -6.2746551    82.173045  0.030299795   0.03187361            3 
  227000   0.89976763    -6.305019    82.309581  0.030216439  0.031781961            7 
  228000   0.88816375   -6.2885761    82.511054  0.030157549  0.031690075            5 
  229000   0.91776679   -6.2514917     82.41267  0.029990055  0.031599433            7 
  230000   0.90056514   -6.2779139    82.910549  0.030040054  0.031508651            4 
  231000   0.88315336   -6.3194109    83.032456  0.029953988   0.03141836            5 
  232000   0.88643453   -6.3240632     83.26045  0.029906771  0.031327294            6 
  233000   0.88525248   -6.3163419    83.288208  0.029788343  0.031236431            4 
  234000   0.90098629   -6.2890643    83.364606   0.02968825   0.03114593            4 
  235000   0.89837696   -6.3016612    83.590669  0.029642081  0.031055774            5 
  236000   0.88153289   -6.3303841    83.803007  0.029591457  0.030965414           11 
  237000   0.89917537   -6.3335146    83.612356  0.029399563  0.030876346            3 
  238000   0.88692548   -6.3176241     83.96224  0.029398543  0.030786927            8 
  239000   0.90803506   -6.3452864    84.669149  0.029522018  0.030699853            5 
  240000   0.89524415    -6.379446    84.651906  0.029393023  0.030612953            5 
  241000   0.87747989    -6.386744    84.501791  0.029219153  0.030526648            7 
  242000   0.88365362   -6.3664222    84.809338  0.029204317  0.030439224            6 
  243000   0.88452462   -6.3933037    84.732471  0.029057775  0.030351092            5 
  244000   0.86740927   -6.3960453    84.993461  0.029027821   0.03026338            7 
  245000   0.86030307   -6.3454894    85.291556  0.029010733  0.030177548            5 
  246000   0.87934911   -6.3620782    85.333327  0.028906954  0.030093494           12 
  247000   0.87631875   -6.3722955    85.533355  0.028857407  0.030008061            6 
  248000   0.87435771    -6.366989     85.89403  0.028862241  0.029923148            7 
  249000   0.87592321   -6.3607141     86.10407  0.028816623  0.029838602            4 
  250000   0.86023751   -6.3766064     86.30287  0.028767623  0.029754512            3 
  251000   0.86855781   -6.4133714    86.263296  0.028639873  0.029671415            5 
  252000   0.84610419     -6.39299    86.498952  0.028604151  0.029587577            4 
  253000   0.85591827    -6.387025    86.370767  0.028448869  0.029503873            9 
  254000   0.87015832   -6.4196808    86.617915  0.028417951  0.029419467            9 
  255000   0.88064983    -6.407715    86.699811  0.028333272  0.029335471           12 
  256000   0.85567214   -6.4115874    86.787352  0.028251091  0.029251695            7 
  257000   0.85584183   -6.3970749    87.108745  0.028245378  0.029169334            4 
  258000   0.85172479   -6.3982693    87.338623   0.02821015  0.029087121            4 
  259000   0.84580814    -6.435077    87.409709  0.028124102  0.029005496            8 
  260000   0.85782988   -6.4294875    87.609711  0.028080035  0.028924091            8 
  261000   0.84345897   -6.4251749    87.594695  0.027967655  0.028842941            7 
  262000   0.86891578   -6.4215111    87.810147  0.027929436   0.02876236            4 
  263000   0.85519683   -6.4644418    87.737691  0.027800282   0.02868075            7 
  264000   0.84003355   -6.4749077    87.672121  0.027674281  0.028598792            5 
  265000   0.85308916   -6.4627094    87.764393  0.027598866  0.028516032            9 
  266000   0.84727518   -6.4619794    87.874792  0.027529697  0.028433524            6 
  267000   0.83987736   -6.4357229    88.324839  0.027567053  0.028351832           10 
  268000   0.82483183   -6.4874191    88.257017  0.027443102  0.028269963            5 
  269000   0.82039818    -6.457731    88.171284  0.027314524  0.028187981            7 
  270000   0.83047591   -6.4682109    88.329713  0.027262257  0.028105632            9 
  271000   0.83557626    -6.499081    88.336548   0.02716376  0.028023322            4 
  272000   0.82309795    -6.485462    88.606327  0.027146546  0.027941092            8 
  273000   0.83447286   -6.4703062    88.579718  0.027038986  0.027858804            7 
  274000   0.82514934   -6.4524209    88.824512  0.027014754    0.0277768            4 
  275000   0.81156784   -6.5138055    88.737218  0.026890066   0.02769434            5 
  276000   0.83089384   -6.5089566      88.7401  0.026793508  0.027611461            8 
  277000   0.82824108   -6.4912806     89.05581   0.02679176  0.027530124           10 
  278000   0.83545669   -6.5025705    89.065005  0.026698143  0.027449145            4 
  279000   0.82844106   -6.5309763    88.739982  0.026505371  0.027367202            9 
  280000   0.82004075   -6.5298658     88.95994  0.026476172   0.02728483           22 
  281000   0.82433423   -6.5151757    89.043678  0.026406785  0.027203006           10 
  282000   0.83293123   -6.5081874    89.287126  0.026385084  0.027121555            8 
  283000   0.80757188   -6.4922103    89.486347  0.026350515  0.027041599            7 
  284000   0.80418102   -6.5144948    89.349698  0.026217634  0.026960439           10 
  285000   0.80822124    -6.532947    89.394487  0.026138739  0.026878939            9 
  286000    0.7995665   -6.5386977    89.584005  0.026102565  0.026797702            4 
  287000   0.78993202   -6.5438071    89.466455  0.025977484  0.026716425           10 
  288000   0.81965596   -6.5337824    89.493205  0.025895025  0.026635397            7 
  289000   0.82023857   -6.5318437    89.792557  0.025891741  0.026554128            6 
  290000   0.78905988   -6.5585807       90.098   0.02589023   0.02647356            4 
  291000    0.8048149   -6.5500223    90.065576  0.025791975  0.026393037            5 
  292000   0.80655037   -6.5719281    89.835627  0.025638021  0.026313069           14 
  293000   0.81699004   -6.5697122    90.060514  0.025614481  0.026232605            9 
  294000   0.79969397   -6.5944358    90.316146  0.025599815  0.026152348            7 
  295000   0.78187975   -6.6231724     90.18305  0.025475438  0.026071907            5 
  296000   0.79722839   -6.5872934    90.537827  0.025489253  0.025992025           12 
  297000   0.80384791   -6.5983651     90.58669  0.025417141  0.025913403            7 
  298000   0.77197163   -6.5638997    90.599008  0.025335293  0.025835392            7 
  299000   0.79372671   -6.6300941    90.483516  0.025218371  0.025756736           12 
  300000   0.78733429   -6.5763722    90.720067  0.025200019  0.025679131           10 
  301000   0.79040536   -6.5880581    91.100583  0.025221645  0.025601666            9 
  302000   0.79033603   -6.6186184     90.99956  0.025110254  0.025525251           10 
  303000   0.79963384   -6.5939924    91.350632  0.025123936  0.025449184            4 
  304000   0.77769918   -6.6207981    91.137373  0.024982833  0.025373938            8 
  305000   0.77939468   -6.6224373    91.308487  0.024947674  0.025298589           16 
  306000   0.78930917   -6.6438762    91.261683  0.024853399  0.025222624           13 
  307000   0.79481141   -6.6430973    91.166997  0.024746742  0.025146181            6 
  308000   0.77371774   -6.6312878    91.292015  0.024700221  0.025069415            8 
  309000   0.77156931   -6.6526238    91.280057   0.02461706  0.024993427           10 
  310000   0.76965498   -6.6154372     91.71762  0.024655274  0.024917877           15 
  311000   0.77211575   -6.6433339    91.483181  0.024513178  0.024842334           10 
  312000   0.78463547   -6.6518326    91.749784  0.024505818  0.024767643            7 
  313000   0.77198326   -6.6420814    91.707734   0.02441633  0.024693306            9 
  314000   0.76538501   -6.6436638    91.860567  0.024379131  0.024619301            7 
  315000   0.76390495   -6.6454909    92.090655  0.024362607  0.024545854           13 
  316000   0.76369974   -6.6517662    92.118887  0.024292955  0.024472843            7 
  317000   0.76816172    -6.651611    92.217068  0.024242132   0.02440015           11 
  318000   0.76424987   -6.6742946    92.337967   0.02419758   0.02432744            8 
  319000   0.75700986   -6.6934735    91.930367  0.024015247   0.02425488           10 
  320000   0.75947046   -6.6503653    92.550363  0.024101657  0.024182701            5 
  321000   0.75667902   -6.6700019    92.525102  0.024020016  0.024111126            6 
  322000   0.74558399   -6.7137466    92.559034  0.023954201  0.024039529           16 
  323000   0.76712642    -6.697577    92.646054  0.023902491  0.023967645           10 
  324000   0.74881852   -6.7237119    92.537865  0.023800891  0.023895944           16 
  325000   0.76730323   -6.6816653    92.698387  0.023768817  0.023824707            6 
  326000   0.74515613    -6.686488    93.034909   0.02378193  0.023754101            9 
  327000   0.75844385   -6.7070547    93.048024  0.023712544  0.023683923           12 
  328000   0.73955546   -6.7349587    93.087106  0.023650179  0.023613937           10 
  329000   0.74960259    -6.728278     92.86627  0.023522358  0.023544316           12 
  330000   0.73132437    -6.724446    93.132799  0.023518384  0.023474655           16 
  331000   0.72017541    -6.722051    93.081891  0.023434514  0.023404784           12 
  332000   0.71770152   -6.7265725    93.019709   0.02334832  0.023334986           38 
  333000   0.73156886   -6.7036663    93.189911  0.023320799  0.023265269           15 
  334000   0.74700938   -6.7165746    93.240112  0.023263501  0.023195545           14 
  335000   0.72577792   -6.7213798    93.249078  0.023196288  0.023125943           15 
  336000   0.74316892   -6.7358189    93.179347  0.023109957  0.023056612           26 
  337000   0.71891406   -6.7494665    93.150733  0.023034306  0.022987408           10 
  338000     0.723341   -6.7563949    93.148578  0.022965626  0.022917862           14 
  339000   0.72258486   -6.8063768    92.940134  0.022846641  0.022848295            6 
  340000   0.71243211    -6.779313     93.12063  0.022823684  0.022778543           13 
  341000   0.71603458   -6.7986273     93.18005  0.022771273  0.022709019           12 
  342000   0.74403999   -6.7757146     93.31904  0.022738557  0.022639758           30 
  343000   0.71244703   -6.7646738    93.171437  0.022636403  0.022570721            7 
  344000   0.71518751   -6.7830902    93.286096  0.022598376  0.022501088           21 
  345000   0.70666901   -6.7664497      93.7023  0.022633406  0.022432378           12 
  346000   0.71939017   -6.8096934    93.400357  0.022495269  0.022364146           14 
  347000   0.70795931   -6.8263756    93.200211  0.022382375  0.022295837           27 
  348000   0.71693931   -6.8217438    93.396233  0.022364998  0.022226815           12 
  349000   0.71281043   -6.8059592    93.639578  0.022359021  0.022158032           44 
  350000   0.71752596   -6.8454935    93.071611  0.022159907  0.022088958           12 
  351000   0.71080622   -6.8526773    93.178439  0.022122137  0.022019504           14 
  352000   0.70028352   -6.8442081    93.125415  0.022046737  0.021950212           10 
  353000   0.69646263   -6.8180315    93.370235  0.022042076  0.021881653           12 
  354000   0.70953922   -6.8236324    93.292906  0.021961607  0.021813401            8 
  355000     0.700844   -6.8728122    93.468324  0.021940921  0.021745112           18 
  356000   0.69673224   -6.8547955    93.391466  0.021861298  0.021677211           13 
  357000   0.68442585   -6.8613954    93.225486  0.021761318  0.021608709           18 
  358000   0.69553895   -6.8688041    93.320635   0.02172268  0.021539951           11 
  359000   0.69395053   -6.8564018    93.115415  0.021614534   0.02147193           13 
  360000   0.69343968   -6.8902127    93.497185  0.021642867  0.021404004           12 
  361000    0.6746686   -6.8712526    93.447483  0.021571441  0.021336373           25 
  362000    0.6729872    -6.893012    93.460919  0.021514944  0.021268639           28 
  363000   0.67878605   -6.8760235    93.369093  0.021434594  0.021201146           40 
  364000   0.69219725   -6.9014269     93.28661  0.021356825  0.021134232           31 
  365000   0.68097399   -6.8867479    93.428903    0.0213308  0.021067725           22 
  366000   0.69955841   -6.8867459    93.519869  0.021293231  0.021000922           27 
  367000   0.69073248   -6.9175011    93.544313  0.021240761  0.020934659           28 
  368000    0.6729083   -6.8909894    93.546189  0.021183467  0.020868635           12 
  369000   0.67868809   -6.9196704    93.364652  0.021085061  0.020802396           42 
  370000   0.67345629   -6.9076631    93.658499  0.021094256  0.020736799           36 
  371000   0.66850715   -6.9279852    93.414288  0.020982544  0.020671372           22 
  372000   0.67174348   -6.9030178    93.676832  0.020984953  0.020605986           36 
  373000   0.66439632   -6.9176769    93.768302  0.020949129  0.020540701           23 
  374000   0.67069182   -6.9338835    93.567806  0.020848441  0.020475792           83 
  375000   0.67322719   -6.9206236     93.43625  0.020763611  0.020410993           67 
  376000   0.65961286    -6.935705    93.353423  0.020690032   0.02034619           49 
  377000   0.66911785   -6.9536208    93.480415  0.020663222  0.020281514           52 
  378000   0.66882462   -6.9693361    93.551941  0.020624326  0.020216982           48 
  379000   0.66393734   -6.9678982    93.472676  0.020552479  0.020152469           72 
  380000   0.68270714    -6.933716    93.447531   0.02049288  0.020088009           81 
  381000   0.66140504   -6.9719958    93.381397  0.020424628  0.020023627           38 
  382000    0.6754397   -6.9661545    93.598064  0.020418426  0.019959517           23 
  383000   0.65151125   -6.9573744    93.653749   0.02037723  0.019895796           26 
  384000   0.65723292   -6.9946698    93.513542  0.020293737  0.019832421           75 
  385000   0.65359832   -6.9964976    93.420627  0.020220915  0.019768794           79 
  386000   0.66201821   -6.9751119      93.4066  0.020165501  0.019705063           27 
  387000   0.65412117   -7.0040319    93.178491  0.020064274  0.019641676           31 
  388000   0.64036113   -6.9815287    93.394594  0.020058976  0.019578343           27 
  389000   0.63633694   -7.0109996    93.295794  0.019986245  0.019514751           45 
  390000   0.65581428     -6.99273    93.323903  0.019941005   0.01945177           41 
  391000   0.64765544   -7.0020022    93.513025  0.019930312  0.019389004           37 
  392000   0.64027008   -6.9989139    93.316654  0.019837724  0.019326182           15 
  393000   0.62017516   -7.0105084    93.337263  0.019791616  0.019263392           20 
  394000   0.63627009   -7.0225876    93.332364  0.019740348  0.019200768           17 
  395000   0.64220426   -7.0268328    93.433889  0.019711791  0.019138468           48 
  396000   0.62781344   -7.0543579    93.371195  0.019648821   0.01907636           30 
  397000   0.63887392   -7.0466359    93.415935  0.019608719  0.019014602           46 
  398000   0.62365473    -7.023908    93.471074  0.019570995  0.018952944           12 
  399000   0.63015905   -7.0424588    93.368176  0.019500454   0.01889161           54 
  400000   0.63293264   -7.0301159    93.472487  0.019473435  0.018830415           33 
  401000   0.62942087   -7.0310325    93.387589   0.01940723  0.018769223           29 
  402000   0.64018783   -7.0173065    93.325427  0.019346067  0.018707931           38 
  403000   0.62111643   -7.0546825    93.184322  0.019268884   0.01864685           81 
  404000   0.61246369   -7.0619928    93.172984   0.01921885  0.018586058          108 
  405000   0.61201684    -7.066537    93.583016  0.019255765  0.018525501           80 
  406000   0.63299501   -7.0645919    93.452274  0.019181501  0.018465428           27 
  407000   0.61145279   -7.0467514    93.153852   0.01907327   0.01840556           89 
  408000   0.63464797   -7.0631281    93.372813  0.019071244  0.018345727           37 
  409000   0.60124813   -7.0807251    93.410144  0.019032222  0.018286162           56 
  410000   0.60584364   -7.0867662    93.271455  0.018957613  0.018226511           54 
  411000   0.61703389   -7.0829381    93.428785  0.018943387  0.018167074           67 
  412000   0.60650588   -7.0773089    93.162237  0.018843495   0.01810764           87 
  413000   0.60152728   -7.1043523     93.07645  0.018780559  0.018048053          215 
  414000    0.6022822     -7.10314     93.04718  0.018729304  0.017988718          106 
  415000   0.59995898   -7.0990287    93.060972  0.018686942  0.017929595          156 
  416000   0.60347465   -7.1160277    93.035129  0.018636845  0.017870752          129 
  417000   0.59531119   -7.1061411    93.186143  0.018622331  0.017812058           91 
  418000   0.60186299   -7.1024528    93.086897  0.018557994  0.017753679           42 
  419000   0.60710481   -7.1161864    93.114323  0.018519157  0.017695327          169 
  420000   0.59059185   -7.1102843     93.09696  0.018471619  0.017637192          127 
  421000   0.60074742   -7.1225772    93.026867  0.018413869  0.017579241          181 
  422000   0.58389485   -7.1285954    93.060535  0.018376883  0.017521443          178 
  423000   0.59295406   -7.1443315    92.974216  0.018316433  0.017463773          121 
  424000   0.58453944     -7.14689    93.166093  0.018310946  0.017406185          118 
  425000   0.58575563    -7.146758    92.993943  0.018234106  0.017348969          146 
  426000   0.58298516   -7.1672866    93.031418  0.018198634  0.017291958          182 
  427000    0.5936339   -7.1406378    92.957974  0.018141681  0.017235065          176 
  428000    0.5747946   -7.1564703    92.989073  0.018105349  0.017178504          150 
  429000    0.5866931   -7.1549873    93.039136   0.01807287  0.017122069          137 
  430000   0.58426589    -7.172851    92.922213  0.018008181  0.017065809          110 
  431000   0.58241337   -7.1616735    93.158801  0.018012142  0.017009779          109 
  432000   0.58982229   -7.1492006    93.039958  0.017947523  0.016953971          231 
  433000   0.58022293   -7.1562826    92.872467  0.017873839  0.016898403          195 
  434000   0.57234623    -7.168357    93.007452  0.017858574  0.016842997          126 
  435000    0.5788337   -7.1672404    92.906847  0.017798247   0.01678784          178 
  436000    0.5800445   -7.1585266    92.824803  0.017741744  0.016732754          154 
  437000   0.56495741   -7.1655433    92.809153   0.01769816  0.016677948          233 
  438000   0.58354168   -7.1652406    92.871524   0.01766962  0.016623347          136 
  439000   0.56046905    -7.175397    92.876637  0.017630341  0.016568923          105 
  440000   0.55488872   -7.1631576     92.89238  0.017593254  0.016514665           95 
  441000   0.56474961   -7.1942756    92.669243  0.017511195   0.01646061           84 
  442000   0.56601622   -7.1930707    92.753907  0.017487539  0.016406615          100 
  443000   0.56720679   -7.1712366     92.62734  0.017424255  0.016352828           84 
  444000   0.55376779   -7.1994549    92.629383  0.017385395  0.016299093          128 
  445000   0.55750795   -7.2040657    92.675138  0.017354895  0.016245622          252 
  446000    0.5607423   -7.1932005    92.656212  0.017312446  0.016192145          139 
  447000    0.5532009   -7.2163806    92.730698  0.017287602  0.016138923          224 
  448000   0.54869373   -7.2310068    92.763879  0.017255186  0.016085916          304 
  449000   0.56336379    -7.222112    92.640608  0.017193877  0.016033141          262 
  450000    0.5488129   -7.2343837    92.708391  0.017168221  0.015980551          156 
  451000   0.55428916   -7.2351512    92.681754  0.017125232  0.015928149          339 
  452000   0.54196465   -7.2299718    92.559706  0.017064843  0.015875893          362 
  453000   0.54732313   -7.2352699    92.618644  0.017038014  0.015823822          298 
  454000   0.53960266   -7.2365866    92.542269  0.016986466     0.015772          321 
  455000   0.52905878   -7.2480439    92.660183  0.016970729  0.015720218          181 
  456000   0.53610167   -7.2412605    92.582796  0.016919371  0.015668563          440 
  457000   0.55230212   -7.2441937    92.408488  0.016850563  0.015617241          510 
  458000   0.53454598   -7.2459774    92.384197  0.016809352  0.015566055          382 
  459000   0.54134556   -7.2659008    92.665221  0.016823751  0.015515078          401 
  460000   0.53244368   -7.2626225    92.529122  0.016762522  0.015464251          452 
  461000   0.53013544   -7.2695433    92.454568  0.016712684  0.015413698          295 
  462000   0.53648525   -7.2558177    92.544471  0.016692726   0.01536323          502 
  463000   0.52706985   -7.2630283    92.373317  0.016625867  0.015313046          444 
  464000   0.52497579   -7.2584331    92.382046  0.016591603   0.01526284          273 
  465000   0.52828067   -7.2810893    92.423666  0.016563381  0.015212824          231 
  466000   0.51454338   -7.2520418    92.460789  0.016534476   0.01516299          175 
  467000   0.52275228    -7.290589    92.468227  0.016500397  0.015113339          446 
  468000   0.51479962   -7.2894268    92.327382  0.016440061  0.015063847          498 
  469000   0.51387382   -7.2823203    92.467148  0.016429841   0.01501447          446 
  470000    0.5195028   -7.2945143    92.399444   0.01638288   0.01496537          448 
  471000   0.51894803   -7.3069411    92.333937  0.016336507  0.014916389          490 
  472000   0.50629572   -7.2908923    92.398057  0.016313216  0.014867569          416 
  473000   0.50602645   -7.3189495    92.142776  0.016233752  0.014818923          506 
  474000   0.50332411   -7.3075227    92.231607  0.016215121  0.014770458          574 
  475000   0.50116303    -7.305365    92.243332  0.016183041  0.014722201          304 
  476000   0.50210112   -7.3237206    92.169165  0.016136058  0.014674151          563 
  477000   0.50716371   -7.3149885    92.265962  0.016119141  0.014626238          554 
  478000   0.51452821   -7.3143575    92.268443  0.016085851  0.014578618          540 
  479000   0.50451872   -7.3199274    92.155059  0.016032543  0.014531078          513 
  480000   0.49645999   -7.3235802    92.055945  0.015981935  0.014483744          579 
  481000   0.50253676   -7.3161773    92.231935  0.015979199  0.014436568          564 
  482000   0.49276122   -7.3159922    92.330661  0.015963116  0.014389525          610 
  483000   0.49646814   -7.3450632    92.019024  0.015876298  0.014342727          591 
  484000     0.492178   -7.3462808    92.154668   0.01586685  0.014296065          550 
  485000   0.50325523   -7.3444767    91.931485  0.015795788  0.014249598          487 
  486000   0.49509987   -7.3590987    92.111256  0.015794111  0.014203265          536 
  487000   0.49379232   -7.3606494    92.112773  0.015761939  0.014157153          603 
  488000    0.4870928   -7.3539087    91.835701  0.015682326  0.014111191          376 
  489000   0.50307858   -7.3718698    92.139099   0.01570196  0.014065426          584 
  490000   0.48715025   -7.3562064    92.227175  0.015684894   0.01401986          561 
  491000   0.47058495   -7.3507528      91.9346  0.015603293  0.013974408          533 
  492000   0.48381663   -7.3351427    92.079148  0.015596062  0.013929175          530 
  493000   0.48478343    -7.368852    91.881525  0.015531022  0.013884064          595 
  494000   0.48326943   -7.3616344    92.142456  0.015543599  0.013839171          555 
  495000   0.48113504   -7.3662911     91.82808  0.015459273  0.013794488          625 
  496000   0.47196291   -7.3481992    91.878234  0.015436531  0.013749945          657 
  497000   0.46309407   -7.3680798    91.932407  0.015414555   0.01370559          539 
  498000   0.47726107   -7.3682925    91.933933  0.015383858  0.013661474          700 
  499000   0.48015297   -7.3809936     91.90716  0.015348557  0.013617531          598 
  500000   0.47873216   -7.3830307    91.891538  0.015315256  0.013573777          640 
  501000   0.47141549   -7.3865746    92.019667  0.015305999  0.013530139          605 
  502000   0.46454542   -7.3887701    91.873565  0.015251256  0.013486652          656 
  503000   0.45394069   -7.3755218    92.093761  0.015257416  0.013443373          608 
  504000   0.46487618   -7.3946005    91.758081   0.01517164  0.013400207          620 
  505000   0.45652845   -7.3937418    91.878257  0.015161429  0.013357138          655 
  506000   0.46716747   -7.3861213     91.88679  0.015132871  0.013314294          600 
  507000   0.46284895   -7.3886088    91.764357  0.015082899  0.013271615          461 
  508000   0.44808743   -7.3940371    91.906163   0.01507647  0.013229129          550 
  509000   0.45546293   -7.4019019    91.912154  0.015047831  0.013186903          620 
  510000   0.45459313   -7.4077215     91.90422  0.015017029  0.013144836          609 
  511000   0.45731369   -7.4132792    91.926255  0.014991235  0.013102858          634 
  512000   0.45011829    -7.407229    91.713878  0.014927389  0.013061039          646 
Loop time of 1300.24 on 48 procs for 500000 steps with 4000 atoms

Performance: 66449.313 tau/day, 384.545 timesteps/s
99.4% CPU use with 48 MPI tasks x no OpenMP threads

MPI task timing breakdown:
Section |  min time  |  avg time  |  max time  |%varavg| %total
---------------------------------------------------------------
Pair    | 93.123     | 98.991     | 106.25     |  32.0 |  7.61
Neigh   | 9.0771     | 9.3973     | 9.9837     |   6.1 |  0.72
Comm    | 82.17      | 89.925     | 96.403     |  34.9 |  6.92
Output  | 1.0215     | 1.0224     | 1.0476     |   0.4 |  0.08
Modify  | 1085.9     | 1088.9     | 1092.5     |   4.8 | 83.75
Other   |            | 11.97      |            |       |  0.92

Nlocal:        83.3333 ave          91 max          75 min
Histogram: 1 1 2 7 8 13 9 3 3 1
Nghost:        2406.92 ave        2425 max        2389 min
Histogram: 4 1 2 9 6 12 7 0 5 2
Neighs:        16723.7 ave       19311 max       14675 min
Histogram: 5 3 10 4 5 7 4 7 1 2
FullNghs:      33447.7 ave       36578 max       30103 min
Histogram: 1 1 3 8 9 11 8 3 3 1

Total # of neighbors = 1605489
Ave neighs/atom = 401.37225
Neighbor list builds = 26739
Dangerous builds = 0

#clear
#
#next RN
#
#jump SELF
Total wall time: 0:21:44
