
units lj                  # Use reduced LJ style units
atom_style atomic         # Uncharged point particles
atom_modify map hash      # Needed for indexing of clusters etc
                          # Used to be able to find where atoms are in relation to each other.

lattice fcc 1.0 spacing 1 1 1
Lattice spacing in x,y,z = 1.5874011 1.5874011 1.5874011
region box block 0 10 0 10 0 10 units lattice
create_box 2 box
Created orthogonal box = (0.0000000 0.0000000 0.0000000) to (15.874011 15.874011 15.874011)
  3 by 4 by 4 MPI processor grid
create_atoms 1 box
Created 4000 atoms
  using lattice units in orthogonal box = (0.0000000 0.0000000 0.0000000) to (15.874011 15.874011 15.874011)
  create_atoms CPU = 0.003 seconds
set type 1 type/fraction 2 0.92 78393
Setting atom values ...
  3673 settings made for type/fraction
mass 1 1.0
mass 2 1.0
pair_style lj/cut  3.5
pair_modify tail  yes
pair_coeff 1  1  1.0  1.0   # Intearaction between 1 and 1 set with epsilon = 1 and sigma = 1
pair_coeff 1  2  1.5  0.8
pair_coeff 2  2  0.5  0.88

write_data data.0
System init for write_data ...
Neighbor list info ...
  update every 1 steps, delay 10 steps, check yes
  max neighbors/atom: 2000, page size: 100000
  master list distance cutoff = 3.8
  ghost atom cutoff = 3.8
  binsize = 1.9, bins = 9 9 9
  1 neighbor lists, perpetual/occasional/extra = 1 0 0
  (1) pair lj/cut, perpetual
      attributes: half, newton on
      pair build: half/bin/atomonly/newton
      stencil: half/bin/3d
      bin: standard
WARNING: Not all mixed pair coeffs generated from mixing. Use write_data with 'pair ij' option to store all pair coeffs. (../write_data.cpp:312)


#############################
#   M E L T   S Y S T E M   #
#############################

velocity all create 2.4 5833274 mom yes dist gaussian # Assign velocities
                                                    # Temperature 2.4, random number seed, zero linear momentum
                                                                                # Gaussian distribution

timestep 0.002   # simulation timestep
thermo 1000       # output thermodynamic data every 1000 steps bf 100

# Define a fix  in this case with index 1 applied to all
# particles in the simulation. This fix is for simulations
# in the anisotropic NPT ensemble. Note that we use the MTK
# correction.
fix 1 all npt temp 2.4 2.4 0.1 iso 5.68 5.68 0.5 mtk yes tchain 5 pchain 5 # Use NPT ensemble
                                                                         # Set temperature and pressure and damping
                                                                         # Numbers of thermostats in chain and in barostat
run 10000          # run for 10000 steps
Per MPI rank memory allocation (min/avg/max) = 3.642 | 3.644 | 3.648 Mbytes
Step Temp E_pair E_mol TotEng Press Volume 
       0          2.4   -3.0929104            0   0.50618957   -2.4174795         4000 
    1000    2.3792094   -2.0396667            0    1.5282552    5.8351001    4057.0665 
    2000    2.3500743   -2.1016459            0    1.4225844    5.5490499    4040.8146 
    3000    2.3953862   -2.1073145            0    1.4848665    5.4082789    4061.8465 
    4000    2.3330627   -2.0671848            0    1.4315343    5.5532324    4077.5884 
    5000    2.3830128   -2.0830858            0    1.4905397    5.6494178    4056.7395 
    6000    2.4114868   -2.0442245            0    1.5721014    5.9871121    4027.5546 
    7000    2.3669002   -2.0844871            0    1.4649756    5.7491826    4027.7764 
    8000    2.4260156   -2.0675887            0    1.5705249    5.5262428    4096.9635 
    9000    2.3728492   -2.0720155            0    1.4863685    5.4104594    4094.5509 
   10000    2.4506112   -2.0989319            0    1.5760659    5.5980787    4050.7263 
Loop time of 2.4728 on 48 procs for 10000 steps with 4000 atoms

Performance: 698802.274 tau/day, 4043.995 timesteps/s
99.6% CPU use with 48 MPI tasks x no OpenMP threads

MPI task timing breakdown:
Section |  min time  |  avg time  |  max time  |%varavg| %total
---------------------------------------------------------------
Pair    | 1.0682     | 1.144      | 1.2083     |   2.7 | 46.26
Neigh   | 0.20662    | 0.21496    | 0.21993    |   0.7 |  8.69
Comm    | 0.77351    | 0.83921    | 0.92745    |   3.7 | 33.94
Output  | 0.0002539  | 0.00026017 | 0.00032899 |   0.0 |  0.01
Modify  | 0.22759    | 0.25926    | 0.29034    |   3.5 | 10.48
Other   |            | 0.01513    |            |       |  0.61

Nlocal:        83.3333 ave          93 max          75 min
Histogram: 4 2 8 7 6 5 7 3 5 1
Nghost:        1629.69 ave        1666 max        1596 min
Histogram: 1 3 7 9 6 8 4 3 4 3
Neighs:        9421.19 ave       10851 max        8170 min
Histogram: 4 2 5 7 10 6 6 3 3 2

Total # of neighbors = 452217
Ave neighs/atom = 113.05425
Neighbor list builds = 909
Dangerous builds = 210

# Equilibrate just above the melting temperature to avoid step fn in T

fix 1 all npt temp 1.25 1.25 0.1 iso 5.68 5.68 0.5 mtk yes tchain 5 pchain 5
run 2000
Per MPI rank memory allocation (min/avg/max) = 3.643 | 3.645 | 3.649 Mbytes
Step Temp E_pair E_mol TotEng Press Volume 
   10000    2.4506112   -2.0989319            0    1.5760659    5.5980787    4050.7263 
   11000    1.2255799   -3.1120046            0   -1.2740943    5.6467237    3155.3771 
   12000    1.2637147   -3.1105662            0    -1.215468    5.6655973    3147.8015 
Loop time of 0.606712 on 48 procs for 2000 steps with 4000 atoms

Performance: 569627.648 tau/day, 3296.456 timesteps/s
99.6% CPU use with 48 MPI tasks x no OpenMP threads

MPI task timing breakdown:
Section |  min time  |  avg time  |  max time  |%varavg| %total
---------------------------------------------------------------
Pair    | 0.26296    | 0.2924     | 0.32312    |   2.4 | 48.19
Neigh   | 0.039572   | 0.04221    | 0.047681   |   0.7 |  6.96
Comm    | 0.18602    | 0.22089    | 0.25402    |   3.0 | 36.41
Output  | 5.7632e-05 | 6.0117e-05 | 7.6785e-05 |   0.0 |  0.01
Modify  | 0.042989   | 0.046367   | 0.049791   |   0.8 |  7.64
Other   |            | 0.004783   |            |       |  0.79

Nlocal:        83.3333 ave          93 max          75 min
Histogram: 1 6 6 5 8 10 4 5 0 3
Nghost:        1929.33 ave        1953 max        1904 min
Histogram: 2 4 3 6 5 11 7 5 2 3
Neighs:        12134.9 ave       14217 max       10603 min
Histogram: 5 2 9 8 3 13 3 3 1 1

Total # of neighbors = 582474
Ave neighs/atom = 145.61850
Neighbor list builds = 145
Dangerous builds = 17

#############################
# L I N E A R  Q U E N C H  #
#############################

# Define solid atoms. This closely follows ten Wolde  Ruiz-Montero and Frenkel  Faraday Discuss  1996  104  93-110
# Compute components of the per-atom q6 vector
compute q6 all orientorder/atom degrees 1 6 components 6 nnn NULL cutoff 1.3 # compute the Q6 parameter.
                                                                             # Use all neighbours within 1.3 unit cell.

# get number of connections
compute coord_number all coord/atom orientorder q6 0.5

# An atom is solid if it has 8 or more connections (of a possible 14)
variable is_solid atom c_coord_number>=8
group solid dynamic all var is_solid    # Must be dynamic to update
dynamic group solid defined

# do clustering
compute cluster solid cluster/atom 1.3 # Create a cluster where all atoms within are solid and max 1.3 units from another member

# define chunks one chunk per cluster
compute clus_chunks solid chunk/atom c_cluster nchunk every compress yes  # Says which atoms are in which chunk

# count the size of each chunk
compute size_chunks solid property/chunk clus_chunks count


# Find the maximum entry in the vector of chunk sizes
variable max_n equal max(c_size_chunks)


# Thermo style which includes this variable
# thermo_style custom step temp pe vol v_max_n

thermo ${N}  # Print the thermo information every 100 steps
thermo 1000  

# Reset the npt fix at a lower temperature (below freezing)
fix 1  all npt temp  ${temp} ${temp}  0.1  iso  5.68  5.68  0.5  mtk yes tchain  5  pchain  5
fix 1  all npt temp  0.45 ${temp}  0.1  iso  5.68  5.68  0.5  mtk yes tchain  5  pchain  5
fix 1  all npt temp  0.45 0.45  0.1  iso  5.68  5.68  0.5  mtk yes tchain  5  pchain  5

dump dmp2 all dcd ${N} traj.dcd
dump dmp2 all dcd 1000 traj.dcd


compute msd all msd com yes
variable twopoint equal c_msd[4]/6/(step*dt+1.0e-6)
fix 9 all vector 10 c_msd[4]
variable fit equal slope(f_9)/6/(10*dt)
thermo_style custom step temp pe c_msd[4] v_twopoint v_fit v_max_n

fix 1 all npt temp 1.25 ${temp} 0.1 iso 5.68 5.68 0.5 mtk yes tchain 5 pchain 5
fix 1 all npt temp 1.25 0.45 0.1 iso 5.68 5.68 0.5 mtk yes tchain 5 pchain 5
run 5000000 # 5000000  # Run for this many steps
Neighbor list info ...
  update every 1 steps, delay 10 steps, check yes
  max neighbors/atom: 2000, page size: 100000
  master list distance cutoff = 3.8
  ghost atom cutoff = 3.8
  binsize = 1.9, bins = 8 8 8
  4 neighbor lists, perpetual/occasional/extra = 1 3 0
  (1) pair lj/cut, perpetual
      attributes: half, newton on
      pair build: half/bin/atomonly/newton
      stencil: half/bin/3d
      bin: standard
  (2) compute orientorder/atom, occasional
      attributes: full, newton on
      pair build: full/bin/atomonly
      stencil: full/bin/3d
      bin: standard
  (3) compute coord/atom, occasional
      attributes: full, newton on
      pair build: full/bin/atomonly
      stencil: full/bin/3d
      bin: standard
  (4) compute cluster/atom, occasional
      attributes: full, newton on
      pair build: full/bin/atomonly
      stencil: full/bin/3d
      bin: standard
Per MPI rank memory allocation (min/avg/max) = 9.822 | 9.827 | 9.831 Mbytes
Step Temp PotEng c_msd[4] v_twopoint v_fit v_max_n 
   12000    1.2637147   -3.1105662            0            0 8.3333333e+20            4 
   13000     1.258663   -3.1002453    1.0353049 0.0066365693  0.088480608            2 
   14000    1.2357914   -3.1138597    2.1393625    0.0127343  0.089882524            1 
   15000    1.2221328   -3.1212607    3.2786843  0.018214912  0.091745316            4 
   16000    1.2599739   -3.0852326    4.3431442  0.022620542  0.091442395            2 
   17000    1.2593396   -3.0970363    5.4326421  0.026630598  0.091134166            1 
   18000    1.2531404   -3.1012341    6.4378084  0.029804668  0.090411607            2 
   19000    1.2220605   -3.1312346    7.6524671  0.033563451  0.090708799            2 
   20000    1.2597487   -3.1049584     8.827814  0.036782557  0.091535702            4 
   21000     1.252675   -3.0959944     9.994048   0.03965892  0.092140909            2 
   22000    1.2534004   -3.0931571    11.171384  0.042315846  0.092821906            1 
   23000    1.2421524    -3.121216    12.320343  0.044638922  0.093296305            2 
   24000    1.2765662   -3.1333731    13.289807  0.046145161  0.093479852            3 
   25000     1.236718   -3.1147557    14.436985  0.048123282  0.093480114            1 
   26000    1.2544134   -3.1068935    15.522082  0.049750262   0.09339052            1 
   27000    1.2536479   -3.1216595    16.594028  0.051216135  0.093201648            1 
   28000    1.2396657   -3.0627562    17.697281  0.052670477  0.092986577            1 
   29000    1.2618135   -3.1272222    18.672263  0.053655928  0.092813344            2 
   30000    1.2365114    -3.076543    19.965309   0.05545919  0.092681088            1 
   31000    1.2420027   -3.1126039    21.096706  0.056711575  0.092762788            2 
   32000    1.2437219   -3.1185609    22.396665  0.058324647  0.092939439            1 
   33000    1.2198835    -3.120962    23.207716  0.058605343   0.09295482            2 
   34000     1.242719   -3.0609919    24.426099  0.059867888  0.092890168            1 
   35000    1.2111965   -3.1096406    25.238408  0.060091447  0.092765529            3 
   36000    1.2605737   -3.1226484    26.438508   0.06120025  0.092540669            1 
   37000    1.2725364   -3.1134222    27.497739  0.061931845   0.09240542            1 
   38000    1.2359753   -3.1293694    28.874213  0.063320642  0.092331466            1 
   39000    1.2356377   -3.1129512    30.094876  0.064305291  0.092457556            1 
   40000    1.2222084   -3.0908021    31.097778  0.064787036   0.09251297            2 
   41000    1.2704616   -3.0881417    32.078276  0.065199748  0.092523482            1 
   42000    1.2091433   -3.1066427      33.4325  0.066334325  0.092508763            1 
   43000    1.2575896   -3.1482642    34.205579  0.066289881  0.092536263            1 
   44000    1.2369592   -3.1221167    35.542809  0.067315926  0.092526657            1 
   45000    1.2610901   -3.0845207    36.924728  0.068379125  0.092571842            1 
   46000    1.2319073   -3.1554699     38.14062  0.069095325  0.092731322            2 
   47000    1.2415377   -3.1277177    39.308454  0.069695839  0.092926673            2 
   48000    1.1981646   -3.1013017    40.292572  0.069952382  0.093019073            2 
   49000    1.2662176   -3.1235988    41.248347   0.07015025  0.093054263            4 
   50000    1.2688131   -3.1094662    42.126681  0.070211134  0.093081382            1 
   51000     1.224429   -3.1362588     43.01685  0.070288969  0.093025521            1 
   52000    1.2373895   -3.1317119    44.282539  0.070965607  0.092916384            1 
   53000     1.234172   -3.1185065    45.314445  0.071249127  0.092845594            1 
   54000    1.2268388   -3.1213923    46.217773  0.071323724  0.092775048            1 
   55000    1.2410405   -3.1209859    47.307212  0.071677593  0.092674774            3 
   56000    1.2337465   -3.1278216    48.213663  0.071746521  0.092553523            1 
   57000    1.2472078   -3.1141858    49.319351  0.072104313  0.092428046            2 
   58000    1.2664483   -3.1151344    50.768694  0.072943525  0.092338371            2 
   59000    1.2385579    -3.155046    51.406611  0.072608207  0.092261264            2 
   60000     1.258045   -3.1200907    52.569274  0.073012879  0.092149413            1 
   61000    1.2623146   -3.1028282    53.649289  0.073291378  0.092019805            2 
   62000    1.2435412   -3.1127825    54.686984  0.073504011  0.091860008            1 
   63000    1.2292144   -3.0733805    55.704728  0.073683502  0.091743706            5 
   64000    1.2443612    -3.140149    56.675246  0.073795893  0.091606458            2 
   65000    1.2449466   -3.0998542    57.595053  0.073839811  0.091471293            2 
   66000    1.2383087   -3.1345899    58.661675  0.074067771  0.091343245            3 
   67000    1.2436215   -3.1311316    59.980728  0.074602895  0.091253511            3 
   68000    1.2429409   -3.1279664    61.201139  0.075001395  0.091207253            3 
   69000    1.2487061   -3.1247264    62.333971  0.075282574  0.091155796            1 
   70000    1.2280162   -3.1075064    63.070855  0.075084351  0.091107786            1 
   71000    1.2236309   -3.1056522    64.269356  0.075433516   0.09104377            1 
   72000     1.229478   -3.1078863    65.157619   0.07541391  0.090973637            1 
   73000    1.2490816   -3.1205748    66.590385   0.07601642  0.090934324            2 
   74000    1.2487114   -3.1154297    68.105301  0.076695159  0.090907216            1 
   75000    1.2484483   -3.1032693    68.982154  0.076646837   0.09091231            1 
   76000    1.2543004   -3.0961407    70.345295  0.077132998  0.090927712            2 
   77000    1.2377443   -3.1442674    71.094336  0.076941922   0.09093935            2 
   78000    1.2183859   -3.1334492      72.6342   0.07760064  0.090965056            1 
   79000    1.2387289   -3.1299645     73.36421  0.077388407   0.09096967            4 
   80000    1.2112672   -3.1417047    74.081399  0.077168123  0.090979292            1 
   81000    1.2410945   -3.1153678    75.587822  0.077765248  0.090961669            1 
   82000    1.2468312   -3.1265398    76.705786  0.077953034  0.090960508            2 
   83000    1.2770736   -3.1321405    78.131853  0.078445635  0.090971578            1 
   84000    1.2265391   -3.1283893    78.787779  0.078162479  0.091004269            1 
   85000    1.2516394   -3.0972301    80.310353   0.07873564  0.091025058            1 
   86000    1.2272005   -3.1132909    81.439458  0.078914203  0.091053668            1 
   87000    1.2425699     -3.16535    82.213734  0.078748787  0.091090074            1 
   88000    1.2586603   -3.1185153    83.693325  0.079255042  0.091126484            2 
   89000    1.2485549   -3.1175196    85.331313  0.079898233  0.091187294            2 
   90000    1.2307992   -3.1347446    86.676187  0.080255728   0.09126512            2 
   91000    1.2547788    -3.127079    87.458477   0.08009018  0.091341827            2 
   92000    1.2137125   -3.1142402    89.290791   0.08087934  0.091427713            1 
   93000    1.2403346   -3.1171129    90.345364  0.080954627  0.091523528            1 
   94000    1.2303361    -3.119783    90.805607  0.080501424  0.091607716            2 
   95000    1.2547805   -3.1102864    92.114907   0.08080255  0.091671993            2 
   96000    1.2287368   -3.1514971    92.742436  0.080505586  0.091715886            3 
   97000    1.2473404   -3.1285545    94.177127  0.080908184  0.091769636            3 
   98000     1.227581   -3.1147267    95.881457  0.081531851  0.091805432            2 
   99000    1.2428485   -3.1119757    96.870486  0.081540813  0.091852592            2 
  100000    1.2277003    -3.170566    97.908442  0.081590368  0.091895554            2 
  101000    1.2642055   -3.1405158    98.728911  0.081459497  0.091946621            2 
  102000    1.2415929   -3.0973678     100.4559  0.082071815  0.092000449            2 
  103000    1.2441664   -3.1171806    101.64071  0.082233584  0.092081553            1 
  104000    1.2272257   -3.1401922    102.88164  0.082437211   0.09215637            1 
  105000    1.2127877   -3.1628728    103.75735  0.082347101  0.092223326            1 
  106000    1.2076576   -3.1548124    105.13734  0.082655142  0.092286346            1 
  107000      1.22866   -3.1442232    106.08026  0.082617028  0.092349778            2 
  108000    1.2450822   -3.1342616    107.47077  0.082924977  0.092400975            1 
  109000    1.2232814    -3.127118     108.4257  0.082894269  0.092463811            3 
  110000    1.1988404   -3.1340368    109.72583  0.083125627  0.092504796            1 
  111000    1.2323339   -3.1150933    110.50047  0.082958311    0.0925477            1 
  112000    1.2359373    -3.128718    111.46384  0.082934403  0.092587746            3 
  113000     1.231715   -3.0976694    112.73538  0.083138185  0.092622081            1 
  114000    1.2441511    -3.143302    113.88652  0.083250381  0.092657566            1 
  115000    1.2395478   -3.1435115    115.37182  0.083602765  0.092691213            2 
  116000    1.2280175   -3.1181921    116.76969  0.083886275  0.092734086            2 
  117000    1.2389174    -3.131375    118.17375  0.084169337  0.092792339            3 
  118000    1.2050069   -3.1331085    119.52811  0.084412505  0.092870743            1 
  119000    1.2299404   -3.1355092    120.81717  0.084605862  0.092953611            1 
  120000    1.2511142   -3.1233822    122.18701   0.08485209  0.093034397            2 
  121000    1.2610653   -3.1261208    122.75433  0.084541551  0.093115739            2 
  122000    1.2183745   -3.1512753    124.01304  0.084708363  0.093195266            2 
  123000    1.2272796   -3.1340243     125.3786  0.084944849   0.09325929            3 
  124000    1.2305792   -3.1122379    126.41741  0.084957938  0.093312265            1 
  125000    1.2150772   -3.1228776    127.07125  0.084714167  0.093366346            1 
  126000    1.2448394   -3.1614761    128.79634  0.085182764  0.093425952            1 
  127000    1.2629691   -3.1593041    129.90908  0.085242181  0.093491173            4 
  128000    1.2522468   -3.1339695    131.31476   0.08549138  0.093559189            4 
  129000    1.2147804   -3.1536268    131.92692  0.085224108  0.093617028            4 
  130000    1.2475979   -3.1507358    132.78283  0.085117201  0.093668863            2 
  131000    1.2418566   -3.1438295    133.84789  0.085144971  0.093722065            2 
  132000    1.2358365   -3.1103702    135.13716  0.085313865  0.093759812            1 
  133000    1.2407899    -3.157547    136.36343  0.085440747  0.093805838            1 
  134000    1.2474911   -3.1262714    137.54223  0.085536212  0.093843496            1 
  135000    1.2393195   -3.1173072    138.17602  0.085293841  0.093868637            3 
  136000    1.2433027   -3.1487835    139.59684  0.085537277  0.093893314            1 
  137000    1.2283166   -3.1300286    140.62634  0.085539138  0.093917204            2 
  138000    1.2370073   -3.0925393    141.57113  0.085489813  0.093940114            1 
  139000    1.2343496   -3.1440847    142.60683    0.0854957  0.093956182            1 
  140000    1.2405154   -3.1208378    144.04088   0.08573862  0.093966673            3 
  141000    1.2204042   -3.0938298    145.44606  0.085961029  0.093985779            1 
  142000    1.2211705   -3.1601906    145.30141  0.085270778  0.094010623            2 
  143000    1.2334992   -3.1502234    147.34077  0.085862921  0.094016591            1 
  144000    1.2107946    -3.138806    148.51468  0.085945993  0.094028086            2 
  145000     1.228238   -3.1424228     149.3243  0.085818565  0.094050142            3 
  146000    1.1971378   -3.1392045    151.46989  0.086455414  0.094068153            2 
  147000    1.2168657   -3.1455693    152.62573   0.08652252    0.0940888            1 
  148000    1.2246259   -3.1576505    153.94114  0.086678567  0.094118136            2 
  149000    1.2072262   -3.1307251    154.88038  0.086622136  0.094157648            1 
  150000    1.2627832   -3.1411842    156.43006   0.08690559  0.094195732            1 
  151000    1.2270693   -3.1258394    157.85401  0.087115898  0.094241164            4 
  152000    1.2303027   -3.1287756    159.30324  0.087337302  0.094285768            1 
  153000    1.2261662   -3.1292156    159.84398  0.087060989  0.094317241            1 
  154000     1.212588   -3.1531783    160.54785  0.086876542  0.094339185            3 
  155000    1.2296175   -3.1073576    161.14051   0.08663468  0.094368563            2 
  156000    1.2097148   -3.1259294    163.14585  0.087150561  0.094382738            2 
  157000    1.2567815   -3.1592416    163.12505  0.086584421  0.094389457            3 
  158000    1.2155691    -3.123106    165.68589  0.087387071  0.094395449            2 
  159000    1.2119205    -3.143852    165.88123   0.08693985   0.09441164            1 
  160000    1.1974093   -3.1395494    166.81436  0.086882478  0.094420533            2 
  161000    1.2435022   -3.1555847    167.98065  0.086946507  0.094433001            2 
  162000    1.2502827   -3.1517272    169.74737  0.087318605  0.094458847            2 
  163000    1.2511082   -3.1599396    171.10225  0.087475587  0.094477756            3 
  164000    1.2319615   -3.1515243    171.70827  0.087250138  0.094496229            1 
  165000     1.230835   -3.1414199    173.01716  0.087382405  0.094513915            1 
  166000     1.234724   -3.1494117     174.6918  0.087696688  0.094533203            2 
  167000    1.2109986   -3.1572322    175.52205  0.087585851  0.094555042            1 
  168000    1.2239861   -3.1748803    175.88172  0.087242918  0.094573229            2 
  169000    1.2105213   -3.1503368    177.58663  0.087567374  0.094589205            1 
  170000    1.2461525   -3.1188533    177.76635  0.087140366  0.094596993            1 
  171000    1.2161701   -3.1450571    179.25328  0.087355397  0.094591202            2 
  172000    1.2414791   -3.1159521    180.54942  0.087475493  0.094585118            1 
  173000    1.2160159    -3.137419    181.20451  0.087285409  0.094581846            2 
  174000    1.2110038     -3.14612     182.3174  0.087316761  0.094571924            6 
  175000    1.2138153   -3.1644849    183.30812  0.087289579  0.094558673            2 
  176000     1.230574   -3.1490021     183.4474  0.086859563  0.094539015            2 
  177000    1.2100057   -3.1310557     185.4624  0.087317515  0.094520485            1 
  178000    1.2247452   -3.1383756    185.31585  0.086758355  0.094496733            2 
  179000    1.2058314   -3.1402441    186.81059  0.086969549  0.094469242            2 
  180000    1.2165462   -3.1278431    187.06675  0.086604976  0.094441092            1 
  181000    1.2056178   -3.1793189    188.30817  0.086698054  0.094417731            3 
  182000     1.178073   -3.1291238    190.48335  0.087217651  0.094392306            2 
  183000    1.2297039   -3.1189506    191.19349  0.087064432  0.094366726            1 
  184000    1.1960325   -3.1647047    190.78798  0.086407598  0.094340307            2 
  185000    1.2191233    -3.127899    192.18578  0.086570171  0.094306924            2 
  186000    1.2167133    -3.163056    193.95516  0.086897474  0.094266339            1 
  187000    1.2388932   -3.1417856    195.55694  0.087146587  0.094230249            2 
  188000    1.2515778   -3.1707992    196.22697  0.086980038  0.094191694            2 
  189000    1.2654413    -3.121458    197.21827   0.08695691  0.094158583            2 
  190000    1.2458825   -3.1525368    197.88762  0.086792817  0.094128318            2 
  191000    1.2143247   -3.1614108    198.24086   0.08649252  0.094092965            1 
  192000    1.2267032   -3.1581442    199.03983  0.086388816  0.094048771            1 
  193000    1.2135259   -3.1206889    200.57452  0.086603852    0.0940095            4 
  194000    1.2218334   -3.1548998    202.21674  0.086862859  0.093973985            2 
  195000    1.2106836   -3.1730393    203.70657   0.08705409  0.093940665            2 
  196000    1.2148245   -3.1070572    204.38836  0.086899814  0.093907983            2 
  197000    1.2200732   -3.1087856     205.8171  0.087063072  0.093878318            1 
  198000    1.1949897   -3.1441498    206.93554  0.087094083  0.093848872            2 
  199000     1.217092   -3.1738432    206.76852  0.086586483  0.093816345            5 
  200000    1.2370192   -3.1602215    207.49655  0.086456897  0.093785113            1 
  201000    1.2225508   -3.1481705    209.64443  0.086917258  0.093751165            3 
  202000       1.2249   -3.1615018    211.07663  0.087077817  0.093720765            3 
  203000    1.1969958   -3.1496616    211.68452  0.086898406  0.093689842            1 
  204000    1.2037696   -3.1401658    212.02885  0.086613093  0.093657644            2 
  205000    1.2242773   -3.1592533    212.55882  0.086406026  0.093621024            1 
  206000    1.2018519   -3.1775246    214.97622  0.086964489  0.093583149            1 
  207000    1.2016583    -3.138191    215.15726  0.086617256  0.093542933            1 
  208000    1.2186323   -3.1512014    217.22562  0.087029496   0.09350622            2 
  209000    1.2544676   -3.1190664    218.30404  0.087043078  0.093475829            1 
  210000    1.2347571   -3.1283545    218.51286  0.086711453  0.093446432            1 
  211000    1.2212844   -3.1371746    220.00295     0.086889  0.093417196            3 
  212000    1.2262022   -3.1249512    220.85324   0.08681338  0.093382227            3 
  213000    1.2330737   -3.1636356    222.28567  0.086966226  0.093349263            2 
  214000    1.2387224     -3.15396     224.7088  0.087503427  0.093322202            2 
  215000    1.2332317   -3.1337101    225.25314  0.087307417  0.093304415            2 
  216000    1.2143843    -3.125521    227.18109  0.087647026  0.093284738            2 
  217000    1.2114737    -3.149935    227.38444  0.087321212  0.093265107            2 
  218000    1.2392958   -3.1565318    229.25801  0.087636853  0.093246281            2 
  219000    1.1947803   -3.1195106    230.16201  0.087580672  0.093229924       -1e+20 
  220000    1.2280009   -3.1210998    230.41932  0.087280045  0.093212233            1 
  221000    1.2125103   -3.1590188    231.72172  0.087376212  0.093191725            1 
  222000    1.2168334   -3.1780199    231.22284  0.086795359  0.093161053            3 
  223000    1.2182975   -3.1883171     232.7919   0.08699249   0.09313269            4 
  224000    1.2216129   -3.1280811    233.80652  0.086981594    0.0931062            1 
  225000    1.1935655    -3.143849    235.81939  0.087340514  0.093075556            2 
  226000    1.1965432   -3.1511838    236.43709  0.087181818   0.09304089            1 
  227000    1.2144116   -3.1500864     237.7149   0.08726685  0.093012968            3 
  228000     1.228176   -3.1747044    239.02356  0.087362414  0.092983764            2 
  229000    1.1982156   -3.1520193    240.51617  0.087524079  0.092957196            1 
  230000    1.1934005   -3.1584915    240.35207  0.087084082  0.092931132            2 
  231000     1.219315   -3.1367011    240.79424   0.08686661  0.092899642            1 
  232000    1.2157106   -3.1646484    242.92085  0.087256052  0.092870989            2 
  233000    1.2447264   -3.1401401    244.44676  0.087427309  0.092847946            1 
  234000    1.2260542   -3.1608648    245.01504   0.08725607  0.092825866            4 
  235000    1.1955555   -3.1526312    247.17023  0.087649017  0.092806931            3 
  236000    1.1933918   -3.1661688    246.98213  0.087211205   0.09278878            2 
  237000    1.2133418   -3.1661906    248.29209  0.087303829  0.092773745            1 
  238000    1.2494551   -3.1368751    250.25071  0.087622799  0.092757839            2 
  239000    1.1990802   -3.1506739    251.52846  0.087701695  0.092740364            1 
  240000    1.2045136   -3.1488885    251.64571  0.087376982  0.092724497            2 
  241000    1.1968911   -3.1600078    252.95746  0.087468002  0.092702923            1 
  242000     1.193695   -3.1492174    252.50819  0.086951856  0.092678089            1 
  243000    1.2259733   -3.1938066    254.73009  0.087355997  0.092650984            2 
  244000    1.2350634   -3.1415244    255.23348  0.087169905  0.092623771            4 
  245000    1.2131391   -3.1502184    256.37181  0.087201295  0.092593729            3 
  246000    1.1958773   -3.1709666    256.07699  0.086746947  0.092561673            1 
  247000    1.2209677    -3.150979    257.73279  0.086954382  0.092530302            2 
  248000     1.197435    -3.143343    258.44591  0.086843385  0.092498661            1 
  249000    1.2137606   -3.1446462    260.69133  0.087246095  0.092468559            2 
  250000    1.2150008   -3.1354849    260.81672  0.086938908  0.092439567            3 
  251000    1.1833153    -3.144961    262.39672  0.087117103  0.092409606            2 
  252000    1.2265096   -3.1425822    264.56328  0.087487858  0.092381849            1 
  253000    1.2085197   -3.1385022    264.22889  0.087031913  0.092351482            2 
  254000    1.2051785   -3.1200438    264.97816  0.086935091  0.092320495            2 
  255000     1.209497    -3.172561    265.51481  0.086769545  0.092290037            1 
  256000    1.2222916   -3.1657673    266.74892  0.086832329  0.092259563            2 
  257000    1.2034842   -3.1595164    268.04335  0.086914187  0.092225899            2 
  258000    1.2137802   -3.1625564    268.27868  0.086653321  0.092193836            3 
  259000     1.189088   -3.1262498    270.15318  0.086921873  0.092163445            2 
  260000    1.2039416   -3.1594132    271.79284   0.08711309  0.092132199            2 
  261000    1.2198484   -3.1890556    272.03611  0.086856997    0.0921022            2 
  262000    1.2024376   -3.1599532    273.99988  0.087150088  0.092076889            2 
  263000    1.2147396   -3.1685505    274.19739  0.086881302  0.092049918            2 
  264000    1.2026936   -3.1485757    275.30158  0.086900751  0.092022178            1 
  265000    1.2150748   -3.1358361    276.85517  0.087061375  0.091992688            1 
  266000     1.203703   -3.1353442    277.64256  0.086980752  0.091963907            3 
  267000    1.2081191   -3.1648239     277.2975  0.086547284  0.091934263            3 
  268000    1.1870485   -3.1664779    280.61689  0.087256496  0.091909993            3 
  269000    1.2187339   -3.1512403    280.67106  0.086948903  0.091891116            5 
  270000    1.1905535   -3.1604484    282.55266  0.087207611   0.09187015            1 
  271000    1.2341186   -3.1445438    283.01584  0.087028242  0.091843554            4 
  272000    1.1774325   -3.1633166    283.43776   0.08683755  0.091818955            1 
  273000    1.1812245   -3.1513267    286.33738  0.087404571  0.091792979            2 
  274000    1.1817705   -3.1733612    285.83296  0.086932165  0.091771228            5 
  275000    1.2124588   -3.1813509     288.4011  0.087394273   0.09175204            1 
  276000    1.2065729   -3.1345134    289.74633  0.087483796  0.091740285            1 
  277000    1.2151918   -3.1621718    289.35418  0.087049994  0.091725402            2 
  278000    1.1894992   -3.1621771    291.40425  0.087351393  0.091710004            4 
  279000    1.2370105   -3.1718341    292.07936  0.087239952  0.091693648            3 
  280000    1.2141363   -3.1881017    292.39802  0.087023219  0.091676215            2 
  281000    1.1924712   -3.1749525    293.32355  0.086988005  0.091657515            6 
  282000    1.2263103   -3.1636489     294.9975  0.087174202  0.091639786            2 
  283000    1.2064222   -3.1502243    297.36684  0.087563852  0.091620925            1 
  284000     1.201794   -3.1720031    297.47717  0.087287902   0.09160427            4 
  285000    1.1908643   -3.1542534    299.13959  0.087467715   0.09158827            2 
  286000    1.1901378   -3.1569974     300.1121  0.087445252  0.091572329            1 
  287000    1.2138334   -3.1791815    301.72793  0.087609737  0.091561201            2 
  288000    1.2289045   -3.1646336    303.51076    0.0878214  0.091553373            1 
  289000     1.212059   -3.1354212    303.62763   0.08755122  0.091543691            3 
  290000    1.1872507   -3.1252499    305.81345  0.087877428  0.091532521            2 
  291000    1.2006428     -3.12395      306.527  0.087779783  0.091518786            2 
  292000    1.2087409   -3.1406994    308.33299  0.087994574  0.091509601            3 
  293000    1.1764686   -3.1557191    307.67112  0.087506006  0.091500069            5 
  294000    1.2118615   -3.1533917    307.89845  0.087272804  0.091486024            2 
  295000    1.1902954   -3.1422885    310.46514  0.087702016  0.091472264            1 
  296000    1.1765067     -3.15225    311.31546  0.087645117  0.091459649            1 
  297000    1.2065879   -3.1748273    312.66412  0.087728429  0.091445722            2 
  298000    1.1863487   -3.1365837     313.7409  0.087735151  0.091430327            2 
  299000    1.2088226   -3.1698054    315.30178  0.087876751  0.091418687            1 
  300000    1.2264902   -3.1599472    315.68643  0.087690674  0.091403191            1 
  301000    1.1992812   -3.1583043    316.42284  0.087603222  0.091387145            1 
  302000    1.1902796   -3.1471123    318.81981  0.087974561  0.091376275            1 
  303000    1.1947232   -3.1805878    318.76169  0.087668231  0.091366083            1 
  304000    1.1755963   -3.1680881    319.64909  0.087623105  0.091354309            1 
  305000    1.2060871   -3.1495059    320.58594  0.087591787   0.09133859            2 
  306000     1.207253   -3.1608629    321.36499  0.087517698  0.091327172            1 
  307000    1.2194255   -3.1723221    322.25581  0.087474431   0.09131472            1 
  308000    1.2070072    -3.165043    323.33059   0.08748122  0.091300094            2 
  309000    1.2150032   -3.1766421    322.89123  0.087079621  0.091280868            1 
  310000    1.2190859   -3.1548205    324.34998  0.087190855  0.091261089            2 
  311000    1.2154665   -3.1525292    323.82009  0.086768513   0.09124029            2 
  312000    1.2289148    -3.193847    326.42731  0.087186782  0.091217141            2 
  313000    1.2156331   -3.2010255    325.05718  0.086543444   0.09119161            2 
  314000    1.1980088   -3.1825681    329.89804  0.087552558  0.091172239            2 
  315000    1.1987712   -3.1841461    328.27201  0.086844447  0.091152085            2 
  316000    1.1883288   -3.1675886     332.6666  0.087728534  0.091135232            1 
  317000    1.1875082    -3.165367    333.29069   0.08761585  0.091120393            1 
  318000    1.1773237   -3.1687466    332.76748  0.087203217  0.091104441            2 
  319000    1.2014358    -3.180857    333.78536  0.087195758  0.091087123            3 
  320000    1.2174285   -3.1680978    334.60618  0.087137027  0.091067386            2 
  321000    1.2006912   -3.1714377    335.30546  0.087047108  0.091050515            2 
  322000    1.1935847   -3.1706847    337.21564  0.087271129  0.091034395            3 
  323000    1.1977942    -3.187367    337.85157  0.087165009  0.091014949            1 
  324000    1.2281946    -3.128025    339.36214  0.087284502  0.090999176            2 
  325000    1.2111925   -3.1809202    340.78626  0.087381093  0.090983706            1 
  326000    1.2102708   -3.1990403    342.48133  0.087546353  0.090968787            1 
  327000    1.2195581   -3.1723903    344.16797  0.087708452  0.090957029            2 
  328000    1.2144482   -3.1708464    343.88165  0.087368304  0.090944515            1 
  329000    1.2140068   -3.1909742    343.04767  0.086891506  0.090932139            2 
  330000    1.1804346   -3.1686379    346.38737  0.087471557  0.090918909            2 
  331000    1.2040903    -3.135114    348.76369  0.087805561  0.090903788            2 
  332000    1.2037625   -3.1620562      347.824   0.08730522  0.090889802            2 
  333000    1.1918234   -3.2149327    348.85272   0.08730048  0.090877473            3 
  334000    1.2065884   -3.1606315       349.95  0.087312873  0.090862986            2 
  335000    1.1888157   -3.1664623    351.90206  0.087537825  0.090850261            1 
  336000    1.2033889   -3.1765344    352.20479  0.087352378  0.090836933            1 
  337000    1.1915542   -3.1612466    354.35646  0.087625237   0.09082184            2 
  338000    1.1910524    -3.174014    354.49669  0.087400564  0.090806285            3 
  339000    1.2046825   -3.1797214    356.57763  0.087654284  0.090796036            2 
  340000    1.1940085   -3.1673488    359.29281  0.088061962   0.09078708            2 
  341000     1.181116   -3.1859934    356.25006  0.087060132  0.090774754            3 
  342000     1.207546   -3.1626066    360.68702  0.087886701  0.090760527            2 
  343000    1.1795775   -3.1923115    358.75046  0.087159976  0.090749018            2 
  344000    1.1994214   -3.1682963    360.40653  0.087307783  0.090735544            1 
  345000    1.2054129   -3.2008868    361.29852  0.087270174  0.090723145            2 
  346000    1.1763912   -3.1663752    364.99848  0.087909075  0.090715725            1 
  347000    1.2044198   -3.1488469    364.30678  0.087489621  0.090704668            2 
  348000    1.2005214   -3.1676958    365.98892  0.087641024  0.090692733            1 
  349000    1.1709492   -3.2082045    367.17943  0.087674171  0.090684655            1 
  350000    1.1821155   -3.1890755    367.86203  0.087586199  0.090676209            1 
  351000    1.2332212   -3.1511331    370.47831  0.087957813  0.090667572            1 
  352000    1.2069152    -3.176192    370.21433  0.087645439  0.090661162            1 
  353000    1.2011301   -3.1979272    372.91009  0.088033544  0.090652601            2 
  354000    1.2105343   -3.1892151    371.40813  0.087431292   0.09064506            2 
  355000    1.1697435   -3.2001816    373.48371  0.087672233  0.090633014            2 
  356000    1.2116862   -3.1893285    373.43828  0.087415328  0.090622425            1 
  357000    1.1919083   -3.1820851    374.53609  0.087426725  0.090613474            1 
  358000    1.1775922   -3.2026819    374.68415  0.087216981  0.090602823            2 
  359000    1.1965167   -3.2036987    376.89548  0.087487344  0.090595589            1 
  360000    1.1729226   -3.1789928    377.96104  0.087490981  0.090586227            4 
  361000    1.2016619   -3.1825949     379.8004  0.087673223  0.090575741            3 
  362000    1.1980899   -3.2026374    379.82008  0.087435562  0.090565657            2 
  363000    1.1898434   -3.2035058    380.96343   0.08745717  0.090552866            2 
  364000    1.1695491   -3.1971508    382.10686  0.087478677  0.090543453            1 
  365000    1.1762202   -3.1572739    384.32253  0.087744869  0.090534123            2 
  366000    1.2001218   -3.1715163    384.71714  0.087594977  0.090525116            1 
  367000    1.1650193   -3.1880404    385.31779  0.087492687  0.090513335            1 
  368000    1.1789275   -3.1804915    386.45671  0.087512842  0.090500652            2 
  369000    1.2020604    -3.153518    388.01212  0.087626948  0.090487606            2 
  370000    1.1884318   -3.1994568    387.36451  0.087244258  0.090471752            1 
  371000    1.1886159   -3.2151986    389.38092  0.087462021  0.090460811            2 
  372000    1.2045048    -3.170815    391.53455  0.087709352  0.090451241            2 
  373000    1.1633017   -3.1813778    390.78916  0.087307677  0.090442344            2 
  374000    1.1878651   -3.2109814    392.79792  0.087521818  0.090432682            5 
  375000    1.1800053   -3.2015404     394.3858   0.08764129  0.090421877            4 
  376000    1.2112279   -3.1563833    394.23644  0.087375096  0.090411671            2 
  377000    1.1814475   -3.1787568     396.7399  0.087696706  0.090401569            2 
  378000    1.1766197   -3.1953564    396.90402  0.087500887   0.09039062            3 
  379000    1.1619549   -3.1611832    397.42891  0.087385424  0.090379228            2 
  380000    1.2039658   -3.1619041    397.92048  0.087263263  0.090366579            1 
  381000    1.1802697   -3.1596202    400.38875  0.087574093  0.090353893            3 
  382000    1.1995857   -3.1517715    400.72902   0.08741907  0.090340201            2 
  383000    1.1741667   -3.2169757    400.39735  0.087118656  0.090322892            3 
  384000    1.2004986   -3.1968852    400.69469  0.086956313  0.090305282            1 
  385000    1.1921299   -3.1778866    401.59373   0.08692505  0.090287406            1 
  386000    1.2152751   -3.1695652    402.88606  0.086978855  0.090267775            2 
  387000    1.1829523   -3.1638152    404.92203  0.087192514  0.090246759            1 
  388000    1.1917812   -3.1808238    404.78575  0.086938519  0.090227094            1 
  389000    1.2141811    -3.124799    408.66079  0.087545157   0.09021216            2 
  390000    1.1986431   -3.1958332    408.61431  0.087310751   0.09019707            2 
  391000    1.1736154   -3.2040341    408.92086  0.087152784  0.090182597            1 
  392000     1.168634   -3.1757101    410.90895  0.087353092  0.090167268            2 
  393000    1.1888283   -3.1772862    410.23891  0.086988742  0.090153799            2 
  394000    1.1861012   -3.1956361    412.40837  0.087226813   0.09014443            3 
  395000    1.1962247    -3.161918    415.47438  0.087652822  0.090131162            2 
  396000    1.1983412   -3.1800107    415.82947  0.087506202  0.090119385            3 
  397000    1.1865161   -3.1738236    415.83165  0.087286239  0.090109847            2 
  398000    1.2285332   -3.1685407    415.62061  0.087022742  0.090098102            6 
  399000    1.1929197   -3.1826954    418.70841  0.087449543  0.090088172            1 
  400000     1.170258   -3.1875163    420.54844  0.087614259  0.090075173            2 
  401000    1.2099584    -3.195925    420.29693  0.087343501   0.09006393            2 
  402000     1.203354   -3.2116621    421.73588  0.087424519  0.090054861            1 
  403000    1.1661304   -3.2226964     422.4094  0.087346858  0.090047143            2 
  404000    1.1689946   -3.1883747    423.82502  0.087422654   0.09003875            1 
  405000    1.1933935   -3.2099888    424.14889  0.087273434  0.090031043            1 
  406000    1.1849866   -3.1895225     426.4154  0.087523687  0.090023553            2 
  407000    1.1733441   -3.1635336    428.01697  0.087636562  0.090015334            1 
  408000    1.1900667   -3.1904557    427.44111  0.087304149  0.090005128            6 
  409000    1.1846337   -3.2011922    429.99279  0.087610593   0.08999542            2 
  410000    1.1970016   -3.1633374      431.299  0.087662398  0.089986078            2 
  411000    1.1827105   -3.1863066    431.30258  0.087449834  0.089976901            2 
  412000    1.1800405   -3.1780567    434.03746  0.087790749  0.089969007            1 
  413000     1.192293    -3.194112    431.33821  0.087033537  0.089957671            2 
  414000    1.1703421    -3.166264    433.25147  0.087208429   0.08994828            3 
  415000    1.1894873   -3.1925876    435.35952   0.08742159  0.089936732            1 
  416000    1.1843978    -3.166635    437.10681  0.087561461  0.089927135            1 
  417000    1.1937768   -3.2109079    437.29632  0.087389352  0.089919779            5 
  418000    1.1682947    -3.231459    436.04863  0.086931545  0.089912054            1 
  419000    1.2108261    -3.194482    439.34157  0.087378991  0.089903452            2 
  420000    1.2025376    -3.193765    440.39794  0.087380544  0.089897509            4 
  421000    1.1895181   -3.1980036    442.13171  0.087516173  0.089890324            1 
  422000    1.1875863   -3.2057942    442.48331  0.087378221  0.089884097            2 
  423000    1.1952623   -3.2217044    445.06327  0.087679919  0.089876447            1 
  424000    1.1857367   -3.1869036    447.05596  0.087864771  0.089868776            1 
  425000    1.1790715    -3.182057    447.14149  0.087674801  0.089864044            2 
  426000    1.1575835   -3.1597588    449.01348  0.087835187  0.089857555            1 
  427000    1.1906404   -3.1945739    447.85756  0.087403896  0.089850434            2 
  428000    1.1602836   -3.1900656    449.62054   0.08754294  0.089843177            1 
  429000    1.1924376   -3.1911007    449.89275  0.087391754  0.089836811            1 
  430000    1.1937585   -3.1868126     451.9632  0.087589768  0.089830527            1 
  431000    1.1889051   -3.2141958    452.57112  0.087504084  0.089822629            2 
  432000    1.1840776   -3.1952633    457.22572  0.088199405  0.089818592            2 
  433000    1.1800223   -3.1980594    455.27369  0.087620033  0.089813334            1 
  434000    1.1998587   -3.2124283    456.18078  0.087592315  0.089807492            2 
  435000     1.199601   -3.1905694    457.41728  0.087627832  0.089801851            1 
  436000      1.15974   -3.1908947    458.04594  0.087547007  0.089794616            3 
  437000    1.2043938   -3.2027649    460.42526  0.087800393  0.089786522            3 
  438000    1.1836831   -3.1983435    460.40875  0.087596794  0.089781991            4 
  439000    1.1763405   -3.2296067    461.78902  0.087659267  0.089777683            3 
  440000    1.1707687   -3.1886649    461.79258  0.087460715  0.089771801            2 
  441000    1.1956763   -3.1943523    463.42856  0.087571535  0.089764039            2 
  442000    1.1794488   -3.1850808    464.60321  0.087594874  0.089756275            1 
  443000    1.1792134   -3.1701782    464.24679  0.087330096  0.089748281            1 
  444000    1.1903783   -3.1702066    466.93815  0.087638542  0.089739143            1 
  445000    1.1666791   -3.1744499    467.90029  0.087621777  0.089731091            1 
  446000    1.1551894   -3.2162497    467.62527  0.087373929  0.089724127            2 
  447000    1.1984096    -3.149636    472.20572  0.088032386  0.089715713            1 
  448000    1.1991908   -3.1710261    470.20687  0.087464075  0.089708721            1 
  449000    1.1715238   -3.2353221    471.08267  0.087431824  0.089700742            2 
  450000    1.2001436   -3.1898929    472.99484  0.087591636   0.08969381            1 
  451000    1.1758846   -3.2049929     473.7375  0.087534645  0.089686959            1 
  452000    1.1664376   -3.2147345    474.35739  0.087455271  0.089680405            2 
  453000    1.1890057   -3.1904308    476.24985  0.087610348  0.089674348            2 
  454000    1.1596538    -3.160756    480.30857  0.088162365  0.089670723            1 
  455000    1.1910421   -3.1873645    480.80152  0.088058887  0.089666613            3 
  456000    1.1922917   -3.2064849    479.20017   0.08757313  0.089662828            2 
  457000    1.1909977   -3.1745989    480.92989  0.087696916  0.089658991            1 
  458000    1.1863056   -3.1728485    480.29592  0.087390087  0.089653768            5 
  459000    1.1855363   -3.2039482    481.95931   0.08750169   0.08964731            3 
  460000    1.1759473   -3.1720779    482.75714  0.087456004  0.089641197            3 
  461000    1.1584413   -3.1800715    486.59677   0.08796037  0.089633501            1 
  462000    1.2203511     -3.21192     485.2125  0.087520292  0.089624199            4 
  463000    1.1590817   -3.1831617    487.95048  0.087824061  0.089616367            1 
  464000    1.1460928   -3.2021262    486.88657  0.087443708  0.089608263            2 
  465000    1.1520847   -3.1937208    486.40417  0.087169207  0.089598388            3 
  466000    1.1456077   -3.2369741    485.57197  0.086833327  0.089587347            1 
  467000    1.1629567   -3.1857721    489.68593  0.087381501   0.08957632            2 
  468000    1.1990111   -3.1831002    489.90988  0.087234665  0.089567474            2 
  469000    1.1684644   -3.1933603    491.18536  0.087275296  0.089558453            1 
  470000    1.1763004   -3.1952527    491.03114  0.087062259  0.089551051            3 
  471000    1.1594757   -3.2278968    491.85912  0.087023907  0.089539561            1 
  472000    1.2100176   -3.1875974    492.02579  0.086868959  0.089527938            3 
  473000    1.1710107   -3.1479725    496.27572  0.087434059  0.089517164            2 
  474000    1.1680876   -3.1815577    498.39878  0.087622852  0.089507964            2 
  475000     1.164761   -3.2218401    497.62364  0.087302393  0.089498499            2 
  476000    1.1801782   -3.2219197    500.10507  0.087553409  0.089488339            1 
  477000    1.1880281   -3.2059576    498.52599  0.087093988  0.089480116            1 
  478000     1.165754   -3.1955209    498.75725  0.086952101  0.089470848            2 
  479000    1.1666303   -3.2028755    500.48344  0.087070883  0.089461584            3 
  480000    1.1962502   -3.2305347    501.89159  0.087133956  0.089451455            2 
  481000    1.1590687   -3.1817067    503.44444  0.087221836  0.089442779            3 
  482000    1.1914399   -3.2098819    504.06525  0.087148211  0.089434211            3 
  483000    1.1628135   -3.2375246    506.68548  0.087419854   0.08942523            2 
  484000    1.1800578   -3.2246933    502.17664  0.086462919  0.089415407            2 
  485000    1.1967375   -3.1962393     507.5123  0.087201427  0.089402688            1 
  486000    1.1553759   -3.1789171     508.0192  0.087108916   0.08939176            2 
  487000      1.18474   -3.2430584    508.75628  0.087056174  0.089379598            2 
  488000    1.1945693    -3.233134    509.89694  0.087072565  0.089367725            2 
  489000    1.1787094   -3.1950277    510.67382  0.087026895  0.089355372       -1e+20 
  490000    1.1730745   -3.1952624    511.87602  0.087053745  0.089344532            3 
  491000     1.200672   -3.1933535    513.28095  0.087114893  0.089333894            2 
  492000    1.1733041   -3.2169729    514.46921  0.087139093  0.089324731            1 
  493000    1.1937932   -3.2081757    515.21782  0.087088882  0.089316519            1 
  494000    1.1872136   -3.2177052    516.49962  0.087128816  0.089305278            1 
  495000    1.1778462   -3.2275795    515.39325   0.08676654  0.089295205            2 
  496000     1.192197   -3.2018554    519.48803  0.087279575  0.089282879            1 
  497000    1.1777571   -3.2094399     521.1596  0.087384239  0.089275098            4 
  498000    1.1599514   -3.1690953    519.99977  0.087014688  0.089267254            1 
  499000    1.1465186   -3.2149507    522.24783  0.087215736  0.089260395            1 
  500000    1.1604616   -3.2113635    525.47217  0.087578696  0.089252501            1 
  501000    1.1881065   -3.2077716    523.97967  0.087155634  0.089244755            3 
  502000    1.1839463    -3.214661    526.73112  0.087438764  0.089236967            1 
  503000    1.1531158   -3.2473473    527.25707  0.087352065  0.089229561            3 
  504000    1.1534901   -3.1998287     528.2036  0.087335251  0.089221691            2 
  505000    1.1897896   -3.1711612    527.44623  0.087037332  0.089212145            2 
  506000     1.166757   -3.2263487    529.33325  0.087176096  0.089203523            2 
  507000    1.1837751   -3.2157352    529.88594  0.087094994  0.089195927            2 
  508000    1.1763461   -3.1994834    532.30868  0.087320978  0.089186095            2 
  509000    1.1514294   -3.2122948     530.1809  0.086801065  0.089176752            1 
  510000    1.1742641   -3.2095305    532.45877  0.087003067  0.089167746            1 
  511000    1.1786845   -3.1995846    535.50164  0.087329035   0.08916062            2 
  512000    1.1699211     -3.22101    535.22463  0.087113384  0.089153661            3 
  513000    1.1537545   -3.2477609    533.38015  0.086643949  0.089145217            1 
  514000    1.1657077   -3.1903799    537.44939  0.087135115  0.089135621            5 
  515000    1.1743247   -3.2116294    536.94524  0.086884344  0.089126281            2 
  516000    1.1639549   -3.2034532    540.11895  0.087228512   0.08911672            3 
  517000    1.1813601   -3.2217731    543.20935  0.087557922   0.08910632            1 
  518000     1.195691   -3.2185372    538.94755  0.086703274  0.089097188            1 
  519000    1.1415057   -3.1947307    544.71961  0.087463007  0.089087581            3 
  520000    1.1620313   -3.2088618    542.93948  0.087009531  0.089078684            2 
  521000    1.1751567   -3.1910219    544.16829  0.087039074  0.089067931            2 
  522000    1.1606264   -3.1879921     544.1239  0.086865245  0.089058219            1 
  523000    1.1747257   -3.2178801    544.33698  0.086733107  0.089047753            2 
  524000    1.1863519   -3.2060294    544.11185  0.086531782  0.089035521            2 
  525000    1.1708606   -3.2272207    546.10962  0.086684066  0.089021604            3 
  526000    1.1726046   -3.2080226    546.70365  0.086613379  0.089008903            2 
  527000      1.16867   -3.2004111    549.79218   0.08693741  0.088995244            2 
  528000    1.1570184   -3.2048896    551.02598  0.086967483  0.088982895            4 
  529000    1.1366984   -3.1675099    551.35507  0.086854926  0.088969765            1 
  530000    1.1538736   -3.2210773    550.68436   0.08658559  0.088956591            4 
  531000    1.1639263   -3.2063251    551.00873  0.086473435  0.088942708            1 
  532000     1.151005   -3.2110777    550.46982  0.086226475  0.088927916            2 
  533000    1.1583139   -3.2410296    552.86732  0.086439544  0.088912767            4 
  534000    1.1706515   -3.1858308    555.58653  0.086702018  0.088900291            2 
  535000    1.1562294   -3.1771123    557.03026  0.086764838  0.088885882            1 
  536000    1.1654644   -3.1964188    556.70791  0.086552847  0.088871749            3 
  537000    1.1645038   -3.2276986     558.3081  0.086639991  0.088856589            2 
  538000    1.1713611   -3.2220715    559.07332  0.086597478  0.088842586            1 
  539000    1.1695422   -3.2050831    558.62621  0.086367689  0.088827623            2 
  540000    1.1777883   -3.2012959    562.68891  0.086834708  0.088816204            2 
  541000    1.1692137   -3.2105254    562.66166  0.086670004   0.08880264            2 
  542000    1.1859201   -3.2247787    565.74159   0.08698364  0.088790761            2 
  543000    1.1721797   -3.2138984    561.98293  0.086246612  0.088777637            2 
  544000     1.177918   -3.2237982    566.04539  0.086710385  0.088764464            2 
  545000    1.1584061   -3.2038502    567.08767  0.086710653  0.088751055            5 
  546000    1.1418092   -3.2365169      567.143  0.086560286  0.088738691            1 
  547000    1.1712511   -3.1987959    568.57585   0.08662033  0.088724845            3 
  548000    1.1794602   -3.2093314    568.66817  0.086476302  0.088711331            2 
  549000    1.1801693   -3.1928451    570.52914  0.086601265  0.088697092            1 
  550000     1.162483   -3.2304144    568.55609  0.086144862   0.08868325            2 
  551000    1.1912549   -3.2160433     570.9695  0.086353524  0.088666218            1 
  552000    1.1585833   -3.2336775    571.35268  0.086254934  0.088649724            1 
  553000    1.1538592   -3.2161672    573.25195  0.086385165  0.088633475            3 
  554000       1.1623   -3.1994694    574.08754  0.086354924  0.088618679            1 
  555000    1.1832559   -3.2051035    574.88709  0.086319383  0.088604631            3 
  556000    1.1477836   -3.2273117    575.73001  0.086290469  0.088590844            2 
  557000    1.1415365   -3.2286509    574.63489  0.085971708  0.088577871            2 
  558000    1.1800721   -3.2222703    577.28377  0.086213227  0.088564393            3 
  559000    1.1519927   -3.2356698    576.65993  0.085966001  0.088548225            2 
  560000    1.1406485   -3.2266092    578.44512  0.086078143  0.088532309            2 
  561000    1.1619259   -3.2292718    579.15274  0.086029819  0.088516748            1 
  562000    1.1403687    -3.212273     581.2116  0.086182028  0.088501129            1 
  563000    1.1690305   -3.2397234    580.04356  0.085856063  0.088485955            1 
  564000    1.1429106   -3.2131226    582.89478  0.086125115  0.088470645            1 
  565000     1.160183   -3.2543725    582.18814  0.085868457  0.088454501            2 
  566000    1.1428883   -3.2241071     584.4984  0.086056891  0.088439021            2 
  567000    1.1504149    -3.201435     583.6109  0.085774676  0.088424289            4 
  568000    1.1543897   -3.2274706    587.63933   0.08621469  0.088409677            1 
  569000    1.1280389   -3.2018079    587.40983  0.086029559  0.088395935            4 
  570000    1.1581005   -3.2195897    589.02648  0.086114982  0.088381171            1 
  571000     1.130854   -3.2289284    590.83753  0.086228478  0.088366968            4 
  572000    1.1636941   -3.2610505    590.60514  0.086043872  0.088351891            2 
  573000    1.1582955   -3.2131163    592.39074  0.086153394  0.088335776            2 
  574000     1.148391   -3.2118806    592.03406  0.085951519  0.088320542            5 
  575000    1.1649007   -3.2471141    592.26952  0.085836162  0.088304005            2 
  576000    1.1691414   -3.2240871    595.47586  0.086151021  0.088287834            1 
  577000    1.1527535   -3.2251351    595.82532  0.086052184  0.088272181            4 
  578000    1.1701899   -3.1842388    596.86271   0.08605287  0.088256778            2 
  579000    1.1531037   -3.2529597    597.78423  0.086036878  0.088240946            3 
  580000    1.1615827    -3.217468    599.65041  0.086156668  0.088224681            2 
  581000    1.1484244   -3.2308282    598.34759  0.085821513  0.088209261            2 
  582000    1.1633476   -3.1850473    598.16512  0.085647927  0.088192698            2 
  583000    1.1669653   -3.2233143    602.18884  0.086076164  0.088178621            4 
  584000    1.1706027   -3.2310442    603.56566  0.086125237  0.088163542            4 
  585000    1.1739417   -3.2062184    605.99456  0.086324011  0.088149187            4 
  586000    1.1180873   -3.2440696    605.06652  0.086044727  0.088135679            1 
  587000    1.1489845   -3.2511276    605.71128  0.085989676  0.088121229            1 
  588000    1.1620082   -3.2010232    608.07217  0.086178028  0.088107015            2 
  589000    1.1292114   -3.2234132     607.3706  0.085932456   0.08809331            2 
  590000    1.1458299    -3.214317    609.53562  0.086092602  0.088077645            3 
  591000    1.1677724   -3.2336852    607.57226  0.085670087  0.088063123            2 
  592000    1.1784447    -3.246716    608.76583  0.085693388  0.088048496            1 
  593000    1.1441733   -3.2547162    609.67674  0.085676889  0.088033552            1 
  594000    1.1815125   -3.2289313    611.28336  0.085758047  0.088018427            1 
  595000    1.1543217   -3.2482348    614.05607   0.08600225  0.088005337            3 
  596000    1.1674498   -3.2565098    613.49173  0.085779045  0.087990937            1 
  597000    1.1528587   -3.2264919    618.06586   0.08627385   0.08797675            2 
  598000    1.1440086   -3.2822313    612.98448  0.085421472  0.087961827            2 
  599000    1.1494351   -3.2645746    615.37894  0.085611983  0.087946619            1 
  600000    1.1343182   -3.2490492     615.2688  0.085453999  0.087930148            3 
  601000    1.1719134   -3.2499128    616.71318  0.085512088  0.087914106            2 
  602000    1.1463386   -3.1903271     620.8789  0.085946692  0.087899314            1 
  603000    1.1667282     -3.21646    619.17907  0.085569246   0.08788455       -1e+20 
  604000    1.1520406   -3.2213569    619.77111  0.085509259  0.087867196            5 
  605000    1.1406554    -3.227666      620.513   0.08547011  0.087850694            2 
  606000    1.1440967   -3.2468835    622.37027   0.08558447  0.087835054            1 
  607000    1.1474425   -3.2126665    623.67059  0.085621992  0.087818588            1 
  608000    1.1709615   -3.2417945     623.8029  0.085499301  0.087800665            2 
  609000    1.1456094   -3.2209721    622.68162  0.085205476  0.087781401            2 
  610000    1.1561006    -3.224061    623.24232  0.085142393  0.087761677            2 
  611000    1.1412242   -3.2435962    621.73971  0.084798106  0.087742176            2 
  612000    1.1358939    -3.227228    625.75268  0.085205975  0.087721109            5 
  613000    1.1420735   -3.2225613    623.79019   0.08480019  0.087700263            1 
  614000    1.1400972   -3.2237662    627.50312  0.085166004  0.087679348            3 
  615000    1.1495857   -3.2443578     629.7027  0.085325569  0.087659821            5 
  616000    1.1728589   -3.2434789    630.79996  0.085335493  0.087639474            3 
  617000    1.1506526   -3.2141792    629.13649  0.084972514  0.087618814            1 
  618000    1.1594749   -3.2250654    632.41863  0.085277592  0.087600585            3 
  619000    1.1846828   -3.2400558    631.90497  0.085070675  0.087582189            2 
  620000    1.1645604   -3.2490572    634.61796  0.085298113  0.087565484            5 
  621000    1.1643228   -3.2413005    633.19875   0.08497031  0.087547881            2 
  622000     1.150752   -3.2639325    634.55647  0.085015604  0.087530218            2 
  623000    1.1502044   -3.2574217    636.83964  0.085184542  0.087510707            3 
  624000    1.1453791   -3.2715365    636.42625  0.084992822   0.08749201            1 
  625000    1.1589962    -3.229234    633.56089  0.084474786  0.087470243            2 
  626000    1.1579437   -3.2520406    636.47286  0.084727484  0.087450965            2 
  627000    1.1488169   -3.2204059    641.80059   0.08530045  0.087433058            1 
  628000    1.1032699   -3.2194476    642.32937  0.085234789  0.087415271            2 
  629000    1.1619269   -3.2412114     642.9701  0.085184168  0.087398261            2 
  630000    1.1349328   -3.2165537    647.32668  0.085625222  0.087381978            2 
  631000    1.1297258   -3.2268389    644.87471  0.085165704  0.087365347            2 
  632000     1.157983   -3.2372501    645.78066  0.085150404  0.087347447            2 
  633000    1.1874294   -3.2304123    645.31493  0.084954572  0.087331321            2 
  634000    1.1366043   -3.2500949    646.68212  0.085000279  0.087314617            2 
  635000    1.1633633   -3.2234272     646.5543  0.084849646  0.087296314            3 
  636000    1.1729028   -3.2110619    647.45564  0.084834335  0.087279449            4 
  637000    1.1404667   -3.2516032    650.35665  0.085080672  0.087261966            2 
  638000    1.1698054    -3.236143    652.18011   0.08518549  0.087245092            2 
  639000    1.1510339   -3.2226333    647.99363  0.084506211  0.087226735            1 
  640000    1.1306582    -3.203662    653.31846  0.085067508  0.087208482            2 
  641000    1.1369918   -3.2567826    652.77915  0.084864684  0.087189604            2 
  642000     1.124405   -3.2102908      655.411  0.085074117   0.08717154            4 
  643000    1.1752544   -3.2513948    655.43935  0.084945483  0.087154783            3 
  644000    1.1188522   -3.2390519    654.86706  0.084739527  0.087136253            2 
  645000    1.1469819   -3.2426129    656.78258   0.08485563  0.087117626            4 
  646000    1.1603741   -3.2628653    659.46349   0.08507011   0.08709879            2 
  647000    1.1302072   -3.2594823    656.27177  0.084527533  0.087079412            1 
  648000    1.1678574    -3.221751    660.60205  0.084953967  0.087060943            2 
  649000    1.1562484   -3.2176732    661.03266   0.08487836  0.087041534            5 
  650000    1.1464849   -3.2625177    657.94911   0.08435245    0.0870216            3 
  651000    1.1546624   -3.1990517    661.29165  0.084650749   0.08700292            1 
  652000    1.1448999   -3.2184739    662.25208  0.084643671  0.086983968            3 
  653000    1.1322614   -3.2792856    662.45792  0.084540317   0.08696557            3 
  654000    1.1508175   -3.2416125    662.04289  0.084358167  0.086946691            4 
  655000    1.1367449     -3.20587    668.27071  0.085021719  0.086929286            1 
  656000     1.149047   -3.2227946    667.68883  0.084818194  0.086910781            4 
  657000    1.1406454   -3.2477731    667.61833  0.084680153  0.086892812            2 
  658000    1.1285618   -3.2679657     667.0073  0.084474076  0.086875651            2 
  659000    1.1393623   -3.2396219    669.20998  0.084624428  0.086858311            3 
  660000    1.1366066    -3.231571    672.66353  0.084932263  0.086840098            1 
  661000    1.1343626   -3.2397066    671.06142  0.084601793  0.086824282            3 
  662000    1.1380864   -3.2243755    673.19906  0.084743084  0.086808979            2 
  663000    1.1564863   -3.2581768    671.81693  0.084441545  0.086792717            3 
  664000     1.148805   -3.2190765    675.27889  0.084748857  0.086776316            1 
  665000    1.1104216   -3.2386575    673.94134  0.084453802  0.086760109            1 
  666000    1.1609947   -3.2621202    676.48152  0.084644835  0.086742973            1 
  667000    1.1593637   -3.2502493    678.90181  0.084820316  0.086726216            1 
  668000    1.1546311   -3.2281853    678.86603  0.084688876  0.086710327            2 
  669000    1.1363034   -3.2345238    680.73997  0.084795711  0.086694717            3 
  670000    1.1579253   -3.2167554    681.37485  0.084748115   0.08667894            2 
  671000     1.102505   -3.2313973    682.95874  0.084818522  0.086663319            4 
  672000    1.1563823   -3.2253938    684.62978  0.084899526  0.086647649            1 
  673000    1.1475627   -3.2497809    683.19308  0.084595478   0.08663088            3 
  674000    1.1497858   -3.2163373    683.40287  0.084495904  0.086614531            3 
  675000    1.1255824   -3.2694855    686.53051  0.084756853  0.086598108            2 
  676000    1.1535049   -3.2262553    685.47335  0.084501153  0.086581483            1 
  677000    1.1331496   -3.2528989    685.63693  0.084396471  0.086564534            2 
  678000    1.1494875   -3.2707042    688.62806  0.084639633   0.08654755            1 
  679000    1.1547248   -3.2439161    688.58765  0.084510021  0.086530799            1 
  680000    1.1405571   -3.2720755    687.31322  0.084229561  0.086512688            2 
  681000    1.1435139    -3.265245    686.95608  0.084062173  0.086495405            3 
  682000    1.1221123   -3.2389858    691.80297  0.084531154  0.086477959            2 
  683000    1.1427564    -3.230839    692.28355  0.084466027  0.086460565            1 
  684000    1.1561689   -3.2638274    691.28109  0.084220406  0.086443579            1 
  685000     1.130795   -3.2611858    692.41249  0.084235096  0.086425809            1 
  686000    1.1476761   -3.2626999    692.38004  0.084108363  0.086409521            8 
  687000    1.1382573   -3.2521321    693.64164  0.084138967  0.086391459            1 
  688000    1.1453066   -3.2314855    698.69999   0.08462936   0.08637367            3 
  689000    1.1411259   -3.2116303    696.01052  0.084181244  0.086355496            1 
  690000    1.1493769   -3.2493411    696.95837  0.084173716  0.086336225            2 
  691000    1.1302953   -3.2349328    697.80035  0.084153443  0.086318768            3 
  692000    1.1420643   -3.2268882    700.21464  0.084322573  0.086299583            4 
  693000     1.148172   -3.2380781    700.43858  0.084227824  0.086282469            1 
  694000     1.130932   -3.2632918    699.25497  0.083964333  0.086265149            3 
  695000    1.1661564   -3.2661873    703.09003  0.084303361  0.086246471            2 
  696000     1.139259   -3.2323174    700.55585  0.083878813  0.086229247            2 
  697000     1.147979   -3.2376059    701.22647   0.08383865  0.086211902            3 
  698000    1.1515518   -3.2535356    703.68723  0.084012325  0.086194385            3 
  699000    1.1521713   -3.2227351    704.39284  0.083976256  0.086176448            3 
  700000    1.1350019   -3.2450696    705.91334  0.084037302  0.086158049            1 
  701000    1.1153472   -3.2619239    706.62782  0.084002356  0.086139103            2 
  702000    1.1353681   -3.2272461    709.58823   0.08423412  0.086120534            2 
  703000    1.1663766   -3.2514807    712.03457  0.084404287  0.086103796            2 
  704000     1.130169   -3.2717033    707.81154   0.08378451  0.086085795            1 
  705000    1.1178587   -3.2259505    712.95541   0.08427369  0.086068342            3 
  706000    1.1450317   -3.2432882    711.52372  0.083985331    0.0860502            2 
  707000    1.1507918    -3.239973    711.33255  0.083844007   0.08603212            2 
  708000    1.1426449   -3.2340665    709.55855  0.083516779  0.086014064            2 
  709000    1.1423953   -3.2630677    710.38946  0.083496646  0.085996511            2 
  710000    1.1457034   -3.2607134    715.09666  0.083931533  0.085978109            1 
  711000    1.1635711   -3.2481451    715.76088  0.083891336  0.085960551            1 
  712000    1.1376392   -3.2504492    716.52073  0.083862445  0.085942815            3 
  713000    1.1658611   -3.2590615    718.33304  0.083956644   0.08592502            2 
  714000    1.1382505   -3.2419636    716.21158  0.083591454  0.085907742            1 
  715000    1.1264248   -3.2263999    722.97683  0.084263034  0.085890211            1 
  716000    1.1410359   -3.2509886    720.31581  0.083835639  0.085873135            2 
  717000    1.1407268   -3.2581211    721.96537  0.083910433  0.085854135            3 
  718000    1.1444162   -3.2599399    720.21787  0.083590746  0.085835653            3 
  719000    1.1473982   -3.2289865    722.86995  0.083781867  0.085816928            5 
  720000    1.1314555   -3.2432057    725.25639  0.083941712  0.085799507            2 
  721000     1.146549   -3.2567081    723.56524  0.083629825  0.085780984            1 
  722000    1.0906331   -3.2457691    725.10846  0.083692112  0.085762603            2 
  723000    1.1485345   -3.2437312    726.85233  0.083777355  0.085744191            1 
  724000    1.1491737    -3.246345    728.74342  0.083879307  0.085726262            1 
  725000    1.1306413   -3.2540002    729.81422  0.083886692  0.085708256            3 
  726000    1.1258142   -3.2608051    731.54576  0.083969899  0.085690286            2 
  727000    1.1261125   -3.2430533     728.6588  0.083523475  0.085671288            1 
  728000    1.1220211   -3.2894081    728.69438  0.083412818   0.08565248            3 
  729000    1.1397272   -3.2297939    734.05146  0.083910775  0.085634672            2 
  730000    1.1373798   -3.2680162    734.37028  0.083832224   0.08561747            2 
  731000     1.137135   -3.2496733    733.98014  0.083673067  0.085599734            1 
  732000    1.1450783   -3.2273549    737.81752   0.08399562  0.085584138            2 
  733000    1.1153102   -3.2792527    735.25555  0.083589762  0.085569375            2 
  734000    1.1462626    -3.240414    739.39362  0.083945688  0.085553714            3 
  735000    1.1490696     -3.26807    739.06566  0.083794292  0.085538863            1 
  736000    1.1144895   -3.2555264    741.71701   0.08398064  0.085524139            2 
  737000    1.1387499   -3.2355002    741.65786  0.083860003  0.085508211            2 
  738000    1.1470161   -3.2504674    744.02696  0.084013885  0.085492179            2 
  739000    1.1376561   -3.2482777    743.05499  0.083790594  0.085476407            1 
  740000    1.1068681   -3.2761086    741.83571  0.083540057  0.085459808            1 
  741000    1.1455756   -3.2461263    745.19212  0.083804781  0.085442871            2 
  742000    1.1415798   -3.2538629    741.32873  0.083257943  0.085426943            1 
  743000    1.1436145   -3.2777266    744.03854  0.083449814  0.085410062            2 
  744000    1.1315168   -3.2515115    746.69561  0.083635261  0.085392565            1 
  745000    1.1307695   -3.2350195    747.07872  0.083565853  0.085376194            1 
  746000    1.1476101    -3.266095    747.97825  0.083554318  0.085359329            2 
  747000    1.1406498    -3.288273    748.51011  0.083501797  0.085341985            1 
  748000    1.1222533   -3.2708302      746.657  0.083183712  0.085325187            4 
  749000    1.1175899   -3.2418578    747.65912  0.083184147  0.085307233            2 
  750000    1.1362709    -3.251148    750.68234  0.083409149  0.085288615            2 
  751000     1.105873   -3.2464212    748.86108  0.083095992  0.085270085            1 
  752000    1.1325763   -3.2592553    747.30281  0.082812811  0.085250741            1 
  753000    1.1165773   -3.2965109    753.44672  0.083382771  0.085231428            3 
  754000    1.1338976   -3.2428096    749.28115  0.082811798  0.085212949            2 
  755000    1.1339902   -3.2768817    751.98387  0.083000428  0.085193953            3 
  756000    1.1315172   -3.2707001    752.68732  0.082968178  0.085174578            2 
  757000    1.1482899   -3.2661562    754.80513  0.083091714  0.085153238            2 
  758000    1.1293635   -3.2768104    751.75891  0.082647198  0.085132833            3 
  759000    1.1382651   -3.2581253    753.93579  0.082777315   0.08511228            2 
  760000    1.1470952   -3.2602953    757.62835  0.083073284  0.085092577            2 
  761000    1.1336092     -3.25402    757.10026  0.082906292  0.085072499            2 
  762000    1.1382852   -3.2589962     759.3107  0.083039228  0.085052186            3 
  763000    1.1227316   -3.2636741    756.60598  0.082634991  0.085032353            3 
  764000    1.1384811   -3.2708686    759.95511  0.082892137  0.085012154            2 
  765000    1.1021984   -3.2710628    758.22976  0.082595834  0.084991947            1 
  766000    1.1124316   -3.2437638    763.20953  0.083029758  0.084971512            1 
  767000     1.118315   -3.2521607    762.43194  0.082837021  0.084952333            3 
  768000    1.1224359   -3.2620353    762.14451  0.082697972  0.084932338            1 
  769000    1.1132378   -3.2569721    764.52819  0.082848742  0.084912594            3 
  770000      1.13284    -3.251488    764.54954  0.082743456  0.084893211            1 
  771000    1.1120853   -3.2519018    763.52007  0.082524867  0.084873545            2 
  772000    1.1342463   -3.2827429    767.45643  0.082842879  0.084853672            3 
  773000    1.1342565   -3.2497408    770.36983  0.083049788  0.084834151            1 
  774000    1.1176728   -3.2734151    770.76998   0.08298557  0.084814821            4 
  775000    1.1038605   -3.2493661    772.28858  0.083041782  0.084797211            2 
  776000    1.1462302   -3.2540118    775.60138  0.083290526  0.084780491            2 
  777000    1.1426031   -3.2663561    775.61694     0.083185  0.084763248            3 
  778000    1.1153701   -3.2729425    776.22411  0.083143113  0.084746592            2 
  779000    1.1214612   -3.2445181    774.30854  0.082831466  0.084728549            1 
  780000    1.1253278   -3.2674248    779.47312  0.083277042  0.084710888            2 
  781000    1.1438687   -3.2784004    775.87814  0.082786827  0.084693589            2 
  782000    1.1276987   -3.2378763    780.59737  0.083183863  0.084675774            2 
  783000    1.1057473   -3.2909845    780.32703  0.083048854  0.084657798            2 
  784000    1.1116913   -3.2543582    781.96139  0.083116644  0.084640586            2 
  785000    1.1273106     -3.26624    781.04176  0.082913138  0.084623144            2 
  786000    1.1239123   -3.2517085    781.79346  0.082887347  0.084605547            1 
  787000    1.1221394   -3.2677266    785.15198  0.083137651  0.084589311            3 
  788000    1.1494057   -3.2782542    784.84036  0.082999192  0.084572551            3 
  789000    1.1302586   -3.2510077    785.16236  0.082928006  0.084555507            1 
  790000    1.1031373   -3.2742067    783.15416  0.082611198  0.084538974            2 
  791000    1.1175687   -3.2748174    787.62925  0.082978219  0.084522293            2 
  792000    1.1330419   -3.2868712    786.09671  0.082712196  0.084504805            4 
  793000    1.1216323   -3.2635998    789.32507  0.082947148   0.08448688            2 
  794000    1.1218675   -3.2390088    788.10819  0.082714965  0.084469036            5 
  795000      1.12787   -3.2634805      787.766  0.082575052  0.084451438            2 
  796000     1.117758   -3.2665906      790.486  0.082756072  0.084433551            2 
  797000    1.1019385   -3.2668488    793.01072  0.082916219  0.084415955            2 
  798000    1.1186915   -3.2752014    790.73422  0.082574585  0.084399168            1 
  799000    1.1389264   -3.2568167    791.21002  0.082520862  0.084382733            1 
  800000    1.1260562     -3.26322    792.49469   0.08255153  0.084364988            2 
  801000    1.1037722   -3.2970502     792.2378  0.082421744  0.084346626            3 
  802000    1.1003997   -3.2323532    797.26608  0.082841446   0.08432868            2 
  803000    1.1139731   -3.2604036    793.65673  0.082363712  0.084311648            2 
  804000    1.1436276   -3.2917455    797.86353  0.082697298  0.084293507            1 
  805000    1.1243372   -3.2790757    793.78737  0.082172605  0.084275326            2 
  806000    1.1420757   -3.2496254    795.36638   0.08223391  0.084256125            5 
  807000    1.1267255   -3.2423398    800.56843  0.082669189  0.084237834            1 
  808000    1.1528063   -3.2851714    797.36137  0.082236115   0.08421859            1 
  809000    1.1377935   -3.2648545    798.34791  0.082236084  0.084198404            2 
  810000    1.1296247   -3.2544778    799.14752  0.082216823   0.08417806            2 
  811000    1.0821631   -3.2517253    800.07558  0.082210808  0.084158237            2 
  812000    1.1294703   -3.2568205    798.03247  0.081899884   0.08413865            1 
  813000    1.1128534   -3.2704848    801.08632  0.082112169   0.08411829            2 
  814000    1.1272353   -3.2792926    800.43399  0.081944512  0.084099166            4 
  815000    1.1535855   -3.3033698     804.4605  0.082255674  0.084080083            2 
  816000     1.104524   -3.2687292    804.33365  0.082141917  0.084060805            3 
  817000    1.1163662   -3.2616848    808.64097  0.082480719  0.084041708            1 
  818000    1.1158945   -3.2717219     805.2842  0.082037918  0.084023462            2 
  819000    1.0922117   -3.3043012     805.7699   0.08198717  0.084004348            3 
  820000    1.0917306   -3.2666161    808.12336  0.082126358  0.083984953            2 
  821000    1.1136334   -3.2828862    811.69311  0.082388663  0.083965667            2 
  822000    1.1482738   -3.2593475     811.1025  0.082228558  0.083946429            2 
  823000    1.1137918   -3.2611833    812.78113  0.082298616  0.083927631            1 
  824000    1.1342688    -3.276485    813.88395   0.08231027  0.083909135            1 
  825000    1.1343314   -3.2551267    814.20124  0.082242549  0.083890153            5 
  826000    1.1105613   -3.3079349     813.0781  0.082029671  0.083871119            3 
  827000     1.142101   -3.3166835    811.61177  0.081782726  0.083851368            3 
  828000    1.1324365   -3.2424742    817.23073  0.082249469  0.083831683            3 
  829000    1.1454954   -3.3019172    814.40664  0.081866369  0.083812734            3 
  830000    1.1182628   -3.2689991     813.4449  0.081671175  0.083793007            2 
  831000    1.0922652   -3.2769708    819.46639  0.082176734  0.083773898            1 
  832000    1.1140865    -3.275962    815.70962  0.081701685  0.083753511            2 
  833000    1.1034234   -3.2635951    816.49762  0.081682435  0.083733268            2 
  834000    1.0967299   -3.3000044    819.63019  0.081897501  0.083713367            8 
  835000    1.1142942   -3.2624543    818.85674   0.08172223  0.083694804            1 
  836000    1.0897035   -3.2850481    822.55771  0.081993392   0.08367602            1 
  837000    1.1212566   -3.3049964    820.72324  0.081712787  0.083657061            2 
  838000    1.1293266   -3.2649429     824.6377  0.082004544  0.083637589            3 
  839000    1.1196693   -3.2496565    826.35063   0.08207694  0.083618958            2 
  840000    1.1345424   -3.2685025    825.99543  0.081943991  0.083600345            2 
  841000    1.1271132   -3.2779441    829.29502  0.082173506  0.083582465            3 
  842000    1.1162765   -3.2726917    828.04846   0.08195254  0.083565213            3 
  843000    1.1100319   -3.2755482    826.01152  0.081653966   0.08354774            2 
  844000    1.1421252      -3.2833    829.12214   0.08186435  0.083529745            2 
  845000     1.095881   -3.2849785    831.06593  0.081959165  0.083512047            4 
  846000    1.1299727   -3.2633322    830.78572  0.081834685  0.083493511            1 
  847000    1.1379366    -3.284662    829.92598   0.08165348  0.083475486            2 
  848000    1.1022698   -3.2879599    830.48288  0.081611918   0.08345657            1 
  849000    1.1272862   -3.2804588    835.34067  0.081992606  0.083437883            3 
  850000    1.1100361   -3.2846218    831.47512  0.081517169  0.083419291            4 
  851000    1.0990921   -3.2906954    835.40485  0.081806194  0.083400898            3 
  852000     1.130921   -3.2816126    832.06538  0.081383546  0.083381867            2 
  853000    1.1396629   -3.2841661    835.62262  0.081635661  0.083363079            2 
  854000     1.094496   -3.2797546    837.72907  0.081745616  0.083343334            2 
  855000    1.1279488   -3.2869012    837.04333   0.08158317  0.083323864            1 
  856000    1.0920047   -3.2674086    840.38802  0.081813476  0.083305031            2 
  857000    1.1181938   -3.2968402    835.85339   0.08127707  0.083285487            4 
  858000    1.1253432    -3.286431    839.04531  0.081492357  0.083266082            2 
  859000     1.128476   -3.3067169    838.29949  0.081325134    0.0832468            2 
  860000    1.1289069   -3.2633638    840.09235  0.081404298  0.083227647            3 
  861000    1.1210817   -3.2861283    842.95126  0.081586456  0.083209352            3 
  862000    1.0975768   -3.2773348    844.74491  0.081665208  0.083189933            2 
  863000    1.1319289   -3.2749223    842.69102   0.08137225  0.083171822            2 
  864000    1.1117006   -3.3130626    844.31255  0.081434467  0.083153816            4 
  865000    1.1240361   -3.2955336    850.03848  0.081891954   0.08313577            3 
  866000    1.1131944    -3.306387     849.9163  0.081785633  0.083117199            2 
  867000    1.1121633   -3.2926101    846.36701  0.081350155  0.083099629            4 
  868000    1.1068878   -3.2788108    851.13293   0.08171399  0.083082291            1 
  869000    1.1148139    -3.301994    853.86715  0.081882158  0.083066362            2 
  870000    1.0916281   -3.2964033    854.19341  0.081819292  0.083050164            2 
  871000    1.0974793   -3.2710743    850.73427    0.0813944  0.083034552            2 
  872000    1.0914452   -3.2826185     852.9806   0.08151573  0.083018537            3 
  873000    1.1110409   -3.2707136    858.86611  0.081984165  0.083002385            3 
  874000    1.0832271   -3.2616535    857.75894  0.081784796  0.082986697            1 
  875000    1.1015747   -3.2822721    855.50893  0.081477041  0.082972223            3 
  876000     1.115012   -3.2592708    858.86041  0.081702855  0.082957698            1 
  877000     1.094235   -3.2769961    863.18324  0.082020453  0.082943433            1 
  878000    1.1003534   -3.2781917    863.10064  0.081919195   0.08293057            4 
  879000    1.1000176   -3.2903251    862.97263  0.081813863  0.082916559            3 
  880000    1.1194233   -3.2788698    861.64381  0.081595058  0.082902598            2 
  881000    1.1130982   -3.2994481      864.974  0.081817443  0.082888329            2 
  882000    1.1210988   -3.3114392    867.44695  0.081958329  0.082873906            2 
  883000      1.11012   -3.2755869    868.12484  0.081929487  0.082859435            1 
  884000    1.0874286   -3.2940077    865.39974  0.081579916  0.082844686            2 
  885000    1.1032154   -3.3275864    868.99823  0.081826576   0.08283055            2 
  886000    1.1132399   -3.2984583    867.28131  0.081572734  0.082815833            2 
  887000    1.0992346   -3.2835918    868.69694  0.081613767  0.082800451            2 
  888000    1.1164635   -3.2866863    868.14284  0.081469861  0.082785262            2 
  889000    1.0840426   -3.2936969    871.35432  0.081679257   0.08276979            4 
  890000    1.0973794   -3.2717893    871.65392  0.081615536  0.082754832            1 
  891000    1.1152249   -3.3056828    869.66869  0.081338261  0.082739959            2 
  892000     1.140785   -3.2828326    871.28417  0.081397998  0.082725108            1 
  893000     1.102817   -3.2706611    874.67997  0.081623737  0.082710008            6 
  894000    1.1078011   -3.2898352    879.27158  0.081960438  0.082695742            1 
  895000    1.1018542   -3.2702253    878.56566  0.081803134  0.082680982            3 
  896000     1.099742    -3.291369    875.18466  0.081397383  0.082666908            2 
  897000    1.1011163   -3.2682934    877.19226  0.081493149  0.082652574            1 
  898000    1.1141479   -3.2977892    879.60204  0.081626024  0.082637232            2 
  899000    1.0986342   -3.2860525    880.57366  0.081625292  0.082622601            3 
  900000    1.1034393   -3.3028778    883.35421  0.081792057  0.082608754            1 
  901000    1.1007575   -3.3241367    881.06627  0.081489666  0.082594735            4 
  902000    1.0919742   -3.2684101    884.73907  0.081738643  0.082579862            2 
  903000    1.1031986   -3.2651937    883.87553  0.081568432  0.082565481            2 
  904000    1.1075298   -3.3059673    885.66222  0.081642904  0.082551617            2 
  905000     1.111321   -3.2920041    882.09583  0.081224294  0.082536498            3 
  906000    1.1119456   -3.2894548    883.94092  0.081304352  0.082521186            3 
  907000     1.118222   -3.2766079    885.61486   0.08136851  0.082506914            3 
  908000    1.0997873   -3.3142806    884.27247  0.081155696  0.082491767            5 
  909000    1.0978353    -3.273736    889.32414  0.081529532  0.082476612            2 
  910000    1.1046197   -3.2927653    887.10907  0.081237094  0.082461651            2 
  911000    1.0839774   -3.3101178    884.44431  0.080904163   0.08244578            3 
  912000    1.1026748   -3.2827171    886.79836  0.081030552  0.082430491            2 
  913000    1.1084881   -3.3007657    886.29202  0.080895584  0.082415361            2 
  914000    1.1123056   -3.3101595     889.7301  0.081120542  0.082399055            2 
  915000    1.1131421   -3.3116661    893.19018  0.081347011  0.082384033            2 
  916000    1.0930402    -3.259157    890.45866  0.081009703  0.082368157            1 
  917000    1.1014577   -3.2883775    891.54775  0.081020334   0.08235225            3 
  918000     1.092652   -3.2511073    895.52284  0.081292923  0.082336907            2 
  919000    1.0867248   -3.2969535    895.72301  0.081222616  0.082321061            2 
  920000    1.1146509   -3.2912884    894.25339  0.081001213  0.082304771            2 
  921000     1.113636   -3.2877271    894.18141  0.080906751  0.082289363            1 
  922000    1.0875814   -3.3027086    899.38711  0.081289507  0.082273585            2 
  923000    1.1132087   -3.3174796    896.53035  0.080943513  0.082257846            4 
  924000    1.0924866   -3.2949397     898.9648  0.081075469  0.082241865            2 
  925000    1.1247784   -3.2946189    898.89249  0.080981305  0.082226446            1 
  926000    1.1315897   -3.2869075    900.92533  0.081076794  0.082211277            1 
  927000    1.1128717   -3.2922848    899.99515  0.080905713  0.082195868            1 
  928000     1.107494   -3.2955498    903.04882  0.081092746  0.082179987            2 
  929000    1.1035592   -3.2790027    899.95557  0.080727984  0.082164052            2 
  930000    1.1119682   -3.2788101    907.05477  0.081277309  0.082147628            3 
  931000    1.0852211   -3.2924936    906.04562  0.081099679  0.082132245            3 
  932000    1.1361486   -3.3087442    903.30788  0.080767872  0.082116213            2 
  933000    1.1162073   -3.3171841    902.79607   0.08063559  0.082100753            3 
  934000    1.1040295   -3.3152898    904.80509  0.080728506  0.082084692            2 
  935000    1.1185361   -3.2845037    907.72898  0.080902761  0.082068522            4 
  936000    1.1056433   -3.2833967    910.35381  0.081050019  0.082053917            3 
  937000    1.1074056   -3.2932752    907.51534  0.080711076  0.082038497            1 
  938000    1.1110222     -3.28083    911.36285  0.080966849  0.082022891            1 
  939000    1.1129856   -3.3091598    907.48513  0.080536486  0.082007612            1 
  940000    1.0963081   -3.3168379    911.09798  0.080771098  0.081991515            3 
  941000    1.0887206   -3.3123249    911.90923  0.080757105  0.081975953            1 
  942000    1.1276504   -3.2721409    911.45459  0.080631156  0.081961149            2 
  943000    1.1149288    -3.298967    918.80894  0.081195558  0.081945959            2 
  944000    1.1028012   -3.3322155     911.9577   0.08050474  0.081930608            2 
  945000    1.1579287   -3.2805872     913.7474  0.080577372  0.081914543            1 
  946000    1.1000997   -3.2826511    916.25245  0.080712866  0.081898782            3 
  947000    1.1206373   -3.2915526    917.08863  0.080701217  0.081882889            3 
  948000    1.1090678   -3.3032904    914.76876  0.080412162  0.081867151            3 
  949000    1.0932396   -3.2956955    918.23459  0.080631769  0.081850771            2 
  950000    1.0893407   -3.3169897    922.60382   0.08093016  0.081834977            1 
  951000    1.0830791   -3.3044473    921.32009   0.08073257   0.08181948            1 
  952000    1.0964381   -3.3032089     918.3405  0.080386948  0.081803574            2 
  953000    1.1267588   -3.2813277    925.46045  0.080925188  0.081787629            2 
  954000    1.0963107   -3.3015916    923.32328  0.080653675  0.081772377            3 
  955000    1.1310564   -3.3231008    924.54533  0.080675858  0.081757399            3 
  956000    1.1087919   -3.3359965    920.57806  0.080245647  0.081742288            1 
  957000    1.1151825   -3.2925258    926.32338  0.080662084  0.081727328            2 
  958000    1.1036214   -3.2992687    927.23133  0.080656866  0.081711819            2 
  959000    1.1300397    -3.357206     923.3464  0.080235175  0.081696988            3 
  960000    1.0806423   -3.3353368    925.70379  0.080356232  0.081681451            2 
  961000    1.0892193   -3.3364973    928.96898  0.080555756  0.081666199            1 
  962000    1.1303947   -3.3099476     928.0266  0.080390384  0.081651924            3 
  963000    1.0922766    -3.333049     930.4737  0.080518665  0.081637216            3 
  964000    1.1270114   -3.3119902    934.82259  0.080811082  0.081622489            2 
  965000    1.1182188   -3.3018771      932.173  0.080498532  0.081608046            6 
  966000    1.0673755   -3.2996119    934.53049  0.080618572  0.081593185            1 
  967000    1.0811942   -3.3393033    936.22767   0.08068146  0.081579024            4 
  968000     1.121263   -3.2995316    937.76359  0.080730337  0.081564512            2 
  969000     1.099386   -3.3034217    938.41657  0.080703179  0.081550376            3 
  970000    1.1017906   -3.3170851     937.8256   0.08056921  0.081535481            3 
  971000    1.0790805   -3.3271749    938.56557   0.08054974  0.081521034            3 
  972000    1.1061632   -3.3024813    940.95307  0.080671559  0.081507123            1 
  973000    1.0964794    -3.292391    946.16587  0.081035104  0.081493332            3 
  974000    1.0696231   -3.2895464    942.47985  0.080636537  0.081480218            1 
  975000    1.0947716   -3.3145335    942.69194  0.080571961  0.081467075            1 
  976000      1.10291   -3.3056177    949.13097  0.081039188  0.081454196            2 
  977000    1.1080151   -3.3154206    947.38104  0.080806981    0.0814415            1 
  978000    1.1214798     -3.28804    948.68948  0.080835845  0.081429284            2 
  979000    1.0613823   -3.3031269    948.05032  0.080698869  0.081417584            1 
  980000    1.0969015   -3.3035444    950.56186   0.08083009  0.081406084            1 
  981000    1.0754489   -3.3336912    952.37184  0.080901447  0.081394236            2 
  982000    1.0848124   -3.3206649    950.62902  0.080671166  0.081381691            3 
  983000    1.1103701   -3.2782033    955.05158   0.08096402  0.081370101            1 
  984000    1.1109911   -3.3311659    954.09202  0.080800476  0.081357918            2 
  985000    1.1153235   -3.3096125    953.63081  0.080679425  0.081345721            2 
  986000    1.0748571   -3.2960482    957.34918  0.080911865  0.081333645            2 
  987000    1.0864866    -3.316769    957.41933  0.080835809  0.081321491            2 
  988000    1.0930227   -3.2949369    956.73627  0.080696379  0.081309651            2 
  989000    1.1047195   -3.2941455    956.83995  0.080623521  0.081296855            2 
  990000    1.0924827   -3.2894208    958.74273   0.08070225  0.081284849            2 
  991000    1.0901139   -3.2989284    960.94406  0.080805925  0.081272409            3 
  992000    1.0919191   -3.3227395    959.51903  0.080604757  0.081260254            4 
  993000    1.0898142   -3.3257096    960.24067  0.080584145  0.081247309            1 
  994000    1.0986057   -3.3245667     958.7518  0.080378253  0.081233696            4 
  995000    1.1107339   -3.3310633    960.43904  0.080438781  0.081220468            1 
  996000    1.0966319   -3.3137613    959.48547  0.080278235  0.081207492            2 
  997000    1.1279314   -3.3275387    957.88431  0.080063884  0.081193915            5 
  998000    1.0947682   -3.3157596    964.14197  0.080506177  0.081180303            3 
  999000    1.0934859   -3.2991036    962.74196  0.080308806    0.0811658            2 
 1000000    1.0903133   -3.2885952    964.05576   0.08033798  0.081151718            2 
 1001000    1.0903083    -3.292432    968.20353  0.080603024  0.081137746            3 
 1002000    1.0763885   -3.3279026    965.70243  0.080314574  0.081124545            2 
 1003000    1.0899497   -3.3223528    964.15176  0.080105663  0.081110982            1 
 1004000    1.0700988   -3.3040963    969.19994  0.080444882  0.081096638            3 
 1005000    1.0801054    -3.301132    966.82231  0.080167688  0.081083107            2 
 1006000    1.0771155   -3.3230903    968.87357  0.080257917  0.081069145            7 
 1007000    1.0767626    -3.288036    968.24049  0.080125826  0.081055165            2 
 1008000    1.1028859   -3.3058824    970.46697  0.080230404  0.081041496            2 
 1009000    1.1043424    -3.311508    967.72913  0.079924771  0.081026941            1 
 1010000     1.092167    -3.277987    973.54874  0.080325803  0.081012837            5 
 1011000    1.0675607   -3.3115624    974.58763  0.080331984  0.080998442            5 
 1012000    1.0826446   -3.3107801    968.63845  0.079762718  0.080984312            4 
 1013000    1.0806343   -3.3169026    974.94173  0.080202512  0.080969759            3 
 1014000    1.1150222    -3.314596    973.73179   0.08002398  0.080955248            4 
 1015000    1.0826153   -3.3118189    978.43929  0.080331633  0.080940656            1 
 1016000    1.0841868    -3.332142    975.52125  0.080013226  0.080926395            4 
 1017000    1.1005884   -3.3223158    975.80995  0.079958207  0.080912213            4 
 1018000    1.0854821   -3.3357136    978.15622  0.080071728  0.080897709            2 
 1019000    1.0841739   -3.3085668    979.17919  0.080076806  0.080883645            3 
 1020000    1.0971371   -3.3387193    978.00471  0.079902345  0.080869136            2 
 1021000    1.0976615   -3.3009721    977.69938  0.079799166  0.080855045            3 
 1022000    1.1002809   -3.2965827    983.33365    0.0801805  0.080840805            1 
 1023000    1.1106034   -3.2951522    983.14215  0.080086523  0.080827176            2 
 1024000     1.094921   -3.2885198    983.76939  0.080059358  0.080812936            2 
 1025000    1.1037476   -3.3457098    981.00879  0.079756812  0.080798911            2 
 1026000    1.1009505    -3.310542    985.02055  0.080004918  0.080784377            3 
 1027000    1.0592274   -3.3194263    982.23109  0.079700673  0.080769734            3 
 1028000    1.0968243   -3.3170967    985.30453  0.079872287  0.080755589            3 
 1029000    1.0955955   -3.3452252    988.86552  0.080083052  0.080741999            2 
 1030000    1.0936489   -3.2864303    990.41377  0.080130564  0.080727946            2 
 1031000    1.1019169     -3.33454    988.81345  0.079923492  0.080714366            2 
 1032000    1.0720029   -3.2873437    992.28485  0.080126361  0.080701199            2 
 1033000    1.0995668   -3.3213116    989.29174  0.079807336  0.080688051            2 
 1034000    1.0951616   -3.3193334    993.45037   0.08006531  0.080674635            2 
 1035000    1.0668985    -3.332736    989.69933  0.079685936  0.080660992            2 
 1036000    1.0796575   -3.3179095    993.60796   0.07992342  0.080647581            4 
 1037000    1.0910293   -3.3142064    995.66358  0.080011538  0.080634431            6 
 1038000    1.0837942   -3.2914322    998.50455  0.080162536  0.080621969            4 
 1039000    1.0969721    -3.342353    995.31236  0.079829352  0.080609094            2 
 1040000    1.0814145   -3.3368705    996.60499  0.079856169  0.080596243            2 
 1041000    1.1049093   -3.3021201    1001.5262  0.080173409  0.080583419            2 
 1042000    1.1101143   -3.3075774    994.91624  0.079567838  0.080570785            3 
 1043000    1.0987105   -3.3726812    998.21597  0.079755191  0.080557703            2 
 1044000    1.0996493   -3.3157327    1002.5526  0.080024954  0.080543683            3 
 1045000    1.0789633     -3.30965    1002.5822  0.079950737  0.080530003            2 
 1046000    1.0741798   -3.3094078    1000.3004  0.079692513  0.080516685            2 
 1047000    1.1105768   -3.3503899    1002.7163  0.079808686  0.080502821            4 
 1048000    1.0661737   -3.3376422    1000.1495  0.079528425  0.080488819            1 
 1049000     1.087701    -3.334777    1001.4719  0.079557669  0.080475183            1 
 1050000    1.0743177   -3.2935261    1007.4078     0.079953  0.080461446            2 
 1051000     1.091318   -3.3519143    1003.4905  0.079566322   0.08044699            3 
 1052000    1.0827442   -3.3343058    1003.0944  0.079459312   0.08043301            2 
 1053000    1.0825591   -3.2997997    1001.8335   0.07928407  0.080418699            1 
 1054000    1.1042083   -3.3307657    1006.5233  0.079579644  0.080404829            2 
 1055000    1.0834531   -3.3357991    1007.1834  0.079556353  0.080391059            2 
 1056000    1.0706799   -3.3152296    1007.5188  0.079507481  0.080377625            1 
 1057000    1.0875925   -3.3194891    1010.6784  0.079681366  0.080363716            2 
 1058000    1.0441171   -3.3173297    1010.3448  0.079579773   0.08035007            3 
 1059000    1.0873524   -3.3492611    1008.8465  0.079386728  0.080336141            2 
 1060000    1.0937136   -3.3193564    1014.3715  0.079746184  0.080322712            2 
 1061000    1.0963502   -3.3109234    1012.2938  0.079507839  0.080309059            4 
 1062000    1.0761744   -3.3112097     1015.069  0.079650739  0.080294953            4 
 1063000    1.0780067   -3.3052632    1014.0051  0.079492403  0.080280977            2 
 1064000     1.070567   -3.3384907    1011.7299  0.079239493  0.080266535            1 
 1065000    1.0799241   -3.3053194    1013.8466  0.079330723  0.080252637            3 
 1066000    1.0688482   -3.3256814    1015.2316  0.079364569  0.080239181            2 
 1067000    1.0704371   -3.3511576    1015.9724  0.079348046  0.080225228            2 
 1068000    1.0699373   -3.3102536    1014.8209  0.079183906  0.080211699            2 
 1069000    1.0763268   -3.3036304    1018.7884  0.079419111   0.08019812            2 
 1070000      1.09366   -3.3572125    1020.8645  0.079506583  0.080184503            2 
 1071000    1.0703714   -3.2710018     1025.938  0.079827106  0.080170885            4 
 1072000    1.1029671    -3.314255    1023.4582  0.079559874  0.080157671            1 
 1073000    1.0728489    -3.319278    1020.4228  0.079249984  0.080144164            3 
 1074000     1.072606   -3.3284595    1023.6384  0.079425702  0.080130485            4 
 1075000     1.081627   -3.3357799    1018.3761  0.078943884  0.080116431            3 
 1076000    1.0645562   -3.3512176    1024.7158  0.079361506   0.08010196            5 
 1077000    1.0751114   -3.3419375    1022.6905  0.079131109  0.080087982            1 
 1078000    1.0603281   -3.3256661    1025.2829  0.079258111  0.080073506            2 
 1079000    1.0703958   -3.3396887    1029.2381  0.079490123  0.080059786            2 
 1080000    1.0681023   -3.3705942    1029.1844  0.079412378  0.080045157            1 
 1081000    1.0836213   -3.3359926    1028.9124  0.079317949  0.080030449            1 
 1082000    1.0827741   -3.3284027    1024.0725  0.078871884  0.080015315            1 
 1083000    1.0723216   -3.3510241    1026.9464  0.079020191  0.080000875            2 
 1084000    1.0863206   -3.3237816    1027.4975  0.078989658  0.079986958            4 
 1085000    1.0723216    -3.350773    1030.7305  0.079165171  0.079973416            3 
 1086000    1.0985516   -3.3336455    1034.8442  0.079407932  0.079959447            2 
 1087000      1.08397    -3.339959    1034.8951  0.079338783  0.079946358            1 
 1088000    1.0769097   -3.3252966     1034.871  0.079264015  0.079933331            3 
 1089000     1.074192   -3.3613355    1035.7808   0.07926085  0.079920114            3 
 1090000    1.0494956   -3.3102595    1036.7108  0.079259239  0.079906958            4 
 1091000    1.0641728   -3.3310366    1038.7963  0.079345885  0.079893463            3 
 1092000     1.083866     -3.33833    1035.0338  0.078986093  0.079879671            3 
 1093000    1.0692463   -3.3223951    1033.8495  0.078823532  0.079865343            2 
 1094000    1.0830663   -3.3545291    1037.6138  0.079038223  0.079851742            2 
 1095000    1.0589431   -3.3313486    1037.5556   0.07896161  0.079837449            1 
 1096000    1.1129528    -3.320567    1037.5573  0.078889694  0.079823729            1 
 1097000    1.0580921   -3.3042086    1043.4206  0.079263191   0.07980962            5 
 1098000    1.0573153   -3.3464869    1041.1952    0.0790221  0.079795722            4 
 1099000    1.0837979   -3.3236554    1044.1111    0.0791713   0.07978168            2 
 1100000    1.0864617   -3.3516912    1045.8079  0.079227872  0.079768127            3 
 1101000    1.0869531   -3.3425959    1044.9075  0.079087758  0.079753914            1 
 1102000     1.061681   -3.3461052    1042.1378  0.078806545  0.079739797            3 
 1103000    1.0883652   -3.3252289    1047.3231  0.079126858  0.079725795            3 
 1104000    1.0605727   -3.3334601    1047.0302  0.079033079  0.079711177            2 
 1105000    1.0572062    -3.332581    1044.6519  0.078782194  0.079696429            1 
 1106000    1.0905096   -3.2929404    1048.2404  0.078981346  0.079681804            4 
 1107000    1.0839452   -3.3385882    1046.5402   0.07878201  0.079667878            4 
 1108000     1.037822    -3.325175    1046.6041   0.07871571  0.079653146            2 
 1109000    1.0911823   -3.3426833    1048.4749  0.078785309   0.07963865            2 
 1110000    1.0899413   -3.3588365    1045.5985  0.078498389  0.079623762            2 
 1111000    1.0753592   -3.3400232    1053.0218   0.07898453  0.079608908            4 
 1112000    1.0798799   -3.3353761    1051.3047  0.078784822  0.079594613            2 
 1113000    1.0566061   -3.3542724    1049.7093  0.078594588  0.079580034            3 
 1114000    1.0703988   -3.3039001    1050.9358  0.078615786  0.079564972            2 
 1115000    1.0960095   -3.3538334     1053.786  0.078758295  0.079549923            1 
 1116000    1.0623414   -3.3632721    1051.3604  0.078506602  0.079535064            2 
 1117000    1.0763849   -3.3176207    1054.7609  0.078690014  0.079519811            2 
 1118000    1.0891455   -3.3261321    1054.8183  0.078623903  0.079505101            2 
 1119000      1.07607   -3.3354542    1055.2082  0.078582675  0.079490177            1 
 1120000    1.0787591   -3.3330487    1056.2547  0.078590382  0.079475339            2 
 1121000    1.0739755   -3.3457281    1054.4826  0.078388539  0.079460319            6 
 1122000    1.0721161   -3.3304455    1055.4878  0.078393328  0.079445293            2 
 1123000    1.0776731   -3.3160235    1062.4931  0.078843359   0.07943147            5 
 1124000    1.0841937   -3.3209298     1062.578  0.078779508  0.079416929            2 
 1125000    1.0729696   -3.3348878    1057.9675  0.078367961  0.079402232            1 
 1126000     1.056581   -3.3480201    1061.7364  0.078577292  0.079387676            2 
 1127000     1.066652    -3.346014    1064.4143   0.07870558  0.079373055            3 
 1128000    1.0883592   -3.3207321    1062.3822  0.078485683  0.079358493            2 
 1129000    1.0836335   -3.3364729    1062.1962  0.078402435  0.079344103            2 
 1130000    1.0550288   -3.3077363    1069.9389  0.078904046  0.079330198            3 
 1131000    1.0789859   -3.3642166    1060.3891  0.078130641  0.079315126            3 
 1132000    1.0887863   -3.3332872    1070.8876  0.078834479  0.079300481            2 
 1133000    1.0732411    -3.361645     1065.045   0.07833517  0.079286101            2 
 1134000    1.0791336   -3.3734555    1064.9338  0.078257921  0.079271921            5 
 1135000    1.0631802   -3.3320177    1069.3928  0.078516358  0.079257674            1 
 1136000    1.0792724   -3.3371041    1070.5551  0.078532508  0.079243009            2 
 1137000    1.0630306   -3.3339906     1070.782  0.078480063   0.07922814            2 
 1138000    1.0781297    -3.334406    1068.5006   0.07824404  0.079213523            1 
 1139000    1.0675021   -3.3576071    1069.5172  0.078249722   0.07919865            2 
 1140000    1.0474604   -3.3517436    1073.2835  0.078456397  0.079184651            2 
 1141000    1.0739162    -3.341289    1068.5983  0.078045451  0.079169855            6 
 1142000    1.0600428   -3.3433507    1069.4665  0.078040464  0.079155345            2 
 1143000    1.0578787   -3.3173712    1074.6216  0.078348034  0.079140829            3 
 1144000    1.0771182   -3.3281602    1079.4897  0.078634153  0.079127499            1 
 1145000    1.0543982    -3.336534    1074.4894  0.078201554  0.079113076            3 
 1146000    1.0630521   -3.3408788     1075.461   0.07820397  0.079098495            1 
 1147000    1.0671685     -3.35476    1076.0981  0.078182074  0.079083394            2 
 1148000    1.0708816   -3.3597186    1078.8858   0.07831633  0.079068327            2 
 1149000    1.0936731   -3.3292452     1080.183  0.078342256  0.079053836            2 
 1150000    1.0584732   -3.3351499    1076.4777   0.07800563   0.07903932            4 
 1151000    1.0536425    -3.354083     1075.707  0.077882061  0.079024885            1 
 1152000    1.0583404   -3.3391764    1079.0371  0.078055346  0.079010039            3 
 1153000    1.0971798   -3.3378024    1082.2484  0.078219748  0.078996152            1 
 1154000    1.0904912   -3.3513046    1083.2764  0.078226201  0.078982117            4 
 1155000    1.0689958   -3.3452241    1087.1307  0.078436561  0.078967972            1 
 1156000    1.0587777   -3.3386371    1085.9113  0.078280801  0.078954213            2 
 1157000     1.078902   -3.3513297    1088.5511  0.078403278  0.078940158            4 
 1158000    1.0699298   -3.3358439    1089.0671  0.078372706  0.078926749            5 
 1159000    1.0647302   -3.3434071    1090.4841  0.078406968  0.078913592            2 
 1160000    1.0487934   -3.3420321    1087.0626   0.07809358  0.078900329            2 
 1161000    1.0456232   -3.3505062    1087.3351   0.07804587  0.078886716            2 
 1162000    1.0725311   -3.3535472    1089.9842   0.07816869  0.078873027            2 
 1163000    1.0477098   -3.3656399    1096.9208   0.07859851  0.078859478            3 
 1164000    1.0558768   -3.3468711    1094.5001  0.078357683  0.078846494            2 
 1165000    1.0739921   -3.3573595    1090.3523  0.077993728  0.078833276            2 
 1166000     1.084339   -3.3478281    1094.2337  0.078204241  0.078819451            1 
 1167000    1.0952236   -3.3596931    1095.8792  0.078254726  0.078806212            3 
 1168000    1.0762761   -3.3502993    1098.1496  0.078349713  0.078792743            4 
 1169000    1.0624237   -3.3365652    1101.5198  0.078522938  0.078779511            2 
 1170000    1.0679076   -3.3501022    1095.1713  0.078003656  0.078766531            1 
 1171000    1.0665505   -3.3398449    1100.9634  0.078349233   0.07875318            3 
 1172000    1.0538606   -3.3440151    1100.5445  0.078252594  0.078739505            3 
 1173000    1.0434881   -3.3373613    1102.4257  0.078319528  0.078725892            2 
 1174000    1.0700934   -3.3361619    1099.3772  0.078036429  0.078711841            2 
 1175000    1.0836159    -3.355079    1094.3763  0.077615337  0.078698087            2 
 1176000    1.0602232   -3.3364027    1099.3988  0.077905244  0.078684288            2 
 1177000    1.0573735   -3.3259707    1097.2388   0.07768612  0.078669761            4 
 1178000    1.0462117   -3.3311741    1093.4821   0.07735442  0.078655021            3 
 1179000    1.0645035   -3.3598091    1098.6298   0.07765266   0.07864014            3 
 1180000     1.058183   -3.3490937    1103.1458  0.077905779  0.078625368            5 
 1181000    1.0358486   -3.3640568    1105.2224  0.077986341  0.078610588            2 
 1182000    1.0989302   -3.3985139    1100.9184  0.077616922  0.078595877            6 
 1183000    1.0482506   -3.3301477    1102.1249  0.077636301  0.078580872            4 
 1184000    1.0796438   -3.3847431    1098.4447  0.077311706  0.078565793            3 
 1185000    1.0645173   -3.3328316    1106.4247  0.077807646  0.078551383            1 
 1186000    1.0601967   -3.3332336    1104.3859  0.077598788  0.078536469            2 
 1187000     1.077141   -3.3542306     1107.977  0.077785524  0.078521793            4 
 1188000    1.0330998   -3.3528213    1105.9062  0.077574792  0.078506915            2 
 1189000    1.0420954   -3.3274289    1111.0864  0.077872607  0.078492861            3 
 1190000    1.0596669   -3.3460922    1111.6251  0.077844895  0.078478862            3 
 1191000    1.0594295   -3.3501745    1109.6026   0.07763802  0.078463668            2 
 1192000    1.0646729   -3.3124502    1110.5453   0.07763879  0.078449429            3 
 1193000    1.0636402   -3.3302659    1116.4626   0.07798705  0.078435247            2 
 1194000    1.0451811   -3.3462439    1108.0046  0.077331421  0.078420707            2 
 1195000    1.0504873   -3.3739728    1111.2085  0.077490134  0.078406051            2 
 1196000    1.0806216   -3.3448376    1110.6966  0.077389676  0.078391383            2 
 1197000     1.049623   -3.3800953    1107.0662  0.077072275  0.078375869            3 
 1198000    1.0675519   -3.3712506    1114.7749  0.077544163  0.078360303            4 
 1199000     1.089526   -3.3723811    1111.0534  0.077220835   0.07834461            5 
 1200000    1.0610474   -3.3587123    1112.1769   0.07723451   0.07832897            4 
 1201000    1.0503953   -3.3515045    1115.9728  0.077433581   0.07831391            5 
 1202000    1.0772805   -3.3292324    1121.3435  0.077741504  0.078298644            2 
 1203000    1.0789997   -3.3133784    1116.5875  0.077347429  0.078283835            2 
 1204000    1.0632304   -3.3552196    1117.8745  0.077372263  0.078268678            2 
 1205000    1.0677544    -3.343835    1119.7045  0.077434614  0.078253124            2 
 1206000    1.0515138   -3.3532916    1122.5642  0.077568005  0.078237586            2 
 1207000    1.0710421    -3.361198    1119.1113   0.07726535  0.078221981            3 
 1208000    1.0628274   -3.3653026    1118.4183   0.07715358   0.07820577            2 
 1209000    1.0447776   -3.3564864     1121.059  0.077271783  0.078189743            5 
 1210000    1.0759563   -3.3681882     1120.213  0.077149657  0.078174367            1 
 1211000    1.0755452   -3.3753588    1121.5569  0.077178424   0.07815882            4 
 1212000    1.0622493   -3.3675115    1120.2936   0.07702789  0.078143789            3 
 1213000    1.0613296    -3.388339    1124.3169  0.077240784   0.07812825            2 
 1214000    1.0451437   -3.3412351    1125.4035   0.07725175  0.078112589            4 
 1215000    1.0700369   -3.3561059    1126.2507  0.077246275  0.078096877            2 
 1216000    1.0414677    -3.366274    1122.7534  0.076943079  0.078081257            2 
 1217000    1.0502728   -3.3660637    1124.1333   0.07697434  0.078065392            2 
 1218000    1.0592031    -3.372569    1127.9558  0.077172675  0.078049773            6 
 1219000    1.0434719   -3.3540479    1126.6455  0.077019792  0.078034233            1 
 1220000    1.0435762    -3.367342    1125.5042  0.076878699   0.07801839            4 
 1221000    1.0410339   -3.3690012    1126.3624  0.076874308  0.078002431            1 
 1222000    1.0541016   -3.3804927    1126.4681  0.076818612  0.077986424            2 
 1223000    1.0656124   -3.3457881    1129.8007  0.076982874  0.077970527            2 
 1224000    1.0394644   -3.3394228    1129.9719  0.076931641  0.077954598            1 
 1225000    1.0778633   -3.3666778    1129.4556  0.076833714  0.077938402            4 
 1226000    1.0299262   -3.3785709    1125.5202  0.076503548  0.077922558            3 
 1227000    1.0572473   -3.3663881    1134.4733  0.077049259  0.077906318            2 
 1228000    1.0345131   -3.3643963    1131.6685  0.076796179  0.077890432            2 
 1229000    1.0546083   -3.3735361    1129.5411   0.07658944  0.077874267            1 
 1230000     1.059372   -3.3550616    1135.5306  0.076932969  0.077857892            2 
 1231000    1.0635426   -3.3790094    1134.0916  0.076773058  0.077841915            3 
 1232000    1.0441655   -3.3434027    1137.8441  0.076964563  0.077825742            2 
 1233000    1.0445601   -3.3703893    1134.2634  0.076660139  0.077810087            2 
 1234000    1.0601754   -3.3598979    1139.7539  0.076968793  0.077793793            2 
 1235000    1.0409957   -3.3752103    1135.8789  0.076644998  0.077777645            5 
 1236000    1.0364732   -3.3293395    1148.5047  0.077434241  0.077761941            2 
 1237000    1.0500247   -3.3594135    1142.4386  0.076962989  0.077746528            2 
 1238000    1.0403787   -3.3687858    1140.3443  0.076759845  0.077731164            5 
 1239000    1.0638127   -3.2999411    1146.4381  0.077107753  0.077715655            2 
 1240000    1.0721851   -3.3545161    1144.6342  0.076924344  0.077700596            2 
 1241000    1.0644177   -3.3865667    1139.2614  0.076501568   0.07768507            1 
 1242000     1.046723   -3.3788061    1144.8246  0.076813244  0.077669701            2 
 1243000    1.0523825   -3.3921182    1147.4517  0.076927573  0.077654547            2 
 1244000    1.0470172    -3.337391    1145.5578   0.07673887  0.077639444            4 
 1245000    1.0445311   -3.3586898    1150.0445  0.076977543  0.077624814            1 
 1246000    1.0433692    -3.369726     1150.143  0.076922352  0.077610373            1 
 1247000     1.057781   -3.3606777     1148.181  0.076729553  0.077595278            1 
 1248000    1.0659728   -3.3728373    1146.5821  0.076561301  0.077579957            3 
 1249000    1.0591893   -3.3806597    1145.9523  0.076457988  0.077564619            2 
 1250000    1.0641365   -3.3425817    1148.4022   0.07656015  0.077548404            1 
 1251000    1.0677927   -3.3695814    1150.2337  0.076620949  0.077533286            3 
 1252000    1.0477088   -3.3428759    1153.6854  0.076789494  0.077517703            1 
 1253000    1.0402494   -3.3635248    1150.3994  0.076509667  0.077501882            1 
 1254000    1.0499678   -3.3727464     1150.335  0.076444379  0.077485733            3 
 1255000    1.0323883   -3.3541787    1152.2624  0.076511445  0.077470203            3 
 1256000    1.0449563   -3.3875969     1151.995  0.076432788   0.07745433            2 
 1257000    1.0538486   -3.3867655    1152.7329  0.076420906  0.077438688            3 
 1258000     1.016407   -3.3706023    1149.8417  0.076168634  0.077422665            2 
 1259000    1.0758643   -3.3673306    1150.3759  0.076143496  0.077406189            3 
 1260000    1.0483507   -3.3884878    1154.3783  0.076347768  0.077389797            2 
 1261000    1.0530468   -3.3735374    1156.1218  0.076402446  0.077372643            3 
 1262000    1.0354037   -3.3444647    1162.7466  0.076779355  0.077356257            2 
 1263000    1.0479815   -3.3727168    1151.7406  0.075992383  0.077339475            1 
 1264000    1.0649077   -3.3407673    1159.2551  0.076427683  0.077323251            4 
 1265000    1.0540106   -3.3594784    1160.6898  0.076461781  0.077306974            2 
 1266000    1.0686205    -3.365444    1159.1041  0.076297006  0.077290608            2 
 1267000    1.0518835   -3.3591668    1158.9863  0.076229038  0.077274514            4 
 1268000     1.043319   -3.3733828    1160.9846  0.076300251  0.077258138            1 
 1269000    1.0487054   -3.3650574     1161.002  0.076241265  0.077241203            5 
 1270000    1.0537341   -3.3552597    1159.1608  0.076060422  0.077225487            2 
 1271000    1.0306167    -3.381942    1162.0434  0.076189575  0.077209307            3 
 1272000     1.025135   -3.3674489    1162.8871  0.076184951  0.077193112            1 
 1273000     1.030155   -3.3660026    1166.7676  0.076379131  0.077177152            3 
 1274000    1.0427176   -3.3648728    1165.2866  0.076222303   0.07716156            2 
 1275000    1.0589366   -3.3629017    1165.3828  0.076168811  0.077146183            3 
 1276000    1.0594754   -3.3903326    1168.1691  0.076291085  0.077131079            2 
 1277000    1.0483533   -3.3634003    1166.4511  0.076119231  0.077115564            5 
 1278000    1.0448691   -3.3808623    1171.0265  0.076358013  0.077099844            3 
 1279000    1.0320473   -3.3655159    1168.5344   0.07613594  0.077084679            2 
 1280000    1.0457808   -3.3599529    1170.1148  0.076179348  0.077069513            2 
 1281000    1.0534053   -3.3769656    1173.2404  0.076323214  0.077054086            3 
 1282000    1.0428499   -3.3746345    1179.6089  0.076677643  0.077038328            2 
 1283000    1.0512567   -3.3741634    1174.6134  0.076293412  0.077022782            2 
 1284000    1.0453342   -3.3892946    1171.1794  0.076011124  0.077007862            2 
 1285000    1.0150005   -3.3805275    1174.6618  0.076177808  0.076992958            4 
 1286000     1.062887    -3.384105    1173.3503  0.076033588  0.076977909            4 
 1287000    1.0342837   -3.3878587    1176.1304  0.076154518  0.076962567            2 
 1288000    1.0437389   -3.3403165    1177.7033  0.076197162  0.076947228            1 
 1289000    1.0520254   -3.3910126    1173.8058  0.075886077  0.076931542            3 
 1290000    1.0540042   -3.3932869    1175.5087  0.075937254  0.076916238            2 
 1291000    1.0404585   -3.3604404    1176.0523  0.075913522  0.076900716            4 
 1292000    1.0525989   -3.3852146    1178.6221  0.076020516  0.076885515            2 
 1293000    1.0293092    -3.361017    1179.8215  0.076039023  0.076870503            2 
 1294000    1.0712924   -3.3787419    1186.3764  0.076402393  0.076855164            1 
 1295000    1.0256984   -3.3663445     1188.796  0.076499098  0.076840158            1 
 1296000     1.040445   -3.3776222    1181.6179  0.075978514  0.076825003            3 
 1297000    1.0254343   -3.3839975    1180.5681  0.075852485  0.076809723            3 
 1298000    1.0535546   -3.3757068    1180.7052   0.07580285   0.07679505            2 
 1299000    1.0334752   -3.3998556    1188.0613  0.076216404  0.076779864            1 
 1300000     1.048597    -3.407259    1182.9968  0.075833125  0.076764839            2 
 1301000    1.0224184   -3.3645045     1190.843  0.076277413  0.076750265            3 
 1302000    1.0375757   -3.3863245    1186.3311   0.07593005  0.076735059            2 
 1303000     1.015377   -3.3886469    1189.3641  0.076065752  0.076720155            6 
 1304000    1.0374474   -3.3768171     1185.949  0.075789176  0.076705656            1 
 1305000    1.0546356   -3.3763973     1190.923  0.076048725  0.076691133            2 
 1306000    1.0442498   -3.3748626    1189.3735  0.075891624    0.0766766            2 
 1307000    1.0391708   -3.3739297    1191.1646  0.075947758  0.076662335            1 
 1308000    1.0518566   -3.3920126    1192.6866  0.075986656  0.076648021            2 
 1309000    1.0298184   -3.3853212    1188.9909  0.075693337   0.07663338            1 
 1310000    1.0315702   -3.3720653    1192.0516  0.075830252  0.076618819            2 
 1311000    1.0227482    -3.373657    1192.2407  0.075784431  0.076604116            2 
 1312000    1.0691827   -3.4288792    1191.6425  0.075688675  0.076588822            3 
 1313000    1.0458501   -3.3845699    1195.8875  0.075900452  0.076574197            3 
 1314000    1.0116974   -3.3847168    1195.8819  0.075842331  0.076559666            1 
 1315000    1.0277417   -3.3896284    1203.1078  0.076242572  0.076545724            2 
 1316000    1.0475983   -3.4036514    1199.6888  0.075968137  0.076531042            2 
 1317000    1.0519304   -3.3673601    1200.0205  0.075931444  0.076516876            2 
 1318000    1.0349072   -3.3377092    1199.3558  0.075831802  0.076502702            5 
 1319000    1.0462171   -3.3953734    1200.2116  0.075828381  0.076487862            1 
 1320000    1.0485324   -3.3759954    1201.9158  0.075878525  0.076473532            4 
 1321000    1.0417193   -3.3848402    1198.9298  0.075632716  0.076458888            2 
 1322000     1.036254   -3.3828053    1199.3779  0.075603752  0.076444088            5 
 1323000    1.0543032   -3.3581126    1203.1665   0.07578524  0.076429793            2 
 1324000    1.0337318   -3.3508994    1203.7163  0.075762608  0.076415185            2 
 1325000    1.0512386   -3.4085962    1207.7666  0.075960165  0.076400785            2 
 1326000    1.0648382   -3.4001991    1201.6869  0.075520797  0.076386117            4 
 1327000    1.0317665   -3.3967468    1205.8711  0.075726647  0.076371955            3 
 1328000     1.018342   -3.3714258    1209.4713  0.075895536  0.076357876            3 
 1329000    1.0141397   -3.3623936    1210.8431  0.075924447  0.076343926            2 
 1330000    1.0274038   -3.4020179    1206.9576  0.075623908  0.076330087            6 
 1331000     1.040974   -3.3689866    1214.1149   0.07601521  0.076316059            2 
 1332000    1.0333873   -3.3692165    1214.3603  0.075973494  0.076302848            3 
 1333000    1.0173312   -3.3643114    1218.0043  0.076144304  0.076289325            1 
 1334000    1.0348469    -3.380971    1209.7926  0.075574252  0.076275657            4 
 1335000    1.0420635   -3.3969661    1214.4508  0.075808413  0.076261592            4 
 1336000    1.0304451   -3.3957415    1214.3864  0.075747658  0.076247965            4 
 1337000    1.0406357   -3.3661486    1216.7458  0.075838058  0.076234162            3 
 1338000    1.0332643    -3.378965    1218.0681  0.075863732  0.076220618            3 
 1339000    1.0370372   -3.3443574    1223.8242  0.076165311  0.076207358            3 
 1340000    1.0390197   -3.4062818     1218.364  0.075768903  0.076193941            2 
 1341000     1.019029   -3.3932248    1218.5675  0.075725052  0.076180366            2 
 1342000    1.0399737   -3.3773318    1225.7932   0.07611731  0.076167048            2 
 1343000    1.0368679   -3.3845508     1218.899  0.075632848  0.076153558            2 
 1344000    1.0544624   -3.4007022    1217.6777  0.075500848  0.076140625            3 
 1345000    1.0269756   -3.3937145    1219.8398  0.075578675  0.076127289            2 
 1346000    1.0539565    -3.393399    1219.7284  0.075515628  0.076113934            3 
 1347000    1.0491269   -3.3808055    1225.3306  0.075806148  0.076100777            2 
 1348000    1.0579877   -3.3698185     1229.521  0.076008963  0.076088018            3 
 1349000    1.0513525   -3.3650733    1227.3165  0.075816437  0.076074911            1 
 1350000     1.058638   -3.4159248    1220.9063  0.075364584  0.076061438            2 
 1351000    1.0251316   -3.4041182    1228.8725  0.075800182  0.076048139            3 
 1352000    1.0070089   -3.3819558      1226.21  0.075580008  0.076035089            3 
 1353000    1.0353213   -3.3729333    1232.9843  0.075941384  0.076021759            3 
 1354000    1.0117691   -3.4092008    1230.0099  0.075702236  0.076008802            3 
 1355000    1.0308511   -3.3778807    1234.5994  0.075928623  0.075996107            2 
 1356000   0.99988679    -3.405006      1234.96  0.075894787  0.075984118            3 
 1357000    1.0391784   -3.3876554    1237.2527  0.075979657  0.075971911            4 
 1358000    1.0213634   -3.3832372    1238.8288  0.076020424  0.075959872            5 
 1359000    1.0449278   -3.4264442    1231.7235  0.075528792  0.075947707            5 
 1360000    1.0499624   -3.4123541    1234.7748  0.075660222  0.075934966            3 
 1361000    1.0198932   -3.3969912    1238.5377   0.07583503  0.075922545            3 
 1362000     1.048913   -3.4020039    1237.2326  0.075699501  0.075910301            5 
 1363000    1.0341077    -3.395746    1245.0753  0.076123462  0.075898642            4 
 1364000     1.021668   -3.3816229    1239.7094  0.075739819  0.075886701            2 
 1365000    1.0299648   -3.3432491     1249.099   0.07625757  0.075874623            1 
 1366000    1.0412656   -3.4054995    1240.8278   0.07569716  0.075862584            3 
 1367000    1.0425796   -3.4102063     1242.575   0.07574829  0.075850253            3 
 1368000    1.0150808   -3.3541156    1242.4799   0.07568713  0.075837514            1 
 1369000    1.0531934   -3.3822877    1244.9213  0.075780454  0.075825441            1 
 1370000    1.0395269    -3.378939    1250.1424  0.076042726  0.075813284            4 
 1371000    1.0210993   -3.3747475    1243.4085  0.075577952  0.075800997            2 
 1372000    1.0248186   -3.4125922    1242.2016   0.07544956  0.075788918            2 
 1373000       1.0284   -3.4105195    1245.4257  0.075590298  0.075776812            1 
 1374000    1.0283199   -3.4136261    1246.6802  0.075611369    0.0757649            3 
 1375000    1.0540638   -3.3790101     1252.369  0.075901153   0.07575333            2 
 1376000    1.0259323   -3.3788009    1248.6818  0.075622686  0.075741786            1 
 1377000    1.0478321   -3.3836361    1253.6851  0.075870555  0.075730484            3 
 1378000    1.0262032   -3.4004079    1252.9135  0.075768838  0.075719519            2 
 1379000    1.0260608   -3.4013514    1250.0892  0.075543222  0.075708053            3 
 1380000    1.0281925   -3.4178498    1255.1966  0.075796893  0.075696638            2 
 1381000    1.0222067   -3.3876757     1255.184   0.07574125  0.075685133            3 
 1382000     1.044298   -3.3971558     1261.291  0.076054689   0.07567409            2 
 1383000    1.0401141   -3.4015154    1255.2281  0.075634373  0.075662103            2 
 1384000    1.0183115   -3.3930434    1258.8837   0.07579984  0.075649857            3 
 1385000    1.0182535   -3.3654689    1266.4762  0.076201936  0.075638618            3 
 1386000    1.0369179   -3.3750762    1255.8895  0.075510431   0.07562706            1 
 1387000    1.0202151   -3.3971821     1262.947  0.075880017  0.075615452            2 
 1388000    1.0540638   -3.3898088    1262.3613  0.075790181   0.07560388            4 
 1389000    1.0231201   -3.4164249    1257.7934  0.075461564  0.075592455            3 
 1390000    1.0410943   -3.3946947    1260.9396  0.075595898  0.075581232            6 
 1391000    1.0214237   -3.4076133    1266.6988  0.075886583  0.075569792            1 
 1392000    1.0137605   -3.3903685     1258.166  0.075321239   0.07555868            4 
 1393000    1.0295597   -3.4217384    1263.0378  0.075558613  0.075547444            2 
 1394000    1.0269245   -3.3541128    1265.0984  0.075627593  0.075535671            2 
 1395000    1.0227902   -3.4199301    1263.9983  0.075507666  0.075523417            3 
 1396000    1.0369839   -3.3757641     1266.592  0.075608406  0.075511177            2 
 1397000    1.0472111   -3.3477217    1264.1181   0.07540671  0.075499089            2 
 1398000    1.0343914   -3.4206573    1268.1842  0.075595149  0.075486949            4 
 1399000    1.0227973   -3.4076396    1262.5512  0.075205577  0.075474059            4 
 1400000    1.0212606   -3.3874309    1265.3948  0.075321119  0.075461533            1 
 1401000     1.020617   -3.4008919    1262.8739  0.075117409  0.075448989            3 
 1402000    1.0438715    -3.414888    1263.0485  0.075074211  0.075436169            1 
 1403000    1.0466628    -3.407334    1265.3406  0.075156845  0.075423396            2 
 1404000    1.0101278   -3.3918041    1267.6177   0.07523847  0.075410912            2 
 1405000    1.0408078   -3.3710623    1271.2338  0.075399396  0.075398822            1 
 1406000    1.0458735   -3.3966097    1271.6501  0.075370443  0.075386552            2 
 1407000    1.0277013   -3.3683822     1272.877  0.075389543  0.075374287            2 
 1408000    1.0332794   -3.3902088    1270.2936  0.075183094  0.075361819            2 
 1409000    1.0081875   -3.4121587    1271.1828  0.075182325  0.075348737            2 
 1410000     1.044486   -3.3979807     1271.338  0.075138182  0.075336021            2 
 1411000    1.0318858   -3.3741118    1273.8385  0.075232606  0.075323523            2 
 1412000      1.00334   -3.3962825    1269.6271  0.074930778  0.075310729            2 
 1413000    1.0122586   -3.3950717    1278.2557  0.075386633   0.07529823            3 
 1414000    1.0382716    -3.371715    1279.4993  0.075406605   0.07528601            2 
 1415000    1.0535737   -3.3919703    1275.3078  0.075106467  0.075273139            3 
 1416000    1.0308178   -3.4234691    1279.2104  0.075283097  0.075260728            1 
 1417000    1.0286357   -3.3614221    1275.6536  0.075020795  0.075248585            3 
 1418000    1.0086912   -3.4156574     1271.522  0.074725084  0.075236144            2 
 1419000    1.0318683   -3.3987145     1274.963  0.074874501  0.075223143            2 
 1420000    1.0004385   -3.4220369    1279.6127  0.075094645  0.075210559            1 
 1421000    1.0147334   -3.3653239    1281.7214  0.075165456  0.075198258            4 
 1422000    1.0094045   -3.3867858    1276.8725  0.074828438  0.075185544            2 
 1423000    1.0059961   -3.4134904    1274.5009  0.074636967   0.07517249            2 
 1424000    1.0239748    -3.382842    1282.3169  0.075041954  0.075159524            4 
 1425000    1.0173975   -3.4104386    1280.6175  0.074889914  0.075146873            3 
 1426000    1.0045715   -3.4054928     1280.629  0.074838069  0.075133934            4 
 1427000    1.0429362   -3.4058684     1280.424  0.074773651  0.075121315            3 
 1428000    1.0276436   -3.4195053    1282.0171  0.074814256  0.075108537            1 
 1429000    1.0413997   -3.4244598    1286.1594  0.075003462  0.075095603            1 
 1430000    1.0156881     -3.40025    1285.8878  0.074935186   0.07508257            2 
 1431000   0.98743774   -3.3911531    1289.5884  0.075098323  0.075069505            5 
 1432000    1.0207615   -3.4426479    1282.0787  0.074608865  0.075056047            2 
 1433000    1.0145796   -3.3728597    1285.7138  0.074768193  0.075042519            2 
 1434000     1.009109   -3.3800996    1282.1307  0.074507825  0.075029493            3 
 1435000    1.0387111   -3.4090544    1286.7702  0.074725334  0.075016687            1 
 1436000    1.0136663   -3.4039466    1284.9252  0.074566224  0.075003651            2 
 1437000     1.015958   -3.4013808    1282.0647  0.074348453   0.07499074            3 
 1438000    1.0219728    -3.396039    1288.0182   0.07464176  0.074977503            3 
 1439000    1.0268985   -3.4256141    1285.1628  0.074424532  0.074964091            3 
 1440000    1.0335034   -3.4379884    1283.7654  0.074291978  0.074950696            4 
 1441000    1.0350566   -3.4043324    1292.6242  0.074752727  0.074937413            2 
 1442000    1.0522985    -3.394573    1289.1551   0.07450041  0.074924373            4 
 1443000    1.0026849   -3.4183268    1293.5255  0.074701171   0.07491086            2 
 1444000    1.0138719    -3.433851    1290.9545  0.074501067  0.074897397            5 
 1445000    1.0237922    -3.402663     1292.997    0.0745673  0.074883838            3 
 1446000   0.98977696   -3.4102327    1285.8798  0.074105566   0.07487061            2 
 1447000    1.0191227   -3.3867949     1299.281  0.074826134   0.07485738            1 
 1448000    1.0048449   -3.3912305    1294.9629  0.074525947   0.07484432            1 
 1449000    1.0194779   -3.3815494    1290.0416  0.074191488  0.074831049            1 
 1450000    1.0377841   -3.4090196    1296.6411  0.074519606  0.074818051            2 
 1451000    1.0196038   -3.3817693    1295.4488  0.074399771  0.074804915            2 
 1452000   0.97864258   -3.3980872    1299.0926  0.074557657   0.07479141            2 
 1453000    1.0571941   -3.4402242     1296.837   0.07437698  0.074778423            4 
 1454000    1.0121161   -3.4173801    1296.7164  0.074318912  0.074765311            3 
 1455000    1.0055649   -3.4122322    1301.3705  0.074534391  0.074751818            4 
 1456000    1.0343557   -3.4281711    1302.5473  0.074550558  0.074738808            2 
 1457000    1.0470738   -3.4063133    1300.2722  0.074369261  0.074725815            2 
 1458000     1.045524   -3.3830045    1302.7421  0.074459427  0.074713321            2 
 1459000    1.0123552   -3.3886357    1307.5302  0.074681873  0.074700098            4 
 1460000    1.0115554   -3.4116944    1301.9463  0.074312006  0.074687024            3 
 1461000   0.98543764   -3.4207603    1303.4722  0.074348177  0.074673389            3 
 1462000    1.0200642   -3.4178986    1300.4902  0.074127346  0.074659342            2 
 1463000    1.0097706   -3.4215719    1301.1346  0.074113384   0.07464538            4 
 1464000    1.0191933   -3.4345112    1301.1132  0.074061544  0.074631683            3 
 1465000    1.0019804   -3.4026859    1302.4552  0.074087325   0.07461769            2 
 1466000    1.0169793   -3.4118464    1305.8857  0.074231795   0.07460383            2 
 1467000    1.0339718   -3.4120294    1310.3023  0.074432076  0.074590314            1 
 1468000    1.0215359   -3.3985552    1302.7756   0.07395411  0.074576178            2 
 1469000   0.99557497   -3.4157764    1300.9214  0.073798585  0.074561644            7 
 1470000    1.0434387   -3.4275134    1305.3217  0.073997827  0.074547189            2 
 1471000    1.0058614   -3.4265978    1302.9458  0.073812928  0.074532735            2 
 1472000    1.0296347   -3.4158416    1299.4746  0.073566271  0.074518579            6 
 1473000    1.0286724   -3.4259815    1307.0042  0.073942305  0.074503901            3 
 1474000    1.0074215   -3.3969266    1312.0895  0.074179641  0.074489615            2 
 1475000    1.0076074   -3.4396057    1307.6486  0.073878454  0.074475215            2 
 1476000    1.0212386   -3.4307293    1313.2742  0.074146016  0.074460618            2 
 1477000    1.0220329   -3.4128893    1310.3351  0.073929986  0.074446085            4 
 1478000    1.0098716   -3.4027082    1307.3566  0.073712032  0.074431769            3 
 1479000    1.0265642   -3.3993326     1308.899    0.0737491  0.074417155            1 
 1480000    1.0137399   -3.4110773    1309.3147  0.073722677    0.0744033            7 
 1481000    1.0212499   -3.4128215    1308.8218  0.073645159  0.074388792            2 
 1482000   0.99921641     -3.37511    1315.3186  0.073960783  0.074374285            2 
 1483000   0.99904727   -3.3841691    1315.4518  0.073918396   0.07436006            1 
 1484000    1.0122309   -3.3992165    1312.2463  0.073688582  0.074345411            3 
 1485000    1.0330888   -3.3951949    1312.0168  0.073626083  0.074331183            5 
 1486000    1.0116069   -3.4418775    1310.5604  0.073494861  0.074316706            2 
 1487000    1.0245013   -3.4325708    1312.3455   0.07354548  0.074302323            2 
 1488000    1.0084642    -3.404068    1315.7194  0.073685003  0.074288422            1 
 1489000    1.0186777   -3.4119884    1315.7683  0.073638253  0.074274356            3 
 1490000    1.0200296   -3.4091318    1314.8811   0.07353921  0.074259915            3 
 1491000    1.0231716   -3.4072019    1320.2551  0.073790246  0.074245167            3 
 1492000    1.0064554   -3.4191897    1319.1025  0.073676415  0.074230293            1 
 1493000    1.0362901   -3.4119831    1318.2631  0.073580216  0.074216457            4 
 1494000    1.0457218   -3.4290564    1315.4524  0.073374187  0.074202508            2 
 1495000    1.0319123   -3.4118808    1318.4429  0.073491801  0.074188257            2 
 1496000    1.0222433   -3.3978484    1316.9628  0.073360227  0.074173549            3 
 1497000    1.0232176   -3.4332019     1319.991  0.073479791  0.074158624            3 
 1498000     1.008341   -3.4295033    1319.6022  0.073409113  0.074144044            3 
 1499000   0.98937166   -3.4263914    1321.3029  0.073454689  0.074129521            3 
 1500000    1.0042866   -3.4147971    1321.9531  0.073441838  0.074114466            6 
 1501000     1.011505   -3.4293221     1318.816   0.07321874  0.074100009            4 
 1502000     0.995266   -3.4055584    1322.2446  0.073360222  0.074085245            4 
 1503000    1.0070302   -3.4317133    1320.0427  0.073189325  0.074070955            7 
 1504000   0.99534988   -3.3994076    1329.0896  0.073641933  0.074056935            3 
 1505000   0.98556189   -3.4319722    1329.4102  0.073610753  0.074043048            2 
 1506000    1.0082496   -3.4306454    1324.0822  0.073267053  0.074028811            2 
 1507000    1.0117913   -3.4100236    1331.9665  0.073654418  0.074014924            5 
 1508000   0.99441043    -3.404601    1330.0545  0.073499917  0.074000685            2 
 1509000    1.0370791    -3.412832    1326.9446  0.073279467  0.073986201            3 
 1510000    1.0047747   -3.3964091    1333.0756  0.073569292  0.073971919            2 
 1511000   0.99724281   -3.4243198    1329.5838  0.073328026  0.073957716            3 
 1512000    1.0053066   -3.4162102    1332.8117  0.073457435  0.073943244            2 
 1513000     1.000242   -3.4212352    1327.9439  0.073140775  0.073928568            4 
 1514000   0.99713255   -3.4211722     1332.556  0.073346322   0.07391437            7 
 1515000   0.99816654    -3.400303     1331.569   0.07324362  0.073900076            2 
 1516000    1.0199815   -3.4403617    1330.9178  0.073159508  0.073885606            2 
 1517000   0.98478141   -3.4171011     1327.765   0.07293809  0.073871498            3 
 1518000     1.018575   -3.4032066     1339.762   0.07354864  0.073856921            3 
 1519000    1.0102449    -3.423725    1340.5292  0.073542308  0.073842609            2 
 1520000    1.0130703   -3.4382511    1335.6127  0.073224378  0.073828459            2 
 1521000   0.99069629   -3.4268794    1339.7667  0.073403831   0.07381371            3 
 1522000    1.0090835   -3.4354804    1334.5609   0.07307057  0.073799113            2 
 1523000      1.00023   -3.4423514    1335.7155  0.073085769  0.073784386            4 
 1524000    1.0313939    -3.435337     1337.716  0.073147203  0.073770231            3 
 1525000    1.0123831   -3.4438486    1338.2665  0.073129319  0.073756092            1 
 1526000    1.0079797   -3.4231357    1344.5124  0.073422479  0.073742064            6 
 1527000    1.0032992   -3.4240382     1344.686  0.073383866  0.073728105            5 
 1528000   0.99949035   -3.4271774    1348.5478  0.073546457  0.073714512            5 
 1529000    1.0128864   -3.4045938    1348.0403  0.073470692    0.0737007            2 
 1530000    1.0261244   -3.4284343    1338.2269  0.072888175  0.073687194            3 
 1531000    1.0271866   -3.4372244     1342.279  0.073061125  0.073673367            1 
 1532000    1.0022354   -3.4434383    1348.1581  0.073333228  0.073659463            4 
 1533000    1.0109492   -3.4468061    1344.8167  0.073103756  0.073645402            4 
 1534000   0.99634978   -3.4334883    1350.5621  0.073368216   0.07363176            2 
 1535000     1.021057   -3.4354122    1352.3596  0.073418004  0.073618326            3 
 1536000    1.0097264   -3.4375052    1348.1251  0.073140466  0.073605374            2 
 1537000   0.98490315   -3.3958315    1358.4364  0.073651944  0.073592363            6 
 1538000    1.0029682   -3.4286031    1350.2847  0.073162369  0.073579031            2 
 1539000    0.9937574    -3.435356    1349.3278  0.073063016  0.073565594            4 
 1540000    1.0011076   -3.4305422    1350.3476  0.073070759  0.073551993            3 
 1541000    1.0079761   -3.4409226    1348.9688  0.072948776  0.073537788            3 
 1542000    1.0197473   -3.4164247    1351.7418  0.073051331  0.073524026            2 
 1543000    1.0217837    -3.426528    1356.1508  0.073242103  0.073510396            4 
 1544000   0.99987028    -3.472161    1355.0309  0.073134223  0.073496854            5 
 1545000    1.0140978   -3.4153664    1353.7401  0.073017267  0.073483154            3 
 1546000    0.9993025   -3.4024292    1361.1502  0.073369458  0.073469388            1 
 1547000    1.0346082   -3.4488194    1358.4831  0.073178364   0.07345583            6 
 1548000    1.0135679   -3.4343767    1349.6356  0.072654802  0.073441996            4 
 1549000    1.0115329   -3.4481957    1352.7221  0.072773946   0.07342757            3 
 1550000   0.99940649   -3.4202574    1358.0672  0.073014367  0.073414045            2 
 1551000     0.997757   -3.4330374    1357.2999  0.072926064  0.073399987            5 
 1552000     1.017629   -3.4245823    1362.7591  0.073172204  0.073386101            2 
 1553000    0.9830667   -3.4398118     1352.279   0.07256273  0.073371698            2 
 1554000   0.98929429   -3.4069339    1360.2423  0.072943068  0.073357731            2 
 1555000   0.99286208   -3.4388078    1359.7577  0.072870185   0.07334393            3 
 1556000   0.99385958   -3.4025527     1355.661  0.072603954  0.073329811            8 
 1557000    1.0105557   -3.4338192    1359.6507  0.072770857  0.073315778            2 
 1558000    1.0188897   -3.4562726    1359.9922  0.072742413  0.073301344            3 
 1559000    0.9897651   -3.4454051    1361.9975  0.072802947  0.073287696            3 
 1560000    1.0099134   -3.4324446    1361.9219  0.072752236  0.073273912            1 
 1561000   0.98375041   -3.4437778    1360.7791  0.072644626   0.07325971            6 
 1562000     1.007962   -3.4131792    1369.4891    0.0730628  0.073245727            2 
 1563000     1.004223   -3.4279986    1368.4444  0.072960356  0.073231935            2 
 1564000   0.99011019   -3.4199019    1365.6269  0.072763579  0.073217881            3 
 1565000   0.99242931   -3.4148632    1361.4684  0.072495655  0.073203948            2 
 1566000   0.99252198   -3.4416602    1368.3392  0.072814987   0.07318955            3 
 1567000    1.0149491   -3.4537947    1360.8808  0.072371878  0.073175233            3 
 1568000   0.99389082   -3.4639336    1367.8903  0.072698253  0.073160659            3 
 1569000   0.99387749   -3.4590043    1366.3651  0.072570912   0.07314657            2 
 1570000   0.99608158   -3.4207801      1368.57   0.07264172  0.073132337            2 
 1571000     1.006908   -3.4383137    1367.4414  0.072535617  0.073118035            2 
 1572000     1.013544   -3.4270944    1370.0407  0.072627262  0.073103771            2 
 1573000   0.99931597   -3.4482022    1367.6541  0.072454658  0.073089507            1 
 1574000   0.99928869   -3.4561731    1365.8574  0.072313502  0.073075093            2 
 1575000    1.0016078   -3.4296513    1372.2426  0.072605429  0.073060807            3 
 1576000   0.99520747   -3.4693718     1363.626  0.072103744  0.073045935            5 
 1577000    0.9880261   -3.4427855     1374.987   0.07265837  0.073031136            2 
 1578000    1.0053005   -3.4561425    1371.1755  0.072411042  0.073016819            1 
 1579000    0.9713955   -3.4117275    1372.4256  0.072431159  0.073001836            5 
 1580000    1.0098703    -3.459232    1367.8188  0.072142342  0.072987414            4 
 1581000   0.98324082   -3.4573583    1373.2554  0.072383271  0.072972076            2 
 1582000    1.0062384   -3.4504738    1372.1847  0.072281114  0.072957541            1 
 1583000    1.0060433   -3.4599205    1373.2997  0.072294154   0.07294265            3 
 1584000    1.0029626   -3.4317418    1368.4641  0.071994114   0.07292816            4 
 1585000    1.0052154   -3.4324833    1373.1701  0.072196114  0.072913178            3 
 1586000   0.99687707   -3.4169992    1376.5913  0.072330353  0.072898616            4 
 1587000   0.96800671   -3.4243737     1376.718   0.07229143  0.072883625            3 
 1588000    1.0148361   -3.4657471    1377.0198  0.072261742  0.072868543            2 
 1589000     1.008672   -3.4311108    1375.6537  0.072144626   0.07285361            2 
 1590000    1.0195523   -3.3929673    1380.1888  0.072336941  0.072838677            3 
 1591000   0.98840649   -3.4719523    1373.6021  0.071946473  0.072823741            6 
 1592000    1.0016505   -3.4592614     1373.121  0.071876099  0.072808708            4 
 1593000   0.99366676   -3.4181961    1378.1815  0.072095704  0.072793506            2 
 1594000   0.99334744   -3.4483643    1376.4898  0.071962035  0.072778372            2 
 1595000   0.99099306   -3.4429084    1375.4857  0.071864454  0.072763072            3 
 1596000     1.005331   -3.4548227    1380.9157  0.072102952    0.0727481            3 
 1597000    1.0113287   -3.4313887    1373.7589  0.071684349  0.072733008            4 
 1598000   0.99830573   -3.4592187    1375.8993   0.07175111  0.072717789            1 
 1599000   0.98289559   -3.4382547    1378.3208  0.071832439  0.072702143            2 
 1600000    1.0024762   -3.4373572    1379.0179  0.071823847  0.072686854            2 
 1601000   0.99022087   -3.4630305      1381.02  0.071883198  0.072671706            3 
 1602000   0.98564352   -3.4238557    1385.3435  0.072063231  0.072656568            2 
 1603000    1.0279898   -3.4078489    1381.2836  0.071807214  0.072641644            2 
 1604000    1.0052896   -3.4344726    1381.8648  0.071792645  0.072626716            3 
 1605000    1.0133943   -3.4284598    1384.4915  0.071884296  0.072611363            5 
 1606000   0.99013447   -3.4430826    1386.7298  0.071955678  0.072596258            4 
 1607000   0.98607773   -3.4500231    1385.3814  0.071840976  0.072581244            3 
 1608000    0.9896263   -3.4663844    1385.8829  0.071822289  0.072566156            3 
 1609000    1.0149706   -3.4460499    1390.1771  0.072000055  0.072551345            4 
 1610000    1.0177991   -3.4608645    1391.8423  0.072041527  0.072536632            2 
 1611000    1.0015658   -3.4534963    1387.8512  0.071790356  0.072522037           10 
 1612000   0.98642017   -3.4599167    1394.1947  0.072073754  0.072507047            2 
 1613000   0.98262835   -3.4382746    1387.1772  0.071666522  0.072492271            2 
 1614000    1.0153701   -3.4226886    1392.5534    0.0718997  0.072477798            2 
 1615000    0.9664719   -3.4392705    1388.8733  0.071665288  0.072462606            2 
 1616000   0.97120338   -3.4504638    1393.1994  0.071844027  0.072447782            2 
 1617000   0.97428122   -3.4607361    1386.0056  0.071428861  0.072432572            1 
 1618000   0.99524615   -3.4479764    1391.9762  0.071692222  0.072417414            3 
 1619000    1.0001342   -3.4325837    1389.1666  0.071503324  0.072402452            4 
 1620000   0.98771629   -3.4609967    1386.9042  0.071342806  0.072387221            4 
 1621000    1.0015542   -3.4287842    1391.2814  0.071523822  0.072371599            3 
 1622000   0.97838882   -3.4601817    1392.1168  0.071522649  0.072356087            3 
 1623000   0.98583931   -3.4299437    1388.0882  0.071271729  0.072340436            3 
 1624000   0.98361963      -3.4169    1393.3711  0.071498927  0.072325297            2 
 1625000   0.99259893    -3.417918    1395.4392  0.071560984  0.072309549            4 
 1626000    1.0021087   -3.4431292     1396.791  0.071586256  0.072294206            2 
 1627000    1.0062672   -3.4604162     1395.727  0.071487757  0.072278897            5 
 1628000   0.98679602   -3.4524805    1398.0819  0.071564391   0.07226338            2 
 1629000    0.9782205   -3.4543305    1396.6318  0.071446276  0.072248059            5 
 1630000    0.9797662   -3.4432829    1396.5617  0.071398858  0.072232804            1 
 1631000   0.98135097   -3.4899807    1398.4038  0.071449201  0.072217147            3 
 1632000   0.99881535   -3.4541625    1399.2591  0.071449095  0.072201501            2 
 1633000   0.98395363   -3.4989281    1395.2953  0.071203069  0.072185977            2 
 1634000   0.99551837   -3.4543641     1398.976  0.071347206   0.07217067            2 
 1635000   0.98336146   -3.4554332    1400.6045  0.071386571  0.072155607            2 
 1636000    1.0103569   -3.4092239    1406.3044  0.071633271  0.072140745            4 
 1637000    1.0029145   -3.4595765    1401.3923  0.071339458  0.072125727            3 
 1638000   0.96863336   -3.4641287    1398.8763  0.071167905  0.072110712            2 
 1639000   0.98983786    -3.424563    1401.6358  0.071264787  0.072095487            3 
 1640000   0.97153704   -3.4472766    1404.5548  0.071369656  0.072080417            6 
 1641000   0.95718524   -3.4426048     1402.614  0.071227605  0.072065411            2 
 1642000   0.99252162   -3.4613746     1402.733  0.071190268  0.072050115            2 
 1643000   0.98481408    -3.462386    1397.3098  0.070871872  0.072034346            4 
 1644000   0.98459448   -3.4662644      1408.42  0.071391932  0.072019397            4 
 1645000   0.98964996   -3.4366246    1408.5258  0.071353893  0.072004593            2 
 1646000   0.98227032   -3.4342676    1410.6777  0.071419487  0.071989832            3 
 1647000   0.99929387   -3.4574533    1412.1225  0.071449223  0.071974992            2 
 1648000    1.0037962   -3.4391242    1411.5341  0.071376115  0.071959987            4 
 1649000   0.98690564   -3.4946524    1409.5281  0.071231456  0.071944962            5 
 1650000    0.9983541   -3.4551865    1408.3872  0.071130665  0.071930233            6 
 1651000    1.0053022   -3.4454271    1411.7794    0.0712588  0.071915231            4 
 1652000    1.0093627   -3.4631171    1405.2536  0.070886482  0.071900169            3 
 1653000   0.97596015   -3.4558867    1408.8972  0.071027285  0.071884818            2 
 1654000    1.0105298   -3.4596291    1406.6444  0.070870836  0.071869234            2 
 1655000   0.99767417   -3.4551917    1412.9368  0.071144854   0.07185402            2 
 1656000   0.99893432   -3.4572514    1409.8623  0.070947175  0.071838495            5 
 1657000   0.98406836   -3.4558241    1413.1084  0.071067613  0.071823023            3 
 1658000   0.98360029    -3.457982    1413.8392  0.071061481  0.071807524            4 
 1659000   0.98811953   -3.4371228    1411.7895   0.07091569   0.07179241            2 
 1660000   0.95879049   -3.4392949    1414.8699  0.071027603  0.071776891            2 
 1661000     1.000572   -3.4535534    1416.5037  0.071066812  0.071761452            2 
 1662000   0.97881766   -3.4557169    1415.4157  0.070969498  0.071745958            4 
 1663000    1.0145089   -3.4620839       1416.1  0.070961115  0.071730518            1 
 1664000   0.98443688   -3.4628067    1418.8474  0.071056061  0.071715188            3 
 1665000    1.0080671   -3.4370923    1412.4877   0.07069508   0.07169975            2 
 1666000   0.97639836   -3.4249429    1418.7403    0.0709654  0.071684472            2 
 1667000   0.99040686   -3.4617477    1418.3288  0.070902262   0.07166937            3 
 1668000   0.99515245   -3.4750496    1418.3118  0.070858901  0.071653883            4 
 1669000    0.9980285   -3.4448445     1413.221  0.070562262  0.071638356            2 
 1670000    1.0075949   -3.4854039    1418.5872  0.070787786  0.071622944            4 
 1671000   0.98764866   -3.4547712    1418.9323  0.070762634  0.071607178            2 
 1672000    1.0086343   -3.4343501    1425.1096  0.071028189  0.071592165            3 
 1673000   0.97047153    -3.462459    1420.6397  0.070763087  0.071576831            1 
 1674000   0.98101585   -3.4289422    1421.3507  0.070756207  0.071561228            2 
 1675000    1.0145748   -3.4810741    1421.1591  0.070704433  0.071545628            2 
 1676000   0.99869846   -3.4774643    1422.2456  0.070716267   0.07153005            6 
 1677000   0.98722122   -3.4438106    1423.5684  0.070739831  0.071514401            4 
 1678000   0.96791176   -3.4685495    1418.3698  0.070439501  0.071498571            3 
 1679000   0.97145286   -3.4553121    1423.4969  0.070652021  0.071482938            5 
 1680000    0.9790148   -3.4588089    1423.1333  0.070591929    0.0714674            2 
 1681000   0.98496715   -3.4756284    1429.4124  0.070861213  0.071451957            3 
 1682000   0.97858966   -3.4772444    1424.3463  0.070568086  0.071436766            2 
 1683000    1.0065197   -3.4773614    1422.0666   0.07041328  0.071421249            4 
 1684000   0.97425347   -3.4932563    1425.9026  0.070561293  0.071406013            3 
 1685000   0.98770916   -3.4552933    1431.7534  0.070808773   0.07139057            2 
 1686000   0.99210404    -3.443696    1436.5905  0.071005857  0.071375599            2 
 1687000   0.99526204   -3.4922278    1427.8137  0.070530215  0.071361295            1 
 1688000   0.99318289   -3.4797956    1425.3052  0.070364594  0.071346337            4 
 1689000   0.97479387   -3.4597671    1437.3862  0.070918997  0.071331409            3 
 1690000   0.97009157   -3.4694843    1431.3502    0.0705794    0.0713168            2 
 1691000   0.98430946   -3.4865386    1437.2553  0.070828665  0.071302134            3 
 1692000   0.97530622    -3.476525    1436.8417  0.070766437  0.071287396            2 
 1693000   0.98840707    -3.465383    1442.1995   0.07098836  0.071273197            3 
 1694000   0.98008662   -3.4427734    1442.9899  0.070985335  0.071259058            2 
 1695000   0.97926999   -3.4262763     1444.102  0.070998133  0.071245049            2 
 1696000   0.96421496   -3.4723618    1440.1239  0.070760806  0.071230951            4 
 1697000   0.97202067   -3.4666511    1439.2313  0.070675274  0.071216433            4 
 1698000   0.98378299   -3.4762732    1439.2423  0.070634191  0.071201944            4 
 1699000   0.98867189    -3.475264    1439.9188  0.070625799  0.071187628            4 
 1700000   0.97306722   -3.4567409    1435.6353  0.070374278  0.071172699            7 
 1701000   0.95614722   -3.4569505    1438.7853  0.070487229  0.071157698            2 
 1702000   0.98483039   -3.4745169    1437.3767  0.070376844  0.071142677            4 
 1703000   0.99828867   -3.4551942    1438.8665   0.07040842  0.071128125            2 
 1704000   0.95835826   -3.4713077    1438.4383  0.070346163  0.071113015            3 
 1705000    1.0092535   -3.4903329      1444.52  0.070602151  0.071098366            3 
 1706000   0.99148594   -3.4665824    1444.1461  0.070542504  0.071083525            6 
 1707000   0.98513194   -3.4725409    1443.1837  0.070454195  0.071068931            6 
 1708000   0.97143165   -3.4740473    1449.9724  0.070744166  0.071054591            2 
 1709000   0.96249589   -3.4422838    1446.9753  0.070556628  0.071040417            7 
 1710000   0.97180343   -3.5016202     1450.942  0.070708673  0.071025921            4 
 1711000   0.96803848   -3.4634143    1446.5035  0.070451172   0.07101145            4 
 1712000   0.98843535   -3.4930663    1448.4133  0.070502986  0.070996925            5 
 1713000   0.98875631   -3.4872689    1450.7242  0.070574246  0.070982271            3 
 1714000   0.98221811   -3.4443827    1447.2724  0.070365249  0.070968071            2 
 1715000   0.98928596   -3.4780776    1453.1618  0.070610391   0.07095341            3 
 1716000    0.9789515   -3.4832877    1447.6446  0.070301309  0.070938996            6 
 1717000   0.99610707   -3.4616843     1448.802  0.070316542  0.070924559            2 
 1718000   0.99714277   -3.4147125    1451.9083  0.070426288  0.070910023            1 
 1719000   0.99737869   -3.4903112    1450.7929  0.070331243  0.070895738            2 
 1720000   0.97763451   -3.4557901    1451.7542  0.070336928  0.070881297            3 
 1721000   0.98459175   -3.4758214    1453.2239  0.070367224  0.070867185            4 
 1722000   0.99164877   -3.4625731    1449.5786   0.07014995   0.07085295            2 
 1723000   0.96983421   -3.4561918    1457.5476  0.070494662  0.070838554            3 
 1724000   0.98434508   -3.4582606    1457.9704  0.070474206  0.070824196            2 
 1725000   0.98070565   -3.4255278    1458.6065  0.070464081  0.070810182            1 
 1726000   0.97497047   -3.4527319    1464.2046  0.070693539  0.070795823            1 
 1727000   0.98787307   -3.4714882    1459.4034  0.070420932  0.070781808            2 
 1728000   0.99363731   -3.4680338    1456.3623  0.070233524  0.070767641            2 
 1729000   0.96337771   -3.4686402    1463.9456  0.070558396  0.070753667            3 
 1730000   0.98803334   -3.4867732    1458.0593  0.070234069  0.070739704            2 
 1731000   0.96636012   -3.4800072     1459.204  0.070248603  0.070725459            2 
 1732000   0.96568998   -3.4756557    1459.9215  0.070242567   0.07071142            4 
 1733000   0.98111087   -3.4795412    1458.3814  0.070127977  0.070697546            3 
 1734000   0.99299015   -3.4738139    1465.7571  0.070441996  0.070683825            4 
 1735000   0.97893737   -3.4760685    1461.8723  0.070214807  0.070669953            1 
 1736000   0.96602231   -3.4958339    1463.8905  0.070271241  0.070655889            5 
 1737000   0.96790362   -3.4906314     1469.877  0.070517991  0.070641964            3 
 1738000   0.98566207   -3.4858769    1462.0859  0.070103849  0.070628132            2 
 1739000   0.97941348   -3.4749157    1468.8717  0.070388716  0.070614514            3 
 1740000   0.98510489   -3.4656054    1467.5712  0.070285975  0.070601122            2 
 1741000   0.97815263   -3.4543247    1470.6894   0.07039486  0.070587526            2 
 1742000   0.99229641   -3.4849924    1468.3842  0.070244175  0.070574155            2 
 1743000   0.98789898   -3.4973056    1466.9074  0.070133267  0.070560366            7 
 1744000   0.98058234   -3.4873249    1469.1316  0.070199333  0.070547211            3 
 1745000   0.97394432   -3.4804834    1480.0198  0.070679072  0.070533819            1 
 1746000   0.98275346   -3.4578407    1480.9199  0.070681554  0.070520357            2 
 1747000   0.96324524   -3.4927913    1466.0565  0.069932096   0.07050683            3 
 1748000   0.98494453   -3.4879538    1474.9192  0.070314607  0.070493206            4 
 1749000   0.94428116   -3.4903673    1470.2817  0.070053444  0.070479379            2 
 1750000   0.96134783   -3.4834772    1471.4306  0.070068123  0.070465659            2 
 1751000   0.96023891   -3.4828431    1479.6834  0.070420876  0.070451966            5 
 1752000    0.9829136   -3.4703757    1477.1826  0.070261727  0.070438332            5 
 1753000   0.96801119   -3.4754077    1479.0347  0.070309692  0.070424954            3 
 1754000   0.95597786   -3.4755464    1478.6381  0.070250764    0.0704114            2 
 1755000     0.981122   -3.4816527    1483.1062  0.070422895  0.070398341            2 
 1756000   0.97607946   -3.4584575    1486.2646  0.070532681  0.070385147            3 
 1757000   0.96069735   -3.4840601     1483.482   0.07036056  0.070371943            2 
 1758000   0.96175932   -3.4672388    1480.1071  0.070160558  0.070358891            3 
 1759000   0.97762312   -3.4906177    1479.6974  0.070101259  0.070345515            2 
 1760000   0.96883819   -3.4981494    1482.6912  0.070203182  0.070332501            4 
 1761000   0.97726453   -3.4763999    1483.9896  0.070224756  0.070319231            1 
 1762000   0.97830231   -3.4696457    1483.9785  0.070184377  0.070306268            2 
 1763000   0.97647459   -3.4794856    1486.6217  0.070269509  0.070293383            2 
 1764000   0.98527601   -3.4673192     1485.389  0.070171436  0.070280687            3 
 1765000   0.96545185    -3.450804    1480.3113  0.069891941  0.070267816            3 
 1766000   0.98167976   -3.4875397    1482.9357  0.069976203  0.070254749            3 
 1767000   0.97014996     -3.47956    1491.0578  0.070319648  0.070241875            4 
 1768000   0.96416726   -3.4817339    1489.9856  0.070229336  0.070229079            3 
 1769000   0.98946513   -3.4673829    1491.0844  0.070241397  0.070216381            2 
 1770000   0.94777818   -3.4811527    1492.2678  0.070257429  0.070203624            1 
 1771000   0.97069716   -3.4904645    1490.7541   0.07014653   0.07019078            3 
 1772000   0.97565987   -3.5003475    1490.3778  0.070089248  0.070178172            1 
 1773000    0.9652339   -3.4779544    1491.6551  0.070109754  0.070165749            3 
 1774000   0.95128897    -3.473606    1498.4833  0.070390984  0.070152937            4 
 1775000   0.96231322   -3.4992291    1491.6801  0.070031931  0.070140191            3 
 1776000     0.960834   -3.4640022    1493.5535  0.070080402  0.070127046            3 
 1777000   0.98304349   -3.4811991    1489.5045  0.069851085   0.07011427            4 
 1778000   0.96066793    -3.504189    1494.2252  0.070033054   0.07010123            4 
 1779000   0.96451695   -3.5104384    1494.2828  0.069996383   0.07008855            4 
 1780000    0.9676915   -3.4926237    1496.2032  0.070046964  0.070075584            1 
 1781000    0.9861279   -3.4472288    1499.8375  0.070177683  0.070063071            2 
 1782000   0.96234968   -3.5154679    1504.7817  0.070369517  0.070050281            4 
 1783000    0.9576528   -3.4983122     1492.911  0.069775238  0.070037423            3 
 1784000   0.97186508   -3.4579643      1505.43   0.07032091  0.070024785            5 
 1785000   0.97767848   -3.5056806    1503.6818  0.070199896  0.070012446            3 
 1786000   0.95846626     -3.45647    1502.7835  0.070118679  0.070000111            2 
 1787000   0.97542028   -3.4800152    1506.7388  0.070263888  0.069987814            2 
 1788000   0.96994017   -3.5071517     1496.461  0.069745573  0.069974986            2 
 1789000   0.95081725   -3.4832774    1501.5404  0.069943191  0.069962204            3 
 1790000   0.96253353   -3.4681508    1500.1545  0.069839597  0.069949687            3 
 1791000   0.96628858   -3.4976744    1503.8244  0.069971358   0.06993705            2 
 1792000   0.96100907   -3.4787313    1499.6396  0.069737704  0.069924582            2 
 1793000   0.94335856   -3.5021284    1504.4954  0.069924491  0.069911869            4 
 1794000   0.97062209   -3.4841114    1506.1187   0.06996092  0.069899264            6 
 1795000   0.96684969   -3.5000303    1506.5499  0.069941962  0.069887167            2 
 1796000   0.97238647   -3.4884224    1508.2408  0.069981479  0.069874615            4 
 1797000   0.97144572   -3.4972708    1508.8017  0.069968547   0.06986227            4 
 1798000   0.94444324   -3.4658959    1507.5729  0.069872678   0.06984998            2 
 1799000   0.94428516   -3.4957089    1510.1184  0.069951749  0.069837474            3 
 1800000   0.97673449   -3.4814817    1510.1593  0.069914782  0.069824836            2 
 1801000    0.9549005   -3.4768277    1510.9621  0.069913108   0.06981261            2 
 1802000    0.9720033   -3.5009037    1512.3866  0.069940189  0.069800093            4 
 1803000   0.95317747   -3.5111456    1515.7839  0.070058418  0.069787886            3 
 1804000   0.96172822   -3.5118609    1512.9473  0.069888549  0.069775619            2 
 1805000   0.96744105   -3.4976736    1508.8941  0.069662701  0.069763046            2 
 1806000    0.9564285   -3.4791062    1514.5206  0.069883747  0.069751188            2 
 1807000   0.93924995   -3.4935579    1514.9928  0.069866852  0.069739125            2 
 1808000   0.99219043   -3.4997391    1515.1396  0.069834974  0.069726859            2 
 1809000    0.9606373   -3.5108694    1523.4379  0.070178639  0.069714824            5 
 1810000   0.97359945   -3.4754459    1520.6262  0.070010412  0.069702795            4 
 1811000   0.94585514   -3.5165537    1514.3155  0.069681371  0.069690992            5 
 1812000   0.97587849   -3.4626685    1524.3437  0.070104107  0.069679002            2 
 1813000   0.97281509   -3.4897715     1520.404  0.069884353  0.069667082            3 
 1814000   0.94707514   -3.4985558    1524.8968  0.070052224  0.069655014            2 
 1815000   0.95675244   -3.5322475    1525.1686  0.070026109  0.069643148            8 
 1816000   0.95145934   -3.5165485     1523.937  0.069931031    0.0696311            4 
 1817000   0.96285724   -3.4973076     1530.142  0.070177122  0.069619288            7 
 1818000   0.96427156   -3.5016579    1524.4167  0.069876088  0.069607693            4 
 1819000   0.94203041    -3.531266    1522.4886   0.06974934     0.069596            5 
 1820000   0.96993821   -3.4910999    1529.3766  0.070026402  0.069584384            2 
 1821000   0.94320673   -3.5085741    1531.1949  0.070071155  0.069572686            4 
 1822000   0.94854795   -3.5059914    1525.2911  0.069762673  0.069560686            3 
 1823000   0.96104023    -3.538013    1519.5459  0.069461779  0.069548876            5 
 1824000   0.96161606   -3.4897342    1530.4269   0.06992082  0.069537152            2 
 1825000   0.97909245   -3.5035017    1533.7112  0.070032473  0.069525477            3 
 1826000   0.94208208   -3.5391126    1524.7679  0.069585974  0.069513827            3 
 1827000   0.99023137   -3.5064566    1531.3774  0.069849359   0.06950201            4 
 1828000    0.9476923   -3.4713854    1539.3193    0.0701732  0.069490352            2 
 1829000   0.94593958   -3.5290547    1531.2245  0.069766014  0.069478497            2 
 1830000   0.96031104   -3.4929793    1531.6395  0.069746788  0.069466664            6 
 1831000   0.95016356   -3.4895012    1532.1309  0.069731064  0.069454919            2 
 1832000   0.95010644   -3.4931826    1536.3298  0.069883996  0.069443529            2 
 1833000   0.95026636   -3.5137271    1537.1028  0.069881015  0.069432206            3 
 1834000   0.96680944   -3.4838344    1535.9137  0.069788883  0.069420801            3 
 1835000   0.94894352   -3.4897257    1538.2953  0.069859004  0.069409267            5 
 1836000   0.95665115   -3.4931685    1535.9445  0.069714255  0.069397627            3 
 1837000   0.95536403    -3.504947    1538.0274  0.069770796   0.06938613            2 
 1838000   0.94933504   -3.4995863    1537.7591  0.069720671  0.069374774            2 
 1839000   0.93504572   -3.5109132    1532.5919  0.069448609  0.069363135            2 
 1840000   0.97320117   -3.5164787    1532.8665  0.069423304  0.069351342            3 
 1841000   0.95315556   -3.4843558    1540.1389   0.06971478   0.06933977            2 
 1842000   0.93158266   -3.5025407    1533.8385  0.069391895  0.069328339            2 
 1843000   0.96362021   -3.4903203    1542.8495  0.069761686  0.069316668            2 
 1844000   0.93358448   -3.5112733    1540.8425  0.069633155  0.069304907            4 
 1845000   0.95624665   -3.5026286    1538.4427  0.069487024  0.069293027            4 
 1846000   0.94581496   -3.4967802     1547.877  0.069875273  0.069281417            2 
 1847000   0.97619929   -3.5243329    1540.1592  0.069489225  0.069269882            7 
 1848000   0.93279903   -3.5068083    1540.6089  0.069471901   0.06925818            3 
 1849000   0.93579078    -3.527638    1544.7912  0.069622824  0.069246715            4 
 1850000   0.95291018   -3.4833778    1542.1122  0.069464512  0.069235486            4 
 1851000   0.96072223   -3.5058858    1549.1079  0.069741936   0.06922395            4 
 1852000   0.97836135   -3.5298336    1546.5546  0.069589392  0.069212544            2 
 1853000   0.96082484   -3.4902112    1550.1216  0.069712252  0.069200768            2 
 1854000   0.93844916   -3.5157625    1548.3814  0.069596429  0.069189315            2 
 1855000   0.95185439   -3.5066257    1546.0663  0.069454911  0.069177826            1 
 1856000   0.96854016   -3.5074298    1553.9471  0.069771331  0.069166804            5 
 1857000   0.97497278   -3.4881983    1553.9467   0.06973374  0.069155648            3 
 1858000   0.93877131   -3.5090295    1557.5611  0.069858322   0.06914428            1 
 1859000   0.94298248   -3.4908285    1553.2792  0.069628795  0.069133031            2 
 1860000   0.93843396   -3.4949032    1553.4504  0.069599031  0.069121519            5 
 1861000   0.95365257    -3.529546    1554.2517  0.069597517  0.069110198            3 
 1862000   0.94218652   -3.4953951    1548.8623  0.069318936  0.069098803            2 
 1863000   0.95724673   -3.5279194    1551.3043  0.069390962  0.069087229            3 
 1864000   0.93379034   -3.4763985    1550.2049  0.069304581  0.069075688            3 
 1865000   0.95322161   -3.5104086    1548.7404  0.069201982  0.069064257            2 
 1866000   0.95856933   -3.5190892    1554.8103  0.069435973  0.069052662            2 
 1867000   0.95346369    -3.521512    1554.4739  0.069383766  0.069041163            5 
 1868000   0.94323425    -3.501448    1551.3036  0.069205194  0.069029796            2 
 1869000   0.96022719   -3.5241967    1553.8524   0.06928181   0.06901838            2 
 1870000   0.94234972   -3.4824564    1563.8654  0.069690971  0.069007005            3 
 1871000   0.94689309    -3.483717    1560.4918  0.069503467  0.068995599            3 
 1872000   0.94438125   -3.4836352    1554.5479  0.069201742  0.068984055            2 
 1873000    0.9551584    -3.498887    1551.9861  0.069050814  0.068972567            4 
 1874000   0.95837735   -3.5168589    1561.1706  0.069422385  0.068961196            5 
 1875000   0.99344914   -3.4964647     1557.415  0.069218446  0.068949624            4 
 1876000   0.93784988    -3.522252    1551.7506  0.068929932  0.068937853            2 
 1877000   0.95162102   -3.4996175    1557.9422  0.069168097  0.068926048            4 
 1878000   0.95934957    -3.527815    1560.7805  0.069257211  0.068914522            3 
 1879000   0.93421916   -3.4881681    1566.4978  0.069473912  0.068903212            2 
 1880000   0.93391849   -3.5005401    1559.7762  0.069139016  0.068891842            3 
 1881000   0.94790882   -3.5261105    1562.0952  0.069204998  0.068880282            3 
 1882000   0.94816711   -3.5109847    1560.7656  0.069109352  0.068868685            2 
 1883000   0.98097135   -3.5561022    1560.5885  0.069064813  0.068857134            3 
 1884000   0.95024542   -3.5363257    1561.1258  0.069051918  0.068845305            3 
 1885000   0.94636404   -3.5108086     1561.716  0.069041381   0.06883338            3 
 1886000   0.95537389   -3.5314363    1566.0555  0.069196512  0.068821632            2 
 1887000   0.92522877   -3.5202693    1561.8108   0.06897239  0.068810009            3 
 1888000   0.94737691    -3.489229     1570.259  0.069308749  0.068798209            5 
 1889000    0.9606685   -3.5128936    1568.3148  0.069186288  0.068786486            3 
 1890000   0.93373068   -3.5161165    1569.1693  0.069187359  0.068775204            2 
 1891000   0.96548173   -3.5410372    1567.2119  0.069064511  0.068763538            4 
 1892000   0.95130699   -3.5229914    1571.8694  0.069233148  0.068752401            2 
 1893000    0.9376899   -3.5156383    1568.0428  0.069028121   0.06874088            3 
 1894000   0.93154016   -3.5205599     1564.576  0.068839141  0.068729093            4 
 1895000   0.94455853   -3.5391257    1566.4151  0.068883688  0.068717354            5 
 1896000   0.94403228   -3.5270592    1576.3344  0.069283332  0.068705987            3 
 1897000   0.93992153   -3.5099236     1579.709  0.069395053   0.06869465            3 
 1898000   0.93935016   -3.5362633    1573.3828  0.069080734  0.068683614            3 
 1899000   0.95293824   -3.5151081    1575.5225  0.069138253  0.068672546            2 
 1900000     0.949169    -3.485045    1578.3221  0.069224655  0.068661312            1 
 1901000   0.92740848   -3.5179602    1582.6966  0.069380001  0.068650008            3 
 1902000   0.93979496   -3.5202535    1570.9462    0.0688287  0.068638463            2 
 1903000   0.92087906   -3.5178198    1578.4982  0.069123235  0.068627043            2 
 1904000   0.95187918   -3.5293384     1575.738  0.068966122  0.068615866            3 
 1905000   0.94357015   -3.5271598    1576.8379  0.068978036  0.068604419            7 
 1906000   0.92464603   -3.5456516     1574.962  0.068859828  0.068593119            4 
 1907000   0.94938745   -3.5353322    1580.3879  0.069060822  0.068581814            4 
 1908000   0.92504125   -3.5256136    1579.7115  0.068995086  0.068570427            8 
 1909000    0.9464765   -3.5348514    1580.2271  0.068981451  0.068558895            4 
 1910000   0.94503078   -3.5280774    1579.3942  0.068908997  0.068547402            2 
 1911000   0.93246239   -3.5128317     1583.716  0.069061399  0.068535847            4 
 1912000   0.93730729   -3.5077729    1582.0614  0.068953165  0.068524574            3 
 1913000   0.93758733   -3.5268085    1580.9286  0.068867772    0.0685135            4 
 1914000    0.9396105   -3.5056995    1586.4226  0.069070993  0.068502304            2 
 1915000   0.93285096   -3.5086383    1584.9276  0.068969869  0.068491396            1 
 1916000   0.94046401     -3.52249    1590.0672  0.069157412  0.068480067            5 
 1917000   0.93777761   -3.5071314    1588.8424  0.069068092  0.068468895            5 
 1918000   0.94144753   -3.5074991     1583.022  0.068779198  0.068457575            7 
 1919000   0.94727898   -3.5154509     1583.036  0.068743963  0.068445994            2 
 1920000   0.95625682   -3.5418819    1586.9245  0.068876932  0.068434302            3 
 1921000   0.93958089   -3.5271984    1591.1972  0.069026427  0.068422907            1 
 1922000   0.93588695    -3.498081    1586.5795  0.068790299  0.068411413            2 
 1923000   0.92133342   -3.5197565    1585.9782  0.068728472  0.068399879            2 
 1924000   0.94672059    -3.544436    1586.4082  0.068711376  0.068388169            3 
 1925000   0.94876478   -3.5215827    1588.1517  0.068751157  0.068376574            2 
 1926000   0.95861811   -3.4850821    1588.4023  0.068726303  0.068365265            5 
 1927000   0.93971821   -3.5231707    1586.8052  0.068621573  0.068353944            1 
 1928000   0.95735212   -3.5322094    1591.6258  0.068794339  0.068342405            2 
 1929000   0.94017928   -3.5503071    1587.7843  0.068592721  0.068331244            2 
 1930000   0.95134797   -3.5242191    1598.3202  0.069012098  0.068319987            1 
 1931000   0.93121963   -3.5152058    1593.2547  0.068757757  0.068308695            1 
 1932000   0.95624291   -3.5073748    1590.9549   0.06862297  0.068297576            2 
 1933000   0.95827347   -3.5385647    1595.6851  0.068791389  0.068285928            3 
 1934000   0.95915617   -3.5322504     1592.608  0.068623235   0.06827456            2 
 1935000   0.93704128   -3.5252083     1596.111  0.068738629  0.068263168            7 
 1936000   0.92797645   -3.4902351    1596.8152  0.068733437  0.068251786            7 
 1937000   0.94931874   -3.5189459    1597.1987  0.068714449  0.068240622            2 
 1938000   0.94718307   -3.5220721    1594.4121  0.068559172  0.068229374            3 
 1939000   0.94236705   -3.5197902    1601.5242  0.068829474  0.068218227            3 
 1940000   0.95495831   -3.5333858    1598.1817  0.068650418  0.068207195            6 
 1941000    0.9492687   -3.5346237    1596.6304  0.068548445  0.068196037            3 
 1942000    0.9274811    -3.529837    1595.6889  0.068472746  0.068185067            1 
 1943000   0.92829292    -3.523086     1603.502  0.068772601  0.068174155            1 
 1944000   0.95868622   -3.5253775    1603.4575  0.068735318  0.068163162            2 
 1945000   0.92200139   -3.5320579     1599.318  0.068522623  0.068152026            2 
 1946000   0.94742553    -3.495508    1606.9881  0.068815864  0.068141227            4 
 1947000   0.93956791   -3.5316462    1593.8651  0.068218847  0.068130047            3 
 1948000    0.9359737   -3.5223075    1602.7322  0.068563152  0.068118953            3 
 1949000   0.94865808    -3.514884    1605.5783  0.068649663  0.068107858            2 
 1950000   0.96301817   -3.5376237    1605.6036  0.068615536  0.068096896            4 
 1951000   0.93872682   -3.5288791    1610.1011  0.068772472  0.068086017            5 
 1952000   0.92220138   -3.5149882    1611.1728  0.068782993  0.068075276            3 
 1953000   0.93323846   -3.5127686    1613.3766  0.068841807  0.068064724            4 
 1954000   0.94970726   -3.5439045    1610.3397  0.068677058  0.068054304            2 
 1955000   0.94670455   -3.4959237     1609.824  0.068619947  0.068043837            2 
 1956000   0.92671303   -3.5126524    1611.3537  0.068650037  0.068033158            2 
 1957000   0.94830471   -3.5173882      1609.92  0.068553911   0.06802226            1 
 1958000   0.92765988   -3.5229224    1618.7228  0.068893546  0.068011407            2 
 1959000   0.96067839   -3.5303573    1615.2685  0.068711438  0.068000691            4 
 1960000   0.94581657   -3.5199371    1607.6876  0.068354067  0.067989997            4 
 1961000   0.92618775   -3.5295319    1616.5538  0.068695979  0.067979258            7 
 1962000   0.94345288   -3.5233368    1615.8752  0.068632145  0.067968836            4 
 1963000   0.93938678   -3.5414226     1618.144  0.068693495  0.067958011            2 
 1964000   0.92644459   -3.4999091    1623.8323  0.068899878  0.067947327            2 
 1965000   0.91233971   -3.5465694    1611.7035  0.068350444  0.067936528            6 
 1966000   0.94939412   -3.5365694     1619.942  0.068664884  0.067925695            3 
 1967000    0.9312518   -3.5273737      1617.99  0.068547282  0.067914817            3 
 1968000   0.94665009   -3.5204357    1619.0781  0.068558525  0.067904224            2 
 1969000    0.9465989   -3.5303974     1617.901  0.068473887  0.067893595            3 
 1970000   0.94453978   -3.5350574    1626.0338  0.068783155   0.06788299            8 
 1971000   0.92154228   -3.5270173    1625.2487  0.068715064  0.067872359            3 
 1972000    0.9532067   -3.5298071     1621.351  0.068515509  0.067861818            3 
 1973000   0.92819264   -3.5384921    1619.3014  0.068394212  0.067851214            4 
 1974000   0.92903019   -3.5348258     1619.895  0.068384626  0.067840581            4 
 1975000   0.93636606   -3.5354687    1619.6835  0.068341075  0.067829809            3 
 1976000   0.94936154    -3.539913    1612.0021  0.067982545  0.067818837            2 
 1977000   0.93277502    -3.526837    1625.1626  0.068502891  0.067807851            2 
 1978000   0.92636049   -3.5499555    1621.1414  0.068298846  0.067796664            5 
 1979000    0.9367184   -3.5527844      1627.67  0.068539246  0.067785797            6 
 1980000   0.93168697   -3.5428896    1621.9628  0.068264427  0.067774803            3 
 1981000   0.93899142   -3.5590134    1618.7489   0.06809477  0.067763643            2 
 1982000   0.93958347   -3.5220028    1624.2981  0.068293731  0.067752411            3 
 1983000   0.95843364   -3.5461254    1621.2429    0.0681309  0.067741188            2 
 1984000   0.94087221   -3.5168294    1630.0912  0.068468213  0.067730315            4 
 1985000   0.94026764   -3.5402006    1627.7353  0.068334817  0.067719473            3 
 1986000   0.93110137   -3.5383626    1624.4326  0.068161825   0.06770859            4 
 1987000   0.95511344    -3.536983    1627.6915  0.068264195  0.067697958            3 
 1988000   0.94393633   -3.5281833    1622.7119  0.068021124  0.067687136            2 
 1989000   0.93049047   -3.5505819    1627.6747  0.068194852  0.067676427            6 
 1990000    0.9387834   -3.5311825    1630.1382  0.068263745  0.067665632            3 
 1991000   0.95204146   -3.5466773    1630.4197  0.068241241   0.06765471            4 
 1992000   0.96435996   -3.5360236    1633.6434  0.068341844  0.067643798            2 
 1993000   0.93228153   -3.5151225    1631.1993  0.068205355  0.067632783            5 
 1994000   0.95234484   -3.5266403     1628.606  0.068062773  0.067621838            2 
 1995000   0.95259807    -3.516655    1639.1058  0.068467241  0.067610845            4 
 1996000    0.9490481   -3.5199813    1634.1583  0.068226382  0.067600433            2 
 1997000   0.92319142   -3.5299976    1639.7536  0.068425706  0.067589469            4 
 1998000   0.93987821   -3.5323794    1632.2338  0.068077821  0.067578933            2 
 1999000   0.93381737   -3.5290328    1638.8972  0.068321543  0.067567953            4 
 2000000   0.93515763   -3.5395756    1633.2276  0.068051151  0.067557138            2 
 2001000   0.92427324   -3.5148537    1637.8949  0.068211514  0.067546138            3 
 2002000   0.93653814   -3.5600193    1634.5703  0.068039057  0.067535233            5 
 2003000      0.93841     -3.56335    1639.2712  0.068200666  0.067524401            9 
 2004000   0.93668645   -3.5342504    1637.6825   0.06810057  0.067513331            3 
 2005000    0.9207731   -3.5496376    1637.3376  0.068052271   0.06750232           12 
 2006000   0.91426218   -3.5306431    1631.8561  0.067790632  0.067491448           12 
 2007000   0.90559826   -3.5395641    1643.2561    0.0682302  0.067480589            5 
 2008000   0.92875226   -3.5588181    1634.6262  0.067838074  0.067469477            1 
 2009000   0.94469892   -3.5283823    1641.7819  0.068101124  0.067458851            2 
 2010000   0.94083087   -3.5147801    1638.4666  0.067929793  0.067447762            2 
 2011000   0.94801512   -3.5312482     1640.281  0.067971198  0.067436666            4 
 2012000   0.91100323   -3.5562908     1639.686  0.067912774  0.067425719            2 
 2013000   0.92427615   -3.5565128    1635.4663  0.067704351  0.067414715            2 
 2014000   0.92209783   -3.5418834    1639.5468  0.067839573  0.067403996            2 
 2015000   0.93223649    -3.546554     1642.179  0.067914764  0.067392909            3 
 2016000   0.93954265   -3.5373905    1646.3129  0.068051955  0.067382222            1 
 2017000   0.94507761   -3.5634916    1644.4625  0.067941764  0.067371637            4 
 2018000   0.92453182   -3.5445208    1641.5558  0.067788064  0.067360777            3 
 2019000   0.91620932   -3.5405578    1645.8693  0.067932529  0.067349954            4 
 2020000   0.91446643    -3.544997    1645.1979  0.067871202  0.067339051            3 
 2021000   0.92739784   -3.5469336    1652.3483  0.068132455   0.06732791            2 
 2022000    0.9103982   -3.5631846    1639.4867  0.067568691  0.067316831            4 
 2023000   0.93301731   -3.5049925    1646.4582  0.067822467  0.067305759            3 
 2024000   0.93860708   -3.5602484    1651.2784  0.067987417  0.067294864            4 
 2025000   0.92482744   -3.5217338    1649.8952   0.06789692     0.067284            2 
 2026000   0.91797971   -3.5610088    1647.2159  0.067753205  0.067273049            7 
 2027000   0.94616182   -3.5213736    1645.9769   0.06766884    0.0672621            5 
 2028000   0.91118987   -3.5306368    1644.8972  0.067591109  0.067251027            3 
 2029000   0.93390943   -3.5524564    1644.8074  0.067554106  0.067239832            2 
 2030000   0.93396249   -3.5621983    1647.1842    0.0676184  0.067228606            4 
 2031000   0.92472587   -3.5146534    1647.0897  0.067581228  0.067217586            2 
 2032000   0.92258181   -3.5567104    1648.0325  0.067586633  0.067206739            3 
 2033000   0.94684479   -3.5951344    1650.0946  0.067637918  0.067195373            3 
 2034000   0.93357815   -3.5608423    1652.7825  0.067714787  0.067184371            4 
 2035000   0.91071703   -3.5937202    1646.0297  0.067404984  0.067173125            3 
 2036000   0.91914267   -3.5389342     1652.391  0.067632246  0.067162036            7 
 2037000   0.91911182   -3.5582369    1649.0824  0.067463687  0.067150774            2 
 2038000   0.94880604   -3.5541309    1648.0982  0.067390341  0.067139371            4 
 2039000   0.93585638   -3.5530716    1648.5312  0.067374989  0.067128068            1 
 2040000   0.91376911   -3.5339548    1657.7716  0.067719426  0.067116673            2 
 2041000   0.94713479   -3.5604217    1648.0606  0.067289751  0.067105219            4 
 2042000   0.91140881   -3.5592025    1645.7982  0.067164473  0.067093673           10 
 2043000   0.91281074   -3.5161813    1650.5515  0.067325481  0.067082173            2 
 2044000   0.91987902   -3.5545128    1653.3202  0.067405424  0.067070657            2 
 2045000   0.94252713   -3.5296004    1651.9137  0.067315148  0.067059261            5 
 2046000   0.89166847      -3.5418    1655.6032  0.067432521   0.06704781            2 
 2047000   0.93186007    -3.564619    1654.4021   0.06735068  0.067036346            2 
 2048000   0.92430148   -3.5499845    1657.1522  0.067429694  0.067024907            4 
 2049000   0.93577502   -3.5716331    1655.5818   0.06733292    0.0670136            4 
 2050000   0.92939596    -3.555484    1660.9967  0.067520192  0.067002172            9 
 2051000   0.91641026   -3.5522672    1659.4034  0.067422535  0.066990891            3 
 2052000   0.92315771   -3.5662394    1654.0283  0.067171388  0.066979542            3 
 2053000   0.92521455     -3.55098     1661.018  0.067422392    0.0669679            2 
 2054000   0.91653226   -3.5470877    1658.1142  0.067271754  0.066956503            2 
 2055000   0.92102222   -3.5688108     1659.224  0.067284023  0.066945074            5 
 2056000    0.9083177   -3.5438624    1659.1751  0.067249316   0.06693358           13 
 2057000   0.94213439   -3.5185248    1667.6707  0.067560796  0.066922165            2 
 2058000   0.92317225    -3.530419    1665.1448  0.067425689  0.066910845            2 
 2059000   0.92612633   -3.5633411    1663.0042  0.067306307  0.066899654            4 
 2060000   0.92038454   -3.5429526     1658.603   0.06709559   0.06688825            3 
 2061000   0.91668969   -3.5180137    1664.6348  0.067306921  0.066876917            2 
 2062000   0.91851933   -3.5489035    1664.3597  0.067263162  0.066865166            4 
 2063000   0.90566067   -3.5677939    1659.7274  0.067043439  0.066853639            2 
 2064000   0.93213667   -3.5555264    1668.7042  0.067373392  0.066842255            4 
 2065000   0.93215927   -3.5372618    1663.3399  0.067124288  0.066830837            3 
 2066000   0.92110179   -3.5645272    1662.7846  0.067069402  0.066819503            2 
 2067000    0.9530758    -3.543038    1664.1384  0.067091535  0.066807957            2 
 2068000   0.90513864   -3.5291201    1666.1318  0.067139416   0.06679668            2 
 2069000   0.91428935    -3.550571     1664.913  0.067057878  0.066785023            2 
 2070000   0.93702846   -3.5503508    1666.4498   0.06708735  0.066773477            4 
 2071000   0.92775139   -3.5604668    1673.1933  0.067326302    0.0667619            2 
 2072000   0.93014997   -3.5327519    1668.3563  0.067099272  0.066750314            2 
 2073000   0.92065307    -3.579962    1663.1747  0.066858605  0.066738777            4 
 2074000   0.91645958   -3.5436709    1675.6158  0.067326254  0.066727256            3 
 2075000    0.9262988   -3.5478025    1671.0746   0.06711143  0.066715854            2 
 2076000   0.90711052   -3.5757965    1663.5451  0.066776858  0.066704227            2 
 2077000   0.91605673   -3.5626103    1672.6027  0.067108115  0.066692578            4 
 2078000   0.90471733    -3.576402    1668.7463  0.066921169  0.066681019            3 
 2079000   0.91101134   -3.5461478    1677.0832  0.067223153  0.066669405            2 
 2080000   0.91826996   -3.5752892    1667.9636  0.066825466  0.066657838            5 
 2081000    0.9261345   -3.5496767    1671.7379  0.066944494  0.066646505            2 
 2082000   0.94654545   -3.5375108    1675.6108  0.067067355  0.066635071            3 
 2083000    0.9239345   -3.5409066    1667.6893  0.066718249  0.066623405            8 
 2084000   0.92107302   -3.5759611    1675.1846  0.066985949  0.066611624            3 
 2085000   0.92138087   -3.5732199    1665.8829  0.066582051  0.066599655            3 
 2086000   0.91284786   -3.5474773    1669.8246  0.066707599  0.066587609            2 
 2087000   0.91824699   -3.5334515     1678.797    0.0670339  0.066575778            2 
 2088000   0.91490031   -3.5605114    1671.7612  0.066720993  0.066563808            3 
 2089000   0.90219455   -3.5688559    1676.8426   0.06689176  0.066552005            2 
 2090000    0.9225326   -3.5790214    1670.8784  0.066621945  0.066539887            5 
 2091000   0.92651051   -3.5767177    1672.5861  0.066658141  0.066527988           11 
 2092000   0.91809992   -3.5680439    1677.1226  0.066806988  0.066516184            3 
 2093000   0.93033599   -3.5732436    1669.6714  0.066478395  0.066504343            8 
 2094000   0.91867612   -3.5504417    1670.3484  0.066473591  0.066492424            5 
 2095000   0.91713066   -3.5400177    1677.6621   0.06673278  0.066480508            4 
 2096000   0.90408369   -3.5810636     1672.859  0.066509978  0.066468372            2 
 2097000   0.91637957   -3.5554499    1670.0544  0.066366811  0.066456153            3 
 2098000   0.92225824   -3.5707493    1675.8695  0.066566153  0.066444082            5 
 2099000   0.91379229    -3.553706    1682.8305  0.066810802  0.066432143            2 
 2100000   0.92485296   -3.5635829    1680.0422  0.066668343  0.066420383            5 
 2101000   0.90636592   -3.5497425    1680.1543  0.066641057  0.066408696            4 
 2102000   0.90699045   -3.5462921    1681.1452  0.066648636  0.066397072            1 
 2103000   0.91896207   -3.5565373    1686.0209  0.066810146  0.066385598            3 
 2104000   0.93195882   -3.5622849    1680.6896  0.066567235  0.066374027            2 
 2105000   0.94182284   -3.5682384    1679.4455  0.066486362  0.066362256            3 
 2106000   0.92968495   -3.5613897     1683.937  0.066632517  0.066350373            6 
 2107000   0.91907578    -3.537138    1685.6953  0.066670435  0.066338702            3 
 2108000   0.91599958   -3.5597763    1690.8048  0.066840798  0.066327236            4 
 2109000   0.91547269   -3.5612906    1683.1951  0.066508421  0.066315674            3 
 2110000   0.89826941   -3.5336799     1687.056  0.066629383  0.066304045            2 
 2111000   0.92173323   -3.5381211    1685.2023  0.066524643  0.066292299            4 
 2112000    0.9253657   -3.5509913    1691.9251  0.066758408  0.066280504            3 
 2113000   0.92310663   -3.5691379    1686.8639   0.06652721  0.066268787            2 
 2114000   0.89422673   -3.5546987    1691.2692  0.066669394  0.066257005            4 
 2115000   0.90820604   -3.5629142    1685.0891   0.06639437   0.06624527            4 
 2116000   0.92626654   -3.5598613    1693.7022  0.066702198  0.066233525            3 
 2117000   0.93615685   -3.5538189    1685.6391  0.066353296  0.066221844            5 
 2118000   0.91855524   -3.5908827    1687.4582  0.066393538  0.066210004            6 
 2119000   0.89783152   -3.5512524    1685.3258  0.066278348  0.066198088            4 
 2120000    0.9173356   -3.5964743    1694.1795  0.066595106  0.066186121            4 
 2121000   0.91639842   -3.5550465    1692.5806  0.066500889  0.066174424            4 
 2122000   0.90971263   -3.6093222    1687.0875  0.066253829   0.06616242            3 
 2123000   0.89739871   -3.5802372    1690.9666  0.066374885  0.066150765           10 
 2124000   0.92058379   -3.5689194    1684.9924  0.066109245  0.066138709            4 
 2125000   0.91399844   -3.5542421    1693.0412  0.066393772  0.066126723            4 
 2126000   0.92702065   -3.5685007     1688.122  0.066169724  0.066114843            4 
 2127000   0.92534288    -3.553865    1698.8651  0.066559516  0.066102915            6 
 2128000   0.90621912    -3.558248    1695.7038  0.066404442  0.066091171            3 
 2129000   0.92376902   -3.5649791    1690.4576  0.066167904  0.066079159            3 
 2130000   0.90161491   -3.5712166    1691.2079  0.066166193  0.066067434            2 
 2131000   0.90799654   -3.5640676    1697.3827  0.066376613  0.066055658            6 
 2132000   0.92245606   -3.5952131     1691.865  0.066129806  0.066043895            2 
 2133000   0.90231021   -3.5589867    1694.0507  0.066184195  0.066031816            5 
 2134000   0.92456038   -3.5526847    1694.9697  0.066189068  0.066019827            4 
 2135000   0.90733669   -3.5403077    1696.6459  0.066223492  0.066007898            2 
 2136000   0.90243123   -3.5818858    1690.2581  0.065943278  0.065995887            4 
 2137000   0.90825033   -3.5751329    1695.9703  0.066135171  0.065983823            2 
 2138000   0.90213727   -3.5912067    1689.5242  0.065852987  0.065972033            2 
 2139000   0.91582463   -3.5669548    1699.6741   0.06621763  0.065960166            4 
 2140000   0.90556705   -3.5260334    1697.8746  0.066116611  0.065948359            4 
 2141000    0.8944596   -3.5753549    1698.0426   0.06609227  0.065936469            7 
 2142000   0.88894707   -3.6016154    1700.2413  0.066146952  0.065924628            2 
 2143000   0.90317223   -3.5747883    1702.4182  0.066200741  0.065912772            2 
 2144000   0.91234413   -3.5572937    1705.6701  0.066296257  0.065900848            2 
 2145000   0.91348997   -3.5352944    1699.7123  0.066033887  0.065888622            4 
 2146000   0.90425879   -3.5800765     1697.711  0.065925403   0.06587655            4 
 2147000   0.90904562   -3.5706075    1701.5906  0.066045281  0.065864469            3 
 2148000   0.91103803   -3.5846908    1705.0415  0.066148412  0.065852228            2 
 2149000   0.91436009   -3.5508296    1696.5063  0.065786657  0.065840006            4 
 2150000   0.91964373   -3.5640562    1701.3446  0.065943591  0.065827896            6 
 2151000   0.88831263   -3.5489828    1706.8683   0.06612693  0.065815886            2 
 2152000   0.87798541   -3.5901034    1694.0517  0.065599895  0.065803382            2 
 2153000   0.90732907   -3.5494108    1701.5876  0.065861108  0.065791214            3 
 2154000   0.90167979   -3.5761291    1700.6497  0.065794248  0.065778992            2 
 2155000   0.90245946    -3.554008    1711.3138  0.066176095  0.065766902            2 
 2156000   0.90698269     -3.56902    1696.0996  0.065557344  0.065754897            3 
 2157000   0.92543417   -3.5741084    1701.6865  0.065742794  0.065742708            3 
 2158000   0.91149398   -3.5698189    1696.8595  0.065525931  0.065730317           11 
 2159000   0.90889821   -3.5687286    1706.7703  0.065878118  0.065718061            4 
 2160000   0.90873618   -3.5644007    1702.1809  0.065670558  0.065705903            2 
 2161000   0.91595551   -3.5941447    1706.3823  0.065802188  0.065693696            4 
 2162000   0.89552586   -3.5889219    1701.8481   0.06559698    0.0656814            3 
 2163000   0.89229213   -3.5716034    1707.5805  0.065787505  0.065669164            4 
 2164000   0.89469384   -3.5750845    1708.1486  0.065778983  0.065657152            5 
 2165000   0.88835908   -3.5581155    1703.6497   0.06557543  0.065644934            3 
 2166000   0.90579506   -3.5922505    1707.1883  0.065681299  0.065632751            2 
 2167000   0.91317911     -3.55882    1711.0657  0.065800098  0.065620504            5 
 2168000   0.90248507   -3.5989182    1704.5379   0.06551883  0.065608282            3 
 2169000   0.89142004   -3.5864776    1712.7992  0.065806024  0.065596124            2 
 2170000   0.90424253   -3.5996879    1705.4603  0.065493868  0.065583932            3 
 2171000    0.8972256   -3.5531772     1716.647  0.065893097  0.065571862            5 
 2172000   0.90302327   -3.5649708    1716.3104  0.065849846  0.065559775            3 
 2173000   0.90165468   -3.6053431    1706.9052  0.065458859    0.0655476            3 
 2174000   0.90795192    -3.599506     1711.122  0.065590385  0.065535526            1 
 2175000   0.90458901   -3.5579876     1720.114  0.065904752  0.065523465            3 
 2176000   0.90013999   -3.5681441    1711.5651   0.06554707  0.065511203            4 
 2177000   0.92026217   -3.5986666     1719.249  0.065811094  0.065499038            4 
 2178000   0.90791884   -3.5761788    1708.2105  0.065358527  0.065486947            4 
 2179000   0.92693241   -3.5836123    1712.7015  0.065500286  0.065474657            4 
 2180000   0.89123767   -3.6069389     1710.881  0.065400651  0.065462566            4 
 2181000   0.89634582   -3.5973452    1718.2856  0.065653584   0.06545041            3 
 2182000    0.8864138   -3.5902498    1719.3881  0.065665603  0.065438187            3 
 2183000   0.90243089   -3.5596137    1716.1576  0.065512201  0.065425886            7 
 2184000    0.9043326   -3.5771261    1713.6561  0.065386754  0.065413742            4 
 2185000   0.93502996   -3.5826649    1715.2444  0.065417405  0.065401553            3 
 2186000     0.888611   -3.5661432     1718.649  0.065517269  0.065389464            7 
 2187000   0.89197124   -3.6034293    1717.8033  0.065455088   0.06537716            4 
 2188000   0.90487363   -3.5873911      1716.93  0.065391909  0.065365113            5 
 2189000    0.8777435   -3.5926913    1718.3465  0.065415961  0.065352989            3 
 2190000   0.89273249   -3.5847891    1720.8929  0.065482985  0.065340939            3 
 2191000   0.88297315   -3.5516678    1721.9338   0.06549269  0.065329046            5 
 2192000   0.89424393   -3.5837057    1721.8786  0.065460712  0.065317245            4 
 2193000   0.89050142   -3.5631762    1723.2167  0.065481711  0.065305223            1 
 2194000   0.88589353   -3.5879021    1720.6151  0.065353051  0.065293159            2 
 2195000   0.89439993   -3.5990476    1719.2517  0.065271513  0.065280938            4 
 2196000   0.89572513   -3.5745084    1724.0169   0.06542262  0.065268816            3 
 2197000   0.90993405   -3.6073065    1720.1914  0.065247738  0.065256507            3 
 2198000   0.90010855   -3.5977355    1722.9614  0.065323074  0.065244189            5 
 2199000   0.89829058   -3.6215054     1719.877  0.065176483  0.065231878            2 
 2200000   0.90816502   -3.6015519    1720.1125  0.065155777  0.065219401            3 
 2201000    0.8961242   -3.5845235    1722.5112  0.065216994  0.065206903            2 
 2202000   0.91291561   -3.5743594    1723.2569  0.065215596  0.065194806            5 
 2203000   0.90552191   -3.5868076    1719.3911  0.065039762  0.065182512            3 
 2204000   0.90544805   -3.5783001    1726.8823  0.065293491  0.065170249            4 
 2205000   0.90838357   -3.5815263    1726.4244  0.065246576   0.06515803            4 
 2206000   0.90743533   -3.6151456    1718.2164  0.064906936  0.065146024            3 
 2207000   0.91505811   -3.5795586    1730.6838  0.065348277  0.065133828            2 
 2208000   0.88759019   -3.6056478    1724.4273  0.065082553  0.065121606            4 
 2209000   0.89910647   -3.5787687    1730.7945  0.065293289   0.06510925            7 
 2210000   0.89862438   -3.6070549    1732.0429  0.065310819   0.06509714            2 
 2211000   0.92100882   -3.5960067    1729.7753  0.065195812  0.065085081            5 
 2212000   0.91365737   -3.5919376    1735.8686  0.065395894  0.065072859            3 
 2213000   0.88484356   -3.5803266    1732.9084  0.065254871  0.065060686            2 
 2214000    0.9129452   -3.6003364    1729.8696  0.065111021  0.065048714            6 
 2215000   0.89815852   -3.5958439    1726.1727  0.064942538  0.065036664            5 
 2216000   0.91681746   -3.5960318    1726.6608   0.06493159  0.065024218            3 
 2217000   0.89913039   -3.6122358    1733.0583   0.06514277  0.065012055            2 
 2218000   0.89812354   -3.5998436    1732.3316  0.065086098  0.064999921            5 
 2219000   0.89360334   -3.5858967    1729.0572  0.064933798  0.064987562            2 
 2220000    0.8799046   -3.5838453    1733.8125  0.065083051  0.064975174            3 
 2221000   0.90218074   -3.5901715    1733.4649  0.065040706  0.064962951            4 
 2222000    0.8877604   -3.5861934    1735.8676  0.065101544  0.064950719            2 
 2223000   0.90419715   -3.5714567    1733.3172  0.064976654  0.064938548            4 
 2224000   0.88648628   -3.5927942    1731.8527  0.064892563  0.064926288            2 
 2225000   0.88421213   -3.6301918    1736.9194  0.065053161  0.064914039            7 
 2226000   0.90971507   -3.6015737    1735.4799  0.064970047  0.064901564            2 
 2227000   0.89748386   -3.5947103     1733.068  0.064850623  0.064889054            2 
 2228000   0.88443534   -3.5772685    1734.8948  0.064889841  0.064876705            2 
 2229000   0.88071169   -3.6095313    1730.8629  0.064709995   0.06486429            5 
 2230000   0.90105216   -3.6005958    1742.8152  0.065127624  0.064851823            3 
 2231000   0.90244089   -3.6004383    1734.7086  0.064795629  0.064839483            6 
 2232000   0.89157808   -3.5890095    1735.6982  0.064803548  0.064827135            5 
 2233000   0.90647504   -3.5916667     1732.524  0.064656068  0.064814811            2 
 2234000    0.8892976   -3.5938699    1734.6208  0.064705342  0.064802314            6 
 2235000    0.8959448   -3.6101138    1732.5679  0.064599847  0.064789462            3 
 2236000    0.8780241   -3.6209758    1738.8019   0.06480329  0.064776984            3 
 2237000    0.8782808   -3.5961356    1735.1865  0.064639641  0.064764453            1 
 2238000   0.87745265   -3.5785958    1734.8335  0.064597613  0.064751912            3 
 2239000    0.8830642   -3.5993241    1731.2597  0.064435749  0.064739423            2 
 2240000   0.90241827   -3.6152062    1732.8931  0.064467748  0.064726864            4 
 2241000   0.88792511   -3.5699153     1740.358  0.064716571  0.064714312            5 
 2242000   0.89946881   -3.5889631    1731.1165  0.064344205  0.064701585            5 
 2243000   0.90238408   -3.6091455    1744.9778  0.064830503  0.064688952            4 
 2244000   0.88190969   -3.5915375    1746.8145  0.064869821  0.064676457            7 
 2245000   0.89169998   -3.6126105    1735.0539  0.064404377   0.06466396            4 
 2246000   0.89309787    -3.587834    1740.7441  0.064586825  0.064651359            2 
 2247000   0.88274092    -3.584167    1746.3238  0.064765011  0.064638971            4 
 2248000     0.892462   -3.5968386    1737.5546  0.064411127  0.064626233            2 
 2249000   0.90410732   -3.5700476    1746.4885  0.064713522  0.064613761            9 
 2250000   0.90028898   -3.5984486    1746.0306  0.064667799  0.064601107            3 
 2251000   0.89807243   -3.5794303    1747.9103  0.064708659  0.064588431            2 
 2252000   0.90634781   -3.6120828    1747.0226  0.064647075  0.064576056            2 
 2253000   0.91106406   -3.5883469    1748.0818  0.064657559  0.064563643            4 
 2254000   0.89304311   -3.6040657     1745.782  0.064543849  0.064551031            7 
 2255000   0.89144661   -3.5793017    1740.9564  0.064336897  0.064538266            2 
 2256000   0.90951757   -3.5924151    1741.1726  0.064316362   0.06452573            2 
 2257000   0.88968614   -3.5819803    1744.8469  0.064423532  0.064513297            2 
 2258000   0.90669381    -3.584659    1750.7292  0.064612089   0.06450093            2 
 2259000   0.88879796   -3.5734736    1751.6753  0.064618389  0.064488422            3 
 2260000     0.886958    -3.589404    1747.4246   0.06443306  0.064476205            5 
 2261000   0.89175238   -3.5852594    1748.3014   0.06443688  0.064463898            4 
 2262000   0.86790433   -3.5882137    1752.8145  0.064574657  0.064451683            6 
 2263000   0.89864645   -3.5953602     1759.269  0.064783805  0.064439413            5 
 2264000   0.89720981   -3.5966731    1744.7266  0.064219914  0.064427113            2 
 2265000   0.88471493   -3.6032809    1748.9049  0.064345287  0.064414605            3 
 2266000   0.89881606   -3.6048134    1752.4802  0.064448374  0.064402315            3 
 2267000   0.90019503   -3.6122622    1750.3533  0.064341762  0.064390047            5 
 2268000   0.88112763   -3.6101543    1755.6948  0.064509657  0.064377701            2 
 2269000   0.88207044   -3.5852146    1750.0123  0.064272525  0.064365285            3 
 2270000   0.88055228   -3.5943688    1748.5606  0.064190916  0.064352516            3 
 2271000   0.88339709   -3.5727193     1758.635  0.064532329  0.064340107            3 
 2272000      0.90133   -3.6306077    1751.9385  0.064258309   0.06432738            2 
 2273000   0.89637549   -3.5975906    1756.3854   0.06439307  0.064314909            6 
 2274000   0.89912973   -3.6112116    1748.8979  0.064090367  0.064302349            4 
 2275000   0.86914478   -3.6124408    1752.6414  0.064199319  0.064289697            3 
 2276000   0.89238128   -3.5908246    1754.4119  0.064235936  0.064277125            6 
 2277000   0.91095487   -3.5689859    1757.9518  0.064337278  0.064264587            5 
 2278000   0.88947119    -3.592438    1756.3003  0.064248621  0.064252057            3 
 2279000   0.88941043    -3.611239    1757.4557  0.064262678  0.064239344            3 
 2280000   0.88891015   -3.5908601    1751.8748   0.06403051  0.064226574            4 
 2281000   0.88612572   -3.5867825    1747.1767  0.063830802  0.064213941            4 
 2282000   0.87540557   -3.5956999    1752.8251  0.064009098  0.064201351            5 
 2283000     0.878901   -3.6066951    1750.3085    0.0638892   0.06418886            5 
 2284000   0.87026581   -3.5950857    1758.4207  0.064157205  0.064176366            3 
 2285000   0.89380692   -3.5805816     1757.779  0.064105727  0.064163713            2 
 2286000   0.86981484   -3.5947212    1756.6665  0.064037127  0.064151149            3 
 2287000   0.85819616   -3.6150236    1760.5572  0.064150895  0.064138536            2 
 2288000   0.84940525   -3.5946687    1761.9828  0.064174782  0.064125887            9 
 2289000    0.8836516   -3.6169066     1756.903  0.063961808  0.064113246            3 
 2290000   0.87790495   -3.6161417    1760.1466  0.064051913   0.06410068            4 
 2291000   0.87838192   -3.5877719    1761.1213  0.064059409   0.06408835            3 
 2292000   0.89620711   -3.5840737     1765.653  0.064196224  0.064075791            4 
 2293000   0.90054659   -3.6243648    1759.2461  0.063935386  0.064063406            3 
 2294000   0.88131715   -3.6111093    1765.6703  0.064140887  0.064051017            4 
 2295000   0.88058897   -3.5780364    1769.9756  0.064269267  0.064038655            2 
 2296000    0.9096197   -3.5949665    1768.4364  0.064185409  0.064026278            2 
 2297000   0.88045802   -3.6005172      1767.69  0.064130387  0.064014041            1 
 2298000    0.8819244    -3.592782     1770.105  0.064190057  0.064001686            6 
 2299000   0.87644288   -3.5971646    1761.4109  0.063846995  0.063989294            4 
 2300000   0.89256314   -3.6248611    1762.0634  0.063842876  0.063976627           10 
 2301000   0.88178607   -3.5825616    1769.2766  0.064076365  0.063964043            2 
 2302000   0.86309874   -3.5778641    1766.6513  0.063953493  0.063951736            2 
 2303000   0.86382842   -3.5994685    1765.5089  0.063884385  0.063939313            4 
 2304000   0.87621254   -3.5941898    1764.2796  0.063812197  0.063926885            3 
 2305000   0.84619243   -3.5975336    1769.0515  0.063957033  0.063914528            2 
 2306000   0.87513333    -3.577742    1771.9521  0.064034117  0.063902128            2 
 2307000   0.87927163   -3.6041209    1762.4989  0.063664893  0.063889822            4 
 2308000   0.87458709   -3.6229419    1767.7463  0.063826772  0.063877131            3 
 2309000   0.89200296   -3.6386181    1766.8853  0.063768056  0.063864164            3 
 2310000   0.88955864   -3.6009152      1768.76   0.06380808  0.063851619            3 
 2311000   0.86895859   -3.5983473    1770.7636   0.06385272  0.063839004            6 
 2312000   0.88389475   -3.6236453    1767.5096  0.063707816  0.063826367            4 
 2313000   0.87300807   -3.5904449    1774.6411  0.063937205  0.063813774            6 
 2314000   0.90248149   -3.5932678    1771.0499  0.063780248  0.063801277            7 
 2315000   0.90479858   -3.6101486    1769.8607  0.063709888  0.063788675            3 
 2316000   0.88040165    -3.599745    1772.3989  0.063773709  0.063775996            5 
 2317000   0.88934546   -3.6064724    1773.4527  0.063784085  0.063763425            3 
 2318000   0.88825419   -3.5734242    1770.9744  0.063667474  0.063751017            3 
 2319000   0.87585523   -3.6336343    1772.3446  0.063689254  0.063738586            5 
 2320000   0.86442384   -3.6487536    1771.6173   0.06363568  0.063726021            6 
 2321000   0.86289016   -3.6041537    1767.9989  0.063478346  0.063713375            3 
 2322000   0.87330535   -3.5951225    1773.4094  0.063645182  0.063700771            2 
 2323000   0.89273193   -3.6251192    1770.6802   0.06351988  0.063688136            9 
 2324000   0.87176389   -3.6351911    1769.0512  0.063434137  0.063675465            2 
 2325000   0.87875922   -3.6018051    1774.0955  0.063587652  0.063662625            2 
 2326000   0.88559558   -3.6124202    1766.9499  0.063304308  0.063649844            9 
 2327000   0.87954238   -3.6375095     1772.112  0.063461969   0.06363686            4 
 2328000   0.86410552   -3.5903481      1772.21  0.063438215  0.063623936            6 
 2329000   0.89825608    -3.611242    1776.0616  0.063548792  0.063611105            3 
 2330000   0.88210426   -3.5913578    1772.0699  0.063378752  0.063598365            7 
 2331000   0.87479862   -3.5925893    1777.6136  0.063549751  0.063585459            8 
 2332000     0.859293   -3.6338079     1773.906  0.063390009  0.063572653            9 
 2333000   0.88345265   -3.6277212    1776.8777  0.063468984  0.063560036            2 
 2334000   0.92190588   -3.6225061    1779.1266  0.063522085  0.063547183            4 
 2335000   0.87527485     -3.59679    1775.2787  0.063357556  0.063534543            2 
 2336000   0.89401626   -3.6180394    1774.6392  0.063307619  0.063521757            6 
 2337000   0.87576825   -3.6197055    1775.1443  0.063298542  0.063508775            3 
 2338000   0.85830368   -3.6310883      1773.72  0.063220703  0.063495855            5 
 2339000   0.89650708   -3.5958679    1780.6934  0.063442119  0.063482894            2 
 2340000   0.87749405   -3.6173632    1780.3375  0.063402332  0.063470154            4 
 2341000   0.87561026   -3.6286124    1778.9399  0.063325497   0.06345741            4 
 2342000   0.86318669   -3.5984346    1782.5701  0.063427629  0.063444642            4 
 2343000   0.88698431   -3.6122297    1782.4728  0.063397098  0.063431881            5 
 2344000   0.88092781   -3.6046452    1787.8612  0.063561619  0.063419328            4 
 2345000   0.86662767   -3.6172761    1786.1024   0.06347201  0.063406703            4 
 2346000   0.86590037    -3.606536    1781.8887  0.063295278    0.0633939            3 
 2347000   0.87488877   -3.6163682    1782.7523  0.063298975  0.063381382            7 
 2348000   0.87825614   -3.6442946    1779.4995   0.06315657  0.063368563            4 
 2349000   0.88863608   -3.6072882    1783.3445  0.063266089  0.063355839            3 
 2350000   0.86935132    -3.646639    1782.9881  0.063226528  0.063343206            3 
 2351000   0.86152714   -3.5918577    1781.6995  0.063153959  0.063330324            5 
 2352000   0.88215853   -3.6242625    1787.4056  0.063329281  0.063317889            4 
 2353000   0.87499083   -3.6271377    1781.2893  0.063085751  0.063305271            4 
 2354000   0.87080668   -3.6544915    1787.6148  0.063282882  0.063292468            4 
 2355000   0.87914843   -3.6447881    1786.6005  0.063220117  0.063279768            2 
 2356000   0.86561446   -3.6201626    1787.7299   0.06323323  0.063267249            4 
 2357000   0.86905771   -3.5921227    1789.8522  0.063281439  0.063254763            6 
 2358000   0.87671549   -3.6081253    1785.1365  0.063087945  0.063242303            5 
 2359000    0.8784142   -3.6142825    1795.0622  0.063411833  0.063229741            4 
 2360000   0.86357888   -3.6314634    1789.4165   0.06318561  0.063217382            5 
 2361000   0.86594934   -3.6230729    1788.0322  0.063109988   0.06320477            2 
 2362000   0.88904778   -3.6311312    1787.4634  0.063063201  0.063192181            3 
 2363000   0.87889759   -3.6502407    1786.6705   0.06300855  0.063179712            7 
 2364000   0.87914282   -3.6336724    1792.9641  0.063203755  0.063167007            2 
 2365000   0.87179156   -3.6264765    1789.1985  0.063044343   0.06315448            5 
 2366000   0.86138062   -3.6341272    1782.7303   0.06278988  0.063141779            6 
 2367000   0.85341582   -3.6288635    1790.9514   0.06305279  0.063129144            4 
 2368000    0.8684511   -3.5856004    1791.3275  0.063039397  0.063116639            4 
 2369000   0.87225176   -3.5975863    1796.9261  0.063209726  0.063104268            6 
 2370000   0.87418881   -3.6295767     1795.845  0.063145044   0.06309203            4 
 2371000   0.85884895   -3.6297513     1792.538  0.063002179  0.063079593            2 
 2372000   0.87265873   -3.6363862    1798.1928  0.063174284  0.063067041            1 
 2373000   0.88917036   -3.6296392    1792.3938  0.062944017  0.063054571            7 
 2374000   0.88590625   -3.6315086    1796.8117   0.06307258  0.063042094            4 
 2375000    0.8705793   -3.6281706      1791.71  0.062867016  0.063029737            5 
 2376000    0.8704678   -3.6317999    1796.4298  0.063006096  0.063017406            4 
 2377000   0.86702411   -3.6512822     1790.202  0.062761253   0.06300493           11 
 2378000   0.87788437   -3.6071628    1799.3959  0.063057047  0.062992334            5 
 2379000   0.87063424   -3.6170331    1799.3863  0.063030205  0.062979956            3 
 2380000   0.88042653   -3.6124436    1800.8231  0.063054029  0.062967416            5 
 2381000   0.87429053   -3.6063216    1794.3402   0.06280065  0.062955076            4 
 2382000   0.88169392   -3.6401499    1794.2716  0.062771887  0.062942623            4 
 2383000   0.88155123   -3.6130471    1802.3168  0.063026884  0.062930024            3 
 2384000   0.87130917   -3.6400764    1796.4709  0.062796101  0.062917456            5 
 2385000   0.86681722   -3.6242007    1800.2814  0.062902915  0.062904658            6 
 2386000   0.86265709   -3.6231256    1800.5984  0.062887623  0.062892169            4 
 2387000   0.87517718    -3.632587    1805.6459   0.06303749  0.062879743            2 
 2388000   0.86936343   -3.6368513    1800.3367  0.062825822  0.062867028            3 
 2389000   0.86441781   -3.6553043    1798.7626  0.062744614  0.062854406            4 
 2390000   0.87008242   -3.6515838    1803.0012  0.062866152  0.062841753            4 
 2391000   0.87123283   -3.6333658    1805.7118   0.06293433  0.062829347            4 
 2392000   0.85939104   -3.6189275    1806.6668  0.062941291  0.062816911            2 
 2393000   0.86973309   -3.6372266    1799.2778  0.062657675  0.062804304            3 
 2394000   0.85641996   -3.6579698    1802.6524   0.06274897  0.062791814            4 
 2395000   0.87745021   -3.6446146    1802.1295  0.062704574  0.062779249            4 
 2396000   0.88954758   -3.6391196     1810.764  0.062978713   0.06276684            5 
 2397000   0.86601595   -3.6140253    1808.9846  0.062890579  0.062754439            2 
 2398000   0.87154456   -3.6243293    1804.6406  0.062713392  0.062742106            2 
 2399000   0.87191278   -3.6476871    1806.4313  0.062749455  0.062729683            6 
 2400000    0.8673906   -3.6163945    1807.3676   0.06275582  0.062717278            2 
 2401000   0.85378998   -3.6356671    1807.1903  0.062723528  0.062704885            4 
 2402000   0.85135226   -3.6360584    1807.1998  0.062697746  0.062692517            2 
 2403000   0.85588444   -3.6430023    1811.2171  0.062810967  0.062680072            3 
 2404000   0.85205535   -3.6401291    1805.9028  0.062600624  0.062667635            5 
 2405000   0.87258934    -3.649164    1809.9175  0.062713703  0.062655205            1 
 2406000   0.85842039   -3.6462137    1814.9526  0.062862032   0.06264282            4 
 2407000   0.86256515   -3.6240842      1814.67  0.062826134  0.062630608            3 
 2408000   0.88551658   -3.6543706    1807.5155  0.062552448  0.062618131            6 
 2409000   0.87229719   -3.6468092    1815.2213  0.062793044   0.06260581            4 
 2410000   0.85192085   -3.6264565    1808.1727   0.06252326  0.062593439            5 
 2411000   0.85980516   -3.6115141    1816.4721  0.062784186  0.062581265            4 
 2412000   0.86711907   -3.6264589    1815.6535  0.062729873  0.062569029            4 
 2413000   0.82561702    -3.658287    1812.1055  0.062581347  0.062556721            7 
 2414000   0.86144848   -3.6686101    1810.6478  0.062505102  0.062544351            6 
 2415000   0.87413105    -3.605912    1818.8281  0.062761495  0.062531933            4 
 2416000   0.87074771   -3.6256176    1812.3789  0.062513069  0.062519728            1 
 2417000   0.86238089   -3.6497024    1819.6975  0.062739536  0.062507365            2 
 2418000    0.8661865   -3.6477161    1817.0887  0.062623679  0.062494997            3 
 2419000   0.85500305   -3.6293017    1813.4282  0.062471689  0.062482606            7 
 2420000    0.8837915   -3.6246297    1813.7682  0.062457584  0.062470141            3 
 2421000   0.86302196    -3.628138     1823.013      0.06275   0.06245772            4 
 2422000   0.86723727   -3.6450283    1812.0227  0.062345949  0.062445282            5 
 2423000   0.86953353   -3.6405225    1810.6585  0.062273301  0.062432845            4 
 2424000   0.83621849   -3.6476879    1821.0648  0.062605363  0.062420563            4 
 2425000    0.8438422   -3.6429868    1821.5799  0.062597247  0.062408198            4 
 2426000   0.85937506   -3.6416883    1823.6658  0.062643094  0.062395743            2 
 2427000   0.87954939   -3.6543262    1818.0665  0.062425028  0.062383481            2 
 2428000   0.85394481   -3.6458721    1815.8996  0.062324944  0.062370899            4 
 2429000   0.86451469   -3.6643808    1812.2176  0.062172967  0.062358574            4 
 2430000   0.85374387    -3.652547    1821.2599  0.062457473  0.062346037            3 
 2431000   0.85694615   -3.6457874    1814.3485  0.062194863  0.062333519            3 
 2432000   0.86744404   -3.6194639    1821.3457  0.062409051  0.062320942            4 
 2433000    0.8521611   -3.6276344     1821.056  0.062373476  0.062308355            4 
 2434000   0.87462694   -3.6413484    1818.9055  0.062274223  0.062295816            4 
 2435000   0.86448979   -3.6427497    1816.8833  0.062179441  0.062283282            5 
 2436000   0.85384008    -3.644426     1821.015  0.062295257  0.062270678            4 
 2437000   0.86633362   -3.6603592    1814.8272  0.062058104   0.06225811            4 
 2438000   0.86589076   -3.6610376    1813.8093  0.061997857   0.06224552            3 
 2439000    0.8457531   -3.6547733    1814.1603   0.06198443   0.06223261            4 
 2440000   0.85994436   -3.6399713    1826.5129  0.062380905  0.062219865            4 
 2441000   0.86284093   -3.6716706    1818.3534  0.062076792  0.062207313            5 
 2442000   0.85512725   -3.6392079    1826.1578  0.062317697  0.062194661            5 
 2443000   0.86021284   -3.6239789     1820.782  0.062108813  0.062182103            3 
 2444000   0.86750549   -3.6726082    1812.3284  0.061795158  0.062169424            4 
 2445000   0.86213829   -3.6463128    1824.7004  0.062191562  0.062156653            8 
 2446000   0.83415599   -3.6366631    1825.5523   0.06219516  0.062144051            2 
 2447000   0.86043658   -3.6440742    1823.4716  0.062098881  0.062131463            4 
 2448000   0.85358999   -3.6448644    1824.2729  0.062100792  0.062119056            2 
 2449000   0.84336573   -3.6806474    1826.5306  0.062152258  0.062106516            6 
 2450000   0.84092716   -3.6448169    1828.8414  0.062205488  0.062093983            2 
 2451000   0.87069934   -3.6451356    1828.6468  0.062173494  0.062081626            4 
 2452000   0.85872658    -3.630608    1829.1147  0.062164041  0.062069292            7 
 2453000   0.88419267   -3.6289749    1826.2732  0.062042167  0.062056804            2 
 2454000   0.84753117   -3.6504762    1830.0278  0.062144383  0.062044191            7 
 2455000   0.84641883   -3.6311424    1824.2344  0.061922416  0.062031659            2 
 2456000   0.87812918   -3.6647439     1828.654  0.062047164  0.062019256            3 
 2457000   0.86971213   -3.6460022    1830.0216  0.062068293  0.062006835            4 
 2458000   0.87970701   -3.6604518    1830.2747  0.062051624  0.061994404            2 
 2459000   0.86415817   -3.6614028    1828.5438  0.061967731  0.061982026            2 
 2460000   0.85701205   -3.6881125     1829.083  0.061960807  0.061969517            5 
 2461000   0.87171574   -3.6310562    1834.9253  0.062133459  0.061957129            4 
 2462000   0.86577858   -3.6444985    1834.7857  0.062103497  0.061944762            2 
 2463000   0.84296409   -3.6412983    1840.5485  0.062273261  0.061932654            7 
 2464000   0.86658439   -3.6552398    1834.7327  0.062051296  0.061920456            7 
 2465000   0.84832566   -3.6473893    1837.0356  0.062103974  0.061908356            4 
 2466000   0.86934304   -3.6474704    1836.5974  0.062063985  0.061896418            2 
 2467000   0.86677482   -3.6414749     1836.996   0.06205229  0.061884466            2 
 2468000   0.83273367   -3.6310596    1837.2871  0.062036978  0.061872597            4 
 2469000   0.87348148   -3.6474996    1833.8924  0.061897272  0.061860608            8 
 2470000   0.86199333   -3.6601857    1837.6271  0.061998215  0.061848531            6 
 2471000   0.85125927    -3.635541    1839.6984  0.062042977  0.061836341            2 
 2472000   0.86709096   -3.6369289    1837.9888  0.061960248  0.061824147            3 
 2473000   0.84896965   -3.6328096    1841.7131  0.062060691  0.061812165            8 
 2474000   0.84435272   -3.6618462    1837.9055  0.061907353  0.061799911            5 
 2475000   0.85516376   -3.6572358    1838.5523   0.06190412  0.061787864            3 
 2476000    0.8477668   -3.6413542    1838.3149  0.061871125  0.061775791            3 
 2477000   0.87036031   -3.6512691    1840.3883  0.061915902  0.061763806            6 
 2478000    0.8561378   -3.6747896     1835.379  0.061722457  0.061751574            2 
 2479000   0.84911753   -3.6838683    1842.7007  0.061943684  0.061739476            4 
 2480000   0.83942738   -3.6847256    1840.1784  0.061833951  0.061727471            3 
 2481000    0.8585247   -3.6431404    1839.6765   0.06179217  0.061715502            4 
 2482000   0.86307095   -3.6482527    1839.1621  0.061750002  0.061703406            7 
 2483000   0.85871167   -3.6566562    1840.6101  0.061773733  0.061691289            8 
 2484000   0.86642547   -3.6480324     1849.638  0.062051731  0.061679207            4 
 2485000   0.83936653   -3.6417812    1852.4746  0.062121883   0.06166726            6 
 2486000   0.86416895   -3.6601929    1845.8469  0.061874729  0.061655157            6 
 2487000   0.86635162   -3.6469222    1852.1176  0.062059967  0.061643346            4 
 2488000   0.83288804   -3.6322404    1845.8299  0.061824419  0.061631335            3 
 2489000   0.84415584   -3.6785403    1844.2748  0.061747516  0.061619326            6 
 2490000   0.85600686   -3.6341993    1844.3642  0.061725708  0.061607247           10 
 2491000   0.84645901   -3.6766203    1847.3555     0.061801  0.061595008            6 
 2492000   0.84698223   -3.6659703     1845.365  0.061709638  0.061582958            4 
 2493000    0.8629281   -3.6535668     1843.167  0.061611413  0.061570932            6 
 2494000   0.86462066   -3.6482078    1848.8956  0.061778121  0.061558834            3 
 2495000   0.86483285   -3.6652235    1847.9683  0.061722387  0.061546776            5 
 2496000   0.85272703   -3.6489329    1845.4673   0.06161416  0.061534797            2 
 2497000    0.8655301   -3.6554108    1846.6106  0.061627639  0.061522492            3 
 2498000    0.8483018   -3.6634028    1846.9576  0.061614543  0.061510392            3 
 2499000   0.85982698   -3.6616844    1842.8365  0.061452464  0.061498279            2 
 2500000   0.84663248   -3.6366488    1855.1107  0.061837024  0.061486206            8 
 2501000   0.84882541   -3.6818675     1849.566   0.06162755  0.061474159            2 
 2502000   0.84273965   -3.6639926     1848.353  0.061562517  0.061462141            6 
 2503000   0.85652845   -3.6480244    1854.6472  0.061747476  0.061450123            5 
 2504000   0.84803198   -3.6843421    1850.7637  0.061593575  0.061438202            4 
 2505000    0.8437089   -3.6549259    1854.1137  0.061680428  0.061426241            3 
 2506000   0.84335154   -3.6539764    1853.4414  0.061633461  0.061414511            3 
 2507000   0.85237224   -3.6410036     1859.138  0.061798231  0.061402808            4 
 2508000   0.84522093   -3.6641753    1856.7215  0.061693297  0.061390848            3 
 2509000   0.84134271   -3.6894842    1850.8965  0.061475238  0.061378803            4 
 2510000   0.84407551   -3.6486718    1858.7143  0.061710301  0.061366802            4 
 2511000   0.84468528   -3.6717838    1855.3928  0.061575494  0.061354851            4 
 2512000   0.83777743   -3.6416048    1861.9888  0.061769798  0.061342985            3 
 2513000   0.86073186   -3.6728495    1858.5068  0.061629753  0.061330944            9 
 2514000   0.82374899   -3.6680281    1855.9995  0.061522128  0.061318993            3 
 2515000    0.8519537   -3.6617834     1859.715  0.061620775  0.061307001            3 
 2516000   0.85937626   -3.6474186    1861.3105   0.06164913  0.061295295            2 
 2517000   0.84622529   -3.6475258     1860.482  0.061597207  0.061283309            8 
 2518000   0.86075023   -3.6645985    1858.4763  0.061506365  0.061271335            4 
 2519000    0.8433711   -3.6695331    1858.4221  0.061480153  0.061259373            3 
 2520000   0.87322972   -3.6453774    1857.8861  0.061438032  0.061247435            4 
 2521000   0.83780896    -3.663405    1862.4395  0.061564177   0.06123557            3 
 2522000   0.84177587   -3.6893173    1859.8199  0.061453208  0.061223642            3 
 2523000   0.85138817   -3.6551614    1863.9109  0.061563974  0.061211806            6 
 2524000   0.81486675   -3.6616384    1865.7532  0.061600411  0.061200194            5 
 2525000   0.84862844   -3.6709895    1859.6856  0.061375763  0.061188314            3 
 2526000   0.86384173   -3.6591816     1865.478  0.061542559  0.061176502            5 
 2527000   0.81615863   -3.6660303    1864.3306  0.061480365  0.061164747            3 
 2528000   0.86105976   -3.6759371    1854.3733  0.061127811  0.061152822            4 
 2529000   0.86787167   -3.6586151    1862.4992  0.061371398   0.06114098            3 
 2530000   0.85213122   -3.6631943    1859.3388  0.061243043  0.061129209           12 
 2531000   0.85037001     -3.67307    1857.4014  0.061155059  0.061117079            3 
 2532000   0.84297878   -3.6417964    1867.0902  0.061449783   0.06110511            5 
 2533000    0.8438535    -3.663228    1860.2121  0.061199242   0.06109321            2 
 2534000   0.85013775   -3.6781593    1864.2375   0.06130747  0.061081287            2 
 2535000    0.8507001   -3.6552919    1865.5587  0.061326715  0.061069538            4 
 2536000   0.85840602   -3.6882041    1861.3001  0.061162596  0.061057484            4 
 2537000   0.86261523   -3.6638505    1871.1885  0.061463293  0.061045647            6 
 2538000   0.85007441   -3.6741276    1867.4358  0.061315859  0.061033693            5 
 2539000   0.84366542   -3.6579599    1869.0013  0.061343091  0.061021863            7 
 2540000   0.85699275   -3.6839993    1860.7958   0.06104973  0.061009779            4 
 2541000   0.82782991   -3.6787246    1865.4792    0.0611793  0.060997807            8 
 2542000   0.82373986   -3.6794056    1870.6542  0.061324882  0.060985943            5 
 2543000   0.83231077   -3.6746994     1858.526  0.060903328   0.06097382            9 
 2544000   0.86127705   -3.6864107    1863.4463  0.061040561  0.060961718            3 
 2545000    0.8478074   -3.6767192     1864.249  0.061042862  0.060949787            3 
 2546000   0.85453038   -3.6401327    1868.4938  0.061157824  0.060937699            6 
 2547000   0.84155223   -3.6491299    1869.7176  0.061173852  0.060925663            6 
 2548000   0.82862447   -3.6722022    1873.4802    0.0612729  0.060913703            4 
 2549000   0.83843416   -3.6853151    1864.2624  0.060947507  0.060901661            5 
 2550000   0.84534605   -3.6938575    1858.9744  0.060750797  0.060889487            5 
 2551000   0.84429995   -3.6317908    1869.4735  0.061069957  0.060877432            4 
 2552000   0.84481406   -3.6826297    1861.2877  0.060778727  0.060865305            3 
 2553000    0.8273155   -3.6597066    1872.2088  0.061111398  0.060853165           10 
 2554000   0.85286862   -3.6790938    1865.2252  0.060859605  0.060841199            3 
 2555000   0.82609627   -3.6837865    1870.7284  0.061015278  0.060829233            4 
 2556000   0.83327039   -3.6544251    1874.9621  0.061129438  0.060817325            4 
 2557000    0.8428294   -3.6645746    1871.3903  0.060989126  0.060805408            5 
 2558000   0.84364585   -3.6958789    1862.8958  0.060688551  0.060793478            5 
 2559000   0.84589899   -3.6788364    1872.0978  0.060964497  0.060781446            4 
 2560000   0.81859926   -3.6683583    1867.5846  0.060793768  0.060769285            2 
 2561000   0.83145158    -3.674813    1873.0446  0.060947696  0.060757267            6 
 2562000   0.84538489   -3.6987268    1872.0357  0.060891091  0.060745111            3 
 2563000    0.8284283   -3.6659786    1873.0421  0.060900056    0.0607331            4 
 2564000   0.84916639   -3.6749512       1869.1  0.060748178  0.060721156            7 
 2565000   0.85040342   -3.6637079    1871.2761  0.060795196   0.06070887            1 
 2566000   0.84942813   -3.6749539    1873.0517  0.060829167  0.060696609            5 
 2567000   0.83288958   -3.6859068    1874.6975    0.0608589  0.060684328            3 
 2568000   0.84865662   -3.6738984    1871.9246  0.060745218  0.060671923           10 
 2569000   0.84038435     -3.64933    1874.7624  0.060813625  0.060659653            7 
 2570000   0.83993956   -3.6577528    1878.5637  0.060913219  0.060647374            3 
 2571000   0.83498857   -3.6663363    1867.7669  0.060539573   0.06063487            2 
 2572000   0.85357061    -3.662475     1874.004  0.060718118  0.060622521            4 
 2573000   0.83063723   -3.6954017     1872.717  0.060652837  0.060610134            3 
 2574000    0.8313974   -3.6625979    1876.0098  0.060735878  0.060597659            4 
 2575000    0.8280487   -3.6716689    1875.7695  0.060704514  0.060585291            4 
 2576000    0.8489647   -3.6656126    1879.8605  0.060813292  0.060573189            1 
 2577000   0.82514168   -3.6773606    1876.3403  0.060675862  0.060560914            5 
 2578000   0.83320261   -3.6689684    1875.5847  0.060627901  0.060548559            4 
 2579000   0.83689314   -3.6639527    1877.1688  0.060655578  0.060536488            9 
 2580000   0.83914989   -3.6739187    1876.1178  0.060598121  0.060524264            4 
 2581000   0.83213122   -3.6712394    1881.7224    0.0607556  0.060512088            7 
 2582000   0.83334969   -3.6629056    1883.1711  0.060778824   0.06049996            7 
 2583000   0.82300861   -3.6900218    1876.4132   0.06053727  0.060487759            7 
 2584000   0.83076263    -3.678648    1879.2526  0.060605412  0.060475653            4 
 2585000   0.84619111   -3.6789485    1882.0957   0.06067362  0.060463481            3 
 2586000   0.84357692   -3.7035317    1884.2137  0.060718409  0.060451431            4 
 2587000   0.84820174    -3.698139    1877.7357  0.060486267  0.060439178            3 
 2588000   0.83605119   -3.6816367    1881.4124  0.060581287  0.060427156            4 
 2589000   0.83459801   -3.6796152     1883.679  0.060630841  0.060415037            6 
 2590000   0.83511868   -3.7071835    1881.6657  0.060542654  0.060402945            5 
 2591000   0.84965053   -3.6692222    1885.0478  0.060628064  0.060390902            6 
 2592000   0.83632559   -3.6785832    1882.1073  0.060510136  0.060378949            3 
 2593000   0.83283639   -3.7060418    1873.3554  0.060205535  0.060366788            3 
 2594000   0.83617649   -3.6763782    1882.7615  0.060484498   0.06035459           11 
 2595000   0.83491531   -3.6607466    1883.5922  0.060487867  0.060342725            5 
 2596000   0.84051641   -3.7044432    1879.9904  0.060348947  0.060330767            5 
 2597000   0.83732505   -3.7012739    1885.8575  0.060513973  0.060318798            7 
 2598000   0.83502929   -3.6571798    1889.9159  0.060620859  0.060306804            3 
 2599000   0.84437308   -3.6828972    1887.3321  0.060514689  0.060294713            4 
 2600000   0.82877842   -3.6961929    1887.3123  0.060490779  0.060282635            6 
 2601000   0.81585302   -3.6703849    1890.1416   0.06055817  0.060270716            7 
 2602000   0.83971248   -3.7110318    1883.2686  0.060314779  0.060258751            5 
 2603000   0.83697716   -3.6771261    1884.3002  0.060324633  0.060246712            1 
 2604000   0.84495656   -3.6883397    1888.6069   0.06043929  0.060234883            5 
 2605000   0.83085459   -3.6648828    1892.6075  0.060544067  0.060222926            3 
 2606000   0.83264953    -3.701771    1890.5117  0.060453813  0.060211037            2 
 2607000   0.84356401   -3.7126208    1892.1741  0.060483765  0.060199139            4 
 2608000    0.8450754   -3.6781958    1894.4245  0.060532479  0.060187397            3 
 2609000   0.83917761   -3.6784786    1888.3514    0.0603153  0.060175587            3 
 2610000   0.83672287   -3.6897887    1892.1227  0.060412602  0.060163798            2 
 2611000   0.84720109   -3.6690921    1898.4597  0.060591719  0.060152174            3 
 2612000   0.82569016   -3.6876722     1895.545  0.060475529   0.06014042            5 
 2613000   0.83840647   -3.6995371    1896.4563  0.060481449  0.060128751            2 
 2614000   0.83178402   -3.6838821     1894.641  0.060400439  0.060117226            4 
 2615000   0.84186826   -3.7106109    1888.8039  0.060191328  0.060105465            3 
 2616000   0.82937538   -3.7136911     1896.766  0.060421956  0.060093638            3 
 2617000   0.82322925   -3.6825237    1899.4849  0.060485444   0.06008186            4 
 2618000    0.8440411    -3.715274    1891.5899  0.060211034  0.060070141            3 
 2619000   0.83734897   -3.6901168    1892.3163  0.060211159  0.060058344            2 
 2620000   0.81823432   -3.6930808    1891.9076  0.060175179  0.060046522            3 
 2621000   0.83963454   -3.7038037    1895.2194  0.060257516  0.060034741            3 
 2622000   0.82122098    -3.687525    1896.3021  0.060268946  0.060023037            4 
 2623000   0.85014603   -3.6933934    1898.8639  0.060327356  0.060011344            4 
 2624000   0.81849375     -3.65925    1904.0279  0.060468367  0.059999837            2 
 2625000   0.83887814   -3.6588854    1900.2726  0.060326115  0.059988256            3 
 2626000   0.84341784   -3.7026492    1904.5988  0.060440428  0.059976792            3 
 2627000   0.85676427   -3.6876884    1898.0354  0.060209219  0.059965178            3 
 2628000   0.83070421    -3.722826    1897.3652  0.060165057  0.059953524            6 
 2629000   0.83040009   -3.6915918      1902.53  0.060305882  0.059941938            2 
 2630000    0.8411843   -3.6876671    1896.9089  0.060104843  0.059930319            5 
 2631000   0.82924947   -3.6889233    1901.3453  0.060222517  0.059918673            3 
 2632000   0.80635901   -3.6875676    1901.4854  0.060204073  0.059907118            6 
 2633000   0.82289968   -3.7148163    1903.1361  0.060233451  0.059895565            3 
 2634000   0.82948431   -3.6996952    1905.2117  0.060276248  0.059883972            3 
 2635000   0.83106355   -3.7170551    1905.8591  0.060273847  0.059872303            3 
 2636000   0.82650419   -3.6880047    1903.1742  0.060166104  0.059860717            2 
 2637000   0.83027876   -3.7058827    1904.1147   0.06017301  0.059849307            4 
 2638000   0.81330814   -3.7081156    1906.1877  0.060215683  0.059837733            3 
 2639000   0.82520473   -3.6877214    1908.9402  0.060279784  0.059826329           11 
 2640000   0.83849936   -3.7127046    1909.4843  0.060274126  0.059814958            3 
 2641000    0.8220625   -3.6936179     1905.264  0.060118135  0.059803419            7 
 2642000   0.81673124   -3.6971691    1906.9548  0.060148715   0.05979199            4 
 2643000   0.84142586   -3.6656076    1914.4312  0.060361686  0.059780571            4 
 2644000   0.81383804   -3.6957534    1911.7685  0.060254932  0.059769112            8 
 2645000   0.83032945   -3.7122425    1905.5078  0.060034901  0.059757666            5 
 2646000   0.82559732   -3.6751609    1915.9909   0.06034237  0.059746246            3 
 2647000   0.83944749   -3.7108129    1911.3709  0.060174125  0.059734759            4 
 2648000   0.82069982   -3.6823526    1902.1457  0.059861082   0.05972331            3 
 2649000    0.8249053   -3.6810304    1912.0492   0.06015003  0.059711714            5 
 2650000   0.83509778   -3.7107305    1904.4991  0.059889907   0.05969997            3 
 2651000   0.83548604    -3.693887    1908.3148  0.059987263  0.059688213            4 
 2652000   0.83260948   -3.7069302    1908.8134  0.059980311  0.059676562            3 
 2653000   0.82879634   -3.7180023     1911.292  0.060035557  0.059665012            3 
 2654000   0.81981116   -3.6784602    1917.4343  0.060205799  0.059653482            4 
 2655000   0.81780434    -3.702159    1917.2549  0.060177493  0.059641847            4 
 2656000   0.84202612   -3.6902003     1910.863  0.059954285  0.059630348            3 
 2657000   0.82092312   -3.6815953    1910.1525  0.059909436  0.059618788            9 
 2658000   0.82498291   -3.7118733    1910.0241  0.059882871  0.059607072            5 
 2659000   0.84215402   -3.7024322    1910.4702  0.059874333  0.059595491            5 
 2660000   0.82398811   -3.7092156    1915.4286  0.060007162  0.059584077            4 
 2661000   0.82403666   -3.7202762    1916.9688  0.060032845  0.059572473            4 
 2662000   0.81663843   -3.6822166    1920.5987  0.060123925  0.059560956            3 
 2663000   0.83777585   -3.6966516    1919.3169  0.060061237  0.059549471            2 
 2664000   0.81145461    -3.704473    1922.3271  0.060132855  0.059537977            6 
 2665000     0.808285   -3.7262623     1909.484  0.059708692  0.059526367            7 
 2666000   0.82407282   -3.7032148     1918.961  0.059982526  0.059514886            3 
 2667000   0.83965941   -3.6709646      1916.57  0.059885327  0.059503388            3 
 2668000   0.82823427   -3.7034455    1908.6931   0.05961685  0.059491746            5 
 2669000   0.83362236    -3.698464    1918.1276  0.059889083  0.059480029            3 
 2670000   0.81618358   -3.7079481    1911.8133   0.05966958  0.059468274            2 
 2671000   0.81442466   -3.6969488    1917.2361  0.059816428  0.059456557            4 
 2672000   0.81424334   -3.6986594    1912.5509  0.059647919  0.059444898            7 
 2673000   0.82045893   -3.7082793    1918.9416  0.059824842  0.059433066            5 
 2674000   0.82512241   -3.7100182    1919.6586  0.059824814   0.05942136            2 
 2675000   0.81897652   -3.7020273    1915.7035  0.059679236  0.059409735            4 
 2676000   0.84491843   -3.7241783    1918.2053  0.059734844  0.059398256            2 
 2677000   0.83476817   -3.7192909    1916.3056  0.059653395  0.059386592            4 
 2678000   0.82804663    -3.708466     1915.865  0.059617407  0.059374899            7 
 2679000   0.83307586   -3.7001457     1917.979  0.059660913  0.059363132            4 
 2680000   0.81180765   -3.7182397    1914.7135   0.05953711  0.059351346            2 
 2681000    0.8136017    -3.711607    1916.3723  0.059566466  0.059339657            7 
 2682000   0.82491679   -3.7130907    1921.5364  0.059704711   0.05932794            7 
 2683000   0.80527612   -3.7103826    1922.4939  0.059712198  0.059316156            3 
 2684000   0.82544579   -3.6926482    1919.3273  0.059591634  0.059304495            4 
 2685000    0.8080116   -3.6956732    1915.8835  0.059462554  0.059292861            4 
 2686000   0.80895786    -3.680604      1922.71  0.059652208   0.05928126            4 
 2687000   0.82050619   -3.6988851    1922.0315  0.059608967  0.059269579            4 
 2688000   0.81880569   -3.7264708    1925.7288  0.059701414  0.059257886            7 
 2689000   0.81307797   -3.7060757    1927.2642  0.059726796  0.059246229            3 
 2690000   0.81327348   -3.7081046    1921.7537  0.059533882  0.059234684            4 
 2691000   0.81408204   -3.7132563     1923.104  0.059553572  0.059223166            8 
 2692000   0.79730516   -3.7267492    1922.4635  0.059511623  0.059211402            7 
 2693000   0.81872887    -3.715537    1925.5814  0.059586007  0.059199725            4 
 2694000   0.81670562    -3.719102    1919.6067  0.059379072  0.059187911            3 
 2695000   0.81315447   -3.6879205     1926.732  0.059577367  0.059176185            3 
 2696000   0.81992819   -3.7038352    1921.6604  0.059398505  0.059164423            6 
 2697000   0.80737176   -3.7292959    1919.3134  0.059303961   0.05915263            7 
 2698000   0.80347612   -3.6981416    1924.2492  0.059434432  0.059140857            7 
 2699000   0.84199626   -3.7093353    1917.6198  0.059207724  0.059129179            4 
 2700000   0.83861673   -3.7261395     1918.732  0.059220124   0.05911747            2 
 2701000   0.82143877   -3.7204249    1929.8296  0.059540591  0.059105724            2 
 2702000   0.82432866   -3.6704908    1933.1518  0.059621015   0.05909415            4 
 2703000   0.82836691   -3.7255197    1927.7421  0.059432178   0.05908257            5 
 2704000   0.80953417   -3.7191724    1928.8044  0.059442936  0.059070967            4 
 2705000   0.80513692   -3.7234516    1931.4123  0.059501302  0.059059451            3 
 2706000   0.83931499   -3.7249554    1933.0029  0.059528297  0.059047828            8 
 2707000    0.8335413   -3.7512649    1929.6056  0.059401724  0.059036321            3 
 2708000   0.81155557   -3.7123005    1927.2787  0.059308181   0.05902461            4 
 2709000    0.8250227   -3.7276779    1926.4965  0.059262227  0.059012787            3 
 2710000   0.83385992   -3.7228631    1930.8154  0.059373166  0.059001008            5 
 2711000   0.81791114   -3.7234248    1933.3682  0.059429736  0.058989469            6 
 2712000   0.81685204    -3.705007     1933.171  0.059401764  0.058977899            5 
 2713000   0.81228086   -3.7002543    1934.7413  0.059428104  0.058966283            2 
 2714000   0.82711717   -3.7065825    1935.2069  0.059420502  0.058954631            4 
 2715000    0.8260635   -3.6996311     1929.358  0.059219092  0.058943119            2 
 2716000   0.82784703   -3.7234841    1935.0717  0.059372597  0.058931551            3 
 2717000   0.80798852   -3.7190537     1935.679  0.059369372  0.058920056            3 
 2718000    0.8146894   -3.7011661    1936.1279  0.059361293  0.058908495            5 
 2719000    0.8265124   -3.7197594    1930.3986  0.059163866  0.058896701            3 
 2720000   0.81364655   -3.7017563    1933.6368  0.059241324  0.058885044            3 
 2721000    0.8211193   -3.7160934    1936.5014  0.059307283  0.058873325            4 
 2722000    0.8249931   -3.6917612    1935.5919  0.059257652  0.058861731            4 
 2723000   0.81789569   -3.7083718    1938.7053   0.05933117  0.058850263            4 
 2724000   0.82452272   -3.7220349    1934.0624  0.059167353  0.058838817            4 
 2725000   0.81656951    -3.719119    1931.6042  0.059070465  0.058827277            2 
 2726000   0.79903948   -3.6993775    1931.2241  0.059037176  0.058815842            4 
 2727000   0.81899389    -3.726493    1938.6861  0.059243555  0.058804405            2 
 2728000   0.82590557   -3.7213047    1942.0732  0.059325304  0.058792961            7 
 2729000   0.79508058   -3.7356311    1939.8021  0.059234217  0.058781701            5 
 2730000   0.81539284   -3.7204845    1939.4273  0.059201078   0.05877031            4 
 2731000   0.81734068   -3.7125754    1938.9529  0.059164926  0.058758885            2 
 2732000   0.81384314   -3.6961533    1943.1352  0.059270838  0.058747649            3 
 2733000   0.82135255   -3.7255934     1941.782  0.059207891  0.058736238            2 
 2734000   0.81309343   -3.7126685    1942.9254  0.059221085  0.058724927            4 
 2735000   0.81379484    -3.718238    1942.2314  0.059178289  0.058713472            7 
 2736000   0.80692875    -3.719846    1941.6961  0.059140353  0.058701996            4 
 2737000   0.81398334   -3.7340717    1945.0771  0.059221687  0.058690471            4 
 2738000   0.81694594   -3.7146304    1947.0254  0.059259356  0.058679166            4 
 2739000   0.80762091   -3.7193859    1940.6391  0.059043418  0.058667726            4 
 2740000    0.7950271   -3.7471279    1943.2561  0.059101463  0.058656167            7 
 2741000   0.79735023   -3.7391418    1944.2308  0.059109534  0.058644646            5 
 2742000   0.82622254   -3.7010427    1942.1577  0.059024973   0.05863329            7 
 2743000   0.79136766   -3.7186043     1943.143  0.059033388  0.058621954            3 
 2744000   0.79855321   -3.6986903    1945.1964  0.059074236  0.058610598            6 
 2745000   0.82341557   -3.6969575    1942.5127  0.058971243  0.058599286            2 
 2746000   0.83093469   -3.7232613     1949.617  0.059165361   0.05858806            3 
 2747000   0.80728681   -3.7197511    1948.6168  0.059113481  0.058576802            5 
 2748000   0.82817669   -3.7394091     1945.735   0.05900458  0.058565564            4 
 2749000   0.82041976   -3.7184499    1948.0279  0.059052623  0.058554293            3 
 2750000   0.83602647   -3.7226891    1951.2456  0.059128655  0.058543276            6 
 2751000   0.81826056    -3.721113    1951.4228  0.059112529  0.058532228            7 
 2752000   0.80198718   -3.7367952    1954.1573  0.059173854  0.058520964           11 
 2753000   0.78319891   -3.7033409    1952.1203    0.0590907   0.05850988            5 
 2754000   0.81666177   -3.7224227    1943.5564  0.058810107  0.058498443            2 
 2755000   0.81635456   -3.7271582    1948.6593  0.058943113  0.058487198            5 
 2756000    0.8044896   -3.7165381    1950.3677  0.058973382  0.058475967            2 
 2757000   0.81484393   -3.7068534    1957.4782  0.059166914   0.05846473            2 
 2758000   0.80947319   -3.7264037    1950.7253  0.058941421  0.058453606            6 
 2759000    0.8311773   -3.7299109    1949.7391   0.05889027  0.058442183            3 
 2760000   0.79749754    -3.723324    1952.1442  0.058941551   0.05843089            4 
 2761000   0.82183372   -3.7359761    1949.3262  0.058835151  0.058419623            5 
 2762000   0.81810476   -3.7338676    1946.7751  0.058736879  0.058408284            5 
 2763000   0.80664092   -3.7463912    1953.2027  0.058909478  0.058397136            9 
 2764000   0.82157905   -3.7148595    1955.8654  0.058968444  0.058385891            4 
 2765000    0.8119378   -3.7315632    1957.9768  0.059010752  0.058374649            4 
 2766000   0.81835551   -3.7300678    1949.0641    0.0587209  0.058363365            5 
 2767000   0.80728231   -3.7332579    1954.1008  0.058851367  0.058352034            6 
 2768000   0.80775064   -3.7217622    1958.8988  0.058974555  0.058340767            9 
 2769000   0.80658953   -3.7364336    1951.0823  0.058718019  0.058329477            3 
 2770000   0.80230816   -3.7265021    1953.6592  0.058774344  0.058318178            3 
 2771000   0.82568107   -3.7201891    1952.0227  0.058703918  0.058306938            6 
 2772000    0.8151776    -3.734392    1955.6993  0.058793268  0.058295847            3 
 2773000   0.79987932   -3.7104175    1953.4297  0.058703861  0.058284611            3 
 2774000    0.8170216   -3.7250234    1954.9148  0.058727313  0.058273465            6 
 2775000   0.81302344    -3.725169    1955.4156   0.05872119  0.058262089            3 
 2776000   0.80572194   -3.7298729    1954.0587  0.058659304  0.058251037            6 
 2777000   0.80203828   -3.7771779    1950.7726  0.058539569   0.05823977           12 
 2778000   0.81726527   -3.7109611     1964.626  0.058934064  0.058228624            3 
 2779000   0.79971148   -3.7193329    1958.9622   0.05874302  0.058217521            2 
 2780000   0.79889368   -3.7278537     1959.842  0.058748262  0.058206294            3 
 2781000   0.80364955   -3.7287865    1958.9837  0.058701416  0.058194992            2 
 2782000   0.80094403    -3.736592    1960.5728  0.058727917   0.05818375            3 
 2783000   0.81637298   -3.7258767    1960.8522  0.058715181  0.058172647            2 
 2784000   0.78524483   -3.7417884     1959.121  0.058642272  0.058161568            4 
 2785000   0.80516605   -3.7418922    1962.9984  0.058737235  0.058150373            2 
 2786000   0.82986487   -3.7387702    1957.2613  0.058544548  0.058139126            4 
 2787000   0.82186414   -3.7446763    1961.0857  0.058637894  0.058127872           10 
 2788000   0.81444441     -3.76377    1965.1241  0.058737568  0.058116735            8 
 2789000   0.81110808   -3.7314717    1965.1929  0.058718564  0.058105538            4 
 2790000   0.80246783   -3.7269733    1959.1946  0.058518356  0.058094299            4 
 2791000   0.77568383    -3.740811    1966.6681  0.058720533  0.058083169            6 
 2792000   0.80368404    -3.757166    1961.4004  0.058542276  0.058071933            9 
 2793000   0.78396304   -3.7338207    1965.6086  0.058646873  0.058060835            3 
 2794000   0.80962472   -3.7494825    1959.4823   0.05844316  0.058049715            6 
 2795000   0.79181457   -3.7302867    1966.8004   0.05864044  0.058038657            3 
 2796000   0.79913945   -3.7074539    1971.1251  0.058748363  0.058027634            3 
 2797000   0.78252069   -3.7372938    1968.8047  0.058658225  0.058016536            2 
 2798000   0.78869882   -3.7431003    1971.3281  0.058712416  0.058005545            3 
 2799000   0.79747992   -3.7351653    1970.8846  0.058678236  0.057994662            5 
 2800000   0.80020941    -3.741594     1967.037  0.058542769  0.057983617            4 
 2801000   0.80967783    -3.756042    1968.0064  0.058550709  0.057972523            9 
 2802000     0.794034   -3.7370937     1967.512  0.058515108  0.057961362            4 
 2803000   0.79985024   -3.7331478    1968.0914  0.058511458  0.057950343            9 
 2804000    0.8026826   -3.7292619    1970.5164   0.05856266   0.05793924            7 
 2805000   0.80211658     -3.73647    1978.2287  0.058770905  0.057928197            5 
 2806000   0.80751914   -3.7603501    1972.9015  0.058591754  0.057917313            7 
 2807000   0.80470423   -3.7456652    1969.6517  0.058474401  0.057906312            5 
 2808000   0.79196937   -3.7464736    1975.4925  0.058626915  0.057895454            5 
 2809000   0.78637114   -3.7512832    1969.5556  0.058429915   0.05788448           10 
 2810000    0.7945823   -3.7505177    1967.7472  0.058355492  0.057873545            5 
 2811000    0.8083205   -3.7233975    1970.6495  0.058420773  0.057862547            5 
 2812000   0.79068065   -3.7581657    1970.6757  0.058400774  0.057851361            4 
 2813000   0.79955998   -3.7394586    1973.5034  0.058463781  0.057840195            4 
 2814000   0.79832437   -3.7305783    1968.0567  0.058281708  0.057828855            4 
 2815000   0.78430522   -3.7377421    1974.1542   0.05844151  0.057817531            4 
 2816000   0.79663023   -3.7434054    1971.6075  0.058345393  0.057806349            4 
 2817000   0.81661547   -3.7464554    1970.6017  0.058294926  0.057795112            2 
 2818000   0.78288958   -3.7512139    1961.4192  0.058002698  0.057783912            4 
 2819000   0.81007244   -3.7391107    1973.4436  0.058337579  0.057772729            3 
 2820000    0.7869869   -3.7478046    1967.0619  0.058128308  0.057761614            4 
 2821000   0.79309194   -3.7519386     1973.925  0.058310438  0.057750472            5 
 2822000   0.79059712   -3.7442669    1978.8681  0.058435746  0.057739348            4 
 2823000   0.80171029   -3.7340923    1980.3552  0.058458946    0.0577282            3 
 2824000   0.78678583   -3.7324301    1979.7891  0.058421539  0.057717036            4 
 2825000   0.78926773   -3.7517414    1966.7733  0.058016912  0.057706032            4 
 2826000   0.79604693   -3.7298573    1975.0451  0.058240302  0.057694874            3 
 2827000   0.80237243   -3.7477121    1979.7528  0.058358472  0.057683843            3 
 2828000   0.79554098   -3.7611578    1971.8232  0.058104173  0.057672741            4 
 2829000   0.81118375   -3.7393944    1978.0941  0.058268356  0.057661577            3 
 2830000   0.78947522   -3.7443512    1979.0401   0.05827562  0.057650521            3 
 2831000   0.79783067   -3.7250341    1973.4664   0.05809097  0.057639433            4 
 2832000   0.81486997   -3.7634776    1973.1677  0.058061668  0.057628138           12 
 2833000   0.81002315   -3.7376668    1980.7242   0.05826345  0.057616938            3 
 2834000    0.7973593   -3.7292357    1975.5722  0.058091397  0.057605841            3 
 2835000   0.78972856   -3.7728349    1980.6037  0.058218804  0.057594721            4 
 2836000   0.78962849   -3.7532705    1966.1792  0.057774423  0.057583466            5 
 2837000   0.79920941   -3.7697599    1978.6723  0.058121028  0.057572351            4 
 2838000   0.78289614   -3.7870179    1980.1868  0.058145021  0.057561167            5 
 2839000   0.79110748   -3.7287309    1975.0645  0.057974185  0.057550089            2 
 2840000   0.80357213   -3.7542345    1982.6787  0.058177193  0.057539108            4 
 2841000   0.79036287       -3.741    1985.2318  0.058231601  0.057528008            5 
 2842000   0.79798435   -3.7680864    1978.6798  0.058018996  0.057516807            5 
 2843000    0.7794216   -3.7751095    1978.6903  0.057998895  0.057505621            5 
 2844000   0.79537845    -3.750514    1979.5176  0.058002743  0.057494394            6 
 2845000   0.80063691   -3.7610518    1980.1647   0.05800131  0.057483269            6 
 2846000   0.80196357    -3.743909    1983.6825  0.058083935  0.057472211            5 
 2847000   0.79771871   -3.7551233    1970.4872  0.057677299  0.057461104            7 
 2848000   0.80485171   -3.7510841    1977.0729  0.057849744  0.057449845            8 
 2849000   0.79188431   -3.7419365    1988.5136   0.05816408  0.057438771            3 
 2850000   0.80708573   -3.7526079    1978.4687  0.057849962  0.057427674            4 
 2851000   0.79276204   -3.7656813     1982.687   0.05795297  0.057416565            2 
 2852000   0.80488391   -3.7480596    1977.8449  0.057791168   0.05740534            5 
 2853000   0.81218574   -3.7781484    1982.7805  0.057915076  0.057394077            6 
 2854000   0.78627228    -3.750007    1983.5565  0.057917442  0.057382922            4 
 2855000   0.77144613   -3.7303008     1984.408  0.057922009  0.057371831            5 
 2856000   0.80298677    -3.745115    1990.2584  0.058072432  0.057360829           12 
 2857000   0.79511271   -3.7588568    1983.2585  0.057847932  0.057349723            5 
 2858000   0.80956083   -3.7542178    1987.9302  0.057963909    0.0573388            5 
 2859000   0.77833915   -3.7437034    1997.8347  0.058232327   0.05732781            4 
 2860000   0.80469292   -3.7588863    1989.2168  0.057960862  0.057316729            4 
 2861000   0.80214851   -3.7563331    1987.9487  0.057903666   0.05730567            6 
 2862000   0.79873277   -3.7332668    1987.7178  0.057876711  0.057294569            8 
 2863000   0.78449339   -3.7511843    1988.1453  0.057868941  0.057283606            3 
 2864000   0.81856879   -3.7449341    1983.1318  0.057702858   0.05727256            3 
 2865000   0.79019787   -3.7824043     1979.367  0.057573211  0.057261481            3 
 2866000   0.79331375   -3.7452569    1988.5592    0.0578204  0.057250345            5 
 2867000    0.7853461   -3.7594601    1990.4642  0.057855603  0.057239379            5 
 2868000    0.7970718   -3.7718541    1987.1234  0.057738359  0.057228472           10 
 2869000   0.81009679   -3.7503033    1991.4631  0.057844287  0.057217413            5 
 2870000    0.7899712   -3.7488282    1995.9417  0.057954174  0.057206446            4 
 2871000   0.79672289   -3.7775713     1986.175  0.057650498  0.057195437            3 
 2872000   0.79361896   -3.7556246    1991.1549   0.05777492  0.057184437            8 
 2873000   0.79479909   -3.7599567    1993.4197  0.057820503  0.057173374            3 
 2874000   0.80281293    -3.728078    1993.5195  0.057803281  0.057162482            3 
 2875000   0.78536837   -3.7466849    1990.2221  0.057687597  0.057151529            5 
 2876000   0.79176339   -3.7823415    1984.9442  0.057514609  0.057140553            4 
 2877000   0.79846313   -3.7659963    1994.1072  0.057760027  0.057129529            6 
 2878000   0.80017504   -3.7653495    1992.6663  0.057698236  0.057118413            6 
 2879000   0.78451026   -3.7523403    1993.3586  0.057698234  0.057107223            5 
 2880000   0.79328704   -3.7734062    1997.0098  0.057783848  0.057096188            4 
 2881000   0.78078023   -3.7537627    1995.4429  0.057718468  0.057085232            2 
 2882000   0.80697823   -3.7543919    1998.3354  0.057782079  0.057074328            3 
 2883000   0.78376791    -3.751908    2002.0744  0.057870112  0.057063486            4 
 2884000   0.79018193   -3.7615552    2000.1659    0.0577949  0.057052529            7 
 2885000   0.77922158   -3.7649445    1993.6203  0.057585798  0.057041626            3 
 2886000   0.79641121   -3.7785464    1990.5205  0.057476338  0.057030712            4 
 2887000    0.7870365   -3.7830262    2001.1271  0.057762589  0.057019787            6 
 2888000   0.80196717   -3.7466259     2003.117  0.057800007  0.057008927            6 
 2889000   0.79824661   -3.7439889    1993.4196  0.057500278  0.056998064            4 
 2890000   0.77737946   -3.7438663    1999.7924   0.05766414  0.056987165            2 
 2891000   0.78336205   -3.7521875    2002.0487  0.057709233  0.056976215            5 
 2892000   0.78996017   -3.7603268    1994.8813  0.057482749  0.056965337            9 
 2893000   0.79509181   -3.7555339    1993.4642  0.057422058  0.056954431            3 
 2894000   0.78711347   -3.7453298    2003.9454  0.057704025  0.056943449            4 
 2895000   0.77609654   -3.7793378    1998.8596  0.057537698  0.056932519            3 
 2896000    0.7830043   -3.7270033    1995.6923  0.057426688  0.056921546            7 
 2897000    0.7946937   -3.7694871    2002.4921  0.057602464  0.056910598            3 
 2898000   0.79012575    -3.759469    2004.2542   0.05763326  0.056899495            5 
 2899000   0.80465795   -3.7661039    1996.3429  0.057385964  0.056888551            6 
 2900000   0.77228895   -3.7579033    1999.7154  0.057463085  0.056877548            7 
 2901000    0.7936556    -3.766365    1993.4635  0.057263688   0.05686655            5 
 2902000   0.78209357    -3.755679    1999.7787  0.057425301  0.056855478            5 
 2903000   0.77626944   -3.7708735    1999.8084  0.057406373  0.056844429            3 
 2904000   0.78134598   -3.7722606    1999.3639   0.05737385  0.056833329            8 
 2905000    0.7683349   -3.7418441    2000.1241  0.057375906  0.056822307           11 
 2906000   0.77812908   -3.7535567    1995.3161  0.057218286  0.056811274            3 
 2907000   0.80067602   -3.7581418    2006.6353  0.057523085  0.056800311            5 
 2908000   0.78248043   -3.7426245    2002.1027  0.057373415  0.056789249            7 
 2909000   0.79329946   -3.7671626    2003.7089  0.057399705  0.056778091            4 
 2910000   0.79612356   -3.7520269    2002.7421  0.057352293  0.056767092            4 
 2911000   0.79848876   -3.7665341     1998.984  0.057225007   0.05675601            3 
 2912000   0.80081723   -3.7738867    2004.8447  0.057373074  0.056744954            4 
 2913000   0.79012544   -3.7592017    2005.1004  0.057360694  0.056733832            4 
 2914000   0.76459998     -3.76978    2006.3524  0.057376814  0.056722638            5 
 2915000   0.77937775   -3.7527339    2000.3776  0.057186324  0.056711392           10 
 2916000   0.77145031    -3.783756    2003.9577  0.057269024  0.056700013            4 
 2917000   0.79476472   -3.7412352    2005.3081  0.057287969  0.056688869            6 
 2918000   0.77754681   -3.7735193    2007.3165  0.057325693  0.056677784            3 
 2919000   0.77484151   -3.7665787    2004.3034  0.057220034   0.05666654            4 
 2920000   0.76592671   -3.7718869     2007.029  0.057278226  0.056655488            3 
 2921000   0.79446643   -3.7878542    2005.5258  0.057215732  0.056644361            4 
 2922000   0.79009949   -3.7700043    2000.9899  0.057066788  0.056633131            7 
 2923000   0.77906984   -3.7429165    2002.0285  0.057076876  0.056621873            4 
 2924000   0.79849596   -3.7631147    2007.0014  0.057199082  0.056610805            5 
 2925000   0.78984383    -3.744523    2006.1332  0.057154792  0.056599617            5 
 2926000   0.78120064   -3.7642265    2006.3215  0.057140622   0.05658848           10 
 2927000   0.79571155   -3.7715698    2004.4083  0.057066629  0.056577177            2 
 2928000   0.79017979   -3.7602076    2003.9583  0.057034332  0.056565952            8 
 2929000   0.78490533   -3.7854296     2009.563   0.05717432  0.056554771            5 
 2930000   0.78913055   -3.7655846    2004.0135  0.056996971  0.056543613            7 
 2931000   0.79546014    -3.791277    2006.0298  0.057034852  0.056532349            7 
 2932000   0.78890687   -3.7602057    2009.7194  0.057120265  0.056521186            3 
 2933000   0.80190151   -3.7888402    2003.7986  0.056932567  0.056509992            8 
 2934000   0.77955429   -3.7572013    2010.2717  0.057097014  0.056498872            4 
 2935000   0.79920232   -3.7931829    2007.7142  0.057004947  0.056487833            3 
 2936000   0.77073975    -3.778729    2004.2968  0.056888534  0.056476692            9 
 2937000   0.78903647   -3.7578232    2006.8704  0.056942187  0.056465492            5 
 2938000   0.77558584   -3.7650967    2006.3631  0.056908416  0.056454425            4 
 2939000    0.7687263   -3.7766208    2011.4192  0.057032415  0.056443454            7 
 2940000   0.78858773   -3.7865347     2009.818  0.056967631  0.056432364            3 
 2941000   0.79386694   -3.7839527    2012.9036   0.05703569  0.056421235            4 
 2942000   0.78351891   -3.7705575    2010.4758  0.056947535  0.056410225            6 
 2943000   0.80136616   -3.7575147    2013.9893  0.057027672  0.056399191            3 
 2944000   0.79277393   -3.7847526    2011.4717  0.056937038  0.056388167            2 
 2945000   0.75490852   -3.7711927     2008.304  0.056828069  0.056377098            5 
 2946000   0.76685222   -3.7701721    2017.5718  0.057070938  0.056366135            4 
 2947000   0.79183321    -3.786611    2016.1975  0.057012709  0.056355166            3 
 2948000   0.78570592   -3.7969073    2015.5223  0.056974285  0.056344143            4 
 2949000   0.78034093   -3.7591651    2024.4734  0.057207907  0.056333259            1 
 2950000   0.80627567   -3.7622952     2022.949  0.057145451  0.056322428            7 
 2951000   0.80046151   -3.7586859    2016.0434   0.05693108  0.056311456            5 
 2952000   0.77844482   -3.7601048    2013.8245  0.056849155  0.056300464            5 
 2953000   0.78738581   -3.7556146    2021.1237  0.057035888  0.056289517            6 
 2954000   0.78192748   -3.7616137    2017.5884  0.056916849  0.056278588            7 
 2955000   0.77521121   -3.7566518    2017.7511  0.056902174  0.056267662            4 
 2956000    0.7864663   -3.7878795    2020.0835  0.056948679  0.056256768            3 
 2957000   0.77407614   -3.7824075    2019.5794  0.056915214  0.056245901            5 
 2958000   0.78218257   -3.7760839    2017.0852  0.056825705  0.056235063           11 
 2959000   0.77043395   -3.7871628    2019.4003  0.056871698   0.05622414            6 
 2960000   0.78485017   -3.7929394    2015.5807  0.056744953  0.056213286            5 
 2961000   0.77504452   -3.7876268    2018.8592  0.056818056  0.056202306            6 
 2962000   0.77756447   -3.7727577    2020.0904  0.056833514  0.056191431            4 
 2963000    0.7726521   -3.7744134    2018.4505  0.056768211  0.056180539            4 
 2964000   0.78135204   -3.7761079     2020.487  0.056806314  0.056169558            7 
 2965000   0.79030742   -3.7839515    2020.1574  0.056777892  0.056158517            5 
 2966000   0.76929665   -3.7880275    2017.3771  0.056680632  0.056147472            6 
 2967000   0.77140932    -3.767347    2023.8332  0.056842859  0.056136521            5 
 2968000   0.77023049    -3.776936    2020.0139  0.056716473  0.056125508            4 
 2969000   0.77452902   -3.7948364    2018.0359  0.056641853  0.056114505            3 
 2970000   0.77075277   -3.7728342    2018.5628  0.056637565   0.05610343            8 
 2971000   0.78491087   -3.7651061     2020.777  0.056680607  0.056092397            3 
 2972000   0.78302937   -3.7802909    2016.1522  0.056531859  0.056081287            7 
 2973000   0.76550759   -3.8038731    2020.7135  0.056640696  0.056070303           10 
 2974000   0.77976691   -3.7745716    2024.8593  0.056737819  0.056059191            3 
 2975000   0.77981747   -3.7790591    2023.1425  0.056670659  0.056048131            6 
 2976000   0.77900982   -3.7898506    2016.7183  0.056471728  0.056037148            3 
 2977000   0.78710554    -3.770359    2019.9589   0.05654347  0.056026135            5 
 2978000   0.77029138   -3.7660108    2023.5946  0.056626219  0.056015049           12 
 2979000   0.76159865   -3.7843216    2019.4184  0.056490389  0.056003883            5 
 2980000   0.78190989   -3.7705615    2020.1371   0.05649153  0.055992765            4 
 2981000    0.7699503   -3.7941604    2016.1956  0.056362396  0.055981665           10 
 2982000   0.77637213   -3.7903237    2021.9244  0.056503587  0.055970422            2 
 2983000   0.78759154   -3.7726336    2015.3321  0.056300483  0.055959267            5 
 2984000   0.77622342   -3.7895918    2022.9184  0.056493476  0.055948111            3 
 2985000   0.77406404    -3.781389    2027.4618  0.056601391  0.055936938            4 
 2986000   0.76733741   -3.7951817    2019.9237  0.056372062  0.055925804            9 
 2987000   0.77545669   -3.7741195    2023.1812  0.056444068   0.05591465            6 
 2988000   0.77494493   -3.7677561    2027.7059   0.05655137  0.055903615            6 
 2989000   0.78428634   -3.7792151     2024.459  0.056441925  0.055892489            4 
 2990000    0.7696812   -3.8129078    2030.3288  0.056586644  0.055881498            7 
 2991000   0.77413069   -3.7579626    2027.2984  0.056483293  0.055870519            4 
 2992000   0.76107681   -3.7862036     2030.184  0.056544787  0.055859529            6 
 2993000   0.75727423   -3.7578099    2032.5725  0.056592396  0.055848597            5 
 2994000   0.77595504   -3.7947956    2024.4819  0.056348304  0.055837474            4 
 2995000   0.78112507   -3.7988229    2027.5203  0.056414031  0.055826315            4 
 2996000   0.78028122   -3.7987929    2021.4027  0.056225041  0.055815289            8 
 2997000   0.77078999   -3.7927942    2018.0594  0.056113319  0.055804305           10 
 2998000   0.75693969   -3.7897368    2029.2718  0.056406265  0.055793282            5 
 2999000   0.78899886   -3.7930516    2024.1707  0.056245714  0.055782329            6 
 3000000   0.76311223   -3.8141685     2025.879  0.056274417   0.05577128            5 
 3001000   0.78000507   -3.7777061    2029.9039  0.056367431  0.055760165            5 
 3002000   0.77270783   -3.7852676    2029.9616  0.056350256  0.055749151            5 
 3003000   0.76088624   -3.7951878    2036.5567  0.056514505  0.055738153            6 
 3004000   0.77312052    -3.795917    2029.1704  0.056290791  0.055727043            6 
 3005000   0.76922738   -3.8060976     2034.536  0.056420853  0.055716021            5 
 3006000   0.77287166   -3.7910491    2032.0344  0.056332733  0.055704939            4 
 3007000   0.75806164    -3.809663    2026.1605  0.056151216  0.055693759            4 
 3008000   0.77131145   -3.7880283    2032.1529  0.056298561  0.055682667            3 
 3009000   0.77723945   -3.7889964    2026.4285  0.056121317   0.05567164            5 
 3010000   0.75478979   -3.8011258    2027.1559  0.056122809  0.055660619            8 
 3011000   0.78947793   -3.8066789    2026.9134  0.056097461  0.055649471            5 
 3012000   0.74730616   -3.7891034    2027.7729  0.056102615  0.055638229            6 
 3013000   0.75931183   -3.8127658    2026.5294  0.056049603  0.055626964            5 
 3014000   0.75126997   -3.8030754    2032.1775  0.056187168  0.055615744            3 
 3015000   0.77203494    -3.783539    2032.1181  0.056166891  0.055604661            4 
 3016000    0.7553497   -3.7909951    2027.7509  0.056027601  0.055593592            6 
 3017000   0.79391633   -3.7929178    2026.6081  0.055977465  0.055582556            2 
 3018000   0.76592918   -3.8102298    2032.2067  0.056113505   0.05557142            3 
 3019000   0.76637501   -3.7974753    2029.4144  0.056017843   0.05556024            8 
 3020000   0.74726051   -3.7792863    2034.1661   0.05613041  0.055549134            5 
 3021000    0.7608887   -3.7819237    2032.3735  0.056062382  0.055538051            6 
 3022000   0.75455235   -3.7788078    2032.6697     0.056052  0.055527087            4 
 3023000   0.77239522   -3.7982586    2035.6432  0.056115427  0.055516144            7 
 3024000   0.75251888   -3.8017373    2031.5274   0.05598345  0.055505113            7 
 3025000   0.76550875   -3.7915804    2031.2258  0.055956632  0.055493978            8 
 3026000   0.76649199    -3.803119    2029.7081  0.055896346  0.055482887            3 
 3027000   0.76215364   -3.7954611    2034.1856  0.056001146  0.055471863           16 
 3028000   0.78062728   -3.8117259    2029.1419  0.055843844  0.055460723            2 
 3029000   0.77406656   -3.7874404    2035.2301  0.055992905  0.055449613            4 
 3030000   0.77525772   -3.8193088    2035.7149  0.055987759  0.055438506            4 
 3031000    0.7535525   -3.7937546    2033.1497   0.05589876  0.055427303            2 
 3032000   0.75908709   -3.7934619     2039.566  0.056056673  0.055416259            3 
 3033000   0.76436156   -3.7949066     2041.135  0.056081301  0.055405368            5 
 3034000   0.75866341   -3.8151538    2040.6501  0.056049498  0.055394279           10 
 3035000   0.77645843   -3.8059641    2035.8064  0.055898033  0.055383299            7 
 3036000    0.7647863   -3.7928254     2039.248  0.055974088  0.055372322            7 
 3037000   0.76157007   -3.8121313    2037.1513  0.055898126  0.055361418            6 
 3038000   0.75846839   -3.7954786    2043.0652  0.056041946  0.055350415            4 
 3039000   0.78628987   -3.8221995    2038.4044  0.055895701  0.055339443            3 
 3040000   0.75605508   -3.8080634    2037.7145  0.055858403  0.055328445            4 
 3041000   0.75873334   -3.7874409    2029.9255  0.055626588  0.055317422            5 
 3042000   0.75772434   -3.7952133    2047.0916  0.056078556  0.055306329            5 
 3043000    0.7656626    -3.812295    2036.5499   0.05577144  0.055295281            4 
 3044000   0.76696343   -3.7944976    2041.4918  0.055888408  0.055284294            4 
 3045000   0.75922229   -3.7970273    2039.4742  0.055814839   0.05527332            7 
 3046000   0.78780928   -3.7935104    2037.5967   0.05574515  0.055262366            4 
 3047000   0.75918997   -3.8262476    2035.2613  0.055662982  0.055251348            8 
 3048000   0.74321213   -3.8066994     2036.919  0.055690043  0.055240251            5 
 3049000    0.7688546   -3.8237297    2043.0843  0.055840285  0.055229159            5 
 3050000   0.76074056   -3.8155726    2044.5792  0.055862819  0.055218175            5 
 3051000   0.75226454   -3.8277529    2041.1702  0.055751398  0.055207213           11 
 3052000   0.76164951   -3.8060063    2042.0229  0.055756415  0.055196153            3 
 3053000   0.76786054   -3.8013876    2039.0662  0.055657447  0.055185056            6 
 3054000   0.75296042    -3.821208    2045.3347  0.055810269  0.055173911            5 
 3055000   0.76480349    -3.815487    2046.1179  0.055813364  0.055162811           12 
 3056000   0.76793662    -3.798065    2042.3928   0.05569352  0.055151722            4 
 3057000   0.75910872   -3.7748542    2045.2835  0.055754104  0.055140641            5 
 3058000   0.76380604   -3.8130041    2043.8417  0.055696581  0.055129622            5 
 3059000   0.74626026   -3.8077146     2040.212  0.055579491  0.055118583            5 
 3060000   0.76718027   -3.8014096    2049.7018  0.055819765  0.055107398            7 
 3061000   0.77695342   -3.8216442    2045.3862  0.055684041  0.055096464            9 
 3062000   0.76479495   -3.8438485    2039.8141   0.05551421  0.055085306            8 
 3063000   0.76457604   -3.8074986    2045.5294  0.055651577  0.055074301            5 
 3064000   0.75773404   -3.7861433     2051.294  0.055790197  0.055063376           10 
 3065000    0.7595447   -3.7964567    2048.3903  0.055693048  0.055052385           11 
 3066000   0.74178508   -3.7967902    2050.0715  0.055720579  0.055041391            5 
 3067000   0.74977623   -3.8000318    2042.5636  0.055498413  0.055030341           12 
 3068000   0.76279197   -3.8092658    2051.1517  0.055713595  0.055019378            5 
 3069000   0.76450612   -3.8031749    2046.7246   0.05557523  0.055008323            4 
 3070000   0.76400229   -3.8393461    2047.6333  0.055581795  0.054997256            6 
 3071000   0.75818303   -3.8257575    2052.4194  0.055693568  0.054986282            7 
 3072000   0.76122766   -3.8175628    2050.4273  0.055621401  0.054975295            4 
 3073000   0.75327179   -3.8178353     2053.237  0.055679493  0.054964353            6 
 3074000     0.754097   -3.8183349     2051.764  0.055621448  0.054953426            6 
 3075000   0.75155389   -3.8027361    2051.1448   0.05558658  0.054942644            5 
 3076000   0.76889204   -3.8060549    2048.3504  0.055492804  0.054931672            8 
 3077000   0.75966024   -3.8206073    2056.6974  0.055700829  0.054920784            8 
 3078000    0.7548889   -3.8411682    2047.2564  0.055427127  0.054909814            6 
 3079000   0.76213099   -3.8165043    2058.4779  0.055712838  0.054898974            7 
 3080000   0.74918163   -3.8093579    2052.9316  0.055544686  0.054888076            4 
 3081000   0.74073467   -3.8144079    2058.1163  0.055666892  0.054877213           12 
 3082000   0.75664097   -3.7829474    2057.0238  0.055619288  0.054866359            7 
 3083000   0.78846956   -3.8232679    2054.2532   0.05552636  0.054855508            4 
 3084000   0.76522986   -3.8071024    2053.5681  0.055489842  0.054844704            7 
 3085000   0.74821946   -3.8162302    2054.1642  0.055487958  0.054833875            6 
 3086000   0.75498618   -3.8056606    2056.0924  0.055522046  0.054823062            3 
 3087000    0.7584772   -3.8217499    2050.0666  0.055341394    0.0548121            4 
 3088000   0.74754827    -3.811166    2053.5314  0.055416973  0.054801241           13 
 3089000   0.74954632   -3.8332438    2055.3924  0.055449239  0.054790372            4 
 3090000   0.77515417   -3.8043573    2060.3717  0.055565579  0.054779633            5 
 3091000   0.75445329   -3.7950688    2056.5448   0.05544443  0.054768901            5 
 3092000   0.76760689   -3.8587455    2058.8487  0.055488591  0.054757981            4 
 3093000   0.76825247   -3.8102594    2058.0106   0.05544807  0.054747129            4 
 3094000   0.76893178   -3.8016603    2058.4695  0.055442509  0.054736303            4 
 3095000   0.75695855    -3.812287    2054.8591  0.055327386  0.054725421            3 
 3096000   0.76873753    -3.805834    2053.1051  0.055262304  0.054714628            4 
 3097000   0.75392895   -3.8012925    2061.9129  0.055481458  0.054703813            5 
 3098000   0.74636517   -3.8322981    2059.0435  0.055386365   0.05469288            4 
 3099000   0.75846327    -3.818622    2058.3801  0.055350655  0.054681865            5 
 3100000   0.74187114   -3.7973809    2057.7561  0.055316023   0.05467107            9 
 3101000   0.75190286   -3.8129327    2061.6326   0.05540236  0.054660167            3 
 3102000   0.76668526   -3.8113604    2054.3652  0.055189266  0.054649207            5 
 3103000   0.76775447    -3.808794    2057.5314  0.055256509  0.054638206            8 
 3104000   0.74943477   -3.8092452    2061.7392  0.055351676  0.054627208            4 
 3105000   0.76190163   -3.8094875    2059.1918   0.05526548  0.054616372            6 
 3106000   0.75972886   -3.8056267    2054.1301  0.055111883  0.054605495            4 
 3107000   0.76262615   -3.8108256    2059.7191  0.055244048  0.054594549            4 
 3108000   0.76935693    -3.816746    2056.7993  0.055147986  0.054583664            3 
 3109000   0.76025777    -3.822043    2055.9391  0.055107191  0.054572972            3 
 3110000    0.7691659   -3.8127796    2057.3006  0.055125955  0.054562055            6 
 3111000   0.75262868   -3.7890984    2064.8359  0.055310079  0.054551269            9 
 3112000   0.76380517   -3.8115414    2059.1371  0.055139704  0.054540486           11 
 3113000   0.76153338   -3.8113653    2064.3393  0.055261251   0.05452974            6 
 3114000   0.73917501   -3.8055566    2062.8449  0.055203513  0.054518956            3 
 3115000   0.73462524   -3.8229894    2062.1749  0.055167868  0.054508172            3 
 3116000    0.7444139   -3.8508409    2056.0388  0.054986061   0.05449725            4 
 3117000   0.77497511   -3.8369932    2058.7481  0.055040854  0.054486346            5 
 3118000   0.75313304   -3.8055345    2066.1345  0.055220615  0.054475581            7 
 3119000    0.7586873   -3.8242144    2067.9014  0.055250117  0.054464811           11 
 3120000   0.75084921   -3.8430589    2060.6063  0.055037562  0.054454004            9 
 3121000   0.75310177   -3.8086082    2062.0024  0.055057205  0.054443203            5 
 3122000    0.7414422    -3.824347    2066.0582  0.055147826  0.054432375            4 
 3123000   0.76409555   -3.8163675    2065.4818  0.055114789  0.054421463            4 
 3124000   0.73742001   -3.8281851    2067.8628   0.05516066  0.054410516            3 
 3125000   0.75031081   -3.8168406    2060.4509  0.054945358  0.054399546            4 
 3126000   0.75609608   -3.8163541    2063.5313  0.055009897   0.05438859            3 
 3127000   0.74302716   -3.8159176    2068.3335  0.055120284  0.054377633            7 
 3128000   0.73653289   -3.8297433    2067.2884   0.05507482  0.054366735            8 
 3129000   0.73939688   -3.8120929    2060.4341  0.054874669  0.054355849            3 
 3130000    0.7474615   -3.8330082    2068.2119  0.055064215  0.054344989            5 
 3131000   0.75704348   -3.8242194    2067.2794  0.055021808  0.054334076            5 
 3132000    0.7533937   -3.8073313    2060.4043  0.054821314  0.054323098            6 
 3133000   0.74766673   -3.8318218     2062.414  0.054857273  0.054312121            7 
 3134000   0.75754349   -3.8150789    2065.5773  0.054923881  0.054301131            7 
 3135000   0.76067622   -3.8198519    2061.6346  0.054801559  0.054290175            7 
 3136000   0.75939093   -3.8063884    2066.0355   0.05490103  0.054279236            5 
 3137000   0.74222441   -3.8218913    2068.2555  0.054942501  0.054268393            4 
 3138000   0.74055254   -3.8279115    2061.6203  0.054748787  0.054257431            8 
 3139000   0.74017909   -3.8281564    2068.4631  0.054913007   0.05424649            3 
 3140000   0.75093557   -3.8328776    2063.8356  0.054772707  0.054235509            4 
 3141000   0.72385899   -3.8362837    2069.5395  0.054906599  0.054224494            4 
 3142000   0.73504664   -3.8206225    2068.1774  0.054852997  0.054213602            4 
 3143000   0.76614275   -3.8387326    2066.4564  0.054789914  0.054202654            3 
 3144000   0.75491089    -3.817636    2060.5282  0.054615358  0.054191625            3 
 3145000   0.73391444   -3.8190924     2062.963  0.054662507  0.054180657            6 
 3146000   0.74623194   -3.8442039    2069.7682  0.054825392  0.054169586            8 
 3147000   0.73867566    -3.809823    2073.4568  0.054905645  0.054158524            3 
 3148000   0.74252443   -3.8025692    2068.4993  0.054756969   0.05414762            8 
 3149000   0.76305162    -3.842927    2065.4379  0.054658566  0.054136585            8 
 3150000   0.74773395   -3.8294062     2071.637  0.054805211  0.054125594            5 
 3151000   0.74548072    -3.812244    2068.6344  0.054708411  0.054114653            9 
 3152000   0.75278124   -3.8341385    2066.1582  0.054625586  0.054103697            7 
 3153000   0.74223058   -3.8273594    2067.1294   0.05463393  0.054092758            3 
 3154000   0.76460365   -3.8194374    2072.7748  0.054765767  0.054081797            5 
 3155000   0.73998728   -3.8236525    2070.6693  0.054692797  0.054070884            4 
 3156000   0.75302796   -3.8122938    2068.2156  0.054610677   0.05405995            4 
 3157000   0.74082306   -3.8335672    2066.5433  0.054549238  0.054049005            7 
 3158000   0.73942376   -3.8478021     2071.561  0.054664371  0.054038041            5 
 3159000   0.73957071   -3.8439735    2064.2174  0.054453345  0.054027027            5 
 3160000   0.72870979   -3.8325635    2065.6436  0.054473724  0.054015981            9 
 3161000   0.74664573   -3.8213249    2071.3347  0.054606524  0.054005054            4 
 3162000   0.74604469   -3.8462831    2073.3533  0.054642454  0.053994002            5 
 3163000   0.74939595    -3.838928    2068.7057  0.054502733   0.05398296            4 
 3164000   0.75086356   -3.8258103    2071.4531  0.054557867  0.053972058            4 
 3165000   0.74591029   -3.8420962    2070.8572   0.05452494  0.053961087           11 
 3166000   0.77097749   -3.8393157    2071.1529  0.054515502  0.053950097            5 
 3167000   0.75074019   -3.8387136    2075.1702  0.054603995  0.053939142            4 
 3168000   0.73927759   -3.8556613    2070.9068  0.054474611  0.053928172            6 
 3169000   0.73354564   -3.8263174    2069.7996  0.054428306  0.053917205            5 
 3170000    0.7366244   -3.8303576    2078.9406  0.054651436  0.053906257            3 
 3171000   0.74221034   -3.8308623    2072.4276  0.054463041  0.053895396            5 
 3172000   0.73822859   -3.8419454    2066.3963   0.05428742  0.053884434           14 
 3173000   0.72374677   -3.8339146    2072.3564   0.05442684  0.053873409            6 
 3174000   0.74315138    -3.826443    2068.6593  0.054312627  0.053862436           13 
 3175000   0.73528558    -3.838562    2073.0885  0.054411772  0.053851402            5 
 3176000   0.74249743   -3.8411661    2068.4732  0.054273542  0.053840338            8 
 3177000   0.74294129    -3.838175    2078.1436  0.054510114  0.053829441            4 
 3178000   0.73801501    -3.842283    2071.9683  0.054331033  0.053818553            2 
 3179000   0.74135852   -3.8442393    2077.4849  0.054458553  0.053807636            9 
 3180000   0.74086141   -3.8849336    2067.7972  0.054187558  0.053796676            5 
 3181000   0.75415096   -3.8205061    2073.3849  0.054316905  0.053785712            3 
 3182000   0.72854486   -3.8548787    2071.4247  0.054248499  0.053774724            4 
 3183000   0.74279647   -3.8480211    2078.4397  0.054415115  0.053763775            2 
 3184000   0.75738617   -3.8292122     2075.503  0.054321164  0.053752899            2 
 3185000   0.72741724   -3.8472987    2070.8236  0.054181675  0.053741946            5 
 3186000   0.73644843   -3.8108482    2078.2598   0.05435917  0.053730897            5 
 3187000   0.73755371   -3.8429822    2073.4198  0.054215559  0.053719787            4 
 3188000   0.73391591   -3.8502296    2064.1264  0.053955625  0.053708703            4 
 3189000   0.75469777   -3.8284131    2075.2565  0.054229552  0.053697615            7 
 3190000   0.74510622   -3.8451974    2077.6403  0.054274824  0.053686661            4 
 3191000   0.75477425   -3.8616728     2079.491  0.054306146  0.053675696            3 
 3192000   0.73277455   -3.8600475    2075.0362  0.054172833  0.053664565           11 
 3193000   0.74593175   -3.8401729    2079.9445  0.054283967  0.053653559            8 
 3194000   0.74007705   -3.8506221    2080.8779  0.054291326  0.053642507            6 
 3195000   0.73892218   -3.8218682    2082.7242  0.054322489  0.053631456            5 
 3196000   0.74499956   -3.8400872    2080.1743  0.054239003  0.053620535            4 
 3197000   0.75476967   -3.8327183    2070.4947  0.053969729  0.053609467            7 
 3198000   0.74939739   -3.8255133    2079.3531  0.054183685  0.053598431            6 
 3199000   0.73402108   -3.8351879    2077.8897  0.054128625  0.053587398            8 
 3200000   0.74536628   -3.8464275    2078.5028  0.054127678   0.05357635            4 
 3201000   0.74778914   -3.8630936    2081.7759  0.054195977  0.053565299            5 
 3202000   0.73409441   -3.8609982    2081.6772  0.054176482  0.053554238            6 
 3203000   0.74320158   -3.8202166    2081.4403  0.054153405  0.053543289           10 
 3204000   0.74394288   -3.8454302     2080.484  0.054111632  0.053532332            4 
 3205000   0.74371638   -3.8504373    2079.5457   0.05407035  0.053521316            2 
 3206000   0.73636442   -3.8567968    2077.9104   0.05401098  0.053510438            4 
 3207000   0.73250199   -3.8372219    2080.5499  0.054062725  0.053499497            4 
 3208000   0.75433679   -3.8438415    2074.2763  0.053882905  0.053488529            7 
 3209000   0.74493364    -3.820434    2082.9078  0.054090262  0.053477663            2 
 3210000   0.74210272   -3.8626787    2081.6036  0.054039554  0.053466741            7 
 3211000    0.7329892   -3.8420978    2080.8418  0.054002952  0.053455735            6 
 3212000   0.74395463   -3.8206366    2077.4228  0.053897437  0.053444711            7 
 3213000   0.72492056   -3.8475468    2077.3482  0.053878728  0.053433609            6 
 3214000   0.74108277   -3.8463166    2075.5475  0.053815275  0.053422593            5 
 3215000   0.73298611   -3.8469884    2081.0214   0.05394042  0.053411526            3 
 3216000   0.71405942   -3.8411276    2077.3425  0.053828319  0.053400498            4 
 3217000   0.72712106      -3.8192    2082.6593  0.053949314  0.053389479            4 
 3218000   0.73784262   -3.8212341    2091.0378  0.054149517  0.053378427            4 
 3219000    0.7398198   -3.8333836    2084.6632  0.053967671  0.053367396            3 
 3220000   0.74100562   -3.8801634    2079.4368  0.053815653  0.053356374            4 
 3221000   0.73698031   -3.8541195     2075.873  0.053706742  0.053345422            5 
 3222000   0.74364204   -3.8719745    2079.7729   0.05379094   0.05333446            7 
 3223000   0.74306161    -3.833744     2088.379  0.053996769  0.053323437            4 
 3224000   0.73760868   -3.8577919     2086.827  0.053939903  0.053312498            5 
 3225000   0.72923417   -3.8584239    2088.9804  0.053978823  0.053301592            7 
 3226000   0.74552551   -3.8575505    2086.0326  0.053885942  0.053290699            6 
 3227000    0.7367997   -3.8708276    2083.3151  0.053799067  0.053279782            5 
 3228000   0.74151742   -3.8841463    2078.1438  0.053648901  0.053268783            4 
 3229000    0.7381082   -3.8517123    2082.4101  0.053742389  0.053257766            4 
 3230000   0.73097837   -3.8585045    2081.2758  0.053696486  0.053246797            3 
 3231000   0.75250829   -3.8548086    2092.1553   0.05396047  0.053235773            5 
 3232000   0.75155774       -3.869     2087.603  0.053826397  0.053224833            2 
 3233000   0.72254121   -3.8396635    2085.3236  0.053750995  0.053213782            3 
 3234000   0.74552681   -3.8652392    2088.6401  0.053819834  0.053202831            5 
 3235000   0.74274202   -3.8400623    2094.9036  0.053964544  0.053191776            9 
 3236000   0.74031011    -3.840404    2081.8092  0.053610661  0.053180904            7 
 3237000   0.74787123   -3.8612123    2085.1161  0.053679231  0.053169926            5 
 3238000   0.73872232   -3.8782768    2081.2279  0.053562587  0.053158854            6 
 3239000   0.73857458   -3.8498324    2087.9332  0.053718564  0.053147877            7 
 3240000   0.72950009    -3.859804    2089.9963  0.053755049  0.053136866            4 
 3241000    0.7453794   -3.8463113    2083.4246  0.053569489  0.053125901            4 
 3242000   0.75295001     -3.87648    2088.1061  0.053673301  0.053114918            5 
 3243000   0.73182994   -3.8406275    2087.6949  0.053646185  0.053104079            5 
 3244000   0.73224628   -3.8469371    2084.0387  0.053535726  0.053093069            4 
 3245000   0.72241806   -3.8536827    2084.0591  0.053519751  0.053082071            5 
 3246000   0.72551331   -3.8521017    2091.2695  0.053688372  0.053071062            4 
 3247000   0.72080434   -3.8493101    2092.0132  0.053690926  0.053060152            9 
 3248000    0.7680439   -3.8546296    2088.5195  0.053584757  0.053049232            9 
 3249000   0.73931708   -3.8541064    2092.9017  0.053680663  0.053038266           10 
 3250000    0.7402253   -3.8543035    2092.8071  0.053661719  0.053027388            5 
 3251000   0.74056595   -3.8471609    2091.7179  0.053617295   0.05301646            8 
 3252000   0.73212549   -3.8645665    2099.6663  0.053804487  0.053005512            4 
 3253000   0.72881796    -3.876851    2095.1548  0.053672373  0.052994584            3 
 3254000   0.72752691   -3.8607039    2091.3415  0.053558222   0.05298364            4 
 3255000   0.73543285   -3.8508371    2096.8752  0.053683442  0.052972887            6 
 3256000   0.71157384   -3.8661591    2097.7275  0.053688766   0.05296203            5 
 3257000   0.73285363   -3.8504165    2098.7507  0.053698461  0.052951188            3 
 3258000   0.72958313   -3.8852605    2090.2331  0.053464117  0.052940319            7 
 3259000   0.74220477   -3.8484059     2097.967  0.053645469  0.052929504            3 
 3260000    0.7341745   -3.8351995    2097.3721  0.053613806   0.05291875            4 
 3261000   0.74974939   -3.8385795    2092.1039   0.05346274  0.052907965            8 
 3262000   0.73301965   -3.8649951    2094.4653  0.053506677  0.052897195            6 
 3263000   0.73002214      -3.8637    2090.4703  0.053388249  0.052886279            7 
 3264000   0.72316118   -3.8516613    2089.0655  0.053336028    0.0528754           10 
 3265000    0.7208153    -3.870783    2087.8142  0.053287753  0.052864483            4 
 3266000   0.72100707   -3.8172512    2097.1279  0.053509082  0.052853549            4 
 3267000    0.7250775   -3.8542101    2096.4234  0.053474732  0.052842662           17 
 3268000   0.71623361   -3.8469256     2099.639  0.053540366  0.052831805            5 
 3269000   0.74135612   -3.8710934     2091.264  0.053310492  0.052820957            5 
 3270000   0.73780344   -3.8641156    2095.5515  0.053403452  0.052810037            5 
 3271000   0.72426975   -3.8572376    2096.6625  0.053415431  0.052799207            6 
 3272000   0.73520534   -3.8765346    2099.0804  0.053460687  0.052788358            3 
 3273000   0.72587266   -3.8469021    2096.7327  0.053384578  0.052777459            6 
 3274000   0.73198516   -3.8570217    2103.1224   0.05353091  0.052766596            8 
 3275000   0.72639264   -3.8694704    2098.3389  0.053392848  0.052755864            9 
 3276000   0.71640806   -3.8692485     2096.896  0.053339844  0.052745067            6 
 3277000   0.72383878   -3.8498458    2100.7509  0.053421598  0.052734174            5 
 3278000   0.70787651   -3.8653313     2096.531  0.053298022  0.052723352            9 
 3279000   0.72360893   -3.8549616    2094.1004  0.053219996  0.052712604           10 
 3280000   0.73260051   -3.8546009    2094.8633  0.053223152  0.052701765            5 
 3281000   0.73694486   -3.8606449     2103.011  0.053413872  0.052690928            4 
 3282000   0.71007465   -3.8914745    2099.4671  0.053307614  0.052680253            5 
 3283000   0.72328887   -3.8885181    2102.1786  0.053360203  0.052669323            4 
 3284000   0.73089563   -3.8633403    2102.0472   0.05334062  0.052658398            6 
 3285000   0.72680721   -3.8620913    2095.9061  0.053168598  0.052647568           10 
 3286000   0.72140179    -3.858571    2099.2208  0.053236477  0.052636803            4 
 3287000   0.72311313   -3.8601535    2099.6491  0.053231139  0.052625988            3 
 3288000    0.7340687   -3.8632491    2098.8318  0.053194237  0.052615105            4 
 3289000   0.71283726   -3.8740008    2099.0169  0.053182752  0.052604226            6 
 3290000   0.72437537   -3.8681588    2101.7019  0.053234597   0.05259338            7 
 3291000   0.71339968   -3.8647485    2096.4351  0.053085058  0.052582617            3 
 3292000   0.72353911   -3.8813588    2102.1381  0.053213297  0.052571853            7 
 3293000   0.73093115   -3.8460841     2104.042  0.053245317  0.052560993            5 
 3294000   0.73252512   -3.8681245    2100.6531  0.053143419  0.052550183            7 
 3295000   0.72983236   -3.8512131    2108.0365  0.053314024  0.052539339            7 
 3296000    0.7148486   -3.8658941    2101.4161  0.053130464  0.052528483            7 
 3297000   0.70748106   -3.8788601    2099.2719  0.053060154  0.052517621            4 
 3298000   0.70950985   -3.8909998    2101.5292  0.053101101  0.052506761           10 
 3299000   0.72187023   -3.8992019    2096.2333  0.052951231   0.05249582            7 
 3300000   0.71063816   -3.8714263    2103.8648  0.053127899   0.05248498            5 
 3301000   0.75597282   -3.8795823    2105.9945   0.05316557  0.052474198           12 
 3302000   0.71885768    -3.892778    2099.2951  0.052980394  0.052463339            6 
 3303000   0.73484711   -3.8608107     2099.474  0.052968868  0.052452457            3 
 3304000   0.71404621   -3.8394351    2100.4014  0.052976225  0.052441647            3 
 3305000   0.71373691   -3.8755274    2098.3745  0.052909089  0.052430814            4 
 3306000   0.73061224   -3.8860577     2102.288  0.052991733  0.052419969            7 
 3307000   0.73592255   -3.8918567    2103.4288  0.053004456  0.052409165            5 
 3308000   0.72316656    -3.877454    2108.6961  0.053121124  0.052398392            5 
 3309000    0.7053044   -3.9005494     2107.231  0.053068173  0.052387656            6 
 3310000   0.73403418   -3.8787514     2108.244  0.053077644   0.05237692            8 
 3311000   0.73176835   -3.8732356    2104.8565  0.052976354  0.052366192            4 
 3312000   0.72848707   -3.8794369    2103.4914  0.052926012  0.052355408           11 
 3313000   0.74159333   -3.8522831    2106.0794  0.052975134  0.052344569            8 
 3314000    0.7358572   -3.8831717    2108.4432  0.053018587  0.052333887            6 
 3315000   0.71337226   -3.9007034    2110.5556  0.053055695  0.052323141            4 
 3316000   0.73352188   -3.8760932    2108.4662  0.052987188  0.052312338            7 
 3317000   0.72638175   -3.8909671    2108.1724  0.052963833   0.05230163            3 
 3318000    0.7195485   -3.8774501    2103.3846  0.052827623  0.052290909            4 
 3319000   0.72354848     -3.86026    2112.4779  0.053040019  0.052280208            4 
 3320000   0.72552868   -3.8956494    2113.3183  0.053045138  0.052269481            4 
 3321000   0.72291931   -3.8479445    2109.4539  0.052932197  0.052258766            5 
 3322000   0.71771137   -3.8723993    2108.5352  0.052893216  0.052248176            3 
 3323000   0.73874579   -3.8735968    2110.1556  0.052917935  0.052237412           11 
 3324000   0.71811711    -3.876348    2115.3466  0.053032155  0.052226869            7 
 3325000   0.72572872   -3.8925065    2115.6161   0.05302296  0.052216144            6 
 3326000   0.72794438   -3.8623605    2119.1824  0.053096371  0.052205544            5 
 3327000   0.72075017   -3.8841804    2112.9037  0.052923146  0.052194806            4 
 3328000     0.719134   -3.8666411    2112.6415  0.052900679  0.052184144           10 
 3329000   0.70481206   -3.8657109    2110.2643   0.05282528  0.052173525            4 
 3330000   0.72478279   -3.8712356    2110.2727  0.052809626  0.052162756            3 
 3331000   0.70894103    -3.869644    2111.4887  0.052824194  0.052152114            9 
 3332000   0.72414241   -3.8743571    2115.0045  0.052896271  0.052141447            3 
 3333000   0.72062965   -3.8988213    2112.9931  0.052830109  0.052130814            6 
 3334000   0.71186105   -3.8728018    2115.4676  0.052876116  0.052120081            3 
 3335000   0.72051752    -3.881129     2110.242  0.052729685   0.05210947            5 
 3336000   0.72473362   -3.8775754    2121.0609  0.052984134  0.052098884            6 
 3337000   0.70175767   -3.8874854    2104.1389  0.052545671   0.05208811            4 
 3338000   0.72116184   -3.8750302    2114.7914  0.052795871  0.052077439            7 
 3339000   0.71570478   -3.8809002    2116.5671  0.052824376  0.052066914            5 
 3340000   0.70710597   -3.9021209    2120.9525  0.052917977  0.052056276            4 
 3341000   0.72708148   -3.8841403    2110.8129   0.05264923  0.052045571            6 
 3342000   0.72087545   -3.8823676    2110.3063  0.052620844  0.052034847            6 
 3343000   0.71872304   -3.8609605    2116.7198  0.052764977  0.052024139            2 
 3344000   0.71206387   -3.8838197    2115.1358  0.052709723  0.052013366            5 
 3345000   0.71382744     -3.87166    2120.6638  0.052831684   0.05200269            5 
 3346000   0.72104845   -3.8906443    2107.0523  0.052476896  0.051991874            6 
 3347000   0.71709122   -3.8443892    2116.3118  0.052691758   0.05198111            4 
 3348000    0.6989411    -3.877665    2113.1978  0.052598513  0.051970401            3 
 3349000   0.69972244   -3.8882955    2114.6581  0.052619143   0.05195965            3 
 3350000   0.71362553   -3.8828378    2120.1931  0.052741122  0.051948816           14 
 3351000   0.71043467   -3.8875605    2115.1968  0.052601134  0.051938081            6 
 3352000   0.71392999   -3.8933715    2115.9308  0.052603689  0.051927286            8 
 3353000   0.71016713   -3.8811751    2112.8976  0.052512616  0.051916497            3 
 3354000   0.70845691   -3.9086433    2113.2718  0.052506256  0.051905631            4 
 3355000   0.71600293   -3.8748077    2118.4428  0.052619047  0.051894896            5 
 3356000   0.70441389   -3.8842645    2112.8363  0.052464151  0.051884124            7 
 3357000   0.72394617   -3.8756371    2115.1277  0.052505403  0.051873393            4 
 3358000   0.70559538   -3.9069883    2114.4832  0.052473774  0.051862549            3 
 3359000   0.72028715   -3.8825886    2115.3699  0.052480151  0.051851714           10 
 3360000   0.71396869   -3.8807876    2118.6573  0.052546063  0.051840941            7 
 3361000   0.70884067   -3.9126751    2117.0945  0.052491681  0.051830211            6 
 3362000   0.72208779   -3.8879526    2121.3383  0.052581259   0.05181952           12 
 3363000   0.71682874   -3.9018169    2115.6913  0.052425693  0.051808711            4 
 3364000   0.72492806   -3.8887315    2118.6423  0.052483211  0.051797908           25 
 3365000   0.71529932    -3.906136    2113.4784  0.052339733  0.051787223            9 
 3366000   0.71086892   -3.8870295    2116.4259  0.052397155  0.051776398            2 
 3367000   0.70418089   -3.8970463    2120.3299  0.052478219  0.051765614            7 
 3368000   0.71516809   -3.9066986    2118.3487  0.052413616  0.051754818            5 
 3369000   0.70466276   -3.8796284    2121.3589  0.052472517  0.051744153            5 
 3370000   0.69734193   -3.8961499    2118.0925  0.052376174  0.051733439            4 
 3371000   0.70304672     -3.90147    2123.1312  0.052485196  0.051722773            5 
 3372000   0.70758913   -3.8739244    2126.1576  0.052544424   0.05171209           13 
 3373000   0.70572934   -3.9048123    2121.3041  0.052408936  0.051701507            7 
 3374000   0.70947235   -3.8995705    2118.1499  0.052315499  0.051690845            4 
 3375000   0.70342702   -3.8680352    2123.0344  0.052420602  0.051680219            4 
 3376000   0.71079064   -3.8895361    2123.4307  0.052414858  0.051669513            5 
 3377000   0.71416184   -3.9103459    2117.0664  0.052242287  0.051658834            7 
 3378000   0.72067199   -3.9155279    2122.1704  0.052352733   0.05164808            8 
 3379000   0.70766252   -3.8765449     2126.317  0.052439503  0.051637479            7 
 3380000   0.71841568   -3.8847158    2123.8029  0.052362004  0.051626839            6 
 3381000   0.71314546   -3.8754458    2130.5314  0.052512359  0.051616278            5 
 3382000   0.72688257   -3.9072151    2124.0138  0.052336237  0.051605637            6 
 3383000   0.71613384   -3.8787876    2134.1467  0.052570369  0.051594996            6 
 3384000   0.71702991   -3.9100437    2126.4743  0.052365896  0.051584296            5 
 3385000   0.71461892   -3.8919319    2125.2669  0.052320702  0.051573624            3 
 3386000   0.71165906   -3.9179823     2124.769  0.052292995  0.051563011            7 
 3387000   0.72178506   -3.9220073    2122.9077  0.052231761  0.051552268            4 
 3388000   0.71423653   -3.8841166    2130.9336  0.052413754  0.051541549            8 
 3389000   0.71050071   -3.8980225    2123.0649  0.052204801   0.05153094            4 
 3390000   0.71304493   -3.8592449    2121.9792  0.052162714  0.051520323            7 
 3391000   0.70890217    -3.885467    2125.1061  0.052224175  0.051509667            5 
 3392000   0.72335051   -3.8879923    2119.2733  0.052065479  0.051499016            5 
 3393000   0.71797376   -3.9175028    2120.7544  0.052086512  0.051488316            6 
 3394000   0.70453995   -3.9083893    2125.7079  0.052192789  0.051477592           11 
 3395000   0.70209098   -3.8947983    2123.4717  0.052122526  0.051466993            9 
 3396000   0.70915496   -3.8992495    2123.4718   0.05210718  0.051456333            8 
 3397000   0.71397966   -3.9030359    2120.3406  0.052015029  0.051445682            8 
 3398000   0.70179152   -3.8982998    2120.4249  0.052001788  0.051435082            4 
 3399000   0.71352446    -3.921212    2129.8024  0.052216397  0.051424405           13 
 3400000    0.7202604   -3.9005614    2123.5748  0.052048402  0.051413711            7 
 3401000   0.71050393   -3.9215048    2127.3371  0.052125285  0.051402983            4 
 3402000   0.69491187   -3.9300597    2125.8072  0.052072486  0.051392299            5 
 3403000   0.71636526   -3.9151771    2127.7959  0.052105885  0.051381621            5 
 3404000   0.70937637   -3.9133909    2124.3417  0.052006014  0.051370909            7 
 3405000   0.71095845   -3.9203683    2128.3543  0.052088945  0.051360239            9 
 3406000   0.71369221   -3.9087263    2124.4286  0.051977604  0.051349668            7 
 3407000   0.71620138   -3.9257595    2130.7192  0.052116211  0.051339015            5 
 3408000   0.69908025   -3.9041744    2125.0533  0.051962375  0.051328224            5 
 3409000   0.71124637   -3.9017197    2130.0114  0.052068334  0.051317444            6 
 3410000   0.70613148    -3.898875     2127.142  0.051982943  0.051306657            5 
 3411000   0.70349405   -3.9134769    2125.4433  0.051926201  0.051295944            3 
 3412000    0.7034717   -3.9192182    2126.9605  0.051948039  0.051285234            6 
 3413000   0.70650879   -3.8964655     2133.186  0.052084823   0.05127455            9 
 3414000   0.71797896   -3.9005554    2122.8199  0.051816538  0.051263908            3 
 3415000   0.69796065   -3.9086153    2128.3035  0.051935176  0.051253176            5 
 3416000   0.70175407   -3.9043822    2134.8266  0.052079103  0.051242465            4 
 3417000   0.69403735   -3.8978156    2121.5726  0.051740624  0.051231714           15 
 3418000   0.71679976   -3.9378884    2125.7403    0.0518271   0.05122096            8 
 3419000   0.71993965   -3.9016415    2131.9512  0.051963322   0.05121017            4 
 3420000   0.70233042    -3.903433     2129.009  0.051876437  0.051199497            6 
 3421000   0.70003373   -3.9294357    2128.7708  0.051855472  0.051188741            6 
 3422000   0.69586724   -3.9231966    2135.1347  0.051995293  0.051178064            6 
 3423000   0.70817638   -3.8990936    2135.2357  0.051982562  0.051167433            6 
 3424000   0.68807633   -3.9187629    2136.9373  0.052008793  0.051156721            5 
 3425000   0.70988768   -3.8983853    2138.0694  0.052021154  0.051146094           12 
 3426000   0.70210011   -3.8980242    2130.6554  0.051825632   0.05113539            5 
 3427000   0.70090427   -3.8786172    2134.8253  0.051911908  0.051124813            4 
 3428000   0.69312101   -3.9292944    2137.0153  0.051950004  0.051114189            8 
 3429000   0.70000503    -3.924233     2126.544  0.051680372  0.051103585            3 
 3430000    0.7061444   -3.9270338    2131.9437  0.051796493  0.051092862           11 
 3431000   0.71992505   -3.8945938    2136.3405  0.051888188  0.051082162            6 
 3432000    0.6962434   -3.9042061    2128.0667   0.05167217  0.051071544            7 
 3433000   0.70088498   -3.9235129    2132.8592  0.051773455  0.051060966            4 
 3434000   0.70027298   -3.9271313    2129.9007  0.051686582  0.051050326            8 
 3435000   0.70170422   -3.9187248    2128.7214  0.051642925  0.051039681            8 
 3436000   0.69597426   -3.9295182    2137.2358  0.051834395  0.051029147           10 
 3437000   0.69096905   -3.9053285     2135.861   0.05178598  0.051018503            6 
 3438000   0.71060777   -3.9136407    2139.3418  0.051855289  0.051007861           10 
 3439000    0.7041649   -3.8870008    2140.1525  0.051859854  0.050997322            4 
 3440000   0.71375087    -3.914358    2137.6476  0.051784099  0.050986733            4 
 3441000   0.68492214   -3.9021309    2135.8124  0.051724604  0.050976184            5 
 3442000   0.68484463   -3.9079692    2139.3325  0.051794802  0.050965683            8 
 3443000   0.68346728   -3.9039023    2136.3049  0.051706479  0.050955151            6 
 3444000   0.69924262   -3.9008381    2137.4835  0.051719983  0.050944531            3 
 3445000   0.70318343   -3.9298205    2128.3652  0.051484402  0.050933964            7 
 3446000    0.7238065   -3.9061388    2138.8337  0.051722618  0.050923247            7 
 3447000   0.70141651   -3.9136726    2137.6501  0.051678999  0.050912718            2 
 3448000   0.71012942   -3.9197971    2141.2943  0.051752085  0.050902036            3 
 3449000   0.69471943   -3.9169056     2136.515  0.051621606  0.050891471            7 
 3450000   0.70382058   -3.9040532    2131.2973   0.05148061  0.050880936            9 
 3451000   0.70195863   -3.9213549    2133.4321  0.051517243  0.050870475            7 
 3452000   0.70927222   -3.9137224    2137.3075  0.051595875  0.050859942            5 
 3453000   0.70404057   -3.9137003    2138.1335  0.051600865  0.050849291            6 
 3454000   0.68776531   -3.9155255    2141.2391  0.051660855  0.050838651            3 
 3455000   0.70388218   -3.9174383    2135.4212  0.051505576  0.050827959            9 
 3456000   0.69711785   -3.9298329    2135.1483  0.051484092  0.050817333            7 
 3457000    0.7167222   -3.9075103     2138.968  0.051561276  0.050806692            9 
 3458000   0.69475871    -3.901629    2135.9315  0.051473191  0.050796142            6 
 3459000   0.69990592   -3.9210102    2140.3342  0.051564377  0.050785494            5 
 3460000   0.68402007   -3.9271844    2142.8311  0.051609612  0.050774886            9 
 3461000   0.69801803   -3.9359799    2137.7162  0.051471545  0.050764269            6 
 3462000    0.6871071   -3.9171269    2135.4068  0.051401088  0.050753549            6 
 3463000   0.69061463   -3.9201232    2142.3235  0.051552687  0.050743009           11 
 3464000   0.71210666    -3.931869     2135.294  0.051368698  0.050732419            6 
 3465000   0.68666652   -3.9060841     2138.241  0.051424747   0.05072183            6 
 3466000   0.72894237   -3.9046978    2144.3012  0.051555617  0.050711271            5 
 3467000   0.69977969   -3.8967509    2142.2317  0.051491004  0.050700748            7 
 3468000     0.720306   -3.9281051    2139.9764  0.051421963  0.050690147            7 
 3469000   0.69539823   -3.9325948    2136.8497  0.051332029  0.050679521            8 
 3470000   0.70590139   -3.8993096    2135.3241  0.051280598   0.05066886           10 
 3471000   0.69747961   -3.9140392    2138.2388  0.051335801  0.050658231            3 
 3472000   0.70334185   -3.9209322    2138.1835  0.051319688  0.050647668            9 
 3473000   0.70702519   -3.9356093    2139.3011  0.051331728     0.050637            6 
 3474000   0.69172961   -3.9158599    2142.5497  0.051394879  0.050626354            6 
 3475000   0.69136191   -3.9262168    2138.5629  0.051284481  0.050615635            5 
 3476000   0.69506634   -3.9120024    2135.3542  0.051192802  0.050604936            6 
 3477000   0.68975027   -3.9335891    2136.3365  0.051201623  0.050594187            4 
 3478000   0.69788571    -3.939457    2138.9673  0.051249935  0.050583398            6 
 3479000   0.69533585   -3.9133411    2138.1181  0.051214862  0.050572662            8 
 3480000   0.71291978   -3.9353706    2137.6716  0.051189454  0.050562045            7 
 3481000   0.69683644   -3.8983274    2143.9967  0.051326168  0.050551439            3 
 3482000   0.70745287   -3.9241402    2142.7969  0.051282714  0.050540869            3 
 3483000   0.71252189   -3.9221133    2134.0174  0.051057934  0.050530247            5 
 3484000   0.67617686   -3.9083458    2137.7439  0.051132413  0.050519575            6 
 3485000   0.69710411   -3.9333438    2137.6599  0.051115731  0.050508904            5 
 3486000   0.69570805   -3.9315971    2137.7485  0.051103187  0.050498138            3 
 3487000   0.69905699   -3.9522109    2130.8694  0.050924133  0.050487431            5 
 3488000   0.70555882   -3.9187897    2143.0973  0.051201674  0.050476684            3 
 3489000   0.69246069   -3.9274677    2151.7874  0.051394559  0.050466139            5 
 3490000   0.68272679   -3.9419691    2140.1554  0.051102088  0.050455406           12 
 3491000   0.68603789   -3.9227825    2145.4022  0.051212695  0.050444731            8 
 3492000   0.68966079   -3.9234767     2141.686  0.051109346  0.050434042           17 
 3493000    0.6936723   -3.9170762    2144.2828  0.051156665  0.050423316            5 
 3494000    0.7044616   -3.9218705    2137.6308  0.050983372  0.050412571            4 
 3495000    0.6987854   -3.9316111    2138.0904  0.050979742  0.050401812            9 
 3496000   0.69359908   -3.9278525     2137.451   0.05094992  0.050391061           10 
 3497000    0.6945266   -3.9325512    2137.0164  0.050924993   0.05038037            4 
 3498000   0.68594921   -3.9252032    2138.0786  0.050935738  0.050369643            7 
 3499000   0.68301057   -3.8991092    2149.3749  0.051190218    0.0503589           10 
 3500000   0.69697462   -3.9235332    2138.9462   0.05092729   0.05034822            6 
 3501000   0.69131595    -3.885227    2146.5484  0.051093697  0.050337527           12 
 3502000   0.68512348   -3.9211502     2137.816  0.050871312  0.050326858            4 
 3503000   0.70360752   -3.9590511    2139.5861  0.050898899  0.050316083            4 
 3504000   0.69652444   -3.9518273    2131.5754  0.050693858  0.050305333            6 
 3505000   0.70876675   -3.9442273    2141.5838  0.050917353  0.050294572            4 
 3506000    0.6782154   -3.9275497    2145.0388   0.05098495  0.050283786            9 
 3507000   0.69963271    -3.928731    2136.5057  0.050767648  0.050272978            7 
 3508000   0.69571962   -3.9291218    2140.7666  0.050854395  0.050262167           18 
 3509000   0.68191707   -3.9311814    2139.7422  0.050815573  0.050251374            5 
 3510000   0.70438755   -3.9345912    2141.4659   0.05084202  0.050240569           11 
 3511000   0.69815003   -3.9304393    2136.7215  0.050714933   0.05022969            3 
 3512000   0.68352673   -3.9436131    2136.5454  0.050696312  0.050218822            7 
 3513000   0.68456205   -3.9243447    2143.3522  0.050843348  0.050208087            5 
 3514000    0.6860223   -3.9277262     2142.741  0.050814386  0.050197275            7 
 3515000   0.69303768   -3.9117159    2140.4184  0.050744866  0.050186511            5 
 3516000   0.68878338   -3.9274554    2145.5948   0.05085312  0.050175722            4 
 3517000   0.70437546   -3.9451766    2144.3803  0.050809882   0.05016499            8 
 3518000   0.67969535   -3.9295888    2136.2691  0.050603305  0.050154234            4 
 3519000   0.68027309   -3.9117575    2146.5901  0.050833336  0.050143507            7 
 3520000   0.67114106   -3.9511409    2137.9147  0.050613512  0.050132759            7 
 3521000    0.6872387   -3.9095886    2147.1959  0.050818799   0.05012208            6 
 3522000   0.68925807   -3.9115067    2147.0178  0.050800156  0.050111409            5 
 3523000   0.68785455   -3.9443055    2140.6643   0.05063545  0.050100766            4 
 3524000   0.68977534   -3.9109737    2149.7987  0.050837085    0.0500901            5 
 3525000   0.69159521   -3.9322114    2150.1227  0.050830324  0.050079386            5 
 3526000   0.68294815   -3.9571362    2141.2247  0.050605612  0.050068603            8 
 3527000   0.68915105   -3.9362514    2148.1575  0.050755067  0.050057871            7 
 3528000   0.70090181    -3.929755    2144.6007  0.050656668  0.050047171            3 
 3529000   0.68244389     -3.94608    2144.2504  0.050634041  0.050036541            5 
 3530000   0.69635604    -3.941826    2143.5622  0.050603452  0.050025825           13 
 3531000    0.6886587   -3.9359833    2146.7059  0.050663313  0.050015189           15 
 3532000   0.68849925   -3.9329319    2152.3141  0.050781288  0.050004646            4 
 3533000   0.67162683   -3.9522835    2145.5321  0.050606945  0.049993947            5 
 3534000   0.67931496   -3.9285222    2148.1734  0.050654909  0.049983327           15 
 3535000   0.69125893   -3.9373298    2152.0687  0.050732407  0.049972676            5 
 3536000   0.71079865   -3.9252742    2153.3811   0.05074899  0.049962012            8 
 3537000   0.69742428   -3.9540892    2150.9663  0.050677747  0.049951323           12 
 3538000   0.66511313   -3.9323034    2146.6652  0.050562116  0.049940668            3 
 3539000   0.68766118   -3.9231945    2148.5118  0.050591312  0.049930032           12 
 3540000   0.68523434   -3.9028725    2145.5067  0.050506279  0.049919328            8 
 3541000   0.69786092   -3.9424791    2149.6644   0.05058986  0.049908667            5 
 3542000    0.6761824   -3.9249486    2153.5842  0.050667801  0.049897924            6 
 3543000   0.67407178   -3.9545062    2152.0373  0.050617117  0.049887245           16 
 3544000   0.68490966   -3.9273175    2157.5922  0.050733451  0.049876582            6 
 3545000    0.6734998   -3.9510861    2150.3488  0.050548867  0.049865877            6 
 3546000   0.68060092    -3.928582    2151.8057   0.05056885  0.049855223            4 
 3547000    0.6861705    -3.909675    2149.7483  0.050506257   0.04984461            6 
 3548000   0.67181059    -3.959747     2146.481  0.050415282   0.04983396            7 
 3549000   0.68325789   -3.9429328    2144.8679  0.050363197  0.049823237            9 
 3550000    0.6646277   -3.9436941    2151.6131   0.05050735  0.049812492            9 
 3551000   0.67871741   -3.9600537     2146.912  0.050382803   0.04980183            9 
 3552000   0.69490393   -3.9610198    2158.5784  0.050642324  0.049791224            3 
 3553000   0.67475661   -3.9568435      2152.05  0.050474951  0.049780594            8 
 3554000   0.68446803   -3.9173765    2151.4884   0.05044758  0.049769967            6 
 3555000   0.68000179   -3.9337594    2156.1653  0.050543021  0.049759357            6 
 3556000   0.67870536   -3.9424771    2148.9781  0.050360379  0.049748694            6 
 3557000   0.68411854   -3.9572597    2152.5012  0.050428761  0.049738003           11 
 3558000   0.68181182   -3.9244122    2149.0978  0.050334874   0.04972732            4 
 3559000   0.68049728   -3.9516515    2154.9868  0.050458621  0.049716717            5 
 3560000   0.68688389   -3.9600452    2153.4343  0.050408107  0.049706039            4 
 3561000   0.68339187   -3.9390484    2152.9998  0.050383783  0.049695329            5 
 3562000   0.69427744   -3.9433367    2153.4988  0.050381313  0.049684671            4 
 3563000    0.6697071   -3.9667586    2150.3565  0.050293678  0.049673992            4 
 3564000   0.69001633   -3.9546671    2153.5765  0.050354856  0.049663348            9 
 3565000   0.67094153   -3.9350564    2157.2961   0.05042768  0.049652685            5 
 3566000    0.6814555    -3.951434    2149.6773  0.050235495  0.049642061           14 
 3567000   0.67716025   -3.9600811    2152.3117  0.050282956  0.049631331            5 
 3568000   0.68820836   -3.9607881    2154.3578  0.050316653  0.049620603           13 
 3569000   0.67290431   -3.9463384    2157.4368  0.050374446  0.049610034            9 
 3570000   0.68721128   -3.9618625    2154.4532  0.050290691  0.049599538           11 
 3571000   0.67762234   -3.9373461    2155.0137  0.050289687  0.049588891            6 
 3572000   0.68914852   -3.9597102     2155.882  0.050295866  0.049578273            7 
 3573000   0.67513838   -3.9552774    2154.0599  0.050239292  0.049567773            7 
 3574000   0.66333889   -3.9382376    2151.4699  0.050164846  0.049557147            7 
 3575000   0.68313367   -3.9552085    2157.4604  0.050290451  0.049546499            4 
 3576000   0.68154259   -3.9431432    2153.9507    0.0501946  0.049535852            5 
 3577000   0.66421818    -3.952079    2158.2318  0.050280304    0.0495253           10 
 3578000   0.69024753   -3.9698653    2154.1553  0.050171309  0.049514669            3 
 3579000   0.69017167   -3.9490622    2152.8606  0.050127145   0.04950398            9 
 3580000   0.68308688   -3.9318052    2157.5156  0.050221499  0.049493327            8 
 3581000   0.67819932   -3.9652412    2151.7171  0.050072539  0.049482638            9 
 3582000   0.67477447   -3.9594865    2161.0455   0.05027558  0.049472016            5 
 3583000   0.67977051   -3.9437227    2162.8028  0.050302418  0.049461432            7 
 3584000   0.67986502   -3.9556604    2152.9616   0.05005956  0.049450821            5 
 3585000   0.68106545    -3.952903    2155.7222  0.050109768  0.049440252            8 
 3586000   0.67755314   -3.9740348    2158.7627   0.05016645  0.049429691            5 
 3587000   0.67767889   -3.9555183    2155.3466  0.050073102  0.049419184            5 
 3588000   0.67365732   -3.9285878    2162.1013  0.050216028  0.049408673            6 
 3589000   0.69265909   -3.9542218    2164.3156   0.05025345  0.049398279            7 
 3590000   0.67532054    -3.936004    2164.2994  0.050239076   0.04938784            7 
 3591000   0.67525725   -3.9287297    2157.0233  0.050056236  0.049377444            4 
 3592000   0.68451718   -3.9467315    2161.7367   0.05015165  0.049366939           15 
 3593000   0.67614576   -3.9473388    2161.9531   0.05014271   0.04935644            4 
 3594000   0.67103054   -3.9578542    2163.6391  0.050167851  0.049345892            5 
 3595000   0.68310614   -3.9465662    2162.6907  0.050131913  0.049335405            7 
 3596000   0.67332963   -3.9668186    2157.9926  0.050009098  0.049324856            8 
 3597000   0.67617202   -3.9733412    2158.7429  0.050012577    0.0493143           11 
 3598000   0.67605727   -3.9516532    2164.1002  0.050122757  0.049303766            8 
 3599000   0.68282391   -3.9421821     2161.814  0.050055896  0.049293306            4 
 3600000   0.67925842   -3.9444406    2161.7604   0.05004075  0.049282813            9 
 3601000   0.68140708    -3.942673    2167.1794  0.050152258  0.049272405            9 
 3602000    0.6711085   -3.9617869    2163.0161  0.050042016  0.049262003            5 
 3603000    0.6779624   -3.9321293    2158.2156  0.049917097  0.049251439            6 
 3604000   0.67359468   -3.9566575    2162.0349  0.049991559  0.049240947            5 
 3605000    0.6799424   -3.9401352    2168.0151  0.050115929  0.049230481           14 
 3606000   0.68078528   -3.9560746    2161.7841  0.049958036  0.049219986            6 
 3607000   0.69031674   -3.9574653    2167.9323  0.050086229  0.049209498            6 
 3608000   0.67615089   -3.9567866    2163.6506  0.049973454  0.049199029            8 
 3609000   0.68140029     -3.96058    2165.5592  0.050003675  0.049188567            8 
 3610000   0.67807638   -3.9590311    2164.4287  0.049963727   0.04917813            4 
 3611000   0.67958654   -3.9633722    2161.3965  0.049879916  0.049167551            5 
 3612000   0.67751247   -3.9553722    2162.4664  0.049890789  0.049157124            5 
 3613000   0.67222036   -3.9730431    2164.4204   0.04992205  0.049146578            6 
 3614000   0.67111647   -3.9630126    2160.4017   0.04981557  0.049136051            7 
 3615000   0.67440095   -3.9526202    2161.4717  0.049826458   0.04912558            6 
 3616000   0.66471499   -3.9481659    2170.9318  0.050030693  0.049115057            8 
 3617000    0.6673625   -3.9535284    2167.1006  0.049928591  0.049104582           13 
 3618000   0.65859356   -3.9616344    2161.3719  0.049782843  0.049094054            5 
 3619000    0.6771401   -3.9762579    2161.6697  0.049775944  0.049083507            7 
 3620000    0.6671566   -3.9620086    2167.2827  0.049891406  0.049072984            5 
 3621000   0.68430043   -3.9791206    2166.4231  0.049857846  0.049062534            8 
 3622000   0.66188474   -3.9628894    2168.0343  0.049881149  0.049052014            5 
 3623000   0.66594602   -3.9545598    2163.8105   0.04977023  0.049041552            8 
 3624000    0.6695642   -3.9666199    2163.0853  0.049739819  0.049031024            7 
 3625000   0.67620793   -3.9482877    2162.8876  0.049721554  0.049020499            6 
 3626000   0.66523777   -3.9637424    2167.5539  0.049815084  0.049009934            6 
 3627000   0.67195597   -3.9597866    2165.2614  0.049748677  0.048999421            9 
 3628000   0.68536101   -3.9417884    2171.1365  0.049869912  0.048988963           19 
 3629000   0.66742059    -3.940165    2166.3291  0.049745776  0.048978549            6 
 3630000   0.66641529   -3.9508938    2163.2941  0.049662398  0.048968099           12 
 3631000   0.66208087   -3.9942559    2165.5059  0.049699484  0.048957662            9 
 3632000   0.67093534   -3.9479981    2172.7208  0.049851339  0.048947201            6 
 3633000   0.66180517   -3.9948588    2168.4417  0.049739464  0.048936725            6 
 3634000   0.66663934   -3.9532708    2172.7062   0.04982357  0.048926279            6 
 3635000   0.65822084    -3.969816    2170.7709  0.049765495  0.048915899            8 
 3636000   0.67526154   -3.9732557    2168.3313  0.049695896  0.048905452            8 
 3637000   0.67255735   -3.9819321    2165.8534  0.049625456  0.048894931           11 
 3638000   0.67776482   -3.9403114    2168.2066  0.049665718  0.048884441            4 
 3639000   0.65926633   -3.9661736    2170.5658  0.049706097  0.048873938           11 
 3640000   0.66920396   -3.9688822    2164.7779  0.049559934  0.048863455           10 
 3641000   0.67065378   -3.9610208    2168.3731  0.049628607  0.048852986            6 
 3642000   0.67209798   -3.9763355    2165.6489  0.049552648   0.04884254            8 
 3643000   0.65769564    -3.974268    2163.7176  0.049494868  0.048831984            6 
 3644000   0.67254119   -3.9514864    2176.5587  0.049774943  0.048821491            3 
 3645000   0.67548948   -3.9531051    2174.7175  0.049719192  0.048811055            3 
 3646000    0.6657648    -3.980508    2167.6789  0.049544681   0.04880058            6 
 3647000   0.67813939   -3.9670802    2166.3035   0.04949967   0.04879017           10 
 3648000    0.6647238   -3.9907073    2174.4662  0.049672564   0.04877967            8 
 3649000   0.66670335   -3.9695707    2163.3524  0.049405144  0.048769158           11 
 3650000   0.66131329   -3.9554921    2172.0732  0.049590713  0.048758685            5 
 3651000   0.65869573   -3.9747832    2170.5977  0.049543452  0.048748129           10 
 3652000   0.67808072   -3.9651534     2172.764  0.049579318  0.048737653            8 
 3653000   0.66411946    -3.988791    2168.8957    0.0494775   0.04872716            6 
 3654000   0.67336083   -3.9664369    2168.5982  0.049457174  0.048716621           12 
 3655000   0.65730104   -3.9795795     2170.092  0.049477701  0.048706194            6 
 3656000   0.64656554   -3.9689343    2166.6089  0.049384776   0.04869568           10 
 3657000   0.68405138   -3.9642242    2174.9061  0.049560344  0.048685263            5 
 3658000   0.65722279   -3.9834925    2172.3479  0.049488516  0.048674882            3 
 3659000   0.68479717    -4.003905    2169.6667  0.049413927  0.048664532            7 
 3660000   0.66669039    -3.986395    2177.1878   0.04957167  0.048654138            5 
 3661000   0.67116026   -3.9774522    2176.4167  0.049540579  0.048643696            5 
 3662000   0.65804168   -3.9631109    2175.5361  0.049507011  0.048633306            6 
 3663000   0.65685836   -3.9711601    2173.3471  0.049443696  0.048622952            7 
 3664000   0.65680721   -3.9947873    2174.5527  0.049457621   0.04861243            4 
 3665000   0.66319672   -3.9848114    2166.6537  0.049264523  0.048601992            8 
 3666000   0.66525747   -3.9606498    2174.9641   0.04943999  0.048591529            5 
 3667000    0.6635712   -3.9735878    2173.5706  0.049394841   0.04858116            7 
 3668000   0.65335193   -3.9667761    2173.1569  0.049371976  0.048570804            9 
 3669000   0.66092948   -3.9558297    2177.8958  0.049466153  0.048560437            8 
 3670000   0.66222795   -3.9788206    2172.3194  0.049326054  0.048550079            7 
 3671000   0.66742287   -3.9704803    2178.8685  0.049461283  0.048539682            4 
 3672000   0.65881106    -3.949323    2178.8112  0.049446515  0.048529285            7 
 3673000    0.6655943   -3.9956621    2174.6276  0.049338135   0.04851892            8 
 3674000   0.66450797   -3.9821741    2171.5357  0.049254575  0.048508497            4 
 3675000   0.65834203   -3.9796329    2175.1271   0.04932261  0.048498016            6 
 3676000   0.66065209   -3.9691372    2177.1927  0.049356019  0.048487598           19 
 3677000   0.67140091   -3.9649494     2179.307  0.049390513  0.048477297            6 
 3678000   0.65883384   -3.9864927    2186.3882  0.049537526  0.048467007            3 
 3679000   0.66032068   -3.9885327    2177.1154   0.04931402  0.048456626            7 
 3680000   0.66261702   -3.9815064    2176.3331  0.049282906   0.04844629           10 
 3681000   0.65304399   -3.9773674    2176.0199  0.049262426  0.048435948            8 
 3682000   0.67672067   -3.9813979    2170.9332  0.049133922   0.04842556           15 
 3683000   0.64413682   -3.9818418    2172.0766  0.049146452  0.048415198            9 
 3684000   0.64713284   -3.9792389    2173.3358  0.049161595  0.048404813            7 
 3685000   0.66051772    -3.964561    2177.7606  0.049248318  0.048394378            9 
 3686000   0.65077931   -3.9666882    2184.0826  0.049377885  0.048384137            8 
 3687000    0.6497962    -3.971739    2177.2038  0.049209018  0.048373878           15 
 3688000   0.65414049   -3.9881936    2184.0967  0.049351426  0.048363504            5 
 3689000   0.66476162   -3.9967408    2178.0994   0.04920257   0.04835311            4 
 3690000   0.68170501   -3.9817587    2179.6037  0.049223209  0.048342774           12 
 3691000   0.66289466   -3.9642646    2182.8686  0.049283587   0.04833247           10 
 3692000   0.65501528   -4.0115634    2174.1268  0.049072923  0.048322179            7 
 3693000   0.67681244   -3.9945521    2188.7002  0.049388487  0.048311832            7 
 3694000   0.66076904   -3.9909086    2175.7501  0.049082974   0.04830158            3 
 3695000   0.66882995   -3.9891168    2168.9616  0.048916589  0.048291283            6 
 3696000   0.64471757   -3.9743131    2175.9905  0.049061834  0.048280849            4 
 3697000   0.66239457   -3.9563992     2179.984  0.049138582  0.048270506           16 
 3698000    0.6592057   -3.9780611    2181.1853  0.049152363   0.04826022            9 
 3699000   0.66532917   -3.9874578     2183.524  0.049191762   0.04824998           10 
 3700000   0.64949716   -4.0089743     2181.638  0.049135991  0.048239596           19 
 3701000   0.65079929   -3.9828279    2178.5623  0.049053461  0.048229235            6 
 3702000    0.6588329    -4.011877     2176.495  0.048993674  0.048218923            6 
 3703000   0.66741675   -4.0050041    2186.0338  0.049195107  0.048208576           16 
 3704000   0.66507537   -3.9858932    2185.4423  0.049168517  0.048198298            6 
 3705000   0.65410216   -3.9899587    2180.2622  0.049038735   0.04818804            7 
 3706000   0.66236144   -3.9809357    2175.3017  0.048913961  0.048177751            5 
 3707000   0.66576619   -3.9960915    2182.7629  0.049068493  0.048167439           14 
 3708000   0.65425681   -3.9770097     2181.536  0.049027688  0.048157158            3 
 3709000    0.6685327   -3.9769549    2181.0529  0.049003616    0.0481469           11 
 3710000   0.65800783   -4.0085454    2185.8907  0.049099073  0.048136687            4 
 3711000   0.64477728   -3.9797708    2182.0722  0.049000094  0.048126399            3 
 3712000   0.66533117   -3.9988007    2182.0549  0.048986507  0.048116087            7 
 3713000   0.65515482   -4.0012115    2179.0219  0.048905241  0.048105798            9 
 3714000   0.66133907   -3.9767881    2181.1812  0.048940522  0.048095533            9 
 3715000   0.66100839   -4.0092405    2178.8661  0.048875418  0.048085234            7 
 3716000   0.66169342   -3.9803199     2183.289   0.04896145  0.048074939            7 
 3717000   0.66352308     -4.00507    2185.4814   0.04899743   0.04806473            5 
 3718000   0.65338046   -3.9621364    2185.2095  0.048978159  0.048054505            7 
 3719000   0.67875178   -3.9861957    2192.0098  0.049117366  0.048044342           11 
 3720000   0.64868286   -3.9813648    2187.9053  0.049012215   0.04803417            5 
 3721000   0.64270843   -3.9855536    2191.1039  0.049070677  0.048024054           10 
 3722000   0.65933209   -3.9734323    2192.1436  0.049080771  0.048013983           11 
 3723000   0.64684132   -3.9852385    2189.7034  0.049012969   0.04800384           11 
 3724000   0.66173503   -3.9727508    2191.4163  0.049038138  0.047993709           10 
 3725000   0.65395787   -4.0071429    2190.6289  0.049007358  0.047983584            6 
 3726000   0.65354295   -3.9973185    2182.9467  0.048822389  0.047973416            8 
 3727000   0.63054082   -3.9823681    2187.2909  0.048906424  0.047963304            7 
 3728000   0.65504166   -3.9938437    2184.4182   0.04882909   0.04795316            5 
 3729000   0.65993689   -3.9987473    2186.2737  0.048857462  0.047942937            4 
 3730000   0.65897676   -3.9998782    2189.1206  0.048907967  0.047932716           15 
 3731000   0.65247172   -4.0011606    2188.4075  0.048878931  0.047922454           12 
 3732000   0.64274668   -3.9790996    2192.2386  0.048951379  0.047912301           10 
 3733000   0.64850257   -3.9781767    2186.6688  0.048813929  0.047902114            9 
 3734000    0.6623713   -4.0084684    2188.2148  0.048835361  0.047891924            7 
 3735000   0.66362143   -3.9935199    2187.4672  0.048805605  0.047881698            4 
 3736000   0.64166369   -3.9884841    2188.3116  0.048811375   0.04787157           10 
 3737000   0.65526163   -4.0239713     2187.853  0.048788087  0.047861364            4 
 3738000   0.64232696   -4.0003757    2190.3412  0.048830506  0.047851185            8 
 3739000   0.65240398   -4.0056293    2189.3309   0.04879493  0.047840971            7 
 3740000   0.65230766   -3.9749116     2189.913  0.048794853  0.047830741            7 
 3741000   0.66900651   -4.0131123    2182.3884  0.048614194  0.047820558           13 
 3742000   0.64871093   -3.9891903    2190.7059   0.04878643  0.047810384            3 
 3743000   0.65562377   -4.0039152    2188.7853  0.048730637  0.047800217            8 
 3744000   0.66696048   -3.9949007     2187.151  0.048681245  0.047789971            7 
 3745000   0.64754973   -4.0009524    2190.4682  0.048742061  0.047779689            4 
 3746000   0.66171182   -3.9859867    2190.2028  0.048723145  0.047769525            4 
 3747000   0.64366068   -3.9781259      2191.09  0.048729873  0.047759371            6 
 3748000   0.65030025   -4.0158497    2188.8144  0.048666274  0.047749178            7 
 3749000    0.6520474   -4.0050024    2188.6652  0.048649978  0.047738991           18 
 3750000   0.65353905   -4.0084057    2184.3344  0.048540765  0.047728814            7 
 3751000   0.63381251   -4.0107057     2190.441  0.048663491  0.047718641           10 
 3752000   0.64902461   -4.0190805    2191.1802  0.048666938  0.047708384           12 
 3753000   0.63610737   -3.9847774    2191.8858  0.048669638  0.047698188            4 
 3754000   0.64737714   -3.9996855     2189.479  0.048603246  0.047688002            7 
 3755000   0.65123994   -3.9963644    2189.5371  0.048591592  0.047677874            5 
 3756000   0.64716434   -4.0248096    2182.0953  0.048413546  0.047667667           15 
 3757000   0.65600431   -4.0233895    2192.8356  0.048638887   0.04765746            6 
 3758000   0.65259665   -4.0100547    2196.2489  0.048701634  0.047647309           10 
 3759000   0.65157852   -4.0107877    2199.0172  0.048750048   0.04763724            7 
 3760000   0.64466357   -4.0169941    2187.2193  0.048475606  0.047627146            5 
 3761000   0.63511413   -4.0013866     2195.487  0.048645905  0.047617018           11 
 3762000   0.64379179   -3.9995497     2188.232  0.048472267  0.047606869           18 
 3763000   0.64806033    -3.990094    2193.4375  0.048574664  0.047596735            8 
 3764000   0.64266744   -3.9944512    2201.5351  0.048741035  0.047586644            7 
 3765000    0.6413036   -4.0278398    2196.6106  0.048619092  0.047576565           10 
 3766000   0.65067641   -4.0207647    2190.0307  0.048460584   0.04756634            9 
 3767000   0.64137441   -4.0085186    2203.0819  0.048736438  0.047556219           11 
 3768000   0.63906907   -4.0161705    2196.9538  0.048587973   0.04754601            5 
 3769000   0.63524791   -4.0036534    2194.4316  0.048519315   0.04753588            3 
 3770000   0.65288024   -4.0138215    2197.3804  0.048571627  0.047525675           12 
 3771000   0.64577593     -4.01608    2201.0236  0.048639256  0.047515508           10 
 3772000   0.65515753    -4.035075     2193.844  0.048467746  0.047505335            7 
 3773000   0.65728232   -3.9810804    2197.6682  0.048539364  0.047495227            5 
 3774000   0.65775791   -3.9919204     2191.422   0.04838858  0.047485147            4 
 3775000   0.64691768   -4.0088863     2193.243   0.04841596  0.047475106            6 
 3776000   0.63672369   -3.9794666     2197.235  0.048491239  0.047465035           15 
 3777000    0.6403093   -4.0145463    2197.2737  0.048479254  0.047454964            6 
 3778000   0.64364177   -4.0117349    2197.2481  0.048465857  0.047444867            6 
 3779000   0.65046771   -3.9999224    2193.1637  0.048362964  0.047434787           11 
 3780000   0.64861315   -4.0186831    2200.4529  0.048510866  0.047424753            8 
 3781000   0.65373062   -4.0070349    2202.5857  0.048545044   0.04741477           13 
 3782000   0.65341356   -3.9938055    2200.8108    0.0484931  0.047404804            8 
 3783000   0.65392026   -4.0125183    2194.1531  0.048333621  0.047394803            9 
 3784000   0.64806617   -4.0036733    2197.9168  0.048403734  0.047384755            4 
 3785000   0.64044386   -4.0011135    2202.8847  0.048500324  0.047374779            4 
 3786000   0.65385065   -4.0145216    2196.6729  0.048350786  0.047364823            6 
 3787000   0.64393772   -4.0109661    2197.4311  0.048354702  0.047354737            4 
 3788000   0.64261835   -3.9873467    2192.7065     0.048238   0.04734475            6 
 3789000   0.65080197   -4.0064346    2201.4264  0.048417048  0.047334738            7 
 3790000   0.65331484   -4.0097867    2200.5912  0.048385911  0.047324688            7 
 3791000   0.64368063   -4.0096353    2196.6246  0.048285953  0.047314609            5 
 3792000   0.64115817    -4.017934    2198.3408  0.048310935  0.047304585            4 
 3793000   0.64933653   -4.0158656     2204.739  0.048438768  0.047294517            9 
 3794000   0.64342008   -3.9876701    2198.6122  0.048291429  0.047284503            7 
 3795000   0.63346243   -4.0361626    2198.2668  0.048271119  0.047274473            7 
 3796000   0.64876024   -4.0412529    2189.6946  0.048070218  0.047264344           10 
 3797000   0.64294686   -4.0268749     2198.592  0.048252831  0.047254258           12 
 3798000   0.64437991   -4.0255229    2197.0618  0.048206553   0.04724419            9 
 3799000   0.64240448   -4.0228511    2201.1878  0.048284368  0.047234144           11 
 3800000   0.65267421   -4.0209104    2196.9055  0.048177752  0.047224162            7 
 3801000   0.64063113   -4.0046665    2201.6099  0.048268216  0.047214165            9 
 3802000   0.65452246   -4.0284877    2197.7186  0.048170231  0.047204112           10 
 3803000   0.63615489   -4.0228087    2205.5959  0.048330177  0.047194024           14 
 3804000   0.65059399   -4.0136724    2199.6054  0.048186239  0.047183963            5 
 3805000   0.63940526   -4.0307073    2195.1203  0.048075346  0.047173961            6 
 3806000   0.63860875    -4.013333    2195.8247  0.048078137  0.047163855            9 
 3807000    0.6328747    -4.020835    2199.6009  0.048148167  0.047153794            7 
 3808000    0.6440606   -4.0178301     2204.244  0.048237133   0.04714381           10 
 3809000   0.62527411   -4.0135989    2202.1418  0.048178477  0.047133802           13 
 3810000   0.64839935   -4.0180987    2194.6596  0.048002179   0.04712373            7 
 3811000   0.63079995   -4.0086332    2201.8821  0.048147515  0.047113704            9 
 3812000   0.64329556   -4.0382025    2200.7985  0.048111194  0.047103648            8 
 3813000    0.6293827   -3.9909583    2205.5033  0.048201402  0.047093636            6 
 3814000   0.64274691   -4.0139517    2203.1486  0.048137315  0.047083652            5 
 3815000   0.65027077   -4.0002782    2204.3822  0.048151642  0.047073712            4 
 3816000   0.65551638    -4.015907    2204.3095  0.048137437  0.047063769            5 
 3817000   0.64819376   -4.0060328    2205.1422  0.048143004  0.047053812            9 
 3818000   0.65018359   -4.0284372    2197.3845  0.047961073  0.047043746            9 
 3819000   0.63803209   -4.0060062    2205.6327  0.048128496  0.047033661            5 
 3820000   0.63765296   -4.0079868     2207.487  0.048156348  0.047023707            5 
 3821000   0.64698608   -4.0268606    2202.4643  0.048034203  0.047013811            9 
 3822000    0.6432202   -4.0267229    2209.2545  0.048169686  0.047003888            6 
 3823000   0.63356366   -4.0350262    2202.9028  0.048018633  0.046993893            6 
 3824000   0.63534848   -4.0215089    2197.9805  0.047898808  0.046983817            9 
 3825000   0.64851071   -4.0099436    2211.3762   0.04817813  0.046973817            6 
 3826000   0.63005854   -4.0317526    2206.5577  0.048060588  0.046963867            7 
 3827000   0.63521993   -4.0335699    2206.9462  0.048056489  0.046953821            7 
 3828000   0.64026584   -4.0496677    2208.0677  0.048068349    0.0469438            9 
 3829000   0.62198841   -4.0340294    2209.7862  0.048093197  0.046933842            8 
 3830000   0.63065353   -4.0359284     2209.831  0.048081615   0.04692392            5 
 3831000   0.62845801    -4.013463    2207.9887  0.048028988  0.046913925           12 
 3832000     0.641398   -4.0225709    2205.6954  0.047966583  0.046903977            6 
 3833000   0.62751904   -4.0309505    2204.3583     0.047925  0.046894015           11 
 3834000   0.64676154   -4.0115171    2208.0362   0.04799244   0.04688409           10 
 3835000   0.62515854   -4.0202147    2207.7512  0.047973733  0.046874106            4 
 3836000   0.65264477    -4.024535    2203.5674  0.047870337  0.046864183            9 
 3837000   0.65134338   -4.0211447    2205.9678  0.047909995  0.046854241            9 
 3838000   0.64547447   -4.0368008    2203.9961  0.047854701  0.046844274            6 
 3839000   0.64265116    -4.047874    2202.7068  0.047814249  0.046834299           10 
 3840000   0.62939928   -4.0236591    2204.9835  0.047851205  0.046824349           13 
 3841000   0.64029751   -4.0079933    2211.6006  0.047982308  0.046814461            7 
 3842000   0.64247721   -4.0381624    2204.4073  0.047813797  0.046804558           17 
 3843000   0.63021909   -4.0472254    2203.4021  0.047779558  0.046794531           15 
 3844000   0.63242903   -4.0283158    2200.7251  0.047709094  0.046784557            7 
 3845000   0.63850688   -4.0344352    2198.2855  0.047643811   0.04677457            8 
 3846000   0.64445792   -4.0390388    2204.8536  0.047773739  0.046764572            7 
 3847000   0.63732116   -4.0203296    2214.5684  0.047971761  0.046754651            7 
 3848000     0.643809   -4.0347461    2207.6777  0.047810067  0.046744756            9 
 3849000   0.65254975   -4.0205588    2209.5763  0.047838753  0.046734813            8 
 3850000   0.62505558     -4.01348    2213.5931  0.047913272  0.046724993            4 
 3851000   0.63345753    -4.021526    2212.9766  0.047887488  0.046715242           10 
 3852000   0.65864438   -4.0316824    2205.3657  0.047710403  0.046705419            5 
 3853000   0.63970059   -4.0118224    2211.2493  0.047825273   0.04669559           12 
 3854000    0.6398052   -4.0444065    2213.7516   0.04786697  0.046685751           17 
 3855000   0.63287436   -4.0431207    2211.0858  0.047796927  0.046675914            7 
 3856000   0.63742159   -4.0414125    2210.2485  0.047766435  0.046665999            7 
 3857000    0.6403175   -4.0559396    2206.7861  0.047679244  0.046656102           11 
 3858000   0.62542556   -4.0251448    2217.3744  0.047895594  0.046646249            7 
 3859000   0.63259747   -4.0394866    2215.1571    0.0478353  0.046636503            5 
 3860000    0.6448247   -4.0271185    2215.4909  0.047830114  0.046626656            5 
 3861000   0.61919394   -4.0192504    2213.7797  0.047780792  0.046616887            7 
 3862000    0.6329698   -4.0244418    2216.8007  0.047833606  0.046607068            8 
 3863000   0.61983814   -4.0168292    2210.6729  0.047689035  0.046597234            7 
 3864000   0.62876045    -4.018889    2217.2267  0.047818036  0.046587407            7 
 3865000   0.63145056   -4.0158428     2212.161  0.047696442  0.046577552            7 
 3866000   0.63141358   -4.0301615    2212.9259  0.047700593  0.046567785            7 
 3867000   0.64171087   -4.0336651    2214.9693  0.047732293  0.046557975            8 
 3868000   0.62505711   -4.0355806    2214.8922  0.047718292   0.04654812           10 
 3869000    0.6260885   -4.0340176    2219.6658  0.047808775  0.046538437           16 
 3870000   0.62594658   -4.0239971    2216.8124  0.047734979  0.046528679            5 
 3871000   0.63152815   -4.0549172    2205.1318  0.047471191  0.046518817            4 
 3872000   0.64887819   -4.0225171    2216.3286  0.047699909  0.046508918            5 
 3873000   0.62822786   -4.0321837    2218.0636  0.047724924  0.046499082           11 
 3874000   0.62760796   -4.0403984    2214.4195  0.047634217  0.046489245            6 
 3875000   0.63670648   -4.0086592    2216.0306  0.047656571  0.046479515            5 
 3876000   0.63585034   -3.9964263    2218.3311  0.047693737  0.046469759            5 
 3877000    0.6363245    -4.028526    2216.9063   0.04765081  0.046460077            5 
 3878000   0.63393647   -4.0399106    2212.1723  0.047536795   0.04645028            9 
 3879000   0.63601536   -4.0487413     2209.206  0.047460814  0.046440481            5 
 3880000   0.64470198   -4.0400996    2214.7148  0.047566898  0.046430673           10 
 3881000    0.6301219   -4.0288858    2217.2356   0.04760877   0.04642087           10 
 3882000   0.63359206   -4.0257317    2218.5201  0.047624079  0.046411098            3 
 3883000   0.62711515   -4.0129985    2225.9488  0.047771242   0.04640135            3 
 3884000   0.62152931    -4.066243    2213.5053   0.04749196  0.046391623           10 
 3885000   0.63043729   -4.0325568    2217.9525  0.047575128  0.046381784            7 
 3886000   0.63965721   -4.0420862    2222.5082   0.04766058  0.046371994            6 
 3887000   0.63295979   -4.0331436    2217.5965  0.047543018  0.046362238            6 
 3888000   0.62416883   -4.0506415    2218.3761  0.047547498   0.04635247            4 
 3889000    0.6365637   -4.0477609    2213.4452  0.047429614  0.046342691           17 
 3890000   0.63159726   -4.0301439    2214.2315  0.047434266  0.046332918            4 
 3891000    0.6379135   -4.0592828    2210.4793  0.047341714  0.046323056           13 
 3892000   0.63453344   -4.0307174    2224.7233  0.047634535  0.046313209           10 
 3893000   0.64693382   -4.0664121    2216.1616  0.047439027   0.04630342            7 
 3894000   0.62532955   -4.0394553    2221.8864  0.047549359  0.046293657            8 
 3895000   0.63356648   -4.0473692    2220.6982  0.047511729   0.04628397            6 
 3896000   0.62565819   -4.0481318    2214.3382  0.047363497  0.046274277            7 
 3897000    0.6261458   -4.0280089    2219.2428  0.047456223  0.046264553           11 
 3898000   0.63095687   -4.0507678    2207.4253  0.047191409  0.046254826           15 
 3899000   0.61993182   -4.0365336    2210.7784   0.04725097  0.046245062            7 
 3900000   0.62039784   -4.0255729    2225.6759  0.047557176  0.046235384            4 
 3901000   0.62573635   -4.0541856    2221.8521  0.047463302  0.046225636            6 
 3902000   0.63943443   -4.0391908    2222.0861  0.047456136  0.046215919            5 
 3903000   0.63086131   -4.0405234    2221.6686  0.047435062   0.04620618            6 
 3904000   0.62216386   -4.0431998    2228.8676  0.047576579  0.046196492            4 
 3905000   0.62853646   -4.0425908    2222.7285  0.047433386  0.046186794            8 
 3906000   0.62001656    -4.049491    2214.6468  0.047248821  0.046177072           14 
 3907000   0.62950935   -4.0435389    2220.1117  0.047353292  0.046167369            8 
 3908000   0.63022846   -4.0545905    2222.5125  0.047392369  0.046157668            6 
 3909000   0.62579314   -4.0550502    2222.8671  0.047387803  0.046147936            5 
 3910000   0.63675569   -4.0424306    2221.1046   0.04733812   0.04613825            6 
 3911000   0.63178804   -4.0388627    2226.3158  0.047437053  0.046128527           14 
 3912000   0.61598226   -4.0477138    2219.4056  0.047277726  0.046118803            9 
 3913000    0.6237415   -4.0607393    2222.1383  0.047323841   0.04610911            7 
 3914000   0.62762941   -4.0355277    2221.1758  0.047291257  0.046099422            5 
 3915000   0.62279932   -4.0478969    2219.1643  0.047236363  0.046089834           11 
 3916000   0.62804085   -4.0517454    2218.7962  0.047216466  0.046080218            4 
 3917000   0.64134382   -4.0580076    2223.6639  0.047307972  0.046070534           11 
 3918000   0.62530649   -4.0505842    2227.0052  0.047366965  0.046060891            6 
 3919000   0.62210419   -4.0588979     2226.148   0.04733665  0.046051213            4 
 3920000   0.63368089   -4.0502453     2221.343  0.047222429  0.046041587           13 
 3921000   0.62784629   -4.0468858    2220.3792    0.0471899  0.046031895            9 
 3922000   0.61514042   -4.0601076    2228.5059  0.047350542  0.046022202           11 
 3923000   0.61380351   -4.0781395    2230.4347  0.047379444  0.046012536            5 
 3924000   0.60901035   -4.0769126     2219.151   0.04712774   0.04600281            9 
 3925000    0.6254008   -4.0650169    2230.4648   0.04735594  0.045993075            7 
 3926000   0.62958299   -4.0500063    2231.9723  0.047375877  0.045983367            5 
 3927000   0.63190594   -4.0512464    2219.7076  0.047103548   0.04597364            9 
 3928000    0.6262823   -4.0288406    2223.2031  0.047165714  0.045964026            9 
 3929000   0.61198532    -4.063971    2213.8767  0.046955898  0.045954338           11 
 3930000   0.63329287   -4.0479315    2216.3161  0.046995676  0.045944596            5 
 3931000   0.61882291    -4.071785     2221.089  0.047084902  0.045934804           14 
 3932000   0.61928619   -4.0539699    2216.9903  0.046986061  0.045925066           19 
 3933000   0.62621635   -4.0758655    2223.9092  0.047120713  0.045915349            8 
 3934000   0.61978944   -4.0887105    2226.8435  0.047170892  0.045905636           16 
 3935000   0.62423842   -4.0753325    2219.7405  0.047008482   0.04589588           14 
 3936000   0.62788869   -4.0610972    2218.6587  0.046973634  0.045886144            7 
 3937000   0.61772788    -4.050712    2224.5442   0.04708628  0.045876421           19 
 3938000   0.62858667   -4.0462264    2227.1431  0.047129318  0.045866786           12 
 3939000   0.60716888   -4.0376413    2221.3298  0.046994368  0.045857065           11 
 3940000   0.62035765   -4.0393591    2226.3465  0.047088546  0.045847395            4 
 3941000   0.62250769   -4.0559039    2225.0569  0.047049331  0.045837649            5 
 3942000   0.59245589   -4.0629429     2223.171  0.046997526  0.045827925            7 
 3943000   0.61485351   -4.0559974    2224.9314  0.047022814  0.045818267           10 
 3944000   0.62503952   -4.0515036    2225.9073  0.047031509  0.045808553           14 
 3945000   0.63754497   -4.0526311    2221.6258  0.046929146  0.045798874            6 
 3946000   0.62655625   -4.0619142    2222.7812  0.046941654  0.045789162            7 
 3947000   0.62686081    -4.087475    2219.6942  0.046864585  0.045779414           18 
 3948000   0.60955873   -4.0550218    2221.7688  0.046896505  0.045769648            6 
 3949000   0.62347717   -4.0589164    2231.4153  0.047088194  0.045759995            5 
 3950000   0.60698038   -4.0775636    2224.2084  0.046924228  0.045750263            5 
 3951000   0.61092507   -4.0662684    2226.8165   0.04696736  0.045740604            9 
 3952000     0.609815   -4.0869979    2224.8968  0.046914997  0.045730864           10 
 3953000   0.61929084   -4.0555804    2221.9112  0.046840189  0.045721186            3 
 3954000   0.62279448   -4.0520626    2230.4751  0.047008833  0.045711547            7 
 3955000   0.62106368   -4.0806399    2225.0074  0.046881739  0.045701871           13 
 3956000   0.62950859   -4.0630209    2224.5292  0.046859817  0.045692216            6 
 3957000   0.62889764   -4.0623686    2229.5147  0.046952968  0.045682526            7 
 3958000   0.60409002   -4.0505752    2233.2223  0.047019166  0.045672873            6 
 3959000   0.61872335   -4.0715741    2222.1564  0.046774362  0.045663193            6 
 3960000   0.62064244   -4.0481285    2224.7048  0.046816178  0.045653438           16 
 3961000   0.61599369   -4.0691957    2222.3534  0.046754889  0.045643655           12 
 3962000   0.62557138   -4.0513354    2223.5386  0.046768017  0.045633932           12 
 3963000   0.61422894   -4.0852195    2224.2429  0.046771026  0.045624174            8 
 3964000   0.59714839    -4.079069    2228.5292  0.046849336  0.045614431           12 
 3965000   0.62100226   -4.0665752    2227.5839  0.046817653  0.045604722            5 
 3966000   0.60129489   -4.0774101    2225.0065  0.046751691  0.045595019            7 
 3967000   0.63007314    -4.056585    2231.5472  0.046877305  0.045585313            8 
 3968000   0.61715718   -4.0729197    2228.5482  0.046802507  0.045575564           18 
 3969000   0.62128599   -4.0554056    2227.7731  0.046774442  0.045565831            7 
 3970000   0.62260829   -4.0375306    2219.7606  0.046594471    0.0455561           11 
 3971000   0.61681893   -4.0585506    2221.7997  0.046625528  0.045546405           10 
 3972000   0.61272902    -4.056405    2224.9311  0.046679487  0.045536692           11 
 3973000   0.61414789   -4.0319177    2234.5324  0.046869125  0.045527057           26 
 3974000    0.6165378   -4.0503259    2234.3854  0.046854248  0.045517419           18 
 3975000   0.61508346   -4.0265523    2229.8124  0.046746591   0.04550778            7 
 3976000   0.61321415   -4.0634439    2232.0427  0.046781579    0.0454982            4 
 3977000   0.60697898   -4.0658262    2227.5949  0.046676619   0.04548853            5 
 3978000   0.61597088   -4.0683415     2226.073  0.046633003  0.045478846            8 
 3979000   0.62254463   -4.0694819    2232.3574  0.046752898  0.045469145           10 
 3980000   0.62116497   -4.0695588    2230.3252  0.046698601  0.045459498           17 
 3981000   0.62208093   -4.0729057    2227.9886   0.04663796  0.045449828           12 
 3982000    0.6072831   -4.0597375    2230.8285   0.04668568  0.045440121            8 
 3983000   0.61379446   -4.0554811    2226.4896  0.046583177  0.045430395            7 
 3984000   0.61895113   -4.0686881    2219.8807  0.046433247  0.045420618           12 
 3985000   0.61903314   -4.0752285    2230.1656  0.046636671  0.045410885           10 
 3986000   0.62606071    -4.090398    2231.3143  0.046648985  0.045401193           16 
 3987000   0.61452464    -4.075545    2227.8654  0.046565199  0.045391479           10 
 3988000   0.63343631   -4.0835046    2227.9574  0.046555447  0.045381777            5 
 3989000   0.61296168   -4.0906155     2226.161  0.046506245  0.045372052            9 
 3990000   0.60741102   -4.0669235    2233.1728  0.046641036   0.04536234            6 
 3991000   0.61706799   -4.0525047    2236.4471  0.046697718  0.045352651            7 
 3992000   0.61341534   -4.0681969    2229.0344   0.04653128   0.04534298           14 
 3993000   0.60364779   -4.0851213    2219.5456  0.046321595  0.045333254           16 
 3994000   0.61510699   -4.0740787    2227.2525  0.046470801   0.04532354           14 
 3995000   0.61253924   -4.0627488    2227.3646  0.046461506  0.045313825            8 
 3996000   0.62360635   -4.0798254    2226.5759  0.046433431  0.045304152           12 
 3997000    0.6192459   -4.0729952     2229.454  0.046481819  0.045294469           10 
 3998000   0.61406862   -4.0897404    2228.3647  0.046447488   0.04528473           10 
 3999000   0.62900392   -4.0657678     2233.266   0.04653801  0.045275102            8 
 4000000   0.61020545   -4.0660153    2229.4945  0.046447801  0.045265465           10 
 4001000   0.61754205   -4.0903147    2223.6427  0.046314311  0.045255714           15 
 4002000   0.61112239   -4.0682407    2236.5159  0.046570795  0.045245985           10 
 4003000   0.62222543   -4.0722532     2235.183  0.046531413  0.045236293            7 
 4004000   0.60925071   -4.0561475    2234.3813  0.046503107  0.045226596            7 
 4005000   0.60710405   -4.0865794    2224.5633   0.04628721  0.045216904            6 
 4006000    0.6104749   -4.0789887     2231.954  0.046429397  0.045207201            7 
 4007000   0.61478768    -4.076904    2230.4577  0.046386692  0.045197534           10 
 4008000   0.61120471    -4.071322    2233.6837  0.046442192  0.045187886            7 
 4009000   0.62015984   -4.0872924    2227.9522   0.04631147  0.045178226           16 
 4010000   0.60184399    -4.088711    2229.2211   0.04632629  0.045168571           10 
 4011000   0.61755821   -4.0865602     2226.925  0.046267036  0.045158876            7 
 4012000   0.61006064   -4.1015312    2235.8881  0.046441676  0.045149208           14 
 4013000   0.61150468   -4.0664226    2238.0166  0.046474304  0.045139551            3 
 4014000    0.6223306   -4.0933365    2235.6694  0.046413998  0.045129869           10 
 4015000   0.59965092   -4.0630167    2233.6292   0.04636009  0.045120223           14 
 4016000   0.60445523   -4.0817141    2230.9013  0.046291942    0.0451106            4 
 4017000   0.61104299   -4.0718211     2227.151  0.046202619  0.045101008            7 
 4018000   0.61772452   -4.0793154    2232.8802  0.046309943  0.045091347            8 
 4019000   0.60933848   -4.0901374     2230.449   0.04624801  0.045081701           14 
 4020000   0.60636944   -4.0896414    2238.3622  0.046400543  0.045072056           10 
 4021000   0.60816664    -4.104205    2224.2277  0.046096073  0.045062331           26 
 4022000   0.62269798   -4.1141454    2229.0621  0.046184778  0.045052565            9 
 4023000   0.59788093   -4.0721138    2234.3835  0.046283527   0.04504285            5 
 4024000   0.59603796   -4.0750895    2230.6567  0.046194845  0.045033182            7 
 4025000   0.61724949   -4.0989074      2228.47  0.046138095  0.045023492            9 
 4026000    0.6197745   -4.0883606     2230.316  0.046164846  0.045013767           10 
 4027000    0.5968437    -4.067367    2229.6546  0.046139694  0.045004059           13 
 4028000   0.61016202   -4.0961476    2235.8691  0.046256808  0.044994348            9 
 4029000   0.61218345   -4.0805986    2233.2438  0.046191028   0.04498461            7 
 4030000   0.59775429   -4.0630175    2232.5722  0.046165678  0.044974914            9 
 4031000   0.60623454    -4.084624    2223.1359  0.045959149   0.04496519           10 
 4032000   0.61175101   -4.0878489     2231.431  0.046119192  0.044955454           14 
 4033000    0.6085269   -4.0808631    2229.6317  0.046070578  0.044945796            6 
 4034000   0.59569954   -4.0763456    2231.9132  0.046106288  0.044936078            7 
 4035000   0.60310072   -4.1001487    2228.2049  0.046018276  0.044926363           14 
 4036000   0.59359893   -4.0825866    2234.7656  0.046142335  0.044916649            8 
 4037000   0.60146751   -4.1074551    2233.9949  0.046114996   0.04490695           10 
 4038000   0.61033255   -4.1016363    2229.9888  0.046020901  0.044897243            5 
 4039000   0.60109336   -4.0846344    2229.6896  0.046003334  0.044887591            5 
 4040000   0.60868227   -4.0717293    2231.7235  0.046033901  0.044877923           12 
 4041000   0.61258887   -4.0671423     2234.821  0.046086385  0.044868286            5 
 4042000   0.60922274    -4.086842    2226.1926  0.045897093  0.044858565            6 
 4043000   0.59582741    -4.078389    2233.5539   0.04603747  0.044848852           11 
 4044000   0.60313921   -4.0977997    2227.0473  0.045892007  0.044839133            6 
 4045000   0.60360537   -4.1023374    2231.4324     0.045971  0.044829447            6 
 4046000   0.61090054   -4.0709152    2233.1377  0.045994762  0.044819759            5 
 4047000   0.61228141   -4.0566277    2233.7477  0.045995958  0.044810119           14 
 4048000   0.60271862   -4.0701753    2233.1125  0.045971519  0.044800511            6 
 4049000   0.60249694   -4.0988165    2231.5055  0.045927092  0.044790946           19 
 4050000   0.62717725   -4.0850805     2237.764  0.046044528   0.04478133           10 
 4051000   0.60266441   -4.0747716    2229.5739  0.045864682  0.044771711            3 
 4052000   0.60418906   -4.0815463    2235.8792  0.045983038  0.044762079            7 
 4053000   0.60902677   -4.0906758    2235.3552  0.045960918  0.044752457           14 
 4054000   0.60455244   -4.0787608    2233.1786  0.045904839  0.044742875           11 
 4055000    0.5908481   -4.0799465    2238.4796  0.046002457  0.044733215           10 
 4056000   0.58993607   -4.0887649    2235.7233  0.045934486  0.044723605           14 
 4057000   0.60245198   -4.0853678    2233.9778   0.04588731  0.044713953           11 
 4058000   0.60864435   -4.1087447    2234.5948  0.045888673  0.044704231            8 
 4059000   0.60976367   -4.0944116    2237.3511  0.045933955  0.044694574            5 
 4060000   0.60376646   -4.0873207    2231.3872   0.04580023  0.044684923           10 
 4061000   0.60161319   -4.0757764    2244.8386   0.04606498   0.04467526            4 
 4062000   0.61255184   -4.0903917    2238.0994  0.045915382  0.044665619            8 
 4063000   0.60512388   -4.0867816    2236.6898  0.045875169  0.044656013            8 
 4064000   0.60317015    -4.083128    2242.1401  0.045975642  0.044646433           17 
 4065000   0.60513353   -4.0941894    2236.2662  0.045843915  0.044636809           13 
 4066000   0.59117983   -4.1005211    2229.0185  0.045684098  0.044627081           11 
 4067000   0.60477425   -4.0865507    2231.8789  0.045731475   0.04461742           30 
 4068000   0.60038933   -4.0996825    2235.8594  0.045801775  0.044607756            9 
 4069000   0.60964124   -4.1005683    2236.7296  0.045808338   0.04459804           12 
 4070000   0.59154441   -4.1028793     2234.669  0.045754893  0.044588341           21 
 4071000    0.5957458   -4.1114104    2238.3998  0.045820025  0.044578651            7 
 4072000   0.60049295   -4.0929446    2233.5109   0.04570872  0.044568902           10 
 4073000   0.61416746   -4.0896903    2233.8186  0.045703794  0.044559149           15 
 4074000   0.60568561   -4.0972888    2229.4408  0.045603028  0.044549418            8 
 4075000   0.59352171   -4.1105147    2235.0539  0.045706623   0.04453967           10 
 4076000   0.59275147   -4.1123406    2230.1371  0.045594886  0.044529893            8 
 4077000   0.59609677   -4.1090431    2244.3861  0.045874951  0.044520203           14 
 4078000    0.6059609   -4.1162177     2233.309  0.045637343  0.044510474            7 
 4079000   0.60198143   -4.1060656    2239.9707  0.045762252  0.044500746           10 
 4080000   0.59436715   -4.0894998    2237.1334  0.045693084  0.044491032           16 
 4081000   0.59900963   -4.1035863    2234.2716   0.04562345  0.044481343           22 
 4082000   0.60087559   -4.0819202    2238.0359  0.045689121  0.044471717           18 
 4083000   0.59845628   -4.0940758    2236.5964   0.04564855  0.044462037           14 
 4084000   0.60467158   -4.1031881    2230.6159  0.045515342  0.044452318           17 
 4085000   0.59497176   -4.0872145    2232.2035  0.045536587  0.044442611           11 
 4086000   0.58366297   -4.1053442     2232.129  0.045523923  0.044432926            7 
 4087000   0.60523159   -4.1105287    2237.2599  0.045617404  0.044423222           11 
 4088000   0.59510586   -4.0998864    2238.3061   0.04562757  0.044413508            8 
 4089000   0.59711674   -4.1127341    2239.6392   0.04564358   0.04440388            9 
 4090000   0.62057612   -4.1069561    2244.8854  0.045739312  0.044394273           12 
 4091000   0.60094899   -4.1006716    2237.5586  0.045578884  0.044384658            5 
 4092000   0.61121516   -4.0912102    2235.9346  0.045534674  0.044375003           14 
 4093000   0.59079847   -4.1111883    2236.9769  0.045544769  0.044365304           14 
 4094000   0.58712559   -4.1107491    2240.1942  0.045599133  0.044355544            4 
 4095000   0.59847842   -4.1043603    2236.2912  0.045508571  0.044345841           11 
 4096000   0.59835912   -4.0926544    2238.5402  0.045543217  0.044336129           16 
 4097000   0.60512999   -4.1214728    2232.1918  0.045402974  0.044326423            9 
 4098000   0.60062077   -4.1057896    2229.6566  0.045340341  0.044316674           13 
 4099000   0.57459867   -4.0893035    2240.9404   0.04555868  0.044306934            7 
 4100000   0.59049541   -4.0937621    2234.2939  0.045412478  0.044297242           10 
 4101000   0.58707438   -4.0907448    2236.4341  0.045444894  0.044287536            9 
 4102000   0.59627989   -4.1210472    2236.9852  0.045445011  0.044277865            7 
 4103000    0.5853329   -4.0950305     2240.858  0.045512592  0.044268209           10 
 4104000   0.61163452   -4.1125556    2239.0641  0.045465076  0.044258546           22 
 4105000    0.5900583   -4.1116014    2237.9941  0.045432279  0.044248848            8 
 4106000   0.58795151   -4.0987484    2242.5944   0.04551458  0.044239218            5 
 4107000   0.59479636   -4.0945267    2235.1843  0.045353142  0.044229572            9 
 4108000   0.58331083   -4.1100651    2238.1043  0.045401338  0.044219906            5 
 4109000   0.59459388   -4.1090755    2243.3779  0.045497239  0.044210243           10 
 4110000   0.60665921   -4.0994458    2238.2189  0.045381567  0.044200583           13 
 4111000   0.59676892    -4.107618    2239.5352  0.045397211  0.044190877            7 
 4112000   0.59099619   -4.1190609    2233.6972  0.045267858  0.044181148            8 
 4113000   0.59649665   -4.1168192      2238.49  0.045353959  0.044171397            5 
 4114000    0.5883052   -4.1118234    2237.0699  0.045314168  0.044161687            9 
 4115000    0.6015403   -4.0948066    2239.5626  0.045353636  0.044152032           10 
 4116000   0.58498401   -4.1047839    2236.6108  0.045282855  0.044142373           10 
 4117000   0.59689406   -4.1241602    2237.1609  0.045282991  0.044132641            9 
 4118000   0.58815172   -4.1124431    2235.8043  0.045244543  0.044122982            8 
 4119000   0.58733034   -4.1010016    2243.1259  0.045381685  0.044113333            6 
 4120000   0.59530386   -4.1201091    2234.3632   0.04519343  0.044103634           11 
 4121000   0.59310188   -4.1117993    2237.3809  0.045243487  0.044093966            9 
 4122000   0.58667084   -4.1135806    2236.2873  0.045210402  0.044084302           14 
 4123000   0.61167634   -4.1039414    2235.0758  0.045174949  0.044074645            6 
 4124000   0.58551987   -4.1061516    2236.5717  0.045194223  0.044064927           18 
 4125000   0.60306069   -4.1042024    2240.2309  0.045257189  0.044055204            7 
 4126000   0.58198343   -4.1290747    2237.8371  0.045197874  0.044045491           11 
 4127000   0.58834303    -4.108241    2233.7376  0.045104143  0.044035795           10 
 4128000   0.59304301   -4.0986631    2237.7247  0.045173705  0.044026147           10 
 4129000   0.58926145   -4.1158222    2238.9928  0.045188358  0.044016458            5 
 4130000   0.59091698   -4.1244358    2245.2372  0.045303414  0.044006793           10 
 4131000   0.60184632    -4.111556    2239.7615  0.045181987  0.043997192            8 
 4132000   0.58981564   -4.1183305    2243.1599  0.045239591  0.043987608            6 
 4133000   0.58431176   -4.1182362    2235.5395  0.045074996  0.043977997           26 
 4134000   0.58802222   -4.1209314    2239.9713  0.045153428  0.043968357            9 
 4135000   0.58719374   -4.1116199    2239.1185  0.045125323   0.04395874            6 
 4136000   0.59915358   -4.1106422    2242.5263  0.045183073   0.04394919            8 
 4137000   0.59480917   -4.1244367    2239.4248  0.045109677    0.0439396            8 
 4138000   0.59328558   -4.1018117     2238.752  0.045085227  0.043929942           14 
 4139000    0.5976241   -4.1254657    2236.8746  0.045036535  0.043920235           11 
 4140000   0.59287459   -4.1297535    2241.6659  0.045122099  0.043910568            9 
 4141000   0.59899967   -4.1243807    2241.6063  0.045110003   0.04390089           23 
 4142000   0.57830314   -4.1135579    2243.9809  0.045146887  0.043891224            6 
 4143000   0.58904756   -4.1226304    2240.6834  0.045069663  0.043881585            9 
 4144000   0.59836602   -4.1167181    2241.6908  0.045079047  0.043871937            5 
 4145000   0.57874494   -4.0893548    2241.9412  0.045073205  0.043862313            6 
 4146000   0.59483611   -4.1205826    2237.3516  0.044970084  0.043852704            8 
 4147000   0.57959975   -4.1124132    2241.9893  0.045052434  0.043843091            7 
 4148000    0.5997345   -4.1382393    2234.6812  0.044894752  0.043833414           14 
 4149000   0.58229009   -4.1084551    2241.7274  0.045025457  0.043823725           12 
 4150000    0.5879924   -4.1282669    2246.6381  0.045113215  0.043814068           13 
 4151000   0.58719923    -4.124643    2246.4311  0.045098191  0.043804457           10 
 4152000   0.59135254   -4.1002783    2243.4958  0.045028416  0.043794796           10 
 4153000   0.59397473   -4.1282851    2240.3936  0.044955325  0.043785158            6 
 4154000   0.58483899   -4.1357091    2238.8161  0.044912858  0.043775494           17 
 4155000   0.58188345   -4.1169202    2244.4875  0.045015794  0.043765935            9 
 4156000    0.5978046   -4.1158385    2244.2661  0.045000524  0.043756377           17 
 4157000   0.59214102   -4.1248938    2244.9199  0.045002805  0.043746709            6 
 4158000   0.58984614    -4.116327     2248.331  0.045060346  0.043737135            6 
 4159000   0.59393693   -4.1298684    2245.3907  0.044990597   0.04372757            7 
 4160000   0.59026703   -4.1204582    2238.3154  0.044838049  0.043717975            7 
 4161000   0.59976563   -4.1121669      2243.53  0.044931707  0.043708388           11 
 4162000   0.58203701   -4.1168179    2243.7786  0.044925888  0.043698843           13 
 4163000   0.58317479    -4.126167    2244.4175  0.044927887  0.043689239           15 
 4164000   0.58754511   -4.1127492    2243.3789  0.044896311  0.043679626           17 
 4165000   0.57893235   -4.1358486    2243.2947  0.044883847  0.043670047            9 
 4166000   0.58463717   -4.1136217    2251.3386  0.045033978   0.04366053            7 
 4167000   0.57481135   -4.1062788     2239.562  0.044787657  0.043651014           12 
 4168000   0.58540037   -4.1267551    2241.5528  0.044816715  0.043641448           13 
 4169000   0.57366408   -4.1129235    2243.0886  0.044836663  0.043631902            9 
 4170000   0.58661777   -4.1117983    2240.0011  0.044764211  0.043622358           10 
 4171000   0.59513031   -4.1046654    2249.6504  0.044946264  0.043612807           10 
 4172000   0.60086168   -4.1264926    2242.8417   0.04479949  0.043603226           19 
 4173000   0.57495249   -4.1204036    2247.6875  0.044885524  0.043593642           11 
 4174000   0.58408326   -4.1324147     2245.813  0.044837347  0.043584071           10 
 4175000   0.57936588   -4.1160376    2249.0599  0.044891416  0.043574474            8 
 4176000   0.58267891   -4.1322077    2243.0547  0.044760831  0.043564844           11 
 4177000   0.58227158   -4.1177265    2247.3574  0.044835954  0.043555237           15 
 4178000   0.57813277   -4.1061287    2246.5464  0.044809046  0.043545682           12 
 4179000   0.58811267   -4.1400711    2234.5418  0.044558942  0.043536032           21 
 4180000   0.58607786   -4.1166338    2240.3571  0.044664217  0.043526389            9 
 4181000    0.5691473   -4.1113361    2247.7028  0.044799945  0.043516802           16 
 4182000   0.58529154   -4.1327484    2245.7306  0.044749933  0.043507303            7 
 4183000   0.58197038   -4.1507833    2239.5274  0.044615655   0.04349772            6 
 4184000   0.57848973   -4.1310745    2246.0446  0.044734796  0.043488119            6 
 4185000   0.58208701    -4.130067    2239.8589  0.044600934  0.043478537           12 
 4186000   0.57509851   -4.1320899    2238.1985  0.044557224  0.043468921           12 
 4187000   0.57687323   -4.1194601    2242.4525  0.044631249  0.043459353            6 
 4188000   0.56569883   -4.1358277    2249.7326  0.044765454  0.043449775            6 
 4189000   0.58171217   -4.1205425    2241.4962  0.044590916   0.04344014           11 
 4190000   0.59103722   -4.1346915    2247.0849  0.044691427  0.043430489           11 
 4191000    0.5782506   -4.1467781    2248.1521  0.044701983  0.043420922            8 
 4192000   0.58294325   -4.1446907    2244.9641  0.044627943  0.043411342           14 
 4193000   0.59883596   -4.1517237    2243.8504  0.044595167  0.043401764            6 
 4194000   0.58143563   -4.1338824    2250.3872  0.044714418  0.043392211            4 
 4195000   0.58778696   -4.1108658    2252.3957  0.044743657  0.043382687           14 
 4196000   0.57707247   -4.1292521    2245.0452  0.044587012  0.043373163           10 
 4197000   0.57248369   -4.1337533    2247.9452  0.044633968  0.043363575           10 
 4198000   0.58496883   -4.1410268    2246.1355  0.044587413  0.043354016           12 
 4199000   0.57728861   -4.1218424    2247.3247  0.044600395  0.043344459           13 
 4200000   0.58325965   -4.1376248    2247.6854  0.044596932  0.043334895           18 
 4201000   0.58334872   -4.1272931    2245.9768  0.044552424  0.043325329           10 
 4202000   0.56886977   -4.1410916    2242.3461  0.044469818  0.043315819            9 
 4203000   0.58208547   -4.1415925    2246.4293  0.044540194  0.043306295           29 
 4204000   0.56168739   -4.1320867    2246.7547  0.044536051  0.043296754            8 
 4205000   0.58076235   -4.1458169    2247.2066  0.044534415  0.043287226           11 
 4206000   0.57341768   -4.1541675    2249.3813  0.044566915  0.043277704           16 
 4207000   0.57838357   -4.1560016    2246.0459  0.044490252  0.043268177            8 
 4208000   0.57709802   -4.1367789    2249.3366  0.044544847  0.043258635            7 
 4209000   0.57297227   -4.1310885    2243.7345  0.044423348   0.04324912            7 
 4210000   0.56986407   -4.1498781    2247.3246  0.044483859  0.043239625            6 
 4211000   0.57105452   -4.1566199    2252.9178  0.044583983  0.043230067           15 
 4212000   0.58430132   -4.1290432    2250.5921  0.044527384  0.043220587           10 
 4213000   0.57517351   -4.1435579    2247.0237  0.044446232  0.043211123           11 
 4214000   0.57419824   -4.1521087    2242.4865   0.04434596   0.04320163           13 
 4215000   0.58742775   -4.1318354     2254.184  0.044566706  0.043192148           14 
 4216000   0.57027942   -4.1420247    2246.9562  0.044413271  0.043182667           12 
 4217000   0.57917684   -4.1313605    2251.6095  0.044494694  0.043173208            6 
 4218000   0.57117205     -4.13164    2254.4845  0.044540947  0.043163811           15 
 4219000    0.5857835   -4.1430839    2253.8465  0.044517787  0.043154425           13 
 4220000   0.57434499   -4.1394578     2248.289  0.044397491   0.04314501            6 
 4221000   0.56722923   -4.1490315    2248.0514  0.044382283  0.043135601           19 
 4222000   0.58128176   -4.1463963    2253.9683  0.044488559  0.043126179           21 
 4223000   0.57659301   -4.1300537    2253.3576  0.044465973  0.043116726           12 
 4224000   0.58460259   -4.1479514     2245.317  0.044296816  0.043107243            6 
 4225000   0.57269742    -4.153976    2241.4634  0.044210324  0.043097724            9 
 4226000   0.55533052    -4.138971    2250.9149  0.044386238  0.043088174            6 
 4227000   0.56899246   -4.1317212    2250.6903  0.044371309  0.043078646           10 
 4228000    0.5762039   -4.1446537    2244.3304  0.044235461  0.043069111            9 
 4229000   0.57563644   -4.1529691    2249.9895  0.044336516  0.043059614            6 
 4230000   0.57412595   -4.1401387    2255.0335  0.044425403  0.043050106           11 
 4231000   0.57674646   -4.1421486    2244.7248  0.044211866  0.043040622           13 
 4232000   0.57287795   -4.1238276    2257.0899  0.044444903  0.043031129            7 
 4233000   0.55658083   -4.1271945    2250.0416  0.044295645  0.043021741           21 
 4234000   0.58466095   -4.1612162    2245.4099  0.044194023   0.04301232           17 
 4235000   0.58335096   -4.1593484    2251.7658  0.044308655  0.043002862            9 
 4236000   0.56757418   -4.1449789     2249.087  0.044245494  0.042993432           18 
 4237000   0.56698699   -4.1270045    2254.5985  0.044343452  0.042984037            7 
 4238000   0.56849736   -4.1442276      2253.56  0.044312568  0.042974652           11 
 4239000   0.57343569   -4.1615652     2252.665  0.044284521  0.042965212           10 
 4240000   0.59255011   -4.1467409    2246.8197  0.044159192  0.042955757            9 
 4241000   0.57853337   -4.1582852    2251.3712  0.044238214  0.042946271            8 
 4242000   0.56078991   -4.1617243    2253.8684  0.044276843  0.042936787            7 
 4243000   0.56973295   -4.1624976    2251.4348   0.04421861  0.042927311           34 
 4244000   0.56088599   -4.1336769    2259.3275  0.044363169  0.042917886           17 
 4245000   0.57375073   -4.1549468    2251.1778  0.044192733   0.04290846            9 
 4246000   0.57496706   -4.1398818    2253.7535  0.044232877  0.042899043           10 
 4247000   0.57393843   -4.1528672    2253.6522  0.044220473  0.042889604           18 
 4248000   0.57182532   -4.1513279    2252.2907  0.044183356  0.042880157            8 
 4249000   0.57191977   -4.1373603    2253.4476  0.044195647  0.042870696            9 
 4250000   0.57892871   -4.1552553    2250.0752  0.044119121  0.042861242           15 
 4251000   0.55887831   -4.1561884    2248.0509   0.04406906  0.042851792           20 
 4252000   0.56506697    -4.152882    2252.1132  0.044138311  0.042842352            8 
 4253000   0.57239213   -4.1558356    2253.5929  0.044156926  0.042832906           20 
 4254000   0.57674482   -4.1354273    2255.3865  0.044181681   0.04282347            6 
 4255000   0.58051284   -4.1177709    2252.3783  0.044112384   0.04281408            5 
 4256000   0.57499622   -4.1482417    2251.9476  0.044093586  0.042804648           25 
 4257000   0.56719926   -4.1476411    2256.0738  0.044164001  0.042795218           10 
 4258000   0.58145165   -4.1533528      2254.91  0.044130852  0.042785821           12 
 4259000   0.57012739   -4.1566587    2247.7626  0.043980642  0.042776366           15 
 4260000   0.56857249    -4.155759    2249.3144  0.044000673  0.042766907           10 
 4261000   0.56456724   -4.1489388    2256.5657  0.044132162  0.042757464            9 
 4262000   0.57425096   -4.1510397    2253.2198  0.044056385  0.042748023           10 
 4263000    0.5809729   -4.1548561    2250.6664  0.043996137  0.042738572            6 
 4264000   0.56872009   -4.1620973    2255.7978  0.044086104    0.0427291            6 
 4265000   0.57462089   -4.1600762    2254.4706  0.044049836  0.042719672            9 
 4266000   0.56379641   -4.1547822    2247.7264  0.043907767  0.042710256           13 
 4267000   0.56429833   -4.1524128    2253.2194  0.044004754  0.042700832           16 
 4268000   0.57364386   -4.1432096    2254.1758  0.044013116  0.042691425           18 
 4269000    0.5591397   -4.1436323    2254.8825  0.044016602  0.042682068            9 
 4270000    0.5747475   -4.1586515    2248.8124  0.043887829  0.042672629           13 
 4271000   0.56605543   -4.1560295    2252.0362  0.043940455   0.04266319           10 
 4272000    0.5770809   -4.1590187    2254.4174  0.043976619  0.042653761           12 
 4273000   0.55898122   -4.1530707    2256.2584  0.044002231  0.042644358           14 
 4274000   0.57059509   -4.1422689    2254.1697  0.043951211  0.042634948           18 
 4275000   0.57198519   -4.1620509    2251.2044  0.043883127  0.042625529           26 
 4276000   0.55065143   -4.1453581    2256.1628  0.043969497   0.04261608           13 
 4277000   0.56477802   -4.1536783    2247.3663  0.043787825  0.042606682           20 
 4278000   0.56194799   -4.1652871    2259.5187  0.044014311  0.042597282            8 
 4279000   0.56681275   -4.1561236    2251.7252  0.043852248   0.04258789           15 
 4280000   0.56602615   -4.1741817    2254.4165  0.043894402  0.042578451            9 
 4281000   0.58155103   -4.1508451    2253.8297  0.043872726  0.042569058           21 
 4282000   0.56638415   -4.1653762    2253.6049  0.043858105  0.042559646           12 
 4283000   0.55898788   -4.1350472      2252.18  0.043820142  0.042550244            6 
 4284000   0.57625657    -4.158251    2258.0331  0.043923769  0.042540869           12 
 4285000   0.56344359   -4.1421416    2255.5172   0.04386459  0.042531568           13 
 4286000   0.56891669   -4.1704295     2254.665  0.043837785  0.042522201           15 
 4287000   0.56957218   -4.1612116    2254.9031  0.043832189  0.042512819           19 
 4288000   0.56516904   -4.1760178    2253.6433  0.043797484  0.042503409           22 
 4289000   0.55872314   -4.1586155     2252.363  0.043762396  0.042494029            7 
 4290000   0.57543351   -4.1725647    2256.3567  0.043829772  0.042484634           13 
 4291000   0.56812707   -4.1583168    2258.4245  0.043859716  0.042475232            9 
 4292000   0.55861291   -4.1580269    2255.2179  0.043787238  0.042465789           11 
 4293000   0.56187904   -4.1793378    2248.6789  0.043650106  0.042456335            7 
 4294000   0.56997573     -4.15186     2249.939  0.043664396  0.042446866           19 
 4295000   0.55263774   -4.1254472    2260.9724  0.043868305  0.042437467           16 
 4296000   0.56082268   -4.1524022    2252.1956  0.043687841  0.042428075            8 
 4297000   0.56270651   -4.1567245    2253.2763  0.043698632  0.042418664            9 
 4298000   0.55701346   -4.1625839    2253.7117  0.043696907  0.042409266            7 
 4299000   0.55479708   -4.1746869    2253.0966  0.043674821  0.042399874           26 
 4300000   0.56205879   -4.1566129    2260.8212  0.043814364   0.04239046            9 
 4301000   0.56469441   -4.1626172     2257.738   0.04374444   0.04238104            7 
 4302000   0.55966429    -4.160548    2258.1745  0.043742727  0.042371651           16 
 4303000   0.56459066   -4.1292078    2254.0143  0.043651993  0.042362283           13 
 4304000   0.57181886   -4.1397431    2253.9617  0.043640833  0.042352907           25 
 4305000   0.55752906   -4.1550563    2254.6148  0.043643337    0.0423435            7 
 4306000   0.56989073   -4.1649414     2252.039  0.043583353   0.04233407           18 
 4307000   0.56399429   -4.1674589    2249.4693  0.043523515  0.042324645            9 
 4308000   0.56661953   -4.1968629    2244.1422  0.043410364   0.04231514           13 
 4309000   0.55498828   -4.1721723    2256.0533  0.043630643  0.042305608           29 
 4310000   0.56046465   -4.1698667    2247.9151  0.043463169  0.042296097            9 
 4311000   0.57437538   -4.1640853    2252.9307   0.04355004  0.042286603           16 
 4312000    0.5544168   -4.1424792    2251.6502  0.043515195  0.042277075            9 
 4313000   0.55148714   -4.1559359    2255.9331  0.043587857    0.0422676            7 
 4314000   0.56002663   -4.1604388    2254.1625  0.043543551  0.042258182            7 
 4315000   0.56658228   -4.1722428    2250.5842  0.043464353  0.042248698            7 
 4316000   0.56678224   -4.1672013    2253.8407  0.043517158  0.042239126            9 
 4317000   0.56868615   -4.1635694     2251.904  0.043469693  0.042229595           11 
 4318000   0.54844426   -4.1915036     2247.127  0.043367435  0.042220009            9 
 4319000   0.57399878   -4.1608404    2254.9148  0.043507656  0.042210452           12 
 4320000   0.56286153   -4.1625797    2248.2142  0.043368329   0.04220093            8 
 4321000   0.55832255   -4.1598661    2245.9273  0.043314189  0.042191396           12 
 4322000   0.56429548   -4.1793949    2247.8201  0.043340662  0.042181885            5 
 4323000   0.55983273   -4.1740298    2249.8551  0.043369865  0.042172375            6 
 4324000   0.56093901   -4.1642587    2250.9604  0.043381135  0.042162835            8 
 4325000   0.55422892   -4.1627474    2253.7913  0.043425652  0.042153355           15 
 4326000   0.56192123   -4.1741769    2254.8131  0.043435296  0.042143872            9 
 4327000   0.55092251   -4.1800683    2249.2362  0.043317853  0.042134411           16 
 4328000   0.55639118   -4.1618922    2247.2638  0.043269867  0.042124906           23 
 4329000    0.5544225   -4.1751355    2253.3395  0.043376829   0.04211541           14 
 4330000   0.55365064   -4.1647397    2249.2729  0.043288547  0.042105897           17 
 4331000    0.5577995    -4.175382    2250.9929  0.043311647  0.042096354           17 
 4332000   0.55283395   -4.1735449    2250.6435  0.043294927  0.042086805           19 
 4333000   0.54722523   -4.1831475    2253.8282  0.043346184  0.042077248            7 
 4334000   0.56424217   -4.1730736    2250.7366  0.043276737  0.042067667           13 
 4335000   0.55033336   -4.1537947    2253.1273  0.043312713  0.042058158           15 
 4336000   0.55889905   -4.1720031    2252.9127  0.043298599  0.042048591           12 
 4337000   0.55244784   -4.1695922    2255.6342  0.043340908   0.04203904           18 
 4338000   0.56616572   -4.1699955    2251.6177   0.04325376  0.042029523            6 
 4339000   0.56372904   -4.1606102     2250.491  0.043222152  0.042020016            7 
 4340000   0.54582726   -4.1688823    2250.9644  0.043221283   0.04201049           10 
 4341000    0.5641852   -4.1593343    2254.7417  0.043283838  0.042000974            9 
 4342000   0.56109392   -4.1867227    2245.4824  0.043096162  0.041991425           14 
 4343000   0.55389005     -4.17677    2248.7913  0.043149729  0.041981842           14 
 4344000   0.56763337   -4.1737046    2250.0817  0.043164551  0.041972299           12 
 4345000    0.5547791   -4.1700119    2250.8419  0.043169197   0.04196276           20 
 4346000   0.56454182   -4.1650876    2251.9801  0.043181088  0.041953234           18 
 4347000    0.5530384   -4.1815067    2254.0509  0.043210853  0.041943682           15 
 4348000   0.55863435   -4.1844512    2250.4171  0.043131269  0.041934166           26 
 4349000   0.55894465   -4.1758537    2246.5481  0.043047216   0.04192461           11 
 4350000   0.55540828   -4.1755122    2253.2509  0.043165726  0.041915076            9 
 4351000   0.57266329   -4.1747284    2253.7426  0.043165223   0.04190557           10 
 4352000   0.56223889    -4.181516    2247.4022  0.043033897  0.041895959           17 
 4353000    0.5541042   -4.1926598    2249.5341  0.043064823  0.041886391            5 
 4354000   0.55549005   -4.1663101    2251.0016   0.04308302  0.041876834           13 
 4355000   0.55623893   -4.1949001    2248.6066  0.043027297  0.041867297           14 
 4356000   0.55232374   -4.1946748    2250.1757  0.043047439  0.041857716           17 
 4357000   0.55834369   -4.1852453    2246.2395  0.042962274  0.041848178           21 
 4358000   0.56154452   -4.2041383    2255.1983  0.043123725  0.041838604           11 
 4359000    0.5583896   -4.1823279    2249.1554  0.042998305   0.04182905           15 
 4360000   0.55400814   -4.1662901    2251.9594  0.043042037  0.041819489            6 
 4361000   0.55395286   -4.1998492     2253.413  0.043059945  0.041809933            6 
 4362000   0.54606562   -4.1871535    2245.4816  0.042898547  0.041800358           16 
 4363000   0.55035654   -4.1763948    2252.0392  0.043013965  0.041790821           18 
 4364000   0.56156327   -4.1758671    2250.3252  0.042971379  0.041781269           13 
 4365000   0.55491306    -4.201578    2247.4518  0.042906677  0.041771701            7 
 4366000   0.56351261   -4.2016736    2251.5772  0.042975591  0.041762097            6 
 4367000   0.56017025    -4.187199    2246.4657   0.04286821  0.041752551           14 
 4368000   0.55722266   -4.1923291    2250.6399  0.042938033  0.041742933           19 
 4369000   0.54505529   -4.2057427    2244.8605   0.04281797  0.041733323           12 
 4370000   0.55928995     -4.20217    2249.5336  0.042897284  0.041723736           16 
 4371000   0.55451802   -4.2087127    2246.7775  0.042834926  0.041714169            9 
 4372000      0.55181   -4.2062679    2247.9819  0.042848084  0.041704555            4 
 4373000   0.55680406   -4.2103291    2245.6908  0.042794627   0.04169495           22 
 4374000   0.54880271   -4.2055889    2255.7445  0.042976386  0.041685349           24 
 4375000   0.56827424   -4.1768796    2252.8492  0.042911413  0.041675774            9 
 4376000   0.55556045   -4.1944851    2250.4061  0.042855083  0.041666202           13 
 4377000   0.55233523   -4.1876837    2255.9511  0.042950863  0.041656651           14 
 4378000   0.55717645   -4.1828726     2248.509  0.042799395  0.041647134           18 
 4379000   0.55297189    -4.184279    2252.0122  0.042856288  0.041637609           10 
 4380000   0.56906461   -4.1825332    2250.6243  0.042820097  0.041628087           14 
 4381000   0.54971568   -4.1811752    2249.4828  0.042788611  0.041618594           21 
 4382000   0.56110592   -4.1902594    2251.0644  0.042808923  0.041609073           10 
 4383000   0.54552307   -4.1736573    2243.9748  0.042664363  0.041599462           23 
 4384000   0.55611461   -4.1681018    2252.6787  0.042820078  0.041589932           17 
 4385000   0.55806632   -4.1847506    2253.1469  0.042819212  0.041580414           10 
 4386000   0.55732163   -4.1754209    2252.1309  0.042790144  0.041570891           11 
 4387000   0.54243793   -4.1991845    2252.5762  0.042788849  0.041561376           10 
 4388000   0.54847666   -4.1881825     2251.197  0.042752906  0.041551776           17 
 4389000   0.55196381   -4.1840562    2249.2962  0.042707075  0.041542273           10 
 4390000    0.5578299   -4.1967616     2248.268  0.042677829   0.04153275           21 
 4391000   0.54522352   -4.1869101    2249.4807  0.042691123  0.041523171           25 
 4392000   0.54274077   -4.1821315    2248.9489  0.042671313  0.041513597            9 
 4393000   0.54582018   -4.1748658    2250.5704   0.04269236  0.041504116           14 
 4394000    0.5448946   -4.1861315    2252.5731  0.042720626  0.041494624           15 
 4395000   0.53952734   -4.1839286     2249.606  0.042654646  0.041485086            9 
 4396000   0.53908337   -4.2080675    2251.4758  0.042680387  0.041475533           12 
 4397000   0.54066809   -4.2031113    2248.4024  0.042612432  0.041465914           26 
 4398000   0.54232386   -4.1936525    2256.6622  0.042759251  0.041456325           13 
 4399000   0.55264287   -4.1939492    2252.3208  0.042667288   0.04144672           11 
 4400000   0.54986086    -4.190327    2249.1399  0.042597348  0.041437141            7 
 4401000   0.54547577   -4.1978469    2257.5639  0.042747177  0.041427582           15 
 4402000   0.54999552   -4.2112969    2250.3389  0.042600691  0.041418065           11 
 4403000   0.54087827   -4.2138816    2252.6836  0.042635393  0.041408466           29 
 4404000   0.54470934   -4.2019525    2246.7305  0.042513066  0.041398913           13 
 4405000   0.53436775   -4.2042745    2247.4129  0.042516325   0.04138935           18 
 4406000   0.53447204   -4.2128303    2246.5388  0.042490142  0.041379742            8 
 4407000   0.55358093   -4.1900518    2250.1955  0.042549646  0.041370169           21 
 4408000   0.54388333   -4.1893116    2251.8057  0.042570434  0.041360615           15 
 4409000   0.54897089   -4.1854946    2252.3383  0.042570846  0.041351076            7 
 4410000   0.54699825    -4.203752    2251.5087  0.042545516  0.041341516           14 
 4411000   0.54194334   -4.2002472    2247.3133   0.04245661  0.041331946            8 
 4412000    0.5499301   -4.1934207    2247.8551   0.04245722  0.041322338            9 
 4413000    0.5449746    -4.210345    2247.4875  0.042440659  0.041312754            5 
 4414000    0.5468581   -4.2086348    2251.4737    0.0425063    0.0413032            8 
 4415000   0.53238394   -4.1856877    2246.8511   0.04240942  0.041293632            9 
 4416000   0.54705037   -4.1821079    2240.3522  0.042277178  0.041284035           11 
 4417000   0.53202268    -4.209977    2239.4823  0.042251194  0.041274442           10 
 4418000   0.55151392   -4.2045726    2246.4919  0.042373848  0.041264856           10 
 4419000   0.54626346   -4.2088669    2247.5813  0.042384802  0.041255267           10 
 4420000   0.55499186   -4.2088514    2246.1562  0.042348344  0.041245685           15 
 4421000   0.55482688   -4.2014302    2249.2833  0.042397709  0.041236098            8 
 4422000   0.55451432   -4.1911072    2248.7153  0.042377418  0.041226526           10 
 4423000   0.52894893   -4.2024342    2248.4881  0.042363557   0.04121699           11 
 4424000   0.53947989   -4.2187038    2252.0689   0.04242143  0.041207369            6 
 4425000   0.53769899   -4.1970471    2251.2111   0.04239569  0.041197796           11 
 4426000   0.55917422   -4.2028503     2256.057  0.042477349  0.041188272           11 
 4427000   0.55303461   -4.2129907    2246.7506  0.042292573  0.041178739           11 
 4428000   0.54743399   -4.2174671    2248.2102   0.04231049  0.041169163           29 
 4429000   0.54747561   -4.1849851    2252.1762  0.042375558  0.041159587           16 
 4430000    0.5439019   -4.2097079    2247.1526  0.042271493  0.041149974           40 
 4431000   0.54325623   -4.2193104    2245.9546  0.042239423  0.041140403           16 
 4432000   0.52800562     -4.19659    2255.1828  0.042403406  0.041130833           10 
 4433000   0.54522529   -4.2094299    2248.9153  0.042276023  0.041121307           16 
 4434000   0.53653336   -4.2032811    2246.9699  0.042229926   0.04111177           12 
 4435000   0.56274492   -4.2058697    2249.6402  0.042270579  0.041102262           11 
 4436000   0.54301108   -4.2023161    2253.1335  0.042326674   0.04109276           28 
 4437000     0.544198   -4.2311537     2253.169  0.042317801  0.041083228           16 
 4438000   0.54534576   -4.2083655    2250.8589  0.042264888   0.04107371            7 
 4439000   0.53697194   -4.2165743    2246.7875  0.042178936  0.041064183            8 
 4440000   0.53996061   -4.2110044    2249.9909   0.04222956  0.041054596           28 
 4441000   0.54720094   -4.2080851    2250.8357  0.042235902   0.04104501           10 
 4442000   0.53959199    -4.202238    2247.5136  0.042164071  0.041035455           11 
 4443000   0.54340298    -4.204255    2250.9209  0.042218488  0.041025924           15 
 4444000   0.54196915   -4.2115347    2256.6242  0.042315936  0.041016403           14 
 4445000   0.54627254   -4.2159617    2255.7798  0.042290585  0.041006886           11 
 4446000   0.54942633   -4.2277672    2246.6506   0.04210996  0.040997338           28 
 4447000   0.53458578   -4.2096066     2251.324  0.042188066  0.040987811           21 
 4448000   0.54727274   -4.2139767     2252.903  0.042208165  0.040978324            7 
 4449000    0.5362113   -4.1949204     2255.674   0.04225058   0.04096883           14 
 4450000   0.54816969   -4.2209536    2249.6796  0.042128831  0.040959369           15 
 4451000   0.55035146   -4.2281923     2249.147  0.042109395  0.040949854           22 
 4452000   0.54750353   -4.2225373    2252.2608  0.042158222  0.040940339            8 
 4453000   0.54046873   -4.2114744    2250.8512  0.042122375  0.040930861           10 
 4454000   0.53173995   -4.1930528    2257.2161  0.042232002  0.040921402            8 
 4455000   0.54754613   -4.2245997     2249.415  0.042076599  0.040911935           16 
 4456000   0.54111232    -4.210268    2247.9998  0.042040691  0.040902442           16 
 4457000   0.55341579   -4.2149292    2255.8352  0.042177758  0.040892956           22 
 4458000   0.53717881     -4.21845    2251.7623  0.042092163  0.040883485           19 
 4459000   0.52975556   -4.2245456    2256.9784  0.042180204  0.040874026           11 
 4460000   0.53439399   -4.2267293    2248.0206  0.042003375  0.040864571           27 
 4461000   0.54581177   -4.2210692    2254.4977  0.042114954  0.040855153           11 
 4462000   0.54218631   -4.2033497    2256.7311  0.042147227  0.040845755            9 
 4463000   0.54933722   -4.1974519     2256.015  0.042124413  0.040836345           11 
 4464000   0.53302464   -4.2118662    2253.3917  0.042066004  0.040826968           16 
 4465000   0.53355726   -4.2118547    2256.7489   0.04211924  0.040817568            7 
 4466000   0.53724972   -4.2379061    2250.3861  0.041991083  0.040808107            8 
 4467000   0.54040383   -4.2106724    2254.8199  0.042064396  0.040798673           11 
 4468000   0.52785115   -4.2228809    2255.5115  0.042067882  0.040789186           18 
 4469000    0.5304464   -4.2110818    2256.5114  0.042077113  0.040779726           19 
 4470000   0.53620125   -4.2102255    2253.6803  0.042014919   0.04077024           21 
 4471000   0.54122378   -4.2326558    2253.2013  0.041996595  0.040760749           17 
 4472000   0.54397356   -4.2263276    2253.3426  0.041989837   0.04075134           14 
 4473000   0.53479571   -4.2171449     2249.997  0.041918119  0.040741881            9 
 4474000   0.52853271   -4.2189544    2256.2169  0.042024604  0.040732485           10 
 4475000   0.53181425   -4.2155187    2256.7829  0.042025752  0.040723077           16 
 4476000   0.53984573   -4.2261264    2250.8157  0.041905267  0.040713658            6 
 4477000   0.53570622   -4.2084479      2257.08  0.042012509  0.040704252           10 
 4478000    0.5498162    -4.213762    2253.8052  0.041942184  0.040694848           16 
 4479000   0.54617877   -4.2291222    2252.9009  0.041915996  0.040685426           20 
 4480000   0.53698544   -4.2088815     2254.503  0.041936439  0.040675988           13 
 4481000   0.53821888   -4.2162748    2256.2483  0.041959538  0.040666568           12 
 4482000   0.53140268   -4.2017771    2255.5748  0.041937655  0.040657135           37 
 4483000   0.54053442   -4.2342819    2247.9081  0.041785785   0.04064766           20 
 4484000   0.53058879   -4.2200504    2251.7578  0.041848011  0.040638212           12 
 4485000   0.52706766   -4.2146171    2248.4214  0.041776688  0.040628804           29 
 4486000   0.52893903   -4.2037617    2252.7915  0.041848557  0.040619389           16 
 4487000   0.52281287   -4.2193314    2258.8292  0.041951362  0.040609988           10 
 4488000   0.52595553   -4.2236875    2249.6429  0.041771444  0.040600551           14 
 4489000   0.54401693   -4.2076311    2251.2126  0.041791279   0.04059113           13 
 4490000   0.53456724   -4.2217712    2253.0578  0.041816218  0.040581752            8 
 4491000   0.53313571   -4.2153723    2250.0531  0.041751153  0.040572288           22 
 4492000    0.5458607   -4.2198396    2256.1202  0.041854412  0.040562868            7 
 4493000   0.53075634   -4.2366225    2253.9795  0.041805391  0.040553414           12 
 4494000   0.54721102   -4.2454879    2255.0726  0.041816358  0.040543946            5 
 4495000   0.54071663    -4.208015    2249.9416  0.041711932  0.040534505            7 
 4496000   0.53511404   -4.2237048    2252.0535  0.041741799  0.040525093            6 
 4497000   0.53402306   -4.2434896    2246.4691  0.041629033  0.040515665           20 
 4498000   0.52664822   -4.2258692    2253.1845  0.041744192  0.040506205           11 
 4499000   0.52105327   -4.2349655    2249.7554  0.041671397  0.040496745           30 
 4500000   0.52919177   -4.2162764    2256.5689  0.041788314  0.040487362           39 
 4501000    0.5283623   -4.2293882    2253.4893  0.041722012   0.04047797           13 
 4502000   0.51881045   -4.2395647    2259.7348  0.041828351  0.040468557           23 
 4503000   0.51670771   -4.2338661    2249.8045  0.041635289  0.040459141           15 
 4504000   0.53807793    -4.225293    2257.3624  0.041765882  0.040449739           13 
 4505000   0.53159797   -4.2434977    2256.6623  0.041743661  0.040440373           15 
 4506000   0.52158835   -4.2242013    2251.0164  0.041629983  0.040430942            9 
 4507000   0.52421447   -4.2196396    2257.7858  0.041745911  0.040421537            8 
 4508000      0.53201   -4.2333017    2256.1616  0.041706625  0.040412156           10 
 4509000   0.52793705   -4.2224158    2255.2196  0.041679965  0.040402789           11 
 4510000   0.53210986   -4.2265776    2251.3784  0.041599749  0.040393439           17 
 4511000    0.5231344   -4.2219034    2256.6308  0.041687556  0.040384081            6 
 4512000   0.52481176   -4.2212012    2257.0255  0.041685607  0.040374724            9 
 4513000   0.53335811   -4.2221373    2261.9992  0.041768211   0.04036536            8 
 4514000   0.51750093   -4.2391147    2252.9688  0.041592246  0.040355976            7 
 4515000    0.5295303   -4.2152556    2254.0838  0.041603614  0.040346597           19 
 4516000   0.53503685   -4.2286998    2251.9176  0.041554429  0.040337202           14 
 4517000   0.52991717   -4.2400069    2253.0399  0.041565934  0.040327822           12 
 4518000   0.53590625   -4.2246382     2254.045  0.041575272  0.040318471           14 
 4519000   0.52569526   -4.2451734    2252.2663  0.041533273  0.040309047           19 
 4520000   0.53108122   -4.2212656    2256.2567  0.041597652  0.040299648           10 
 4521000   0.53749419   -4.2294658    2252.4609  0.041518487  0.040290248           14 
 4522000   0.52633331    -4.234926     2256.863  0.041590428  0.040280856           11 
 4523000    0.5275088   -4.2214442    2254.4049  0.041535944  0.040271478           11 
 4524000   0.53363993   -4.2380439    2249.9012  0.041443804  0.040262095           18 
 4525000   0.52414534   -4.2440221    2251.2499  0.041459483  0.040252678           13 
 4526000   0.52553913   -4.2404934     2253.819  0.041497625  0.040243271           13 
 4527000   0.52043917   -4.2422892    2256.4616  0.041537103  0.040233892           11 
 4528000   0.53260656   -4.2195798    2257.3925  0.041545062   0.04022453           21 
 4529000   0.52905317   -4.2293471    2255.0275  0.041492373  0.040215142           11 
 4530000   0.52148202   -4.2396432    2252.2574  0.041432255  0.040205709           12 
 4531000   0.51695706   -4.2290046    2256.3784  0.041498905   0.04019631           14 
 4532000   0.52326709   -4.2343408    2254.0883  0.041447638  0.040186908           13 
 4533000   0.53055915   -4.2357415    2249.2819  0.041350134  0.040177514           22 
 4534000   0.53770004   -4.2478297     2253.095  0.041411098  0.040168122           20 
 4535000   0.52158421   -4.2436252    2253.8075  0.041415059  0.040158724           18 
 4536000   0.50970261   -4.2400583      2254.56  0.041419752  0.040149289           23 
 4537000   0.53289144   -4.2559364    2252.2924  0.041368974  0.040139877           17 
 4538000   0.52442676   -4.2287611     2252.687  0.041367104  0.040130447           23 
 4539000   0.52911437   -4.2424635    2255.5459  0.041410478  0.040121006           19 
 4540000   0.52773492   -4.2257974    2253.8579  0.041370373  0.040111602            8 
 4541000   0.51898842   -4.2180891    2256.5291  0.041410282  0.040102221           18 
 4542000   0.52275262   -4.2308741    2256.4821  0.041400304   0.04009284           13 
 4543000   0.52347378    -4.220813    2254.7688  0.041359762  0.040083476           21 
 4544000   0.52476935   -4.2314852    2254.3511  0.041343001  0.040074083           31 
 4545000   0.52266862   -4.2370081    2252.5711  0.041301266   0.04006465           42 
 4546000   0.51410489   -4.2571926    2254.5874  0.041329142  0.040055248           50 
 4547000   0.53139564   -4.2397903    2251.5525  0.041264432  0.040045822           16 
 4548000   0.51581301   -4.2392371    2248.6559  0.041202284  0.040036379           24 
 4549000   0.52535574   -4.2459072    2253.5609  0.041283083  0.040026969            8 
 4550000   0.53744191     -4.26345    2254.5004  0.041291217  0.040017516           22 
 4551000   0.51547172   -4.2532589    2256.1636  0.041312598  0.040008093           15 
 4552000   0.52179203   -4.2381774     2251.425  0.041216773  0.039998674           11 
 4553000   0.52546584   -4.2306174    2250.2395  0.041186022   0.03998922           21 
 4554000   0.52136893   -4.2556301    2249.6842  0.041166816  0.039979757           16 
 4555000   0.52213903    -4.251542      2254.21  0.041240578  0.039970321           13 
 4556000   0.53181358   -4.2263926    2250.7129  0.041167561  0.039960921           13 
 4557000   0.52284131   -4.2506994     2257.097  0.041275273  0.039951547           11 
 4558000    0.5221579   -4.2313672    2254.9056  0.041226153  0.039942177            7 
 4559000   0.52858421   -4.2327066    2254.4846  0.041209413  0.039932826           17 
 4560000   0.51033974   -4.2231357    2249.4868  0.041109042  0.039923496           17 
 4561000    0.5244071   -4.2317167    2256.4689  0.041227598  0.039914113           12 
 4562000   0.51179632   -4.2577321    2251.7699  0.041132726  0.039904722           17 
 4563000   0.52383532   -4.2640006    2257.7838  0.041233541  0.039895299           10 
 4564000   0.51909792     -4.25473    2247.6758  0.041039947  0.039885935           14 
 4565000   0.53252138   -4.2415957    2252.1496  0.041112625  0.039876543           14 
 4566000   0.51727907   -4.2422684    2249.2041  0.041049862  0.039867149           12 
 4567000   0.52176476   -4.2401238     2258.268  0.041206262  0.039857744            8 
 4568000   0.53157587     -4.25343     2252.475  0.041091561   0.03984835            5 
 4569000   0.51603231   -4.2472083    2257.9555  0.041182526  0.039838969           18 
 4570000   0.52535544   -4.2447174    2251.3663  0.041053362  0.039829578           11 
 4571000   0.51900044   -4.2601149    2249.3441  0.041007512  0.039820204           12 
 4572000   0.52478766   -4.2605645    2250.5146  0.041019879  0.039810767           22 
 4573000   0.52338168   -4.2499737    2256.7442   0.04112443  0.039801362            8 
 4574000   0.52239229   -4.2476093    2247.5852  0.040948572  0.039791959           10 
 4575000   0.49640105   -4.2539899    2251.8002  0.041016397  0.039782539           16 
 4576000    0.5215691   -4.2562199    2246.0992  0.040903612  0.039773119           11 
 4577000    0.5246665   -4.2218955    2259.3849  0.041136569  0.039763742           20 
 4578000   0.51124517   -4.2609357    2252.0765  0.040994548  0.039754381            9 
 4579000   0.52672455   -4.2353933    2248.7651  0.040925331  0.039745031           12 
 4580000   0.52339609   -4.2590148    2256.0353  0.041048678  0.039735633           15 
 4581000    0.5140969   -4.2601015    2249.5719  0.040922141  0.039726241           10 
 4582000   0.51545472   -4.2804428    2247.1457  0.040869083  0.039716795           20 
 4583000     0.519468   -4.2587558    2250.9089  0.040928593  0.039707353           11 
 4584000   0.51094978   -4.2467145    2259.2475  0.041071254  0.039697923           14 
 4585000   0.51319378    -4.260722    2250.6823   0.04090662  0.039688473           11 
 4586000   0.52306036   -4.2553095    2250.7009  0.040898039  0.039679021           18 
 4587000   0.52402878   -4.2504113    2249.0693  0.040859481  0.039669601           11 
 4588000   0.51763083   -4.2408661    2243.8069  0.040754994  0.039660186           33 
 4589000   0.52033047   -4.2499963    2249.2335  0.040844656   0.03965077            9 
 4590000   0.51963883   -4.2370678    2250.4037  0.040857002  0.039641367           24 
 4591000   0.51798062   -4.2590584    2260.0395  0.041023007  0.039631999           35 
 4592000   0.52140268   -4.2375092    2252.3006  0.040873632  0.039622628           29 
 4593000   0.51906573   -4.2781366    2250.1388  0.040825511   0.03961323           39 
 4594000   0.51159404   -4.2526463     2259.904   0.04099376  0.039603849           38 
 4595000   0.52258293   -4.2484304    2254.1397    0.0408803  0.039594494           28 
 4596000   0.51310486   -4.2431843    2250.8167  0.040811152  0.039585152           42 
 4597000   0.52447322   -4.2495594    2252.0247  0.040824173  0.039575814           25 
 4598000    0.5176219   -4.2548938    2248.3015  0.040747816  0.039566437           20 
 4599000   0.52010384   -4.2436169    2256.7594  0.040892211  0.039557096           27 
 4600000   0.51058329   -4.2593215    2251.9791  0.040796723  0.039547749           22 
 4601000   0.51048009   -4.2451698    2260.2207  0.040937128  0.039538444           10 
 4602000   0.50914986    -4.245285    2259.4524   0.04091432  0.039529128           25 
 4603000   0.50558825   -4.2418245    2251.3818   0.04075932  0.039519789           12 
 4604000   0.52330257   -4.2716724     2248.289  0.040694487   0.03951041           16 
 4605000    0.5135663   -4.2615127    2253.9136  0.040787434   0.03950103           16 
 4606000   0.50904408   -4.2680415    2254.2479  0.040784627   0.03949163           24 
 4607000   0.51216786   -4.2775984    2252.7561   0.04074879  0.039482245           28 
 4608000   0.50521845   -4.2765343    2256.9273  0.040815381  0.039472886           27 
 4609000    0.5064136   -4.2766665    2251.3478  0.040705644   0.03946351           11 
 4610000   0.52126797   -4.2646349    2254.8304  0.040759768  0.039454152           11 
 4611000   0.51007181    -4.267972    2252.8828  0.040715731  0.039444853           28 
 4612000   0.51290705   -4.2530811    2251.0194  0.040673232  0.039435545           18 
 4613000   0.51300486   -4.2613989    2258.8982  0.040806746   0.03942624           78 
 4614000   0.51570705   -4.2778674    2249.6811  0.040631432  0.039416912           36 
 4615000   0.50432699   -4.2818761    2255.3224  0.040724493  0.039407575           17 
 4616000   0.51638003   -4.2661446    2252.2521  0.040660242  0.039398221           18 
 4617000   0.51029583   -4.2592869    2251.6346  0.040640289   0.03938887           13 
 4618000   0.52863979   -4.2728508    2249.5259  0.040593437  0.039379514           15 
 4619000   0.51283658   -4.2774968    2252.5953  0.040640025  0.039370176           35 
 4620000    0.5083002   -4.2816438    2254.8211  0.040671377  0.039360827           32 
 4621000   0.50173093   -4.2571209    2257.6432  0.040713467  0.039351514           41 
 4622000   0.51451641   -4.2635987    2254.5779  0.040649392  0.039342233           18 
 4623000   0.51958294   -4.2586583    2263.1018  0.040794249  0.039332951           14 
 4624000     0.516759   -4.2633244    2260.9396  0.040746461  0.039323661           21 
 4625000   0.51634083   -4.2670576    2256.4871  0.040657425  0.039314374           11 
 4626000   0.52354359   -4.2698765    2250.2736  0.040536705  0.039305047           15 
 4627000    0.5157347   -4.2670844    2257.0341  0.040649703  0.039295769           10 
 4628000   0.50455553   -4.2799682    2256.5404  0.040632029    0.0392865           14 
 4629000   0.50534533   -4.2868629    2255.7158  0.040608408  0.039277201           19 
 4630000   0.51025351   -4.2804964    2254.0805  0.040570204  0.039267909           12 
 4631000   0.51747901   -4.2794225    2256.5933   0.04060666  0.039258617           43 
 4632000   0.49868992   -4.2900447    2254.3822  0.040558115  0.039249313           12 
 4633000   0.51012358   -4.2663263     2257.676  0.040608604  0.039240041           16 
 4634000   0.51831814   -4.2697832    2255.4774  0.040560304  0.039230757           19 
 4635000   0.50461773   -4.2817443    2253.8525   0.04052234  0.039221446           20 
 4636000   0.50100199    -4.282139    2257.3038  0.040575637  0.039212162           12 
 4637000   0.50811713   -4.2646026    2251.0025  0.040453642  0.039202911           66 
 4638000    0.5067037   -4.2921411    2247.1907  0.040376432  0.039193622           20 
 4639000   0.50937723   -4.2857182    2256.4665  0.040534356  0.039184305           22 
 4640000   0.50866722    -4.267975    2253.1271  0.040465644  0.039175005           11 
 4641000   0.51219678   -4.2696483    2255.9152  0.040506988  0.039165736           25 
 4642000   0.50238252   -4.2655026    2251.3021  0.040415448  0.039156423           10 
 4643000   0.51778595    -4.279099    2256.7078  0.040503765  0.039147174            9 
 4644000   0.49265539   -4.2592555      2255.34    0.0404705  0.039137895           27 
 4645000   0.51103524   -4.2687535     2257.832  0.040506494   0.03912862           21 
 4646000   0.49608325   -4.2619588    2257.4625  0.040491148  0.039119361           12 
 4647000   0.50636668   -4.2728779    2257.9592  0.040491343   0.03911007           29 
 4648000   0.50240004   -4.2619543    2254.8345  0.040426609  0.039100784           12 
 4649000   0.50344796   -4.2655872    2256.4861  0.040447517  0.039091495           12 
 4650000   0.50633835    -4.248011     2250.201  0.040326183  0.039082219           21 
 4651000   0.51182938   -4.2813529    2255.6347  0.040414869  0.039072936           17 
 4652000   0.50269844   -4.2741312    2257.2402  0.040434942  0.039063698           15 
 4653000   0.50318082    -4.276202    2253.4053   0.04035757  0.039054442           26 
 4654000    0.4971101   -4.2699636    2256.7266   0.04040837  0.039045199           15 
 4655000   0.50072871   -4.2783342    2261.6014  0.040486956  0.039035962           12 
 4656000   0.49749755   -4.2693821    2255.3823  0.040366951  0.039026737           19 
 4657000   0.50932163   -4.2582724    2254.0963  0.040335271  0.039017482           18 
 4658000   0.50200028   -4.2798163    2254.0719  0.040326175  0.039008233           20 
 4659000   0.51974103   -4.2830438    2260.0038  0.040423621  0.038998957           23 
 4660000   0.50382752   -4.2833635    2253.8935  0.040305678  0.038989663           27 
 4661000   0.51096718   -4.2645074    2254.0441  0.040299723  0.038980374           58 
 4662000   0.48788756   -4.2833344    2254.5428  0.040299993  0.038971092           26 
 4663000   0.51421427   -4.2888174    2251.6755  0.040240109  0.038961799           38 
 4664000   0.50672071   -4.2809688    2251.2526  0.040223924  0.038952543           17 
 4665000   0.50301748   -4.2642368    2251.2673  0.040215565  0.038943276           15 
 4666000    0.5068026    -4.268781    2253.7538  0.040251354   0.03893403           28 
 4667000   0.50321832    -4.281454    2251.0058   0.04019366  0.038924765           17 
 4668000   0.49175032   -4.2838022    2254.4117  0.040245854  0.038915508           45 
 4669000   0.50872136   -4.2879417     2251.072  0.040177626  0.038906249           12 
 4670000   0.50575089   -4.2774759    2250.6235  0.040161018  0.038897005           13 
 4671000   0.50242938   -4.2900021    2258.2141  0.040287842  0.038887767            8 
 4672000   0.50033231   -4.2810348    2256.2892  0.040244885  0.038878525           11 
 4673000   0.52848929   -4.2966777    2258.9136  0.040283073  0.038869286           14 
 4674000   0.50795497   -4.2757845     2252.373  0.040157841  0.038860054           23 
 4675000   0.51085074   -4.2975019    2255.7373  0.040209221  0.038850831           11 
 4676000   0.49743723   -4.2760378    2256.1334   0.04020768  0.038841561           20 
 4677000   0.50627696   -4.2914223     2256.309  0.040202212  0.038832315           19 
 4678000   0.49690625    -4.277661     2255.709  0.040182932  0.038823088           10 
 4679000   0.48991624   -4.2840935    2258.4101  0.040222449  0.038813872           11 
 4680000   0.49607594   -4.2795266    2254.9895  0.040152946   0.03880465            9 
 4681000   0.50385089   -4.2956716      2254.04  0.040127465  0.038795432           13 
 4682000   0.50603526   -4.2762002    2256.9158  0.040170081  0.038786225           10 
 4683000   0.51074998   -4.2697698    2251.6907  0.040068522  0.038777036           19 
 4684000   0.49833252   -4.2685343    2261.4038  0.040232775  0.038767862           16 
 4685000   0.49914485   -4.2749805    2255.0862  0.040111814   0.03875868           28 
 4686000   0.50398091   -4.2760325    2259.4765  0.040181329  0.038749479           11 
 4687000   0.49747235   -4.2874057    2254.1871  0.040078713  0.038740262           19 
 4688000   0.50495399   -4.2756369    2250.5584  0.040005661  0.038731073           53 
 4689000   0.49604129   -4.2656776    2256.0238  0.040094259  0.038721907           82 
 4690000   0.51195749   -4.2928467    2255.6091  0.040078342  0.038712709           78 
 4691000    0.4985649   -4.2890339    2252.1746  0.040008787  0.038703505           22 
 4692000   0.50468082   -4.2907311    2257.0746  0.040087287  0.038694302           48 
 4693000    0.5050604   -4.3004867    2253.3765  0.040013078  0.038685085           34 
 4694000   0.49478885   -4.2805464    2256.7042  0.040063632  0.038675875           42 
 4695000   0.50799498   -4.2909939     2256.859  0.040057845  0.038666708           19 
 4696000   0.49368655   -4.2901254    2253.5184  0.039990035   0.03865747           37 
 4697000   0.50269517   -4.3107622    2253.2565  0.039976874  0.038648231           20 
 4698000   0.50545766   -4.3040877    2259.9239  0.040086631  0.038638978            9 
 4699000   0.50338006   -4.2788679    2254.0201  0.039973401  0.038629742           12 
 4700000   0.50191439   -4.2998135    2260.9257  0.040087336  0.038620563           15 
 4701000   0.50462428   -4.2970029     2250.684  0.039897255  0.038611349           25 
 4702000   0.49934027   -4.3110202    2248.1406  0.039843693  0.038602123           13 
 4703000   0.51362056   -4.2947887    2255.7524  0.039970096  0.038592883           40 
 4704000   0.49491701   -4.2856597    2254.4903  0.039939241  0.038583667           12 
 4705000   0.50651244   -4.2963243    2250.5635  0.039861203  0.038574446           34 
 4706000   0.50387816   -4.3078256    2248.8774  0.039822875  0.038565221           25 
 4707000    0.4957034   -4.2830783    2249.8243  0.039831179  0.038556025           23 
 4708000   0.48506326   -4.2847317    2257.4126  0.039957034  0.038546828           29 
 4709000   0.49946058   -4.2845477    2255.2022  0.039909433  0.038537621           36 
 4710000   0.49888886   -4.2954167    2252.0739  0.039845611  0.038528416           83 
 4711000   0.49023897   -4.2879738      2256.75  0.039919868  0.038519202           52 
 4712000   0.49125341   -4.2832703    2257.2229  0.039919761  0.038509955           22 
 4713000   0.48941668   -4.2857386     2255.105  0.039873841  0.038500754           22 
 4714000   0.49894336    -4.304146    2256.0753  0.039882536  0.038491518           28 
 4715000   0.49691994   -4.3025759    2253.8755  0.039835198  0.038482323           20 
 4716000    0.4852916   -4.2912341    2257.6221  0.039892955  0.038473105           26 
 4717000   0.49388804   -4.3020327    2255.4251  0.039845684  0.038463903           26 
 4718000    0.4957861   -4.2890978    2257.4319  0.039872685   0.03845474           37 
 4719000   0.49547803   -4.3028786    2256.9795  0.039856245  0.038445562           13 
 4720000   0.48697178   -4.3027574    2256.0421  0.039831251  0.038436386           13 
 4721000   0.49879284   -4.2929809    2261.3233  0.039916037  0.038427238           20 
 4722000   0.48258806   -4.3054162    2248.4261  0.039679974  0.038418044           12 
 4723000   0.50207318   -4.3226197    2253.6888  0.039764429  0.038408854           24 
 4724000   0.50551387   -4.2969215    2251.1173  0.039710649  0.038399654           14 
 4725000   0.50453656   -4.2908805    2256.8855  0.039803978  0.038390472           18 
 4726000   0.49712312   -4.2976521    2257.8916  0.039813296  0.038381306           15 
 4727000    0.5022285   -4.2780591    2251.3365  0.039689311  0.038372165           14 
 4728000   0.50042315   -4.2965509    2256.9232  0.039779386  0.038363017           23 
 4729000   0.49633943   -4.2990912    2255.3541  0.039743323  0.038353844           18 
 4730000   0.48662064   -4.3002749    2255.4022  0.039735768  0.038344681           32 
 4731000   0.48284675   -4.2890679    2253.8625  0.039700248   0.03833551           25 
 4732000   0.49144629   -4.3150227    2250.0032  0.039623893  0.038326347           26 
 4733000   0.49232603   -4.2921595    2251.8819    0.0396486  0.038317156           40 
 4734000   0.50103878   -4.2863535    2254.6099  0.039688247  0.038307957           15 
 4735000   0.49580471   -4.2970348    2254.6978  0.039681411  0.038298757           42 
 4736000   0.50153747   -4.2970793    2257.8003  0.039727624  0.038289562           20 
 4737000   0.49804021     -4.30232    2251.3148  0.039605144  0.038280357           36 
 4738000   0.50111753   -4.3100446    2256.2434  0.039683471   0.03827114           26 
 4739000    0.4905506   -4.3208207    2250.6007  0.039575872  0.038261938           31 
 4740000     0.498527   -4.2868569    2250.9967  0.039574486  0.038252714           33 
 4741000   0.49384046   -4.3076191    2250.0235  0.039549032  0.038243526           43 
 4742000   0.49253787    -4.307831    2249.1447  0.039525248  0.038234324           49 
 4743000   0.50151239   -4.3137011    2252.5063  0.039575977  0.038225134           34 
 4744000   0.50635664   -4.2986317    2257.5002  0.039655357  0.038215944           30 
 4745000   0.49165489   -4.2791182    2256.3995   0.03962767  0.038206782           25 
 4746000   0.49671494   -4.2974153    2255.7947    0.0396087   0.03819763           27 
 4747000   0.49339398   -4.2910355    2255.4575  0.039594437  0.038188472           27 
 4748000    0.4820079   -4.2959789    2255.6319  0.039589158  0.038179327           21 
 4749000    0.4847918   -4.3133012    2253.1065  0.039536508  0.038170166           29 
 4750000   0.49376794   -4.3006867    2249.3662  0.039462564  0.038161014           18 
 4751000   0.50354166   -4.2914779    2253.6538  0.039529465  0.038151842           28 
 4752000   0.48971871   -4.3124989     2260.139  0.039634874  0.038142703           17 
 4753000   0.48524724   -4.3091704    2259.6315  0.039617635  0.038133544           21 
 4754000   0.49510623   -4.2964475    2255.0792  0.039529505  0.038124409           30 
 4755000   0.49802069   -4.3119238    2251.7384  0.039462643  0.038115281           50 
 4756000   0.49359031    -4.285617     2251.955   0.03945814  0.038106154           23 
 4757000   0.48289919    -4.310634    2255.4361  0.039510828  0.038097003            9 
 4758000   0.48666515    -4.313804    2252.6677  0.039454037  0.038087864           18 
 4759000    0.4793529   -4.3023047    2253.4114  0.039458769  0.038078713           19 
 4760000   0.48758184   -4.3155053    2255.9987  0.039495776  0.038069588           13 
 4761000    0.4903481   -4.3150536    2252.9634  0.039434352  0.038060465           21 
 4762000   0.49263273   -4.3147126    2254.6479  0.039455549  0.038051346           25 
 4763000   0.49652676   -4.3222694    2259.1515  0.039526061  0.038042212            6 
 4764000   0.48565646   -4.3125988    2251.6834   0.03938713  0.038033077           10 
 4765000   0.48459321   -4.2982381    2256.7117  0.039466801  0.038023949           17 
 4766000   0.47423684   -4.3204723    2254.6517  0.039422502   0.03801482           30 
 4767000   0.48791093   -4.3078809    2256.6234  0.039448699  0.038005729           29 
 4768000   0.47779231   -4.3179947    2257.7808  0.039460654  0.037996615           27 
 4769000   0.49300722   -4.3076823    2258.2658  0.039460854  0.037987501           35 
 4770000   0.48226173   -4.3161236    2258.9307  0.039464198  0.037978415           19 
 4771000   0.49756877   -4.3086291    2257.2837   0.03942716  0.037969304           20 
 4772000   0.48705771   -4.3089974    2254.7965  0.039375462  0.037960208           21 
 4773000   0.48490993   -4.3322429    2254.4694  0.039361502  0.037951111           41 
 4774000   0.49284481   -4.2885804    2259.0668  0.039433507  0.037942009           15 
 4775000   0.47558046   -4.3025598    2251.9461  0.039300979  0.037932897           21 
 4776000     0.491545   -4.3306143    2253.1132  0.039313114   0.03792375           20 
 4777000   0.48590542   -4.3028081    2248.4861  0.039224166   0.03791461           20 
 4778000   0.47693926   -4.3229021    2247.7813  0.039203665  0.037905448           17 
 4779000   0.49684973   -4.3084987    2248.6108  0.039209925  0.037896276           23 
 4780000   0.48730227   -4.3355245    2254.3676  0.039302085  0.037887113           23 
 4781000   0.46903867    -4.333948    2252.7572  0.039265795  0.037877975           46 
 4782000   0.48489929   -4.3152349    2249.8022   0.03920609  0.037868819           17 
 4783000   0.48306629   -4.3248199    2252.4061  0.039243258  0.037859644           22 
 4784000   0.48941132     -4.32614    2250.5234  0.039202262  0.037850493           25 
 4785000   0.48893646   -4.3078087    2253.6684  0.039248839  0.037841362           21 
 4786000   0.48690075   -4.3107588    2256.9168    0.0392972  0.037832256           18 
 4787000    0.4827827   -4.3238441    2253.9428  0.039237219  0.037823137           47 
 4788000    0.4845432   -4.3246734    2252.3257  0.039200879  0.037813976           26 
 4789000   0.48632486   -4.3312286     2249.174  0.039137851  0.037804848           34 
 4790000   0.49258264    -4.331587    2256.5468  0.039257947  0.037795726           29 
 4791000   0.48589994   -4.3219183     2249.543  0.039127932  0.037786609           25 
 4792000    0.4912162   -4.3225409    2255.8221   0.03922896  0.037777491           23 
 4793000   0.48202057   -4.3227468    2259.2186  0.039279828  0.037768387           17 
 4794000   0.48105078   -4.3234139    2251.7135  0.039141174  0.037759295           25 
 4795000   0.48357706   -4.3208346    2256.4647  0.039215584  0.037750208           24 
 4796000   0.48499152   -4.2985454    2256.0546  0.039200281  0.037741147           24 
 4797000    0.4823338   -4.3092234    2252.1537  0.039124343  0.037732055           12 
 4798000   0.47430505    -4.323292    2257.6071  0.039210905  0.037722941           21 
 4799000   0.47986835   -4.3260723    2247.9832  0.039035618  0.037713841           23 
 4800000   0.48843069   -4.3249353    2255.3027  0.039154561  0.037704783           20 
 4801000   0.48644746   -4.3197889    2258.3205  0.039198786  0.037695703           20 
 4802000   0.48191663   -4.3026589    2257.8682  0.039182774  0.037686629           25 
 4803000   0.48387333   -4.3129622    2259.4688  0.039202387  0.037677562           27 
 4804000   0.48675553   -4.3214236    2250.2794  0.039034822  0.037668492           60 
 4805000   0.49136617   -4.3156742    2251.7491  0.039052187  0.037659396           31 
 4806000   0.48645667   -4.3266602    2252.8435  0.039063038  0.037650249           33 
 4807000   0.48012156   -4.3411651    2251.8702  0.039038039  0.037641139            9 
 4808000   0.48370499   -4.3294834    2251.4971  0.039023452  0.037632028           19 
 4809000   0.48047353   -4.3277712     2254.927  0.039074772  0.037622923           10 
 4810000   0.49134913   -4.3192913    2251.7884  0.039012273   0.03761381           23 
 4811000   0.48072649   -4.3170293    2257.9359  0.039110648  0.037604709           17 
 4812000   0.48961883   -4.3389272    2251.8518  0.038997156  0.037595635           32 
 4813000   0.48444514   -4.3333322    2247.9245  0.038921055  0.037586538           19 
 4814000   0.48007957   -4.3264879    2248.2635  0.038918839  0.037577453           29 
 4815000   0.47692108   -4.3296064    2253.9527  0.039009219  0.037568373           31 
 4816000   0.48178215    -4.324219    2251.4532   0.03895787  0.037559284           21 
 4817000    0.4898452   -4.3296887    2247.0686  0.038873928  0.037550164           39 
 4818000   0.48029558   -4.3236515     2248.778  0.038895427  0.037541069           15 
 4819000   0.47495903   -4.3383681    2254.2405  0.038981817  0.037531971           25 
 4820000   0.48729356   -4.3171667    2251.7149  0.038930065  0.037522889           26 
 4821000   0.47764259   -4.3211902    2254.6782  0.038973212  0.037513788           23 
 4822000   0.47340911   -4.3375333     2254.588  0.038963571  0.037504707            9 
 4823000   0.48050333   -4.3058199    2252.2276  0.038914707  0.037495599           12 
 4824000   0.47296912   -4.3186653    2253.6762  0.038931665  0.037486503           20 
 4825000   0.48460543   -4.3249256     2250.474   0.03886829  0.037477477            6 
 4826000   0.47907725    -4.326503    2250.1813  0.038855182  0.037468414           15 
 4827000   0.48464448   -4.3256184    2254.4452  0.038920745  0.037459367           18 
 4828000   0.47725056   -4.3242679    2249.4124  0.038825815  0.037450299           14 
 4829000   0.47289295   -4.3222712    2251.6502  0.038856391  0.037441208           27 
 4830000   0.47795141   -4.3569214    2251.9252  0.038853092  0.037432109           38 
 4831000   0.48401558   -4.3401831    2252.4001  0.038853241  0.037423019           13 
 4832000   0.48750437   -4.3381634    2254.8756  0.038887893  0.037413934           19 
 4833000   0.48853971    -4.334201     2253.715  0.038859836  0.037404842           18 
 4834000   0.47597692   -4.3151287    2250.2039  0.038791268  0.037395781           24 
 4835000   0.46755867   -4.3212817    2250.5662   0.03878949  0.037386734           14 
 4836000   0.48178015   -4.3274032    2255.6428  0.038868949  0.037377689           16 
 4837000   0.46637749   -4.3319434    2253.0855  0.038816854  0.037368634           26 
 4838000   0.48326097   -4.3320492    2254.8847  0.038839822  0.037359564           24 
 4839000    0.4675367   -4.3523108    2250.8865  0.038762942  0.037350502           51 
 4840000   0.46199611   -4.3325434    2248.2711  0.038709902  0.037341442           51 
 4841000   0.46652531    -4.323441    2255.2176  0.038821482  0.037332397           33 
 4842000   0.48204163   -4.3463988     2250.031  0.038724201  0.037323357           30 
 4843000   0.47822164    -4.337356     2253.783  0.038780766  0.037314292           71 
 4844000   0.47860714    -4.347447     2252.223  0.038745922  0.037305249           44 
 4845000   0.47755729   -4.3332904    2256.6209  0.038813569  0.037296192           26 
 4846000   0.48342532   -4.3452724    2252.7345  0.038738728  0.037287172           33 
 4847000   0.48708985   -4.3202916      2248.57  0.038659136  0.037278142           37 
 4848000   0.48844434   -4.3410661    2253.1191  0.038729357   0.03726909           32 
 4849000   0.46514035    -4.333633    2253.2512  0.038723641  0.037260057           28 
 4850000   0.48204726   -4.3337209    2254.4973  0.038737067   0.03725103           67 
 4851000   0.46184622   -4.3269255    2256.1219   0.03875699  0.037241998           63 
 4852000   0.48091189   -4.3392429    2252.6884  0.038690031  0.037232932           74 
 4853000   0.48707314   -4.3353998    2252.0418  0.038670955  0.037223883           95 
 4854000   0.47056517   -4.3338353    2249.7408  0.038623485  0.037214823           48 
 4855000   0.47153643   -4.3366532    2248.9231  0.038601495  0.037205765           62 
 4856000    0.4750017   -4.3393723    2251.2086  0.038632767  0.037196766           31 
 4857000   0.46728493   -4.3461394    2252.2976  0.038643497   0.03718776           34 
 4858000   0.47567197    -4.360829    2251.8422  0.038627731  0.037178742           44 
 4859000   0.47826149   -4.3402332    2253.5942  0.038649828  0.037169736           42 
 4860000   0.47503514   -4.3364118     2254.868  0.038663717  0.037160736           44 
 4861000   0.47699081   -4.3334888    2251.8092  0.038603326  0.037151727           37 
 4862000   0.46682874   -4.3454087    2255.6748  0.038661641   0.03714272           61 
 4863000   0.47129722   -4.3542372    2250.7643  0.038569544  0.037133721           23 
 4864000    0.4623487    -4.341121    2257.4453  0.038676078  0.037124729           69 
 4865000   0.47592663   -4.3468516    2254.8848  0.038624268  0.037115747           57 
 4866000   0.48906592   -4.3529308    2257.7692  0.038665727  0.037106766           17 
 4867000   0.47349603   -4.3478658    2251.8792  0.038556935  0.037097777           21 
 4868000   0.46775831    -4.362687    2253.6473  0.038579282  0.037088778           17 
 4869000   0.47576004   -4.3617089    2253.7569  0.038573234  0.037079779           28 
 4870000   0.46829769   -4.3421483    2249.2538  0.038488258  0.037070793           18 
 4871000   0.46346523    -4.336982    2254.0953  0.038563186  0.037061792           13 
 4872000   0.47599163   -4.3409697    2257.8282   0.03861912  0.037052816           14 
 4873000   0.46980287   -4.3391232    2252.4128  0.038518585  0.037043847           30 
 4874000    0.4688529    -4.333941    2259.0565  0.038624273  0.037034891           17 
 4875000   0.46189688   -4.3377046    2251.7216  0.038490968  0.037025964           10 
 4876000   0.46963043   -4.3532492    2249.2689  0.038441156  0.037016993           36 
 4877000   0.47182405   -4.3489576    2256.3072  0.038553538  0.037008018           33 
 4878000    0.4699928    -4.327414    2253.2653  0.038493667  0.036999074           17 
 4879000    0.4685266   -4.3264403    2254.0262  0.038498774  0.036990145           40 
 4880000   0.46474082   -4.3423236    2255.3051  0.038512723  0.036981195           62 
 4881000    0.4712046   -4.3421344    2257.9455  0.038549913  0.036972265           57 
 4882000   0.46030199   -4.3686321    2261.9981  0.038611193  0.036963338           91 
 4883000   0.48162498   -4.3344686    2260.5432  0.038578456  0.036954436           73 
 4884000   0.46055843   -4.3497165    2253.7611  0.038454837  0.036945509           46 
 4885000   0.46992842    -4.352943    2255.5143  0.038476873  0.036936556           45 
 4886000   0.46595434   -4.3449209    2254.8217  0.038457185  0.036927617           31 
 4887000   0.46693661   -4.3472976    2249.7262  0.038362427  0.036918683           21 
 4888000   0.47269462   -4.3680554    2254.1147  0.038429397  0.036909722           28 
 4889000   0.46286882   -4.3669408    2253.8578  0.038417157   0.03690074           47 
 4890000   0.46447561   -4.3611955    2249.6365  0.038337364  0.036891767           22 
 4891000   0.47489085   -4.3535284    2249.9753  0.038335297  0.036882786           69 
 4892000   0.47668249   -4.3602645    2254.4269  0.038403293  0.036873827           50 
 4893000   0.46040461   -4.3715455    2255.4639  0.038413106   0.03686485           20 
 4894000   0.46350004   -4.3580295    2255.3269  0.038402924  0.036855919           26 
 4895000   0.47457968   -4.3507196    2252.9597  0.038354779  0.036846968           26 
 4896000   0.48029534   -4.3606217    2252.4678  0.038338572  0.036838027           34 
 4897000   0.46299917   -4.3698562    2252.3934  0.038329477  0.036829084           24 
 4898000   0.47145637   -4.3500953    2252.0576  0.038315939  0.036820114           33 
 4899000   0.47874994   -4.3729802    2252.8157  0.038321013  0.036811133           25 
 4900000   0.46467411   -4.3413537    2256.9197  0.038382988  0.036802175           29 
 4901000   0.46380541   -4.3387984    2253.4356  0.038315915  0.036793251           37 
 4902000   0.46519053   -4.3465706    2254.6333  0.038328459  0.036784334           41 
 4903000   0.47280501   -4.3640577    2250.9818  0.038258579  0.036775411           28 
 4904000   0.46162007   -4.3414616    2247.4776  0.038191232  0.036766466           60 
 4905000   0.47563412   -4.3577807     2251.961  0.038259616  0.036757519           60 
 4906000   0.46332712   -4.3514625    2250.7054   0.03823049  0.036748581           40 
 4907000    0.4613964    -4.375309    2254.4373  0.038286075  0.036739654           56 
 4908000   0.46284498   -4.3660759    2250.6774  0.038214436  0.036730701           39 
 4909000   0.46614554   -4.3638107    2255.4065  0.038286931  0.036721751           41 
 4910000   0.46405676   -4.3710447    2252.5303  0.038230317   0.03671282           59 
 4911000   0.45567369   -4.3585659    2255.4804  0.038272591  0.036703889           17 
 4912000   0.45902212   -4.3640985    2254.5894  0.038249685  0.036694977           24 
 4913000   0.46455104   -4.3666941    2252.8491   0.03821238  0.036686058           18 
 4914000   0.46016409   -4.3603654    2254.3634  0.038230284  0.036677141           26 
 4915000   0.46684304   -4.3572912    2256.9787  0.038266848  0.036668224           38 
 4916000   0.45986837    -4.349734     2251.394  0.038164395   0.03665931           27 
 4917000   0.45802047   -4.3768402    2248.2242  0.038102912  0.036650366           40 
 4918000   0.46350016    -4.353987      2251.28  0.038146943  0.036641432           18 
 4919000   0.46300025   -4.3814898    2249.7355  0.038113022  0.036632508           10 
 4920000   0.46508959   -4.3681557    2257.1493  0.038230849  0.036623601           29 
 4921000   0.46766253     -4.34981    2249.1916  0.038088322  0.036614698           19 
 4922000   0.45043793   -4.3560951    2248.7641  0.038073347  0.036605793           44 
 4923000   0.46764096   -4.3410707    2256.3814  0.038194552  0.036596912           19 
 4924000   0.46341832   -4.3613606    2248.5075  0.038053539  0.036588033           37 
 4925000   0.47161925   -4.3747358    2249.2644  0.038058619  0.036579104          101 
 4926000   0.46424615   -4.3712276    2250.5209  0.038072149  0.036570158           40 
 4927000   0.45615276   -4.3713815    2249.1611  0.038041423  0.036561228           31 
 4928000   0.46220524   -4.3643671    2258.9026  0.038198433  0.036552301           24 
 4929000   0.47040332   -4.3695454    2251.6073  0.038067344  0.036543357           81 
 4930000   0.46772848   -4.3615404    2248.9347  0.038014447  0.036534419           32 
 4931000   0.45860235   -4.3655623    2253.4476  0.038083005  0.036525512           19 
 4932000   0.45918232   -4.3685454    2256.3466  0.038124267  0.036516597           28 
 4933000   0.44442336   -4.3633277    2254.9766  0.038093395  0.036507686           32 
 4934000   0.45831468   -4.3620502    2251.4186  0.038025581   0.03649879           25 
 4935000   0.46614003   -4.3574408    2254.5594  0.038070912  0.036489908           19 
 4936000   0.46531427   -4.3605763    2249.2276  0.037973184  0.036481042           21 
 4937000   0.45683094   -4.3693193    2253.6758  0.038040574  0.036472148           15 
 4938000   0.46971485   -4.3658529    2248.3331  0.037942707  0.036463227           38 
 4939000   0.46506512   -4.3915109    2251.1452  0.037982473  0.036454322           27 
 4940000   0.46807334   -4.3725225    2252.9751  0.038005654  0.036445404           19 
 4941000   0.46212269    -4.367949    2250.0901  0.037949303  0.036436499           10 
 4942000    0.4650755   -4.3810089    2251.5428   0.03796612  0.036427596           10 
 4943000   0.46363026   -4.3652834    2252.3376  0.037971839  0.036418687           18 
 4944000    0.4518691   -4.3589479    2253.4461  0.037982842   0.03640979           16 
 4945000   0.46125169    -4.380337    2251.5183  0.037942674  0.036400898           24 
 4946000   0.46788926   -4.3880681    2247.4699  0.037866793  0.036391981           31 
 4947000   0.45622128    -4.373884    2249.1692  0.037887764   0.03638308           14 
 4948000   0.44718558    -4.373689    2252.7734  0.037940807  0.036374156           23 
 4949000   0.46561507   -4.3673456    2252.1041  0.037921871   0.03636525           15 
 4950000    0.4572419   -4.3678584    2252.3642   0.03791859  0.036356335            9 
 4951000   0.46350035   -4.3716876     2246.324  0.037809264  0.036347413           11 
 4952000   0.46107683    -4.360301    2248.1411  0.037832207  0.036338497           14 
 4953000    0.4606509   -4.3712975     2248.979  0.037838667  0.036329589           25 
 4954000   0.45652124   -4.3667221    2245.8888  0.037779047  0.036320685           35 
 4955000   0.45416085    -4.381024    2248.9729  0.037823291   0.03631179           24 
 4956000   0.44765597   -4.3842487    2251.9929  0.037866439  0.036302869           14 
 4957000   0.46053157   -4.3726044    2243.7047  0.037719466   0.03629395           60 
 4958000   0.45996986   -4.3868433    2251.4948  0.037842793   0.03628504           10 
 4959000   0.45818298   -4.3717808     2249.431  0.037800481  0.036276157           16 
 4960000   0.45438471   -4.3729727    2250.9828  0.037818931  0.036267274           32 
 4961000    0.4515388   -4.3666939    2252.4849  0.037836539  0.036258371           19 
 4962000   0.45609805    -4.393702    2250.3946   0.03779381  0.036249444           29 
 4963000   0.45706673    -4.403076    2247.4706  0.037737097  0.036240521           25 
 4964000   0.46916039   -4.3818133    2244.6269  0.037681757  0.036231598           14 
 4965000   0.45839858   -4.3810331    2250.1369  0.037766648  0.036222672           50 
 4966000   0.46146147   -4.3751726    2246.8606  0.037704064  0.036213762           11 
 4967000   0.44253864    -4.382664    2243.3362  0.037637344  0.036204817           42 
 4968000    0.4636301   -4.3965821    2244.5934  0.037650855   0.03619589           81 
 4969000   0.45291725   -4.3831969    2250.9772  0.037750339  0.036186963           66 
 4970000   0.46095157   -4.3844681    2253.2475   0.03778081   0.03617805          104 
 4971000   0.45721608   -4.3673428    2248.6368  0.037695917  0.036169152           54 
 4972000   0.45005949   -4.3812686    2248.6906  0.037689236  0.036160232           23 
 4973000   0.45910426   -4.3730112    2247.7493  0.037665884  0.036151328           30 
 4974000   0.45525358     -4.38997    2246.6753  0.037640319  0.036142427           31 
 4975000   0.45099221   -4.3718422    2248.7212  0.037667022  0.036133524           52 
 4976000   0.46503939   -4.3699372    2247.7986  0.037644002  0.036124609           15 
 4977000   0.45221259   -4.3835664    2248.2672  0.037644284  0.036115707           28 
 4978000   0.45347571   -4.3793974    2246.8379  0.037612794  0.036106796           11 
 4979000   0.46252776   -4.3890572    2246.7261  0.037603369  0.036097913           10 
 4980000   0.45263158   -4.3894724    2250.9661  0.037666769  0.036089048           10 
 4981000   0.45809444   -4.3766145    2250.5216   0.03765177  0.036080154           12 
 4982000   0.45891514   -4.3696289    2254.7355  0.037714698  0.036071287           16 
 4983000   0.44168575   -4.3914343    2248.9454  0.037610298  0.036062414           18 
 4984000   0.44429829   -4.3743686    2244.5322  0.037528962   0.03605353           25 
 4985000   0.44863185   -4.3898044    2250.0209  0.037613188  0.036044654           23 
 4986000    0.4509254   -4.3731573    2250.3152  0.037610563  0.036035794           18 
 4987000   0.45303685   -4.3893801    2249.4817  0.037589093   0.03602691           82 
 4988000   0.45554545   -4.3727449    2249.1269  0.037575629  0.036018004           71 
 4989000   0.45042507    -4.363791    2242.9767   0.03746537  0.036009124           64 
 4990000   0.44586997   -4.3795669    2251.1353  0.037594111  0.036000248           23 
 4991000   0.44422069   -4.3821813    2249.5742  0.037560512  0.035991361           39 
 4992000   0.44612985   -4.3788155    2249.7766  0.037556367  0.035982484           31 
 4993000   0.45017198   -4.3842331    2251.1817  0.037572296  0.035973607           25 
 4994000   0.43933634   -4.3693834    2247.2111  0.037498517  0.035964742           15 
 4995000   0.45162993   -4.3825968    2249.1496  0.037523351  0.035955884           10 
 4996000   0.45857817    -4.384463    2250.5499  0.037539196  0.035947042           56 
 4997000   0.45678682   -4.3639307    2247.7845  0.037485566  0.035938195           35 
 4998000   0.45251343   -4.3808885    2250.5734  0.037524566  0.035929342           50 
 4999000   0.46509289   -4.3797508    2247.0466  0.037458268  0.035920487           31 
 5000000     0.453904   -4.3973427    2248.9482   0.03748247  0.035911626           21 
 5001000   0.44950709   -4.3848351    2249.8693  0.037490324  0.035902762           13 
 5002000   0.46296231    -4.374089    2252.7486  0.037530797  0.035893901           22 
 5003000   0.45257708   -4.3967281    2252.2469  0.037514939  0.035885049          166 
 5004000   0.45366146   -4.3978342    2248.2777  0.037441342  0.035876191           58 
 5005000   0.45163934   -4.3954895    2243.7466  0.037358418  0.035867326           90 
 5006000   0.44792357   -4.3692193    2248.1131  0.037423643  0.035858477          135 
 5007000   0.44531356   -4.3834002    2247.3959  0.037404233  0.035849665           61 
 5008000   0.45643104   -4.3889146     2248.436  0.037414071   0.03584084           50 
 5009000   0.45341361   -4.3852598    2244.4899  0.037340951  0.035832044           70 
 5010000   0.44480971   -4.3797625    2247.4859  0.037383332  0.035823225           62 
 5011000   0.44491075   -4.3994023    2253.4376  0.037474849  0.035814417           58 
 5012000   0.45088751   -4.3910345    2249.7373  0.037405848  0.035805597           79 
Loop time of 12378.3 on 48 procs for 5000000 steps with 4000 atoms

Performance: 69799.698 tau/day, 403.933 timesteps/s
99.4% CPU use with 48 MPI tasks x no OpenMP threads

MPI task timing breakdown:
Section |  min time  |  avg time  |  max time  |%varavg| %total
---------------------------------------------------------------
Pair    | 849.91     | 893.23     | 946.46     |  89.0 |  7.22
Neigh   | 83.092     | 86.158     | 89.461     |  18.5 |  0.70
Comm    | 795.16     | 854.62     | 905.21     | 105.5 |  6.90
Output  | 14.831     | 14.836     | 14.929     |   0.4 |  0.12
Modify  | 10395      | 10415      | 10439      |  10.3 | 84.14
Other   |            | 114.6      |            |       |  0.93

Nlocal:        83.3333 ave          92 max          76 min
Histogram: 1 4 4 9 7 16 3 1 1 2
Nghost:        2240.35 ave        2257 max        2223 min
Histogram: 5 2 3 7 4 8 5 7 5 2
Neighs:        14994.2 ave       16412 max       13371 min
Histogram: 2 1 2 8 5 10 10 7 2 1
FullNghs:      29988.7 ave       33268 max       27332 min
Histogram: 3 2 4 11 13 7 3 2 1 2

Total # of neighbors = 1439458
Ave neighs/atom = 359.86450
Neighbor list builds = 270523
Dangerous builds = 3

#clear
#
#next RN
#
#jump SELF
Total wall time: 3:26:21
