
units lj                  # Use reduced LJ style units
atom_style atomic         # Uncharged point particles
atom_modify map hash      # Needed for indexing of clusters etc
                          # Used to be able to find where atoms are in relation to each other.

lattice fcc 1.0 spacing 1 1 1
Lattice spacing in x,y,z = 1.5874011 1.5874011 1.5874011
region box block 0 10 0 10 0 10 units lattice
create_box 2 box
Created orthogonal box = (0.0000000 0.0000000 0.0000000) to (15.874011 15.874011 15.874011)
  3 by 4 by 4 MPI processor grid
create_atoms 1 box
Created 4000 atoms
  using lattice units in orthogonal box = (0.0000000 0.0000000 0.0000000) to (15.874011 15.874011 15.874011)
  create_atoms CPU = 0.013 seconds
set type 1 type/fraction 2 0.01 78393
Setting atom values ...
  36 settings made for type/fraction
mass 1 1.0
mass 2 1.0
pair_style lj/cut  3.5
pair_modify tail  yes
pair_coeff 1  1  1.0  1.0   # Intearaction between 1 and 1 set with epsilon = 1 and sigma = 1
pair_coeff 1  2  1.5  0.8
pair_coeff 2  2  0.5  0.88

write_data data.0
System init for write_data ...
Neighbor list info ...
  update every 1 steps, delay 10 steps, check yes
  max neighbors/atom: 2000, page size: 100000
  master list distance cutoff = 3.8
  ghost atom cutoff = 3.8
  binsize = 1.9, bins = 9 9 9
  1 neighbor lists, perpetual/occasional/extra = 1 0 0
  (1) pair lj/cut, perpetual
      attributes: half, newton on
      pair build: half/bin/atomonly/newton
      stencil: half/bin/3d
      bin: standard
WARNING: Not all mixed pair coeffs generated from mixing. Use write_data with 'pair ij' option to store all pair coeffs. (../write_data.cpp:312)


#############################
#   M E L T   S Y S T E M   #
#############################

velocity all create 2.4 1741580 mom yes dist gaussian # Assign velocities
                                                    # Temperature 2.4, random number seed, zero linear momentum
                                                                                # Gaussian distribution

timestep 0.002   # simulation timestep
thermo 1000       # output thermodynamic data every 1000 steps bf 100

# Define a fix  in this case with index 1 applied to all
# particles in the simulation. This fix is for simulations
# in the anisotropic NPT ensemble. Note that we use the MTK
# correction.
fix 1 all npt temp 2.4 2.4 0.1 iso 5.68 5.68 0.5 mtk yes tchain 5 pchain 5 # Use NPT ensemble
                                                                         # Set temperature and pressure and damping
                                                                         # Numbers of thermostats in chain and in barostat
run 10000          # run for 10000 steps
Per MPI rank memory allocation (min/avg/max) = 3.642 | 3.644 | 3.648 Mbytes
Step Temp E_pair E_mol TotEng Press Volume 
       0          2.4   -8.3261558            0   -4.7270558   -2.3168672         4000 
    1000    2.3738716   -4.4736827            0  -0.91376546    5.5822516    5144.1573 
    2000    2.3487709   -4.4018865            0  -0.87961092    5.5824356    5192.0456 
    3000    2.3816923   -4.3492862            0  -0.77764087    5.6462201     5216.775 
    4000    2.4622038   -4.4275739            0  -0.73519157    5.7540519    5165.9572 
    5000    2.4507432   -4.4310279            0  -0.75583211    5.5846203     5184.219 
    6000    2.4357315   -4.3923007            0   -0.7396169    5.7653617    5183.6108 
    7000    2.3995684    -4.357742            0  -0.75928914    5.8965308    5189.6313 
    8000    2.3542698   -4.3831378            0  -0.85261603     5.786165    5170.2083 
    9000    2.4056821   -4.3894958            0  -0.78187487    5.7663311    5173.7236 
   10000    2.4078413    -4.433225            0  -0.82236608    5.6864925    5164.7527 
Loop time of 2.05792 on 48 procs for 10000 steps with 4000 atoms

Performance: 839683.131 tau/day, 4859.277 timesteps/s
99.6% CPU use with 48 MPI tasks x no OpenMP threads

MPI task timing breakdown:
Section |  min time  |  avg time  |  max time  |%varavg| %total
---------------------------------------------------------------
Pair    | 0.83267    | 0.90638    | 0.98818    |   3.5 | 44.04
Neigh   | 0.16663    | 0.173      | 0.18865    |   1.1 |  8.41
Comm    | 0.63576    | 0.71952    | 0.8154     |   5.4 | 34.96
Output  | 0.00024248 | 0.00024799 | 0.00031077 |   0.0 |  0.01
Modify  | 0.21435    | 0.24479    | 0.30139    |   4.5 | 11.90
Other   |            | 0.01398    |            |       |  0.68

Nlocal:        83.3333 ave          90 max          74 min
Histogram: 1 2 3 6 3 7 10 4 11 1
Nghost:        1386.54 ave        1407 max        1361 min
Histogram: 4 1 2 7 6 6 6 6 6 4
Neighs:        7370.79 ave        8176 max        6166 min
Histogram: 1 1 3 4 5 6 12 8 3 5

Total # of neighbors = 353798
Ave neighs/atom = 88.449500
Neighbor list builds = 906
Dangerous builds = 210

# Equilibrate just above the melting temperature to avoid step fn in T

fix 1 all npt temp 1.25 1.25 0.1 iso 5.68 5.68 0.5 mtk yes tchain 5 pchain 5
run 2000
Per MPI rank memory allocation (min/avg/max) = 3.642 | 3.644 | 3.648 Mbytes
Step Temp E_pair E_mol TotEng Press Volume 
   10000    2.4078413    -4.433225            0  -0.82236608    5.6864925    5164.7527 
   11000    1.2589823   -5.8856967            0   -3.9976954    5.6006208    4317.2326 
   12000    1.2873716   -5.8671284            0   -3.9365538     5.495883    4331.3845 
Loop time of 0.448918 on 48 procs for 2000 steps with 4000 atoms

Performance: 769850.207 tau/day, 4455.152 timesteps/s
99.6% CPU use with 48 MPI tasks x no OpenMP threads

MPI task timing breakdown:
Section |  min time  |  avg time  |  max time  |%varavg| %total
---------------------------------------------------------------
Pair    | 0.19581    | 0.20834    | 0.2389     |   1.6 | 46.41
Neigh   | 0.029856   | 0.031387   | 0.03583    |   0.6 |  6.99
Comm    | 0.12563    | 0.15666    | 0.17409    |   2.2 | 34.90
Output  | 4.9651e-05 | 5.1246e-05 | 6.432e-05  |   0.0 |  0.01
Modify  | 0.042442   | 0.047966   | 0.059724   |   2.0 | 10.68
Other   |            | 0.004506   |            |       |  1.00

Nlocal:        83.3333 ave          93 max          77 min
Histogram: 3 10 3 8 5 10 5 3 0 1
Nghost:        1552.42 ave        1572 max        1539 min
Histogram: 5 4 5 11 7 6 6 2 1 1
Neighs:        8791.23 ave       10041 max        8031 min
Histogram: 5 6 7 7 10 7 4 1 0 1

Total # of neighbors = 421979
Ave neighs/atom = 105.49475
Neighbor list builds = 140
Dangerous builds = 6

#############################
# L I N E A R  Q U E N C H  #
#############################

# Define solid atoms. This closely follows ten Wolde  Ruiz-Montero and Frenkel  Faraday Discuss  1996  104  93-110
# Compute components of the per-atom q6 vector
compute q6 all orientorder/atom degrees 1 6 components 6 nnn NULL cutoff 1.3 # compute the Q6 parameter.
                                                                             # Use all neighbours within 1.3 unit cell.

# get number of connections
compute coord_number all coord/atom orientorder q6 0.5

# An atom is solid if it has 8 or more connections (of a possible 14)
variable is_solid atom c_coord_number>=8
group solid dynamic all var is_solid    # Must be dynamic to update
dynamic group solid defined

# do clustering
compute cluster solid cluster/atom 1.3 # Create a cluster where all atoms within are solid and max 1.3 units from another member

# define chunks one chunk per cluster
compute clus_chunks solid chunk/atom c_cluster nchunk every compress yes  # Says which atoms are in which chunk

# count the size of each chunk
compute size_chunks solid property/chunk clus_chunks count


# Find the maximum entry in the vector of chunk sizes
variable max_n equal max(c_size_chunks)


# Thermo style which includes this variable
# thermo_style custom step temp pe vol v_max_n

thermo ${N}  # Print the thermo information every 100 steps
thermo 1000  

# Reset the npt fix at a lower temperature (below freezing)
fix 1  all npt temp  ${temp} ${temp}  0.1  iso  5.68  5.68  0.5  mtk yes tchain  5  pchain  5
fix 1  all npt temp  0.45 ${temp}  0.1  iso  5.68  5.68  0.5  mtk yes tchain  5  pchain  5
fix 1  all npt temp  0.45 0.45  0.1  iso  5.68  5.68  0.5  mtk yes tchain  5  pchain  5

dump dmp2 all dcd ${N} traj.dcd
dump dmp2 all dcd 1000 traj.dcd


compute msd all msd com yes
variable twopoint equal c_msd[4]/6/(step*dt+1.0e-6)
fix 9 all vector 10 c_msd[4]
variable fit equal slope(f_9)/6/(10*dt)
thermo_style custom step temp pe c_msd[4] v_twopoint v_fit v_max_n

fix 1 all npt temp 1.25 ${temp} 0.1 iso 5.68 5.68 0.5 mtk yes tchain 5 pchain 5
fix 1 all npt temp 1.25 0.45 0.1 iso 5.68 5.68 0.5 mtk yes tchain 5 pchain 5
run 2000000 # 5000000  # Run for this many steps
Neighbor list info ...
  update every 1 steps, delay 10 steps, check yes
  max neighbors/atom: 2000, page size: 100000
  master list distance cutoff = 3.8
  ghost atom cutoff = 3.8
  binsize = 1.9, bins = 9 9 9
  4 neighbor lists, perpetual/occasional/extra = 1 3 0
  (1) pair lj/cut, perpetual
      attributes: half, newton on
      pair build: half/bin/atomonly/newton
      stencil: half/bin/3d
      bin: standard
  (2) compute orientorder/atom, occasional
      attributes: full, newton on
      pair build: full/bin/atomonly
      stencil: full/bin/3d
      bin: standard
  (3) compute coord/atom, occasional
      attributes: full, newton on
      pair build: full/bin/atomonly
      stencil: full/bin/3d
      bin: standard
  (4) compute cluster/atom, occasional
      attributes: full, newton on
      pair build: full/bin/atomonly
      stencil: full/bin/3d
      bin: standard
Per MPI rank memory allocation (min/avg/max) = 9.730 | 9.733 | 9.738 Mbytes
Step Temp PotEng c_msd[4] v_twopoint v_fit v_max_n 
   12000    1.2873716   -5.8671284 8.3836193e-31 5.8219576e-33 8.3333333e+20            2 
   13000    1.2330483   -5.8441332   0.58309741 0.0037378038  0.048185485            4 
   14000    1.2367098   -5.8449258     1.095695 0.0065219938  0.045237215            5 
   15000    1.2594105   -5.8542343    1.6167617  0.008982009  0.044470238            3 
   16000    1.2507857   -5.9034019    2.2023322   0.01147048  0.044494086            2 
   17000     1.257663   -5.8509841    2.7203361  0.013334981  0.045021604            6 
   18000    1.2395641   -5.8735947    3.3179027   0.01536066  0.045342025            2 
   19000    1.2402504   -5.8680268    3.8776343  0.017007167  0.045784913            4 
   20000    1.2159615   -5.8592968     4.369798  0.018207491  0.045680946            3 
   21000    1.2608671   -5.8726563    4.9488792  0.019638409  0.045598558            5 
   22000    1.2319501   -5.8965149    5.6008732  0.021215428  0.046044897            3 
   23000     1.228871   -5.8376546    6.0725981  0.022002167  0.046103328            6 
   24000    1.2566694   -5.8950469    6.6382733   0.02304956  0.046128124            4 
   25000    1.2764647   -5.8829529    7.2077595  0.024025864   0.04619749            3 
   26000    1.2404879    -5.901333    7.7660881  0.024891308  0.046273623            4 
   27000    1.2510914   -5.8923877    8.2782412  0.025550127  0.046317278            2 
   28000    1.2510455   -5.9042902    8.8346719  0.026293666  0.046251165            2 
   29000    1.2428621   -5.8267748    9.2963772  0.026713727  0.046173789            2 
   30000    1.2434694   -5.9033504    9.9253501  0.027570416  0.046098113            2 
   31000    1.2321742   -5.8927342    10.516108  0.028269106  0.046108131            3 
   32000    1.2414448   -5.8202816    11.092502  0.028886725  0.046123721            3 
   33000    1.2384177    -5.917513    11.650262  0.029419854   0.04614463            3 
   34000    1.2279218   -5.9032848    12.204594  0.029913221  0.046141485            3 
   35000    1.2585014   -5.8933245     12.68679  0.030206641  0.046122625            2 
   36000    1.2467774   -5.9137414    13.069441  0.030253335  0.046022149            3 
   37000    1.2322762   -5.8904101    13.771607  0.031017132  0.045939108            1 
   38000     1.241957   -5.8685196    14.238779  0.031225393  0.045892486            5 
   39000    1.2426329   -5.8907731    14.732742  0.031480217  0.045816099            3 
   40000    1.2352876   -5.8688271    15.310442  0.031896754  0.045729982            3 
   41000     1.238426   -5.8990864    15.634044  0.031776512  0.045622979            2 
   42000     1.204248   -5.8761179    16.308152  0.032357445  0.045522243            3 
   43000    1.2313657   -5.8663394    16.854291  0.032663354  0.045438335            2 
   44000    1.2441508   -5.8567529    17.434473  0.033019835  0.045373786            2 
   45000    1.2542845   -5.8986533    18.011758  0.033355107  0.045364305            3 
   46000    1.2371281    -5.878846    18.460249   0.03344248  0.045336712            3 
   47000    1.2266068   -5.8669434    18.998961    0.0336861   0.04529763            2 
   48000    1.2155874   -5.9015882    19.549941  0.033940869   0.04526403            3 
   49000    1.2439766   -5.8669763     20.08082  0.034151054  0.045207927            3 
   50000    1.2580791   -5.9163475    20.487449  0.034145748   0.04515309            3 
   51000    1.2088454   -5.9085439    21.143323  0.034547914  0.045109336            2 
   52000    1.2144091   -5.9471873      21.6082  0.034628525  0.045076644            1 
   53000    1.2633176   -5.8976993    22.030016   0.03463839  0.045021953            3 
   54000    1.2268854   -5.8720492    22.551202  0.034801237  0.044945436            5 
   55000    1.2602693     -5.92321    23.229061  0.035195546  0.044900321            3 
   56000    1.2063226    -5.893336    23.608591  0.035131831  0.044863144            3 
   57000    1.2218881   -5.8767813    24.061367  0.035177437  0.044794154            2 
   58000    1.2489528   -5.8849534    24.537164  0.035254546  0.044719527            1 
   59000     1.235567   -5.9131546      25.1444  0.035514689   0.04466757            2 
   60000    1.2483582   -5.8869113    25.670944  0.035654089  0.044619574            4 
   61000    1.2322687   -5.8976478    26.309766  0.035942303  0.044589421            2 
   62000    1.2211598   -5.9419525    26.803242  0.036025863  0.044560675            5 
   63000    1.2225391   -5.9024134    27.490146  0.036362627  0.044549832            2 
   64000    1.2130755   -5.9091961    28.052171  0.036526264  0.044556645            3 
   65000    1.2013521   -5.9231271    28.588777  0.036652278  0.044564053            3 
   66000    1.1961573   -5.8695423    29.368675   0.03708166  0.044580679            7 
   67000    1.2254169   -5.8910201    29.747962  0.036999952  0.044616631            3 
   68000    1.2137383   -5.8925686      30.2593  0.037082475  0.044635566            2 
   69000    1.2098185   -5.9261579    30.583389   0.03693646  0.044637331            2 
   70000     1.242658   -5.8778933    31.296617  0.037257877  0.044629807            4 
   71000    1.2247483   -5.9161209    31.946608  0.037496019  0.044631878            5 
   72000     1.225691   -5.9208018    32.324844  0.037413014  0.044639254            3 
   73000    1.2313932   -5.9248459    33.035444  0.037711694  0.044649236            5 
   74000     1.195132   -5.9407364    33.442737  0.037660739  0.044655909            1 
   75000    1.1902032   -5.9446894    33.908127  0.037675696  0.044645015            3 
   76000     1.213176    -5.922891    34.626769  0.037967948  0.044646721            3 
   77000    1.2649242   -5.8636917    35.465174  0.038382223  0.044678797            3 
   78000    1.2309915   -5.9323588    35.995207  0.038456418  0.044718714            1 
   79000    1.2068449   -5.9069722    36.552739  0.038557741  0.044761752            3 
   80000    1.2213394   -5.9566811    37.084699  0.038629895   0.04480874            2 
   81000    1.2014814   -5.8869381    37.650726  0.038735314  0.044846297            5 
   82000    1.2116395   -5.9167401    38.219879   0.03884134  0.044885293            4 
   83000    1.2273106   -5.9214071    38.611148  0.038766213  0.044918325            8 
   84000    1.2342242    -5.928527    39.005798  0.038696228  0.044936364            4 
   85000        1.229   -5.9654805    39.665951  0.038888187  0.044945677            4 
   86000    1.1971071   -5.9049738    40.198493  0.038952028  0.044959183            1 
   87000     1.224816   -5.9183741     40.70554  0.038989981  0.044969871            4 
   88000    1.2258592   -5.9818058    41.239607  0.039052658  0.044983409            2 
   89000    1.2046579   -5.9767888     41.71006  0.039054363  0.044989043            5 
   90000    1.2264947   -5.9052004    42.269044  0.039138003  0.044996673            4 
   91000    1.2135633   -5.9115318    42.963588  0.039343944  0.045001159            4 
   92000    1.1948954   -5.9044535    43.276471  0.039199702  0.045006102            5 
   93000    1.2501508   -5.9509952    43.437087  0.038922121    0.0449959            2 
   94000    1.2091993   -5.9277165    44.092766  0.039089332   0.04497372            2 
   95000    1.2571448   -5.9329444     44.59206  0.039115842  0.044951137            2 
   96000    1.1950254   -5.9179104    44.904418  0.038979529  0.044922189            2 
   97000    1.2575987   -5.9242082    45.527413  0.039112898  0.044892125            2 
   98000    1.2104259   -5.9411711    45.868107  0.039003492  0.044862099            3 
   99000    1.2084648   -5.9542226    46.400363  0.039057545  0.044825639            5 
  100000    1.1938666   -5.8897125      46.9107  0.039092249  0.044784841            4 
  101000    1.2157413   -5.9215441     47.01829  0.038793968  0.044735168            4 
  102000    1.2290604   -5.9624477    47.505286  0.038811508  0.044676778            4 
  103000    1.2176123   -5.8928633    48.249737  0.039037004  0.044630222            3 
  104000    1.2144921   -5.9303671    48.880509  0.039167074  0.044595209            4 
  105000     1.223398   -5.9276169    49.409984  0.039214273  0.044561164            3 
  106000    1.2263649   -5.9123684    50.006978  0.039313662  0.044528445            4 
  107000    1.2077852   -5.9404739    50.409296  0.039259576  0.044499207            2 
  108000    1.2086132   -5.9429827     50.73797  0.039149668   0.04445963            2 
  109000    1.1884311   -5.9544294    51.086507  0.039056962  0.044416731            2 
  110000    1.2035625   -5.9157967    51.706086  0.039171277  0.044372842            3 
  111000    1.2195721   -5.9603412    52.572799  0.039469068  0.044334588            4 
  112000    1.2175799   -5.9627065    52.595528  0.039133577  0.044298713           10 
  113000    1.2041829   -5.9140783    52.992269  0.039079844  0.044254665            3 
  114000    1.2335072   -5.9165378    53.642126  0.039212081   0.04420788            3 
  115000    1.2113627   -5.9616015     53.91215  0.039066776  0.044162181            3 
  116000    1.2127835   -5.9232611     54.65744  0.039265402  0.044124463            5 
  117000    1.1986099   -5.9458686    55.285239  0.039376951  0.044089917            5 
  118000    1.2042194   -5.9797153    55.851125  0.039442885  0.044054856            1 
  119000    1.2122416   -5.9085919    56.464426  0.039540914  0.044030858            3 
  120000    1.2050386   -5.8933693    56.873927  0.039495783  0.044006256            3 
  121000    1.1834634   -5.8987777    57.341933  0.039491689   0.04397712            6 
  122000    1.2140727   -5.9039869    57.886178  0.039539739   0.04394895            2 
  123000    1.1962661   -5.9683883    58.235812  0.039455157  0.043920906            3 
  124000    1.2133441   -5.9774607    59.108127  0.039723204   0.04390024            3 
  125000    1.1795469   -5.9515521     59.55762   0.03970508  0.043881836            3 
  126000    1.2056198   -5.9278341    60.104857  0.039751889  0.043861843            6 
  127000    1.1907045   -5.9519845     60.47058  0.039678858  0.043847453            3 
  128000    1.1958348   -5.9645109    61.094578  0.039775116  0.043829489            5 
  129000    1.2120191   -5.9645653    61.647258   0.03982381  0.043811361            3 
  130000    1.1965249   -5.9820001    62.193672  0.039867739  0.043800308            3 
  131000    1.2171983   -5.9554782    62.649834  0.039853584  0.043788117            2 
  132000    1.1981859   -5.9509545     62.82202  0.039660366  0.043767595            1 
  133000    1.2052046   -5.9747079    63.556293  0.039822238  0.043749966            6 
  134000    1.2037543   -5.9779133    63.916775  0.039749238  0.043732243            2 
  135000     1.191353   -5.9410984    64.386675  0.039744861  0.043711596            2 
  136000    1.2251167   -5.9386343    64.742995  0.039670953  0.043686212            4 
  137000    1.1942405   -5.9426322    65.293701  0.039716363  0.043662211            2 
  138000    1.2049613    -5.958499    65.720355  0.039686205   0.04363408            4 
  139000    1.2098833   -5.9393918    66.292459   0.03974368  0.043603276            3 
  140000     1.185862   -5.9268326     66.71254  0.039709845  0.043570607            4 
  141000    1.2111345    -5.945621     66.81877  0.039490999  0.043533515            3 
  142000    1.1924805    -5.980816    67.091834  0.039373142  0.043495364            4 
  143000    1.1993053   -5.9599469    67.627245  0.039409817  0.043454635            3 
  144000     1.190415   -5.9668416    68.010905  0.039358162  0.043411065            3 
  145000    1.2160646   -5.9416187    68.308654  0.039257847  0.043364386            2 
  146000    1.1866262   -5.9387134    69.089074  0.039434403  0.043321144            5 
  147000    1.2221149   -5.9825859      69.4243  0.039356179  0.043281563            2 
  148000    1.1846957   -5.9852611    69.912385  0.039365081  0.043239209            3 
  149000    1.1985951    -5.993811    70.211998  0.039268455  0.043197186            3 
  150000    1.2013535   -5.9596141    70.997406  0.039443003  0.043158763            4 
  151000    1.2287455   -5.9238523    71.361113  0.039382512  0.043122032            3 
  152000    1.1741587   -5.9594188    72.112216  0.039535206  0.043087875            3 
  153000    1.2188976   -5.9278065    72.644636  0.039566795  0.043059477            4 
  154000    1.1986885   -5.9785284    73.104327  0.039558618  0.043030009            6 
  155000    1.2138308   -5.9556264    73.649922  0.039596732   0.04299736            4 
  156000     1.178381   -5.9546792    73.816286  0.039431776  0.042964533            2 
  157000    1.1868595   -5.9425847    74.303963  0.039439471  0.042928157            5 
  158000    1.1957206   -5.9610933    74.738201  0.039418882    0.0428935            3 
  159000    1.1708589   -5.9409205    75.274271  0.039451924   0.04285951            4 
  160000    1.1837465   -5.9997504    75.504859  0.039325447  0.042823459            3 
  161000     1.191655   -5.9779458     76.13495  0.039407324  0.042788179            6 
  162000    1.1984835   -5.9732155    76.269533  0.039233299  0.042754327            2 
  163000    1.1864786   -5.9619801    77.046656  0.039389906  0.042718871            3 
  164000    1.2178775   -5.9682941    77.460812  0.039360169  0.042687515            4 
  165000    1.1790266   -6.0013948     77.63197  0.039208066  0.042658082            3 
  166000    1.2119715   -5.9555754    78.897895  0.039607377  0.042626117            2 
  167000    1.1750918   -5.9543172    78.897668  0.039370094  0.042595353            6 
  168000    1.1679741   -5.9514599     79.62196   0.03949502  0.042565043            3 
  169000    1.1811173   -5.9456265    80.155115  0.039524218  0.042538234            3 
  170000    1.1871427   -5.9627783    80.600191  0.039509898  0.042511508            4 
  171000    1.1672584   -5.9702948    81.116454  0.039530436  0.042486064            3 
  172000    1.1980765   -6.0022738    81.481497  0.039477469  0.042460062            4 
  173000    1.1725461    -5.989002    81.703414  0.039356172  0.042431766            3 
  174000    1.1800781   -5.9744028    82.237229  0.039385646  0.042404476            2 
  175000    1.1739202   -6.0261007    82.507186  0.039289136  0.042373486            4 
  176000    1.2049756   -5.9987901    82.859041    0.0392325  0.042341392            2 
  177000     1.148472   -5.9658333    83.099478  0.039124048   0.04230551            3 
  178000    1.1849618   -6.0038268    83.701481  0.039186087  0.042272533            6 
  179000    1.1897919   -5.9805959    84.193144  0.039196063  0.042240376            4 
  180000    1.1829128   -5.9687413    85.089153  0.039393126  0.042208347            2 
  181000    1.1471337   -5.9695361    85.384196  0.039311324  0.042178515            8 
  182000    1.1863408   -5.9728703    85.803009  0.039287092  0.042150858            7 
  183000    1.1592009   -5.9565418    86.550701  0.039412888  0.042124176            5 
  184000    1.1727051   -5.9927986    87.330078  0.039551665  0.042098818            3 
  185000    1.1902688   -5.9914345    87.564192   0.03944333  0.042077747            6 
  186000    1.1751683   -5.9959796    88.293996  0.039558242  0.042058735            3 
  187000    1.1854332   -5.9938994    88.398834   0.03939342   0.04203647            8 
  188000    1.1822516   -6.0121162    89.422612  0.039637682  0.042016647            6 
  189000    1.1732235   -6.0326198    89.383762   0.03941083  0.041995968            7 
  190000    1.1656182   -5.9517344     90.55777   0.03971832  0.041974416            3 
  191000    1.1802176   -5.9871823    90.336777  0.039413952  0.041952415            5 
  192000     1.169656   -5.9826933    90.774326  0.039398579  0.041930119            4 
  193000    1.1706386   -6.0136489    91.250203  0.039399915  0.041906231            3 
  194000    1.1721722   -6.0228207    91.578722  0.039337939  0.041883188            4 
  195000    1.1650541   -5.9738829    92.142788   0.03937726  0.041860331            3 
  196000    1.1851296   -5.9808657    92.914389  0.039504417  0.041839135            3 
  197000    1.1898604   -6.0132453    93.457714   0.03953372   0.04182291            4 
  198000    1.1758602   -5.9759874    93.919353  0.039528347  0.041806449            2 
  199000    1.1752663   -6.0074946    93.813435  0.039285358  0.041786358            3 
  200000    1.2025504   -6.0193104    94.453398  0.039355582  0.041764094           10 
  201000     1.158154   -5.9955359     95.29495  0.039508686  0.041745113            7 
  202000    1.1580578   -6.0156187    95.336988  0.039330441  0.041723978            6 
  203000    1.2037168   -5.9871728    95.968405  0.039395897  0.041701815            1 
  204000    1.1487645   -6.0022609     96.21677  0.039304236  0.041681569            5 
  205000    1.1727442   -5.9477913    97.196111  0.039510614  0.041663282            2 
  206000    1.1633894    -5.972032    97.551568  0.039462608  0.041643526            2 
  207000    1.1559992   -6.0173218    97.571732  0.039280085   0.04162327            4 
  208000    1.1486582   -6.0450277    98.130346  0.039315043  0.041602757            4 
  209000    1.1770685    -6.048008    98.767706  0.039381063  0.041583019            2 
  210000    1.1734822   -6.0072064      99.8305  0.039615278  0.041564671            4 
  211000    1.1734225   -6.0117219    99.971236   0.03948311  0.041552537            3 
  212000    1.1651463   -5.9820547    100.62438   0.03955361  0.041540156            9 
  213000    1.1865384   -6.0195796    101.01302   0.03951996  0.041526535            7 
  214000    1.1441123   -6.0111509    101.38468  0.039480017  0.041512084            3 
  215000    1.1702568   -6.0071008    101.87627  0.039486927  0.041495579            2 
  216000    1.1617799   -6.0562001    102.10026  0.039390532  0.041478601            4 
  217000    1.1696965   -6.0305733     102.5699  0.039389361  0.041462284            2 
  218000    1.1315344   -6.0481457    102.75713  0.039280247  0.041445313            2 
  219000    1.1646204    -6.051775    103.89098  0.039532335  0.041428513            3 
  220000    1.1326355   -5.9945069    104.46679  0.039570755  0.041413744            3 
  221000    1.1565118   -6.0383182    104.82847   0.03952808  0.041397891            7 
  222000    1.1754713   -6.0060188    104.91781  0.039383564  0.041381893            5 
  223000     1.170956   -6.0580058    105.25799  0.039334077  0.041365182            5 
  224000    1.1530465    -6.040262    105.54512  0.039265298  0.041347421            6 
  225000    1.1679395   -6.0490664    105.77882  0.039177339   0.04132875            4 
  226000    1.1419985   -5.9804121    106.74122  0.039358859  0.041310479            3 
  227000      1.18053   -6.0341464    107.22544  0.039363232  0.041291893            5 
  228000    1.1624622   -6.0019306    107.76774  0.039388793  0.041272861            8 
  229000    1.1814602   -6.0105068    108.36765  0.039435098  0.041259836            4 
  230000    1.1791301   -6.0054311    108.86879  0.039445213  0.041246726            6 
  231000    1.1769897    -6.023706    109.02895  0.039332232  0.041231859            3 
  232000    1.1705889   -6.0130976    109.56477  0.039355163  0.041218854            4 
  233000    1.1707085   -6.0003148    110.46591  0.039508551  0.041203965            2 
  234000    1.1653727   -5.9886725    111.01268  0.039534431  0.041189124            5 
  235000    1.1402479    -6.040935    111.40001  0.039503548  0.041176456            4 
  236000    1.1568144   -5.9850358     111.7641  0.039464725  0.041164282            6 
  237000    1.1724015   -6.0283971      111.806   0.03931294  0.041152968            2 
  238000    1.1652186   -6.0383401     112.0587  0.039236238  0.041138744            3 
  239000    1.1529771   -5.9970741     113.1331  0.039446688  0.041122339            3 
  240000    1.1685507   -6.0250076    113.20639  0.039307774  0.041107593            4 
  241000    1.1454596   -6.0159633    113.52539  0.039254975  0.041092273            3 
  242000    1.1622224   -6.0371944    114.05528  0.039275233  0.041075501            4 
  243000    1.1627903   -6.0364117    114.49497  0.039264393  0.041060338            3 
  244000    1.1606212   -6.0103567    114.79496  0.039205928  0.041044086            3 
  245000    1.1495961   -6.0262653    115.51855  0.039292024  0.041027046            6 
  246000    1.1722439    -6.052553    115.28408  0.039052873  0.041009766            3 
  247000    1.1486748   -6.0616432     115.9386  0.039115588  0.040991748            4 
  248000     1.173736   -6.0404038    116.39869  0.039112463  0.040974135            5 
  249000      1.15986   -6.0532619    116.99449  0.039154783  0.040955998            5 
  250000    1.1543863   -6.0183106    117.30295  0.039100982  0.040936574            3 
  251000     1.167581   -6.0256899    117.43031  0.038987488  0.040918057            4 
  252000    1.1384349   -6.0405381    118.09917  0.039053957  0.040898712            2 
  253000    1.1607669   -6.0154234    118.98493  0.039191348  0.040880037            5 
  254000     1.175308   -5.9875684    118.99481  0.039040293  0.040862455            3 
  255000    1.1546819    -6.036673     119.3096  0.038990064  0.040842289            2 
  256000    1.1600722   -5.9963073     119.8558   0.03901556  0.040822366            4 
  257000    1.1413085   -6.0348482    120.18315  0.038969893   0.04080333            2 
  258000    1.1416397   -6.0451515    120.45547  0.038906805  0.040783406            4 
  259000    1.1656533   -6.0088123    121.35298  0.039045361  0.040763749            3 
  260000    1.1579813   -6.0750441    121.66778  0.038996082  0.040744257            3 
  261000    1.1509142    -6.015431    122.39145  0.039077729  0.040724652            3 
  262000    1.1655148   -6.0339672    122.08324  0.038830546  0.040704276            4 
  263000    1.1438502   -6.0606656    122.37113  0.038774123  0.040683186            4 
  264000      1.13874   -6.0712087    122.74354  0.038744804  0.040661278            9 
  265000    1.1415516   -6.0321331    123.21408  0.038746565  0.040638832            3 
  266000    1.1628345   -6.0534268    124.30102  0.038941422  0.040616359            6 
  267000    1.1509873   -6.0511726    124.48547  0.038853141  0.040596322            4 
  268000    1.1403752   -6.0195973    124.67101   0.03876586  0.040575186            3 
  269000    1.1437497   -6.0729547    125.02047  0.038730008  0.040554141            2 
  270000    1.1326574   -6.0330885    125.93605   0.03886915   0.04053393            3 
  271000    1.1308212   -6.0273535    126.17886  0.038800386  0.040513871            6 
  272000    1.1582409    -6.026113    126.58597  0.038782465  0.040493547            4 
  273000     1.144453    -6.029145    127.13499  0.038807995  0.040473196            3 
  274000    1.1516504   -6.0461718    127.61682  0.038812902  0.040453669            5 
  275000    1.1371062   -6.0613843    127.39454  0.038604406  0.040432914            7 
  276000    1.1580573   -6.0323285    128.10653  0.038679508  0.040411536            3 
  277000    1.1189834   -6.0654239    128.75867  0.038736063  0.040388962            4 
  278000    1.1273625   -6.0596398    128.47257  0.038510961  0.040365154            5 
  279000    1.1498827   -6.0552088    128.93802  0.038511954  0.040342005            4 
  280000    1.1348193   -6.0800611     129.7553   0.03861765  0.040318376           10 
  281000     1.140934   -6.0749127    129.70867   0.03846639  0.040293658            3 
  282000    1.1487342   -6.0494487    130.26107  0.038493224  0.040270259            5 
  283000    1.1324188   -6.0413412    130.98459  0.038570256  0.040248981            3 
  284000    1.1372219   -6.1000495    131.82794  0.038681906  0.040228441            4 
  285000    1.1609206   -6.0160663     132.3601  0.038701782  0.040208383            4 
  286000     1.124752   -6.0461476    132.25263  0.038535149  0.040188503            6 
  287000    1.1494674   -6.0434354    133.07636  0.038640058  0.040169751            4 
  288000    1.1548889   -6.0414054    133.25135  0.038556526  0.040149678            4 
  289000    1.1122974   -6.0776024    133.36585  0.038456126  0.040129217            9 
  290000    1.1574715    -6.064841    133.96329  0.038495198  0.040108414            4 
  291000    1.1371176   -6.0746398     134.0527  0.038388517  0.040086133            5 
  292000    1.1343315   -6.0676334    134.36788  0.038346997  0.040063942            3 
  293000      1.15561   -6.0796306    134.41561  0.038229695   0.04004211            2 
  294000    1.1696286   -6.0997459    135.06908  0.038284887  0.040019573            3 
  295000    1.1247788   -6.0513134    135.47424  0.038269559  0.039995779            8 
  296000    1.1509728   -6.0585284    135.94921  0.038273988  0.039970905            5 
  297000    1.1041102   -6.0517713    136.16581  0.038205896  0.039946189            4 
  298000    1.1305513   -6.1031662    136.07185  0.038051411  0.039920689            4 
  299000    1.1368606   -6.0212879    136.85149   0.03814144  0.039895565           10 
  300000    1.1150076   -6.0849468    136.69832  0.037971756  0.039868101            2 
  301000    1.1401414   -6.0960573     136.8937  0.037899694  0.039838742            5 
  302000    1.1610589   -6.0922532    137.27011  0.037878066  0.039811699            3 
  303000    1.1322164   -6.0548016    137.92393  0.037932875  0.039784906            4 
  304000    1.1408565   -6.0655901    138.07025  0.037848204  0.039757489            3 
  305000     1.116893   -6.1135786    138.61486  0.037872912  0.039729184            3 
  306000    1.1344247   -6.0591536     139.1464  0.037893901  0.039702198            3 
  307000    1.1503339    -6.046661    139.78115  0.037942766   0.03967543            6 
  308000    1.1262187   -6.0488835      140.184  0.037928572  0.039648508            5 
  309000      1.10731   -6.0564219    140.18777  0.037806843  0.039624467            3 
  310000    1.1361679   -6.0605514    140.66754  0.037813854   0.03959904           10 
  311000    1.1139995   -6.1133704     141.4666  0.037906376  0.039572598            5 
  312000      1.15052   -6.0803946    141.88331  0.037896183  0.039547359            7 
  313000    1.1198936   -6.0677362    142.45746   0.03792797  0.039523166            6 
  314000    1.1280858   -6.0979965    142.28823   0.03776227  0.039497876            3 
  315000    1.1562745   -6.0791836    142.70771  0.037753363  0.039471429            3 
  316000    1.1460277    -6.103944    143.38602  0.037812769  0.039445322            7 
  317000    1.1339164   -6.0909669    143.49172  0.037721272  0.039419678            5 
  318000    1.1144325   -6.0647503    144.58174  0.037888295  0.039394904            3 
  319000    1.1130864   -6.0877582       144.22  0.037675026  0.039370262            6 
  320000    1.1358879   -6.1019394    144.96759  0.037751976  0.039345241            6 
  321000    1.0998658   -6.0773999    145.90341  0.037877314  0.039321621            4 
  322000    1.1231009   -6.1227289    145.55437  0.037669349  0.039297833            2 
  323000    1.1350906   -6.1240891     146.1016  0.037693911  0.039273293            4 
  324000     1.119451   -6.0873272     146.9323  0.037791228  0.039248248            6 
  325000    1.1600032   -6.0725721    147.44696  0.037806913  0.039225721            4 
  326000    1.1233382   -6.0561376     147.5039  0.037705496   0.03920327            4 
  327000    1.1443261   -6.0592477    147.53379  0.037597805  0.039180059            2 
  328000    1.1076363   -6.0777309    148.00347  0.037602508  0.039155125            6 
  329000    1.1371547   -6.0875532    148.06984  0.037505025   0.03912978            2 
  330000    1.1412836   -6.0842653    148.97307  0.037619463  0.039104258            6 
  331000    1.1243928     -6.09356    149.37612  0.037607282  0.039079127            5 
  332000    1.1244228   -6.0476882    150.34242  0.037736551  0.039055675            4 
  333000    1.1118619   -6.0913862    150.72183  0.037718176  0.039033989            2 
  334000    1.1272074   -6.1034778    150.53161  0.037557788  0.039011166            3 
  335000    1.1250265   -6.1132194     151.1322  0.037595074  0.038988294            4 
  336000    1.1422874   -6.0805267    151.30214  0.037525333  0.038964878            4 
  337000     1.098615   -6.0764154    152.00072  0.037586726  0.038942329            3 
  338000    1.1196571   -6.0925751    152.32318  0.037555025  0.038920325            4 
  339000    1.1002187   -6.0769004    152.44669  0.037474604  0.038897373            6 
  340000    1.1275461   -6.0836326    153.21869  0.037553601  0.038873929            4 
  341000    1.1214859   -6.1154229    152.76081  0.037331577  0.038848964            6 
  342000    1.1284805   -6.1395467    152.93257  0.037264272   0.03882358            3 
  343000    1.1049353   -6.0849567    152.67603  0.037093301  0.038797674            5 
  344000     1.118024   -6.1147079    153.16347  0.037103555  0.038770932            3 
  345000    1.0821573   -6.0780421    154.16218  0.037237241  0.038744805            6 
  346000    1.1149886   -6.0950987    154.55549  0.037224346  0.038719477            5 
  347000    1.0985992   -6.0908167    155.21362  0.037275124  0.038694659            4 
  348000    1.1099937   -6.1192788    155.50733  0.037238345  0.038669735            5 
  349000    1.0906417   -6.0830449    155.67187  0.037170934  0.038645228            6 
  350000    1.1325273   -6.0745173    156.67982  0.037304719  0.038621511            6 
  351000    1.1294216   -6.1146197    156.97793  0.037269214  0.038598158            5 
  352000    1.1005419    -6.061887    157.63094   0.03731793  0.038574989            3 
  353000    1.1021806   -6.1091174    157.33598  0.037142581  0.038551733            4 
  354000    1.0751688   -6.0841064    158.30203  0.037265072  0.038530033            4 
  355000    1.1118847   -6.1053957    158.62964  0.037237004   0.03850864            4 
  356000    1.1024183    -6.145935    159.00462  0.037220182  0.038487019            4 
  357000    1.1336009   -6.1173606    159.60979  0.037257187  0.038465651            3 
  358000    1.1035938   -6.1146933    160.06923  0.037260062  0.038444147            5 
  359000    1.1289828   -6.1292851    160.10733  0.037165119  0.038422286           12 
  360000    1.1319511   -6.0573252     160.2088   0.03708537  0.038399657            5 
  361000    1.1090645    -6.071872    160.35405  0.037016171  0.038377002            4 
  362000     1.096753   -6.1184977     161.2166  0.037112477  0.038353372            2 
  363000    1.1080974   -6.1178493    161.76079  0.037135167  0.038330217            4 
  364000    1.1000002    -6.095355    161.49246  0.036971717   0.03830698            4 
  365000    1.1066558   -6.1072367    161.69353  0.036916331  0.038283357            3 
  366000    1.1144036   -6.1173137    162.25323  0.036942903  0.038260582            3 
  367000    1.1193431   -6.0815947     162.5673  0.036913555  0.038238318            6 
  368000    1.1192943   -6.1209488    162.80278  0.036866572  0.038214812            5 
  369000    1.1130726   -6.1090417    163.62918  0.036953292  0.038191597            8 
  370000    1.1008812   -6.1001879    163.64565  0.036857128  0.038168338            5 
  371000    1.0818714   -6.1277519    164.27423  0.036898973  0.038144721            7 
  372000     1.094272   -6.0967787    164.84108  0.036926765  0.038122314            2 
  373000    1.1291943   -6.1096195    165.30953  0.036932424  0.038098409            2 
  374000    1.1215314   -6.1093783     165.1864  0.036806238  0.038074047            4 
  375000    1.0874797   -6.1168666     165.0339  0.036674201  0.038049469            3 
  376000    1.0862968   -6.1557178    165.81202  0.036749118  0.038024612            4 
  377000    1.1144953   -6.1061789    166.35424  0.036771494  0.038000767            4 
  378000    1.1032085   -6.1201399    165.97323  0.036590217  0.037975886           10 
  379000    1.1164543   -6.1213886    166.39102  0.036585537  0.037950067            3 
  380000    1.1031057   -6.1271061    166.44747  0.036501639  0.037924642            4 
  381000    1.0865356   -6.1480117    167.05237  0.036538138    0.0378998            3 
  382000    1.1008715   -6.1304518    168.00321  0.036649916  0.037875846            5 
  383000    1.0956962   -6.1206819    168.47242  0.036656314  0.037853094            4 
  384000    1.1230589   -6.1674568    168.83125  0.036638725  0.037831182            3 
  385000    1.1072278   -6.1065805    169.43953  0.036675224   0.03780875            2 
  386000    1.1055579   -6.1119799    170.08153   0.03671881  0.037786382           12 
  387000    1.1094086   -6.1327869    169.72908  0.036548036  0.037763584            3 
  388000    1.1075181   -6.1390636    170.42695  0.036603727  0.037740145            6 
  389000    1.0796399    -6.093762    170.47449  0.036519813  0.037717885            3 
  390000    1.0956968   -6.1215174    170.94018  0.036525678  0.037695051            3 
  391000    1.1089325   -6.1501931    171.40837  0.036532049  0.037672315            7 
  392000    1.1044182   -6.1066067    171.81044  0.036524329  0.037649063            3 
  393000    1.0987807   -6.1351055    171.71287  0.036410703  0.037626488            7 
  394000    1.1038569    -6.114974    172.65399  0.036517342  0.037603133            9 
  395000    1.0874549   -6.1166322    172.76601  0.036448525  0.037579227            6 
  396000    1.1072323   -6.1519556    172.81562  0.036366923  0.037555467            2 
  397000    1.1009081   -6.1450746    172.99826  0.036313658  0.037531833            3 
  398000    1.1325791   -6.1388652    173.70211  0.036369788  0.037508201            2 
  399000    1.1049801   -6.1323934    173.87343  0.036314417  0.037485228            4 
  400000    1.0869147   -6.1062141    174.50983  0.036356215  0.037462512            4 
  401000    1.0974002   -6.1462167    174.39969  0.036242663  0.037439031            5 
  402000    1.0905925   -6.1585149    174.44787  0.036162495  0.037415078            6 
  403000    1.1118093   -6.0680689    175.13511  0.036214869  0.037391292            8 
  404000    1.0968402   -6.1207019    175.54095  0.036208943  0.037368098            5 
  405000    1.0866299   -6.1340126    176.06312   0.03622698  0.037344513            4 
  406000    1.0736253   -6.1525591    176.91398  0.036312392  0.037321488            6 
  407000    1.1072522   -6.1460155    176.62997  0.036165022  0.037298726            4 
  408000    1.1037605   -6.1406062    177.10503  0.036173413  0.037275564            4 
  409000    1.0936804   -6.1474206    177.21733  0.036107851  0.037253432            4 
  410000    1.0592965   -6.1345121    178.18634  0.036216736  0.037230768            3 
  411000    1.0999324   -6.1037999    178.22458  0.036136371  0.037208424            4 
  412000    1.0783166   -6.1553217    178.66838  0.036138426  0.037187068            4 
  413000    1.1208652   -6.1346281    179.11409  0.036140858  0.037165737            3 
  414000    1.0919247   -6.1324138    180.18593   0.03626931  0.037143658            4 
  415000    1.0975784   -6.1263781    179.95908  0.036136362  0.037121467            8 
  416000    1.0727618   -6.1317363     180.5915  0.036176182   0.03709941            7 
  417000    1.0752566   -6.1366084    180.44236  0.036059625  0.037078268            5 
  418000    1.0757987   -6.1423568     181.2491  0.036134191  0.037057067            3 
  419000    1.0674453   -6.1732985    180.91171  0.035980849  0.037035265            2 
  420000    1.0652781   -6.1289952    181.46597  0.036005153  0.037013493            5 
  421000    1.1000779    -6.136801    181.34581  0.035895845  0.036991678           12 
  422000    1.0970921   -6.1648742    182.34066  0.036007238  0.036970662            6 
  423000    1.0873863   -6.1475606    182.92155  0.036036554  0.036950292            4 
  424000    1.0949969   -6.1723166    183.02969  0.035972815   0.03693005            3 
  425000    1.0799605   -6.1338306     182.9449   0.03587155  0.036908673            3 
  426000    1.0790012   -6.1421897     184.1295  0.036019073  0.036887029            3 
  427000    1.0794782   -6.1655609    184.00456  0.035910336  0.036866144            2 
  428000    1.0746651   -6.1697037    185.24603  0.036068153  0.036844567            7 
  429000    1.0818245   -6.1512801    184.67162  0.035872499  0.036823137            4 
  430000       1.0679   -6.1196015    184.78163  0.035810392  0.036802093            7 
  431000    1.0895725   -6.1557268    185.26613  0.035820985  0.036780735            3 
  432000    1.0574614   -6.1796489    185.89652  0.035859669  0.036759317            3 
  433000    1.0646684   -6.1730994    185.82777  0.035763621  0.036738182           15 
  434000    1.0866632   -6.1358793    186.69411  0.035847563  0.036717261            4 
  435000    1.0745442   -6.1446625    186.80017  0.035785474   0.03669577            9 
  436000    1.1063547    -6.176156    187.43207  0.035824173  0.036674506            6 
  437000     1.097033   -6.1740673    187.59506  0.035773276  0.036654305            4 
  438000    1.0630215   -6.1795772    187.21703  0.035619678  0.036633476            6 
  439000    1.1042548   -6.1350715    188.87605  0.035853465  0.036612745            8 
  440000    1.0937407   -6.1849786    188.74576  0.035747304  0.036592738            6 
  441000    1.0520053   -6.1719869    189.10236  0.035733629   0.03657219            7 
  442000    1.0755888   -6.1933422    189.02073  0.035637393  0.036551339            7 
  443000    1.0629335   -6.1566638    190.08949  0.035757993  0.036530483            4 
  444000    1.0849065   -6.1202311    190.02211  0.035664811  0.036510008            5 
  445000    1.0647211   -6.1883977    190.25666  0.035628588  0.036489583            3 
  446000     1.072428   -6.1956396    190.81277  0.035652611  0.036468771            7 
  447000    1.0793939   -6.1902561    190.45523  0.035506195  0.036448021            4 
  448000     1.078998   -6.1464229    191.34766  0.035592943  0.036426802            3 
  449000    1.0568402    -6.154261    191.91128  0.035618278  0.036406012            6 
  450000    1.0832886   -6.1707334    192.44873  0.035638654  0.036386487            3 
  451000      1.06397   -6.1830699    192.33419  0.035538468  0.036366287           21 
  452000    1.0624366   -6.1704965    192.69925  0.035527148  0.036346343            3 
  453000    1.0568368    -6.158938    193.71772  0.035636077  0.036326773            4 
  454000    1.0770551   -6.1575323    194.24248  0.035653905  0.036307537            2 
  455000    1.0756298   -6.1924267    194.03145  0.035536895  0.036289077            3 
  456000    1.0620418   -6.2025222    194.17361  0.035484944  0.036269465            2 
  457000    1.0822067   -6.1775459    194.55195  0.035476285  0.036249749            4 
  458000    1.0827878   -6.1797958    195.02205  0.035484362  0.036229667            7 
  459000    1.0538087   -6.1853836    195.25086  0.035448595  0.036209515            9 
  460000    1.0728323   -6.1660315    195.49037  0.035414923  0.036189066            7 
  461000     1.074001   -6.1989457    195.48939  0.035337924   0.03616835           11 
  462000    1.0679595   -6.1620734    195.68393  0.035296524  0.036148044            5 
  463000    1.0596166   -6.2066781    196.59031  0.035383425  0.036127939            4 
  464000    1.0732523   -6.1766417    197.36712  0.035446681  0.036108288            5 
  465000    1.0742002   -6.1763471     197.2879  0.035356255  0.036088947            3 
  466000    1.0533865   -6.1808512    197.43139  0.035306042  0.036069198           12 
  467000    1.0792943    -6.196698     198.1962  0.035366916  0.036049428            5 
  468000    1.1036317   -6.2059546    198.95881  0.035427138  0.036030456           14 
  469000    1.0617849   -6.1836824    199.62485  0.035469945  0.036011469            4 
  470000    1.0650235   -6.1991014    198.98033  0.035280201  0.035992549            7 
  471000    1.0622398   -6.1948156    200.09242  0.035402056  0.035973672            3 
  472000    1.0760357   -6.2122681    199.16722  0.035163704  0.035955015            7 
  473000    1.0340089   -6.1919145    200.13298   0.03525951  0.035935481            2 
  474000    1.0787946    -6.171245    200.56449  0.035260987  0.035916034            9 
  475000     1.053321   -6.2151116    200.33811  0.035147037  0.035895961            9 
  476000    1.0551738   -6.1874267    201.61701  0.035297095  0.035876018            4 
  477000    1.0632622    -6.220225    201.69647  0.035236979  0.035856916            6 
  478000     1.069937   -6.2272307    201.53448  0.035135021  0.035838065            8 
  479000    1.0645648   -6.2086009    202.11877   0.03516332  0.035819347            5 
  480000    1.0577448   -6.1925922    201.99902  0.035069275  0.035800415            6 
  481000    1.0514025   -6.1985289    202.92429  0.035156669  0.035781594            5 
  482000    1.0891181   -6.1947205    202.76658  0.035056462  0.035762406            5 
  483000    1.0540198   -6.1801987    203.76446  0.035156049  0.035743267            6 
  484000    1.0748222   -6.1664499    204.14248  0.035148499  0.035724765            4 
  485000    1.0569301   -6.1976142    204.24427  0.035093517  0.035706384            3 
  486000    1.0460083   -6.2020207    204.26941  0.035025619  0.035687888            6 
  487000    1.0486041    -6.181279    205.15166  0.035104665  0.035669745            4 
  488000    1.0504929   -6.2148345    205.03453  0.035012727  0.035651495            7 
  489000    1.0662154   -6.2064368    205.33311  0.034992009  0.035633107            7 
  490000    1.0782529   -6.2046899     205.9168  0.035019864  0.035614597            6 
  491000    1.0628944   -6.2276303    206.13014  0.034984748  0.035596613            7 
  492000     1.063474    -6.203315    206.52155  0.034979938  0.035578673            4 
  493000    1.0609232   -6.2151851    207.68458  0.035105574  0.035561037            9 
  494000    1.0480263   -6.2243283    207.16057  0.034946115  0.035543295            5 
  495000    1.0558752   -6.2010939     207.9764  0.035012862  0.035525398            8 
  496000    1.0527584   -6.2288169    208.38142   0.03501032  0.035507333            5 
  497000    1.0753042   -6.2168361    208.32931  0.034931138  0.035489591            3 
  498000    1.0853538   -6.2013383    209.20202  0.035007032   0.03547157            7 
  499000    1.0489127   -6.2124962    208.59846  0.034836082  0.035452938           15 
  500000    1.0577438   -6.1909812    209.48337  0.034913895  0.035434868            7 
  501000    1.0594763   -6.2031712    209.62307  0.034867443  0.035417067            5 
  502000    1.0807263    -6.203851      210.304  0.034911023  0.035398978            3 
  503000    1.0666244   -6.1838171    210.23856  0.034830776  0.035380781            3 
  504000    1.0356333   -6.1783285    211.23291  0.034926076   0.03536278            4 
  505000    1.0771077    -6.231437    211.24898  0.034859568  0.035344687            4 
  506000    1.0335427   -6.2216453    210.46427  0.034661441  0.035325931            1 
  507000    1.0599808   -6.2022782     211.6056   0.03478067  0.035306901            3 
  508000    1.0497682   -6.2091058    211.51521  0.034697377  0.035287948            8 
  509000    1.0721648   -6.2478539    211.62378  0.034646984  0.035269161            6 
  510000    1.0697646   -6.2279335    212.14104  0.034663568  0.035250697            3 
  511000    1.0546064   -6.1904235    212.65713  0.034679898  0.035232311            9 
  512000    1.0617644   -6.2223764    212.93963  0.034658143   0.03521467            6 
  513000    1.0586013   -6.2154981    213.32675  0.034653468  0.035196409            5 
  514000    1.0373858   -6.1868011    213.88478  0.034676521  0.035177603           13 
  515000    1.0591203   -6.2194961    214.06411  0.034638206  0.035159195            4 
  516000    1.0385712   -6.2158141    213.92262  0.034548226  0.035140831            5 
  517000    1.0282405   -6.2297911    214.52139  0.034577915  0.035122685           12 
  518000    1.0372928   -6.2105457    215.01252  0.034590173  0.035104473           10 
  519000    1.0392825   -6.2274637    215.69437  0.034633008  0.035086601            3 
  520000    1.0824641   -6.2217232     215.5211  0.034538638  0.035069091            5 
  521000    1.0335258   -6.2122098    215.81166   0.03451882  0.035051041            7 
  522000    1.0250627   -6.2235408    215.51093  0.034404682   0.03503272            8 
  523000    1.0237214   -6.2134595    216.51178  0.034498372   0.03501431            3 
  524000    1.0666767   -6.2129466    216.29486  0.034398037  0.034995532            5 
  525000    1.0463435   -6.1833873     216.7486   0.03440454  0.034976776            4 
  526000    1.0534279   -6.1749654    216.64537  0.034322776  0.034958146            8 
  527000    1.0504514    -6.221102    217.67653  0.034420703  0.034939863            3 
  528000    1.0422091   -6.2362567    217.92508  0.034394741  0.034921225            9 
  529000    1.0439785   -6.2184205    218.30571  0.034389683  0.034902703            5 
  530000    1.0396242   -6.2175891     219.1068  0.034450755  0.034884863            7 
  531000    1.0311033   -6.2027246    219.09593   0.03438417  0.034866898            4 
  532000    1.0331873   -6.2225124    219.27343  0.034347341  0.034848667            5 
  533000    1.0512962   -6.2444731    219.24747  0.034278841  0.034829965            6 
  534000    1.0632459   -6.2200719    220.01491  0.034334412  0.034811352            6 
  535000    1.0433382   -6.2196205    219.89916  0.034252206   0.03479326            3 
  536000    1.0543616   -6.2447818    219.77341  0.034168752  0.034775043            8 
  537000    1.0277648    -6.216217    220.48986  0.034216304  0.034756202            4 
  538000    1.0383313   -6.2228249    221.03981  0.034237888  0.034737807            6 
  539000    1.0640005    -6.223408    220.65399  0.034114718  0.034719224            8 
  540000    1.0397827   -6.2148963    221.13809  0.034126248  0.034700702            3 
  541000    1.0361435   -6.2465878    221.53775   0.03412473  0.034682557            8 
  542000    1.0456593    -6.287682    222.03405  0.034138077  0.034663886            5 
  543000    1.0491567   -6.2546302    222.94755  0.034215401  0.034645325            8 
  544000    1.0241715    -6.180601    222.64945   0.03410684  0.034627351            6 
  545000    1.0260142   -6.2415375    223.51621   0.03417679  0.034609181            5 
  546000     1.025893   -6.2336955    222.79185   0.03400364  0.034590539           13 
  547000    1.0291685   -6.2350416    223.40505  0.034034895  0.034571842            6 
  548000    1.0283421   -6.2300768    224.02812  0.034067537  0.034553012            3 
  549000    1.0177893   -6.2537915     223.3328  0.033899939  0.034534146            5 
  550000    1.0331615   -6.2291889    224.18607  0.033967586  0.034514946            4 
  551000     1.042239   -6.2193969    223.87889  0.033859481  0.034495636            4 
  552000    1.0591711   -6.2643135    224.30798   0.03386292  0.034475883            7 
  553000    1.0205901   -6.2299728    223.43711   0.03367045  0.034455719            5 
  554000     1.039911   -6.2350171    224.72824  0.033803887  0.034435417            4 
  555000    1.0191665   -6.2642493    224.32249  0.033682056  0.034415513            3 
  556000    1.0299508   -6.2321146    226.46908  0.033943207   0.03439639            9 
  557000    1.0199374   -6.2371007    225.25277  0.033700295  0.034377349            9 
  558000    1.0368798   -6.2772477    226.29409  0.033795413  0.034357714            3 
  559000     1.027612   -6.2329264    226.11254  0.033707892  0.034338263            5 
  560000      1.04502   -6.2625754     227.4401  0.033845254  0.034318471            2 
  561000    1.0400883   -6.2591026    227.53218  0.033798601  0.034298828            4 
  562000    1.0172258   -6.2660778    226.46356  0.033580005  0.034278949            3 
  563000    1.0247088   -6.2676819    227.08757  0.033612725  0.034258918            4 
  564000   0.99445028   -6.2778667     227.5973  0.033628442  0.034239333            5 
  565000    1.0166476   -6.2458316    228.26899  0.033667993  0.034220008            6 
  566000    1.0157401    -6.254284    228.76181  0.033681067  0.034200564            7 
  567000    1.0454529   -6.2324506    228.58824  0.033596156  0.034180805           16 
  568000     1.042211   -6.2483304    228.37985  0.033506433  0.034161013            9 
  569000    1.0359471   -6.2584162    228.55013  0.033472485  0.034140784            5 
  570000    1.0241068   -6.2607521      229.228  0.033512865  0.034120493            6 
  571000    1.0123336   -6.2545447     229.4056  0.033480093  0.034100082            4 
  572000     1.036578   -6.2700379    229.16167  0.033386025  0.034079726            8 
  573000    1.0221958   -6.2543938       230.39  0.033506399   0.03405945            5 
  574000    1.0155384   -6.2803608    229.95972  0.033385557  0.034039427            5 
  575000    1.0251883    -6.265863    230.24309  0.033368563   0.03401963            5 
  576000    1.0144892   -6.2372965    230.82633  0.033395013  0.033999879            9 
  577000     1.052595   -6.2847145    229.89228  0.033202236  0.033979566            8 
  578000    1.0015116   -6.2469553    231.59572  0.033390386  0.033958808           10 
  579000    1.0187332   -6.2266943    230.78622   0.03321621  0.033938508            5 
  580000    1.0319362   -6.2577459    231.19579  0.033217786  0.033918288            3 
  581000    1.0129193   -6.2647484    231.43754  0.033195286  0.033897452            7 
  582000    1.0126503   -6.2556482    232.12767  0.033237066   0.03387649            2 
  583000    1.0033633   -6.2548504    232.13815  0.033181554  0.033855638            6 
  584000    1.0338767   -6.2806049    231.44728  0.033026153  0.033834612            5 
  585000    1.0173264   -6.2657901    232.51036  0.033121133  0.033813827           13 
  586000    1.0139065   -6.2322802    233.29991  0.033176892  0.033793776            3 
  587000    1.0163555   -6.2602816    233.53795  0.033154166  0.033773508            7 
  588000    1.0338425   -6.2906597    232.96447  0.033016506  0.033752807            5 
  589000    1.0113901    -6.299506    233.50955  0.033037571  0.033731768            8 
  590000    1.0301988   -6.3039997     234.5009  0.033121596  0.033711337            8 
  591000    1.0133104   -6.2783619    234.98455  0.033133749  0.033691113            6 
  592000    1.0074442   -6.2944884    234.65053  0.033030762  0.033671307            6 
  593000    1.0152781   -6.2789611    235.16358  0.033047158   0.03365103            3 
  594000    1.0193512   -6.2762682    235.19959  0.032996575  0.033630862            4 
  595000    1.0395766   -6.2985029    236.00693  0.033054192  0.033610575            4 
  596000     1.006444   -6.3133268    235.98224  0.032995279  0.033590661            7 
  597000    1.0067468   -6.2715138    236.52587  0.033015895  0.033570782            4 
  598000    1.0159692   -6.2853424    236.27315  0.032925466  0.033550585            6 
  599000    1.0069883   -6.2699435    237.04991  0.032978563  0.033530709            5 
  600000    1.0230997   -6.2669121    237.67268  0.033010094  0.033510726            7 
  601000    1.0181951   -6.2475672     237.4369  0.032922477  0.033490831            7 
  602000    1.0158974   -6.2886409    236.86116  0.032788089  0.033470392            9 
  603000    1.0178483   -6.2779703    237.30269  0.032794733  0.033450148           11 
  604000    1.0514746   -6.2974483    238.15812   0.03285846  0.033430031            4 
  605000    1.0372056   -6.2631861    238.58034  0.032862306  0.033410142            6 
  606000    1.0215206   -6.2528692    239.38346  0.032918518   0.03339071            9 
  607000    1.0211962   -6.2846209    239.37807  0.032863546  0.033371229           10 
  608000    1.0157987   -6.2934616    239.71933  0.032856268  0.033351963            5 
  609000    1.0287882   -6.2800773    240.83504  0.032954987  0.033332978            6 
  610000   0.99989133   -6.2957562    241.34798  0.032971035  0.033314035            6 
  611000    1.0207101   -6.2611824    240.93233  0.032860383  0.033295636            5 
  612000     1.010731   -6.2581652    241.28985  0.032855372  0.033277394            5 
  613000    1.0292335   -6.2830515    242.40971  0.032954012  0.033259075           12 
  614000   0.99847788   -6.2912945    241.29525  0.032749084  0.033240391            5 
  615000    1.0279826   -6.2825208    242.10179  0.032805121  0.033221741            5 
  616000     1.012919   -6.2729251    242.55759  0.032813526   0.03320285            6 
  617000    1.0115819   -6.3018482    242.26437  0.032720741  0.033184248            5 
  618000    1.0155739   -6.2899806    243.35025  0.032814219  0.033165524            6 
  619000    1.0103387   -6.2902858    243.39073  0.032766657  0.033146439            4 
  620000    1.0214681   -6.2856161    243.35119  0.032708493  0.033127922            4 
  621000    1.0123006   -6.2933419    243.96895  0.032738721   0.03310926            4 
  622000   0.99721358   -6.3365327    244.01611  0.032692405  0.033091178            3 
  623000    1.0070418   -6.3055514    244.24988  0.032671199  0.033072825            5 
  624000   0.99965515   -6.2552452    244.91128  0.032707169  0.033054936            4 
  625000   0.98496491   -6.2913777    245.16465   0.03268862  0.033037078            5 
  626000    1.0084519   -6.2960744    245.12372  0.032630954  0.033019311           10 
  627000    1.0247403   -6.3174716    245.27501  0.032599018  0.033001413            9 
  628000   0.99557018   -6.2516603    246.36136  0.032691263  0.032983257            8 
  629000   0.99626403   -6.3003309    246.35802  0.032638847  0.032965452            4 
  630000   0.97309342   -6.3608284    246.60295  0.032619437  0.032947886            4 
  631000      1.00575   -6.2924529    247.54788  0.032692536  0.032930943            7 
  632000   0.98581599   -6.3023153    248.69787   0.03279244  0.032914022            3 
  633000   0.98430096   -6.2950913    248.44204  0.032706957   0.03289708            5 
  634000    1.0090714   -6.3202696     248.1268  0.032613933  0.032879961            3 
  635000   0.99679205   -6.3067823    248.63011  0.032628623  0.032862967           20 
  636000    1.0018636    -6.313354     248.6296  0.032577254  0.032846061            9 
  637000   0.98080367   -6.2927555    250.10209  0.032718745  0.032829269            3 
  638000     1.020555   -6.3089108    249.45554  0.032583011  0.032812353            4 
  639000   0.99391238   -6.2904167    249.74881  0.032570267  0.032795762            7 
  640000    1.0170516   -6.3058659    249.44713  0.032480095  0.032779096            9 
  641000   0.99294204   -6.3272207    250.21635  0.032529426  0.032761961            5 
  642000   0.98774343   -6.3049014    251.17257  0.032602878  0.032744908           13 
  643000   0.97554021   -6.2671897    250.95164  0.032523541  0.032728394            6 
  644000    1.0370994   -6.3307995    251.20945  0.032506399  0.032711807            7 
  645000    1.0064385   -6.3532824    250.72999  0.032394055  0.032695089           10 
  646000    1.0059625   -6.3330316    251.96772  0.032503576  0.032678235            6 
  647000    1.0021777   -6.3271671    251.52321  0.032396086  0.032661494            6 
  648000   0.98213798   -6.3130886    252.95451  0.032530158  0.032645087            6 
  649000    1.0001719   -6.3317806    251.99676  0.032357056  0.032628188            4 
  650000   0.98422194   -6.3178741    253.00062  0.032435977  0.032611225            3 
  651000   0.99283434    -6.322831    253.18509  0.032409765   0.03259473            5 
  652000    1.0176819   -6.2883564    253.47812  0.032397511  0.032578468            4 
  653000   0.99873156   -6.3198178    253.64052  0.032368621  0.032562073            4 
  654000   0.99417885    -6.306285    253.91154  0.032353662  0.032545836            7 
  655000   0.98445458   -6.3186166    253.88465  0.032300846  0.032529053           10 
  656000    1.0031938   -6.2945764    254.52374  0.032332792  0.032512396            5 
  657000   0.99369481   -6.3125127    254.31338  0.032256897   0.03249521            6 
  658000   0.99894526   -6.3327945    254.97314  0.032291431  0.032478397           10 
  659000    1.0088938   -6.3020407    255.51238  0.032310619  0.032461654           10 
  660000   0.98451385   -6.3094311    256.09189  0.032334834  0.032445475            5 
  661000    1.0046595   -6.3194515    255.30964  0.032187297  0.032429341            5 
  662000   0.98556228   -6.3115684    256.31636  0.032265403  0.032413024            5 
  663000   0.99513317   -6.3385768    256.50305  0.032240203  0.032396622            4 
  664000   0.98857653   -6.3502064    256.99844   0.03225382  0.032380337            3 
  665000    0.9844431   -6.3084152    256.94196   0.03219824  0.032364055            9 
  666000   0.98663549   -6.3762399    257.33636  0.032199244   0.03234739            6 
  667000    1.0179036   -6.3213695    258.56047  0.032303907  0.032331205            8 
  668000   0.99610931   -6.3327922    258.36592  0.032231278   0.03231509            7 
  669000    1.0106235   -6.3217017    258.56405  0.032207779  0.032298968            6 
  670000   0.98293773    -6.331002    258.57709  0.032161329   0.03228294            7 
  671000   0.99239439   -6.3137432    260.15783  0.032309716  0.032267383            7 
  672000   0.99233503   -6.2885464    260.21141  0.032268281  0.032251973            3 
  673000    1.0036586    -6.350922    260.13573  0.032210962  0.032236594            4 
  674000   0.97644396    -6.344761    260.52613   0.03221144  0.032220936            5 
  675000   0.98160591   -6.3288439    260.02735  0.032102142  0.032205374            3 
  676000   0.98736178   -6.3422137    260.59482  0.032124608   0.03218999           11 
  677000   0.98664056   -6.3177035    261.33113  0.032167791  0.032174844           13 
  678000   0.99236606   -6.3136617    261.64238  0.032158601  0.032159645           15 
  679000   0.97845734   -6.3537076    261.64037  0.032110993  0.032144537            6 
  680000   0.99768334   -6.3423227    262.12195  0.032122788  0.032129232            7 
  681000    1.0010944   -6.3106781    262.58667  0.032132485  0.032114036            3 
  682000    1.0013067   -6.3467279    262.12787  0.032029309  0.032098636            5 
  683000   0.98196341   -6.2980061    262.88792  0.032075149  0.032083131            5 
  684000   0.97326275   -6.3250396    262.72391  0.032008273  0.032067757            6 
  685000   0.99332302   -6.3459764    262.73106  0.031962416  0.032052052            8 
  686000   0.99274074   -6.3703782    262.72221  0.031914749  0.032037038            5 
  687000   0.98049372   -6.3432892    263.86106  0.032006436  0.032021498            7 
  688000   0.97672398   -6.3366986    263.86485  0.031960374  0.032006118            4 
  689000   0.97407961   -6.3611727    264.13485  0.031946644  0.031990836            3 
  690000   0.98911988   -6.3246617    264.27405  0.031917156  0.031976025            6 
  691000   0.99484741   -6.3477856     265.9451  0.032072491  0.031961195            6 
  692000   0.99278259   -6.3182809      265.925  0.032023723  0.031946512            8 
  693000   0.97117243   -6.3527177    265.74736  0.031956152  0.031931528           20 
  694000   0.98983336   -6.3626726    265.12268  0.031835096  0.031915934            5 
  695000   0.97866228   -6.3759608    265.13315  0.031790546  0.031900303            9 
  696000   0.97854686   -6.3467264    266.60744  0.031921389  0.031884906           14 
  697000    1.0026411   -6.3370133    266.58004  0.031872314  0.031869605            6 
  698000    0.9520062   -6.3380444    267.60977   0.03194959  0.031854413           11 
  699000   0.97776043   -6.3260108    267.83311  0.031930509  0.031839665            6 
  700000   0.98193828   -6.3850347    267.95304  0.031899171  0.031824844            6 
  701000   0.95230472   -6.3299548    267.83038  0.031839085  0.031810042            8 
  702000    1.0005864   -6.3784238    267.79827  0.031789918  0.031795109            7 
  703000   0.95866774   -6.3264224    268.29607  0.031803706  0.031780118            3 
  704000   0.97857083   -6.3716362    268.96162  0.031837313  0.031765256            5 
  705000   0.97995762   -6.3614914    269.21233  0.031821788  0.031750442            4 
  706000   0.98652058   -6.3799511    269.09521  0.031762891  0.031736134            5 
  707000   0.97993415   -6.3640861    269.48181  0.031763533  0.031721625           14 
  708000   0.98368739   -6.3696185    270.00736  0.031780527  0.031707074            7 
  709000   0.97318529    -6.378741    269.95712  0.031729798  0.031692319            6 
  710000   0.97452409   -6.3211221    269.83593  0.031670884  0.031677036           10 
  711000   0.97032696     -6.33541    270.49058  0.031703068   0.03166192            4 
  712000   0.97031718   -6.3770674    270.14663  0.031618286  0.031646755            5 
  713000   0.96854574   -6.3465918    271.33251  0.031712542  0.031631758            8 
  714000   0.96857905   -6.3392625    270.82915  0.031609378  0.031616626            5 
  715000    0.9751064   -6.3634162    271.26377  0.031615824  0.031601669            9 
  716000   0.97556973   -6.3500164    271.37045  0.031584084  0.031586336            8 
  717000   0.97666351    -6.365727    271.07647  0.031505866  0.031570963            5 
  718000    0.9758073   -6.3756575    271.75774  0.031541056   0.03155575            4 
  719000    0.9705752   -6.3554896     272.0758  0.031534052  0.031540644            8 
  720000   0.96602703   -6.3820644    271.94812  0.031475476  0.031525367            4 
  721000   0.97981677   -6.3603969    272.02142  0.031440294  0.031509847           16 
  722000   0.97043626   -6.3791758    272.25202  0.031423364  0.031494433            4 
  723000   0.98396857   -6.3740853    273.08733  0.031476179  0.031479049            6 
  724000   0.92946913   -6.3522549    272.69053  0.031387031  0.031463753            5 
  725000   0.95838855   -6.3610848    273.75524   0.03146612  0.031448959            7 
  726000   0.97106077   -6.3600823    274.33773  0.031489639    0.0314338            5 
  727000   0.98976168   -6.3723892     273.5311  0.031353863  0.031418656            8 
  728000   0.96381251   -6.3807423     274.9661  0.031475058  0.031403669            5 
  729000   0.95268137     -6.38163    275.25644  0.031465071  0.031388574            6 
  730000   0.98038736   -6.3527582    275.31738  0.031428925  0.031373714            4 
  731000   0.95750954   -6.3598785    275.02754  0.031352889   0.03135902            5 
  732000   0.95746953    -6.400175    274.92342  0.031298203  0.031344301            5 
  733000   0.95081996   -6.4033439    275.64317  0.031337332  0.031329309           13 
  734000   0.95424055   -6.3733706    275.97677  0.031332512  0.031314648            4 
  735000   0.96106224   -6.4046086    275.89744  0.031280889  0.031299857            6 
  736000   0.97716208    -6.396196    275.88501   0.03123698  0.031284875            3 
  737000   0.95426334    -6.392031    275.99466  0.031206994  0.031269378            7 
  738000    0.9613159   -6.3815545    275.77265  0.031139639  0.031254007           10 
  739000   0.96623045   -6.3883888    276.46508  0.031175584  0.031238638            8 
  740000   0.96016644   -6.3738804    276.67803  0.031157435  0.031223031           24 
  741000   0.94924307   -6.3919206    276.83752  0.031133325  0.031207536            9 
  742000   0.94756682   -6.4072079    277.77974  0.031197186  0.031191637            3 
  743000   0.97027956   -6.3676091    277.02643  0.031070708  0.031175794            4 
  744000   0.95058788   -6.3542877    277.36019   0.03106633  0.031159663            6 
  745000   0.92930378   -6.3766958    277.67423  0.031059758  0.031143579           16 
  746000   0.96118786   -6.3823495    277.81457  0.031033799  0.031127502            3 
  747000   0.96622638   -6.3886636     278.2494  0.031040763  0.031111363            6 
  748000    0.9570242   -6.3642659    278.15638  0.030988901  0.031095225           15 
  749000   0.95499679   -6.3866502     278.6355  0.031000835  0.031079336            8 
  750000   0.93285913   -6.3690948    278.69983  0.030966647  0.031063399            9 
  751000   0.93265346   -6.4083399    278.73601  0.030929429  0.031047346            6 
  752000   0.93609708   -6.3930475    279.18683  0.030938256  0.031031222            6 
  753000   0.96119219   -6.3930246    278.63076  0.030835631  0.031015292            6 
  754000   0.96121486   -6.4222184    279.16126  0.030853367  0.030998917           18 
  755000    0.9320356    -6.394882    280.69798  0.030982117  0.030982861           10 
  756000   0.94685202   -6.3927487    280.06871  0.030871771  0.030967011           12 
  757000   0.93860621   -6.4048321    280.28854   0.03085519  0.030951012           10 
  758000   0.92831402    -6.402827     279.9909  0.030781761  0.030934934            9 
  759000   0.94902085   -6.3647871    280.56814  0.030804582  0.030918446            6 
  760000   0.96411748   -6.3930218    280.55127    0.0307622  0.030901942           17 
  761000    0.9408051    -6.396337    280.40815  0.030706105   0.03088535           10 
  762000   0.96005653   -6.4008392     281.1764  0.030749825  0.030869048            7 
  763000   0.93745318   -6.3727999    281.59726  0.030755489  0.030852797            5 
  764000   0.95588292   -6.4076681    280.84207  0.030632861  0.030836731            6 
  765000   0.93901734   -6.3880706    282.52595  0.030776247  0.030820489            6 
  766000   0.95628155   -6.3855083    282.12589  0.030692547  0.030804072            7 
  767000   0.92895275   -6.3748184    281.98903   0.03063766  0.030787568            6 
  768000   0.92558296   -6.4192135    282.00519  0.030599521  0.030771083            8 
  769000   0.94460836   -6.4179365    282.60207  0.030624411  0.030754478            4 
  770000   0.94082459   -6.3723708     282.6441  0.030589189  0.030737758            6 
  771000   0.93909954   -6.3837176    283.00927  0.030588983  0.030721357            5 
  772000   0.95265346   -6.3884941     282.6231  0.030507675  0.030705002            8 
  773000   0.95081934   -6.4139372    283.48849  0.030561502  0.030688592           10 
  774000   0.94968296   -6.3888595    283.93496  0.030570087  0.030672137            3 
  775000   0.95173625   -6.3866154    283.66979  0.030502128  0.030655779           10 
  776000   0.94907875   -6.4097961    283.61757  0.030457213  0.030639261            9 
  777000    0.9425119   -6.4074846    284.61525  0.030525017  0.030622693           12 
  778000   0.94324088   -6.4311301    283.40194   0.03035582     0.030606           12 
  779000   0.94188468    -6.417734    283.96664  0.030377262   0.03058916            4 
  780000   0.94604891   -6.4129431    284.92081  0.030440257  0.030572573            7 
  781000     0.949741   -6.4165282    285.40732  0.030453192  0.030555954            8 
  782000   0.93233034   -6.3922981    285.86824  0.030463367  0.030539591            5 
  783000   0.93620667   -6.4079491    284.83102  0.030314072  0.030522845           14 
  784000   0.95564482   -6.4205762    285.10235  0.030304246  0.030505953            4 
  785000    0.9538289   -6.4247998    284.00342  0.030148983  0.030489129            7 
  786000   0.92758928   -6.4245859    284.94749  0.030210718  0.030472033            6 
  787000   0.93851164   -6.4311766    285.18678  0.030197669  0.030454951            4 
  788000   0.94395001     -6.40536    285.81827  0.030226129  0.030437876           15 
  789000   0.92755432    -6.449688     285.3971  0.030143336  0.030420878           13 
  790000   0.93616556   -6.3812591    287.05722  0.030280297   0.03040378           12 
  791000    0.9332866   -6.4132105    286.94892  0.030230607  0.030387051           10 
  792000   0.94431367   -6.4065404    286.86367  0.030183467  0.030370189            9 
  793000   0.93947273   -6.4592148    287.81725  0.030245613  0.030353541            8 
  794000   0.92585106   -6.4174089    287.39179  0.030162866  0.030336824            6 
  795000   0.93852736   -6.3854959    287.51792  0.030138147  0.030319839            5 
  796000   0.94671798   -6.4142239    287.29659  0.030077114  0.030302802           11 
  797000   0.92892353   -6.4491703    287.79599  0.030091592  0.030286026            8 
  798000   0.91408688   -6.4372968    288.46734  0.030123991  0.030269278            8 
  799000   0.92294053   -6.4291079    287.88779  0.030025844  0.030252315            9 
  800000   0.93705799   -6.4344423    288.46404  0.030048337  0.030235093            9 
  801000   0.92898288   -6.4277421     287.6786  0.029929109  0.030217778            8 
  802000   0.93863245   -6.4127551    288.25391   0.02995157  0.030200481            9 
  803000   0.93165182   -6.4180791    288.46889  0.029936581  0.030183168            5 
  804000   0.92716763   -6.4583386    288.43236   0.02989556  0.030165632            6 
  805000   0.92441361   -6.4124298    288.45638  0.029860908  0.030148029            6 
  806000   0.92751146   -6.4593458    288.33901  0.029811726  0.030130883            9 
  807000   0.91258356   -6.4259199    289.52742  0.029897503  0.030113689            4 
  808000   0.93830546   -6.4443853    289.00529  0.029806651  0.030096311            7 
  809000   0.93480604   -6.4433157    290.56246  0.029930208  0.030078875            6 
  810000   0.94473647   -6.4369795    289.57056   0.02979121  0.030061608           10 
  811000   0.94590794   -6.4464532    289.44499  0.029741573  0.030044148           12 
  812000   0.91322676   -6.4582204    290.15111  0.029777413  0.030026587            8 
  813000   0.93207864    -6.458197    290.10576  0.029736138  0.030008861           11 
  814000   0.93150369    -6.445728    289.66406  0.029654388  0.029991073            5 
  815000   0.90805001   -6.4238093     290.4121  0.029694488  0.029973266            5 
  816000    0.9065107   -6.4545082    290.34052  0.029650788  0.029955241            6 
  817000   0.92530018   -6.4422532    290.75934  0.029657215  0.029937089           14 
  818000    0.9149172   -6.4402248    290.26056  0.029570147  0.029919038           24 
  819000   0.91716802   -6.4333557    290.84503  0.029593512  0.029900967            9 
  820000   0.94350309   -6.4281731    291.40481   0.02961431  0.029883116           12 
  821000   0.94343244   -6.4206192    290.92426  0.029529462   0.02986511            7 
  822000   0.92229641    -6.414855    291.20935   0.02952244  0.029847052           16 
  823000   0.92059045   -6.4038724    291.61213  0.029527352  0.029829118           13 
  824000   0.93392448    -6.459526    290.76788  0.029406136   0.02981104           14 
  825000   0.93614548   -6.4480674    291.75968  0.029470675  0.029792859            9 
  826000   0.90671631   -6.4639234    291.23819  0.029382384  0.029774739           13 
  827000   0.90780309   -6.4919052    291.36004  0.029359133  0.029756483            4 
  828000   0.91557686   -6.4610423    291.65044  0.029352902  0.029737979            8 
  829000   0.91276713   -6.4325187    292.44526  0.029397392  0.029719531            6 
  830000   0.91886279   -6.4673709    291.54785  0.029271872  0.029701147            6 
  831000   0.91450287   -6.4732151    292.04678  0.029286681  0.029682532            8 
  832000   0.92283705   -6.4538411    291.72552  0.029219303  0.029663686           16 
  833000   0.90898431   -6.4595668     292.2478  0.029236474  0.029645016            6 
  834000   0.92855414   -6.4560669    293.01701  0.029278279   0.02962662            6 
  835000   0.91234509   -6.4605077    293.62249  0.029303642  0.029608483            6 
  836000   0.93725847    -6.445612    292.89739  0.029196311  0.029590142           15 
  837000   0.91571386   -6.4931598    293.00038  0.029171682  0.029571706           10 
  838000   0.91249612   -6.4774853    293.35711  0.029172346  0.029553449           11 
  839000   0.90862137   -6.4843852    293.36462  0.029138321  0.029534852           13 
  840000   0.91985111   -6.4255773    293.12999  0.029080356  0.029516156           15 
  841000   0.89951221   -6.4573612    294.05346  0.029137283  0.029497553            9 
  842000   0.92131194   -6.4576587    293.39074  0.029037089  0.029478919           10 
  843000   0.93611939   -6.4395948    293.80334   0.02904343  0.029460261            8 
  844000   0.92556948   -6.4394411    294.19226  0.029047419  0.029441853            7 
  845000   0.91057385   -6.4067689    293.46082  0.028940909  0.029423242            5 
  846000   0.91321917   -6.4815156    295.04819   0.02906306  0.029404514           18 
  847000   0.90672681   -6.4586034     294.5378  0.028978532  0.029385895           10 
  848000   0.89423511   -6.4599603    294.68927  0.028959244  0.029367084           10 
  849000   0.91018905   -6.4715681     294.8294  0.028938889  0.029348251            5 
  850000    0.9185929    -6.455392    295.30806  0.028951771  0.029329596            4 
  851000   0.91070191   -6.4549522     295.3506  0.028921916  0.029310806           11 
  852000   0.90743252   -6.4686548    295.66603  0.028918822  0.029292166           10 
  853000    0.9118857   -6.4629223    295.44134  0.028862968  0.029273395            8 
  854000    0.9070204   -6.4370587    295.90005  0.028873932  0.029254685            9 
  855000   0.91259314   -6.4831935    295.87727  0.028837941  0.029235636            9 
  856000   0.92401502   -6.4515775    296.23439  0.028839018  0.029216743           14 
  857000   0.91846043   -6.4407375    297.01706  0.028881472  0.029197944           10 
  858000   0.92213752   -6.4814381    295.83052  0.028732568  0.029179214            7 
  859000   0.91386042   -6.4682646    296.32582  0.028747169  0.029160378            9 
  860000   0.90747226   -6.4657057    297.06369  0.028785241  0.029141567            7 
  861000   0.90678774   -6.4562415    297.34463     0.028779  0.029122843           24 
  862000   0.90087427   -6.4917651    296.83999  0.028696828  0.029104175            6 
  863000   0.94022832   -6.4838745    296.81979  0.028661625  0.029085515            4 
  864000   0.89649675   -6.5013166    296.82778  0.028629223  0.029066833            5 
  865000   0.88128015   -6.4612535    297.88837  0.028698302  0.029048043            5 
  866000   0.91283481   -6.4846969    297.36703  0.028614995  0.029029406           26 
  867000   0.88845921   -6.4640189    298.46216  0.028687251  0.029010857           11 
  868000   0.91201034   -6.4737627     297.8417  0.028594633   0.02899227           12 
  869000   0.91996019   -6.4845974    298.88397  0.028661678  0.028973792            9 
  870000   0.90625585   -6.4782149    297.91537  0.028535955  0.028955068           30 
  871000   0.88623459   -6.4782099    298.66509  0.028574923  0.028936376            9 
  872000   0.91141604   -6.4746984    297.35095  0.028416566  0.028917527            7 
  873000   0.91284769   -6.4495164    298.30802  0.028475375  0.028898837            8 
  874000   0.89051822   -6.4632906    298.59312  0.028469977  0.028879988            9 
  875000   0.93000755   -6.4532103    298.85282  0.028462174  0.028861128            4 
  876000    0.9184917   -6.4530903    298.61932   0.02840747  0.028842309            7 
  877000   0.91317592    -6.468804    298.45224  0.028359201  0.028823355            9 
  878000   0.90551769   -6.4746958    299.32553  0.028409788  0.028804151            9 
  879000   0.90119726   -6.4757536    299.59387  0.028402907  0.028785023            6 
  880000   0.93272708   -6.4996896    299.18968  0.028332356  0.028766238           10 
  881000   0.89711134   -6.4675676    299.59678  0.028338704  0.028747184            5 
  882000   0.89822889   -6.4747661    300.16133  0.028359914  0.028728329           14 
  883000   0.88466846   -6.4737913    300.22999  0.028334276  0.028709624            5 
  884000   0.89872699   -6.4687229    301.29144  0.028402285  0.028690875            6 
  885000   0.89912659   -6.4998693    300.05961  0.028254201  0.028672017           11 
  886000   0.89587611   -6.4819078    300.22846  0.028238192  0.028653201            8 
  887000   0.92425726   -6.4679115     300.3702  0.028219673  0.028634378           13 
  888000   0.89296504   -6.4694408     300.8366  0.028231662  0.028615713           11 
  889000   0.89432568   -6.5055788    301.07195  0.028221967  0.028596714           19 
  890000   0.91577019   -6.4954444    301.62168   0.02824173  0.028577964           11 
  891000   0.91279656   -6.4766268    301.78283  0.028225105  0.028559451            7 
  892000   0.89004937   -6.4924115    302.39195  0.028250369  0.028540794           14 
  893000   0.89533017   -6.4873932    302.26679  0.028207054  0.028522096           10 
  894000   0.88468061   -6.4895979    301.71034  0.028123634  0.028503508            9 
  895000   0.92081972   -6.5061077    302.46415  0.028162398  0.028484862            9 
  896000   0.90153807   -6.5192782    301.93326   0.02808159  0.028466326           17 
  897000   0.89115026   -6.4997804    302.82669  0.028133286  0.028447658           15 
  898000   0.88652469   -6.5023968    302.76653  0.028096374  0.028429085           10 
  899000   0.89841781   -6.4827175    303.08652  0.028094783  0.028410509            8 
  900000   0.90919398   -6.4814328    303.15336  0.028069755   0.02839194           10 
  901000   0.90581048   -6.5034296    302.70806  0.027997416  0.028373273            7 
  902000    0.9050404   -6.5122629    303.14428  0.028006678  0.028354632            9 
  903000   0.87535672    -6.505982    302.99957  0.027962308  0.028335884           10 
  904000   0.88692185   -6.5148437    302.92876  0.027924849  0.028317169            7 
  905000   0.91093724   -6.5078348    303.53226  0.027949563  0.028298492            5 
  906000   0.88497147   -6.5106289    303.44519  0.027910705  0.028279913           13 
  907000   0.91295494   -6.4953434    304.32206  0.027960498  0.028261478            7 
  908000   0.89527641   -6.4762762    304.58583  0.027953912  0.028243132            5 
  909000   0.89641399    -6.487584    305.33935  0.027992239  0.028224945            9 
  910000   0.87201348   -6.5471486    304.96117  0.027926847  0.028206564           17 
  911000   0.89659687   -6.5008295    304.89838  0.027890448  0.028188482            7 
  912000   0.89345065   -6.5025555    305.11947  0.027880069   0.02817034            7 
  913000   0.88049055   -6.4972563    305.66703   0.02789951  0.028152045            6 
  914000   0.89230005    -6.509124    305.25809  0.027831701  0.028133695           10 
  915000   0.90489442   -6.5076621    304.87617    0.0277665  0.028115365            9 
  916000   0.89481532   -6.5086369    305.08885  0.027755536  0.028096964           10 
  917000   0.88986573   -6.4899647    306.59005  0.027861691  0.028078812            9 
  918000   0.89206599   -6.5166546    306.39133  0.027813302  0.028060557           14 
  919000   0.88464883    -6.499096    306.77561  0.027817883  0.028042382           15 
  920000    0.8802067   -6.5236266    306.89712  0.027798652  0.028024235           20 
  921000   0.87258665   -6.5141376     307.0168  0.027779298  0.028006098           20 
  922000   0.87400628   -6.4979444      307.762  0.027816522  0.027987976            6 
  923000   0.91360573   -6.5230139    307.46793  0.027759835  0.027969906           14 
  924000   0.89325125   -6.5366459    306.99087  0.027686767  0.027951634           12 
  925000   0.88828842   -6.5116978    307.71718  0.027722268  0.027933454           15 
  926000   0.88778425   -6.5081722    308.27317  0.027742366  0.027915418           13 
  927000   0.89944406   -6.5153745    307.49085  0.027642112  0.027897521           16 
  928000   0.86591568   -6.5390243    308.00215  0.027658239  0.027879417           19 
  929000   0.88942546    -6.521466    307.58379  0.027590939  0.027861507           11 
  930000   0.87450235   -6.5353458    307.20891   0.02752768  0.027843595           46 
  931000   0.87950301   -6.5334475    308.78797  0.027639453    0.0278258           26 
  932000   0.88713916   -6.5261457    308.24704  0.027561431  0.027807928           13 
  933000   0.85947331   -6.5228105    308.80385  0.027581623  0.027790138           11 
  934000   0.88171342   -6.5087342    309.20591  0.027587965  0.027772409           10 
  935000   0.87475649   -6.5076436     309.5644   0.02759041  0.027754672           12 
  936000   0.89460995   -6.5492196    308.72561  0.027486254  0.027736997           19 
  937000   0.88712607   -6.5544862    308.94208  0.027476173   0.02771931            7 
  938000    0.9002379   -6.5296583    309.65751   0.02751044  0.027701569           11 
  939000   0.86088054   -6.5071055    309.50771  0.027467848  0.027683808           22 
  940000   0.89609906   -6.5134419    309.99481  0.027481809  0.027666179           12 
  941000   0.86233702   -6.5390973    310.04453  0.027457008  0.027648387           16 
  942000   0.87429365   -6.5431417    309.58391  0.027387112  0.027630544           14 
  943000   0.88928262   -6.5079487    310.86532  0.027471307   0.02761285            9 
  944000   0.89082945    -6.539949    310.54783   0.02741418  0.027595362            9 
  945000   0.86060685   -6.5004623    310.97203  0.027422577  0.027577923            7 
  946000   0.87730403   -6.5324571    310.83513   0.02738153  0.027560299           17 
  947000   0.88783378   -6.5155342     310.8337   0.02735249  0.027542676           13 
  948000   0.87464966   -6.5309752    310.91634  0.027330901   0.02752494            4 
  949000    0.8582209   -6.5538091    311.09726  0.027317989  0.027507291           14 
  950000     0.869149   -6.5284982    311.24179  0.027301911   0.02748958           13 
  951000   0.86228789   -6.5579827    311.09046  0.027259942  0.027471756           22 
  952000   0.86471302   -6.5302997    311.16224  0.027237591  0.027454165           24 
  953000   0.85619794   -6.5344477     311.5969  0.027247018  0.027436383            9 
  954000   0.88496418   -6.5573251    311.87957  0.027243149  0.027418656           13 
  955000   0.87142948   -6.5581994    311.38383  0.027171364  0.027400907           17 
  956000   0.86077754   -6.5244867    311.39993  0.027144345   0.02738312           17 
  957000   0.89941442   -6.5510466    312.15964  0.027182135  0.027365367            5 
  958000    0.8877438   -6.5091989    312.83491  0.027212501  0.027347525           12 
  959000    0.8729371   -6.5608239    312.62565  0.027165941  0.027329644           14 
  960000   0.89823391   -6.5579989    311.89243  0.027073996  0.027311895           17 
  961000   0.87285626   -6.5413371    312.47917  0.027096702  0.027294334           21 
  962000   0.88349249   -6.5397345    313.17962  0.027129212  0.027276787           18 
  963000   0.86099947   -6.5393162    312.25325  0.027020876  0.027259043           18 
  964000   0.87368268   -6.5304267    312.94906  0.027052996  0.027241345           31 
  965000   0.85007548   -6.5278131    313.57972  0.027079423  0.027223612           13 
  966000   0.87122893   -6.5347862    312.81994  0.026985847  0.027205952            7 
  967000   0.86897987   -6.5352131    313.88825  0.027050005  0.027188405           11 
  968000   0.86703894   -6.5506303    313.74247   0.02700951  0.027170845           12 
  969000   0.85994077   -6.5461152     313.4307  0.026954825  0.027153184           16 
  970000   0.85365379   -6.5455789    313.83453  0.026961729  0.027135592           19 
  971000   0.85016581   -6.5792724    314.00079  0.026948231  0.027118143           16 
  972000   0.87794858   -6.5456939    313.70439  0.026895095  0.027100649           13 
  973000   0.86827149   -6.5865069    313.50145  0.026850073  0.027083101           10 
  974000    0.8644581   -6.5593373    315.36111  0.026981615  0.027065611            8 
  975000   0.87085768   -6.5237622    314.66168  0.026894161  0.027048138           12 
  976000   0.88523168   -6.5596924     314.7049  0.026870296  0.027030569           12 
  977000   0.87259187   -6.5605072     314.7618  0.026847646  0.027012922           12 
  978000   0.86451583   -6.5222771    315.97758  0.026923789  0.026995394            5 
  979000   0.85641364   -6.5386835    315.66584  0.026869751  0.026977983           12 
  980000   0.86911499    -6.596207    315.05482  0.026790376  0.026960471           15 
  981000   0.85829938   -6.5512686    315.28732  0.026782817  0.026942921           13 
  982000   0.87246375   -6.5577495    315.49339   0.02677303  0.026925427           11 
  983000   0.87878802   -6.5711356    315.81142  0.026772755  0.026907759           10 
  984000    0.8335745   -6.5798354    315.56657  0.026724811  0.026890204           12 
  985000   0.86584335   -6.5572661    315.67715  0.026707034   0.02687256            8 
  986000   0.85636723   -6.5372642    316.11457  0.026716917  0.026854898           11 
  987000   0.86156241   -6.5860796    316.22981  0.026699578  0.026837198           10 
  988000   0.84928429   -6.5528408    316.13246  0.026664344  0.026819691            7 
  989000   0.85735783   -6.5781626    316.67745  0.026683303  0.026802242            5 
  990000   0.86901977   -6.5589257     317.0004  0.026683536   0.02678487           10 
  991000   0.85349329   -6.5323875    316.77732  0.026637851  0.026767716            5 
  992000   0.87837785   -6.5814805    317.63238  0.026682828   0.02675041            6 
  993000   0.88175635   -6.5575739    317.16939  0.026617102  0.026733064            5 
  994000   0.85335016    -6.582892    317.06133  0.026581265  0.026715402           10 
  995000   0.85089079   -6.6148459    317.12825  0.026560155  0.026697671            9 
  996000   0.86524482   -6.5684637    316.50466  0.026481313  0.026679895           21 
  997000   0.85210862   -6.5873753     316.1037  0.026421238  0.026662183            9 
  998000   0.85098216    -6.598232    317.44503  0.026506766  0.026644455           17 
  999000   0.84754085   -6.5984936    316.83884  0.026429667  0.026626682           11 
 1000000   0.86544999   -6.5795683    317.23734  0.026436445  0.026608914           18 
 1001000   0.85261527   -6.5769208    317.38045  0.026421949  0.026591117            8 
 1002000    0.8460178   -6.5783298    316.81321  0.026348404  0.026573428            8 
 1003000   0.86799286   -6.5847512    316.55382  0.026300583  0.026555771           14 
 1004000   0.86588151   -6.5769885    318.10085  0.026402793  0.026538001            5 
 1005000   0.85471217   -6.5624452    318.26931   0.02639049  0.026520252           17 
 1006000   0.84710008   -6.5926349     317.7296  0.026319549  0.026502439           11 
 1007000   0.85840328    -6.576978    317.94689  0.026311395  0.026484803           12 
 1008000   0.84749772   -6.5813413    317.45451  0.026244586  0.026467122           30 
 1009000   0.86156598   -6.5814429    319.10203  0.026354644  0.026449498           17 
 1010000   0.84375916   -6.6016356    318.90511  0.026312303  0.026432049           16 
 1011000   0.85148874    -6.561239    319.53285  0.026338019  0.026414629            5 
 1012000   0.86060213   -6.5691753    319.75058  0.026329923  0.026397335           14 
 1013000   0.84898789   -6.5648142    319.78488  0.026306752  0.026380193           13 
 1014000   0.83435313   -6.5927968    320.12585   0.02630883  0.026363009           14 
 1015000   0.84419409   -6.6001958    320.02836  0.026274906  0.026345665           18 
 1016000   0.84900886    -6.607776    319.87697  0.026236628  0.026328458           12 
 1017000   0.83402959   -6.5960507    319.21595  0.026156666  0.026311011           12 
 1018000   0.85012033   -6.5716876    319.33656  0.026140845  0.026293699            6 
 1019000    0.8540738   -6.5868336    319.40535  0.026120817  0.026276347           10 
 1020000   0.83711443   -6.6066373    320.25008  0.026164222  0.026258989           11 
 1021000    0.8621403    -6.619422    320.57825  0.026165381  0.026241637           24 
 1022000   0.83733722   -6.5842197    320.68934  0.026148837   0.02622434            9 
 1023000   0.84198838   -6.5949123    320.90067  0.026140492  0.026207073            8 
 1024000   0.83829702    -6.587152    320.83155  0.026109338  0.026189855           21 
 1025000   0.83463106   -6.6054659    321.19842  0.026113692  0.026172751           18 
 1026000   0.83744971   -6.6037476    321.39993  0.026104608  0.026155435            5 
 1027000   0.84744565   -6.6124833    320.92228  0.026040432  0.026138136           11 
 1028000    0.8444117   -6.6122465    320.80958  0.026005964  0.026120914            9 
 1029000   0.84577107   -6.5832978    321.84807  0.026064793  0.026103842           11 
 1030000   0.84620715   -6.5988891     322.6746  0.026106359  0.026086784           11 
 1031000    0.8499588   -6.5819965    321.53344  0.025988801  0.026069833           26 
 1032000   0.84903937   -6.5623956    321.71097  0.025977953  0.026052867            9 
 1033000   0.84189135   -6.6102105    321.69216  0.025951287  0.026035741           12 
 1034000   0.84413516   -6.5920382    321.60813  0.025919417  0.026018666           18 
 1035000   0.85351436    -6.613695    322.45968  0.025962937  0.026001682           31 
 1036000    0.8502834   -6.5941186    323.31833  0.026006944  0.025984728           19 
 1037000   0.83823895   -6.6390728    322.07693  0.025882106  0.025967737           10 
 1038000   0.84763806   -6.5925239    322.55138  0.025895262  0.025950754           11 
 1039000    0.8280358   -6.5756863    322.81416  0.025891415  0.025933989           26 
 1040000   0.83222952     -6.61707    322.88628  0.025872298  0.025917173           17 
 1041000   0.83182369    -6.597158    323.47018  0.025894187  0.025900438           15 
 1042000   0.85805387   -6.6330928    323.94018  0.025906924    0.0258836            9 
 1043000   0.83837294   -6.6058962     324.9826  0.025965372  0.025866924           16 
 1044000   0.82132509   -6.6265983    323.54531  0.025825775  0.025850187           26 
 1045000   0.82098405      -6.6193    323.49452  0.025797011  0.025833333           20 
 1046000   0.82046946   -6.6242057    323.61387  0.025781857   0.02581648            8 
 1047000    0.8328655   -6.6203212    323.67537  0.025762128  0.025799527           12 
 1048000   0.83398606   -6.6105402    323.74927  0.025743421  0.025782604           30 
 1049000   0.83964466   -6.5983435    323.83208  0.025725459  0.025765779           13 
 1050000   0.82702124   -6.6560326    324.53661  0.025756874  0.025748946           26 
 1051000   0.84296554   -6.5886527    325.00099  0.025769187  0.025732073            5 
 1052000   0.84616418   -6.6209877    324.12305  0.025675147  0.025715144            9 
 1053000   0.82766546   -6.6378868    324.06976  0.025646546  0.025698171           20 
 1054000   0.83080379   -6.6139099    324.57726  0.025662339   0.02568114           41 
 1055000   0.85090681   -6.6262148      324.277  0.025614297  0.025664184           17 
 1056000   0.83652991   -6.6072413    324.72256  0.025625202  0.025647232            9 
 1057000   0.82242924   -6.6138534    325.16389  0.025635753  0.025630242           20 
 1058000   0.81719326    -6.652085    325.09756  0.025606298  0.025613292           19 
 1059000   0.81780471   -6.6665708    324.76923  0.025556282  0.025596229           29 
 1060000   0.83326415   -6.6125502    324.96825  0.025547818  0.025579244           19 
 1061000   0.81518465   -6.6550567    324.97545  0.025524305   0.02556226           11 
 1062000   0.83474544    -6.625222    325.13223  0.025512573  0.025545312           23 
 1063000   0.83830038   -6.6059638    325.77144  0.025538683  0.025528379           13 
 1064000   0.82209502   -6.6563924     326.6492  0.025583427   0.02551162           25 
 1065000   0.83793638   -6.6168726    325.99436  0.025508166  0.025494857           19 
 1066000   0.82031604     -6.63509    326.44145  0.025519188  0.025478108           18 
 1067000   0.81316937   -6.6427727    326.49255  0.025499262  0.025461488           22 
 1068000   0.82803448   -6.6353116    327.28191  0.025536978  0.025444925           15 
 1069000   0.83895525   -6.6362032    326.91401   0.02548441  0.025428254           22 
 1070000   0.83905447   -6.6234442    327.37115  0.025496196  0.025411636           14 
 1071000   0.84516015   -6.6161039     326.4821  0.025403214  0.025395033            9 
 1072000   0.82015579   -6.6306682    326.38099  0.025371657  0.025378433           12 
 1073000     0.832123    -6.642687    326.26215  0.025338782  0.025361854           10 
 1074000   0.82872467   -6.6423877    328.10344  0.025458057  0.025345329           10 
 1075000   0.82323829   -6.6403407    326.66066  0.025322532  0.025328686           11 
 1076000   0.82988054   -6.6339418    326.91168  0.025318438  0.025312055            7 
 1077000   0.81285234   -6.6286016     327.4003  0.025332737  0.025295504            8 
 1078000   0.82084583   -6.6590823    326.55287  0.025243729  0.025278999           15 
 1079000   0.82481181   -6.6463433    328.23528  0.025350268  0.025262582           13 
 1080000   0.81564783   -6.6275441    328.24418  0.025327483  0.025246017           11 
 1081000   0.81630784   -6.6587795    327.93316  0.025280077  0.025229493            8 
 1082000   0.83627235   -6.6645762    328.78858  0.025322595  0.025213135           12 
 1083000   0.82149791   -6.6301548    329.07293  0.025321093  0.025196706           37 
 1084000   0.81894631   -6.6537063     328.2724  0.025236193   0.02518018           15 
 1085000   0.81577252   -6.6098023    328.78146  0.025252032  0.025163826           27 
 1086000   0.81672634   -6.6342026    328.92506  0.025239799  0.025147564           12 
 1087000   0.82673986   -6.6448925    329.60447  0.025268665  0.025131225            9 
 1088000   0.82143163   -6.6408816    330.15867  0.025287888  0.025115106           25 
 1089000   0.82017354   -6.6351434    329.49016  0.025213511   0.02509893           14 
 1090000   0.81383174   -6.6789366    329.90542  0.025222127  0.025082849           14 
 1091000   0.83371166   -6.6785461    330.06083  0.025210879  0.025066786           24 
 1092000   0.81737455   -6.6346843    329.47801  0.025143316   0.02505068           13 
 1093000   0.81603384   -6.6575047    330.18144  0.025173943  0.025034593           14 
 1094000   0.81308094   -6.6549925     330.2328  0.025154844  0.025018518           14 
 1095000   0.83212984   -6.6400886    330.90976  0.025183391   0.02500244           17 
 1096000   0.83134493   -6.6194398    329.78571  0.025074948  0.024986284           12 
 1097000   0.78964578   -6.6435408    330.20071  0.025083615  0.024970259           20 
 1098000   0.82522095   -6.6425983    330.79958  0.025106222  0.024954185           57 
 1099000   0.81136947   -6.6343979    331.05008  0.025102372  0.024938144           46 
 1100000   0.81517364   -6.6539579    329.89688  0.024992188  0.024922073           31 
 1101000   0.81527257   -6.6493487    331.64411  0.025101734  0.024905977           21 
 1102000   0.80410975   -6.6473519    331.85072   0.02509458  0.024889901           22 
 1103000   0.79851414   -6.6573917    330.49612  0.024969486  0.024873953           16 
 1104000   0.81954343   -6.6540228    330.63596  0.024957424  0.024858044           16 
 1105000    0.8174258   -6.6722603     331.3016  0.024985038  0.024842023           10 
 1106000   0.80141635   -6.6519516    331.83884  0.025002926  0.024826119           17 
 1107000   0.80576691   -6.6613211    332.03446  0.024995066  0.024810178           18 
 1108000   0.79189735   -6.6222349    332.63418  0.025017612  0.024794306           15 
 1109000   0.80035085   -6.6567619    331.67353  0.024922868  0.024778387           14 
 1110000   0.80050817   -6.6564727    332.31061  0.024948244  0.024762644           12 
 1111000   0.80051363   -6.6564623    333.11079  0.024985808  0.024746878            8 
 1112000   0.80245894   -6.6646023    332.28944  0.024901787  0.024731082           12 
 1113000   0.82451409   -6.6594713    333.51218  0.024970963  0.024715336           20 
 1114000   0.79586539   -6.6806535    334.01785  0.024986374  0.024699781           14 
 1115000   0.80527375    -6.660837    333.67479  0.024938325  0.024684258           11 
 1116000   0.80656656   -6.6199037    333.69631  0.024917586   0.02466884            9 
 1117000   0.79569384   -6.6756383    334.30832  0.024940937  0.024653512           20 
 1118000   0.81170379     -6.69963    334.18196   0.02490921  0.024638086           13 
 1119000   0.80735315   -6.6450894    334.60561  0.024918499  0.024622803           12 
 1120000    0.8219344   -6.6568596    334.29109  0.024872849  0.024607519           20 
 1121000   0.81093513     -6.67468    334.43107  0.024861066  0.024592296           15 
 1122000   0.79432016   -6.6654802    334.58507  0.024850347  0.024577002           54 
 1123000   0.80302156   -6.6609706    334.35827  0.024811389  0.024561719           45 
 1124000   0.81071722     -6.67712    334.36152  0.024789555  0.024546466           38 
 1125000   0.80727479   -6.6646517    335.49086  0.024851174  0.024531331           21 
 1126000   0.81920772   -6.6714312    334.70962  0.024771286  0.024516208           23 
 1127000   0.79217383   -6.6869181    334.48836  0.024732946  0.024501097           12 
 1128000   0.79446192   -6.6635464    335.48799  0.024784869  0.024485969           43 
 1129000   0.77512168     -6.66385    335.68565  0.024777506  0.024470922           24 
 1130000   0.80809387   -6.6841289    335.92454  0.024773196  0.024455986           32 
 1131000   0.79585062    -6.686117    335.25804  0.024702184  0.024440907           21 
 1132000   0.79431835   -6.6977045    336.55972  0.024776187  0.024425878            9 
 1133000   0.81798512   -6.6671135    336.12833  0.024722589  0.024410916           36 
 1134000   0.79389655    -6.686218     336.7562  0.024746928  0.024395937           15 
 1135000   0.79198394   -6.6683815    337.04759  0.024746519  0.024380934           16 
 1136000   0.78776682   -6.6727486    336.67785  0.024697612  0.024366025           15 
 1137000   0.79480848   -6.7000233    336.79761  0.024684668  0.024351133           13 
 1138000   0.80981435   -6.6617863    337.59574  0.024721422  0.024336285           31 
 1139000   0.80235204   -6.7117493     336.8961  0.024648529  0.024321469           12 
 1140000   0.79900766   -6.6933985    337.40848  0.024664363  0.024306636           16 
 1141000   0.78388744   -6.6931481    337.88033  0.024677208  0.024291814           18 
 1142000   0.79869818   -6.6886093     337.8219  0.024651336   0.02427696           30 
 1143000   0.80373788   -6.6967204    337.24545  0.024587741  0.024262017           64 
 1144000   0.78826033   -6.7006569    337.69387  0.024598912  0.024247245           68 
 1145000    0.8054112   -6.7126121      338.701  0.024650728  0.024232471           50 
 1146000    0.7937705   -6.6991266    337.78653   0.02456272   0.02421761           79 
 1147000   0.78557807   -6.7211392    338.06967  0.024561877   0.02420271           47 
 1148000   0.78462666    -6.686652    338.19592  0.024549646  0.024187775           49 
 1149000   0.79601593   -6.6926101    337.14677  0.024452188  0.024172789           20 
 1150000   0.79402674   -6.7215354     338.3542   0.02451842  0.024157909           16 
 1151000   0.79146104   -6.7156315    337.88072  0.024462838   0.02414297           19 
 1152000   0.78409961   -6.7058136     338.1463  0.024460814  0.024128001           13 
 1153000   0.80314091   -6.7237585    338.83571  0.024489427   0.02411304           45 
 1154000   0.79219808   -6.6805131    338.49892  0.024443885  0.024098157           22 
 1155000   0.78869901   -6.6998482    338.13686  0.024396599  0.024083296           12 
 1156000   0.80163174   -6.7095533    338.03214  0.024367946  0.024068318           20 
 1157000   0.79801157   -6.6832887     338.0903  0.024351073  0.024053289           54 
 1158000   0.78453446   -6.6903233    338.58711  0.024365796  0.024038409           16 
 1159000       0.7803   -6.6915912    338.34514  0.024327375  0.024023397           18 
 1160000   0.78892362   -6.7297665    338.76585  0.024336627  0.024008494           10 
 1161000   0.78639079   -6.6950509    338.50192  0.024296721  0.023993539           22 
 1162000   0.78876075   -6.6977425    339.34376  0.024336185  0.023978642           20 
 1163000   0.78456212   -6.7121715     339.2989  0.024312045  0.023963813           33 
 1164000   0.77739072   -6.6875685    339.79326  0.024326551  0.023949079           15 
 1165000   0.79696166   -6.6971204    339.76568  0.024303697  0.023934328           13 
 1166000   0.80542632   -6.7122222    340.31698  0.024322254  0.023919574           38 
 1167000   0.80789743   -6.7079742    339.79069  0.024263831  0.023904748           44 
 1168000   0.79648638   -6.7174516    339.80359  0.024243978  0.023889977           56 
 1169000   0.79744019    -6.710042    340.18591  0.024250492  0.023875137           64 
 1170000   0.78526404   -6.6826425    339.84583  0.024205544  0.023860455           57 
 1171000   0.79436406   -6.7151566     340.9933  0.024266531  0.023845799           29 
 1172000   0.80198056   -6.7066624    340.18035  0.024188023  0.023831124           18 
 1173000   0.77858012   -6.7411238    340.59417  0.024196801  0.023816346           33 
 1174000   0.79084598   -6.7089075    340.53456  0.024171959  0.023801584           18 
 1175000   0.79068654   -6.7341014     341.1738  0.024196723  0.023786852           27 
 1176000   0.78332133   -6.7272732    340.44515  0.024124514  0.023772148           17 
 1177000   0.78287762   -6.6912031    341.25545  0.024161388  0.023757458            8 
 1178000   0.79309511   -6.7359242    340.67762  0.024100001  0.023742775           21 
 1179000    0.7891402   -6.7195284    341.58499  0.024143694  0.023728168           12 
 1180000   0.77635849   -6.7212642    341.86034  0.024142679  0.023713556           24 
 1181000   0.77261166   -6.7392136    341.51133   0.02409761   0.02369897           31 
 1182000    0.7977973    -6.715127    341.60291   0.02408368  0.023684501           12 
 1183000   0.77045022   -6.7505519    341.56028  0.024060318  0.023670057           27 
 1184000   0.76917601   -6.7171138    341.93027  0.024066038  0.023655571           18 
 1185000   0.78067379    -6.718791    342.14028  0.024060498  0.023641124           23 
 1186000   0.78543078   -6.7308754    342.22479  0.024046149  0.023626669           22 
 1187000   0.76051741    -6.719687    342.19541  0.024023828  0.023612172           14 
 1188000    0.7712692    -6.723161    342.75351  0.024042755  0.023597692           19 
 1189000   0.78316384    -6.708906    341.62853  0.023943687  0.023583129           53 
 1190000   0.78382077    -6.750234    341.90331  0.023942809  0.023568623           18 
 1191000   0.77940622   -6.7540698    341.96429  0.023926973  0.023554098           14 
 1192000   0.78145344   -6.7110705    341.75167  0.023892035  0.023539629           37 
 1193000    0.7781122    -6.728411    342.67438  0.023936461  0.023525223           23 
 1194000    0.7886727    -6.717871    343.33531  0.023962543  0.023510812           15 
 1195000   0.80314001   -6.7096149     342.6689  0.023896018  0.023496374           17 
 1196000   0.76657905   -6.7293374    342.24855   0.02384675  0.023481873           23 
 1197000   0.77268641   -6.7000095    342.45623  0.023841286  0.023467383           44 
 1198000   0.75569773   -6.7101967    343.31959   0.02388144  0.023452802           27 
 1199000   0.78182779    -6.749481    342.63482   0.02381393  0.023438178           33 
 1200000      0.77831   -6.7410436    343.40951  0.023847883  0.023423649           14 
 1201000   0.79160987   -6.7582854     342.8659  0.023790307  0.023409067           34 
 1202000    0.7591967   -6.7507611     342.8589  0.023770029  0.023394456           20 
 1203000    0.7599277   -6.7273134    342.70223  0.023739417  0.023379796           14 
 1204000   0.78173708   -6.7426161    342.20111  0.023685016  0.023365095           18 
 1205000   0.77793449   -6.7217851    341.96222   0.02364884  0.023350299           40 
 1206000   0.77982085   -6.7375982    342.98204  0.023699699   0.02333561           36 
 1207000   0.76864715   -6.7563514    342.84726  0.023670758  0.023320923           84 
 1208000   0.76582367   -6.7295588    344.27862  0.023749905  0.023306303           21 
 1209000   0.78005576   -6.7486362    343.58107   0.02368218  0.023291717           17 
 1210000   0.76626216   -6.7589074     343.0806   0.02362814  0.023277084           36 
 1211000   0.77929026   -6.7565306     343.2406   0.02361964  0.023262467           36 
 1212000   0.77184579   -6.7483221    344.14305  0.023662201  0.023247862           36 
 1213000   0.76843652   -6.7299811    343.80155  0.023619232  0.023233242           47 
 1214000   0.76998419   -6.7717342    343.70506  0.023593153  0.023218597           54 
 1215000   0.75716346    -6.765106    344.08341  0.023599685  0.023203882           56 
 1216000   0.75779526   -6.7127546    344.49839  0.023608717  0.023189267           27 
 1217000   0.77139361   -6.7235957    344.89161  0.023616243  0.023174683           32 
 1218000   0.77557124   -6.7353743    344.68161  0.023582486  0.023160126           29 
 1219000   0.78273589   -6.7496576    344.52457  0.023552404  0.023145529           15 
 1220000   0.76344435   -6.7565627    344.37568  0.023522929  0.023130878           22 
 1221000   0.75218967   -6.7599223    343.81423  0.023465345   0.02311625           23 
 1222000   0.78506884   -6.7521643    343.81926  0.023446485  0.023101569           16 
 1223000   0.75796125   -6.7638555     343.7089  0.023419794  0.023086927           35 
 1224000   0.77180969   -6.7434937    344.53468  0.023456882  0.023072247           28 
 1225000   0.77874244   -6.7641712    344.17654   0.02341337  0.023057534           27 
 1226000   0.75997374   -6.7530913    344.48168  0.023415014  0.023042833           55 
 1227000     0.750693   -6.7352957     344.0001  0.023363224  0.023028216           43 
 1228000   0.76053524   -6.7447742    343.98808  0.023343382  0.023013612           57 
 1229000   0.77647486    -6.740307    344.47614  0.023357482  0.022998959           39 
 1230000   0.76852134   -6.7867791    344.72232  0.023355171  0.022984282           58 
 1231000   0.77218836   -6.7759576    344.65024  0.023331319  0.022969659           64 
 1232000   0.75185567   -6.7646771    344.95321  0.023332874  0.022954991           64 
 1233000   0.77890145   -6.7458605    344.71681  0.023297973  0.022940428           72 
 1234000   0.73160592   -6.7575617    344.93061  0.023293531  0.022925816           38 
 1235000   0.76674107   -6.7658951    344.94085  0.023275361  0.022911185           16 
 1236000   0.77518824   -6.7645273    344.95541  0.023257511  0.022896608           44 
 1237000   0.75458274   -6.7707696    345.19694  0.023254981  0.022881998           80 
 1238000   0.75380017   -6.8034825     344.7973  0.023209296  0.022867345           54 
 1239000    0.7530384    -6.805034    345.43468  0.023233433  0.022852689           46 
 1240000   0.75159062   -6.7514197    345.91522  0.023246991  0.022838107           74 
 1241000   0.76383293   -6.7554899    346.62292   0.02327578   0.02282361           57 
 1242000   0.76172064   -6.7906416     345.8105   0.02320253  0.022809113           36 
 1243000   0.74795193   -6.8042657    345.73554  0.023178837  0.022794633           32 
 1244000   0.76602143   -6.7512694    346.39055  0.023204083  0.022780137           19 
 1245000   0.74102411   -6.7762392    345.73141  0.023141326  0.022765694           23 
 1246000   0.77562004   -6.7816396    346.27842  0.023159338  0.022751242           27 
 1247000   0.75541945   -6.7521361    347.22093  0.023203751  0.022736864           35 
 1248000   0.74637025   -6.7864986    346.65437  0.023147327  0.022722475           59 
 1249000   0.75580498   -6.7629524    346.71158  0.023132612  0.022708088           31 
 1250000   0.77665902   -6.7463435    346.86745  0.023124497    0.0226937           20 
 1251000   0.75696439   -6.7963778    346.39329  0.023074427  0.022679272           21 
 1252000   0.74626843   -6.7967814    346.57253  0.023067926  0.022664839           21 
 1253000   0.75793905   -6.8105422    347.08857  0.023083837  0.022650356           35 
 1254000   0.77159964   -6.7849223    346.83041  0.023048273  0.022635919           39 
 1255000   0.75592163   -6.7794126    347.29315  0.023060634   0.02262163           16 
 1256000   0.76073496   -6.7669058    346.47724   0.02298814  0.022607345           46 
 1257000   0.75204668   -6.7613997    347.49199  0.023037125  0.022592946           18 
 1258000   0.74470627   -6.7544635    347.16806  0.022997354  0.022578581           15 
 1259000   0.75410284   -6.7679164    347.44451  0.022997386  0.022564249           24 
 1260000    0.7623355   -6.7988054    347.00736  0.022950222  0.022549823           30 
 1261000   0.75631476   -6.7895175    347.16407  0.022942378  0.022535357           37 
 1262000   0.74016713   -6.7878268    347.21805  0.022927764  0.022520919           23 
 1263000   0.75085191   -6.7616344    347.34426  0.022917937  0.022506517           33 
 1264000   0.75847704   -6.8195435    347.15192  0.022887125  0.022492056           26 
 1265000    0.7643452    -6.795255    347.74054  0.022907809  0.022477691           44 
 1266000   0.75554719   -6.7812581    347.32305  0.022862233  0.022463401           58 
 1267000   0.74845296    -6.764404    347.74032  0.022871634  0.022449149           43 
 1268000   0.73622142   -6.8020131    348.45124  0.022900318  0.022434953           98 
 1269000   0.75703619   -6.7796863    348.96884  0.022916262   0.02242075           68 
 1270000   0.75940647    -6.784904    348.63129  0.022876069  0.022406501           78 
 1271000   0.74691769   -6.7670115    348.96641  0.022880043  0.022392235           67 
 1272000   0.74168156    -6.786896    348.65716  0.022841795  0.022377976           52 
 1273000   0.74943906   -6.8097586    347.97379  0.022779117  0.022363685           39 
 1274000   0.75407979   -6.7911034    349.22531    0.0228431  0.022349408           73 
 1275000   0.75627929   -6.7517776     348.6517  0.022787693  0.022335203           16 
 1276000   0.74210582   -6.7720151    348.52901  0.022761821  0.022320998           64 
 1277000   0.75801766   -6.8079847    349.55437  0.022810909  0.022306768           80 
 1278000    0.7397039   -6.8117577    348.98044  0.022755636  0.022292502           88 
 1279000    0.7369912   -6.8119719    348.67794  0.022718135  0.022278187          125 
 1280000   0.73126145   -6.8151871    348.80798  0.022708853  0.022263907           70 
 1281000   0.75581014   -6.8091612    349.09569  0.022709842  0.022249733           76 
 1282000   0.74590247   -6.8126262    349.57874  0.022723527  0.022235521          109 
 1283000   0.73152267    -6.829093    349.29409  0.022687327  0.022221268           51 
 1284000   0.74386787    -6.812038    349.31963  0.022671316  0.022206906           71 
 1285000   0.72473793   -6.8312956    349.21272   0.02264674  0.022192536           28 
 1286000   0.75886316   -6.8159149    348.94589  0.022611839   0.02217822           75 
 1287000   0.73848916    -6.792254    349.34304  0.022619984  0.022163988           65 
 1288000   0.73550836   -6.8106484    349.25956  0.022597021   0.02214972          152 
 1289000   0.74533391   -6.8173641    349.15898  0.022572988  0.022135437           38 
 1290000   0.73951269   -6.8186581    349.16172  0.022555667  0.022121091          140 
 1291000   0.72951298   -6.8327012    348.25738   0.02247982  0.022106769           54 
 1292000   0.73751579   -6.8292205    348.78656  0.022496553  0.022092381          121 
 1293000   0.74267632   -6.8216374    349.08801  0.022498583  0.022077964           79 
 1294000   0.72799718   -6.8336272    349.37534    0.0224997  0.022063639           32 
 1295000   0.74343049   -6.7867587    349.27319  0.022475752  0.022049277          143 
 1296000   0.73287792   -6.8159546    349.69734  0.022485683  0.022035009           98 
 1297000   0.72673123   -6.8177575    349.26102  0.022440312  0.022020686          104 
 1298000   0.74282474   -6.8269298    348.81345  0.022394289  0.022006322          189 
 1299000   0.74086292   -6.8137072    349.43407  0.022416864  0.021991943          115 
 1300000   0.73395437   -6.8204317    349.64961  0.022413436  0.021977614           85 
 1301000   0.73934665   -6.8263879    349.78617  0.022404956  0.021963321          148 
 1302000   0.73967545    -6.819125    349.86795  0.022392982  0.021948985          297 
 1303000   0.74194377   -6.8483718    349.82582  0.022373102  0.021934579          265 
 1304000   0.73853331   -6.8387186    349.25689  0.022319587  0.021920235          190 
 1305000   0.73328371    -6.859703    349.11974  0.022293725  0.021905763          302 
 1306000   0.74595303   -6.8622486    349.14348   0.02227817  0.021891202          353 
 1307000    0.7192321     -6.85624     349.1867   0.02226388  0.021876639          431 
 1308000   0.72760845    -6.861016    348.55368  0.022206529  0.021862012          421 
 1309000    0.7355164   -6.8648114    349.09696  0.022224151  0.021847379          390 
 1310000   0.74154415   -6.8518209    349.85378  0.022255329  0.021832825          205 
 1311000     0.714555   -6.8430735    349.81572  0.022235935  0.021818277          367 
 1312000    0.7410778   -6.8567744    349.64407  0.022208084  0.021803662          394 
 1313000    0.7214677   -6.8518176     348.8987  0.022143863  0.021789015          390 
 1314000   0.74391491   -6.8529335    349.13275  0.022141854  0.021774386          266 
 1315000   0.73317441   -6.8550507     348.7298  0.022099481  0.021759801          305 
 1316000   0.72340986   -6.8753982    348.67493  0.022079213  0.021745173          232 
 1317000   0.72167743   -6.8480932    349.01243  0.022083803  0.021730558          289 
 1318000   0.72745678   -6.8397052    348.41112  0.022029029  0.021715957          348 
 1319000   0.73830979     -6.83541    349.49968  0.022081102  0.021701324          404 
 1320000   0.71600886   -6.8768309    349.08667    0.0220383  0.021686712          458 
 1321000   0.71534298   -6.8398868    348.97883  0.022014814  0.021672013          325 
 1322000   0.72091632   -6.8715566    349.31514  0.022019361  0.021657389          341 
 1323000   0.73568978   -6.8589979    349.53755  0.022016727  0.021642811          447 
 1324000   0.73669537   -6.8532072    349.49567  0.021997462  0.021628207          362 
 1325000   0.73751997   -6.8628909    349.74067  0.021996269  0.021613544          404 
 1326000   0.71603556     -6.87094    349.34734  0.021954961   0.02159888          484 
 1327000   0.70711312    -6.879253    348.95456   0.02191375  0.021584188          457 
 1328000   0.73288428   -6.8721159    348.79289  0.021887104  0.021569438          521 
 1329000   0.71779365   -6.8591247    349.37226  0.021906964  0.021554737          552 
 1330000   0.72264683    -6.917306    348.61602  0.021843109  0.021540009          613 
 1331000   0.71195888   -6.8830317     348.8668  0.021842399  0.021525236          516 
 1332000   0.71653214   -6.8658873    349.16943  0.021844934  0.021510462          545 
 1333000   0.72817209   -6.8781617    349.46504  0.021847027   0.02149574          529 
 1334000   0.71671887   -6.8852231    349.28188  0.021819208  0.021480965          508 
 1335000   0.73732824   -6.8941618    348.52966  0.021755909  0.021466227          560 
 1336000   0.73125698   -6.8761921    349.10733  0.021775657  0.021451518          574 
 1337000   0.72691491   -6.8870562    349.75112  0.021799496  0.021436741          656 
 1338000   0.72280045   -6.8856848    348.93148  0.021732155  0.021421925          711 
 1339000   0.71454399   -6.9023249    348.27848  0.021675285  0.021407093          682 
 1340000   0.70613921   -6.8899908     350.1473  0.021775329  0.021392246          735 
 1341000   0.71898679   -6.9267829    348.83417   0.02167749  0.021377415          724 
 1342000   0.70558666    -6.914701    348.99612  0.021671393  0.021362553          734 
 1343000    0.7276568   -6.9328013    348.72953  0.021638715  0.021347636          895 
 1344000   0.70977591   -6.9124959     348.0575  0.021580946  0.021332682          848 
 1345000   0.71548168    -6.899404     349.2323  0.021637689  0.021317802          817 
 1346000   0.70999783   -6.9258094    348.70751  0.021589122  0.021302861          985 
 1347000   0.72653989   -6.9361944    348.63362  0.021568524  0.021287897         1013 
 1348000   0.71755948   -6.9350439    348.47604  0.021542782  0.021272923         1014 
 1349000   0.71168564   -6.9198922    349.07009   0.02156351  0.021258009          975 
 1350000   0.72580564   -6.9413972    349.09548  0.021549104  0.021243064         1064 
 1351000   0.71384939   -6.9444306    348.75339  0.021512052  0.021228117         1241 
 1352000   0.70890748   -6.9498794    348.67996  0.021491615  0.021213094         1280 
 1353000   0.71157633   -6.9292501    348.62701  0.021472469  0.021198099         1316 
 1354000   0.71772483   -6.9365858    348.87902  0.021472121  0.021183065         1437 
 1355000   0.70715864   -6.9549233     348.6222   0.02144048  0.021168003         1482 
 1356000   0.71566947    -6.983573    348.72029  0.021430696  0.021152896         1679 
 1357000   0.69555837   -6.9642267    348.70525   0.02141398  0.021137708         1601 
 1358000   0.71019864   -6.9775738    348.06682  0.021359034  0.021122549         1752 
 1359000   0.70570914   -6.9982218    348.07466  0.021343798  0.021107343         1786 
 1360000   0.68450563   -7.0061737    347.47744   0.02129151  0.021092042         1872 
 1361000   0.71368956   -7.0159418    347.89757   0.02130159  0.021076778         1931 
 1362000   0.72070191   -7.0178113    347.23219  0.021245239  0.021061475         1883 
 1363000   0.71579567   -7.0160548    347.43404  0.021241993  0.021046208         1826 
 1364000   0.70972182   -7.0231683    346.87963  0.021192548  0.021030934         1932 
 1365000   0.71194319   -7.0155164    347.55647  0.021218344  0.021015603         1973 
 1366000   0.70204989   -7.0057648    346.70246  0.021150711  0.021000215         2045 
 1367000   0.69749623   -7.0703047    346.33272    0.0211127  0.020984792         2121 
 1368000    0.7272632   -7.0514649    347.42001  0.021163499  0.020969295         2216 
 1369000   0.70400924   -7.0765867    345.92487  0.021057029  0.020953729         2273 
 1370000   0.69379044   -7.0468428    346.37668  0.021069141  0.020938141         2239 
 1371000    0.6989818    -7.061907    346.32696  0.021050751   0.02092253         2331 
 1372000   0.71019219   -7.0949392    346.04124  0.021018054  0.020906896         2565 
 1373000   0.69685528    -7.082164    346.80896  0.021049342  0.020891234         2513 
 1374000   0.69885777   -7.0658202    346.31897  0.021004305  0.020875553         2643 
 1375000   0.69664798   -7.1139398    346.45319  0.020997163  0.020859847         2681 
 1376000   0.71465952   -7.0817463    345.55059   0.02092724  0.020844096         2723 
 1377000   0.70475358   -7.1006292    346.60062  0.020975588  0.020828323         2700 
 1378000   0.70385775   -7.1331771    345.47142  0.020892079  0.020812562         2829 
 1379000   0.70731549   -7.1296596    345.64042  0.020887142  0.020796774         2816 
 1380000   0.70943379   -7.1145296    346.04903  0.020896681  0.020780952         2841 
 1381000   0.69300946   -7.1435124    345.31307  0.020837139  0.020765122         2966 
 1382000    0.7150864   -7.1193211    345.51284  0.020834108  0.020749272         2946 
 1383000   0.70216914   -7.1464294    345.00997  0.020788743  0.020733388         2920 
 1384000   0.70158975   -7.1207816    344.83403  0.020763128   0.02071752         2905 
 1385000   0.69974352   -7.1348653     344.7765  0.020744675  0.020701654         3026 
 1386000   0.69165621    -7.143393    344.87306  0.020735514  0.020685815         2997 
 1387000   0.69398897    -7.145516     345.1734  0.020738608   0.02066994         3015 
 1388000   0.69715441    -7.147507    345.98806  0.020772578  0.020654074         2954 
 1389000   0.71738132   -7.1501231    345.82901  0.020748081   0.02063823         3047 
 1390000   0.70863378   -7.1601241    344.97793   0.02068213  0.020622366         3068 
 1391000   0.70215154   -7.1550894    345.26944  0.020684726  0.020606465         3038 
 1392000   0.68078136   -7.1410031    345.34826  0.020674584  0.020590562         3052 
 1393000   0.70099886     -7.16543    344.82097  0.020628199  0.020574646         3054 
 1394000   0.69346281   -7.1559745    345.08981  0.020629472  0.020558727         3043 
 1395000   0.68894772   -7.1571873    345.31353  0.020628048  0.020542806         3066 
 1396000   0.68632834   -7.1673831    345.59306  0.020629958    0.0205269         3066 
 1397000   0.68436962   -7.1535433    344.17935  0.020530861  0.020511009         3073 
 1398000   0.68939223   -7.1698126    345.22367  0.020578426  0.020495113         3013 
 1399000   0.69601183   -7.1313405    345.63031  0.020587938  0.020479246         3079 
 1400000   0.70416362   -7.1717047    345.11119  0.020542333  0.020463307         3054 
 1401000   0.70770192   -7.1815068    344.62685  0.020498861  0.020447428         3093 
 1402000   0.68036576   -7.1897331      344.688  0.020487874  0.020431527         3117 
 1403000    0.6889879   -7.1693782    345.18198  0.020502612  0.020415624         3095 
 1404000   0.68610598   -7.1701399    344.88073  0.020470129  0.020399713         3116 
 1405000   0.70047585   -7.1821298    344.75987  0.020448391   0.02038378         3129 
 1406000   0.70698521   -7.1830492    344.71596  0.020431245  0.020367872         3121 
 1407000    0.6947372   -7.1783749    344.87865  0.020426359  0.020351962         3163 
 1408000   0.68443981   -7.1908347    344.37077  0.020381793  0.020336051         3215 
 1409000   0.70780358   -7.2002722    344.91101  0.020399279  0.020320132         3155 
 1410000   0.69202318   -7.2093649    345.07895  0.020394737  0.020304266         3143 
 1411000   0.70166659   -7.1753115    345.41783  0.020400297  0.020288392         3139 
 1412000   0.69457761   -7.2062717    344.51946  0.020332829  0.020272469         3221 
 1413000   0.67740154   -7.1851741    343.95115  0.020284923  0.020256532         3217 
 1414000   0.69248653   -7.2215647    344.76894  0.020318773  0.020240575         3272 
 1415000   0.67944866   -7.2216547    344.73574  0.020302458  0.020224606         3214 
 1416000   0.68375518   -7.2332649     343.8565  0.020236376  0.020208652         3242 
 1417000   0.69774931   -7.2135917     344.2926  0.020247741  0.020192691         3292 
 1418000   0.68373231   -7.2336719    343.81056  0.020205134  0.020176744         3297 
 1419000   0.66850597   -7.2033836    343.72187  0.020185687  0.020160762         3264 
 1420000   0.68442691   -7.2255227    344.61689  0.020223996   0.02014477         3254 
 1421000   0.70429299   -7.2301803     344.8576   0.02022388  0.020128803         3306 
 1422000   0.68542914    -7.225657    344.96321  0.020215847  0.020112847         3321 
 1423000   0.67976811   -7.2174319    344.49879  0.020174443  0.020096912         3326 
 1424000    0.6864686   -7.2046101    344.14942   0.02013983  0.020080944         3319 
 1425000     0.681897   -7.2538821    343.54547  0.020090378  0.020064945         3359 
 1426000   0.68122174   -7.2577022    343.99472  0.020102543  0.020048938         3414 
 1427000   0.70055731   -7.2507096    344.26655   0.02010433  0.020032892         3424 
 1428000   0.67871307   -7.2913558    343.65422  0.020054518  0.020016875         3423 
 1429000   0.67928477   -7.2812593    343.93296  0.020056739  0.020000815         3396 
 1430000   0.68143371   -7.2742127    343.99277  0.020046199  0.019984755         3418 
 1431000   0.67813593    -7.282934    343.96655  0.020030663  0.019968679         3427 
 1432000   0.69403819   -7.2641487    343.43596  0.019985799  0.019952605         3520 
 1433000   0.69824896   -7.2592328    343.61342  0.019982172  0.019936491         3489 
 1434000   0.67943341   -7.2740266    342.73728  0.019917322  0.019920352         3562 
 1435000    0.6885894   -7.2972276    342.83752  0.019909264  0.019904192         3523 
 1436000   0.67335039   -7.2908988    343.15917  0.019914065  0.019888088         3536 
 1437000   0.66526425   -7.2952165    343.75087   0.01993452  0.019871961         3587 
 1438000   0.67748288   -7.3089664    342.51368  0.019848961  0.019855783         3638 
 1439000   0.66846566   -7.3297641    342.09724  0.019811052  0.019839588         3699 
 1440000   0.68733592   -7.3240835    342.50974  0.019821166  0.019823398         3677 
 1441000   0.68155253   -7.3456715    342.31194  0.019795971  0.019807188         3690 
 1442000   0.68307651   -7.3387337    342.79263  0.019810023  0.019790971         3745 
 1443000   0.67579612   -7.3310727    342.29012  0.019767274  0.019774738         3720 
 1444000   0.68419853   -7.3413982    343.11216  0.019801025   0.01975852         3724 
 1445000   0.67473784   -7.3577393    342.80396  0.019769548  0.019742294         3724 
 1446000    0.6538354   -7.3607307    342.20105   0.01972113  0.019726031         3763 
 1447000   0.65310085   -7.3642113    342.27702  0.019711876  0.019709772         3793 
 1448000   0.68254682   -7.3269034    341.34092   0.01964439  0.019693497         3732 
 1449000   0.68071677   -7.3602746    342.46279  0.019695352  0.019677238         3779 
 1450000   0.67703059    -7.366422    342.05774  0.019658491  0.019661005         3760 
 1451000   0.67732633   -7.3576399    341.36703  0.019605274  0.019644743         3769 
 1452000   0.68383754   -7.3592157    341.75721  0.019614165  0.019628501         3798 
 1453000   0.68012982    -7.376544    342.34414  0.019634328  0.019612214         3780 
 1454000   0.67250785   -7.3542179     341.0749   0.01954808  0.019595952         3815 
 1455000   0.65423219   -7.4011856    342.21102  0.019599715  0.019579666         3801 
 1456000   0.67355379   -7.4083558    341.60142  0.019551363  0.019563369         3824 
 1457000   0.67300104   -7.3765371    341.53815  0.019534326  0.019547076         3815 
 1458000   0.67158245   -7.3759562     342.4213  0.019571405  0.019530809         3831 
 1459000   0.67103577   -7.3872623    341.71425  0.019517607  0.019514543         3834 
 1460000   0.67430188    -7.381522     341.7081  0.019503887   0.01949827         3823 
 1461000   0.65914139   -7.3997785    341.59867  0.019484296  0.019482004         3827 
 1462000   0.68213114   -7.3844578    341.84163  0.019484817  0.019465751         3855 
 1463000   0.66600519   -7.3784159    341.19565  0.019434703  0.019449488         3843 
 1464000   0.67246497   -7.3835334    341.76954  0.019454095   0.01943326         3840 
 1465000   0.66281346   -7.4134671    340.93531  0.019393362   0.01941701         3847 
 1466000   0.66173132   -7.3880679     341.6728  0.019422055  0.019400783         3837 
 1467000   0.67241881   -7.3998457    341.01072  0.019371207  0.019384553         3851 
 1468000   0.66522972   -7.3820884    341.55893  0.019389131  0.019368355         3829 
 1469000   0.68474057   -7.4083054    341.03399  0.019346153  0.019352163         3813 
 1470000   0.66176454    -7.408256    342.03294  0.019389622  0.019335952         3836 
 1471000   0.66006224   -7.3986689    341.17341  0.019327748  0.019319758         3831 
 1472000   0.66549991   -7.3922513    341.65319  0.019341779   0.01930359         3833 
 1473000   0.65735797   -7.4144439      341.413   0.01931506  0.019287408         3863 
 1474000   0.66883423   -7.3977578    341.27155  0.019293959  0.019271252         3845 
 1475000   0.66512961   -7.4133854    341.10523  0.019271482  0.019255076         3842 
 1476000   0.67302516   -7.3903061    340.79143  0.019240709  0.019238919         3836 
 1477000   0.65269447   -7.3936917    341.28093    0.0192553  0.019222781         3824 
 1478000   0.66571312   -7.4072764    342.12554  0.019289893  0.019206654         3833 
 1479000   0.66622245   -7.4096861    341.21428  0.019225506  0.019190525         3864 
 1480000    0.6599257   -7.4040003    341.32399  0.019218693  0.019174411         3852 
 1481000   0.67168651   -7.4012497    340.61196  0.019165651  0.019158306         3867 
 1482000   0.66266167   -7.4061082    340.84863  0.019166027  0.019142195         3853 
 1483000   0.66380462   -7.4064106    340.75358  0.019147762    0.0191261         3850 
 1484000   0.65325341   -7.4046409    340.60232  0.019126366  0.019110015         3836 
 1485000   0.65298696   -7.4307236    341.54087  0.019166154   0.01909395         3846 
 1486000   0.64900157   -7.4194097    341.59801  0.019156461  0.019077877         3853 
 1487000   0.65140024    -7.419362    341.40024  0.019132495  0.019061817         3855 
 1488000   0.66608808   -7.3953612    341.44524  0.019122157  0.019045804         3847 
 1489000   0.66141491   -7.4085586    340.35467   0.01904828  0.019029779         3890 
 1490000   0.65706124    -7.427111    340.60342  0.019049408  0.019013765         3863 
 1491000   0.65900923   -7.4215247    340.75332   0.01904501  0.018997757         3869 
 1492000   0.66004978   -7.4208892    341.20411  0.019057424  0.018981771         3847 
 1493000   0.67813187   -7.4239884    341.39996  0.019055591   0.01896579         3869 
 1494000   0.66117126   -7.4348076    340.89375    0.0190146  0.018949778         3875 
 1495000   0.66554084   -7.4384865     341.0522  0.019010714  0.018933753         3881 
 1496000   0.64743096   -7.4474003    340.65448  0.018975851   0.01891771         3879 
 1497000   0.66100927   -7.4344475    340.01341  0.018927489  0.018901684         3886 
 1498000   0.66167133   -7.4557739    340.70778  0.018953481  0.018885685         3878 
 1499000   0.66464666   -7.4534976    340.47386  0.018927833  0.018869637         3887 
 1500000   0.65310598   -7.4610458    340.63705  0.018924281  0.018853614         3897 
 1501000   0.66840832   -7.4572776    340.21641  0.018888319   0.01883759         3923 
 1502000   0.64234327   -7.4456988    340.23942  0.018877021  0.018821575         3905 
 1503000   0.65703676    -7.450559    340.51884  0.018879954  0.018805567         3908 
 1504000   0.65458157   -7.4530264    340.59077  0.018871385  0.018789583         3908 
 1505000   0.64768951   -7.4769504    340.55849  0.018857059   0.01877359         3928 
 1506000   0.65866988   -7.4702179     340.5196  0.018842386  0.018757608         3908 
 1507000   0.62807798   -7.4571729    339.66316  0.018782524  0.018741633         3914 
 1508000   0.65006649   -7.4679533    340.68409  0.018826486  0.018725671         3927 
 1509000   0.64875545    -7.472583    340.57095  0.018807762  0.018709745         3904 
 1510000   0.63940261   -7.4755644    340.42799  0.018787417  0.018693813         3879 
 1511000   0.65193162   -7.4532025    339.94913  0.018748573  0.018677892         3901 
 1512000    0.6379687   -7.4604973    340.04333  0.018741365  0.018661988         3928 
 1513000   0.66375429    -7.484913    340.22017  0.018738718  0.018646072         3918 
 1514000   0.66201066   -7.4712956    340.25098  0.018728037  0.018630187         3911 
 1515000   0.63940188   -7.4563379    340.21153  0.018713505  0.018614305         3910 
 1516000   0.66888458   -7.4813894    340.30048  0.018706051  0.018598433         3906 
 1517000   0.65331583   -7.4541543    339.74093  0.018662982  0.018582586         3930 
 1518000    0.6437175   -7.4616849    340.64336  0.018700228  0.018566739         3909 
 1519000   0.66308197   -7.4833558    340.02729  0.018654119  0.018550893         3899 
 1520000   0.64231655   -7.4686175    339.87336  0.018633408  0.018535068         3900 
 1521000    0.6444382   -7.4820659    339.90604  0.018622948  0.018519268         3911 
 1522000   0.65695684   -7.4722728    339.84357  0.018607292  0.018503461         3898 
 1523000   0.64732082   -7.4781024    340.04952  0.018606343   0.01848767         3926 
 1524000   0.63113302   -7.4776606    340.17796  0.018601157  0.018471894         3918 
 1525000   0.65264003   -7.4802696    340.09966  0.018584681  0.018456108         3908 
 1526000   0.64872561   -7.4561232    339.93978  0.018563771   0.01844036         3905 
 1527000   0.64569003   -7.4790033    340.33652  0.018573266  0.018424614         3894 
 1528000   0.64582755   -7.4808162    340.28153  0.018558111  0.018408889         3919 
 1529000   0.65033331   -7.4710405    339.54781  0.018505985  0.018393163         3915 
 1530000   0.63459243   -7.4727628    339.83864   0.01850973  0.018377458         3921 
 1531000   0.63664479   -7.4556274     340.1304  0.018513521  0.018361769         3903 
 1532000   0.64835831   -7.4876301    339.95829  0.018492074  0.018346086         3879 
 1533000   0.64858585   -7.4908874    339.98021  0.018481203  0.018330394         3906 
 1534000   0.61921845   -7.4688665    339.72292  0.018455178  0.018314727         3907 
 1535000   0.62970109    -7.491293    339.98872  0.018457585   0.01829904         3908 
 1536000   0.63515811   -7.4842648    340.53592  0.018475256  0.018283378         3926 
 1537000   0.63451078   -7.5109278     339.9277  0.018430259  0.018267743         3910 
 1538000   0.63553559   -7.4700494    340.06778  0.018425866  0.018252091         3890 
 1539000   0.64495159   -7.5010999    339.79859  0.018399317  0.018236449         3911 
 1540000   0.64058133   -7.5185698    339.05022  0.018346873  0.018220823         3917 
 1541000   0.63285874   -7.5017085    339.48164  0.018358297  0.018205208         3883 
 1542000   0.63596536   -7.4962236    339.64753  0.018355357  0.018189618         3899 
 1543000   0.63958574   -7.4839003    340.64408  0.018397282  0.018174037         3896 
 1544000   0.64064093   -7.4989017    339.47175  0.018322094  0.018158458         3901 
 1545000   0.63652337    -7.499391    339.44911  0.018309013  0.018142898         3891 
 1546000    0.6327866   -7.4875279    339.52422  0.018301219  0.018127339         3895 
 1547000   0.62994212   -7.5062288    340.16869  0.018324105   0.01811181         3895 
 1548000   0.63984297    -7.497103    339.69536  0.018286787  0.018096291         3903 
 1549000   0.63240886   -7.5175473    339.55387   0.01826737  0.018080777         3912 
 1550000   0.62956632   -7.4875712    340.48211   0.01830549  0.018065275         3899 
 1551000   0.64773285   -7.5048465    340.22986  0.018280134  0.018049783         3903 
 1552000   0.64500334   -7.5055397     339.4623  0.018227142  0.018034303         3908 
 1553000    0.6404667    -7.488799    339.74517  0.018230584  0.018018825         3905 
 1554000   0.64048941    -7.500136    339.20716  0.018190002  0.018003365         3909 
 1555000   0.63552182   -7.5011772    339.18651  0.018177198  0.017987925         3918 
 1556000   0.63613262    -7.512067    339.56198  0.018185624  0.017972499         3910 
 1557000   0.61497191   -7.5072621    339.73161  0.018183024  0.017957087         3891 
 1558000   0.63261324   -7.5036831    339.49565  0.018158732  0.017941664         3896 
 1559000   0.62133079   -7.4918764    339.76775  0.018161629  0.017926271         3906 
 1560000    0.6396067    -7.526207    339.87165  0.018155537  0.017910888         3901 
 1561000   0.63532019   -7.4974666    340.00867  0.018151221  0.017895515         3896 
 1562000   0.62862415   -7.5159086    339.56523  0.018115943   0.01788017         3884 
 1563000   0.62303091   -7.5256664    338.99662  0.018074036  0.017864816         3911 
 1564000   0.63386028   -7.5050474    338.96468  0.018060778  0.017849471         3917 
 1565000    0.6232057    -7.486825    339.06511  0.018054585  0.017834142         3891 
 1566000   0.61583295    -7.505698    339.77265  0.018080707  0.017818838         3906 
 1567000   0.62291355   -7.5057219    339.10497  0.018033661  0.017803544         3882 
 1568000   0.62442099   -7.5168869    339.04644   0.01801905   0.01778826         3899 
 1569000    0.6227639   -7.5019066    338.69221  0.017988751  0.017772996         3909 
 1570000   0.61354146   -7.5323361      338.805   0.01798328  0.017757724         3926 
 1571000   0.62413092   -7.5152196    339.85887  0.018027735  0.017742483         3922 
 1572000   0.62017236   -7.5164915    339.60099  0.018002597  0.017727241         3918 
 1573000   0.63668411   -7.5149477    340.18481  0.018022081  0.017712029         3911 
 1574000   0.62888595   -7.5177707    338.77541  0.017936013  0.017696822         3901 
 1575000    0.6270945   -7.5100467    339.39153  0.017957224  0.017681628         3895 
 1576000   0.62171762   -7.5274768    339.21594  0.017936545  0.017666447         3889 
 1577000   0.61995013   -7.5185531    338.96821  0.017912081   0.01765127         3899 
 1578000   0.62140485   -7.5204705    339.30339   0.01791843  0.017636111         3915 
 1579000    0.6173161   -7.5226432    339.16144   0.01789959  0.017620963         3917 
 1580000   0.60472898   -7.5073065    339.23865  0.017892334  0.017605829         3909 
 1581000   0.62728388   -7.5330552    339.03922  0.017870505  0.017590713         3908 
 1582000   0.63993755   -7.5397931    339.25524  0.017870588  0.017575608         3917 
 1583000   0.61261507   -7.5319687    339.20347  0.017856573  0.017560521         3921 
 1584000   0.61800235   -7.5218161    339.37826  0.017854496  0.017545438         3912 
 1585000   0.61509569   -7.5166458    339.47001  0.017848055  0.017530385         3903 
 1586000   0.62896144   -7.5063819    338.70147   0.01779642  0.017515335         3918 
 1587000    0.6242821    -7.512221    339.37481  0.017820563    0.0175003         3912 
 1588000   0.63284788   -7.5267643     339.0524  0.017792423  0.017485271         3915 
 1589000   0.59751567    -7.539835     338.5116  0.017752863  0.017470235         3894 
 1590000   0.62413742   -7.5423926    339.26212  0.017781034  0.017455216         3914 
 1591000   0.60214966   -7.5109743    339.24578  0.017769002  0.017440226         3901 
 1592000   0.61536525   -7.5355365     339.5091  0.017771624  0.017425253         3921 
 1593000   0.61981786   -7.5403505    339.21092  0.017744869  0.017410271         3899 
 1594000   0.61819702   -7.5273637    339.93174  0.017771421  0.017395314         3919 
 1595000   0.61069924   -7.5310824    339.28891  0.017726693  0.017380389         3906 
 1596000   0.61673685   -7.5358074    339.16421  0.017709075  0.017365452         3899 
 1597000   0.60647496    -7.514844    338.90309  0.017684361  0.017350528         3911 
 1598000   0.60312799   -7.5193923    339.53682  0.017706342  0.017335615         3911 
 1599000    0.6190045    -7.528687    338.71176   0.01765227  0.017320719         3919 
 1600000     0.597551   -7.5339916    338.83009  0.017647401  0.017305832         3909 
 1601000   0.61021893   -7.5349994    339.01118  0.017645803  0.017290969         3917 
 1602000   0.61518433   -7.5181049    338.57206  0.017611946  0.017276109         3920 
 1603000   0.61141026   -7.5445279    338.50995  0.017597731  0.017261267         3924 
 1604000   0.61553196   -7.5251255    338.70674  0.017596984  0.017246432         3913 
 1605000     0.613799   -7.5301011    338.73528  0.017587502   0.01723163         3922 
 1606000   0.61143174   -7.5259835    338.88175  0.017584151  0.017216822         3906 
 1607000   0.60822806   -7.5352554    339.01729  0.017580237  0.017202041         3920 
 1608000   0.60257219   -7.5430136     338.4664  0.017540754  0.017187271         3900 
 1609000   0.61097794   -7.5378506    339.31174  0.017573635  0.017172509         3916 
 1610000   0.61820792   -7.5454094    338.84637  0.017538632  0.017157771         3927 
 1611000   0.60645124   -7.5389422    338.41275  0.017505315  0.017143024         3909 
 1612000   0.59674916   -7.5267696    338.87339  0.017518269  0.017128315         3898 
 1613000   0.61234944   -7.5336517    339.00598  0.017514258  0.017113612         3910 
 1614000   0.60038123   -7.5438063    338.25909  0.017464843  0.017098921         3919 
 1615000   0.60853802    -7.530257    339.53083  0.017519651  0.017084241         3903 
 1616000   0.60432244    -7.532481    339.08882  0.017486016  0.017069571         3923 
 1617000   0.61554741    -7.537486    338.64107  0.017452127  0.017054904         3913 
 1618000   0.60652633   -7.5497453    339.21256  0.017470774  0.017040264         3915 
 1619000   0.60097087    -7.524728    339.11687  0.017455058   0.01702563         3916 
 1620000   0.61806095   -7.5486746    338.82525  0.017429283  0.017011005         3922 
 1621000   0.60142042   -7.5692297    338.88423  0.017421562  0.016996409         3919 
 1622000   0.61129897   -7.5379202    339.12601  0.017423243  0.016981805         3918 
 1623000   0.61692685    -7.534805    338.16254  0.017363039  0.016967224         3914 
 1624000   0.59588126   -7.5558106    338.45277   0.01736724  0.016952646         3906 
 1625000   0.61070914   -7.5456123    338.59209  0.017363697  0.016938102         3914 
 1626000   0.60426866   -7.5578522    339.29425  0.017389004  0.016923561         3922 
 1627000   0.58989354   -7.5367424    338.79304  0.017352645   0.01690904         3919 
 1628000   0.60382753    -7.562476    339.21833  0.017363756  0.016894535         3911 
 1629000   0.60558129   -7.5368643    338.97238  0.017340515  0.016880017         3917 
 1630000   0.60050158   -7.5373744    338.96906  0.017329706  0.016865528         3916 
 1631000   0.59466501   -7.5444241    339.72197   0.01735755  0.016851057         3912 
 1632000   0.60229191   -7.5578695    338.95991  0.017308002  0.016836616         3935 
 1633000   0.60136871   -7.5709081    339.32375   0.01731597  0.016822169         3932 
 1634000   0.60111276   -7.5370224    338.82814  0.017280097  0.016807737         3933 
 1635000   0.59774827   -7.5428412    338.28673  0.017241933  0.016793317         3925 
 1636000   0.60047723   -7.5670993    338.67723  0.017251285  0.016778893         3921 
 1637000   0.60018829   -7.5476995    338.51593  0.017232536  0.016764518         3917 
 1638000      0.61439   -7.5686491    338.35474  0.017213815  0.016750137         3917 
 1639000   0.58861911   -7.5467248    338.15603  0.017193209  0.016735771         3912 
 1640000   0.60053437   -7.5531953    338.87386    0.0172192  0.016721405         3901 
 1641000   0.58855374   -7.5573992    338.34858  0.017182033  0.016707061         3912 
 1642000   0.59296392   -7.5383672    338.47332  0.017177899  0.016692732         3914 
 1643000   0.61716977   -7.5524226    338.55806  0.017171742  0.016678429         3907 
 1644000   0.60368419   -7.5545573    338.92386  0.017179839  0.016664129         3922 
 1645000   0.60042471   -7.5662521    339.16663  0.017181693  0.016649842         3905 
 1646000   0.59682765   -7.5676501    338.28705  0.017126724   0.01663557         3927 
 1647000   0.59407773    -7.548994     338.4052  0.017122303  0.016621307         3921 
 1648000   0.61046764   -7.5402974    338.78262  0.017130998  0.016607067         3912 
 1649000   0.60053443   -7.5569842    338.77012  0.017119978  0.016592835         3909 
 1650000   0.58670999   -7.5455143    338.72551  0.017107349  0.016578608         3916 
 1651000   0.59590266   -7.5641204    338.71409  0.017096411  0.016564413         3910 
 1652000   0.59231845   -7.5396906    338.18425  0.017059335  0.016550214         3898 
 1653000   0.59354638   -7.5523828    338.20077  0.017049847  0.016536037         3912 
 1654000   0.61427026   -7.5624386     338.6413  0.017061734  0.016521858         3930 
 1655000      0.59619   -7.5512966    338.38194  0.017038365  0.016507694         3915 
 1656000   0.58729199   -7.5732519     338.8491  0.017051585  0.016493535         3906 
 1657000   0.59284937   -7.5691397    338.70009  0.017033801  0.016479409         3916 
 1658000    0.5916267   -7.5548083    338.36395  0.017006632  0.016465281         3913 
 1659000   0.59983079   -7.5696343    338.03628  0.016979922  0.016451185         3914 
 1660000   0.58880762    -7.574002    338.60976  0.016998482  0.016437103         3909 
 1661000   0.58085396   -7.5733125    338.44397   0.01697993   0.01642302         3908 
 1662000   0.58003743   -7.5787499    338.27429  0.016961206  0.016408948         3909 
 1663000   0.59322412   -7.5599932    338.43278  0.016958949  0.016394886         3913 
 1664000   0.59392439   -7.5707726    338.34239   0.01694423   0.01638084         3917 
 1665000   0.57510798   -7.5604913    338.16505  0.016925178  0.016366806         3904 
 1666000   0.58945202    -7.584406    338.76471  0.016945014  0.016352793         3911 
 1667000   0.58012102   -7.5758497    337.86966  0.016890105  0.016338801         3892 
 1668000   0.58671046   -7.5933675    338.79854  0.016926386  0.016324814         3909 
 1669000   0.60811659   -7.5778824    339.33929  0.016943244  0.016310841         3905 
 1670000   0.59716069   -7.5790227    338.19185  0.016875841  0.016296891         3928 
 1671000   0.59057907   -7.6019019    338.52682  0.016882447  0.016282943         3923 
 1672000   0.58824315   -7.5703566    338.64957  0.016878467  0.016268998         3911 
 1673000   0.58037168   -7.5914317    338.09389    0.0168407  0.016255087         3911 
 1674000   0.59237273   -7.5713003    338.55706  0.016853697  0.016241186         3916 
 1675000   0.58736642     -7.58877    338.30298  0.016830994  0.016227288         3926 
 1676000   0.57739279   -7.5662201    337.89712  0.016800772  0.016213419         3903 
 1677000   0.57894059   -7.5838955    338.68725  0.016830016  0.016199563         3911 
 1678000   0.58188419   -7.5871765    338.40967  0.016806201  0.016185712         3920 
 1679000    0.5739672   -7.5675016    338.06566  0.016779118  0.016171861         3914 
 1680000   0.57175786   -7.5614343     338.2508  0.016778314  0.016158032         3914 
 1681000   0.57523847   -7.5893285    338.94474  0.016802733  0.016144217         3897 
 1682000   0.58337116   -7.5688685    338.33812  0.016762689  0.016130415         3901 
 1683000   0.57750317   -7.5451246    337.81176  0.016726667   0.01611662         3909 
 1684000   0.57700124   -7.5647928    338.17934  0.016734924   0.01610285         3905 
 1685000   0.58744543   -7.5644733    338.28962  0.016730446  0.016089075         3907 
 1686000   0.56272341    -7.582781    338.36823  0.016724409  0.016075333         3920 
 1687000   0.57598766   -7.5875502    337.80289  0.016686569  0.016061587         3921 
 1688000   0.57163364   -7.5618046    338.39273  0.016705802  0.016047868         3918 
 1689000   0.58221732   -7.5684136    338.26333  0.016689527  0.016034142         3926 
 1690000    0.5796476   -7.5877126    338.81434  0.016706822  0.016020436         3902 
 1691000   0.57061358   -7.5815724    337.14918  0.016614882  0.016006749         3898 
 1692000   0.57077508   -7.5804353    337.86296  0.016640217  0.015993076         3910 
 1693000   0.57527039   -7.5791034    337.79051  0.016626822  0.015979417         3903 
 1694000   0.56354652   -7.5815528    338.49693  0.016651758  0.015965772         3914 
 1695000   0.57441956   -7.5751653    338.41146  0.016637732   0.01595214         3914 
 1696000   0.57875112   -7.5888067    338.58881  0.016636636  0.015938514         3907 
 1697000    0.5857687   -7.5897145    338.24739  0.016610066  0.015924895         3931 
 1698000   0.56865753   -7.5668281    337.97136  0.016586738  0.015911299         3910 
 1699000   0.58107526    -7.579668    337.96301  0.016576565  0.015897712         3919 
 1700000   0.58248814   -7.5952175    338.14379  0.016575676  0.015884139         3909 
 1701000   0.58135166   -7.5997241    338.15641   0.01656655  0.015870586         3922 
 1702000   0.58341604   -7.5833526     338.4085  0.016569159  0.015857036         3902 
 1703000   0.57965828    -7.570845    338.48247  0.016563049   0.01584351         3908 
 1704000   0.56987577    -7.591003    338.19292  0.016539169  0.015829993         3914 
 1705000   0.56881109   -7.5773528    338.39433  0.016539312  0.015816485         3919 
 1706000   0.57896802   -7.5924716    338.11063   0.01651576     0.015803         3910 
 1707000   0.56745888   -7.5796982    338.03195  0.016502243  0.015789522         3914 
 1708000   0.58479499   -7.5778081    337.83785  0.016483111  0.015776056         3929 
 1709000   0.56698329   -7.5738052    338.03989  0.016483318  0.015762603         3919 
 1710000   0.57143289   -7.6051817    337.90814  0.016467258  0.015749151         3909 
 1711000   0.56716367   -7.6178018      338.102  0.016467076  0.015735722         3923 
 1712000   0.57446158   -7.5930896    338.18027  0.016461267   0.01572231         3909 
 1713000   0.55722443   -7.5930464    337.99235  0.016442516  0.015708913         3910 
 1714000   0.56216493   -7.5859037    337.96945  0.016431809  0.015695527         3913 
 1715000   0.57466505   -7.5876046     338.2437  0.016435554  0.015682153         3910 
 1716000    0.5793216   -7.5996177    337.96695  0.016412537  0.015668797         3925 
 1717000   0.56338107   -7.5843307    338.62201   0.01643477  0.015655455         3911 
 1718000   0.57565259   -7.6073734    338.22243  0.016405822  0.015642114         3920 
 1719000   0.56820693   -7.6031973     337.7275  0.016372285  0.015628788         3927 
 1720000   0.56371804    -7.600217    337.60184  0.016356678  0.015615477         3916 
 1721000   0.56368306   -7.5860488    337.63487  0.016348773  0.015602184         3920 
 1722000   0.57560333   -7.5999238    337.66068  0.016340528  0.015588897         3917 
 1723000   0.57332667     -7.59747    338.46747  0.016370065  0.015575629         3916 
 1724000   0.56043994   -7.5973769    337.65351  0.016321225  0.015562371         3916 
 1725000   0.58261244   -7.6114628    337.40356  0.016299689  0.015549128         3929 
 1726000   0.57341365   -7.5630412    338.20035  0.016328715  0.015535905         3918 
 1727000   0.55742338   -7.5960818    337.96063  0.016307693  0.015522686         3911 
 1728000   0.56537768   -7.6163425    337.62859  0.016282243  0.015509473         3913 
 1729000   0.56754468   -7.6158887    337.78848  0.016280532  0.015496274         3912 
 1730000   0.55895626   -7.6030733    337.21321  0.016243411  0.015483082         3916 
 1731000   0.57204986   -7.5993839    337.32252  0.016239289  0.015469917         3917 
 1732000   0.56656867    -7.592035    337.54875  0.016240798  0.015456753         3921 
 1733000   0.56470307   -7.6077242    338.12483  0.016259128  0.015443612         3917 
 1734000   0.57253535   -7.6011683    337.32587  0.016211355  0.015430488         3911 
 1735000   0.55795811   -7.6103361    337.37678  0.016204456  0.015417374         3920 
 1736000   0.55189933   -7.6139484    337.80528  0.016215691  0.015404264         3924 
 1737000   0.55090796   -7.6053114    338.09682  0.016220343  0.015391172         3915 
 1738000    0.5606406   -7.6244396    337.56194  0.016185363  0.015378097         3924 
 1739000   0.55742324   -7.6223798    337.76242  0.016185663  0.015365029         3925 
 1740000   0.55675309   -7.6018912    337.66948   0.01617191  0.015351969         3913 
 1741000   0.55997546   -7.5790993    337.16497  0.016138473  0.015338937         3911 
 1742000   0.56389546   -7.6032131    337.32046  0.016136647  0.015325902         3915 
 1743000   0.55298594   -7.6269064    337.67547  0.016144362  0.015312892         3921 
 1744000   0.55491538   -7.6107805    337.48373  0.016125943  0.015299892         3917 
 1745000   0.55850096   -7.5990778    338.03655  0.016143102  0.015286912         3907 
 1746000   0.55162133   -7.5988443    337.65736  0.016115758  0.015273937         3916 
 1747000   0.55048432    -7.600257    337.60246  0.016103914  0.015260971         3908 
 1748000   0.56429269   -7.5829976    337.57293  0.016093294  0.015248024         3908 
 1749000   0.55826136   -7.6229229    337.78105  0.016094008  0.015235081         3921 
 1750000   0.55035648   -7.6074916    337.42288  0.016067756  0.015222162         3908 
 1751000   0.54551219   -7.6137936     337.3896  0.016056996  0.015209267         3915 
 1752000   0.54655435   -7.6150263    337.36223  0.016046529  0.015196365         3917 
 1753000   0.55002096    -7.612839    338.02977  0.016069109  0.015183481         3918 
 1754000   0.54737281   -7.6307949    337.19087  0.016020091  0.015170608         3914 
 1755000   0.55259351   -7.6267747     337.7156  0.016035878  0.015157753         3913 
 1756000   0.55605266   -7.6164686    337.58686  0.016020637  0.015144914         3913 
 1757000   0.54235305   -7.6173128    337.57569  0.016010989  0.015132083         3907 
 1758000   0.55096523   -7.6226684    337.83242  0.016014051  0.015119271         3912 
 1759000   0.55746449   -7.6201902     337.6724  0.015997366   0.01510647         3903 
 1760000    0.5560522   -7.6322467    338.04598  0.016005965   0.01509368         3911 
 1761000   0.55077377   -7.6153034     337.2162  0.015957609  0.015080901         3922 
 1762000   0.53986483   -7.6111076    337.11043   0.01594355  0.015068134         3925 
 1763000   0.55054029    -7.619695    337.38302  0.015947392  0.015055384         3921 
 1764000   0.53902389   -7.6245615    338.03503  0.015969153  0.015042634         3909 
 1765000   0.55577105   -7.6214544    337.47336  0.015933587  0.015029906         3909 
 1766000    0.5316517   -7.6137634    337.22374  0.015912785  0.015017184         3920 
 1767000   0.54361858   -7.6204325    337.32813  0.015908703  0.015004484         3931 
 1768000   0.54459049   -7.6239938    337.69913  0.015917192  0.014991794         3906 
 1769000   0.55194548   -7.6103484    337.17326  0.015883421   0.01497911         3918 
 1770000   0.55104792   -7.6204026    337.64131  0.015896483  0.014966442         3910 
 1771000   0.54274384   -7.6257513    336.96828  0.015855838  0.014953785         3915 
 1772000   0.54006677   -7.6317023    337.30425   0.01586269  0.014941147         3892 
 1773000   0.55366097   -7.6222759    336.81252  0.015830632  0.014928521         3915 
 1774000   0.54600951   -7.6313158    337.06864  0.015833739  0.014915903         3910 
 1775000   0.54341985   -7.6298509    337.08306  0.015825496  0.014903298         3914 
 1776000   0.54634723   -7.6367002    337.36589  0.015829856  0.014890705         3913 
 1777000    0.5515207   -7.6307676    337.10097  0.015808524  0.014878124         3924 
 1778000   0.54417369   -7.6143583    337.04035  0.015796792  0.014865547         3913 
 1779000   0.54420596   -7.6506352    337.77931  0.015822527  0.014852988         3910 
 1780000   0.54311716   -7.6292747    337.12049  0.015782794  0.014840443         3910 
 1781000   0.55148527   -7.6367161    337.01011  0.015768768  0.014827917         3921 
 1782000   0.53579229   -7.6341812    336.81319  0.015750711  0.014815394         3915 
 1783000   0.54647607   -7.6380876    336.96719  0.015749074  0.014802876         3916 
 1784000   0.53461207   -7.6293444    337.24145  0.015753057  0.014790386         3912 
 1785000   0.54671331   -7.6313353    337.23314  0.015743844  0.014777902         3917 
 1786000   0.54600763   -7.6265265    337.22887   0.01573483  0.014765434         3917 
 1787000    0.5272763   -7.6565245    337.72421  0.015749124  0.014752972         3913 
 1788000   0.53742802   -7.6235122    336.64919  0.015690212   0.01474053         3929 
 1789000   0.54421125   -7.6366547     337.1053  0.015702688   0.01472809         3917 
 1790000    0.5396575    -7.648151     337.2125  0.015698906  0.014715674         3921 
 1791000    0.5362276   -7.6302792    337.30678  0.015694527  0.014703261         3921 
 1792000    0.5344587   -7.6370545     337.1174  0.015676962  0.014690862         3908 
 1793000   0.54259736   -7.6353475    337.28642  0.015676075  0.014678471         3921 
 1794000   0.52207696   -7.6423178    337.05153  0.015656426  0.014666104         3906 
 1795000   0.53643853   -7.6368484    336.64176   0.01562868  0.014653752         3907 
 1796000   0.54369144   -7.6378044    336.95339  0.015634437  0.014641419         3916 
 1797000   0.52958144   -7.6321471    337.12589  0.015633736  0.014629089         3915 
 1798000   0.52880516    -7.640347    336.99009  0.015618747  0.014616771         3914 
 1799000   0.53386435   -7.6253463     337.1829  0.015618997  0.014604469         3926 
 1800000   0.52568787   -7.6385694    336.90425  0.015597419  0.014592168         3900 
 1801000   0.53345856   -7.6493984    337.61317  0.015621561  0.014579888         3911 
 1802000   0.53252294   -7.6334151    336.91853  0.015580768  0.014567616         3910 
 1803000   0.52466941   -7.6426214    337.13875  0.015582305  0.014555366         3918 
 1804000   0.52348232   -7.6401711    336.75967  0.015556156  0.014543118         3917 
 1805000    0.5320153   -7.6558508    337.27533  0.015571345   0.01453089         3911 
 1806000    0.5261156   -7.6274903    336.67188  0.015534878  0.014518673         3921 
 1807000   0.53651796   -7.6387965    337.12517  0.015547186   0.01450646         3911 
 1808000   0.53968802    -7.642518    336.84894  0.015525855  0.014494266         3916 
 1809000   0.52787407   -7.6447772    337.81588  0.015561815   0.01448208         3926 
 1810000   0.52540376   -7.6402412     337.1215  0.015521248   0.01446991         3924 
 1811000   0.52169744   -7.6421953    337.50929  0.015530521   0.01445775         3931 
 1812000   0.53098712   -7.6555049    336.89616  0.015493753  0.014445605         3912 
 1813000   0.53619061   -7.6454761    337.06878  0.015493141  0.014433464         3921 
 1814000   0.52256237   -7.6644758    336.87489  0.015475693  0.014421336         3919 
 1815000   0.52145564   -7.6510356     337.1673  0.015480592  0.014409229         3905 
 1816000   0.52961603   -7.6341968    337.23089  0.015474986   0.01439713         3937 
 1817000   0.52921192   -7.6510151    336.55406  0.015435428  0.014385052         3918 
 1818000   0.53232417   -7.6257482      336.304  0.015415475  0.014372975         3913 
 1819000   0.53539543   -7.6405064    336.91015   0.01543477  0.014360906         3928 
 1820000   0.52990462   -7.6549925    336.58342  0.015411329  0.014348855         3918 
 1821000   0.53821847   -7.6489364    336.39944  0.015394446  0.014336812         3915 
 1822000   0.51666998   -7.6459631    336.68541  0.015399077  0.014324782         3927 
 1823000   0.53346577   -7.6529576     337.0536   0.01540746   0.01431278         3932 
 1824000   0.51958441   -7.6714127    336.84424  0.015389448  0.014300781         3925 
 1825000   0.51361788   -7.6495336    337.18661  0.015396649  0.014288785         3914 
 1826000   0.50900838   -7.6417354    336.31473  0.015348427   0.01427681         3917 
 1827000    0.5236117   -7.6627473    336.93594  0.015368361  0.014264843         3912 
 1828000   0.52499467   -7.6428991    336.73359  0.015350729  0.014252884         3918 
 1829000   0.53455064   -7.6352898    336.69709  0.015340673  0.014240948         3906 
 1830000   0.52564661   -7.6367359    336.65952  0.015330579  0.014229015         3921 
 1831000    0.5177754   -7.6711628      337.201  0.015346851  0.014217098         3922 
 1832000   0.52052357   -7.6610879    336.77516  0.015319103  0.014205196         3921 
 1833000   0.51865669   -7.6413351    336.51277  0.015298817  0.014193295         3920 
 1834000   0.52943754   -7.6554266    336.81693  0.015304295  0.014181403         3924 
 1835000    0.5266124   -7.6463659    336.64706  0.015288241  0.014169538         3908 
 1836000    0.5316035   -7.6695238    336.53269  0.015274723  0.014157681         3923 
 1837000    0.5237036   -7.6554657    336.38086   0.01525952  0.014145835         3922 
 1838000   0.51646892   -7.6598131    336.38845  0.015251562     0.014134         3927 
 1839000   0.51079214   -7.6578884    336.89773  0.015266346  0.014122173         3922 
 1840000   0.51901015   -7.6666494    336.71905  0.015249957   0.01411037         3922 
 1841000   0.50370448   -7.6630448    337.04582  0.015256465  0.014098579         3921 
 1842000    0.5163163   -7.6717557     336.5676  0.015226547  0.014086801         3911 
 1843000   0.50809712   -7.6770673    336.86279  0.015231633  0.014075031         3932 
 1844000   0.50923738   -7.6608273    336.27812  0.015196951  0.014063264         3929 
 1845000   0.50857831   -7.6438658    336.38598  0.015193586  0.014051513         3916 
 1846000   0.50995938   -7.6688776    336.31307  0.015182063  0.014039781         3929 
 1847000   0.52025597   -7.6666971    336.78703  0.015195228  0.014028057         3929 
 1848000   0.52087406   -7.6783572    336.81461  0.015188249  0.014016353         3923 
 1849000   0.50713028   -7.6784611    336.22712  0.015153557  0.014004647         3935 
 1850000   0.50925594   -7.6493103     336.5689  0.015160761  0.013992952         3920 
 1851000   0.52182495   -7.6758061    337.51938  0.015195362  0.013981272         3928 
 1852000     0.512822    -7.661931    336.21102  0.015128286  0.013969603         3927 
 1853000   0.51350951     -7.66223    336.28722  0.015123548   0.01395795         3935 
 1854000   0.51535605   -7.6669788    337.00039  0.015147446  0.013946307         3919 
 1855000   0.50715442   -7.6691181    336.49907   0.01511676  0.013934678         3917 
 1856000   0.51705774   -7.6755708    336.58089  0.015112289  0.013923066         3930 
 1857000   0.50176852   -7.6651726    336.36983  0.015094679   0.01391147         3925 
 1858000    0.5151732   -7.6615342      336.331  0.015084814  0.013899875         3927 
 1859000   0.51618995   -7.6619129    336.36748  0.015078334  0.013888289         3927 
 1860000   0.50592126   -7.6585169    336.12109  0.015059189  0.013876715         3923 
 1861000   0.50421671   -7.6548711    336.43606    0.0150652  0.013865157         3916 
 1862000   0.50911075   -7.6823896    336.79473  0.015073162  0.013853611         3910 
 1863000   0.50756762   -7.6697548    336.34706  0.015045047  0.013842078         3925 
 1864000    0.5131311   -7.6891575    336.48391  0.015043093  0.013830559         3921 
 1865000   0.51697146   -7.6682257    336.67414  0.015043527  0.013819045         3920 
 1866000   0.50912405   -7.6807055     336.1515  0.015012125  0.013807552         3929 
 1867000   0.52159276   -7.6682965    336.62714  0.015025314  0.013796065         3920 
 1868000   0.51828447   -7.6627488    336.38064  0.015006274   0.01378459         3925 
 1869000   0.50532614   -7.6776773    336.53641   0.01500519  0.013773125         3919 
 1870000   0.50582814   -7.6826144     336.1993  0.014982143  0.013761679         3921 
 1871000   0.50944643   -7.6749512    336.44706  0.014985171  0.013750234         3925 
 1872000   0.50572157   -7.6815549    336.44484  0.014977067  0.013738798         3937 
 1873000   0.50514696   -7.6827875    336.22344   0.01495922   0.01372738         3915 
 1874000   0.50315783   -7.6826261    336.28793  0.014954106  0.013715967         3936 
 1875000   0.50630155   -7.6815427    336.63102  0.014961379   0.01370457         3925 
 1876000   0.50317842   -7.6725598    335.96382  0.014923766  0.013693179         3924 
 1877000    0.4963916   -7.6836999    336.35779  0.014933306  0.013681811         3920 
 1878000   0.51184396   -7.6881391    335.87855  0.014904089  0.013670449         3930 
 1879000   0.49857634   -7.6852824    336.52583  0.014924864  0.013659099         3916 
 1880000     0.508787   -7.6722562    336.15032   0.01490028  0.013647759         3913 
 1881000   0.49669854   -7.6854398    336.48996  0.014907405   0.01363643         3930 
 1882000   0.49250065   -7.6807096    336.23594  0.014888237  0.013625114         3925 
 1883000   0.50012115   -7.6904135    336.07795  0.014873338  0.013613807         3915 
 1884000   0.50927702   -7.6895212    336.37917  0.014878767  0.013602517         3912 
 1885000   0.50987951   -7.7103249    336.03862  0.014855819  0.013591233         3928 
 1886000   0.50256936   -7.7008425    336.20449  0.014855271  0.013579965         3919 
 1887000   0.48926399   -7.6795457    336.37306  0.014854843  0.013568717         3925 
 1888000   0.49215276   -7.6841799    336.81884  0.014866651  0.013557472         3919 
 1889000   0.50460446   -7.6982652    336.03408  0.014824161  0.013546241         3921 
 1890000   0.50827905    -7.687258    336.46924  0.014835505  0.013535023         3930 
 1891000   0.49594563    -7.677639    335.92219  0.014803552  0.013523807         3924 
 1892000   0.50726918   -7.6851676    336.67724  0.014828983   0.01351261         3913 
 1893000   0.49658178   -7.6744157    336.01554  0.014792021  0.013501421         3928 
 1894000   0.49977223   -7.6780485    336.59422  0.014809672  0.013490248         3907 
 1895000   0.49034442   -7.6806754    336.04883  0.014777873  0.013479085         3923 
 1896000   0.48248938   -7.7031591    335.88166  0.014762731  0.013467929         3927 
 1897000   0.50262145   -7.6819655    335.90598  0.014756017  0.013456781         3915 
 1898000   0.49595892   -7.6958495    336.22655  0.014762318  0.013445645         3915 
 1899000   0.49832607   -7.6697471    335.42706   0.01471946  0.013434522         3923 
 1900000   0.49779678   -7.6953968    335.99556  0.014736648  0.013423408         3926 
 1901000   0.50051066   -7.6862833     336.6113  0.014755887   0.01341231         3917 
 1902000   0.51212694   -7.6893277    336.35354  0.014736836   0.01340122         3928 
 1903000    0.4987179    -7.693311     336.0456  0.014715607  0.013390153         3919 
 1904000   0.49229573   -7.6951982    335.93231   0.01470292  0.013379085         3907 
 1905000   0.48785383   -7.6914126    336.28701  0.014710718  0.013368037         3921 
 1906000   0.49234861   -7.6950023    335.35365  0.014662192  0.013356996         3913 
 1907000   0.49475596   -7.6863091    336.06592  0.014685628  0.013345961         3918 
 1908000   0.49140968   -7.7077312    335.87005  0.014669377  0.013334936         3928 
 1909000   0.48129429   -7.7075239    335.80352  0.014658788  0.013323928         3928 
 1910000   0.48058001   -7.6965563    336.00692  0.014659988  0.013312921         3920 
 1911000     0.487309   -7.7111906    335.93551  0.014649202  0.013301933         3923 
 1912000   0.48232585   -7.6940973    336.13411  0.014650197  0.013290958         3921 
 1913000    0.4905918   -7.6892048    335.70605  0.014623891  0.013279996         3931 
 1914000    0.4888863   -7.6940506    335.75168  0.014618237  0.013269041         3920 
 1915000   0.48132532   -7.6882038    336.31837  0.014635264  0.013258094         3922 
 1916000   0.48585089   -7.6862193    336.94872  0.014655042  0.013247173         3918 
 1917000   0.49618789   -7.6849457    335.84833  0.014599562  0.013236253         3914 
 1918000   0.48737264   -7.6980754    335.55509   0.01457921  0.013225357         3929 
 1919000   0.48378121   -7.7109378    336.01693  0.014591668  0.013214457         3931 
 1920000   0.48122543   -7.7117484     335.8126    0.0145752  0.013203561         3927 
 1921000   0.47269149   -7.7050217    336.22836  0.014585648  0.013192683         3922 
 1922000   0.47797248   -7.6915394    335.72094  0.014556059  0.013181819         3920 
 1923000   0.49492459   -7.6890026    335.90886  0.014556633  0.013170968         3908 
 1924000   0.48875814   -7.7164426    336.23018  0.014562984  0.013160129         3915 
 1925000   0.48317174   -7.6954479    335.26377  0.014513583  0.013149298         3922 
 1926000   0.49502102   -7.6922629    335.74478   0.01452686  0.013138486         3922 
 1927000   0.48448648   -7.7013056     336.5145  0.014552608  0.013127684         3910 
 1928000   0.47643281   -7.6996548    335.45579  0.014499299  0.013116889         3913 
 1929000   0.47648849   -7.6955816    335.77462  0.014505556  0.013106106         3922 
 1930000   0.48641144   -7.7121789    335.87265  0.014502273   0.01309533         3918 
 1931000   0.47552678   -7.7171667    335.29941  0.014470025  0.013084567         3919 
 1932000   0.49019254   -7.7054984    335.29831  0.014462488  0.013073809         3918 
 1933000   0.49225196   -7.7079656    335.83716  0.014478236  0.013063072         3915 
 1934000   0.47883217   -7.7104879     335.5913  0.014460156  0.013052336         3925 
 1935000   0.48346706   -7.7118822    335.20417  0.014436011  0.013041614         3919 
 1936000   0.47623294   -7.7239247    336.02238  0.014463773  0.013030905         3926 
 1937000   0.48127366   -7.6973463    335.82915  0.014447993  0.013020216         3919 
 1938000   0.47146473   -7.7197885    335.63877  0.014432352  0.013009522         3931 
 1939000   0.48086628   -7.7248461    335.75169  0.014429761  0.012998848         3930 
 1940000   0.48326529   -7.7230941    335.86665  0.014427261  0.012988187         3925 
 1941000    0.4739698   -7.7205947    335.27713  0.014394519  0.012977538         3924 
 1942000   0.47418075   -7.7066947    335.27853  0.014387167  0.012966897         3921 
 1943000   0.48716978   -7.7044636      335.565  0.014392048  0.012956266         3920 
 1944000   0.48147734   -7.7110764    335.60305  0.014386276  0.012945649         3928 
 1945000   0.47455817   -7.7228357    335.19004  0.014361184  0.012935036         3928 
 1946000   0.46750365   -7.7146915    335.40308  0.014362927   0.01292444         3919 
 1947000   0.47887913   -7.7269734    336.14721    0.0143874  0.012913852         3929 
 1948000   0.45668152   -7.7115923    335.21237  0.014340023  0.012903275         3932 
 1949000   0.48154109   -7.7091255    335.80225  0.014357887  0.012892712         3922 
 1950000   0.47603004   -7.7103776    335.75274  0.014348408  0.012882161         3924 
 1951000   0.46846607   -7.7236089     335.4931  0.014329963  0.012871613         3924 
 1952000   0.46333473   -7.7176215    335.24123  0.014311869  0.012861076         3917 
 1953000   0.47211696   -7.7189474    336.01095  0.014337385  0.012850557         3919 
 1954000   0.47135025    -7.736028    335.99189  0.014329234  0.012840043         3918 
 1955000   0.47357347   -7.7191159    335.23209  0.014289518   0.01282955         3928 
 1956000   0.47526301   -7.7194717    335.36003  0.014287663  0.012819056         3919 
 1957000   0.47186786   -7.7211954    335.78798  0.014298585  0.012808575         3918 
 1958000    0.4628783   -7.7095368    335.61907  0.014284094  0.012798107         3926 
 1959000   0.47086883   -7.7248646     335.8497  0.014286613  0.012787651         3922 
 1960000   0.46108301   -7.7278036    335.88067  0.014280641  0.012777205         3925 
 1961000   0.46943054   -7.7309325    335.59046  0.014261026  0.012766772         3932 
 1962000   0.48421256   -7.7274535      335.721  0.014259302   0.01275635         3913 
 1963000   0.47540647   -7.7359416    335.24399  0.014231788   0.01274594         3920 
 1964000   0.46619559     -7.72146    335.31361  0.014227496  0.012735543         3914 
 1965000   0.47289644   -7.7203853    335.60886  0.014232776  0.012725156         3923 
 1966000   0.46198215   -7.7271574    335.29761  0.014212344  0.012714771         3921 
 1967000   0.46337056   -7.7277407    335.88062  0.014229818  0.012704402         3935 
 1968000    0.4548322   -7.7287069    335.70567  0.014215179  0.012694049         3924 
 1969000    0.4632659   -7.7193089    335.35007   0.01419291  0.012683697         3931 
 1970000   0.46095622   -7.7211331    335.78241  0.014203994  0.012673359         3919 
 1971000   0.47965174   -7.7230852    335.76203  0.014195925  0.012663033         3916 
 1972000   0.46041703   -7.7348686    334.99576  0.014156345  0.012652711         3931 
 1973000   0.46382371   -7.7348194    335.42593   0.01416734  0.012642402         3929 
 1974000    0.4608072   -7.7230035    335.33742  0.014156426  0.012632108         3914 
 1975000   0.46389179   -7.7288602    335.28139  0.014146894  0.012621817         3919 
 1976000   0.46709282   -7.7216908    335.32744  0.014141677  0.012611547         3918 
 1977000   0.45905596   -7.7338042    335.95785  0.014161096  0.012601283         3926 
 1978000   0.46769641   -7.7277874    335.44047   0.01413214  0.012591028         3913 
 1979000   0.46413231   -7.7318172    335.30567  0.014119323  0.012580787         3935 
 1980000   0.46264337   -7.7277085     335.5029  0.014120492  0.012570552         3921 
 1981000   0.46093373   -7.7166641    335.30871  0.014105195  0.012560323         3908 
 1982000   0.45793484   -7.7253088    335.61062  0.014110773  0.012550115         3922 
 1983000   0.45931561   -7.7380146    335.69638  0.014107261  0.012539911         3918 
 1984000   0.46194184    -7.742393    335.36116   0.01408607  0.012529721         3920 
 1985000   0.46062282   -7.7372043    335.60242  0.014089102  0.012519538         3940 
 1986000   0.46385159   -7.7490262    335.55474  0.014080008  0.012509361         3932 
 1987000   0.46501156   -7.7343876    335.76668   0.01408181  0.012499206         3921 
 1988000   0.46888051   -7.7380289    335.37305  0.014058226  0.012489055         3930 
 1989000   0.45474341   -7.7366765    335.71827  0.014065622  0.012478914         3922 
 1990000   0.45903556    -7.735228    335.05015  0.014030576  0.012468788         3927 
 1991000    0.4500916   -7.7375224    334.69102  0.014008497  0.012458668         3922 
 1992000   0.44612062   -7.7448801    335.30201  0.014027025  0.012448553         3926 
 1993000   0.45450656   -7.7462554    335.01236  0.014007876  0.012438451         3923 
 1994000   0.45363184   -7.7325143    335.51514  0.014021863  0.012428365         3937 
 1995000   0.45756308   -7.7327626    334.79896  0.013984919  0.012418286         3920 
 1996000   0.45786942   -7.7312529      335.631   0.01401265  0.012408222         3930 
 1997000   0.45537292   -7.7396739    335.26177  0.013990226  0.012398169         3927 
 1998000   0.45195564   -7.7605803    335.25466  0.013982927  0.012388118         3928 
 1999000   0.45478259   -7.7362479    335.09607  0.013969321  0.012378084         3928 
 2000000    0.4579971   -7.7214601    334.88375   0.01395349  0.012368058         3916 
 2001000   0.45828486   -7.7401759    335.11965  0.013956341   0.01235805         3921 
 2002000   0.44858262   -7.7449586    335.13264   0.01394991  0.012348047         3933 
 2003000   0.44313915   -7.7406228      335.314  0.013950491  0.012338061         3936 
 2004000   0.45056471   -7.7449591    335.15744  0.013937019   0.01232808         3926 
 2005000   0.45590305    -7.733719    335.08359  0.013926999  0.012318109         3923 
 2006000    0.4558073   -7.7453514    335.23868  0.013926499  0.012308142         3920 
 2007000   0.45212133   -7.7320915    334.82561  0.013902409  0.012298184         3931 
 2008000   0.45444784   -7.7553082    335.39564  0.013919142  0.012288235         3917 
 2009000   0.44626389   -7.7501383    335.10638  0.013900215  0.012278302         3922 
 2010000   0.45708112    -7.747936    334.99506  0.013888684  0.012268377         3930 
 2011000   0.44983922   -7.7533736    335.09444  0.013885896  0.012258472         3926 
 2012000   0.44268571   -7.7406376    334.80212  0.013866887  0.012248573         3920 
Loop time of 4267.76 on 48 procs for 2000000 steps with 4000 atoms

Performance: 80979.180 tau/day, 468.630 timesteps/s
99.4% CPU use with 48 MPI tasks x no OpenMP threads

MPI task timing breakdown:
Section |  min time  |  avg time  |  max time  |%varavg| %total
---------------------------------------------------------------
Pair    | 250.53     | 288.16     | 314.02     |  71.0 |  6.75
Neigh   | 26.24      | 26.978     | 27.996     |   8.2 |  0.63
Comm    | 224.02     | 254.6      | 290.3      |  73.0 |  5.97
Output  | 4.4338     | 4.4358     | 4.4728     |   0.3 |  0.10
Modify  | 3619.7     | 3644.3     | 3662.1     |  19.5 | 85.39
Other   |            | 49.28      |            |       |  1.15

Nlocal:        83.3333 ave          98 max          74 min
Histogram: 7 4 8 7 6 6 5 4 0 1
Nghost:        1753.08 ave        1792 max        1711 min
Histogram: 3 3 1 6 9 8 7 6 2 3
Neighs:        10445.5 ave       11842 max        9121 min
Histogram: 2 7 4 6 7 5 6 2 6 3
FullNghs:      20891.6 ave       24272 max       18382 min
Histogram: 4 7 4 6 8 7 5 6 0 1

Total # of neighbors = 1002795
Ave neighs/atom = 250.69875
Neighbor list builds = 108042
Dangerous builds = 0

#clear
#
#next RN
#
#jump SELF
Total wall time: 1:11:10
