
units lj                  # Use reduced LJ style units
atom_style atomic         # Uncharged point particles
atom_modify map hash      # Needed for indexing of clusters etc
                          # Used to be able to find where atoms are in relation to each other.

lattice fcc 1.0 spacing 1 1 1
Lattice spacing in x,y,z = 1.5874011 1.5874011 1.5874011
region box block 0 10 0 10 0 10 units lattice
create_box 2 box
Created orthogonal box = (0.0000000 0.0000000 0.0000000) to (15.874011 15.874011 15.874011)
  3 by 4 by 4 MPI processor grid
create_atoms 1 box
Created 4000 atoms
  using lattice units in orthogonal box = (0.0000000 0.0000000 0.0000000) to (15.874011 15.874011 15.874011)
  create_atoms CPU = 0.002 seconds
set type 1 type/fraction 2 0.27 78393
Setting atom values ...
  1113 settings made for type/fraction
mass 1 1.0
mass 2 1.0
pair_style lj/cut  3.5
pair_modify tail  yes
pair_coeff 1  1  1.0  1.0   # Intearaction between 1 and 1 set with epsilon = 1 and sigma = 1
pair_coeff 1  2  1.5  0.8
pair_coeff 2  2  0.5  0.88

write_data data.0
System init for write_data ...
Neighbor list info ...
  update every 1 steps, delay 10 steps, check yes
  max neighbors/atom: 2000, page size: 100000
  master list distance cutoff = 3.8
  ghost atom cutoff = 3.8
  binsize = 1.9, bins = 9 9 9
  1 neighbor lists, perpetual/occasional/extra = 1 0 0
  (1) pair lj/cut, perpetual
      attributes: half, newton on
      pair build: half/bin/atomonly/newton
      stencil: half/bin/3d
      bin: standard
WARNING: Not all mixed pair coeffs generated from mixing. Use write_data with 'pair ij' option to store all pair coeffs. (../write_data.cpp:312)


#############################
#   M E L T   S Y S T E M   #
#############################

velocity all create 2.4 1741580 mom yes dist gaussian # Assign velocities
                                                    # Temperature 2.4, random number seed, zero linear momentum
                                                                                # Gaussian distribution

timestep 0.002   # simulation timestep
thermo 1000       # output thermodynamic data every 1000 steps bf 100

# Define a fix  in this case with index 1 applied to all
# particles in the simulation. This fix is for simulations
# in the anisotropic NPT ensemble. Note that we use the MTK
# correction.
fix 1 all npt temp 2.4 2.4 0.1 iso 5.68 5.68 0.5 mtk yes tchain 5 pchain 5 # Use NPT ensemble
                                                                         # Set temperature and pressure and damping
                                                                         # Numbers of thermostats in chain and in barostat
run 10000          # run for 10000 steps
Per MPI rank memory allocation (min/avg/max) = 3.642 | 3.644 | 3.648 Mbytes
Step Temp E_pair E_mol TotEng Press Volume 
       0          2.4   -6.6079615            0   -3.0088615   -3.8965289         4000 
    1000    2.4098408   -4.9067739            0   -1.2929163    5.8683636    4250.1465 
    2000    2.4323435   -4.8907392            0   -1.2431361    5.7287986    4269.5812 
    3000    2.4034628   -5.0132366            0   -1.4089437    5.2813631    4247.3858 
    4000    2.3794995   -4.9752322            0   -1.4068753    5.4740897    4257.3986 
    5000    2.3996588   -4.9350156            0   -1.3364273    5.5635067    4256.4468 
    6000    2.3778297   -4.9630514            0   -1.3971986    5.4932489      4252.96 
    7000    2.4156945   -4.9021695            0   -1.2795336    5.6689166    4280.3655 
    8000    2.4015609   -4.9436473            0   -1.3422065    5.6650172    4243.7508 
    9000    2.4504939   -4.9591579            0   -1.2843359    5.7959775    4228.6366 
   10000    2.4591987   -4.9544236            0   -1.2665478    5.6186075    4250.7124 
Loop time of 2.37613 on 48 procs for 10000 steps with 4000 atoms

Performance: 727233.340 tau/day, 4208.526 timesteps/s
99.6% CPU use with 48 MPI tasks x no OpenMP threads

MPI task timing breakdown:
Section |  min time  |  avg time  |  max time  |%varavg| %total
---------------------------------------------------------------
Pair    | 1.0391     | 1.0929     | 1.1833     |   2.8 | 46.00
Neigh   | 0.20178    | 0.20916    | 0.22993    |   1.0 |  8.80
Comm    | 0.72093    | 0.81674    | 0.91373    |   4.6 | 34.37
Output  | 0.00023703 | 0.00024229 | 0.00030605 |   0.0 |  0.01
Modify  | 0.20318    | 0.24219    | 0.2775     |   4.3 | 10.19
Other   |            | 0.01488    |            |       |  0.63

Nlocal:        83.3333 ave          94 max          72 min
Histogram: 1 1 4 6 10 8 11 4 2 1
Nghost:        1586.19 ave        1623 max        1549 min
Histogram: 2 1 5 9 8 8 4 7 1 3
Neighs:        8987.71 ave       10498 max        7712 min
Histogram: 2 4 5 10 8 5 8 2 2 2

Total # of neighbors = 431410
Ave neighs/atom = 107.85250
Neighbor list builds = 908
Dangerous builds = 216

# Equilibrate just above the melting temperature to avoid step fn in T

fix 1 all npt temp 1.25 1.25 0.1 iso 5.68 5.68 0.5 mtk yes tchain 5 pchain 5
run 2000
Per MPI rank memory allocation (min/avg/max) = 3.643 | 3.645 | 3.649 Mbytes
Step Temp E_pair E_mol TotEng Press Volume 
   10000    2.4591987   -4.9544236            0   -1.2665478    5.6186075    4250.7124 
   11000    1.2396557   -6.7593222            0   -4.9003036    5.5778858    3436.7501 
   12000    1.2793154   -6.7976269            0   -4.8791335     5.510555    3427.0945 
Loop time of 0.557292 on 48 procs for 2000 steps with 4000 atoms

Performance: 620142.098 tau/day, 3588.785 timesteps/s
99.7% CPU use with 48 MPI tasks x no OpenMP threads

MPI task timing breakdown:
Section |  min time  |  avg time  |  max time  |%varavg| %total
---------------------------------------------------------------
Pair    | 0.23785    | 0.26442    | 0.29814    |   2.1 | 47.45
Neigh   | 0.036273   | 0.038741   | 0.043205   |   0.7 |  6.95
Comm    | 0.16738    | 0.20547    | 0.23728    |   2.8 | 36.87
Output  | 5.0194e-05 | 5.1085e-05 | 6.5267e-05 |   0.0 |  0.01
Modify  | 0.040527   | 0.044021   | 0.048163   |   0.9 |  7.90
Other   |            | 0.004586   |            |       |  0.82

Nlocal:        83.3333 ave          93 max          74 min
Histogram: 2 1 9 6 8 6 8 5 1 2
Nghost:        1823.73 ave        1867 max        1798 min
Histogram: 4 4 9 15 3 7 3 2 0 1
Neighs:        11152.2 ave       12937 max        9677 min
Histogram: 2 7 3 10 7 6 4 6 2 1

Total # of neighbors = 535307
Ave neighs/atom = 133.82675
Neighbor list builds = 143
Dangerous builds = 9

#############################
# L I N E A R  Q U E N C H  #
#############################

# Define solid atoms. This closely follows ten Wolde  Ruiz-Montero and Frenkel  Faraday Discuss  1996  104  93-110
# Compute components of the per-atom q6 vector
compute q6 all orientorder/atom degrees 1 6 components 6 nnn NULL cutoff 1.3 # compute the Q6 parameter.
                                                                             # Use all neighbours within 1.3 unit cell.

# get number of connections
compute coord_number all coord/atom orientorder q6 0.5

# An atom is solid if it has 8 or more connections (of a possible 14)
variable is_solid atom c_coord_number>=8
group solid dynamic all var is_solid    # Must be dynamic to update
dynamic group solid defined

# do clustering
compute cluster solid cluster/atom 1.3 # Create a cluster where all atoms within are solid and max 1.3 units from another member

# define chunks one chunk per cluster
compute clus_chunks solid chunk/atom c_cluster nchunk every compress yes  # Says which atoms are in which chunk

# count the size of each chunk
compute size_chunks solid property/chunk clus_chunks count


# Find the maximum entry in the vector of chunk sizes
variable max_n equal max(c_size_chunks)


# Thermo style which includes this variable
# thermo_style custom step temp pe vol v_max_n

thermo ${N}  # Print the thermo information every 100 steps
thermo 1000  

# Reset the npt fix at a lower temperature (below freezing)
fix 1  all npt temp  ${temp} ${temp}  0.1  iso  5.68  5.68  0.5  mtk yes tchain  5  pchain  5
fix 1  all npt temp  0.45 ${temp}  0.1  iso  5.68  5.68  0.5  mtk yes tchain  5  pchain  5
fix 1  all npt temp  0.45 0.45  0.1  iso  5.68  5.68  0.5  mtk yes tchain  5  pchain  5

dump dmp2 all dcd ${N} traj.dcd
dump dmp2 all dcd 1000 traj.dcd


compute msd all msd com yes
variable twopoint equal c_msd[4]/6/(step*dt+1.0e-6)
fix 9 all vector 10 c_msd[4]
variable fit equal slope(f_9)/6/(10*dt)
thermo_style custom step temp pe c_msd[4] v_twopoint v_fit v_max_n

fix 1 all npt temp 1.25 ${temp} 0.1 iso 5.68 5.68 0.5 mtk yes tchain 5 pchain 5
fix 1 all npt temp 1.25 0.45 0.1 iso 5.68 5.68 0.5 mtk yes tchain 5 pchain 5
run 500000 # 5000000  # Run for this many steps
Neighbor list info ...
  update every 1 steps, delay 10 steps, check yes
  max neighbors/atom: 2000, page size: 100000
  master list distance cutoff = 3.8
  ghost atom cutoff = 3.8
  binsize = 1.9, bins = 8 8 8
  4 neighbor lists, perpetual/occasional/extra = 1 3 0
  (1) pair lj/cut, perpetual
      attributes: half, newton on
      pair build: half/bin/atomonly/newton
      stencil: half/bin/3d
      bin: standard
  (2) compute orientorder/atom, occasional
      attributes: full, newton on
      pair build: full/bin/atomonly
      stencil: full/bin/3d
      bin: standard
  (3) compute coord/atom, occasional
      attributes: full, newton on
      pair build: full/bin/atomonly
      stencil: full/bin/3d
      bin: standard
  (4) compute cluster/atom, occasional
      attributes: full, newton on
      pair build: full/bin/atomonly
      stencil: full/bin/3d
      bin: standard
Per MPI rank memory allocation (min/avg/max) = 9.802 | 9.811 | 9.817 Mbytes
Step Temp PotEng c_msd[4] v_twopoint v_fit v_max_n 
   12000    1.2793154   -6.7976269            0            0 8.3333333e+20            2 
   13000    1.2579934   -6.7730264   0.51552373 0.0033046391  0.042337206            1 
   14000    1.2615434   -6.8059905   0.97378619 0.0057963462  0.039855701            2 
   15000    1.2165093    -6.844929    1.4146722 0.0078592898  0.038683073            4 
   16000     1.225443   -6.7915425    1.8506955 0.0096390388  0.037904382            1 
   17000    1.2381904    -6.799195    2.3495982  0.011517638  0.037805293            2 
   18000    1.2442387   -6.7756696    2.8845464  0.013354381  0.038555442            1 
   19000    1.2437033   -6.7944058     3.414303  0.014975013  0.039547632            2 
   20000    1.2224328   -6.7892755    3.8896172  0.016206738  0.040037761            1 
   21000    1.2177702    -6.856233    4.3886211  0.017415163  0.040467606            1 
   22000     1.205188   -6.8274377     4.869024  0.018443272  0.040659306            2 
   23000    1.2262766   -6.8281933    5.2513207  0.019026524  0.040527436            2 
   24000    1.2372019   -6.8532126    5.7149268  0.019843496  0.040324887            1 
   25000    1.2200611   -6.8319868    6.1776678  0.020592226  0.040068556            1 
   26000    1.2281241   -6.8068854    6.6930142  0.021451968  0.039915106            3 
   27000    1.2613393   -6.8598659    7.1620086  0.022104964  0.039852141            2 
   28000     1.203477   -6.8310265    7.7042365  0.022929275  0.039917722            1 
   29000    1.2268905   -6.8447747    8.1816085  0.023510369  0.040039718            2 
   30000    1.2258837    -6.835234    8.6339065  0.023983073  0.040057798            1 
   31000    1.2205902    -6.812909    9.0130523  0.024228635  0.039949884            2 
   32000    1.2146457   -6.8707497    9.3945333   0.02446493   0.03976219            3 
   33000    1.2584228   -6.8730755    9.7600462  0.024646581  0.039539098            1 
   34000    1.1841587   -6.8678308    10.175237  0.024939306  0.039329388            1 
   35000    1.2053583   -6.8104351    10.657806  0.025375729  0.039104984            1 
   36000    1.2111733   -6.8681648    11.205185  0.025937928  0.038978482            1 
   37000    1.1976717   -6.8748973    11.607289  0.026142542  0.038859945            2 
   38000    1.2285047   -6.8826603    11.978071  0.026267699   0.03872833            1 
   39000    1.1861679   -6.8986537    12.402985  0.026502105  0.038573129            2 
   40000    1.1830533   -6.9079697    12.853973  0.026779109  0.038440474            2 
   41000    1.2143712   -6.8698258    13.222509  0.026875018  0.038314576            1 
   42000    1.1949012   -6.8909709      13.6389  0.027061309   0.03814273            2 
   43000    1.2267498   -6.9053868    14.002146  0.027135942  0.037983246            1 
   44000    1.2028451   -6.8861904    14.349467  0.027177021  0.037806681            2 
   45000    1.2031644   -6.8970003    14.752985  0.027320343  0.037619598            1 
   46000    1.1813561   -6.9122823    15.224314  0.027580278  0.037467234            2 
   47000    1.1933868   -6.8738876     15.67285  0.027788741  0.037334949            2 
   48000    1.2210068   -6.9129032     16.15693  0.028050225  0.037223384            2 
   49000    1.2076319   -6.8607806    16.602465  0.028235485  0.037151825            2 
   50000    1.1843676   -6.8899563     17.12556    0.0285426  0.037087325            2 
   51000    1.2006138    -6.981981    17.528462  0.028641277  0.037047515            3 
   52000    1.2085853   -6.9290224    17.940911   0.02875146  0.037003842            2 
   53000    1.1724344   -6.9194477    18.352783  0.028856577  0.036958497            1 
   54000    1.1896712   -6.9798245    18.702927  0.028862542  0.036903484            1 
   55000    1.1684301   -6.9576945    19.174036  0.029051569  0.036828539            1 
   56000    1.1533654   -6.9048187    19.537984  0.029074381  0.036754611            1 
   57000     1.186248   -6.9570982    19.905105  0.029101031  0.036687322            4 
   58000    1.1698201   -6.9306066    20.475232  0.029418436  0.036628805            3 
   59000    1.1886666   -6.9502595    20.887429  0.029502019  0.036586662            3 
   60000    1.2032212   -6.9078845    21.184942   0.02942353  0.036536039            1 
   61000    1.1909398   -6.9267384    21.539226  0.029425172  0.036466613            2 
   62000    1.1673735   -6.9301342    21.857157  0.029377898  0.036382826            1 
   63000    1.1684103   -6.9756295    22.165583  0.029319554  0.036289575            1 
   64000    1.1718265   -6.9390809    22.564642  0.029381044  0.036197919            1 
   65000    1.1594269   -6.9956145    22.822934  0.029260172  0.036092912            1 
   66000    1.1753566   -6.9736948    23.120232  0.029192212  0.035973255            1 
   67000     1.192208   -6.9655117    23.564188  0.029308691  0.035855494            1 
   68000    1.1606745   -6.9969104    24.007347  0.029420768  0.035746813            2 
   69000    1.1478184   -6.9832235    24.276979  0.029320023   0.03563997            2 
   70000    1.1561511   -6.9626718    24.845999   0.02957857  0.035547237            1 
   71000    1.1695881   -7.0168759    25.146748  0.029514962  0.035464925            1 
   72000    1.1504703    -7.002933    25.453727  0.029460332  0.035379031            5 
   73000     1.138773   -7.0103366    26.107363  0.029802926  0.035303254            1 
   74000    1.1729198   -7.0142192    26.309121  0.029627389  0.035233566            1 
   75000    1.1427254   -7.0232845    26.507271  0.029452523  0.035147113            4 
   76000    1.1571507   -6.9950885    26.983499   0.02958717  0.035057065            1 
   77000    1.1288888   -6.9939718    27.405592  0.029659731  0.034977519            1 
   78000    1.1443213   -7.0137055    27.828529  0.029731335  0.034908428            1 
   79000    1.1421704   -6.9728278    28.256241  0.029806161  0.034843596            2 
   80000    1.1339265   -7.0238928    28.630559  0.029823499  0.034779515            3 
   81000    1.1316303   -7.0149948    28.885317  0.029717404  0.034711201            1 
   82000    1.1306963   -7.0428133    29.309074  0.029785644  0.034645245            2 
   83000    1.1215939   -7.0285339    29.638207  0.029757236  0.034577273            1 
   84000     1.138417   -6.9701636    29.981518  0.029743569  0.034505934            2 
   85000    1.1258524    -7.004786    30.217534  0.029625033  0.034433773            2 
   86000    1.1257205   -6.9838225    30.642643  0.029692483  0.034357969            1 
   87000    1.1400606   -7.0595726    31.029091  0.029721352  0.034288578            3 
   88000    1.1220724   -7.0761048    31.362404  0.029699246  0.034219963            3 
   89000    1.0918258   -7.0692171    31.628905   0.02961508  0.034138914            2 
   90000    1.1019798   -7.1053037    31.830898  0.029473053  0.034059124            2 
   91000    1.1224223   -7.0715193    32.091561  0.029387876  0.033973994            1 
   92000    1.1063006   -7.0617729    32.286264  0.029244804  0.033869895            2 
   93000    1.1174028   -7.0784074    32.611662  0.029221919  0.033761736            2 
   94000    1.1234718   -7.0839009    32.768634  0.029050207  0.033657569            1 
   95000    1.1225722   -7.0677197    33.138836  0.029069155  0.033548286            1 
   96000    1.1233595   -7.0716027    33.456599  0.029042187  0.033438986            1 
   97000    1.0972956     -7.04782    33.757319  0.029001133  0.033331079            2 
   98000    1.1293741   -7.0795319    34.068216  0.028969572  0.033228175            1 
   99000    1.1085166   -7.0880114    34.308692   0.02887937  0.033121374            1 
  100000    1.1180536   -7.0341805    34.523336  0.028769447  0.033014026            1 
  101000    1.0819455   -7.0609291    34.805896  0.028717736  0.032898636            3 
  102000    1.1003426   -7.0960497    35.054651  0.028639421  0.032783918            2 
  103000    1.0872317   -7.0575019    35.324435  0.028579639   0.03267166            6 
  104000    1.0843212   -7.0954759    35.649873  0.028565603  0.032564029            2 
  105000    1.1070882   -7.0980746    36.073204  0.028629527  0.032461771            2 
  106000    1.1062361   -7.0821763    36.337423  0.028567157  0.032356401            2 
  107000    1.0879622   -7.0746424    36.755469  0.028625754  0.032255393            2 
  108000    1.0802251   -7.0750896    37.230083  0.028726915  0.032164212            4 
  109000    1.1187043   -7.0968657    37.555883  0.028712449  0.032084007            2 
  110000    1.1080858   -7.0720251    38.026636  0.028808057  0.032010752            3 
  111000    1.1010605    -7.127794    38.054772  0.028569649  0.031937412            2 
  112000    1.0913542   -7.1214525    38.483569  0.028633608  0.031860946            2 
  113000    1.0910573   -7.1355396    38.771047  0.028592218  0.031782941            2 
  114000    1.0982533    -7.150799     39.05098  0.028546038  0.031704928            2 
  115000    1.0890072   -7.1375136    39.264936  0.028452852  0.031624801            3 
  116000    1.0704312     -7.12764    39.615894  0.028459694  0.031542385            1 
  117000    1.0703324   -7.1451394    39.865567  0.028394279  0.031462141            2 
  118000    1.0898853   -7.1493576    40.007206  0.028253676    0.0313784            2 
  119000    1.0949568   -7.1286348    40.401568  0.028292415   0.03129382            1 
  120000    1.0862906   -7.1349413     40.62607  0.028212548  0.031212247            1 
  121000     1.063772     -7.11048    41.030658  0.028258029  0.031132382            1 
  122000    1.0885002   -7.1469256    41.387639  0.028270245   0.03105764            3 
  123000    1.0786024   -7.1452942    41.646507  0.028215791  0.030987716            2 
  124000    1.0717779   -7.1827699    42.091242  0.028287125  0.030918187            2 
  125000    1.0801115   -7.1706689    42.230063  0.028153375  0.030846488            3 
  126000    1.0438344   -7.1757228     42.53769  0.028133393   0.03077683            1 
  127000    1.0741998    -7.153034    42.785417  0.028074421  0.030706291            2 
  128000    1.0501601   -7.1815405    42.929297  0.027948761  0.030634352            3 
  129000    1.0627092   -7.2069414    43.264197  0.027948448  0.030563659            6 
  130000    1.0672661   -7.1820198    43.597534  0.027947137  0.030490414            3 
  131000    1.0610901   -7.1879661    43.687943  0.027791312  0.030415642            1 
  132000    1.0504464   -7.1869296    43.968877  0.027758129  0.030338921            4 
  133000    1.0457961   -7.2148362    44.223492  0.027708955  0.030262997            1 
  134000    1.0642897   -7.2469615    44.558437  0.027710471  0.030188962            2 
  135000    1.0310472   -7.1761202    45.059001  0.027814198  0.030118064            4 
  136000    1.0544256   -7.1767316    45.188757   0.02768919  0.030049901            2 
  137000    1.0521215   -7.2024259    45.519558  0.027688296  0.029980259            1 
  138000    1.0428946   -7.2110319    45.830308  0.027675307  0.029910164            1 
  139000     1.053395   -7.2096928    46.099037  0.027637312  0.029844525            2 
  140000    1.0430714   -7.2337917    46.100151  0.027440566  0.029776299            2 
  141000     1.036455   -7.2283149    46.240799  0.027329077   0.02970313            2 
  142000    1.0327403   -7.1959863    46.690386  0.027400461  0.029629801            3 
  143000    1.0436906   -7.2353469    46.888855  0.027324507  0.029557126            5 
  144000    1.0322492   -7.2351768    47.106088  0.027260468  0.029485656            2 
  145000    1.0440843   -7.1967194    47.522087  0.027311544  0.029413775            2 
  146000    1.0419403   -7.2473475    47.635646  0.027189296  0.029342049            3 
  147000    1.0156588     -7.26765    47.928178  0.027170169  0.029271351            2 
  148000    1.0528968   -7.2935245    48.225149    0.0271538  0.029200037            2 
  149000    1.0387783   -7.2268584    48.299402  0.027013088  0.029128671            1 
  150000     1.041268   -7.2497429     48.62298  0.027012766  0.029056638            2 
  151000   0.99738388    -7.248927    48.854101  0.026961424  0.028985196            2 
  152000     1.022141   -7.3119486     49.01551  0.026872538  0.028916018            2 
  153000    1.0354261    -7.273195    49.272644  0.026836952   0.02884681            2 
  154000    1.0317967   -7.2539458    49.618838   0.02685002  0.028776587            3 
  155000    1.0371525   -7.2708349    49.661045  0.026699487  0.028707896            2 
  156000    1.0152485    -7.308306    49.753234  0.026577582  0.028633995            2 
  157000    1.0058612   -7.2781789    49.932817  0.026503618  0.028560207            3 
  158000     1.019414   -7.2711007    50.106316  0.026427382  0.028485406            4 
  159000    1.0280197     -7.26946    50.491603  0.026463104  0.028413552            1 
  160000   0.99975775   -7.2600814    50.770196   0.02644281  0.028342223            3 
  161000    1.0066254   -7.2705241    50.912848  0.026352406  0.028272014            1 
  162000    0.9930097   -7.3112652    51.202342  0.026338653  0.028199158            1 
  163000    1.0368146   -7.3175209    51.121149  0.026135557  0.028125244            2 
  164000    1.0193552   -7.3196056    51.540157  0.026189104   0.02805194            1 
  165000    1.0144134   -7.3036447    51.797788  0.026160499  0.027980192            5 
  166000   0.97614834   -7.3216703    51.930232  0.026069394   0.02790886            2 
  167000   0.99957288   -7.3026338    52.265049  0.026080364  0.027836948            3 
  168000   0.98884294   -7.3124372    52.379623  0.025981956  0.027768069            3 
  169000    1.0007054   -7.3368618    52.712324   0.02599227  0.027698096            2 
  170000   0.98586972   -7.3552781    52.829288   0.02589671   0.02762853            2 
  171000     0.988681   -7.3072376    53.262194  0.025956235   0.02756266            3 
  172000   0.97686466   -7.3406171    53.438672  0.025890829  0.027495753            1 
  173000   0.99233881   -7.2980332    53.874683  0.025951196  0.027428724            2 
  174000    1.0070182    -7.363733    53.829937  0.025780621  0.027361545            1 
  175000   0.97278855   -7.3552075    54.223309  0.025820623  0.027295872            2 
  176000   0.97925416   -7.3413593    54.305463  0.025712814  0.027230088            2 
  177000   0.99958826   -7.3319998    54.591181  0.025702062  0.027165191            1 
  178000   0.99246719   -7.3503935    54.491539   0.02551102  0.027099094            2 
  179000    0.9802771   -7.3592329    54.794577   0.02550958  0.027031653            6 
  180000   0.95908731   -7.3739134    54.747389  0.025346013  0.026961065            2 
  181000    0.9955402   -7.3738266    54.933655  0.025291738  0.026889644            1 
  182000   0.98876064   -7.4049459    54.859811  0.025118961  0.026816409            2 
  183000   0.97849345   -7.3831982    55.181275  0.025128085  0.026742595            1 
  184000    1.0062655   -7.4012353    55.222179  0.025010045  0.026670499            3 
  185000   0.98055161   -7.3718051    55.566005  0.025029732  0.026598882            1 
  186000   0.96924968   -7.4306301    55.709936  0.024959649  0.026528286            1 
  187000    0.9640043   -7.3690507    56.030026  0.024968817  0.026456292            1 
  188000   0.94893298    -7.339039    56.251697  0.024934263  0.026384672            3 
  189000   0.96693589   -7.3762639    56.231874  0.024793595  0.026312869            2 
  190000   0.94099943   -7.4085635    56.454948  0.024760942  0.026240346            3 
  191000    0.9655554    -7.434537    56.488713  0.024646035  0.026167986            1 
  192000   0.96903761   -7.4004132    56.673609  0.024597921  0.026096781            2 
  193000   0.96235681   -7.4086248    57.067583   0.02464058  0.026026808            3 
  194000   0.93425413   -7.3597512     57.23911  0.024587247  0.025956849            3 
  195000    0.9656956   -7.4114842    57.435627   0.02454514   0.02588687            3 
  196000   0.97023696   -7.3912974     57.45121  0.024426535  0.025815516            2 
  197000   0.96314918    -7.385828    57.740602  0.024424959   0.02574582            1 
  198000   0.95164289   -7.4362096    57.898397  0.024368012   0.02567693            1 
  199000   0.94828483   -7.4177257    58.014823  0.024294315  0.025607219            2 
  200000   0.93457812   -7.4522746    58.149402  0.024228917  0.025538101            2 
  201000   0.93502769    -7.458569    58.148434  0.024107974  0.025467999            1 
  202000   0.96777662   -7.4675035    58.302599  0.024052227  0.025398593            2 
  203000    0.9457493   -7.4467422    58.676197  0.024087109  0.025329118            2 
  204000   0.93447253   -7.4485429    58.843555    0.0240374  0.025260557            2 
  205000    0.9461912   -7.4767971    58.744728  0.023879971  0.025192315            3 
  206000   0.92572343   -7.4495431    59.163543  0.023933472  0.025123395            5 
  207000   0.93232296   -7.4550838    59.237931  0.023847798  0.025054985            3 
  208000   0.91461476   -7.4526371    59.522826  0.023847286  0.024987889            2 
  209000   0.94296456   -7.4536671    59.482331  0.023717038   0.02492101            2 
  210000    0.9284926   -7.4714291     59.86204  0.023754778  0.024853772            4 
  211000   0.95505319   -7.4641379    59.801987  0.023618478  0.024787708            4 
  212000   0.93166179   -7.4850077    60.189003  0.023659199  0.024722147            1 
  213000   0.94160156   -7.5215043    60.159503  0.023536582  0.024655733            2 
  214000    0.9506692   -7.4437349    60.405687  0.023522464    0.0245903            1 
  215000   0.91199796   -7.4709307    60.850517  0.023585472  0.024526805            4 
  216000   0.91300657   -7.4870727    60.908603  0.023498689  0.024464645            2 
  217000   0.93736829   -7.4947705    61.276774  0.023531787  0.024402111            2 
  218000   0.91052786   -7.5444053    61.374952  0.023461373  0.024340453            2 
  219000   0.93000626   -7.5035206    61.645529  0.023457203  0.024280499            1 
  220000   0.92227323   -7.5132027     61.71552  0.023377091  0.024221018            3 
  221000   0.92938783   -7.5117255    62.066016  0.023403475   0.02416118            2 
  222000   0.91580326   -7.5431567    62.098971  0.023310424  0.024102413            6 
  223000   0.91351371   -7.5197313     62.25573  0.023264473  0.024042054            1 
  224000   0.92239892   -7.5272571    62.279075  0.023169299  0.023981165            2 
  225000   0.92032965   -7.5438586    62.308262  0.023077134  0.023919713            2 
  226000   0.92541706   -7.5187406    62.520066  0.023053122  0.023857997            2 
  227000   0.89118895   -7.5356949    62.650966   0.02299962  0.023797468            3 
  228000   0.87499534   -7.5247255    62.796766  0.022952034  0.023737093            1 
  229000   0.89285704   -7.5270576    62.780826  0.022846006  0.023676605            2 
  230000   0.89060604   -7.5368708    62.819161  0.022760566  0.023615222           10 
  231000   0.91861262   -7.5103042    63.161836  0.022785655  0.023553507            2 
  232000   0.90000932   -7.5564662    63.219852   0.02270828  0.023492673            2 
  233000   0.89573071   -7.5887648    63.138182   0.02258161  0.023431419            3 
  234000   0.89996767   -7.5885833    63.268651  0.022531571  0.023369129            2 
  235000   0.90010652    -7.618323    63.608506  0.022556208  0.023308506            4 
  236000   0.90248551   -7.5819128    63.561181   0.02244392  0.023248056            4 
  237000   0.89381916   -7.5198814    64.071414  0.022528627  0.023188185            1 
  238000   0.86419604   -7.5295815    64.263136  0.022501098  0.023128636            2 
  239000    0.8821639    -7.574078    63.942401  0.022295119  0.023069348            5 
  240000   0.88855463   -7.5535147    64.273528  0.022317197  0.023008764            4 
  241000   0.88220569   -7.5874749    64.243838  0.022214329  0.022947809            5 
  242000   0.85425754   -7.5633435    64.366543  0.022164787  0.022886964            5 
  243000   0.85966413   -7.6233461    64.264972  0.022038742   0.02282571            2 
  244000   0.87729231   -7.5747129     64.62244  0.022070505  0.022764669            5 
  245000   0.87677455   -7.5839737    64.673086  0.021997648   0.02270419            2 
  246000   0.86850614   -7.6074866    65.027345  0.022028233  0.022644085            3 
  247000   0.86834174   -7.5911734    65.001201   0.02193023  0.022584264            2 
  248000   0.86382736   -7.5693551    65.285725  0.021937407  0.022525677            6 
  249000    0.8580872   -7.6150609    65.324332  0.021862226  0.022466717            4 
  250000   0.88776364   -7.6344405    65.274173  0.021758058  0.022407407            2 
  251000   0.87403786   -7.5841258    65.472028  0.021737061   0.02234777            2 
  252000   0.85994347   -7.6121248     65.66745  0.021715427  0.022287867            1 
  253000   0.86367414   -7.6395177    65.517504  0.021580205  0.022227349            6 
  254000   0.86397506   -7.6430376    65.320641  0.021430657  0.022165689            2 
  255000   0.86905509   -7.6519788    65.516176  0.021410515  0.022104068            3 
  256000   0.86592893   -7.6427629    65.649236  0.021370194  0.022042553            2 
  257000   0.83327869   -7.6603684    65.680907  0.021297311  0.021980857            3 
  258000   0.84841941   -7.6539658    65.789792  0.021249933  0.021919308            1 
  259000   0.85863721   -7.6188759    66.025526  0.021243734  0.021857809            1 
  260000    0.8718767   -7.6661491    66.058493  0.021172594  0.021796245            2 
  261000   0.85456935   -7.6550842    66.114148  0.021109243  0.021734814            3 
  262000   0.84623502   -7.6777551    65.984726  0.020987508  0.021672819            2 
  263000   0.87181606   -7.6737252    66.245947  0.020990477  0.021611441            2 
  264000   0.84944576   -7.6509888    66.488151  0.020987421  0.021550721            3 
  265000   0.84261336   -7.6600038    66.519369   0.02091804  0.021490464            3 
  266000   0.83576336   -7.6755492    66.600466  0.020864808  0.021429659            1 
  267000   0.85190306   -7.6769575     66.74988  0.020833296   0.02136923            2 
  268000   0.83910492   -7.7274158     66.53312  0.020688159  0.021307645            3 
  269000   0.85964461   -7.6725821    66.699398  0.020662763  0.021246325            4 
  270000   0.83586681   -7.7162025    66.577151  0.020548503  0.021184902            2 
  271000   0.84351008   -7.6899156    66.706511  0.020512457   0.02112249            2 
  272000   0.82658577   -7.7337919    66.791317  0.020463026  0.021060209            6 
  273000   0.83182375   -7.7179427    66.936746  0.020432462  0.020998002            3 
  274000   0.82530049   -7.7345497    66.820374  0.020322498  0.020935701            4 
  275000   0.83152102   -7.7319216    66.922899  0.020279666  0.020873413            4 
  276000    0.8523819   -7.6875433    67.057777  0.020246913  0.020811611            2 
  277000    0.8317079   -7.6948752    67.094347  0.020184821  0.020749655            6 
  278000   0.82868505   -7.7043687    67.086221  0.020109778  0.020687509            5 
  279000   0.83721426   -7.7366159    67.182255  0.020066384  0.020625697            2 
  280000   0.82836292   -7.7400034    67.246502   0.02001384  0.020564309            2 
  281000   0.83186277   -7.7296934    67.233517  0.019938765  0.020502694            5 
  282000   0.81717071   -7.7873289    67.407049  0.019919341  0.020441837            2 
  283000    0.8307724   -7.7473288    67.484426  0.019871739  0.020380562            2 
  284000   0.82004483   -7.7552726    67.518233  0.019811688  0.020319295            2 
  285000   0.81122312   -7.7589001     67.63692  0.019776877  0.020258377            6 
  286000   0.82769175    -7.784476     67.62678  0.019704773   0.02019757            2 
  287000   0.81466274   -7.7812215    67.651245  0.019643219  0.020136771            2 
  288000   0.80726585   -7.7697673    67.639811  0.019571705  0.020076398            3 
  289000   0.78987583   -7.7463866    67.832349  0.019559501  0.020015842            5 
  290000    0.7909876   -7.7531181    68.083396  0.019564194  0.019956372            4 
  291000   0.78596893   -7.7592236    68.106213  0.019503497  0.019897168            1 
  292000   0.79870447   -7.7821325    67.881386  0.019372542  0.019837253            3 
  293000   0.81272247   -7.7944555    68.159396  0.019385494  0.019777751            3 
  294000   0.80452147   -7.7795798    68.291745  0.019357071  0.019718969            3 
  295000    0.7844091   -7.8222976    68.196634  0.019264586  0.019660458            3 
  296000   0.79894877   -7.7757946    68.520012  0.019290544  0.019602412            1 
  297000   0.80142374   -7.7878422    68.739466  0.019287168  0.019544539            2 
  298000   0.80294788   -7.8220234    68.635413  0.019193348  0.019486815            6 
  299000   0.81261049   -7.8327728    68.662954  0.019136832  0.019428968            5 
  300000   0.77900594   -7.8280097     68.61651  0.019060142  0.019371633            3 
  301000   0.79287263   -7.8224752    68.734407  0.019029459  0.019314379            3 
  302000   0.79107837   -7.8194093    68.798307   0.01898408  0.019256869            4 
  303000   0.80368178   -7.8077139    68.743401  0.018906326  0.019199228            2 
  304000   0.78129404   -7.8249546    68.729321  0.018840274  0.019141556            3 
  305000   0.76907091   -7.8658428    68.917173  0.018829829  0.019084448            4 
  306000   0.79577653   -7.8692969    68.818972   0.01874155  0.019027484            2 
  307000   0.78247205   -7.8600163    68.900484  0.018702629  0.018969914            2 
  308000   0.79158256   -7.8500429    69.010419   0.01867165  0.018912828            4 
  309000    0.7769531   -7.8982758    68.993673  0.018606708  0.018855939            1 
  310000   0.77267748   -7.8686075    68.999311  0.018548202  0.018799201            3 
  311000   0.77393453   -7.8699599    69.192358  0.018540289  0.018742772            2 
  312000   0.76127002   -7.8451002    69.247479  0.018495587  0.018686726            2 
  313000     0.767675   -7.8582536    69.248933  0.018436883  0.018630803            3 
  314000   0.76672486   -7.8562697    69.557317   0.01846001  0.018574856            4 
  315000   0.78082692   -7.8858819    69.445267  0.018371764  0.018519199            3 
  316000   0.76991675   -7.8695912     69.43164  0.018310032  0.018463472            4 
  317000   0.75901229   -7.8769908    69.417367  0.018248519  0.018407611            3 
  318000   0.75198624   -7.9003015    69.634536  0.018248044  0.018352659            4 
  319000   0.76791939   -7.8729813    69.831145  0.018242201  0.018298068            3 
  320000   0.74490067   -7.9015178    69.542749  0.018110091  0.018243604            1 
  321000   0.75805715   -7.8757568    69.754733  0.018108705  0.018188754            3 
  322000   0.74137826   -7.8920147    69.734741  0.018047293  0.018134326            6 
  323000   0.76250176   -7.8829021    69.863809  0.018024718  0.018080216            3 
  324000   0.75210043   -7.9028407    69.798403  0.017952264  0.018025909            2 
  325000   0.75259358   -7.9036366    70.017783  0.017953278  0.017971558            2 
  326000   0.76296893   -7.9353992    69.882842  0.017863712  0.017917739            3 
  327000   0.74448118   -7.9120015     70.11896  0.017869256  0.017864513            6 
  328000   0.75703542   -7.9309458    70.109836  0.017812458  0.017811262            5 
  329000    0.7495871   -7.9137657    69.977242  0.017724732  0.017758012            2 
  330000   0.74296806   -7.9356285    70.116281  0.017706132  0.017704939            3 
  331000   0.74472046   -7.9679303    69.989739   0.01762078  0.017651877            2 
  332000   0.73399889   -7.9346492    70.018095  0.017574823  0.017598764            2 
  333000   0.73046109   -7.9638686    69.952397  0.017505605  0.017545085            3 
  334000   0.72017923   -7.9601351    70.064549  0.017481175  0.017491342            4 
  335000   0.73849201   -7.9707678     70.05801  0.017427366  0.017437872            3 
  336000   0.72903302   -7.9707979    70.103003  0.017386658  0.017384637            3 
  337000    0.7409198   -7.9440271    70.122056  0.017339777  0.017331714            2 
  338000   0.72676771   -7.9647412    70.202585   0.01730833  0.017278602            4 
  339000   0.72683013   -7.9742081    70.214252   0.01726014  0.017225699            2 
  340000   0.72159765   -7.9936303    70.152432  0.017194224  0.017172621            6 
  341000   0.71727425   -7.9895118    70.014027  0.017109977  0.017119729            5 
  342000   0.71872659   -7.9835914    70.038093  0.017065812  0.017066668            2 
  343000   0.73182076   -7.9987163    70.136456  0.017039955  0.017013691            3 
  344000   0.71737673   -8.0009689     70.28684  0.017026851   0.01696106            4 
  345000   0.70878068   -8.0116646    70.156209  0.016945944  0.016908082            1 
  346000    0.7053489   -7.9999968    70.026963  0.016865839  0.016854943            2 
  347000   0.74141781   -8.0161805    70.151053  0.016847035  0.016802206            3 
  348000   0.70628428   -7.9952237    70.255662  0.016823674  0.016749619            1 
  349000   0.71079235   -8.0085887     70.17809  0.016756946  0.016697449            3 
  350000   0.71226581   -8.0255362    70.219272  0.016718874   0.01664498            2 
  351000   0.69407788   -8.0222371     70.26747  0.016682685   0.01659265            1 
  352000   0.70059668   -8.0240916    70.348146  0.016654391  0.016540367            1 
  353000   0.70675204   -8.0491387    70.450866   0.01663146  0.016488226            2 
  354000   0.69610287   -8.0245293    70.523347  0.016601541  0.016436772            3 
  355000   0.70235057   -8.0740064    70.195224  0.016477752  0.016385302            2 
  356000    0.7053474   -8.0429003    70.357327  0.016469412  0.016333776            3 
  357000   0.70243336   -8.0524998    70.280449  0.016405333  0.016282143            2 
  358000   0.67953696   -8.0317921    70.479081  0.016405745   0.01623085            3 
  359000    0.6961055   -8.0531358    70.506616  0.016366438   0.01617981            5 
  360000   0.69301401   -8.0572331    70.560964  0.016333557  0.016129178            3 
  361000    0.6787305   -8.0366631    70.410016  0.016253466  0.016078549            4 
  362000   0.68362898   -8.0628235    70.447416  0.016217177  0.016027853            3 
  363000   0.69472362   -8.0484671    70.465992  0.016176766  0.015977113            2 
  364000   0.68297326   -8.0563278    70.522747  0.016145318  0.015926534            2 
  365000   0.67587351   -8.0838513    70.485519  0.016092584  0.015876038            2 
  366000    0.6809218   -8.0639192     70.36564  0.016021321  0.015825693            5 
  367000   0.67069309        -8.09     70.42566  0.015991294   0.01577546            2 
  368000      0.68757   -8.1257212    70.359539  0.015932867  0.015725325            3 
  369000   0.67617741   -8.1063638    70.321005  0.015880986  0.015675111            2 
  370000   0.67470612    -8.098443    70.375288   0.01585029  0.015625078            5 
  371000   0.67130292   -8.0964899    70.204006  0.015769094  0.015575071            4 
  372000   0.67820234    -8.098547    70.467067  0.015785633  0.015525165            4 
  373000    0.6824783   -8.1066178    70.350001  0.015717158  0.015475581            3 
  374000   0.67617097   -8.1240652    70.376892  0.015681126  0.015426062            2 
  375000   0.65886385   -8.1088125    70.352211  0.015633825  0.015376494            2 
  376000   0.65689514   -8.1261969    70.333767  0.015588158  0.015327146            3 
  377000   0.65885085   -8.1241762    70.486845  0.015580647  0.015277867            4 
  378000   0.66262343   -8.1339787    70.281684  0.015494198  0.015228701            2 
  379000   0.66056331    -8.137126    70.484348  0.015497878  0.015179746            2 
  380000   0.68060301   -8.1282672    70.560638  0.015473824  0.015130845            2 
  381000   0.65335478   -8.1244575     70.43368  0.015405442  0.015082278            4 
  382000   0.65170884   -8.1264064    70.521493   0.01538427  0.015033811            3 
  383000   0.66694914   -8.1512541    70.442536  0.015326923  0.014985364            5 
  384000   0.66007564   -8.1460045    70.345629  0.015265978  0.014937038            4 
  385000   0.63764038    -8.137666    70.423035  0.015243081  0.014888847            4 
  386000   0.64829817   -8.1460513    70.456797   0.01521088  0.014840801            4 
  387000   0.63766186   -8.1567512    70.390293  0.015157255  0.014792741            3 
  388000   0.63665174   -8.1777633    70.394656  0.015119127  0.014744823            4 
  389000   0.63473021   -8.1608224    70.411944  0.015083964  0.014696823            2 
  390000   0.64523311   -8.1604787      70.4265  0.015048397  0.014649016            5 
  391000   0.65342541   -8.1541954    70.298259  0.014982579  0.014601373            6 
  392000   0.64565616   -8.1769435    70.270669  0.014938493  0.014553772            3 
  393000   0.63220572    -8.183114    70.439629  0.014936308  0.014506214            5 
  394000   0.63571308   -8.2071877    70.125275  0.014831911  0.014458648            3 
  395000   0.63685503   -8.2002285     70.20499  0.014811179  0.014411265            4 
  396000   0.62429487    -8.223335    70.329053  0.014799885  0.014363966            3 
  397000   0.64206964   -8.2016726    70.202625  0.014736067  0.014316872            7 
  398000   0.63367646   -8.2171269    70.162516  0.014690644  0.014269786            3 
  399000    0.6128781   -8.2082184     70.13688  0.014648471  0.014222782            3 
  400000   0.63700984   -8.1997982     70.13654  0.014611779  0.014176018            2 
  401000   0.63376877   -8.2070749     70.21979  0.014592641  0.014129333            5 
  402000   0.61996535   -8.2046862    70.182122  0.014548533  0.014082683            4 
  403000   0.63021972   -8.2202103    70.257237  0.014527965  0.014036314            4 
  404000   0.61240788   -8.2093981    70.100498  0.014459674  0.013990132            2 
  405000   0.60753658   -8.2173553    70.323122  0.014469778  0.013944041            3 
  406000   0.61080999   -8.2288023    70.113337  0.014391079  0.013898124            3 
  407000   0.61048488   -8.2249761    70.070098  0.014346867  0.013852015            2 
  408000   0.60252954   -8.2340595     70.09823  0.014317449  0.013806177            2 
  409000   0.62444846   -8.2093469    70.234133  0.014310133  0.013760432            4 
  410000   0.61038583   -8.2381286    70.031539  0.014234053  0.013714913            4 
  411000   0.60923495   -8.2569723    70.087012  0.014210667  0.013669597            2 
  412000   0.60323186   -8.2510393    70.184569  0.014195908  0.013624391            4 
  413000   0.61067589   -8.2455575     70.23428  0.014171566  0.013579383            3 
  414000   0.61500116   -8.2491375    70.067742  0.014103813  0.013534501            4 
  415000   0.61609783   -8.2608117    70.060158  0.014068305   0.01348988            6 
  416000   0.60854883   -8.2354827    70.034739  0.014029395  0.013445283            5 
  417000   0.60490695   -8.2649802    70.155871  0.014019958  0.013400849            4 
  418000   0.61214556   -8.2425974    70.137687  0.013982792  0.013356676            6 
  419000   0.58602339   -8.2724144    69.980595  0.013918177  0.013312542            6 
  420000   0.59336692   -8.2729814    69.973392   0.01388361  0.013268504            4 
  421000   0.59148616   -8.2867101    70.072169  0.013870184  0.013224696            5 
  422000   0.59565953   -8.2952425    70.136348   0.01384999   0.01318097            8 
  423000    0.5896382   -8.2864294    69.977754  0.013786004  0.013137336            4 
  424000   0.57985627   -8.2830563    69.846567  0.013727706  0.013093997            5 
  425000   0.58158189   -8.3021044    70.003768  0.013726229  0.013050588            6 
  426000   0.57775579   -8.2858628    69.893528  0.013672443  0.013007297            4 
  427000   0.58277938   -8.3069178    69.932435  0.013648016  0.012964104            7 
  428000   0.58654029   -8.3176986    69.935081  0.013616643  0.012921061           12 
  429000   0.58409024   -8.3082754    70.013258  0.013600089  0.012878208            4 
  430000   0.57951856   -8.3152834    69.884874   0.01354358  0.012835422            4 
  431000   0.57575464   -8.2979679    69.945273  0.013523835  0.012792943            4 
  432000   0.57248142   -8.3115668    69.953098  0.013494039  0.012750494           11 
  433000   0.57015943   -8.3170845    69.741107  0.013422076  0.012708235            5 
  434000   0.58138223   -8.3083602    69.878094  0.013417453  0.012665915            2 
  435000   0.58362792   -8.3503966    69.786023   0.01336897   0.01262377            2 
  436000   0.57338256   -8.3284528    69.731102   0.01332781  0.012581739            4 
  437000    0.5733754   -8.3183503    69.842972  0.013318645  0.012539848            4 
  438000   0.57401036   -8.3551476     69.80146  0.013280339  0.012498129            4 
  439000   0.56124952   -8.3523484      69.7652  0.013243204  0.012456569            2 
  440000   0.54840615   -8.3344866    69.827665  0.013224937  0.012415141            2 
  441000   0.55806829   -8.3557481    69.828555  0.013195116  0.012373919            5 
  442000   0.55840856   -8.3573905    69.653659  0.013132289   0.01233279            7 
  443000   0.55507398   -8.3529643    69.825798  0.013135026  0.012291797            2 
  444000    0.5631339   -8.3611486    69.612745  0.013065455  0.012251123            4 
  445000   0.55347579     -8.34545    69.779203  0.013067266  0.012210452            2 
  446000   0.55182393   -8.3530051    69.773586  0.013036918  0.012170003            1 
  447000   0.54760917   -8.3580683    69.804312  0.013013481  0.012129767            1 
  448000    0.5665856   -8.3748695    69.732705  0.012971113  0.012089511            2 
  449000   0.55605458   -8.3647359      69.6969  0.012935579  0.012049433            3 
  450000    0.5450123   -8.3844782    69.619257  0.012892455  0.012009483            4 
  451000   0.54267736   -8.3810144    69.612854  0.012862686  0.011969746            6 
  452000   0.54442874   -8.3753801    69.628791  0.012837166  0.011930189            2 
  453000   0.54712906   -8.3880521     69.77796  0.012836269  0.011890788            2 
  454000   0.53959141   -8.3661027    69.644638  0.012783524  0.011851515            5 
  455000   0.55232462   -8.3738059    69.571673  0.012742065  0.011812428            2 
  456000    0.5389096   -8.4020818    69.652315  0.012728859  0.011773378            4 
  457000   0.53733798   -8.4076478    69.563022  0.012684723  0.011734552            3 
  458000   0.52627171   -8.3907537    69.616751  0.012666803  0.011695904            4 
  459000   0.54573216   -8.3850906    69.623089  0.012640357  0.011657373            4 
  460000   0.53932846   -8.3882015    69.623707   0.01261299  0.011619016            3 
  461000   0.53577015   -8.4178019    69.731842  0.012605177  0.011580772            4 
  462000   0.52424167   -8.3975988     69.66664  0.012566133  0.011542681            4 
  463000   0.52499778    -8.403831    69.572522  0.012522052  0.011504726            4 
  464000   0.52870113   -8.3917953    69.519397  0.012485524   0.01146695            3 
  465000   0.53494386   -8.3926584    69.541881  0.012462703  0.011429293            4 
  466000   0.52781827   -8.3926863    69.567531  0.012440546  0.011391843            5 
  467000   0.50935959   -8.4083272     69.59407  0.012418642  0.011354516            5 
  468000   0.50627553   -8.4231199    69.515396  0.012378098  0.011317359            4 
  469000   0.50874398   -8.4199719    69.633083  0.012372616   0.01128028            3 
  470000   0.52409527   -8.4245867    69.560007  0.012333335  0.011243312            4 
  471000   0.52211555   -8.4454279    69.463142  0.012290011   0.01120654            3 
  472000   0.50400838   -8.4236564    69.544078  0.012278262  0.011169822            3 
  473000   0.51952878   -8.4308328    69.404978  0.012227797  0.011133365            4 
  474000   0.51162005   -8.4457406    69.556426  0.012228626  0.011096995            4 
  475000   0.50241197   -8.4473859    69.463291  0.012186542  0.011060791            4 
  476000   0.51482282    -8.411957    69.403957  0.012150553  0.011024675            6 
  477000   0.50536994   -8.4688622    69.562925  0.012152852  0.010988694            3 
  478000   0.50418507   -8.4405599    69.532256  0.012122081  0.010952936            3 
  479000   0.49999287   -8.4537677    69.507337  0.012092439  0.010917242            4 
  480000   0.49452469   -8.4487096     69.39352  0.012047486  0.010881728            4 
  481000   0.49501221   -8.4582273    69.466012  0.012034999  0.010846268            3 
  482000    0.5044348   -8.4473267    69.439779  0.012005494  0.010810959            3 
  483000    0.4830667   -8.4598243     69.44712  0.011981905  0.010775756            4 
  484000    0.4947801   -8.4638059    69.457884  0.011959002   0.01074073            5 
  485000   0.49487139   -8.4593256    69.473868  0.011937091  0.010705811            4 
  486000   0.49197415   -8.4688268     69.31945  0.011886051  0.010670985            4 
  487000   0.48992742   -8.4805578    69.466818  0.011886861  0.010636331            4 
  488000   0.49801607   -8.4466299    69.351296  0.011842776  0.010601796            3 
  489000   0.49086277   -8.4588138     69.36114  0.011820235  0.010567409            3 
  490000   0.48909896   -8.4830634    69.334134  0.011791519  0.010533157            2 
  491000   0.48083897   -8.4858517    69.270512  0.011756706  0.010499076            4 
  492000   0.47665476   -8.4845125    69.266372  0.011732109  0.010465035            4 
  493000    0.4834357    -8.496252    69.377461  0.011727089  0.010431216            4 
  494000   0.48071565   -8.4854538    69.236467  0.011679566  0.010397481            3 
  495000   0.46912563   -8.4960233    69.275361  0.011662519  0.010363842            3 
  496000   0.46481026   -8.4985837    69.272389  0.011638506  0.010330377            3 
  497000    0.4698612   -8.5168464     69.23489  0.011608801  0.010297039            3 
  498000   0.45915177   -8.4900848    69.343808  0.011603716  0.010263846            2 
  499000   0.48116821    -8.500874    69.436772  0.011595987    0.0102308            3 
  500000   0.46703004   -8.4999452    69.278044  0.011546341  0.010197912            4 
  501000   0.46294948     -8.50164    69.273308  0.011522506  0.010165107            3 
  502000   0.46630469    -8.516543     69.16449  0.011481489    0.0101324            2 
  503000   0.45425204   -8.5043236    69.126802  0.011452419  0.010099804            4 
  504000   0.45702172   -8.5034883     69.11325  0.011427455  0.010067362            3 
  505000   0.46134746   -8.5122298    69.213753  0.011421411   0.01003507            3 
  506000   0.46062085   -8.5063179    69.148037  0.011388017  0.010002866            4 
  507000   0.46212118   -8.5210359    69.145998   0.01136522 0.0099708747            2 
  508000   0.45562616   -8.5121302    69.246013  0.011359254  0.009938965            4 
  509000   0.46738023   -8.5370689    69.209254  0.011330919 0.0099071168            4 
  510000   0.45218672   -8.5297495    69.064724  0.011285086 0.0098754364            3 
  511000    0.4545094   -8.5196102    69.205987  0.011286038  0.009843872            1 
  512000   0.44571389   -8.5320541     69.05062  0.011238708 0.0098123822            3 
Loop time of 1223.07 on 48 procs for 500000 steps with 4000 atoms

Performance: 70641.861 tau/day, 408.807 timesteps/s
99.4% CPU use with 48 MPI tasks x no OpenMP threads

MPI task timing breakdown:
Section |  min time  |  avg time  |  max time  |%varavg| %total
---------------------------------------------------------------
Pair    | 71.607     | 78.324     | 85.655     |  35.7 |  6.40
Neigh   | 7.6993     | 8.1437     | 8.5684     |   7.4 |  0.67
Comm    | 76.642     | 83.182     | 91.259     |  35.9 |  6.80
Output  | 0.87789    | 0.87833    | 0.88676    |   0.1 |  0.07
Modify  | 1035.2     | 1040.1     | 1045       |   7.6 | 85.04
Other   |            | 12.44      |            |       |  1.02

Nlocal:        83.3333 ave          91 max          75 min
Histogram: 1 4 2 6 7 7 14 2 4 1
Nghost:        2012.15 ave        2032 max        1987 min
Histogram: 1 3 4 4 9 8 5 4 3 7
Neighs:        13034.0 ave       14144 max       10984 min
Histogram: 1 1 3 2 3 6 11 10 3 8
FullNghs:      26068.5 ave       28548 max       23320 min
Histogram: 3 2 3 6 9 3 13 4 3 2

Total # of neighbors = 1251286
Ave neighs/atom = 312.82150
Neighbor list builds = 26823
Dangerous builds = 0

#clear
#
#next RN
#
#jump SELF
Total wall time: 0:20:26
