
units lj                  # Use reduced LJ style units
atom_style atomic         # Uncharged point particles
atom_modify map hash      # Needed for indexing of clusters etc
                          # Used to be able to find where atoms are in relation to each other.

lattice fcc 1.0 spacing 1 1 1
Lattice spacing in x,y,z = 1.5874011 1.5874011 1.5874011
region box block 0 10 0 10 0 10 units lattice
create_box 2 box
Created orthogonal box = (0.0000000 0.0000000 0.0000000) to (15.874011 15.874011 15.874011)
  3 by 4 by 4 MPI processor grid
create_atoms 1 box
Created 4000 atoms
  using lattice units in orthogonal box = (0.0000000 0.0000000 0.0000000) to (15.874011 15.874011 15.874011)
  create_atoms CPU = 0.035 seconds
set type 1 type/fraction 2 0.0 78393
Setting atom values ...
  0 settings made for type/fraction
mass 1 1.0
mass 2 1.0
pair_style lj/cut  3.5
pair_modify tail  yes
pair_coeff 1  1  1.0  1.0   # Intearaction between 1 and 1 set with epsilon = 1 and sigma = 1
pair_coeff 1  2  1.5  0.8
pair_coeff 2  2  0.5  0.88

write_data data.0
System init for write_data ...
Neighbor list info ...
  update every 1 steps, delay 10 steps, check yes
  max neighbors/atom: 2000, page size: 100000
  master list distance cutoff = 3.8
  ghost atom cutoff = 3.8
  binsize = 1.9, bins = 9 9 9
  1 neighbor lists, perpetual/occasional/extra = 1 0 0
  (1) pair lj/cut, perpetual
      attributes: half, newton on
      pair build: half/bin/atomonly/newton
      stencil: half/bin/3d
      bin: standard
WARNING: Not all mixed pair coeffs generated from mixing. Use write_data with 'pair ij' option to store all pair coeffs. (../write_data.cpp:312)


#############################
#   M E L T   S Y S T E M   #
#############################

velocity all create 2.4 6229865 mom yes dist gaussian # Assign velocities
                                                    # Temperature 2.4, random number seed, zero linear momentum
                                                                                # Gaussian distribution

timestep 0.002   # simulation timestep
thermo 1000       # output thermodynamic data every 1000 steps bf 100

# Define a fix  in this case with index 1 applied to all
# particles in the simulation. This fix is for simulations
# in the anisotropic NPT ensemble. Note that we use the MTK
# correction.
fix 1 all npt temp 2.4 2.4 0.1 iso 5.68 5.68 0.5 mtk yes tchain 5 pchain 5 # Use NPT ensemble
                                                                         # Set temperature and pressure and damping
                                                                         # Numbers of thermostats in chain and in barostat
run 10000          # run for 10000 steps
Per MPI rank memory allocation (min/avg/max) = 3.642 | 3.644 | 3.648 Mbytes
Step Temp E_pair E_mol TotEng Press Volume 
       0          2.4   -8.3859253            0   -4.7868253   -2.2405722         4000 
    1000    2.3673149   -4.4811735            0  -0.93108891    5.4341652    5181.8809 
    2000    2.3649254   -4.3215987            0  -0.77509738    5.6339746    5264.2834 
    3000     2.361173   -4.3823631            0  -0.84148901     5.489186    5243.3719 
    4000    2.4525905   -4.3286775            0  -0.65071149    6.1453119    5181.4251 
    5000    2.3639587   -4.3122308            0  -0.76717926    5.7708209    5241.4161 
    6000    2.4252102   -4.3708506            0  -0.73394468     5.614368    5238.0468 
    7000    2.3908048   -4.3937638            0  -0.80845308    5.5103104    5229.7172 
    8000    2.3457693   -4.3976092            0  -0.87983494    5.2702917    5263.6303 
    9000    2.4067105   -4.3864032            0  -0.77723999    5.7435994    5204.7784 
   10000    2.4216282   -4.3628005            0  -0.73126637    5.8093347    5210.2268 
Loop time of 2.08194 on 48 procs for 10000 steps with 4000 atoms

Performance: 829997.068 tau/day, 4803.224 timesteps/s
99.6% CPU use with 48 MPI tasks x no OpenMP threads

MPI task timing breakdown:
Section |  min time  |  avg time  |  max time  |%varavg| %total
---------------------------------------------------------------
Pair    | 0.84271    | 0.90189    | 0.98305    |   3.2 | 43.32
Neigh   | 0.1659     | 0.17296    | 0.19105    |   1.2 |  8.31
Comm    | 0.62002    | 0.73434    | 0.80348    |   4.9 | 35.27
Output  | 0.00024497 | 0.00024829 | 0.00031366 |   0.0 |  0.01
Modify  | 0.21537    | 0.25838    | 0.31255    |   4.8 | 12.41
Other   |            | 0.01412    |            |       |  0.68

Nlocal:        83.3333 ave          92 max          77 min
Histogram: 1 3 11 4 12 5 10 1 0 1
Nghost:        1377.42 ave        1408 max        1340 min
Histogram: 1 1 2 7 6 8 14 4 4 1
Neighs:        7303.44 ave        8615 max        6248 min
Histogram: 1 0 9 11 9 11 3 2 1 1

Total # of neighbors = 350565
Ave neighs/atom = 87.641250
Neighbor list builds = 909
Dangerous builds = 253

# Equilibrate just above the melting temperature to avoid step fn in T

fix 1 all npt temp 1.25 1.25 0.1 iso 5.68 5.68 0.5 mtk yes tchain 5 pchain 5
run 2000
Per MPI rank memory allocation (min/avg/max) = 3.642 | 3.644 | 3.648 Mbytes
Step Temp E_pair E_mol TotEng Press Volume 
   10000    2.4216282   -4.3628005            0  -0.73126637    5.8093347    5210.2268 
   11000    1.2540588   -5.7930794            0   -3.9124614    5.6248032    4366.6029 
   12000    1.2164299   -5.8314288            0   -4.0072401    5.6028818    4348.1723 
Loop time of 0.449359 on 48 procs for 2000 steps with 4000 atoms

Performance: 769096.180 tau/day, 4450.788 timesteps/s
99.6% CPU use with 48 MPI tasks x no OpenMP threads

MPI task timing breakdown:
Section |  min time  |  avg time  |  max time  |%varavg| %total
---------------------------------------------------------------
Pair    | 0.19795    | 0.20852    | 0.22835    |   1.3 | 46.40
Neigh   | 0.030432   | 0.03185    | 0.036487   |   0.5 |  7.09
Comm    | 0.13272    | 0.15525    | 0.17191    |   1.9 | 34.55
Output  | 5.1509e-05 | 5.2729e-05 | 6.4925e-05 |   0.0 |  0.01
Modify  | 0.041734   | 0.049175   | 0.057036   |   2.0 | 10.94
Other   |            | 0.004513   |            |       |  1.00

Nlocal:        83.3333 ave          92 max          75 min
Histogram: 1 2 7 3 12 13 4 3 2 1
Nghost:        1555.19 ave        1571 max        1539 min
Histogram: 3 2 3 7 8 9 5 7 2 2
Neighs:        8758.60 ave        9966 max        7688 min
Histogram: 1 3 4 10 11 9 6 1 2 1

Total # of neighbors = 420413
Ave neighs/atom = 105.10325
Neighbor list builds = 142
Dangerous builds = 6

#############################
# L I N E A R  Q U E N C H  #
#############################

# Define solid atoms. This closely follows ten Wolde  Ruiz-Montero and Frenkel  Faraday Discuss  1996  104  93-110
# Compute components of the per-atom q6 vector
compute q6 all orientorder/atom degrees 1 6 components 6 nnn NULL cutoff 1.3 # compute the Q6 parameter.
                                                                             # Use all neighbours within 1.3 unit cell.

# get number of connections
compute coord_number all coord/atom orientorder q6 0.5

# An atom is solid if it has 8 or more connections (of a possible 14)
variable is_solid atom c_coord_number>=8
group solid dynamic all var is_solid    # Must be dynamic to update
dynamic group solid defined

# do clustering
compute cluster solid cluster/atom 1.3 # Create a cluster where all atoms within are solid and max 1.3 units from another member

# define chunks one chunk per cluster
compute clus_chunks solid chunk/atom c_cluster nchunk every compress yes  # Says which atoms are in which chunk

# count the size of each chunk
compute size_chunks solid property/chunk clus_chunks count


# Find the maximum entry in the vector of chunk sizes
variable max_n equal max(c_size_chunks)


# Thermo style which includes this variable
# thermo_style custom step temp pe vol v_max_n

thermo ${N}  # Print the thermo information every 100 steps
thermo 1000  

# Reset the npt fix at a lower temperature (below freezing)
fix 1  all npt temp  ${temp} ${temp}  0.1  iso  5.68  5.68  0.5  mtk yes tchain  5  pchain  5
fix 1  all npt temp  0.45 ${temp}  0.1  iso  5.68  5.68  0.5  mtk yes tchain  5  pchain  5
fix 1  all npt temp  0.45 0.45  0.1  iso  5.68  5.68  0.5  mtk yes tchain  5  pchain  5

dump dmp2 all dcd ${N} traj.dcd
dump dmp2 all dcd 1000 traj.dcd


compute msd all msd com yes
variable twopoint equal c_msd[4]/6/(step*dt+1.0e-6)
fix 9 all vector 10 c_msd[4]
variable fit equal slope(f_9)/6/(10*dt)
thermo_style custom step temp pe c_msd[4] v_twopoint v_fit v_max_n

fix 1 all npt temp 1.25 ${temp} 0.1 iso 5.68 5.68 0.5 mtk yes tchain 5 pchain 5
fix 1 all npt temp 1.25 0.45 0.1 iso 5.68 5.68 0.5 mtk yes tchain 5 pchain 5
run 5000000 # 5000000  # Run for this many steps
Neighbor list info ...
  update every 1 steps, delay 10 steps, check yes
  max neighbors/atom: 2000, page size: 100000
  master list distance cutoff = 3.8
  ghost atom cutoff = 3.8
  binsize = 1.9, bins = 9 9 9
  4 neighbor lists, perpetual/occasional/extra = 1 3 0
  (1) pair lj/cut, perpetual
      attributes: half, newton on
      pair build: half/bin/atomonly/newton
      stencil: half/bin/3d
      bin: standard
  (2) compute orientorder/atom, occasional
      attributes: full, newton on
      pair build: full/bin/atomonly
      stencil: full/bin/3d
      bin: standard
  (3) compute coord/atom, occasional
      attributes: full, newton on
      pair build: full/bin/atomonly
      stencil: full/bin/3d
      bin: standard
  (4) compute cluster/atom, occasional
      attributes: full, newton on
      pair build: full/bin/atomonly
      stencil: full/bin/3d
      bin: standard
Per MPI rank memory allocation (min/avg/max) = 9.727 | 9.733 | 9.737 Mbytes
Step Temp PotEng c_msd[4] v_twopoint v_fit v_max_n 
   12000    1.2164299   -5.8314288 1.0203916e-30 7.0860523e-33 8.3333333e+20            3 
   13000     1.235467   -5.8280718   0.56661168  0.003632126  0.046665319            3 
   14000    1.2594879   -5.8540381    1.1441973 0.0068106982  0.047032337            3 
   15000    1.2390587   -5.8576636    1.7096185 0.0094978805   0.04736866            4 
   16000    1.2442837   -5.8515844    2.3172837  0.012069186  0.047561732            9 
   17000    1.2584833   -5.8633701    2.9438065  0.014430423  0.048333477            4 
   18000    1.2473132   -5.8354174    3.4744934  0.016085617  0.048764354            2 
   19000    1.2675264   -5.8325139    4.0844276  0.017914156  0.048603561            3 
   20000    1.2537724   -5.8338195    4.6614363  0.019422651  0.048743251            2 
   21000    1.2369393    -5.857379    5.2060764  0.020659033  0.048779929            2 
   22000    1.2493817    -5.830636    5.7851197  0.021913332  0.048560411            3 
   23000    1.2474404   -5.8399311    6.4294071  0.023294953  0.048611315            2 
   24000    1.2430355   -5.8582411    7.0613588  0.024518606  0.048745671            6 
   25000    1.2195385   -5.8668153    7.6668296  0.025556098  0.048979693            3 
   26000     1.231218   -5.8406406     8.079167  0.025894766  0.048941664            4 
   27000     1.265925   -5.8016915     8.649517   0.02669604  0.048702796            6 
   28000    1.2302645   -5.8565869    9.0221014  0.026851492  0.048323296            2 
   29000    1.2540127    -5.822194    9.7255057  0.027946855  0.048002752            3 
   30000    1.2428414   -5.8317352    10.299683  0.028610231  0.047924254            3 
   31000    1.2171981   -5.8365216    10.751979  0.028903169    0.0477186            4 
   32000    1.2337104   -5.8228309    11.453028  0.029825593  0.047591822            7 
   33000    1.2564579   -5.8582062    12.002914  0.030310389  0.047582526            4 
   34000    1.2502228    -5.835405    12.499443   0.03063589   0.04749798            2 
   35000    1.2463793   -5.8644671    13.089452  0.031165361  0.047442996            3 
   36000    1.2678344   -5.9004102    13.622182  0.031532828    0.0473851            3 
   37000    1.2397171    -5.848854    14.205493  0.031994353  0.047318147            7 
   38000    1.2576123   -5.8434189    14.886206  0.032645189  0.047298351            3 
   39000    1.2282785   -5.8410897    15.377685  0.032858302  0.047323567            2 
   40000    1.2431093    -5.832804    15.878435  0.033080073  0.047261842            5 
   41000     1.265736   -5.9053813     16.28536  0.033100325  0.047142228            3 
   42000    1.2540755    -5.820429    16.972101  0.033674803  0.047075922            3 
   43000    1.2587381   -5.8649335    17.588427  0.034086098  0.047052391            2 
   44000    1.2381671   -5.8783527    18.018173  0.034125328  0.047031616            4 
   45000     1.257256   -5.8620299    18.556085   0.03436312  0.046977894            2 
   46000    1.2534512   -5.8137892    18.981394  0.034386583  0.046883359            4 
   47000    1.2327116   -5.8689559    19.484081  0.034546243  0.046756335            5 
   48000     1.237042   -5.8996558    19.941495  0.034620651  0.046640037            3 
   49000    1.2540844   -5.8395852    20.442267   0.03476576  0.046492051            2 
   50000    1.2267764   -5.8729196    20.903421  0.034839035  0.046341513            6 
   51000     1.231261   -5.8333553    21.524012  0.035169954  0.046204459            3 
   52000    1.2501987   -5.8417809    22.152324  0.035500518  0.046120041            3 
   53000    1.2402144   -5.8806967    22.845603  0.035920758  0.046075168            3 
   54000    1.2564866   -5.8194094    23.326842  0.035998213  0.046048557            3 
   55000    1.2437323   -5.8455856    23.942571  0.036276622  0.046018331            4 
   56000    1.2372694   -5.8406445    24.372299  0.036268301  0.045989091            5 
   57000    1.2441352   -5.8537545     24.79103  0.036244196  0.045931566            2 
   58000     1.236853   -5.8635906    25.472474  0.036598381  0.045891028            2 
   59000    1.2476026   -5.8616972    25.888093  0.036565103  0.045833139            4 
   60000    1.2714673   -5.8437396    26.562631  0.036892542  0.045795592            4 
   61000     1.248954   -5.8830933    27.426371   0.03746772  0.045795921            2 
   62000    1.2185968   -5.8503867    27.893363  0.037491078  0.045800614            3 
   63000    1.2249404   -5.8825462    28.319387  0.037459506  0.045804895            3 
   64000    1.2343766   -5.8553173    29.074441  0.037857345  0.045812671            6 
   65000    1.2326294    -5.859552    29.631259  0.037988793  0.045836524            3 
   66000    1.2397326     -5.83774    29.952138  0.037818356  0.045857196            6 
   67000    1.2495637   -5.8508068    30.477684  0.037907567  0.045853498            1 
   68000    1.2471888   -5.8421011     30.99401  0.037982855  0.045845875            5 
   69000    1.2577436    -5.840428    31.926098  0.038558089  0.045852006            4 
   70000    1.2298813   -5.8672368    32.128825  0.038248601  0.045864761            3 
   71000    1.2416756   -5.8748462    32.826919  0.038529247  0.045869475            3 
   72000    1.2422377   -5.8824958    33.401584   0.03865924  0.045872769            2 
   73000    1.2234428   -5.9172948    33.712885  0.038485029  0.045876396            3 
   74000    1.2466904   -5.8594757    34.414989  0.038755618  0.045877211            3 
   75000    1.2473228   -5.8485214    35.102672  0.039002968  0.045880894            6 
   76000    1.2253791   -5.8789663    35.620999  0.039058113  0.045894648            7 
   77000    1.2453381    -5.828346    36.241006  0.039221868  0.045909796            2 
   78000    1.2369281   -5.8956341    36.741072  0.039253282  0.045926449            4 
   79000    1.2402572   -5.8810944    37.258974  0.039302715  0.045927188            3 
   80000    1.2459699    -5.861801    37.807446  0.039382756  0.045929654            1 
   81000    1.2312111   -5.8747574    38.259188  0.039361305  0.045927888            4 
   82000     1.253985    -5.883261    38.923561  0.039556465  0.045934552            2 
   83000    1.2372294   -5.8648846     39.35743  0.039515492  0.045940812            5 
   84000    1.2422602   -5.8860259    40.013878  0.039696308  0.045938468            6 
   85000     1.258461   -5.8929613    40.732907  0.039934222  0.045949142            2 
   86000    1.2426921   -5.8378861    41.209583  0.039931766  0.045960948            4 
   87000    1.2412423   -5.8512916    41.902378  0.040136377  0.045986858            2 
   88000    1.2387681   -5.8972313     42.92372  0.040647461   0.04602495            5 
   89000    1.2563007   -5.8298661    43.414076  0.040649884  0.046069207            1 
   90000    1.2262833   -5.9082802    43.743845   0.04050356   0.04610635            5 
   91000    1.2548583    -5.848789    44.154421  0.040434452  0.046132692            2 
   92000    1.2056727   -5.8559093    44.396482  0.040214205   0.04613256            7 
   93000    1.2330731   -5.8314077    44.937136   0.04026625  0.046118701            2 
   94000    1.2091708   -5.8699042    45.328856  0.040185156  0.046107177            3 
   95000    1.1950554   -5.8848565    46.104965  0.040442951  0.046096849            3 
   96000    1.2078441   -5.8471888    46.505519  0.040369374  0.046091602            2 
   97000     1.233686   -5.9080049    46.935132  0.040322278  0.046080824            4 
   98000    1.2595165   -5.8664312    47.750066  0.040603798  0.046077129            3 
   99000    1.2414305   -5.8572595    48.134919  0.040517609  0.046070871            4 
  100000      1.23547   -5.8627029    48.701603  0.040584669   0.04605675            6 
  101000    1.2204143   -5.8559786    49.053829  0.040473456   0.04604289            4 
  102000    1.2375412   -5.9154326    49.332691  0.040304486  0.046018208            3 
  103000    1.2285616   -5.8970617    50.022136  0.040470983  0.045983439            4 
  104000    1.2358088   -5.8585692    50.556698  0.040510175  0.045953922            5 
  105000    1.2468275   -5.9139411    50.770886  0.040294354  0.045919375            3 
  106000    1.2462604   -5.8850598    51.647803  0.040603618  0.045885891            5 
  107000    1.2309383   -5.8562405    51.923864  0.040439146  0.045857105            2 
  108000    1.2011936   -5.8671273    52.506363  0.040514169  0.045825503            3 
  109000    1.2224213   -5.8800715    52.991498  0.040513377  0.045794273            5 
  110000    1.2137348   -5.8694328    53.315663  0.040390654  0.045752257            3 
  111000    1.1889852    -5.849194    53.842776  0.040422504  0.045712203            2 
  112000    1.2443604   -5.8613214    54.527846  0.040571314  0.045672711            2 
  113000    1.2118123   -5.8759067     54.97098  0.040539071  0.045639671            2 
  114000    1.2335532   -5.8727542     55.70374  0.040719108  0.045613372            7 
  115000    1.2143699   -5.8852578    56.244611  0.040756964  0.045587662            4 
  116000    1.2134763   -5.8772528    56.895889  0.040873483  0.045566547            3 
  117000    1.2593418   -5.9103628    57.420517  0.040897804  0.045545051            3 
  118000    1.2393312   -5.8567002    57.747685  0.040782263  0.045524007            3 
  119000    1.2585008   -5.8911603    58.257197  0.040796356  0.045500184            2 
  120000    1.2292328   -5.8797453    58.770149  0.040812603  0.045476345            3 
  121000    1.2369075   -5.8485249    59.283954  0.040829169  0.045452798            1 
  122000    1.2533645    -5.890186    59.518766  0.040654895  0.045426738            3 
  123000    1.2222399   -5.8649148    60.136622  0.040742969  0.045391259            6 
  124000    1.2206848   -5.9269765    60.476502   0.04064281  0.045353619            3 
  125000    1.2367488   -5.8627086    61.230605  0.040820403  0.045319209            4 
  126000    1.2276422   -5.8299926    61.760561  0.040846932  0.045285696            2 
  127000    1.2668836   -5.9040447    61.842102  0.040578807  0.045249073            4 
  128000     1.233358   -5.8355151    62.671744  0.040801917  0.045214324            3 
  129000    1.2229622   -5.9065595    63.154498  0.040797479  0.045185105            1 
  130000    1.2115685    -5.888642    63.854553  0.040932406  0.045155891            4 
  131000    1.2112984   -5.8630757    64.248549  0.040870578    0.0451344            6 
  132000    1.2308066   -5.8397188    65.019135  0.041047433  0.045106109            2 
  133000    1.2218603   -5.9324478    65.046132  0.040755722  0.045075199            5 
  134000    1.2333167   -5.8599963    65.559976  0.040771129  0.045037397            5 
  135000    1.2321039    -5.894479    66.072055  0.040785219  0.045005648            3 
  136000    1.2516734   -5.8751545    66.686042  0.040861545  0.044971515            2 
  137000    1.2298029   -5.8565376     67.30017  0.040936843  0.044940798            1 
  138000    1.2380246   -5.8899204    67.622748  0.040834993   0.04491397            3 
  139000    1.2131665   -5.8534264    67.964778  0.040746269  0.044876887            8 
  140000     1.241606   -5.9139661    68.540068   0.04079766  0.044841045            4 
  141000    1.2367244   -5.8472143     68.98046  0.040768593    0.0448083            3 
  142000    1.2162756   -5.8495816    69.631327  0.040863454  0.044770802            3 
  143000    1.2220905   -5.8489013    69.800732  0.040676417  0.044732102            3 
  144000    1.2035711   -5.8688634     70.29726  0.040681285   0.04469427            2 
  145000    1.2354339   -5.8890561    70.758467  0.040665786  0.044656392            4 
  146000    1.2282638   -5.8923832    70.991112  0.040520041  0.044612789            4 
  147000    1.2441565   -5.8880601    71.730887  0.040663768  0.044569249            3 
  148000    1.2129942   -5.9320405    72.050362  0.040568898  0.044528626            5 
  149000    1.2233064   -5.8826806    72.355157   0.04046709  0.044483384            2 
  150000    1.2142582   -5.8841527    73.052786  0.040584881  0.044438324            3 
  151000    1.2490712    -5.876214    73.161298  0.040375992  0.044390977            2 
  152000     1.231833   -5.8539267    73.963082  0.040549935    0.0443476            6 
  153000    1.2331161   -5.8430441    74.406438  0.040526382  0.044307976            9 
  154000    1.2408692   -5.8557758    75.110203  0.040644049  0.044269959            4 
  155000    1.2261358   -5.8520012    75.566494  0.040627147  0.044232577            2 
  156000    1.2415755   -5.9159881    76.113752  0.040659056  0.044203726            2 
  157000    1.2265953    -5.836305     76.64859  0.040683965  0.044172738            3 
  158000    1.2179457    -5.930041    77.137886  0.040684539  0.044143509            3 
  159000    1.2064041   -5.8724019    77.621995  0.040682387  0.044112471            2 
  160000    1.2224069   -5.8682981    78.298963   0.04078071  0.044082116            3 
  161000    1.2122761    -5.875787    79.015871  0.040898484  0.044056673            2 
  162000    1.2266196   -5.9019913    79.504563  0.040897409  0.044033428            3 
  163000    1.2471356   -5.8555161     79.91176  0.040854683  0.044009312            4 
  164000     1.241298    -5.878669    80.683431  0.040997678  0.043990478            3 
  165000    1.2238408   -5.8720188    81.265582  0.041043223  0.043972579            4 
  166000    1.2333126   -5.8637078    81.748216  0.041038261  0.043952501            2 
  167000    1.2093997   -5.8955705    82.032493  0.040934378  0.043934427            3 
  168000    1.2329198   -5.8385058    82.553677  0.040949244  0.043915707            4 
  169000    1.2403231   -5.8941417     83.03136  0.040942485   0.04389674            3 
  170000    1.2402259    -5.905113    83.378219  0.040871676  0.043875465            4 
  171000     1.264897   -5.8801655    83.969079  0.040920604  0.043854268            2 
  172000    1.2155964   -5.9008539    84.559609  0.040968803   0.04383332            2 
  173000    1.2283272   -5.8409777    85.468251  0.041169677  0.043818518            3 
  174000    1.2331288   -5.8601777    85.988619  0.041182289  0.043806687            3 
  175000    1.2285552   -5.9125298    86.346533  0.041117397  0.043793806            2 
  176000    1.2328044   -5.9023364    86.408983  0.040913344  0.043775596            3 
  177000    1.2138314   -5.8697189    86.877977  0.040903002  0.043758271            3 
  178000    1.2127037   -5.8863418    87.309136  0.040875064  0.043739448            2 
  179000    1.2528938   -5.8809424    87.651131  0.040805927   0.04371537            4 
  180000    1.1952694    -5.861873    88.446225  0.040947326  0.043694286            4 
  181000    1.2420829   -5.8987344    88.936114  0.040946645  0.043673908            5 
  182000    1.2115071    -5.820776    89.280287  0.040879252  0.043652437            5 
  183000    1.2011805   -5.8808941    90.142259  0.041048387  0.043635662            6 
  184000    1.2180008    -5.855149    90.627562  0.041045091  0.043619975            5 
  185000       1.2091   -5.8657843    90.819353  0.040909618  0.043600892            4 
  186000    1.2296632   -5.9246582    90.944084  0.040745557  0.043577668            3 
  187000    1.2071579   -5.8674381    91.814195  0.040915416  0.043555761            2 
  188000    1.2047288   -5.9311771    92.200289  0.040868922  0.043533604            2 
  189000    1.2223824    -5.893068    92.844504   0.04093673  0.043514567            3 
  190000    1.2251284   -5.9221169    93.739907  0.041113994  0.043497551            2 
  191000    1.2215819   -5.8789857    94.728314   0.04132998  0.043485864            2 
  192000    1.1996695    -5.863616    95.080944  0.041267771  0.043476635            3 
  193000    1.2330842   -5.8861753     95.61108   0.04128285  0.043469358            7 
  194000    1.2042961   -5.8456151    96.406722  0.041411822  0.043463463            2 
  195000    1.2238521   -5.8802827    96.978844   0.04144395  0.043459585            3 
  196000    1.2455013   -5.8898332    97.570059  0.041483868  0.043460083            1 
  197000    1.2220541   -5.8862672    97.888629  0.041408049  0.043461062            4 
  198000    1.2481673    -5.862002    98.730408  0.041553202  0.043462971            5 
  199000    1.2149357   -5.8696808    99.188208    0.0415361  0.043461782            3 
  200000    1.2207562   -5.9114482    99.255118  0.041356299  0.043459977            2 
  201000    1.2102782   -5.9189343    99.721467  0.041343892   0.04345772            5 
  202000    1.2421463    -5.901493    100.47635   0.04145064  0.043457633            4 
  203000    1.2180068   -5.9325127    100.86679  0.041406729  0.043459009            4 
  204000    1.2459731   -5.8654902    101.46124  0.041446587  0.043457546            6 
  205000    1.2257378   -5.8866745    101.97796  0.041454455  0.043454053            2 
  206000     1.207936   -5.9453759    102.53142  0.041477113  0.043450182            7 
  207000    1.2274392   -5.8981962    103.04588  0.041483847  0.043447438            3 
  208000    1.2162007   -5.9148576    103.57817  0.041497666  0.043444246            7 
  209000    1.2259589   -5.8917346    104.48665  0.041661342  0.043443992            4 
  210000    1.2422078   -5.8959488    105.01591  0.041672979  0.043445083            4 
  211000    1.2238317   -5.9160968    105.23362  0.041561462  0.043445047            6 
  212000    1.2447778   -5.8391679    105.68165   0.04154153  0.043446679            3 
  213000    1.2099616   -5.9227659    106.39195  0.041624393  0.043444823            2 
  214000    1.2187085   -5.9047874    106.97961  0.041658728  0.043443676            4 
  215000    1.2158119   -5.9000535    107.55915  0.041689593  0.043441989            3 
  216000    1.2290664   -5.8838761    108.24597  0.041761561  0.043443101            5 
  217000    1.2108852   -5.9254818    108.16378  0.041537549  0.043442435            3 
  218000    1.2248924   -5.8563504     109.2654  0.041768119  0.043442916            2 
  219000    1.2043071   -5.9060045    109.70945  0.041746366  0.043443859            2 
  220000    1.2341587   -5.9105261    110.12917  0.041715595   0.04344385            4 
  221000    1.2208897   -5.8977475    110.15978   0.04153838  0.043442663            8 
  222000    1.2110696   -5.8995358    111.52652  0.041864308  0.043441188            6 
  223000    1.2193898   -5.9328656    110.88831  0.041438084  0.043439221            3 
  224000    1.2051273   -5.8810136    111.88207  0.041622794  0.043436333            2 
  225000    1.2120535   -5.8890295    112.68996  0.041737023  0.043435669            2 
  226000    1.2326728   -5.8413874    113.61559  0.041893654  0.043436381            6 
  227000    1.2214008   -5.8757069    113.64937  0.041721502  0.043438172            4 
  228000    1.2368954   -5.8885583    114.02545  0.041675967  0.043438789            2 
  229000    1.1939717   -5.8941704    114.46487  0.041653882  0.043436829            2 
  230000    1.2009351   -5.9362272     115.3696   0.04180058  0.043434999            2 
  231000    1.2040567   -5.9122538    115.77864  0.041767187  0.043434761            3 
  232000    1.2312897   -5.8720465    116.49725  0.041845278  0.043435467            8 
  233000    1.2088023   -5.9138107      116.582  0.041695995  0.043436573            3 
  234000    1.2210358   -5.9449332       116.96   0.04165242  0.043435268            3 
  235000    1.1940573   -5.9331444    117.42267  0.041639243  0.043434113            4 
  236000     1.201056   -5.8837872    117.96548  0.041654477  0.043430404            5 
  237000     1.225109    -5.935884    118.41199  0.041635722  0.043427357           11 
  238000    1.2257268   -5.9382468    118.98495  0.041661398  0.043424822            2 
  239000    1.2094228   -5.9367418    119.27125  0.041586908  0.043421009            4 
  240000    1.2113322   -5.8722609    120.03965  0.041680435  0.043415754            4 
  241000    1.2248227   -5.9123093    120.37534  0.041623561  0.043410774            3 
  242000    1.2184024   -5.9247727    120.70869  0.041566354  0.043404542            2 
  243000    1.2262494   -5.9434016    120.95174  0.041478649  0.043395744            2 
  244000    1.2073967    -5.942379    121.16708  0.041382199  0.043386631            4 
  245000    1.2196399   -5.9174055    121.92403  0.041470758  0.043376918            3 
  246000    1.1995687   -5.9377004    122.14925  0.041378472  0.043368692            3 
  247000    1.2137345   -5.8980876    123.17756  0.041557882  0.043360632            2 
  248000    1.2040685    -5.915976    123.95336  0.041650996  0.043352947            2 
  249000     1.208904   -5.8878442     124.2535  0.041584169  0.043345942            3 
  250000    1.2458907   -5.8923756    124.54262  0.041514208  0.043338009            5 
  251000    1.2025867   -5.9352941     124.9565  0.041486222  0.043328299            2 
  252000     1.216295   -5.9062059    125.42365  0.041476075  0.043319704            3 
  253000     1.219846    -5.899237    125.95143  0.041485979  0.043310598            2 
  254000    1.2044128   -5.9062591    126.50268  0.041503504  0.043303784            4 
  255000    1.2103423   -5.9235483    127.23571  0.041580299   0.04329673            3 
  256000    1.2143443   -5.9364715    127.56745  0.041525863  0.043289898            4 
  257000    1.1827655   -5.9040305     127.9869  0.041500293  0.043282339            3 
  258000      1.22363   -5.9496392    127.92671  0.041319997  0.043274036            7 
  259000    1.1939366   -5.9299659    128.59255  0.041374694  0.043264086            3 
  260000    1.2423696   -5.9089179    129.07497  0.041370184  0.043253468            4 
  261000    1.2525771   -5.8728332    129.45116  0.041331787  0.043241607            2 
  262000    1.1706232   -5.9130028    129.28377  0.041120792  0.043227361            3 
  263000    1.2185099   -5.9179243    129.41858  0.041007156   0.04321059            3 
  264000    1.2168519   -5.9560755    130.12876  0.041075997  0.043192568            4 
  265000    1.2261301   -5.9321777    130.63061  0.041078807  0.043174787            3 
  266000    1.2112123   -5.8925858    131.13744  0.041083158  0.043156785            2 
  267000     1.230087   -5.8846347    131.21312  0.040952908  0.043138099            2 
  268000     1.229614   -5.9012041    132.10698  0.041078042  0.043118166            4 
  269000    1.2353029   -5.9011946    132.28803  0.040981421  0.043098828            4 
  270000    1.2172335   -5.8647277      132.678  0.040950001  0.043081219            4 
  271000    1.2137571   -5.9298266    133.56839   0.04107269  0.043064099            3 
  272000    1.2062572   -5.9361063    133.56847  0.040921713   0.04304547            2 
  273000    1.2373511   -5.8789123    134.90462  0.041179677  0.043029021            4 
  274000    1.1972316   -5.9126312    135.12165  0.041095393  0.043013409            4 
  275000    1.2026736    -5.937554    135.88499  0.041177269   0.04299811            2 
  276000    1.2031007   -5.9197916    135.99917  0.041062551  0.042982289            6 
  277000    1.2249911   -5.9187473    136.30352  0.041005873  0.042965325            2 
  278000    1.2069004   -5.9019596    137.30226  0.041157751  0.042948898            3 
  279000    1.2008919    -5.917522    137.27428  0.041001877  0.042932959            6 
  280000    1.2239167   -5.9079212    138.03154  0.041080816   0.04292006            3 
  281000    1.2345101   -5.9127467    138.97884   0.04121555  0.042907789            5 
  282000    1.2269731   -5.9395005    139.50509  0.041224909  0.042896212            5 
  283000    1.2084024   -5.9309577    139.93099   0.04120465  0.042884457            4 
  284000    1.2197985   -5.9271938    140.67094  0.041276683   0.04287274            2 
  285000    1.2192052   -5.8909216    140.98722  0.041224333  0.042861349            2 
  286000    1.1772162   -5.9307525    141.68184  0.041282586  0.042850316            7 
  287000    1.2107832   -5.9171057    141.66845  0.041134858  0.042838883            7 
  288000    1.2191384   -5.9529261    141.86816  0.041049814  0.042826849            1 
  289000    1.2148707   -5.8708385    143.27249  0.041312714  0.042816536            3 
  290000    1.2361598   -5.9208116    143.86572  0.041340723  0.042805937            5 
  291000    1.1798349   -5.9023045    143.91497  0.041212764  0.042795539            3 
  292000    1.1765128   -5.9632257    143.81525  0.041043166   0.04278367            4 
  293000    1.2147379    -5.948607    144.74745  0.041168218  0.042772635            4 
  294000    1.2284648    -5.907824    145.46579    0.0412318  0.042763612            3 
  295000    1.2029966   -5.9097636    145.37589  0.041066635  0.042753684            2 
  296000    1.1986077   -5.9337972    146.18885  0.041156769  0.042743135            6 
  297000    1.1974345   -5.8994291    146.90209   0.04121832  0.042731896            2 
  298000    1.1883523   -5.8864008     147.2253  0.041170385  0.042718939            3 
  299000    1.2050703   -5.9382327    147.11134   0.04100093  0.042706707            5 
  300000     1.188112   -5.9011767    148.64487  0.041290241  0.042696872            3 
  301000    1.2386692   -5.9254945    149.03528  0.041261151  0.042686806            4 
  302000    1.2003439   -5.9284504    149.07061  0.041134274  0.042675295            2 
  303000    1.1830222    -5.916222    149.18562  0.041030148  0.042662845            4 
  304000    1.2156231   -5.8942967    149.84691  0.041076456  0.042649241            5 
  305000    1.1985907   -5.9418553    149.87541  0.040949566  0.042635312            3 
  306000    1.2196292   -5.8820072     150.8518  0.041081645  0.042621026            2 
  307000    1.2051509   -5.9273882    151.44693  0.041109374  0.042608054            5 
  308000    1.1919438   -5.9506759    151.38105  0.040958075  0.042595608            3 
  309000    1.2126014   -5.9255306    151.89998  0.040965475  0.042585098            3 
  310000      1.20531    -5.894819    152.36586  0.040958563    0.0425732            4 
  311000    1.2088471   -5.9263614    152.97962  0.040991323  0.042563025            4 
  312000    1.1739898   -5.9261658    153.82173  0.041084863  0.042553039            5 
  313000     1.195983   -5.9172527    154.38992  0.041104879  0.042543806            2 
  314000    1.2134891   -5.9087768    154.68076  0.041051157  0.042534716            3 
  315000    1.2148463   -5.8929822    155.65281  0.041177992  0.042525561            2 
  316000     1.190886   -5.9137787    156.18669  0.041188472  0.042517285            3 
  317000    1.1985536   -5.9445931     156.5427   0.04115213  0.042510225            4 
  318000     1.192405   -5.9374401    157.98763   0.04140137  0.042504481            5 
  319000    1.1832571   -5.9337303    158.25145  0.041340504  0.042500047            5 
  320000    1.2008573   -5.9188455    159.34198  0.041495306  0.042496002            5 
  321000    1.2033951   -5.9420454    159.75572  0.041473448  0.042492852            2 
  322000    1.2130394   -5.9690484    159.57704  0.041298407  0.042488331            6 
  323000    1.2017003   -5.9074506    160.99664    0.0415368  0.042484051            6 
  324000    1.1867447   -5.8995163    161.24352  0.041472099  0.042481809            4 
  325000    1.2107347    -5.917244     160.9164  0.041260616  0.042477891            4 
  326000    1.2186011    -5.955057    160.95057  0.041142782  0.042472962            2 
  327000    1.2195176   -5.9316887     162.5385  0.041421637  0.042466452            4 
  328000    1.2132795   -5.9421006      162.648  0.041323171  0.042460715            2 
  329000    1.1872505   -5.9190083    162.59088  0.041183101  0.042452276            2 
  330000    1.1716884   -5.9034255    163.93727  0.041398301  0.042445537            4 
  331000    1.1824787   -5.9264178    164.39706  0.041388988  0.042439215            2 
  332000    1.2156999   -5.9191148    163.50891  0.041041393  0.042433134            4 
  333000    1.2038159   -5.9240368    164.94043  0.041276384   0.04242546            4 
  334000    1.2179363   -5.9415357    165.20883  0.041219769  0.042419097            5 
  335000    1.1889748   -5.9280422    165.83573  0.041252669  0.042413862            4 
  336000    1.2010185    -5.939155    166.38003  0.041264889  0.042408696            3 
  337000     1.186428   -5.9251347    166.53583  0.041180967  0.042403207            3 
  338000    1.2006037   -5.9324957    167.48923  0.041294189  0.042397177            2 
  339000    1.1968231   -5.8971315    167.61078  0.041202256  0.042390673            2 
  340000    1.2063478   -5.9027562    167.72516  0.041109109  0.042383699            6 
  341000    1.2139941   -5.9651142    167.94469  0.041042203   0.04237683            3 
  342000    1.1958828   -5.9195308    169.50582  0.041302588  0.042370683            4 
  343000     1.200463   -5.9370087     169.5962   0.04120413  0.042363617            5 
  344000    1.2211282   -5.9438408    170.38356  0.041275087   0.04235733            3 
  345000    1.2072935    -5.957998    170.74734   0.04124332  0.042350119            5 
  346000    1.1951268   -5.9470316    171.36599  0.041273119   0.04234429            6 
  347000    1.2012407   -5.9284837    171.71644  0.041238339  0.042339173            1 
  348000    1.1487368   -5.9217552    171.63277  0.041099802  0.042333026            2 
  349000    1.1888721   -5.9155882    172.33101   0.04114876  0.042325759            5 
  350000    1.2242001   -5.9162286    173.53225  0.041317203  0.042319624            3 
  351000    1.1936366   -5.9154787    173.49675   0.04119106  0.042313698            4 
  352000    1.2147625   -5.9226466    174.02127  0.041198218  0.042306835            9 
  353000    1.1916833   -5.9731462    173.62678   0.04098838  0.042299679            6 
  354000    1.1881871   -5.9277809    174.22069  0.041012404  0.042291739            3 
  355000    1.2190294   -5.8869353    176.15829  0.041351711  0.042283802            4 
  356000    1.2084978   -5.8944875     175.4111   0.04106065  0.042276437            6 
  357000     1.210958   -5.9659057    176.19031  0.041127522  0.042268869            4 
  358000    1.1935152   -5.8675247    176.73314  0.041138999  0.042261906            1 
  359000    1.1964901   -5.9667856    177.05945  0.041100152  0.042254973            2 
  360000    1.1968076   -5.9363666    177.92142  0.041185514  0.042247487           11 
  361000    1.2128007   -5.9034391    178.18156  0.041131476  0.042239367            4 
  362000    1.1771101   -5.9168952    178.78075  0.041155789  0.042232275            7 
  363000    1.1950638    -5.910008    179.29852  0.041161275  0.042226903            3 
  364000     1.203585   -5.9159261    180.05848  0.041222179  0.042221222            4 
  365000    1.2036691   -5.9373502    179.64929   0.04101582  0.042214138            5 
  366000    1.2046273   -5.9373511    179.68928  0.040912859  0.042207468            2 
  367000    1.1961157   -5.9428164    181.29211  0.041165329  0.042200092            4 
  368000    1.1954882   -5.9113031    181.14933  0.041021134  0.042192235            1 
  369000    1.1914334   -5.9267727    182.50978  0.041217204  0.042184313            5 
  370000    1.1819729   -5.9029292    182.18121  0.041031804  0.042176591            5 
  371000    1.1876748   -5.8977828    182.61105  0.041017755   0.04216899            7 
  372000    1.1960472   -5.9247319    182.84342  0.040959547  0.042160747            4 
  373000       1.2006   -5.9634723    183.40953  0.040976213  0.042151932            4 
  374000    1.1792866   -5.9250184    184.34033  0.041074049  0.042143209            4 
  375000    1.2193771   -5.9084628    184.72048  0.041048996  0.042134134            7 
  376000    1.2184583   -5.9059746    184.62047  0.040917658  0.042125377            3 
  377000    1.1861419    -5.957557    185.00541  0.040894212  0.042115963            8 
  378000    1.1893322   -5.9466466    186.20851   0.04105126  0.042107303            4 
  379000    1.1951368   -5.9164482     186.3284  0.040969305  0.042099115            3 
  380000    1.1886818   -5.9104592    186.60116  0.040921307  0.042090128            3 
  381000     1.202586   -5.9304643    187.44687  0.040998878  0.042081032            4 
  382000    1.1710963   -5.9388516    188.05003   0.04102313  0.042072997            3 
  383000    1.1890444   -5.9212273    188.70154  0.041057775  0.042065576            2 
  384000    1.1879035     -5.95736     189.9507  0.041221941  0.042059191            3 
  385000    1.1894647   -5.9230871    189.67017   0.04105415  0.042051457            3 
  386000    1.2265653   -5.9432854    190.16257  0.041054095  0.042044323            3 
  387000     1.166876   -5.9186451    190.95175  0.041117948  0.042037083            5 
  388000    1.2127018    -5.971497    190.40244  0.040893995  0.042030193            3 
  389000    1.2000461   -5.9687607    191.64834  0.041055771  0.042022574            5 
  390000    1.1996703   -5.9213753    192.26755   0.04108281  0.042016722            6 
  391000    1.2067384   -5.9549239    191.76967  0.040871627  0.042010473            4 
  392000    1.2276765   -5.9215969    192.90895  0.041009557  0.042003725            6 
  393000    1.1933688   -5.9314928    193.82004  0.041098397  0.041997034            4 
  394000    1.1833553   -5.9182357     194.2998  0.041095558  0.041990982            6 
  395000    1.1861751   -5.9499241    194.77722  0.041092241  0.041985408            4 
  396000    1.1849046   -5.9340867    194.74933  0.040982603  0.041979114            2 
  397000    1.2035401   -5.9551514    195.48165  0.041033093  0.041973067            6 
  398000    1.2181796    -5.965481     195.9836  0.041035093  0.041967345            3 
  399000    1.1912766   -5.9044585    196.97069  0.041138407  0.041961589            4 
  400000    1.1987267    -5.923419    197.06578   0.04105537  0.041956652            3 
  401000    1.1942222   -5.9172566    197.70088  0.041084971  0.041952554            7 
  402000    1.1670454   -5.9324291     198.3096  0.041108955  0.041948191            4 
  403000     1.188183   -5.9175022    199.04325  0.041158653  0.041943818            8 
  404000    1.1662253    -5.933801    199.07873  0.041064094  0.041939557            3 
  405000    1.1943856   -5.9003883    199.18448  0.040984462  0.041934906            2 
  406000    1.1779324    -5.930269    200.26191  0.041104661  0.041929987            4 
  407000    1.1919387   -5.9130749    201.17096  0.041189795  0.041925314            3 
  408000    1.1834438   -5.9226004    201.54241  0.041164709  0.041920774            3 
  409000     1.197332   -5.9652196    201.15982  0.040986109   0.04191568            3 
  410000    1.1962614   -5.9384139     201.8998  0.041036544  0.041910093            4 
  411000    1.1947697   -5.9400905    202.36407  0.041030832  0.041903793            3 
  412000    1.1845899   -5.9648565    203.12043   0.04108423  0.041898097            4 
  413000    1.2077544   -5.9541137    203.50816  0.041062987  0.041892485            5 
  414000    1.1892805   -5.9302363    204.26903  0.041116955  0.041888102            5 
  415000     1.165051   -5.9796276    203.85394  0.040934526  0.041883162            3 
  416000    1.1897256   -5.9075367    204.94443  0.041054574  0.041878352            4 
  417000    1.1883093    -5.901234    205.34568  0.041036307   0.04187413            3 
  418000    1.1774089   -5.9348306    206.75625  0.041219347  0.041869758            3 
  419000    1.1724866   -5.9623268    206.36289  0.041042739  0.041865893            3 
  420000    1.1601444   -5.9639088    206.49286  0.040970805  0.041861565            4 
  421000    1.1771278   -5.9869906    207.15534   0.04100462  0.041856692            5 
  422000    1.1915745   -5.9777184    207.78997  0.041032775  0.041852028            3 
  423000    1.1648225   -5.9662569    208.21685  0.041019867  0.041846721            4 
  424000    1.1908707   -5.9299726    208.79349  0.041036456  0.041842223            3 
  425000    1.1871912    -5.955031    208.36155  0.040855205  0.041836659           12 
  426000    1.2041901   -5.9588094    208.86629  0.040858037    0.0418317            3 
  427000     1.167507   -5.9376105    209.66898  0.040919005   0.04182638            2 
  428000    1.1488954   -5.9307758    210.39401  0.040964565  0.041820672            6 
  429000    1.1847746   -5.9707559    211.22617  0.041030725  0.041814924            4 
  430000    1.1928814   -5.9545252    212.07528  0.041099861  0.041810204            4 
  431000    1.1521668   -5.9581021     212.5013  0.041086871  0.041805879            3 
  432000    1.1964162   -5.9373921    213.12123  0.041111348  0.041801444            6 
  433000    1.1591137   -5.9536176    213.45358  0.041080366  0.041797006            4 
  434000    1.1854038   -5.9922007     213.1388  0.040925268  0.041791804            7 
  435000    1.1896252   -5.9498581    213.99063  0.040994374  0.041786546            5 
  436000    1.1930158   -5.9435222     215.3971   0.04116917  0.041781743            7 
  437000    1.1913156    -5.961302    215.17809  0.041033198  0.041778899            5 
  438000    1.1751736   -5.9427063    216.41174  0.041174227  0.041775891            2 
  439000    1.2064639   -5.9571245    216.42292  0.041082558  0.041772257            6 
  440000    1.1685638   -5.9287128    216.89694  0.041078966  0.041767874            4 
  441000    1.1702716   -5.9492252    216.31515  0.040875879  0.041762344            3 
  442000    1.1952724   -5.9424215    217.66427  0.041037759  0.041758031            2 
  443000    1.1843089   -5.9435618    217.84152  0.040978466  0.041753185            4 
  444000    1.1878303   -5.9530347    217.80473  0.040879267  0.041747587            2 
  445000     1.193084   -5.9596686    218.37134  0.040893509   0.04174237            4 
  446000    1.1741377   -5.9532769    218.85116  0.040891472  0.041736526            3 
  447000    1.1608664   -5.9348873    219.97192  0.041008933  0.041731542            4 
  448000    1.1660575   -5.9652521    219.51998  0.040833329  0.041726242            3 
  449000      1.18205   -5.9320777    220.87333  0.040993566  0.041721205            3 
  450000    1.1920113   -5.9508393    221.78043   0.04107045  0.041717176            7 
  451000    1.1772836   -5.9308792    222.14336  0.041046444  0.041713131            5 
  452000    1.2091896   -5.9452845    222.22262  0.040970247  0.041707783            2 
  453000    1.1871492   -5.9530845    222.19307   0.04087437  0.041702279            5 
  454000    1.1893138   -5.9507499    222.55273  0.040850354  0.041696584            2 
  455000    1.1807232   -5.9276198    223.09219  0.040859375  0.041690396            4 
  456000    1.1749108   -5.9754555    223.32253  0.040811866  0.041684486            7 
  457000    1.1814106   -5.9731057    223.43073  0.040742292  0.041678548           11 
  458000    1.1877433   -5.9410351    224.55922  0.040858664  0.041672767            3 
  459000     1.197033   -5.9768458    225.56644  0.040952513  0.041666076            3 
  460000    1.1651122   -5.9444469    225.36624  0.040827217  0.041660258            4 
  461000    1.1778851   -5.9317103      225.769  0.040811461  0.041654348            3 
  462000    1.1674753   -5.9624875    226.76642  0.040903034  0.041648525            2 
  463000    1.1567968   -5.9464517    226.77757  0.040816697  0.041642619            2 
  464000    1.1758301   -5.9505123    227.75379  0.040904056  0.041637427            7 
  465000    1.1790858   -5.9439657     228.2886  0.040911935  0.041631877            2 
  466000    1.1808252   -5.9344067    228.45063  0.040853117  0.041626915            4 
  467000    1.1731532     -5.93372    229.49991  0.040952875  0.041622171            5 
  468000     1.172577   -5.9827725    229.55998  0.040876065  0.041617985            5 
  469000    1.1768489   -5.9601798     230.7407  0.040998703  0.041614791            7 
  470000    1.1959768   -5.9686748    230.95422   0.04094933  0.041610832            6 
  471000    1.1739581    -5.930618    231.50575   0.04095997  0.041607209            4 
  472000    1.1831904    -5.984215    231.95169  0.040951923  0.041603951            3 
  473000    1.1735812   -5.9431154     232.9097  0.041034125  0.041601245            6 
  474000    1.1811529   -5.9262899     233.0947  0.040980081  0.041598815            4 
  475000    1.1598961   -5.9520611    233.56719  0.040976701  0.041596392            5 
  476000    1.1504514   -6.0038733    234.04081  0.040973532  0.041592871            5 
  477000    1.1959477   -5.9575279    234.53756  0.040974417  0.041589268            3 
  478000    1.1753829   -5.9995571    235.01624  0.040972148  0.041586138            3 
  479000    1.1729484   -5.9720425    235.86053  0.041033495  0.041582405            2 
  480000    1.1491819   -5.9518412    235.66912  0.040914777  0.041578641            5 
  481000    1.1699466   -5.9512174    236.28288  0.040936049  0.041574976            4 
  482000    1.1873554   -6.0130349    236.70703  0.040924452  0.041571286            5 
  483000    1.1766734   -5.9494941    237.89115  0.041044023  0.041568034            2 
  484000    1.1804778   -5.9705364    237.32271  0.040861348  0.041564699            3 
  485000    1.1990934   -5.9601918    238.64879  0.041004948  0.041561539            3 
  486000    1.1588956   -5.9912607     238.9434   0.04097109  0.041558088            3 
  487000    1.1480773   -5.9576785    239.18627   0.04092852  0.041554561            4 
  488000    1.1746149     -5.96724    239.95994  0.040976765  0.041551302            3 
  489000     1.171581   -5.9604993    239.65254  0.040840582  0.041548192            5 
  490000    1.1429861   -5.9600406    241.42659  0.041058944  0.041544394            5 
  491000    1.1757375   -5.9683012    241.10774  0.040921204  0.041541115            5 
  492000    1.1788813   -5.9210641    242.66208  0.041101301  0.041537897            4 
  493000    1.1931622   -5.9759391    242.48074  0.040987278  0.041534624            2 
  494000    1.1711476   -5.9817886    241.97232  0.040818542  0.041530664            4 
  495000    1.1587859   -5.9466073    243.59534  0.041009316  0.041526826            3 
  496000    1.1757524   -5.9694944    243.42126  0.040897389  0.041523026            2 
  497000    1.1670017   -5.9689736    244.22289  0.040949511  0.041519294            2 
  498000    1.1717857   -5.9598861    243.81033  0.040798247  0.041515241            4 
  499000    1.1797166   -5.9599786     245.0165  0.040917918  0.041511079            4 
  500000    1.1578423   -5.9560322    245.08247  0.040847078  0.041506372            7 
  501000    1.1840937   -5.9384969    245.58857  0.040849728  0.041501866            4 
  502000    1.1777281    -5.969029     245.8692  0.040814941  0.041497303            4 
  503000    1.1573935   -6.0021957    246.08256  0.040769145  0.041492195            7 
  504000    1.1763501   -5.9566028    246.03809    0.0406809  0.041486975            4 
  505000    1.1539779   -5.9649829    247.13967  0.040782124   0.04148198            4 
  506000    1.1903617   -5.9623888    247.77954  0.040806907  0.041477304            4 
  507000    1.1591845   -5.9631789    248.30989  0.040813591  0.041471685            4 
  508000    1.1864945   -5.9457453    248.70625  0.040798269  0.041466382            3 
  509000    1.1558889    -5.971792    248.91018  0.040751502   0.04146095            2 
  510000    1.1654973   -5.9556351    249.20518  0.040719801  0.041454968            3 
  511000    1.1957361   -5.9812959    249.10569   0.04062389  0.041448415           15 
  512000    1.1528597   -5.9937083    249.55947  0.040618404  0.041442096            4 
  513000    1.1710619   -5.9303708    250.13138  0.040632128  0.041435449            3 
  514000    1.1534793   -5.9995184    250.57853  0.040625572  0.041428726            2 
  515000    1.1693716   -5.9685591    251.43764  0.040685703  0.041423053            3 
  516000    1.1709565    -5.986554    251.76592  0.040659871  0.041417784            5 
  517000    1.1406043   -5.9451118    252.70869  0.040733186  0.041412273            4 
  518000    1.1753579   -5.9555552    253.74216   0.04082081  0.041407026            2 
  519000    1.1631165   -5.9787804     254.3078  0.040832981  0.041402426            5 
  520000    1.1679998   -5.9931185    254.32959  0.040757947  0.041397338            3 
  521000    1.1260634   -5.9506771    254.93482  0.040776522  0.041392317            5 
  522000    1.1682431   -5.9744259    254.87493  0.040688846  0.041386544            5 
  523000    1.1721733   -5.9577123    255.13039  0.040651751  0.041381299            4 
  524000    1.1761573   -5.9727642    255.64696  0.040656323  0.041374848            4 
  525000    1.1703974   -5.9953246    255.40599  0.040540633  0.041368776            7 
  526000     1.159061    -5.974099    256.85429  0.040693012  0.041362535            2 
  527000    1.1434068    -5.989074    257.79348  0.040764307  0.041356656            7 
  528000    1.1771309   -6.0074397    257.16385  0.040587729   0.04135069            5 
  529000    1.1539658   -5.9661356    258.98655  0.040798134  0.041345447            9 
  530000    1.1705571   -5.9944335    259.46242  0.040795978  0.041340759            3 
  531000    1.1707817   -6.0032169    259.45007  0.040717211  0.041336196            5 
  532000    1.1659527   -5.9653714    260.78794  0.040850241  0.041332153            3 
  533000    1.1862931    -5.986108    261.41925  0.040872304  0.041328012            3 
  534000    1.1610921   -5.9841046    262.15969  0.040911312  0.041323781            3 
  535000    1.1698205   -5.9660921    261.62675  0.040751829  0.041320399            4 
  536000     1.156411   -5.9821897    262.64771  0.040834532  0.041317179            5 
  537000    1.1601104   -5.9641229    263.65799  0.040915268  0.041314603            3 
  538000     1.148458   -5.9754519    264.25657  0.040931934  0.041312294            5 
  539000    1.1690466   -5.9734565    264.21731  0.040849924  0.041309713            1 
  540000    1.1753974   -5.9868573    264.36277  0.040796724  0.041307409            6 
  541000    1.1770439   -5.9779427    264.89124  0.040802717  0.041304482            6 
  542000    1.1581519   -5.9733538    265.47552   0.04081727   0.04130113            3 
  543000    1.1532931   -5.9874648    265.85814  0.040800819  0.041298223            3 
  544000    1.1381989   -6.0086403     265.3082  0.040641575   0.04129407            4 
  545000    1.1944652   -6.0185329    265.87056  0.040652991  0.041289497            2 
  546000    1.1639724   -5.9626273    266.98265  0.040748268   0.04128516            6 
  547000    1.1762488     -6.01529    267.01214  0.040678267  0.041281055            6 
  548000    1.1614962    -5.974522    267.49529  0.040677507   0.04127675            1 
  549000    1.1769291   -6.0072156    268.18916  0.040708738  0.041272926            3 
  550000     1.175131     -5.95944    269.93177  0.040898753  0.041269593            8 
  551000    1.1813031   -5.9675779    269.70208  0.040789788  0.041266408            5 
  552000    1.1713354   -5.9632814    270.35641  0.040814675  0.041263742            3 
  553000    1.1557516   -5.9803445    271.54479   0.04091995  0.041261072            4 
  554000    1.1748915   -5.9685113    272.06725  0.040924676  0.041258811            2 
  555000    1.1661321   -6.0294018    271.28384  0.040733309  0.041255995            8 
  556000    1.1535408   -5.9412784    272.76104   0.04088145   0.04125358            6 
  557000    1.1496411   -5.9926615     273.5298   0.04092307  0.041251272            6 
  558000    1.1573504   -5.9333987    273.46977  0.040840766   0.04124877            3 
  559000    1.1600118   -5.9398339    274.22996  0.040881032    0.0412461            8 
  560000    1.1648341   -5.9988149    274.30488  0.040819178  0.041243661            4 
  561000    1.1362226    -5.974211    276.08122  0.041010281  0.041241903            2 
  562000    1.1564992   -5.9748937    276.74026  0.041035032  0.041240373            5 
  563000    1.1390051   -5.9975439    275.68975  0.040806654  0.041238143            4 
  564000    1.1596326   -5.9860875    276.92082  0.040916197  0.041235746            3 
  565000    1.1508817   -5.9747376    277.16595  0.040879934  0.041233346            2 
  566000     1.178393    -6.010125    276.38668  0.040692973  0.041230615            2 
  567000    1.1540971   -6.0201814    277.52013  0.040787791  0.041227807            3 
  568000    1.1660429   -5.9743447     277.0163  0.040642063  0.041224697            7 
  569000    1.1397577   -6.0001811    278.90756  0.040847622  0.041221783            6 
  570000    1.1727546   -5.9599015    279.51086   0.04086416  0.041219041            5 
  571000    1.1863872   -5.9849613    278.77894  0.040685777  0.041216169            2 
  572000     1.124022   -5.9559543    279.22424  0.040679522   0.04121366            5 
  573000    1.1723377   -5.9773607    280.94836  0.040859272  0.041211155            3 
  574000    1.1508194    -6.002499    280.50625  0.040723904  0.041208576            4 
  575000    1.1873176   -5.9537478    281.04899  0.040731737  0.041206107            2 
  576000    1.1338357   -6.0030565    281.30794  0.040698486  0.041203079            4 
  577000    1.1666959   -5.9970274    282.79172  0.040842248  0.041200145            2 
  578000    1.1346099   -6.0028233    281.54251  0.040591481   0.04119715           10 
  579000    1.1378858   -5.9953887    282.74618  0.040694615  0.041193416            7 
  580000    1.1853427    -6.008018    283.67024  0.040757219   0.04118916            3 
  581000    1.1465734   -5.9768012    284.01749  0.040736875   0.04118553            3 
  582000    1.1845731    -5.983281    283.78379  0.040633417  0.041182181            1 
  583000    1.1288934   -6.0101797    283.73893  0.040557309  0.041178121            4 
  584000    1.1511361   -5.9916657    284.49022  0.040595065  0.041173819            3 
  585000    1.1660696   -5.9813688    285.58576  0.040681733  0.041170032            5 
  586000    1.1318505   -5.9760714    284.63349   0.04047689   0.04116521            5 
  587000    1.1676957   -6.0074199    285.31214  0.040504279  0.041160798            5 
  588000    1.1398862   -5.9799764     285.6817  0.040487769  0.041156053            4 
  589000     1.149603   -5.9898921    286.45249  0.040528083  0.041150793            4 
  590000    1.1406661   -5.9991479    286.60007  0.040480236  0.041144872            5 
  591000     1.150598   -5.9712081    286.71057  0.040427322  0.041139119            5 
  592000    1.1880204   -5.9824469    287.16696  0.040423277  0.041133579            8 
  593000    1.1484401   -6.0269838    287.38711  0.040386047  0.041127607            3 
  594000    1.1424695   -5.9935441    288.15308  0.040425517  0.041120748            4 
  595000    1.1625723   -5.9756995     287.9026  0.040322494  0.041113586            4 
  596000    1.1633646   -5.9971926    288.03049  0.040272719  0.041106111            2 
  597000    1.1738299   -6.0029528      287.852  0.040180346  0.041099072            3 
  598000    1.1749589   -6.0039076    289.15883  0.040295266  0.041092183            8 
  599000    1.1479679   -5.9868655    290.22559  0.040376404  0.041085382            2 
  600000    1.1459936   -5.9804496    289.78341  0.040247696  0.041077857            8 
  601000    1.1618267   -5.9507719    290.66697  0.040303241  0.041070591            2 
  602000     1.129257      -6.0041    290.62787  0.040230879  0.041063171            5 
  603000    1.1321377   -6.0265417    291.50541  0.040285435  0.041055942            3 
  604000    1.1483016   -6.0112037    291.16533  0.040171817  0.041048208            2 
  605000    1.1475224    -5.964122    292.16489  0.040243097  0.041040893            3 
  606000    1.1551667   -5.9963144    291.33455  0.040062507  0.041032811            4 
  607000     1.171917   -6.0110404    291.96996  0.040083739  0.041024508            3 
  608000    1.1586816   -5.9629704    293.71971  0.040257635  0.041017258            5 
  609000    1.1727186   -5.9667881     293.4462  0.040154105  0.041010069            4 
  610000    1.1531592    -6.036897    293.18967  0.040053234  0.041001925            7 
  611000    1.1552634   -6.0332882     293.8022  0.040071222  0.040993473            5 
  612000    1.1560398   -6.0277181    294.61707  0.040116704   0.04098515            3 
  613000    1.1545225   -5.9774181     295.3091  0.040145337  0.040976903            2 
  614000    1.1602927   -5.9955577    295.64867   0.04012604   0.04096906            2 
  615000    1.1519749   -6.0077594    295.93165   0.04009914  0.040961289            3 
  616000    1.1658397   -6.0113099    295.97561   0.04003999  0.040953302            3 
  617000    1.1436344   -5.9787078    297.36602  0.040162887  0.040945286            4 
  618000    1.1276145   -5.9746333    296.60181   0.03999485  0.040936719            7 
  619000    1.1539308   -6.0353852    297.20376  0.040011276   0.04092804            7 
  620000    1.1401334   -5.9965283    297.52048  0.039989312  0.040918801            3 
  621000     1.139657   -5.9626663    298.55392  0.040063596  0.040910301            4 
  622000    1.1551857   -5.9865902    299.22282  0.040088803  0.040902118            3 
  623000    1.1421245   -6.0106851    299.41294  0.040049885  0.040894421            3 
  624000    1.1735173   -5.9821242    301.55913   0.04027232  0.040886996            6 
  625000    1.1607038   -5.9837858    301.52965  0.040203954  0.040880189            5 
  626000    1.1650714   -5.9818593    301.58024  0.040146464  0.040873202            5 
  627000    1.1170442   -6.0280417    300.58822  0.039950587  0.040865643            4 
  628000    1.1586984   -6.0257625    301.53824  0.040013036  0.040858584            3 
  629000    1.1338806   -5.9674895    303.21236  0.040171219   0.04085182            4 
  630000    1.1374421   -6.0293051    302.64819  0.040032829  0.040845173            8 
  631000    1.1960797   -6.0111376    303.46321  0.040077022  0.040838279            3 
  632000    1.1655571   -5.9923681     304.7816  0.040187447  0.040831497            4 
  633000    1.1492683     -5.97549    304.85766  0.040133973  0.040824802            3 
  634000    1.1414709   -5.9742697    304.80108  0.040063233   0.04081816            2 
  635000    1.1418945   -6.0272719    305.78574  0.040129362  0.040810866            3 
  636000    1.1472266   -6.0021346    306.41078  0.040148163  0.040804053            1 
  637000    1.1579304   -6.0257581    306.40093  0.040083848  0.040796815            6 
  638000    1.1427703   -5.9922143    306.95609  0.040093533  0.040790222            3 
  639000    1.1179946   -5.9757038    308.28797  0.040204482  0.040783487            4 
  640000    1.1694332   -5.9518825    308.63142  0.040186382  0.040777213            2 
  641000    1.1271663    -5.988186    308.96009  0.040166418   0.04077129            3 
  642000     1.158943   -6.0086336    307.76201   0.03994834  0.040765019            3 
  643000    1.1240615   -6.0242356     309.1257  0.040062946  0.040758113            6 
  644000    1.1556319   -6.0296511    309.09913  0.039997299  0.040750952            5 
  645000    1.1544257   -6.0165133      309.147  0.039941473  0.040744069            4 
  646000    1.1503974   -6.0259312    310.05804  0.039997167  0.040736955            2 
  647000    1.1494408   -6.0203807    310.49487  0.039991612  0.040729845            3 
  648000     1.146857   -6.0351902    312.04285  0.040128967  0.040723416            6 
  649000    1.1254796    -6.015341    310.86127  0.039915417  0.040717105            4 
  650000    1.1621383   -5.9971141    313.33379  0.040170999  0.040710434            3 
  651000    1.1474675   -6.0175353    312.32029  0.039979555  0.040703731            4 
  652000    1.1213647   -6.0347081    313.13603  0.040022499  0.040696821            3 
  653000    1.1603803   -6.0247487    314.72894  0.040164489  0.040690522            4 
  654000     1.162138   -5.9943955    314.46057   0.04006888  0.040684312            4 
  655000    1.1707441   -6.0260179    314.83944  0.040055908  0.040677833            2 
  656000    1.1589948   -6.0066732    316.16131  0.040162768  0.040671738            4 
  657000    1.1418933   -6.0013023    316.06174  0.040089008  0.040666567            3 
  658000      1.14483   -5.9810427    317.32483  0.040188048  0.040661464            5 
  659000    1.1456538   -6.0439704    315.96279   0.03995483  0.040656227            2 
  660000    1.1393765   -5.9784697    318.36967   0.04019819  0.040651014            2 
  661000    1.1539035   -5.9761064    319.22809  0.040245599  0.040646382            3 
  662000    1.1459599   -6.0281803    318.21227  0.040056933  0.040641491            7 
  663000    1.1692614   -6.0088806    319.10523  0.040108751  0.040636188            5 
  664000    1.1541803   -6.0158614    318.81194  0.040011539  0.040630788            2 
  665000    1.1634148   -6.0037155    319.45863   0.04003241  0.040624671            7 
  666000    1.1739392   -5.9869036     320.7426  0.040132958  0.040618819            8 
  667000    1.1318767   -6.0150624    321.15698   0.04012456   0.04061311            4 
  668000    1.1374821    -6.042287    321.74792  0.040138213  0.040607353            9 
  669000    1.1148449   -6.0332199    322.02965   0.04011331   0.04060223            4 
  670000     1.137246   -6.0101399    321.90054  0.040037381  0.040597497            5 
  671000     1.176158   -6.0011658    324.14157  0.040256032  0.040593339            3 
  672000    1.1269905   -5.9941492    324.27258  0.040212373  0.040589366            3 
  673000    1.1567372   -6.0008962    325.12003  0.040257557  0.040584843            6 
  674000    1.1507443   -6.0211697    323.74721  0.040028092  0.040580532            2 
  675000    1.1539868   -6.0134358    324.52357  0.040064638  0.040575995            8 
  676000    1.1430423   -5.9975669    326.24371   0.04021742  0.040571664            4 
  677000    1.1361819   -6.0347258    326.69434  0.040213484  0.040567487            2 
  678000    1.1237897   -6.0055542    327.90439  0.040302899  0.040563998            4 
  679000    1.1357408   -6.0483066    327.07285  0.040141488  0.040560592            7 
  680000    1.1463826   -6.0110768    327.97999  0.040193626  0.040556431            5 
  681000    1.1639956   -6.0147166    328.50393  0.040198719   0.04055306            6 
  682000    1.1592436   -6.0024818    329.71331   0.04028755  0.040549211            5 
  683000    1.1561537   -5.9947054    329.09406  0.040153009  0.040545374            5 
  684000    1.1425509   -6.0150877    331.24595  0.040356476  0.040541735            6 
  685000    1.1266461    -6.037421     328.4573  0.039958309   0.04053838            5 
  686000    1.1643043   -6.0368027    331.73399  0.040298104  0.040534718            7 
  687000    1.1123966   -5.9986818    331.88724  0.040258035  0.040531032           12 
  688000    1.1497825    -6.021008    331.96058  0.040208403  0.040527296            3 
  689000    1.1561147    -6.041054    331.93898  0.040147433  0.040523212            3 
  690000    1.1467435   -6.0488076     333.1247  0.040232451  0.040519615            2 
  691000     1.129632    -6.050299    332.13619  0.040055015  0.040515493            3 
  692000    1.1360418   -6.0299682     333.2725  0.040133972  0.040511168            2 
  693000    1.1275321    -6.032909    331.86515  0.039906824  0.040506248           10 
  694000    1.1300902   -6.0250511    333.22137  0.040012172  0.040500367            3 
  695000    1.1516038    -5.997141    334.11346  0.040061566  0.040495108            7 
  696000    1.1117235   -5.9994509    333.60787  0.039943471  0.040489887            6 
  697000    1.1113242   -6.0111053     334.0184  0.039935246  0.040484405            2 
  698000    1.1349297   -6.0319914    334.41521  0.039925407  0.040478832            4 
  699000    1.1378011   -6.0260679    334.59753  0.039890025  0.040473103           10 
  700000     1.109913    -6.028136    335.97419  0.039996927  0.040467193            5 
  701000    1.1446721   -6.0600847    335.77552  0.039916253  0.040461378            7 
  702000    1.1586991   -5.9864444    336.54372  0.039950584  0.040455455            4 
  703000    1.1644257   -6.0121307    335.86758  0.039813605  0.040449449            8 
  704000    1.1577498   -6.0342353    335.71826  0.039739378   0.04044348            8 
  705000    1.1273287   -6.0158026    337.06302  0.039841964  0.040436545            4 
  706000    1.1492107   -6.0017381    336.25072   0.03968965  0.040429866            4 
  707000    1.1576893   -6.0631881    337.96355  0.039835401   0.04042324            2 
  708000    1.1545742   -6.0223037    338.36369  0.039826234  0.040416469            5 
  709000    1.1312607   -6.0039943     338.7357  0.039813787  0.040409606            3 
  710000    1.1620141   -6.0624861    337.28118  0.039586992  0.040402927            2 
  711000    1.1158944   -6.0082142    339.76737  0.039822711  0.040396162            3 
  712000    1.1445724    -6.005498    339.22428  0.039703216   0.04038902            5 
  713000    1.1475611   -6.0138631    339.47032  0.039676288  0.040381935            4 
  714000    1.1427468   -6.0022256    339.51774  0.039626254   0.04037472            3 
  715000    1.1537108    -5.989013    340.09438  0.039638039  0.040367585            4 
  716000    1.1548299   -6.0124685    340.87722  0.039673792  0.040360437            6 
  717000     1.137318    -6.036882    340.72711  0.039601013  0.040353071            4 
  718000    1.1415037   -6.0433623    339.94381  0.039454946  0.040344981            3 
  719000    1.1265073   -5.9815189    342.00666  0.039639158  0.040337095            4 
  720000    1.1238913    -6.018963    342.53148  0.039644847  0.040329459            4 
  721000    1.1679944   -6.0544328    342.64162  0.039602592  0.040321833            5 
  722000    1.1558524   -6.0278017    342.07661  0.039482527    0.0403138            5 
  723000    1.1294323     -6.03848     341.5012  0.039361595  0.040305696            6 
  724000    1.1505538   -6.0302611    342.74251  0.039450105  0.040297398            3 
  725000    1.1342919   -6.0000039    343.79351  0.039516496  0.040289565            4 
  726000    1.1300963   -6.0263979    344.27471  0.039517299   0.04028148            4 
  727000    1.1601656   -6.0371094    343.71591  0.039398889  0.040272865            3 
  728000    1.1256102    -6.017007     344.4167  0.039424989  0.040264547            8 
  729000     1.153791   -6.0336048    345.87924  0.039538094  0.040256056            4 
  730000    1.1286043   -6.0228259     344.6839  0.039347477  0.040247444            3 
  731000    1.1308427   -6.0125073    345.28628  0.039362321  0.040238658            3 
  732000    1.1600651   -6.0076236    344.94667  0.039269885  0.040229398            6 
  733000    1.1524194   -6.0093217    346.06081  0.039342975  0.040220432            9 
  734000    1.1400634   -5.9934321    346.93982  0.039389171  0.040211642            3 
  735000     1.123109    -6.038562    346.70641  0.039309116  0.040202835            4 
  736000     1.135912   -6.0241741    346.97732  0.039286381  0.040193783            3 
  737000     1.147645   -5.9922876    348.04833  0.039354176  0.040184905            9 
  738000    1.1215076   -6.0495397    347.25721  0.039211519  0.040176185            3 
  739000    1.1083497   -6.0361468    348.48592  0.039297014    0.0401674            6 
  740000    1.1238685    -6.024802    349.09434  0.039312426  0.040158598            3 
  741000    1.1369851   -6.0506799    350.24522  0.039388801  0.040149999            5 
  742000    1.1254665   -6.0748185    350.33219  0.039345485  0.040141855            3 
  743000    1.1467086   -6.0512228    350.16813  0.039274129  0.040133696            4 
  744000    1.1569859   -6.0655104    351.43235  0.039362942  0.040125602            6 
  745000    1.1215306   -6.0415799    351.65976  0.039335543  0.040117446            4 
  746000    1.1302695   -5.9925783    351.57557  0.039273411  0.040109794            3 
  747000    1.1202344   -6.0764274    351.11593  0.039169559  0.040101649            7 
  748000    1.1380488   -6.0260454    353.60081   0.03939403  0.040093777            5 
  749000    1.1116414   -6.0372417     352.3952  0.039207298  0.040085825           11 
  750000    1.1339879   -6.0361077    352.76163  0.039195737  0.040077531            4 
  751000    1.1233972   -6.0475009     354.2409  0.039307689  0.040069311            7 
  752000    1.1358466   -6.0355835     353.5923  0.039183544  0.040060884            5 
  753000     1.128974   -6.0485037    354.40217  0.039221134  0.040051988            2 
  754000    1.1653615   -6.0000763    356.72875  0.039426255  0.040043749            3 
  755000    1.1335172   -6.0497755      356.797  0.039381568  0.040036308            2 
  756000    1.1212466   -6.0420871    356.60432  0.039308236  0.040028367            4 
  757000    1.1244068   -6.0340659    355.77432   0.03916494  0.040019876            3 
  758000     1.123145   -6.0309978    356.35589  0.039177208   0.04001141            4 
  759000    1.1312688   -6.0631538    356.35033  0.039124981  0.040002681            5 
  760000    1.1144823   -6.0171205    357.99516  0.039253856  0.039993908            4 
  761000    1.1212507    -6.025961    358.55461  0.039263536   0.03998515            2 
  762000    1.1507549   -6.0477317    357.79944  0.039129422  0.039976123            2 
  763000    1.1494224   -6.0435605    356.92553  0.038982692  0.039966815            5 
  764000    1.0980108   -6.0421114    359.10766  0.039169684  0.039958008            3 
  765000    1.1531693   -6.0248887     360.3934  0.039258541   0.03994976            2 
  766000    1.1164766   -6.0616255    359.96412  0.039160587  0.039941627            5 
  767000    1.1001368   -6.0422771    360.84513  0.039205251  0.039933464            4 
  768000    1.1361314   -6.0471337     361.4911  0.039224294  0.039925201            4 
  769000     1.120097    -6.044421    362.60744   0.03929426  0.039917835            4 
  770000    1.1301431   -6.0860767    362.05658  0.039183613  0.039909883            4 
  771000    1.1159521   -6.0430445    362.48013   0.03917857  0.039901777            4 
  772000    1.1374874   -6.0654835    361.69586  0.039043162  0.039893744            4 
  773000    1.1309294   -6.0640406    363.17737  0.039152369  0.039885901            5 
  774000    1.1361096   -6.1027144    363.40249  0.039126021   0.03987811            8 
  775000    1.1096866   -6.0499728    364.05945  0.039146178  0.039869984            7 
  776000    1.1010302   -6.0298831    363.96558  0.039085651  0.039861745            6 
  777000    1.1380935   -6.0492005    364.09567    0.0390493   0.03985358            5 
  778000    1.1066889   -6.0335072    364.75103  0.039069304  0.039845587            3 
  779000    1.1100138   -6.0493078    365.70444  0.039121143  0.039837502            3 
  780000    1.0984639   -6.0364992    366.14899  0.039118482   0.03982951            5 
  781000    1.1075099   -6.0903235    366.24885  0.039079049  0.039821229           13 
  782000    1.1342758   -6.0738892    366.15115  0.039018665  0.039812899            4 
  783000    1.1299678   -6.0311836    366.21784   0.03897593  0.039804469            4 
  784000    1.1469791   -6.0587085     367.4574  0.039057972  0.039796106            6 
  785000    1.1427426   -6.0519593    367.32634  0.038994304  0.039787118            2 
  786000     1.116871   -6.0436122    367.22675  0.038934134  0.039778216            3 
  787000    1.1209449   -6.0573739    367.22411  0.038884382  0.039769392            2 
  788000    1.1244025   -6.0221173    369.20067  0.039044064  0.039760337            4 
  789000    1.1375019   -6.0721147    368.63741  0.038935087  0.039751569            4 
  790000    1.1547411   -6.0586704    368.96682  0.038920551  0.039742976            4 
  791000    1.1162765   -6.0913528    370.55917  0.039039104  0.039734469            4 
  792000    1.1317633   -6.0640421    370.97053  0.039033094  0.039726082            2 
  793000     1.134218   -6.0511721     371.8007  0.039071112  0.039718314            2 
  794000    1.1434658   -6.0815703    372.54284  0.039099794  0.039710543            5 
  795000    1.1180048   -6.0143287    373.08428  0.039107367  0.039702726            5 
  796000    1.1158981   -6.0575976    373.53388  0.039105306  0.039695347            3 
  797000    1.0910728   -6.0615689    373.35368  0.039037399  0.039687885            2 
  798000    1.1482812   -6.1069313     374.1977  0.039076619  0.039680289            4 
  799000    1.1220088   -6.0510709     373.1565  0.038919117  0.039672281            5 
  800000    1.1119753   -6.0310137    375.12984  0.039076025  0.039664468            4 
  801000    1.1198685   -6.0875904      375.021  0.039015917   0.03965681            3 
  802000    1.1253887   -6.0391726    375.76506  0.039044582  0.039648861            7 
  803000    1.1124645   -6.0800648    375.34613  0.038952484  0.039641218            3 
  804000    1.1156504   -6.0252872    376.43057  0.039016436  0.039633497            5 
  805000    1.1203886   -6.0525089    374.91082  0.038810644  0.039625744            4 
  806000    1.0991971   -6.0699538    375.94333  0.038869244  0.039617209            6 
  807000    1.1215127   -6.0478556     375.3436  0.038759149  0.039608529            4 
  808000    1.1150798   -6.0513971    376.59066  0.038839795  0.039600266            3 
  809000     1.142591   -6.0770865    376.46366  0.038778705   0.03959159            6 
  810000    1.1190843   -6.0457103     376.7539  0.038760689  0.039582908            3 
  811000    1.1224404   -6.0198671    378.87426   0.03893077  0.039574207            6 
  812000    1.1288911   -6.0270149     379.5586  0.038953058  0.039565537            7 
  813000    1.1099455   -6.0810761    378.81302  0.038828723  0.039557535            3 
  814000    1.1341474   -6.0258171    378.83064  0.038782826  0.039548897            7 
  815000    1.1189238   -6.0318152     380.1784  0.038873047  0.039540284            7 
  816000    1.1168765   -6.0411055    381.72441  0.038983294  0.039532108            7 
  817000    1.1325203   -6.0533047     380.3878  0.038799245   0.03952411            4 
  818000    1.1247702   -6.0752668    381.61682  0.038877019  0.039515671            4 
  819000    1.1350183   -6.0917964    381.08703  0.038775644  0.039507215            3 
  820000    1.1356985   -6.0405865    381.09244  0.038728906  0.039498876            4 
  821000    1.1063505   -6.0793781    381.63075  0.038736373   0.03949027            2 
  822000    1.1274078   -6.0509077    382.39727  0.038766957  0.039481739            5 
  823000    1.1244724   -6.0124562    382.90385  0.038771148  0.039473424            4 
  824000    1.1397431   -6.0603297    383.22778  0.038756855  0.039465477            8 
  825000    1.1175216   -6.0505484    384.41222  0.038829517  0.039457606            6 
  826000    1.1387585   -6.0654972    385.37797   0.03887994  0.039449666            8 
  827000    1.1174751   -6.0632494     384.7606  0.038770718  0.039441944            4 
  828000    1.1362933   -6.0646204    383.72117   0.03861928   0.03943383            3 
  829000    1.0917305   -6.0738444     384.3666  0.038637575  0.039425087            3 
  830000    1.1354184   -6.0887333    386.02603  0.038757633  0.039416906            8 
  831000    1.1194345   -6.0499226    386.28338  0.038736801  0.039408466            6 
  832000    1.1158575   -6.0598148    386.11097  0.038672974  0.039400352            6 
  833000    1.1009009   -6.0992641    387.50345  0.038765851  0.039392253            2 
  834000    1.1271216   -6.0544216    386.62765   0.03863186   0.03938395            3 
  835000    1.0884624   -6.0598872    387.31429   0.03865412  0.039375634            2 
  836000    1.1004881   -6.0814213    387.36654  0.038613092   0.03936739            4 
  837000     1.109429   -6.0892101    389.26969  0.038756441  0.039359654           12 
  838000    1.1309834    -6.047997    389.48595  0.038731698  0.039351738            3 
  839000    1.1057796   -6.0487411    390.43492  0.038779789  0.039343815            5 
  840000    1.1181224   -6.0811213    388.68909  0.038560426  0.039335767            3 
  841000    1.1189168   -6.0914333    391.10866  0.038754326  0.039327783            2 
  842000     1.131058    -6.044085    391.54809   0.03875179  0.039319807            4 
  843000    1.1249599   -6.0333658    392.98254  0.038847622   0.03931253            5 
  844000    1.1021391   -6.1055249    392.46136  0.038750135  0.039305074            4 
  845000    1.0987935   -6.0864715    393.03207  0.038760559  0.039297465            4 
  846000    1.1095218   -6.0802998    392.72251   0.03868425  0.039289966            8 
  847000    1.1241013   -6.0572428    392.99894  0.038665775  0.039282645            2 
  848000    1.1090035    -6.052085    394.41946  0.038759774  0.039274994            3 
  849000    1.1169789   -6.0448704     392.5938  0.038534923  0.039267117            9 
  850000     1.089377   -6.0672127    393.27425  0.038556299  0.039259066            7 
  851000    1.1125981   -6.0442626    394.01797   0.03858382  0.039250676            3 
  852000    1.1066072   -6.0728253    394.60487  0.038595937  0.039242425            6 
  853000    1.1367811   -6.0702755    393.36654  0.038429712  0.039234187            4 
  854000    1.1333927   -6.0565374    394.41924  0.038487436  0.039226029            5 
  855000    1.1147171   -6.0571148    394.45332  0.038445743  0.039217804            4 
  856000    1.1232238   -6.0370736     394.7864  0.038433255  0.039209153            5 
  857000     1.119987   -6.0839187    396.31009   0.03853657  0.039200717            8 
  858000    1.1009132   -6.0567042    395.97474  0.038459085  0.039192235            5 
  859000    1.1370905   -6.0914428    396.29904  0.038445774  0.039183693            3 
  860000    1.1275441   -6.0875383    395.90496  0.038362884  0.039175066            3 
  861000     1.115376    -6.075202    397.93536  0.038514843  0.039166563            9 
  862000    1.0952323   -6.0464482    397.41003  0.038419377  0.039157775            8 
  863000    1.1021146   -6.0230395    397.72592  0.038405361  0.039148937            3 
  864000    1.1101648   -6.0503248    398.03613   0.03839083  0.039140416            4 
  865000    1.1212712   -6.0575115    399.07422  0.038446456  0.039132161            8 
  866000     1.083631   -6.0230819    399.40833  0.038434212  0.039123843            5 
  867000    1.1384324   -6.0103793    399.70383  0.038418284  0.039115623            2 
  868000    1.0986598   -6.0649961    400.25257  0.038426706  0.039107137           10 
  869000    1.0989846   -6.0796079    401.29173  0.038482138  0.039098916            3 
  870000    1.1189487   -6.0720441    402.39077  0.038543177  0.039090918            5 
  871000    1.1137517   -6.0567717    401.02949  0.038368685    0.0390827            4 
  872000    1.1207842   -6.0707214    402.06086  0.038423248  0.039074905            7 
  873000    1.1274219    -6.080938     401.7518  0.038349733  0.039066762            4 
  874000    1.1131179   -6.0412962    403.21175  0.038445056  0.039058977            5 
  875000    1.1064701   -6.0825117    405.44279  0.038613599  0.039051316            4 
  876000    1.1046481   -6.0967956    404.44494  0.038474594  0.039043777            4 
  877000    1.1147752   -6.0530347    404.65429  0.038450617  0.039036147            3 
  878000    1.1299301    -6.102483    404.92056  0.038432095  0.039028698            2 
  879000    1.1218271   -6.1026161    404.56029  0.038354218  0.039020722            4 
  880000    1.0778583   -6.0874229    406.26764  0.038472315  0.039012674            5 
  881000    1.1018113   -6.0767312     405.4935   0.03835542  0.039004626            3 
  882000    1.1160252   -6.1061917    404.54227  0.038222058  0.038996535            9 
  883000    1.0994374   -6.0523366    406.47231   0.03836092  0.038988457            6 
  884000     1.076026   -6.1207979    407.02397  0.038369529  0.038980658            3 
  885000    1.1046017   -6.0905835    407.80762  0.038399964  0.038972586            4 
  886000    1.1290059   -6.0849049    407.89995  0.038365308  0.038964392            6 
  887000    1.1123089   -6.0759443     407.2125  0.038257469  0.038956438            7 
  888000    1.0988946   -6.0810975    407.96854  0.038285336  0.038948341            6 
  889000    1.1131134   -6.1247137    409.60467  0.038395638  0.038940378            7 
  890000    1.1065864   -6.0935449    409.82891  0.038373493  0.038932618            5 
  891000    1.1060231   -6.0966845    409.75365  0.038323387  0.038924421            3 
  892000    1.1368284   -6.0806041    408.37605  0.038151724  0.038916241            4 
  893000    1.1184625   -6.0730905    409.56178  0.038219651  0.038908124            6 
  894000     1.137882   -6.1350334    409.63677   0.03818389  0.038899963           16 
  895000    1.1166732   -6.0954372    411.70475  0.038333776  0.038892038            4 
  896000    1.1012255   -6.0679965    411.66219  0.038287034   0.03888457            5 
  897000    1.1177776   -6.0838199    412.12187  0.038287056  0.038876912            5 
  898000    1.1001226   -6.1414947    412.52192  0.038281544  0.038868923            8 
  899000    1.0909867   -6.1133552    414.24675  0.038398846   0.03886096            6 
  900000    1.0892642   -6.1009297    413.05473  0.038245808  0.038853111            8 
  901000    1.0992263   -6.0734219    413.14729  0.038211921  0.038845295            5 
  902000    1.1203544    -6.052474    414.51924  0.038296308   0.03883722           12 
  903000     1.121282   -6.1211842    413.19033   0.03813126  0.038829022            4 
  904000    1.1270108   -6.0860674    414.32437  0.038193618  0.038820964            3 
  905000    1.0971522   -6.0717683    415.30213  0.038241448   0.03881257            5 
  906000    1.0848123   -6.0931939    415.66249  0.038232385  0.038804487            5 
  907000    1.1233377   -6.0635483    414.90057  0.038120229  0.038796542            9 
  908000    1.0981575   -6.1052266     415.7496  0.038156168  0.038788471            2 
  909000    1.1085266   -6.0866176    415.61508  0.038101859  0.038780378            3 
  910000    1.1271428   -6.0847425    416.77693  0.038166385  0.038772059            3 
  911000    1.0899483   -6.0877938    417.60436  0.038200179  0.038763934            6 
  912000    1.0893113   -6.0808703      416.608  0.038067252  0.038755526            3 
  913000     1.095709   -6.0872759    418.42306  0.038191225  0.038747543            8 
  914000    1.1087971   -6.1251038     417.5643  0.038071143  0.038739386            4 
  915000    1.0804919   -6.0640731    419.34784  0.038191971  0.038731568            6 
  916000     1.093125   -6.0776182    419.11301  0.038128913  0.038723375            7 
  917000    1.1057313   -6.0508897    419.08778   0.03808504  0.038715248            8 
  918000    1.1233755   -6.1104487    419.32206   0.03806482   0.03870738            4 
  919000    1.0857154   -6.0919497    420.46179  0.038126749  0.038699121            3 
  920000     1.135176   -6.1019361    421.08868   0.03814209  0.038691338            5 
  921000    1.0989628   -6.0913202    421.73522  0.038159177  0.038683852            3 
  922000     1.140505   -6.0890693    423.23105  0.038252987  0.038676408            2 
  923000    1.0917009   -6.0556835    422.60698  0.038155199  0.038668963            4 
  924000    1.0814033   -6.0851611    422.41027  0.038096164  0.038661395            6 
  925000    1.0840347    -6.106147    423.73403  0.038174237  0.038653688            3 
  926000    1.0689777   -6.0911975    424.65085   0.03821552   0.03864593            5 
  927000    1.1286816   -6.1002766    423.69495  0.038088363  0.038638358            7 
  928000    1.1011417   -6.0766613    426.45945  0.038295569  0.038630875            4 
  929000    1.1047076   -6.0865332    425.04521  0.038127486  0.038623537            5 
  930000    1.0926207   -6.0703112    425.73849   0.03814861  0.038615882            7 
  931000     1.098829   -6.1138576    424.57055  0.038003093   0.03860843            4 
  932000    1.0809606   -6.0838009    424.54461  0.037959997  0.038600596            6 
  933000    1.1080407   -6.0486349    427.13826   0.03815097  0.038592831            5 
  934000    1.1161765   -6.0799668    426.28988  0.038034429  0.038585024            4 
  935000    1.0965009   -6.1017762     425.8232  0.037952157  0.038577071            4 
  936000    1.1106776   -6.1286589    426.66042  0.037986148  0.038568678            5 
  937000    1.1055713   -6.0777272    427.52186  0.038022222  0.038560695            4 
  938000    1.1081165   -6.0594532     426.9891  0.037934355  0.038552917            3 
  939000    1.0863797   -6.1037856    429.51988  0.038118555  0.038545478            3 
  940000    1.1080716   -6.1142633    427.60271  0.037908041  0.038537931            3 
  941000    1.1009451   -6.0963501    428.76288  0.037970499  0.038530266            7 
  942000    1.0884601   -6.0850135    429.89312  0.038030177  0.038522618            9 
  943000    1.0845901   -6.0812611    430.54965  0.038047866  0.038515052            8 
  944000    1.1297095   -6.0773682    430.62658  0.038014352  0.038507295            3 
  945000    1.1192229   -6.0532035    431.75439  0.038073579  0.038499792            2 
  946000    1.0791958   -6.1137262    431.82028  0.038039137   0.03849247            5 
  947000    1.0880872   -6.0622013    433.17088  0.038117818  0.038485261            6 
  948000    1.0910137   -6.1283547    430.94228  0.037881706  0.038478067            3 
  949000    1.1151721   -6.1214643    433.02002  0.038024238   0.03847031            8 
  950000    1.1065295   -6.0852193    431.93922  0.037889405  0.038462424            5 
  951000    1.0989441    -6.118333    432.36853  0.037887182  0.038454918            4 
  952000    1.1220859   -6.1045172    432.18474  0.037831298  0.038446993            7 
  953000    1.1137398   -6.1165878    432.66394  0.037833503  0.038439145            5 
  954000    1.0926243   -6.0692532    433.66001  0.037880854  0.038431382            6 
  955000    1.0979317   -6.0759006    434.17659  0.037886265   0.03842369           10 
  956000    1.0842635   -6.1088093    434.38102  0.037864455  0.038415737            3 
  957000    1.1153317     -6.05382    434.16595  0.037806161  0.038407761            4 
  958000    1.0909573   -6.1172223    433.79468  0.037734401   0.03839935            4 
  959000     1.102839   -6.0928505    435.87292  0.037875645  0.038391256            5 
  960000    1.1071511   -6.1039232    435.50299  0.037804079    0.0383833            7 
  961000    1.1156827   -6.0848947    436.61032  0.037860763  0.038375295            5 
  962000    1.0988548   -6.0706655    437.31158  0.037882154  0.038367333            4 
  963000    1.0765278   -6.0821913    436.26111  0.037751913  0.038359366            5 
  964000    1.1075251   -6.0727015    436.12223  0.037700746  0.038350819            4 
  965000    1.0918264   -6.0735688    437.64095  0.037792828   0.03834228            4 
  966000    1.0672276   -6.0717414     436.6891  0.037671593  0.038334024            5 
  967000    1.0874723   -6.0897352     437.7614  0.037725043  0.038325945            5 
  968000    1.1043914   -6.0931731    438.13532  0.037718261  0.038317597            4 
  969000    1.0792014   -6.1241244    437.31066  0.037608416  0.038309216            5 
  970000    1.0958855   -6.1075265    438.20805   0.03764674  0.038300692            5 
  971000    1.1256455   -6.1410414     438.3348  0.037618847  0.038292153            4 
  972000    1.0887377   -6.1174964     438.2976  0.037576955  0.038283291            7 
  973000    1.1024518   -6.1139665    439.55818  0.037646298  0.038274933            3 
  974000    1.0893513   -6.0946197    440.10236  0.037654206  0.038266401            5 
  975000    1.0969936    -6.084784    440.07066  0.037612877  0.038257807            3 
  976000    1.1204016   -6.1006627    440.46612  0.037608105  0.038249303            5 
  977000    1.1006647   -6.1111263      441.303  0.037640993  0.038240869            9 
  978000    1.0893889   -6.0817448    442.09666  0.037670131  0.038232475            5 
  979000    1.0997314   -6.0898468    441.39294  0.037571752  0.038223954            8 
  980000     1.089013   -6.0887738    441.96288  0.037581877  0.038215565            4 
  981000    1.0857744   -6.1008601    442.75988  0.037611271  0.038207157            8 
  982000    1.1002786   -6.1217422    442.24166  0.037528994  0.038198528           10 
  983000    1.0838675   -6.0851597      442.566  0.037518311  0.038190118            4 
  984000    1.0651919   -6.0932382    445.12053  0.037696522  0.038181587            2 
  985000    1.0959022   -6.0972213    443.41044  0.037513574  0.038173018            8 
  986000    1.0951016   -6.1363935    444.22584  0.037544442  0.038164632            3 
  987000    1.0972379   -6.0891573    445.20759  0.037589293  0.038156297            7 
  988000    1.0890062   -6.1064378    444.18399  0.037464911  0.038147887            5 
  989000    1.0957391   -6.1152198    445.96025  0.037576698   0.03813944            4 
  990000    1.0734257   -6.1477452    445.09418   0.03746584  0.038130919            4 
  991000    1.0950593   -6.1033826    445.57378  0.037468363  0.038122231           10 
  992000    1.0815375    -6.116251    447.17873  0.037565418  0.038113776            4 
  993000    1.0819551   -6.0797327    446.02229  0.037430538  0.038105018            8 
  994000     1.098426   -6.1200509    445.93061  0.037385196   0.03809605            4 
  995000    1.0917773   -6.1034603     446.1551  0.037366424   0.03808706            2 
  996000    1.0960271   -6.0895983    446.72076  0.037376235   0.03807798           12 
  997000    1.0843059   -6.0479837     448.2389  0.037465638  0.038068959            5 
  998000    1.0956769   -6.1396264    447.92401  0.037401804  0.038059761            4 
  999000     1.076358   -6.0926421     447.5345  0.037331873  0.038050613            5 
 1000000     1.076711   -6.0927052    448.44137  0.037370114  0.038041672            5 
 1001000    1.0671928   -6.0718034    449.45389  0.037417074  0.038032802            4 
 1002000    1.0841639   -6.1128788    449.86901  0.037414256  0.038024045            3 
 1003000    1.1207931   -6.1136112    448.55565  0.037267834  0.038015119            3 
 1004000    1.0887113   -6.1123276     448.3126  0.037210541  0.038006093            6 
 1005000    1.0881188    -6.129852    450.09197  0.037321059  0.037997492            6 
 1006000    1.0882862   -6.1136686    451.16421  0.037372781  0.037989057            3 
 1007000    1.0896363   -6.0968551    451.11679  0.037331743  0.037980875            4 
 1008000    1.0865233    -6.077905    453.99338  0.037532521  0.037972545            3 
 1009000     1.065224   -6.0939122    453.23911  0.037433029  0.037964502            2 
 1010000    1.1031229   -6.1108837    453.28031  0.037399365  0.037956213            6 
 1011000    1.1095599   -6.0996904    454.23165  0.037440789  0.037948023           13 
 1012000    1.0794361   -6.1034057    454.54334  0.037429458  0.037940276            4 
 1013000    1.0881318   -6.1023612    456.59252  0.037561083   0.03793266            3 
 1014000    1.0846245   -6.1456131     454.5878  0.037359287  0.037924989            6 
 1015000    1.1035432   -6.0954605    456.08314  0.037445249  0.037917173            8 
 1016000    1.0687098   -6.0958043    455.91853  0.037394893  0.037909222            3 
 1017000    1.0694871   -6.1003267    454.86061  0.037271437  0.037900892            9 
 1018000    1.0925151   -6.0974143    457.68407  0.037465952  0.037892786            8 
 1019000    1.1026981   -6.0828297    457.27198  0.037395485  0.037884746            4 
 1020000    1.0871472   -6.0777133    458.25185  0.037438876  0.037876782            3 
 1021000    1.0811162   -6.0978233     456.7956   0.03728335  0.037868625            7 
 1022000    1.0527987   -6.0956445    457.46683  0.037301601  0.037860674            3 
 1023000    1.0976275   -6.1022174    457.80912   0.03729302    0.0378525            7 
 1024000     1.098074   -6.1074986    458.23267   0.03729107  0.037844616            6 
 1025000    1.0956888   -6.0965473     459.7872  0.037381073  0.037836708            8 
 1026000    1.0797786   -6.0868809    459.28241  0.037303639  0.037828482            5 
 1027000     1.078828   -6.0830494    458.96137  0.037241267  0.037820345            2 
 1028000    1.0926556   -6.1195687    459.88587  0.037279983  0.037812188            4 
 1029000    1.0806747   -6.1268449    460.64381  0.037305135  0.037804202            8 
 1030000    1.0948092   -6.1139336    460.24043  0.037236281  0.037796141            4 
 1031000    1.0932419   -6.1010577    460.70695  0.037237871  0.037787939            3 
 1032000    1.1103002   -6.1356414    461.13596  0.037236431  0.037779824            2 
 1033000    1.1011428   -6.1048925     462.5412  0.037313746  0.037771656            3 
 1034000     1.090882   -6.1322061    461.47301   0.03719157  0.037763653            6 
 1035000    1.0594768   -6.1283986    461.38519  0.037148566  0.037755505            5 
 1036000    1.0946764   -6.1226837    462.07883  0.037168503  0.037747226            5 
 1037000    1.1029262   -6.1084454    463.53072  0.037249335  0.037739135            4 
 1038000    1.0852842   -6.0995626    463.38027   0.03720137  0.037730953            5 
 1039000    1.0642904   -6.1501822    462.53615  0.037097862  0.037722584            5 
 1040000    1.0925984   -6.1577812    463.39859  0.037131297  0.037714271           10 
 1041000    1.0796523   -6.1247444    463.05953  0.037068486  0.037705878            8 
 1042000    1.0809868   -6.1306179    464.15403  0.037120444  0.037697608            5 
 1043000    1.0970506    -6.129722    464.46506  0.037109704  0.037689338            6 
 1044000    1.1018488   -6.1156346    464.95679  0.037113409  0.037681102            3 
 1045000    1.0763156   -6.0804836    465.37314  0.037111096  0.037672737            3 
 1046000    1.0801498   -6.0997716    466.82609  0.037191371  0.037664681            3 
 1047000    1.0695381   -6.1245011    465.22458  0.037028381  0.037656145            5 
 1048000    1.0827663   -6.1576198    464.94702  0.036970978  0.037647725            7 
 1049000    1.1043849   -6.1162362    465.93507  0.037014225  0.037639085            3 
 1050000    1.0844702   -6.0838375    467.09835  0.037071298  0.037630528            7 
 1051000    1.1123165   -6.1382501    468.21637  0.037124672  0.037622125            7 
 1052000    1.1015444   -6.1674471    467.33127  0.037019271  0.037613758            4 
 1053000    1.0690937   -6.1456407     466.6797   0.03693255  0.037605163            5 
 1054000    1.0995866   -6.1351412    468.51731  0.037042798   0.03759653            6 
 1055000    1.0685705   -6.1169777    467.18272  0.036902268  0.037588089            8 
 1056000    1.0715242   -6.1145835    468.93905  0.037005922  0.037579545            5 
 1057000    1.0722699   -6.1199254    468.11243  0.036905742  0.037571184            3 
 1058000    1.1042766   -6.1326049    469.20417   0.03695685  0.037562803            9 
 1059000    1.0766398   -6.1271109    471.34604  0.037090497  0.037554659            5 
 1060000    1.0721168   -6.1342793    472.23537  0.037125422  0.037546474            5 
 1061000     1.095471   -6.1209585    471.03871  0.036996443  0.037538249            6 
 1062000    1.0885768   -6.1052027    471.04319  0.036961958  0.037529852            6 
 1063000    1.0651442    -6.104208    470.89753  0.036915767  0.037521545           15 
 1064000    1.0813862   -6.1329248    471.57683  0.036934276  0.037512901            5 
 1065000    1.0726697   -6.1109226    471.81765  0.036918439  0.037504795            6 
 1066000    1.0539971   -6.1540311    472.87867   0.03696675  0.037496604            4 
 1067000    1.1008133   -6.1246971     476.3995  0.037207083  0.037488676            6 
 1068000    1.1132138   -6.0983561    474.97307  0.037060945   0.03748085            9 
 1069000    1.0928679   -6.1586803    474.69062  0.037004258  0.037473112            2 
 1070000     1.061369   -6.1165102    475.06863  0.036999114  0.037465272            5 
 1071000    1.0954416   -6.0996489    473.99781  0.036881249  0.037457205            3 
 1072000    1.0855496   -6.1364354    475.73262  0.036981702  0.037449226            4 
 1073000    1.0882784   -6.1165646    476.49571  0.037006501  0.037441153            5 
 1074000    1.0766019   -6.1065579    475.86856  0.036923383  0.037432893            8 
 1075000    1.0828193   -6.1532356    475.28132  0.036843513  0.037424617            7 
 1076000    1.0562364   -6.1530545    476.12211  0.036874389  0.037415888            3 
 1077000    1.0925009   -6.1585403    474.34397  0.036702566  0.037407308            6 
 1078000    1.0945687   -6.1200354    475.84776  0.036784768  0.037398512           10 
 1079000    1.0733736   -6.1472414    477.38142  0.036869124  0.037389932            6 
 1080000    1.0640212   -6.1131411    477.75978   0.03686418  0.037381358            7 
 1081000     1.080591    -6.152154    476.45646  0.036729607  0.037372848            6 
 1082000    1.0782305    -6.148847    476.42544  0.036693272  0.037364432            3 
 1083000    1.1014068   -6.1344491    478.57853  0.036825064  0.037355882            3 
 1084000     1.070884    -6.131743    477.98664   0.03674559  0.037347189           10 
 1085000    1.0734425   -6.1303747    477.87945  0.036703491  0.037338368            5 
 1086000    1.0769536   -6.1151889    479.41514  0.036787533  0.037329688            4 
 1087000    1.0623323   -6.1482721    478.97265  0.036719768  0.037320864            4 
 1088000     1.060431   -6.1318999    478.61946  0.036658966  0.037311828            5 
 1089000    1.1069696   -6.1435195    478.73922  0.036634467  0.037302905            2 
 1090000    1.0918942   -6.1423606    478.94371  0.036616491  0.037294014            7 
 1091000    1.0567684   -6.1800871    477.72742  0.036490026  0.037284931            6 
 1092000     1.077333   -6.1074911    479.73203  0.036609587  0.037275745            5 
 1093000    1.0721765   -6.1225006    480.62034   0.03664382  0.037266669           10 
 1094000    1.0851513   -6.1363211    480.36663  0.036590998  0.037257327            2 
 1095000    1.0693686   -6.1280898    482.23703  0.036699926  0.037248336            3 
 1096000    1.0500225   -6.1133139    483.38619  0.036753816  0.037239339            5 
 1097000    1.0786378   -6.1383145    481.50024  0.036577047  0.037230659            5 
 1098000     1.069567   -6.0867143    484.74117  0.036789706  0.037222149            3 
 1099000    1.0729583   -6.1401346    482.84749   0.03661264  0.037213462            5 
 1100000    1.0881025   -6.1434677    482.50607   0.03655349  0.037204612            8 
 1101000    1.0531419   -6.1275532    484.16062   0.03664552  0.037195879            4 
 1102000    1.1001852   -6.1373905    484.35928   0.03662729  0.037187016            5 
 1103000     1.067145   -6.1550753    483.08481  0.036497795  0.037178105           14 
 1104000    1.1015714   -6.1484649    485.04966  0.036613048  0.037169331            2 
 1105000    1.0933004   -6.1087764    485.24536  0.036594673   0.03716048           18 
 1106000    1.0751633   -6.1250023    484.28933  0.036489552  0.037151545            3 
 1107000    1.0651338   -6.1243569    485.61102  0.036556084  0.037142611            4 
 1108000    1.0584453   -6.0990457    485.85537  0.036541469  0.037133947            3 
 1109000    1.0579337   -6.1490653    485.17984  0.036457758  0.037124885           12 
 1110000    1.0733581   -6.1483102    485.16518  0.036423812  0.037115806            4 
 1111000    1.0951893   -6.1335422    486.74984  0.036509889  0.037106859            3 
 1112000    1.0740256   -6.1196601    487.03491   0.03649842  0.037097688           10 
 1113000    1.0630091   -6.1214372    488.54809  0.036578923  0.037088647            7 
 1114000    1.0649231   -6.1149726    485.55011  0.036321822   0.03707945            4 
 1115000    1.0541005   -6.1518319    487.64749  0.036446001  0.037070331            8 
 1116000    1.0578806   -6.1558209    488.73448   0.03649451  0.037061276            3 
 1117000    1.0745274   -6.0735134    487.76405   0.03638944  0.037052396            4 
 1118000    1.0779408    -6.173156    485.44836  0.036184285   0.03704317            3 
 1119000    1.0663536   -6.1495731     489.2146  0.036432425  0.037033774            3 
 1120000    1.0810258   -6.1581353    488.13915  0.036319877  0.037024567            4 
 1121000    1.0813427   -6.1374736    488.48181  0.036312951   0.03701553            3 
 1122000    1.0893512   -6.1499971    490.56134  0.036435037  0.037006357            8 
 1123000    1.0751242   -6.1411351    489.84105  0.036349143  0.036997305            9 
 1124000    1.0418431   -6.1394225    489.12977  0.036264069   0.03698787            6 
 1125000    1.0627881    -6.118471    490.66376  0.036345464  0.036978449            4 
 1126000    1.0775194   -6.1286884    489.81547  0.036250405  0.036969128            4 
 1127000    1.0457214   -6.1353647     491.7307  0.036359857  0.036959834            5 
 1128000    1.0664342   -6.1354869    492.41615  0.036378262   0.03695091            4 
 1129000    1.0520144   -6.1382123     491.4354   0.03627365  0.036941915            4 
 1130000    1.0709927   -6.1461051    490.71521  0.036188437  0.036932691            8 
 1131000    1.0724842   -6.1261802    492.78896  0.036309237  0.036923807            3 
 1132000    1.0801584   -6.1438368    492.02023  0.036220571  0.036914542            4 
 1133000     1.077551    -6.122767    493.03024  0.036262889  0.036905235            4 
 1134000    1.0774066   -6.1783838    491.97583  0.036153427  0.036895787            5 
 1135000    1.0759828   -6.1647031    493.42136  0.036227706   0.03688665            4 
 1136000    1.0895177   -6.1287176    494.63405  0.036284775  0.036877364            6 
 1137000    1.0501754   -6.1538633    494.67942  0.036256187  0.036868104            7 
 1138000    1.0549473   -6.1297477    495.67991  0.036297591  0.036858848            4 
 1139000    1.0499092   -6.1356938    494.37031  0.036169908  0.036849564            3 
 1140000    1.0718538   -6.1528639    495.68955  0.036234616  0.036840278            4 
 1141000    1.0524008     -6.15332    494.71679  0.036131813  0.036830941            9 
 1142000    1.0636196   -6.1439116     494.5618  0.036088865    0.0368217            9 
 1143000    1.0686196   -6.1684047    496.67834  0.036211603  0.036812329            7 
 1144000    1.0652046   -6.1513532    495.15507  0.036068988  0.036803322            3 
 1145000    1.0583361     -6.10862     496.7883  0.036156353  0.036794172            7 
 1146000      1.07226   -6.1688547    497.14488  0.036150733  0.036785041            2 
 1147000    1.0869775   -6.1625277    497.18659  0.036122246   0.03677575            7 
 1148000    1.0592122   -6.1352115    495.95277  0.036001218  0.036766408            6 
 1149000    1.0877442   -6.1384161    496.58483  0.036015726  0.036756927            8 
 1150000    1.0680352   -6.1595455     497.4448  0.036046724  0.036747672           11 
 1151000    1.0781024    -6.177827    497.59154  0.036026031  0.036738254            3 
 1152000    1.0680148   -6.1166037    499.45463   0.03612953  0.036728967            6 
 1153000    1.0765714   -6.1612857    499.26019  0.036084142  0.036719648            8 
 1154000     1.051921   -6.1703125    499.10133  0.036041402  0.036710257           11 
 1155000    1.0506374   -6.1411002    500.37265  0.036101923   0.03670097            7 
 1156000    1.0715946   -6.1532702     500.0809  0.036049661   0.03669167            4 
 1157000    1.0764458   -6.1544643    500.79734  0.036070105  0.036682461            6 
 1158000    1.0480463   -6.1428359    501.16938  0.036065729  0.036673459            3 
 1159000    1.0699751   -6.1719724    501.76302  0.036077295  0.036664616            3 
 1160000    1.0734294    -6.170834    501.69431  0.036041258  0.036655499            5 
 1161000    1.0604257   -6.1588604    502.16304  0.036043859    0.0366464            5 
 1162000    1.0775514   -6.1489126    502.50388  0.036037284  0.036637155            3 
 1163000    1.0916161   -6.1473535    502.75043  0.036023963  0.036628049            5 
 1164000    1.0865289   -6.1679973    501.36701  0.035893973  0.036618943            4 
 1165000    1.0560858   -6.1384038    503.78456  0.036036091   0.03660998            2 
 1166000     1.061996   -6.1494311    503.89591  0.036013144  0.036601304            8 
 1167000    1.0600055   -6.1620585    503.11912  0.035926815  0.036592448            5 
 1168000    1.0577527   -6.1434267    504.59584  0.036001415   0.03658358            6 
 1169000    1.0611206   -6.1653773    504.50702  0.035964287  0.036574645            8 
 1170000    1.0692758   -6.1141033    505.96762   0.03603758  0.036566146            7 
 1171000    1.0623623   -6.1523053    507.11051  0.036088137  0.036557378            6 
 1172000    1.0574801    -6.148104     506.4964   0.03601368  0.036548626            5 
 1173000    1.0360759   -6.1735787    507.17658    0.0360313  0.036539784           11 
 1174000    1.0529754   -6.1465056    505.83661  0.035905494  0.036530825           10 
 1175000    1.0822441   -6.1222127    507.78732  0.036013285  0.036521979            5 
 1176000    1.0487429   -6.1630226    508.03589  0.036000276  0.036513145            2 
 1177000     1.070352   -6.1248804    508.15123  0.035977855  0.036504316            6 
 1178000    1.0503331   -6.1294325     506.9811  0.035864537  0.036495717            5 
 1179000    1.0520719   -6.1558821     510.6502  0.036093455  0.036487194            5 
 1180000    1.0646976   -6.1636916    509.99251   0.03601642  0.036478918            8 
 1181000    1.0701207   -6.1608136    508.74503  0.035897899  0.036470675            3 
 1182000    1.0681474   -6.1607759    509.64361  0.035930881  0.036462162            5 
 1183000    1.0669385   -6.1859306    511.90822  0.036060032  0.036453494           12 
 1184000    1.0582899   -6.1639908    510.96713   0.03596334  0.036444844            8 
 1185000    1.0822725   -6.1658812    510.82991  0.035923341  0.036436264            8 
 1186000    1.0696938   -6.1627828     511.4712  0.035938111  0.036427519            9 
 1187000    1.0741134   -6.1313752    512.90024  0.036008161  0.036418854            4 
 1188000    1.0678365   -6.1373979    513.91354   0.03604893  0.036410253            3 
 1189000    1.0458598   -6.1582398    511.81233  0.035871344  0.036401528            3 
 1190000     1.070859   -6.1907001    512.63198  0.035898598  0.036392745            4 
 1191000    1.0719321   -6.1784122    511.76046  0.035807477  0.036383879            6 
 1192000    1.0543547   -6.1578859    512.92943   0.03585916  0.036374767            6 
 1193000    1.0596353    -6.152983    512.14749  0.035774482  0.036365822            3 
 1194000    1.0346824   -6.1848885    512.30786  0.035755713  0.036356776            8 
 1195000     1.046034   -6.1737127    513.38664  0.035801021  0.036347924            3 
 1196000    1.0552053   -6.1587155    515.02544  0.035885273  0.036339114            7 
 1197000    1.0719313   -6.1567141     513.6661  0.035760659  0.036330275            5 
 1198000    1.0433703   -6.1846224    515.26794  0.035842233  0.036321692            5 
 1199000    1.0416533   -6.1570223    515.61123  0.035836199  0.036313129            9 
 1200000     1.074583    -6.164764    515.60685  0.035806031   0.03630461            2 
 1201000    1.0683048   -6.1512553    515.90829  0.035797133  0.036295934            7 
 1202000     1.053864   -6.1585539    516.95624  0.035840006  0.036287486            5 
 1203000    1.0510067   -6.1766346    515.69877  0.035723107  0.036278886            6 
 1204000    1.0639668   -6.1633203    516.42303  0.035743565  0.036270289            6 
 1205000    1.0659051   -6.2027271    516.30075  0.035705446  0.036261699           10 
 1206000    1.0601425   -6.1405961    519.25323  0.035879853  0.036253188            5 
 1207000    1.0732395   -6.1776178    516.86802  0.035685447  0.036244624            2 
 1208000    1.0278395   -6.1971836    517.99004  0.035733308  0.036236128            6 
 1209000    1.0582603   -6.1611834    518.92151  0.035767956  0.036227724            5 
 1210000    1.0415959   -6.1479887    518.87107  0.035734922  0.036219507            7 
 1211000    1.0633717   -6.1663192    520.36666  0.035808331  0.036211319            5 
 1212000    1.0379617    -6.169308    520.32186  0.035775706  0.036203233            5 
 1213000    1.0576494   -6.1511839    521.21275  0.035807416  0.036195106            4 
 1214000    1.0584918    -6.166142    521.22954  0.035779073  0.036187015            7 
 1215000    1.0543512   -6.1992786    521.21016  0.035748296  0.036178888            7 
 1216000    1.0745287    -6.183117    520.17553  0.035647994  0.036170567            7 
 1217000    1.0324208   -6.1432321    522.95127  0.035808769  0.036162399            3 
 1218000    1.0545859   -6.1555582    522.89874  0.035775776  0.036154233           13 
 1219000    1.0467562   -6.1993832    523.98417   0.03582063  0.036146172            7 
 1220000    1.0572906   -6.1682519    522.14699  0.035665778  0.036138008            5 
 1221000    1.0443549   -6.1374574    523.55429  0.035732616  0.036129904            3 
 1222000    1.0455685   -6.1910928    524.59893  0.035774614  0.036122049            4 
 1223000    1.0555788   -6.1882113    525.57603   0.03581194   0.03611411            5 
 1224000    1.0799513    -6.175721    525.63111  0.035786432  0.036106236            5 
 1225000    1.0328292   -6.2051385    526.15258  0.035792692  0.036098422            6 
 1226000    1.0622198   -6.1982894    524.17185  0.035628864   0.03609047           16 
 1227000    1.0566115   -6.1819993    525.39465  0.035682875  0.036082467            7 
 1228000    1.0579128   -6.1760309    526.62279   0.03573716  0.036074372            3 
 1229000    1.0489606   -6.1832824    527.39532  0.035760464  0.036066643            4 
 1230000     1.054306   -6.1360674    527.92978    0.0357676   0.03605886            3 
 1231000    1.0378075   -6.1456196     528.9996  0.035810966  0.036051191           16 
 1232000    1.0315165   -6.1902138    527.80008  0.035700763  0.036043409            7 
 1233000      1.05908   -6.1705609     526.9161  0.035612064  0.036035502           10 
 1234000    1.0420716   -6.1546857    529.49403  0.035757295  0.036027619            4 
 1235000    1.0621734   -6.2002969    529.64345  0.035738424  0.036019809            5 
 1236000    1.0655752   -6.1835381    528.15551   0.03560919  0.036011997            7 
 1237000    1.0539885   -6.1541194    528.24349   0.03558633  0.036004052            5 
 1238000    1.0553897   -6.1992756    530.37068  0.035700773  0.035996217            4 
 1239000    1.0415575   -6.1716654     529.3818  0.035605448  0.035988318            5 
 1240000    1.0292277   -6.1721202    530.15885  0.035628955    0.0359801           11 
 1241000    1.0533325   -6.1782444    529.93414  0.035585156   0.03597182            6 
 1242000    1.0318949   -6.2043156    530.50878   0.03559506  0.035963568            3 
 1243000     1.052148   -6.1786888    529.56585  0.035503208  0.035955592           16 
 1244000    1.0424178   -6.1846845    530.65887  0.035547888  0.035947488            5 
 1245000    1.0356654   -6.1892839    531.27382  0.035560496  0.035939267            4 
 1246000    1.0198932   -6.1845097    532.47622  0.035612374  0.035931141           17 
 1247000    1.0538465   -6.1631619    532.51192  0.035586202  0.035923111            7 
 1248000    1.0556227   -6.1811065    532.58124  0.035562316  0.035914971            4 
 1249000     1.058876   -6.1983836     531.6092  0.035468989  0.035906668            6 
 1250000    1.0505413     -6.20502    532.48275   0.03549885  0.035898549            6 
 1251000    1.0267058   -6.1847394    531.99529  0.035438002  0.035890187            2 
 1252000     1.051735   -6.1374089    534.58939  0.035582361   0.03588214            5 
 1253000    1.0301626     -6.19587    534.26086  0.035532114     0.035874            7 
 1254000    1.0424351   -6.1797557    533.50938   0.03545384  0.035865844            3 
 1255000    1.0583937   -6.1726784    533.30919  0.035412297  0.035857753            5 
 1256000     1.042049   -6.1588234    535.37278  0.035521018  0.035849578            6 
 1257000    1.0419282   -6.1843971    535.51387  0.035502113  0.035841365            5 
 1258000    1.0641671   -6.1932463    534.17021  0.035384884  0.035833102            9 
 1259000    1.0511498   -6.1899687    536.01847  0.035479115  0.035824779            3 
 1260000     1.072998   -6.1783448    535.73785  0.035432397  0.035816588            5 
 1261000    1.0568724   -6.1993663     535.8685  0.035412933  0.035808638            6 
 1262000    1.0476992   -6.1719522    536.09155  0.035399601  0.035800517            9 
 1263000    1.0378526   -6.2237044    535.19071  0.035312135  0.035792384           11 
 1264000    1.0635928   -6.1774377    536.23968  0.035353354  0.035784355            6 
 1265000    1.0612893   -6.2080186    536.92155  0.035370326  0.035776244            5 
 1266000    1.0708173   -6.1865655    534.68566  0.035195212  0.035768024            5 
 1267000    1.0532804   -6.1849393     537.9409  0.035381537  0.035759891            5 
 1268000    1.0533307   -6.1736169    538.38536  0.035382844  0.035751868            9 
 1269000    1.0589706    -6.189869    538.77225  0.035380369  0.035743836            4 
 1270000     1.052662   -6.1759522    538.60048  0.035341239  0.035735833            5 
 1271000    1.0400579   -6.1438204    540.95848  0.035468035  0.035727893            5 
 1272000    1.0505036   -6.1960794    538.69442  0.035291825  0.035719857            4 
 1273000    1.0629329    -6.192152    540.04733  0.035352667  0.035711808            3 
 1274000    1.0412386   -6.2028717     539.8495  0.035311977  0.035703959            6 
 1275000    1.0409414   -6.1706356    540.61443  0.035334276   0.03569594            8 
 1276000    1.0583646   -6.1709515    540.78787  0.035317912  0.035687659            3 
 1277000    1.0501169   -6.1985225    540.60686  0.035278443  0.035679354            8 
 1278000    1.0640957   -6.1836491    542.09748  0.035348036  0.035671133            4 
 1279000    1.0670935   -6.1932207     541.9852  0.035313083     0.035663            8 
 1280000    1.0565653   -6.2012016    544.24001  0.035432292  0.035654917            3 
 1281000    1.0365029   -6.1723977    541.19333  0.035206436  0.035646717            4 
 1282000    1.0459342   -6.1691044    541.47051  0.035196991   0.03563865            4 
 1283000    1.0444557   -6.2219897    540.42141  0.035101417  0.035630304            7 
 1284000     1.037729   -6.1840831    542.10304  0.035183219  0.035621921            5 
 1285000    1.0314337   -6.1972369    543.27421   0.03523179  0.035613581            6 
 1286000     1.036171    -6.198352    542.73475  0.035169437  0.035605277            4 
 1287000    1.0532645   -6.1730612    542.62446  0.035134969   0.03559689            5 
 1288000    1.0386135   -6.1951709    545.17293  0.035272576  0.035588345            6 
 1289000    1.0519986   -6.1502381    544.40185  0.035195361  0.035579897            4 
 1290000    1.0553345   -6.1812685    544.35339  0.035164948  0.035571499            5 
 1291000    1.0484494   -6.1827658    543.31607  0.035070751  0.035562894            6 
 1292000    1.0337276   -6.1787129     545.6624  0.035194943  0.035554508            3 
 1293000     1.057737   -6.1929473    544.61125  0.035099977  0.035546074            6 
 1294000    1.0494944   -6.1968576    544.63052  0.035074093  0.035537632            4 
 1295000    1.0293479   -6.2068703    545.27658  0.035088583  0.035529145           14 
 1296000    1.0385768   -6.1796054    546.85643  0.035163093  0.035520752            4 
 1297000    1.0658815   -6.2056866    544.93893  0.035012782  0.035512305           14 
 1298000    1.0625671   -6.2212568    547.70102  0.035163137  0.035503907            7 
 1299000    1.0427527   -6.1745516    548.23499  0.035170322  0.035495647            4 
 1300000    1.0406249   -6.1313259    548.53758  0.035162665  0.035487388            5 
 1301000    1.0536673    -6.195938    546.82595  0.035026002  0.035479082            6 
 1302000    1.0434264    -6.183357    547.86491  0.035065599  0.035470691            4 
 1303000    1.0487784   -6.2183896    547.14839  0.034992862   0.03546226            6 
 1304000    1.0354086   -6.1920009    548.08464  0.035025859  0.035453853            8 
 1305000     1.035009   -6.2590104    548.61319  0.035032771   0.03544562            7 
 1306000    1.0359394   -6.1980845    549.80161  0.035081777  0.035437349            4 
 1307000      1.04234     -6.17952    549.81072  0.035055517  0.035429089            3 
 1308000     1.044326   -6.1561737    549.90161  0.035034506  0.035421096            8 
 1309000    1.0166111   -6.1808739    548.77517  0.034936031  0.035413025            4 
 1310000    1.0711525   -6.2157802     551.3325  0.035072042  0.035404879            8 
 1311000      1.05778   -6.2131807    549.91186  0.034954987  0.035396627            7 
 1312000    1.0359456   -6.2219529    551.85091  0.035051506  0.035388445            4 
 1313000    1.0240369   -6.1689694    553.29765  0.035116632  0.035380337            3 
 1314000    1.0359834   -6.2226866    551.54084  0.034978491  0.035372186            4 
 1315000    1.0597457   -6.1593348    552.67806  0.035023958  0.035364234            5 
 1316000    1.0616142   -6.1865962    554.46312   0.03511038  0.035356286            5 
 1317000    1.0399031   -6.1883953    553.86318  0.035045759  0.035348458            4 
 1318000     1.041454   -6.1997714    554.23579  0.035042728  0.035340788            9 
 1319000    1.0444552   -6.1688015    554.21084  0.035014584  0.035333036            4 
 1320000    1.0389884    -6.178978    555.27692  0.035055361   0.03532524            4 
 1321000    1.0254919   -6.2037862    554.60754  0.034986597  0.035317271            6 
 1322000    1.0320695   -6.2051017    554.97921  0.034983561  0.035309335            6 
 1323000    1.0262091   -6.1831197    556.02399  0.035022927  0.035301411            6 
 1324000    1.0448176   -6.2238724    556.98232  0.035056793  0.035293341            7 
 1325000    1.0428396   -6.1969436    555.48565  0.034936205  0.035285445           10 
 1326000    1.0526565   -6.2106587    556.06575  0.034946314   0.03527736            5 
 1327000    1.0192217   -6.2052258    557.07943  0.034983636  0.035269259           15 
 1328000    1.0507217   -6.2147718    556.26822  0.034906389  0.035261008            9 
 1329000    1.0500355   -6.1996393    558.39901  0.035013732  0.035252972            3 
 1330000    1.0225776   -6.1901597    558.76164  0.035010128  0.035244989            7 
 1331000    1.0444046   -6.1961594    557.07065  0.034877952  0.035236921            6 
 1332000    1.0200639    -6.198941    557.75648  0.034894674  0.035228691           10 
 1333000    1.0470463    -6.178486    558.65793  0.034924852  0.035220577            6 
 1334000    1.0225262   -6.2089259    557.03633  0.034797372  0.035212491            3 
 1335000     1.034062     -6.18385    560.75737  0.035003581  0.035204528           10 
 1336000    1.0470456   -6.2084684    558.41236   0.03483111  0.035196419            3 
 1337000    1.0195855   -6.1820685    559.25942  0.034857855  0.035188181            8 
 1338000     1.030992   -6.2286354    560.22316  0.034891826  0.035179934            9 
 1339000    1.0205152   -6.2285955    558.71357  0.034771818  0.035171809            9 
 1340000    1.0307095   -6.2214669     560.3434  0.034847226  0.035163601            4 
 1341000     1.026896    -6.213385    561.32017  0.034881939  0.035155528            6 
 1342000    1.0400612   -6.2103562    560.88161  0.034828714  0.035147417            8 
 1343000    1.0418357   -6.2091792    560.17623  0.034759012  0.035139406            3 
 1344000    1.0484978   -6.2197005    560.42613  0.034748644  0.035131227            6 
 1345000    1.0333407    -6.209096    561.50545  0.034789681  0.035123088           15 
 1346000    1.0332134   -6.1909706    562.73656  0.034840055  0.035114889            5 
 1347000    1.0620926   -6.1823811    562.67515   0.03481039  0.035106793            2 
 1348000    1.0193988   -6.1892081    562.32103  0.034762675  0.035098814            7 
 1349000    1.0356681   -6.2292645    563.20871  0.034791742  0.035090533            5 
 1350000    1.0382007   -6.2016313    562.16905  0.034701793  0.035082283            4 
 1351000     1.009769   -6.1937402    563.95999  0.034786577  0.035073911            5 
 1352000    1.0359336   -6.2350443    563.00163  0.034701777  0.035065564            9 
 1353000    1.0239941   -6.2284709    562.38458  0.034638124  0.035057203            7 
 1354000    1.0400576   -6.1540434    564.85758  0.034764745  0.035049075            6 
 1355000    1.0339088   -6.1731782    562.60802  0.034600739  0.035040824            5 
 1356000    1.0452169   -6.2109413    563.26198  0.034615411  0.035032391            5 
 1357000     1.047749   -6.1956602    564.83409  0.034686446  0.035024107            5 
 1358000    1.0155588   -6.2463023    563.07685  0.034553071  0.035015767            4 
 1359000    1.0400851   -6.2390893    562.54112  0.034494795  0.035007136            7 
 1360000    1.0463045   -6.1863731    564.78287  0.034606793  0.034998607            5 
 1361000    1.0273221   -6.1942503    566.01575  0.034656855  0.034990053            9 
 1362000    1.0221049   -6.2074302    565.05788  0.034572802   0.03498139            6 
 1363000    1.0275926    -6.220185    565.15665  0.034553476  0.034972708            7 
 1364000    1.0339134   -6.1982943     564.4911  0.034487481  0.034964003            5 
 1365000    1.0323351   -6.2048013    563.92207  0.034427477  0.034955401            5 
 1366000    1.0066207   -6.2086641    564.69081  0.034449171  0.034946721            5 
 1367000    1.0450933   -6.1993432    563.51148  0.034352077  0.034938078            3 
 1368000    1.0448318     -6.24454    564.32886  0.034376758  0.034929395            8 
 1369000    1.0459582   -6.1901664    565.43107  0.034418741  0.034920593            4 
 1370000     1.022728   -6.2507344    566.32692  0.034448109   0.03491174            5 
 1371000    1.0222184    -6.153694    566.76058  0.034449342  0.034902943            6 
 1372000    1.0389898   -6.2131762    566.23467   0.03439229  0.034894109           10 
 1373000    1.0576859   -6.2283753    564.96692  0.034290296  0.034885245            3 
 1374000    1.0364064   -6.2015864    568.53702  0.034481867  0.034876443            4 
 1375000    1.0528527   -6.2084442    567.49352  0.034393547  0.034867633            4 
 1376000    1.0398429   -6.1829337    567.42227  0.034364236  0.034858899            6 
 1377000    1.0301075   -6.2219099    566.45824  0.034280939   0.03485026            8 
 1378000    1.0387546   -6.1977599    569.67049   0.03445032   0.03484156            9 
 1379000    1.0332872     -6.21313    570.50363  0.034475685  0.034832824            8 
 1380000    1.0341585   -6.2321818    569.13858  0.034368272  0.034824195            7 
 1381000     1.014686   -6.2424788     568.1551  0.034284039  0.034815565            5 
 1382000    1.0243365   -6.2268841    568.53915   0.03428239  0.034806872            5 
 1383000    1.0396814   -6.2099568    570.22116  0.034358951  0.034798337            4 
 1384000    1.0606691   -6.2396262    570.00056  0.034320843  0.034789693            4 
 1385000    1.0253969   -6.2158165    570.14226  0.034304589  0.034781179            5 
 1386000    1.0245364   -6.2319268    571.32551   0.03435098  0.034772675           16 
 1387000    1.0486381   -6.2472614    570.21747  0.034259641  0.034764008            8 
 1388000    1.0203042   -6.2027573    571.54026  0.034314377  0.034755364            4 
 1389000    1.0111281    -6.199307    572.49781  0.034347121    0.0347468            9 
 1390000    1.0640844   -6.2630175     571.2616  0.034248297  0.034738191            4 
 1391000    1.0368396   -6.2146833    572.88056  0.034320666  0.034729617            7 
 1392000    1.0193827   -6.2359068    573.02458  0.034304633  0.034721115            9 
 1393000    1.0496458    -6.188625    574.16005  0.034347933  0.034712704            4 
 1394000    1.0349892   -6.2191937    575.78351  0.034420344  0.034704411            4 
 1395000    1.0326048   -6.2381617    573.97414  0.034287583  0.034695912            5 
 1396000     1.027633   -6.2314153    575.17826  0.034334901  0.034687588            8 
 1397000    1.0220813   -6.1943535    575.42461  0.034325018  0.034679212            6 
 1398000    1.0009998    -6.230514    576.64311  0.034373099  0.034670713            4 
 1399000    1.0255107   -6.2240089    575.53266  0.034282384  0.034662434            6 
 1400000     1.004344    -6.187335    577.88032  0.034397638   0.03465418            4 
 1401000    1.0359573    -6.209454    575.09462  0.034207389  0.034645918            6 
 1402000    1.0380673   -6.2181025    574.62545  0.034155103  0.034637423            4 
 1403000    1.0053317   -6.2087238    577.55456  0.034304737  0.034629046           10 
 1404000   0.99456287   -6.2420176    577.41914  0.034272266  0.034620564            5 
 1405000    1.0217277   -6.2265576    577.94054  0.034278798   0.03461203            7 
 1406000    1.0187184   -6.2380355    574.81174  0.034068974  0.034603475            5 
 1407000    1.0258297    -6.237731    576.22856  0.034128676  0.034594891            6 
 1408000    1.0396575    -6.196576     576.4287  0.034116282  0.034586401           11 
 1409000    1.0211544   -6.2251075    579.50745  0.034274157  0.034577936            6 
 1410000    1.0241527   -6.2516909    577.41966  0.034126458  0.034569553            5 
 1411000    1.0332994   -6.2386539    577.24805  0.034092136  0.034561057            6 
 1412000    1.0086517   -6.2273673     578.6651  0.034151623  0.034552599            6 
 1413000    1.0033979   -6.2155537    579.66981  0.034186708  0.034544149            3 
 1414000    1.0270573   -6.1996575    580.07884  0.034186636   0.03453564            3 
 1415000    1.0337547    -6.224052    580.11251  0.034164459  0.034527274            7 
 1416000    1.0015546    -6.221854    579.91984  0.034128992  0.034518775            8 
 1417000    1.0105974   -6.2270184    580.56468   0.03414283  0.034510322            6 
 1418000    1.0368111   -6.2391979    580.55265  0.034118045  0.034501717            3 
 1419000    1.0223969   -6.2211759    581.23654  0.034134164  0.034493219            6 
 1420000    1.0125869   -6.2387513    580.00823  0.034038042  0.034484841            5 
 1421000    1.0136309   -6.2159227    581.82547  0.034120659  0.034476634            6 
 1422000    1.0089274   -6.2028472     582.0987  0.034112676  0.034468209            5 
 1423000    1.0107315   -6.2305214    582.21902   0.03409575  0.034459773            7 
 1424000    1.0366578    -6.234141     581.3462  0.034020728  0.034451438            5 
 1425000    1.0413758   -6.2372519    582.40664  0.034058868  0.034442968            5 
 1426000    1.0194081   -6.2494602    581.87206  0.034003744  0.034434412            4 
 1427000    1.0122144   -6.2378109      584.074  0.034108503  0.034425948            4 
 1428000    1.0284017   -6.2260001    582.41835  0.033987999   0.03441751            7 
 1429000    1.0381226   -6.2241496    583.15458  0.034007148  0.034409174           11 
 1430000    1.0037111    -6.199861    584.08667  0.034037684  0.034400886            4 
 1431000    1.0125782   -6.2012966    585.87889  0.034118268  0.034392731            7 
 1432000    1.0193799   -6.2393458    585.43088  0.034068371  0.034384462            5 
 1433000    1.0158526   -6.2472923    583.30351  0.033920883  0.034376129            6 
 1434000    1.0185863   -6.1927581    585.97821  0.034052662  0.034367749            4 
 1435000    1.0304182   -6.2266692    584.40515  0.033937581   0.03435941            6 
 1436000     1.019345   -6.2186791    586.05097  0.034009458  0.034351113            5 
 1437000    1.0102176   -6.2128883    584.81913  0.033914355   0.03434273            5 
 1438000    1.0125354    -6.241212    585.65149  0.033939006  0.034334309            6 
 1439000    1.0108565   -6.2097865    585.77063   0.03392232  0.034325832            5 
 1440000    1.0502611     -6.24877    586.36717  0.033933285  0.034317318           14 
 1441000     1.011267   -6.2440173    587.11964  0.033953253   0.03430899           11 
 1442000    1.0278367   -6.2173193    586.76827  0.033909401  0.034300648            5 
 1443000    1.0358047   -6.2663614    585.53798  0.033814852  0.034292245            6 
 1444000    1.0095068   -6.2217414    587.98929    0.0339329  0.034283867            4 
 1445000    1.0407004   -6.2147977    588.75928  0.033953822  0.034275482            7 
 1446000    1.0042195   -6.2350804    589.06502  0.033947961  0.034267169            4 
 1447000    1.0234004   -6.2263387     588.4745  0.033890492  0.034258786            6 
 1448000    1.0131155   -6.2337928    588.25658  0.033854545  0.034250446           11 
 1449000    1.0156077    -6.226191    589.78192  0.033918905  0.034242194            4 
 1450000    1.0377006    -6.200203    590.45755  0.033934342  0.034233783            7 
 1451000    1.0042718    -6.262069    590.23656  0.033898263  0.034225591            7 
 1452000   0.98389682   -6.2359462    591.37847  0.033940454  0.034217362           13 
 1453000    1.0356935   -6.1905616    590.63252  0.033874313  0.034209225            4 
 1454000    1.0001114   -6.2506221    590.88089  0.033865251  0.034201149            5 
 1455000    1.0124607   -6.2457357    591.95264  0.033903359  0.034192892            5 
 1456000    1.0105535   -6.2601828    591.23461  0.033838977  0.034184842            5 
 1457000    1.0172487   -6.2446989     592.5255  0.033889585  0.034176769            3 
 1458000    1.0112296   -6.2169018    593.85432  0.033942291  0.034168718            8 
 1459000    1.0069911   -6.2134938    592.92306  0.033865836  0.034160793            3 
 1460000    1.0234715   -6.2475973    592.99836  0.033846938  0.034152901            6 
 1461000    1.0040727   -6.2245532    593.98238  0.033879898  0.034144882            7 
 1462000    1.0503803   -6.2172372     594.3004  0.033874852  0.034136903            5 
 1463000    1.0028649    -6.238651    595.39691  0.033914155   0.03412898            8 
 1464000   0.98992273   -6.2389303    594.67102  0.033849671  0.034120921            9 
 1465000    1.0109368   -6.2385658    594.84397  0.033836403  0.034112958            4 
 1466000    1.0006116   -6.2412005    593.77745  0.033752697  0.034104921            4 
 1467000    1.0349842   -6.2421312     592.6142   0.03366361   0.03409662            8 
 1468000    1.0203251   -6.2313653    594.42212  0.033743308   0.03408831           14 
 1469000    1.0145721   -6.2389901    596.48132  0.033837152  0.034079916            6 
 1470000   0.98667334   -6.2642372    594.30528  0.033690776  0.034071583            5 
 1471000    1.0227262   -6.2589155    593.81426  0.033640055  0.034063139            6 
 1472000    1.0091456   -6.2716391    594.02484  0.033629124  0.034054578            3 
 1473000    1.0177849   -6.2281392    597.30551  0.033791893  0.034046197            6 
 1474000    1.0238956   -6.2754804    595.96891  0.033693403  0.034037799            8 
 1475000    1.0471547   -6.2170464    597.14207   0.03373684  0.034029396            4 
 1476000   0.99873911   -6.2257579    596.03763  0.033651628  0.034021077            6 
 1477000    1.0134567   -6.2250172    596.31715  0.033644614  0.034012712            8 
 1478000   0.98604121   -6.2175558    598.47087  0.033743283  0.034004377            3 
 1479000    1.0205083   -6.2537002    596.84053  0.033628608  0.033996157            7 
 1480000   0.99790802    -6.260442    597.94967  0.033668337  0.033987807            4 
 1481000     1.000021   -6.2358509    598.84899  0.033696207   0.03397946            5 
 1482000    1.0069843   -6.2633177    597.98002  0.033624608  0.033971159            2 
 1483000    1.0009896   -6.2551911    598.81112  0.033648636  0.033962835            3 
 1484000    1.0116938   -6.2542687    596.98015  0.033523144  0.033954457            5 
 1485000    1.0381367   -6.2674294    598.46127  0.033583685  0.033946006            7 
 1486000    1.0088177   -6.2224687    598.38564  0.033556844  0.033937483            5 
 1487000   0.99551591   -6.2491494    597.94052  0.033509332  0.033928914           15 
 1488000    1.0091015   -6.2612043    598.01287  0.033490864  0.033920399            5 
 1489000     1.010611   -6.2565275    599.18997   0.03353425  0.033911745            4 
 1490000    1.0090888   -6.2458945    599.86788  0.033549657  0.033903337            5 
 1491000    1.0130169   -6.2315064    599.41048  0.033501592  0.033894715            4 
 1492000    1.0146449   -6.2469702     598.8103  0.033445615  0.033886263            4 
 1493000    1.0160062   -6.2802505      598.446   0.03340288  0.033877504            8 
 1494000    1.0311294    -6.243323     600.7095  0.033506777  0.033869013            6 
 1495000    1.0183946    -6.247844    600.93779   0.03349709  0.033860408            5 
 1496000    1.0239823   -6.2317966    601.13938  0.033485928  0.033851893            5 
 1497000   0.99130385   -6.2018172    601.05397  0.033458805  0.033843345           14 
 1498000    1.0063232   -6.2631202    601.59481  0.033466556  0.033834828            7 
 1499000    1.0242263   -6.2316773     600.4081  0.033378258  0.033826168            6 
 1500000    1.0010727   -6.2242745    601.62634  0.033423685  0.033817518            5 
 1501000    1.0113834   -6.2463299    601.94171  0.033418927  0.033809033            4 
 1502000    1.0181088   -6.2375577    602.23499  0.033412949  0.033800685            5 
 1503000    1.0170142   -6.2461648     603.4573  0.033458489  0.033792096            7 
 1504000    1.0241035   -6.2339126    602.92694  0.033406856   0.03378363            4 
 1505000   0.98924545   -6.2601611    603.09808  0.033394135  0.033775294            6 
 1506000   0.99639145   -6.2203935    602.52516  0.033340259  0.033766952            5 
 1507000    1.0153912   -6.2842129    602.03894  0.033291249  0.033758473           11 
 1508000    1.0155407   -6.2719176    603.85862  0.033369729  0.033750016           11 
 1509000    1.0306279   -6.2667024     604.9214  0.033406307  0.033741528            4 
 1510000    1.0308038   -6.2820487    604.88493   0.03338217  0.033732964            4 
 1511000    1.0017737   -6.2703852    603.25395  0.033270127  0.033724304           10 
 1512000    1.0406086   -6.2768062    604.31449  0.033306574  0.033715785            6 
 1513000   0.99546919   -6.2659943    605.57065  0.033353748  0.033707221           11 
 1514000    1.0364937   -6.2602824    605.31528  0.033317662   0.03369881            9 
 1515000    1.0166536   -6.2874736    606.49841  0.033360749  0.033690343            4 
 1516000     1.009057   -6.2847378    603.76541  0.033188512  0.033681689            9 
 1517000    1.0158879    -6.292792     605.3029  0.033251093  0.033673019            9 
 1518000   0.99171572   -6.2048773    605.66295  0.033248954  0.033664431            6 
 1519000    1.0046876   -6.2245621    606.60531  0.033278764  0.033656006            7 
 1520000    1.0236184   -6.2604817    607.35243   0.03329783  0.033647687            6 
 1521000    1.0080129   -6.2846941    605.85747  0.033194032  0.033639196            7 
 1522000     1.005044   -6.2417062    608.36246  0.033309377  0.033630785            8 
 1523000    1.0061296   -6.2285295     608.2007  0.033278655  0.033622397            3 
 1524000    1.0047629   -6.2763014    608.74078  0.033286351   0.03361394            4 
 1525000     1.017924   -6.2471435      609.137  0.033286175  0.033605555            7 
 1526000    1.0002314   -6.2609256    606.45035  0.033117647  0.033597103            6 
 1527000    1.0042805   -6.2667867    609.90924  0.033284722  0.033588648           11 
 1528000   0.99011233   -6.2709611    608.18779  0.033169055   0.03358023            4 
 1529000    1.0042185   -6.2728919    609.08625  0.033196329  0.033571699           10 
 1530000    1.0099327    -6.252786    609.54373  0.033199549  0.033563326            7 
 1531000    1.0210539    -6.251766    610.09488  0.033207864  0.033554949           10 
 1532000   0.98954544     -6.26093    610.94955  0.033232678  0.033546634            6 
 1533000   0.98427527   -6.2561511    611.25306  0.033227498  0.033538075            6 
 1534000    1.0055283    -6.209371    612.90532  0.033295595  0.033529771            9 
 1535000   0.98988157   -6.2832824    610.57766  0.033147538  0.033521486            8 
 1536000   0.99642968   -6.2276317    610.41597  0.033117186  0.033513108           13 
 1537000    1.0123856    -6.277061    609.88732  0.033066977   0.03350463            7 
 1538000    1.0005752   -6.3061302    611.42772   0.03312894  0.033496069            6 
 1539000    1.0292446   -6.2533551    612.42434  0.033161378  0.033487684            5 
 1540000   0.99101438   -6.2620306    612.41961  0.033139589  0.033479344            7 
 1541000    1.0121516   -6.2675519    613.09622  0.033154673   0.03347085            9 
 1542000     1.015311   -6.2436497    611.79184  0.033062681  0.033462404            5 
 1543000    1.0162293    -6.237686    615.48318  0.033240612  0.033454011            5 
 1544000    1.0233793   -6.2835599    611.80375  0.033020496   0.03344566            6 
 1545000    1.0311769   -6.2994384    613.91583  0.033113044  0.033437369            5 
 1546000    1.0164317   -6.2714493    614.77399  0.033137882  0.033429156            3 
 1547000    1.0077838   -6.2578101    615.15818  0.033137157    0.0334209            5 
 1548000    1.0133879   -6.2317162    615.00513  0.033107511  0.033412625            9 
 1549000   0.99207062   -6.2583404    615.04693  0.033088386  0.033404309            9 
 1550000    1.0049784    -6.303892    615.41028  0.033086574  0.033395889           12 
 1551000      1.03319   -6.2538639    617.04136  0.033152878   0.03338763            6 
 1552000    1.0167516   -6.2707483    616.44515  0.033099503  0.033379508            4 
 1553000   0.97576734   -6.2774619    617.99669  0.033161445  0.033371326            8 
 1554000    1.0086443   -6.2924254    616.02946  0.033034613  0.033363233           12 
 1555000   0.99219649   -6.2642578    616.14939  0.033019796  0.033355007            8 
 1556000    1.0097218   -6.2619393    618.34194  0.033115999  0.033346859            6 
 1557000    1.0034732   -6.2960033    618.76928  0.033117602  0.033338704            4 
 1558000    1.0191221   -6.2608304    618.17716  0.033064675   0.03333064            8 
 1559000    1.0026395   -6.2718675    617.33863  0.032998644  0.033322511            4 
 1560000    1.0040796   -6.2530851    617.80819  0.033002574  0.033314348            4 
 1561000    0.9934662   -6.2640254    619.12275   0.03305161  0.033306212            4 
 1562000    1.0073597   -6.2364953     620.4725   0.03310246  0.033298068           11 
 1563000   0.99426881   -6.2497978    619.98397  0.033055234  0.033289955            5 
 1564000    1.0012263   -6.2596762      619.365  0.033001119  0.033281736            7 
 1565000    0.9924537   -6.2494768    620.52782   0.03304195  0.033273507            4 
 1566000    1.0242877   -6.2741695    618.17785  0.032895799  0.033265281            8 
 1567000    1.0241526   -6.2392284    620.99219  0.033024473  0.033256922            4 
 1568000    1.0031946   -6.2539408    620.50009  0.032977258  0.033248747            4 
 1569000   0.99216926   -6.2868328    622.30962  0.033052349  0.033240484            5 
 1570000   0.99904611    -6.245117    621.44658  0.032985487  0.033232357            7 
 1571000    0.9994691   -6.2676747    618.99455  0.032834423  0.033224203            3 
 1572000   0.99631116   -6.2285336    623.17137  0.033034954  0.033216129           10 
 1573000   0.99878185   -6.2746816    621.53644  0.032927338  0.033208074            5 
 1574000    1.0069544    -6.296478    621.45637   0.03290218   0.03319997            3 
 1575000    1.0137697      -6.2889    621.65229  0.032891656  0.033191738           13 
 1576000   0.98896841   -6.2862704    621.87723  0.032882679  0.033183651            9 
 1577000    0.9874715   -6.2529443    623.03487  0.032923001  0.033175565           11 
 1578000    1.0272923   -6.2453994    622.82136  0.032890862  0.033167433           13 
 1579000    1.0173936   -6.2724335    622.94033   0.03287631  0.033159239           13 
 1580000    1.0220889   -6.2580346    624.20744  0.032922333   0.03315107            7 
 1581000   0.97529871   -6.2580573    625.21051   0.03295438  0.033142957            5 
 1582000    1.0097893   -6.2857119     623.6891  0.032853408  0.033134597            8 
 1583000   0.98327945   -6.2524646    624.76909  0.032889508  0.033126438           11 
 1584000    0.9851888   -6.2768171    623.68777  0.032811857  0.033118248            3 
 1585000   0.99906599   -6.2645323    625.77196  0.032900734  0.033110006            5 
 1586000    1.0027915   -6.2737556     623.1258  0.032740952  0.033101793            6 
 1587000   0.99946367   -6.2487686    623.57436  0.032743875  0.033093384            5 
 1588000   0.98395686   -6.2651168    625.70136  0.032834874  0.033085092            6 
 1589000   0.99956651   -6.2500833    626.33367  0.032847371   0.03307705            4 
 1590000    1.0165439   -6.2881413     626.3945    0.0328299  0.033068877            7 
 1591000    1.0151498   -6.2867256    626.47623  0.032813547  0.033060868           11 
 1592000   0.96897811   -6.2944972    625.84681  0.032759988  0.033052895           11 
 1593000    1.0230322   -6.2797374    631.29479  0.033024419   0.03304499            3 
 1594000    1.0092414   -6.2877185    629.62153  0.032916224  0.033037148           10 
 1595000    1.0085522   -6.2904556    627.73417  0.032796978  0.033029163            3 
 1596000   0.99587287   -6.2757042    629.52412  0.032869889  0.033021165           19 
 1597000    1.0178652    -6.256071    629.76206  0.032861723  0.033013255            5 
 1598000    0.9811111   -6.2472867    630.68892  0.032889493   0.03300548            5 
 1599000   0.98760236    -6.287226    628.11729  0.032734902  0.032997712            7 
 1600000   0.99676946    -6.286067    627.21589  0.032667494   0.03298983            8 
 1601000   0.99566995   -6.2883338    630.89919  0.032838809  0.032982016            7 
 1602000   0.98786888   -6.3052733    628.70971  0.032704417  0.032974223            4 
 1603000   0.99648342   -6.2936905    629.86008  0.032743818  0.032966332            4 
 1604000    1.0166216   -6.3045124    629.57229  0.032708452  0.032958463            6 
 1605000   0.99451062   -6.2492189    630.15797  0.032718482  0.032950661            6 
 1606000   0.99281228   -6.2795889    630.79432  0.032731129  0.032942716            5 
 1607000   0.98199251   -6.3127333    629.52743  0.032645065  0.032934785           11 
 1608000    1.0024216    -6.269289     630.7606  0.032688671  0.032926891            9 
 1609000    1.0048019   -6.2520604    631.56665  0.032710102  0.032918899            5 
 1610000   0.98602766   -6.2873428    630.68623  0.032644215  0.032910866           16 
 1611000   0.99006191   -6.2614532    632.02725   0.03269332  0.032902876           15 
 1612000   0.97587085   -6.3029375    632.71645  0.032708667  0.032894941            6 
 1613000   0.99188795   -6.2906248    633.75525  0.032742057  0.032887018            6 
 1614000   0.96669259   -6.2782751    633.14136  0.032690074  0.032879158           15 
 1615000   0.97705204   -6.2841589    633.18371  0.032672018  0.032871237            5 
 1616000   0.97740806   -6.3095048    633.71306  0.032679098  0.032863361            9 
 1617000   0.96624645    -6.271718    635.28176  0.032739732  0.032855548            3 
 1618000   0.99622147    -6.254289    634.70445  0.032689764  0.032847764            6 
 1619000   0.99660298   -6.2863618    633.20957  0.032592628  0.032839937           11 
 1620000   0.98418395   -6.3191565    634.07618  0.032617087  0.032832059            4 
 1621000   0.97662913   -6.3016963    634.40509  0.032613875   0.03282418            9 
 1622000   0.98171553   -6.2970721     635.5142   0.03265075   0.03281634            8 
 1623000   0.97424448   -6.2570138    635.57395    0.0326337  0.032808623           15 
 1624000    1.0031646   -6.2704124     636.8725  0.032680239  0.032800912            5 
 1625000   0.97560663   -6.2620224    637.71607  0.032703388    0.0327932           29 
 1626000    1.0071468    -6.281686    636.65895  0.032629097  0.032785443            7 
 1627000   0.98629611   -6.3217396    635.20895  0.032534775  0.032777607            8 
 1628000   0.99289454   -6.2829173    637.30849  0.032622261  0.032769694            6 
 1629000   0.97750564   -6.3299546    638.01374  0.032638313  0.032761731            6 
 1630000    1.0009221    -6.295831    636.65523  0.032548836  0.032753919           10 
 1631000    1.0032217   -6.3118881    637.73059  0.032583823  0.032746111           10 
 1632000   0.97234034   -6.2909964    637.25345  0.032539494  0.032738357            7 
 1633000    0.9946352   -6.3303017    639.19125  0.032618455  0.032730505            6 
 1634000   0.98009879   -6.3012434     638.6009  0.032568385  0.032722663            7 
 1635000   0.98302334    -6.290396    639.42641  0.032590541  0.032715137            6 
 1636000   0.99395886   -6.3091923    641.03716  0.032652667  0.032707563            6 
 1637000   0.99563569   -6.3058436    640.78983   0.03262013  0.032699989            9 
 1638000    0.9815578   -6.2938562    639.56908  0.032538109  0.032692467           10 
 1639000   0.99398077   -6.2926738    642.99917  0.032692657  0.032684964            6 
 1640000   0.99514254   -6.3171621    640.68286  0.032555024  0.032677429           23 
 1641000     1.017289   -6.2874999      641.225  0.032562716  0.032669859           13 
 1642000    1.0084016   -6.2776465    641.45637  0.032554627  0.032662229            6 
 1643000   0.99370679   -6.3045154    642.36886  0.032581095  0.032654649            6 
 1644000   0.97267739   -6.2938779    639.74762  0.032428408  0.032647039           12 
 1645000   0.98119939   -6.2956847    641.90691   0.03251808  0.032639413            7 
 1646000   0.99063622   -6.3247817    643.18757  0.032563162   0.03263182            6 
 1647000   0.98217937     -6.27031    642.53138  0.032510189  0.032624175            5 
 1648000   0.98168031   -6.2789353    645.13746  0.032622242  0.032616703            3 
 1649000   0.97721185   -6.2720175    644.04213  0.032547106  0.032609215            2 
 1650000   0.98100829    -6.313033    642.21238  0.032434969  0.032601618            6 
 1651000    0.9833275   -6.2737254    644.12251  0.032511736  0.032593992           12 
 1652000    0.9863669   -6.3262658    642.59584  0.032415045  0.032586293            9 
 1653000   0.97307046   -6.2879916    643.65798  0.032448981  0.032578601            8 
 1654000   0.98377709   -6.3048264    644.49914  0.032471742  0.032570827           11 
 1655000   0.98728065   -6.2814555     646.0376  0.032529587  0.032563139           11 
 1656000   0.98584586   -6.2862961    645.01183  0.032458325  0.032555466            6 
 1657000   0.97896388    -6.306292      642.707  0.032322822  0.032547611            8 
 1658000   0.99035396   -6.2986096      643.974  0.032367008  0.032539759            4 
 1659000    1.0128292   -6.3090455    642.58587  0.032277771  0.032531928            7 
 1660000   0.99298927   -6.3209644    644.96461  0.032377741  0.032524196           10 
 1661000   0.98480367   -6.3037008    646.61617  0.032441108  0.032516482            3 
 1662000   0.98566434   -6.2977621    646.03135  0.032392266  0.032508795            8 
 1663000   0.98773085   -6.2944332    647.27447  0.032435081  0.032501128            7 
 1664000    0.9931809   -6.3092268    645.68369  0.032335922  0.032493373            5 
 1665000   0.98360135   -6.2779642    645.71195  0.032317916  0.032485642            9 
 1666000    1.0102883    -6.280621    646.50004  0.032337937  0.032477995           16 
 1667000   0.99402356   -6.3307554     647.4662  0.032366836   0.03247045            6 
 1668000   0.99050082   -6.3401027    647.92223  0.032370215  0.032462831            4 
 1669000   0.98392306   -6.3084444    647.81474  0.032345454  0.032455169            5 
 1670000   0.98235538    -6.308681     647.8244  0.032326567  0.032447591            8 
 1671000    0.9878259   -6.2800089    648.53214  0.032342516  0.032439973            4 
 1672000   0.97827938   -6.2960531    647.77462  0.032285418  0.032432367           24 
 1673000   0.97226271   -6.2852953    651.25145  0.032439303  0.032424726            4 
 1674000   0.97017697   -6.3189867    650.11486  0.032363344  0.032417112            5 
 1675000    1.0037381   -6.3015066    649.36117  0.032306526  0.032409451            6 
 1676000   0.97588171   -6.3371567    649.14932  0.032276716  0.032401822           13 
 1677000   0.98369159   -6.2829977    649.48473  0.032274137  0.032394241            7 
 1678000   0.98175708   -6.2916267    651.30664  0.032345383  0.032386739            5 
 1679000   0.98444559   -6.3091597     650.6058  0.032291334  0.032379212            6 
 1680000   0.98521573   -6.2949104    651.26273  0.032304699  0.032371691            5 
 1681000   0.95787234   -6.3086956    651.21971  0.032283349  0.032364189            4 
 1682000   0.97927079   -6.3037013    652.51192  0.032328177  0.032356725            6 
 1683000   0.98893396   -6.3091745    653.10324  0.032338247  0.032349372            7 
 1684000   0.98855121   -6.3255078    651.96291  0.032262614  0.032342021           10 
 1685000    1.0077487   -6.3062846    652.80136  0.032284934  0.032334519            6 
 1686000    1.0061766   -6.2676652    653.49854  0.032300244  0.032327129            6 
 1687000   0.96007037   -6.2820957    652.93826  0.032253421  0.032319773            7 
 1688000   0.98564696   -6.3370369    652.35647  0.032205592  0.032312439           10 
 1689000   0.98939248    -6.320586    651.84694  0.032161384  0.032304972            4 
 1690000   0.98943318   -6.3154466    653.57551  0.032227589   0.03229749            5 
 1691000   0.98230518   -6.3100065    653.28812  0.032194368   0.03228994           12 
 1692000   0.95731191   -6.2814862    653.02801   0.03216253  0.032282453            7 
 1693000    0.9800864   -6.3013571     652.8118   0.03213289  0.032274902            8 
 1694000    0.9820813   -6.3208905    652.03972   0.03207594  0.032267268            6 
 1695000   0.98327345    -6.300873    654.24973   0.03216567  0.032259607            7 
 1696000   0.96781778   -6.2825194    654.62357  0.032165073  0.032251849            8 
 1697000   0.95812678   -6.3294974    655.07745  0.032168408  0.032244207            3 
 1698000   0.97922204   -6.3366337    653.75066  0.032084347  0.032236544           14 
 1699000   0.99001976   -6.3278425    654.19934   0.03208747  0.032228836           12 
 1700000   0.97836171   -6.3215168    653.16968  0.032018122  0.032221212           13 
 1701000   0.96797801   -6.2865487    654.79104   0.03207873  0.032213574            8 
 1702000   0.96818236   -6.3070875      655.848  0.032111633  0.032206061            6 
 1703000   0.99434069   -6.2802883    658.34405  0.032214917  0.032198642           13 
 1704000   0.95940077   -6.3092048    656.83403  0.032122165  0.032191248            7 
 1705000   0.97134996   -6.3184899     656.8599   0.03210459  0.032183772            5 
 1706000   0.98161696   -6.3328093    656.66848  0.032076421  0.032176267           15 
 1707000    0.9989184   -6.2856722     658.1658  0.032130726  0.032168731            4 
 1708000   0.98116395   -6.3181461    658.38315  0.032122519  0.032161327           15 
 1709000   0.97048078   -6.2881091    659.11837  0.032139573  0.032153912           13 
 1710000   0.98016031   -6.3137564    657.43571  0.032038778  0.032146512            4 
 1711000   0.96743965   -6.3046818     659.5332  0.032122209  0.032139151           10 
 1712000   0.98596221   -6.3194392    659.33962  0.032094024  0.032131754            7 
 1713000   0.97659196    -6.305954     660.7088  0.032141895  0.032124418            5 
 1714000   0.97002614   -6.3079737    659.91224  0.032084414  0.032116924            4 
 1715000   0.97634102   -6.3553719    659.45852   0.03204366  0.032109565            9 
 1716000   0.97383687    -6.317553    658.71809  0.031989029  0.032102055            6 
 1717000   0.97465655   -6.3282063     659.1958  0.031993584  0.032094619            7 
 1718000   0.98521025   -6.3287732    659.81927  0.032005203  0.032087069            7 
 1719000   0.98927239   -6.3358048    660.14197  0.032002229  0.032079654            4 
 1720000    1.0007834   -6.2785268    661.04772  0.032027506   0.03207227            4 
 1721000    0.9803476   -6.3235354    660.77764  0.031995818  0.032064769           10 
 1722000   0.95292849   -6.3393339    660.57217  0.031967294  0.032057167            8 
 1723000   0.97214478   -6.3200471    660.23303  0.031932338  0.032049583            7 
 1724000   0.96815475   -6.3176547    661.16085  0.031958665  0.032042157            9 
 1725000   0.96162569   -6.3287601    661.23386  0.031943665  0.032034556            6 
 1726000   0.96059681    -6.285218    662.19838  0.031971726  0.032027093            4 
 1727000   0.97703861   -6.3277477    660.86355  0.031888803  0.032019521            5 
 1728000   0.98608014    -6.282132    661.38159  0.031895331  0.032012053            9 
 1729000   0.96124326   -6.3220066    661.08455  0.031862567  0.032004595            9 
 1730000   0.97163829   -6.2976234    661.79423  0.031878335  0.031996983            4 
 1731000   0.98327389   -6.2961689    663.98496  0.031965384  0.031989458            8 
 1732000   0.99231638   -6.3391829    662.21608   0.03186182  0.031981836           12 
 1733000   0.97240186   -6.2914664    663.02168  0.031882173  0.031974241            7 
 1734000    0.9699415   -6.3175447    663.85736  0.031903949  0.031966718           11 
 1735000   0.99052189   -6.3167585    665.99569  0.031988266  0.031959343            5 
 1736000   0.95868756   -6.2967842    665.29561  0.031936233  0.031951849            9 
 1737000   0.95762391   -6.3306435    664.15244  0.031863003  0.031944461            5 
 1738000   0.98648701   -6.2880242    664.92027  0.031881486  0.031936952            8 
 1739000   0.97102838   -6.2902102    665.01784  0.031867828  0.031929551            4 
 1740000   0.96797316   -6.3175775    666.08552  0.031900648  0.031922183            6 
 1741000   0.97628669   -6.2794261    665.50246  0.031854416  0.031914766            8 
 1742000    0.9786645   -6.3023876    666.63333  0.031890228  0.031907282           15 
 1743000   0.98058302   -6.3156586    664.99938  0.031793813  0.031899693           25 
 1744000   0.99352463   -6.3258723    665.24743  0.031787435  0.031892135            8 
 1745000   0.95943585   -6.3486772    665.45863  0.031779304  0.031884619            6 
 1746000   0.96161274   -6.3054937    665.34022  0.031755452  0.031877159            8 
 1747000   0.96548412   -6.3634755    664.86859  0.031714777  0.031869554           14 
 1748000    0.9719794   -6.3555862    668.18251   0.03185462  0.031862056           19 
 1749000   0.98048328   -6.3149516     667.9702  0.031826291  0.031854778           10 
 1750000   0.99389616   -6.3497537    668.47428  0.031832108  0.031847433            8 
 1751000   0.96064048    -6.305141    667.96706   0.03178979  0.031840115           10 
 1752000   0.97305071   -6.3008149    668.94648   0.03181823  0.031832825            6 
 1753000   0.97363803   -6.3100662    670.19169  0.031859274  0.031825439            6 
 1754000   0.97978692   -6.3298817    669.55918   0.03181106  0.031818222            7 
 1755000   0.97165616   -6.2944429    671.46783  0.031883563  0.031810978            5 
 1756000   0.96304468   -6.3571675    669.87148  0.031789649  0.031803726            9 
 1757000   0.99419332    -6.349152    669.32395  0.031745587  0.031796424            8 
 1758000   0.94868115   -6.3357229    669.87825  0.031753804  0.031789086            5 
 1759000   0.97823324   -6.3231808     670.7488  0.031776994  0.031781697            5 
 1760000   0.97393432   -6.2883864    670.74758  0.031758882  0.031774346            3 
 1761000    0.9563896   -6.3312583    670.73794  0.031740391  0.031767014            4 
 1762000   0.95942778   -6.3287356    667.76764  0.031581897  0.031759584            8 
 1763000   0.96244786    -6.326871    670.54084  0.031695067  0.031752057            9 
 1764000   0.96238107   -6.3039013    670.84173  0.031691314  0.031744637           10 
 1765000   0.97337595    -6.320345    670.01709  0.031634424  0.031737259            7 
 1766000   0.96665565   -6.2977023    671.20312  0.031672476  0.031729901            5 
 1767000   0.96749285   -6.3230287    671.51345  0.031669187  0.031722546            6 
 1768000     0.980454   -6.3046311    672.18601  0.031682976  0.031715278            9 
 1769000   0.96626027   -6.3162513    674.23038  0.031761371  0.031707975            5 
 1770000   0.97451163   -6.3379909    673.10469  0.031690428   0.03170074            8 
 1771000   0.98607712    -6.324936    673.39436  0.031686164  0.031693379            8 
 1772000   0.96126319   -6.3284093    674.90523  0.031739335  0.031686008            3 
 1773000   0.99101409   -6.2756999    675.65682   0.03175676  0.031678804            5 
 1774000   0.95947671   -6.3336461    674.29056  0.031674679  0.031671551           13 
 1775000   0.97558623   -6.3385237    671.86607  0.031543008  0.031664188           18 
 1776000   0.96674414    -6.343332    675.00866  0.031672704  0.031656849           10 
 1777000   0.97483389   -6.3141569    674.97546  0.031653323  0.031649611            6 
 1778000   0.98203617   -6.3411975    676.68354  0.031715577  0.031642405            5 
 1779000   0.96197041   -6.2836152    676.23506   0.03167674   0.03163522           11 
 1780000   0.98233572   -6.3306011    675.20201  0.031610581  0.031628174            8 
 1781000    0.9663324   -6.3458512    676.07178  0.031633529  0.031621012            5 
 1782000   0.96638031   -6.3541222    676.36347  0.031629418  0.031613851            7 
 1783000   0.94358692   -6.3148495    678.21169   0.03169806  0.031606777            8 
 1784000   0.97644461    -6.300421    677.20339  0.031633193  0.031599678            6 
 1785000   0.95113148   -6.3297222    677.35344  0.031622476  0.031592603            4 
 1786000   0.96364953   -6.3303856    679.24375  0.031692971  0.031585567            8 
 1787000   0.97541092   -6.3367652    678.63178  0.031646697  0.031578489           10 
 1788000   0.98489375   -6.3543622    678.50419  0.031623051   0.03157137            9 
 1789000   0.96242641   -6.3590801    677.79031  0.031572122  0.031564255            6 
 1790000   0.97130034   -6.3221763    678.69814  0.031596748  0.031557186           10 
 1791000   0.98064871   -6.3307098    679.19397  0.031602176  0.031550032            5 
 1792000   0.96982633   -6.3354049     679.5055  0.031599028   0.03154295            6 
 1793000   0.95056399   -6.3631623    679.43851  0.031578291  0.031535776            8 
 1794000   0.94189552   -6.3296201    678.46337  0.031515392  0.031528594           18 
 1795000   0.97344984   -6.3143304    680.34872  0.031585363  0.031521331            7 
 1796000   0.98716095   -6.3056747    679.97341  0.031550362  0.031514186            4 
 1797000   0.96241591   -6.3580856    678.95146  0.031485414  0.031506998            5 
 1798000   0.95880754   -6.3576855    680.48073  0.031538781  0.031499804            5 
 1799000    0.9710546   -6.3352233    680.44875  0.031519768  0.031492677            7 
 1800000   0.97405487   -6.3444449    679.87531  0.031475709  0.031485521            7 
 1801000   0.95972942   -6.3339009    679.55592  0.031443454  0.031478316            6 
 1802000   0.95933246   -6.3161073    680.86634  0.031486605  0.031471218            8 
 1803000   0.97619612   -6.3477702    683.30998  0.031582084  0.031464183            7 
 1804000   0.96646842    -6.343425    682.37101  0.031521203  0.031457081            8 
 1805000   0.96404698   -6.3543698    682.08706  0.031490631  0.031449956            5 
 1806000   0.95261306   -6.3166995    682.24994   0.03148071    0.0314429           11 
 1807000   0.95446521   -6.3657784    681.90442  0.031447354  0.031435852            8 
 1808000   0.96552112   -6.3473174     684.1979   0.03153567  0.031428767            7 
 1809000   0.96735884    -6.348374     684.4262  0.031528754  0.031421818            9 
 1810000   0.96734084   -6.3587229     684.2996  0.031505506  0.031414836           17 
 1811000   0.96734828   -6.3219873     684.1954  0.031483315  0.031407829            6 
 1812000   0.95545395   -6.3516757    685.11769  0.031508356  0.031400734            6 
 1813000   0.96296031   -6.3468427    683.76401  0.031428756   0.03139367           15 
 1814000   0.98742007   -6.3554668    685.24008  0.031479239  0.031386623            8 
 1815000   0.94482567   -6.3594137    683.98269  0.031404164  0.031379515            3 
 1816000   0.95557637   -6.3302137    685.27166   0.03144602  0.031372498            5 
 1817000   0.95402248   -6.3156169    686.50683  0.031485362  0.031365405           14 
 1818000    0.9732776   -6.3507859    684.49133  0.031375657  0.031358381            6 
 1819000   0.97651076   -6.3151952    685.19071  0.031390448  0.031351336            6 
 1820000    0.9415821   -6.3603121    684.61578  0.031346876   0.03134426           13 
 1821000   0.97245283   -6.3479419    686.57428  0.031419288  0.031337128           12 
 1822000   0.96567093   -6.3485625    684.41541  0.031303303  0.031329991            6 
 1823000   0.95818648   -6.3578021    684.86598  0.031306728  0.031322884            9 
 1824000   0.96657705   -6.3243269    686.30219   0.03135518  0.031315776            6 
 1825000   0.95845866   -6.3233112    687.51867  0.031393547  0.031308727            7 
 1826000   0.94471594   -6.3364872    685.25649  0.031273115  0.031301613            9 
 1827000   0.96859785   -6.3450458     685.3439  0.031259985  0.031294425            5 
 1828000    0.9472907   -6.3315009    685.96673  0.031271277  0.031287119            7 
 1829000   0.95603772   -6.3370441    686.90945  0.031297132  0.031279864            7 
 1830000   0.96884485   -6.3472711    685.23085  0.031203591  0.031272597           13 
 1831000   0.94641046   -6.3298114    687.81022  0.031303942  0.031265406            7 
 1832000   0.94388439   -6.3358062    686.93626  0.031247101  0.031258189           12 
 1833000   0.95397537   -6.3674802    686.36057  0.031203881  0.031250915            4 
 1834000   0.98126977   -6.3436874    686.93494  0.031212965  0.031243667            7 
 1835000   0.93774316   -6.3300906    688.43978  0.031264295   0.03123645            4 
 1836000   0.94237315   -6.3491446    688.36764  0.031243992  0.031229226           10 
 1837000   0.96663663   -6.3352012    687.51474  0.031188293  0.031222007            7 
 1838000     0.942408   -6.3776297    687.58276  0.031174409  0.031214756            5 
 1839000   0.96638215   -6.3585482    688.69684  0.031207941  0.031207485            6 
 1840000   0.97444606   -6.3481015    689.63429  0.031233437  0.031200307            7 
 1841000   0.94733034   -6.3463538    688.83137  0.031180127  0.031193099            8 
 1842000   0.98514248   -6.3489142    689.88613  0.031210918  0.031185884           13 
 1843000   0.95219522   -6.3573882    689.16126  0.031161207  0.031178678            9 
 1844000   0.96320306   -6.3473421    689.87524  0.031176575  0.031171366            4 
 1845000   0.96247219   -6.3464715    689.11675  0.031125418    0.0311641           13 
 1846000   0.94643168    -6.303601    690.51077  0.031171486  0.031156818           11 
 1847000   0.96018059   -6.3381119    689.88092  0.031126192  0.031149524           11 
 1848000   0.95775537   -6.3573493    688.24006  0.031035356  0.031142164            3 
 1849000   0.97636582   -6.3869138    689.52816  0.031076625  0.031134726           14 
 1850000   0.94124373   -6.3555277    689.52877  0.031059855  0.031127239           12 
 1851000   0.94476182    -6.376829    688.97167  0.031017993  0.031119814            9 
 1852000    0.9356044   -6.3502587    689.62234  0.031030523  0.031112379            8 
 1853000   0.94406258   -6.3803883    689.85516  0.031024247   0.03110492            7 
 1854000   0.96640224   -6.3472346    693.17295  0.031156641  0.031097438            6 
 1855000   0.95040532   -6.3456361    693.02466  0.031133183  0.031089991            6 
 1856000   0.96165876   -6.3503137    691.47674  0.031046908  0.031082522           22 
 1857000   0.94051152   -6.3649944    690.74764  0.030997471   0.03107509           15 
 1858000   0.93324698   -6.3579561    691.84002  0.031029782  0.031067746            8 
 1859000    0.9433119   -6.3740415     690.9994  0.030975408  0.031060412            8 
 1860000   0.95764191    -6.345283    691.70608  0.030990416  0.031053082            5 
 1861000   0.95192387   -6.3628368    692.02112   0.03098787  0.031045674           16 
 1862000   0.94465841    -6.325761    691.37668  0.030942386  0.031038211            3 
 1863000    0.9630075   -6.3514108    694.16387   0.03105045  0.031030817            6 
 1864000   0.92680688   -6.3983947    691.39461  0.030909988  0.031023317            6 
 1865000   0.95981898   -6.3503117    692.75916  0.030954386  0.031015779           10 
 1866000   0.93668899   -6.3598203    692.66341  0.030933521  0.031008222            6 
 1867000   0.93395513   -6.3764056     692.2208  0.030897197  0.031000738           10 
 1868000   0.96388318   -6.3656823    693.60747  0.030942517  0.030993215           10 
 1869000   0.96611185   -6.3808967    693.61127  0.030926131  0.030985794            5 
 1870000   0.96145517   -6.3547959    694.21594  0.030936539  0.030978352            9 
 1871000   0.96391523   -6.3918588    693.64621  0.030894629  0.030971025            6 
 1872000   0.96005102   -6.3835234    694.63221  0.030922018  0.030963606            9 
 1873000    0.9502565   -6.3794376    693.79244  0.030868146  0.030956165           11 
 1874000   0.95268294   -6.3287526    694.71318  0.030892617  0.030948781            7 
 1875000   0.96189584   -6.4022023    694.37726  0.030861212   0.03094141           10 
 1876000   0.95595107    -6.379009    695.92772  0.030913633   0.03093397            6 
 1877000   0.96463788   -6.3938036    693.78594  0.030802075  0.030926467           10 
 1878000   0.97366275   -6.3928144    695.23617  0.030850025  0.030919014            8 
 1879000   0.93451392   -6.3852096     695.7251  0.030855291  0.030911622           21 
 1880000   0.95213141   -6.3708751    695.65744  0.030835879  0.030904142           15 
 1881000   0.91956974   -6.3103316    697.61143  0.030906053  0.030896713           10 
 1882000   0.97432182   -6.3585166    697.12468  0.030868078  0.030889392           16 
 1883000   0.94980555   -6.3725144    696.97535  0.030845076  0.030882014            8 
 1884000   0.95494505   -6.3750084    697.69366  0.030860477  0.030874633            4 
 1885000   0.95816232   -6.3829275    697.47151  0.030834284  0.030867347            5 
 1886000   0.95363414   -6.3918007    696.44937  0.030772772  0.030859959            6 
 1887000    0.9525379   -6.3655068    700.05419  0.030915659   0.03085267           13 
 1888000   0.95861375   -6.3405835    699.22041  0.030862483  0.030845377            4 
 1889000   0.93924263    -6.391894    698.15937  0.030799337  0.030838036           15 
 1890000    0.9642433   -6.3899033    698.39531  0.030793444  0.030830779           14 
 1891000   0.96592909   -6.3853049    697.18208  0.030723695  0.030823484           12 
 1892000   0.93328779   -6.3741241    698.21333  0.030752877  0.030816189            8 
 1893000   0.93845566   -6.3780814    698.50227  0.030749351  0.030808827           16 
 1894000   0.96219578   -6.3521808    697.81924  0.030703064  0.030801468           22 
 1895000   0.94661993   -6.3560994    700.25866  0.030794137  0.030794025            7 
 1896000   0.95716249   -6.3798838    697.29374   0.03064758  0.030786656           22 
 1897000   0.97256629   -6.3420285     699.8021  0.030741614   0.03077923            8 
 1898000   0.95974217   -6.3875096     698.0336  0.030647769  0.030771823            8 
 1899000   0.94203748   -6.3533271    701.30068  0.030774999  0.030764404            5 
 1900000   0.94457266   -6.3580558    700.89815  0.030741147  0.030757008            4 
 1901000   0.94051813    -6.349327    700.81599  0.030721374  0.030749666            9 
 1902000   0.95083115   -6.4195978    700.65946  0.030698364  0.030742214            6 
 1903000   0.95568063   -6.3838041    699.76601  0.030643108  0.030734757            9 
 1904000   0.92973814   -6.3996875    700.23397  0.030647495  0.030727219           15 
 1905000   0.95517298   -6.3823209    700.58171  0.030646619  0.030719691            6 
 1906000   0.93590299   -6.3686408    700.61426  0.030631963  0.030712265            8 
 1907000   0.93235367   -6.3819763    701.79521  0.030667506  0.030704749           13 
 1908000   0.95030198   -6.3546143    699.85689  0.030566776  0.030697317           13 
 1909000   0.94838104   -6.4009244    700.59315  0.030582904  0.030689809           10 
 1910000   0.94448934   -6.3640394    702.21891  0.030637823  0.030682273           11 
 1911000   0.92724159   -6.3728683    700.73316  0.030557001  0.030674684            7 
 1912000   0.93480671    -6.362431    702.63474  0.030623899   0.03066712            7 
 1913000   0.94995288   -6.3776041    700.93604  0.030533893  0.030659535            3 
 1914000   0.94518196   -6.4048551    703.54294  0.030631441  0.030651958            4 
 1915000   0.96038473   -6.3521828    703.85477  0.030629015  0.030644455            7 
 1916000    0.9197844   -6.3714676    703.33534  0.030590437  0.030636877            8 
 1917000   0.91961499   -6.3890355    702.49827  0.030538092   0.03062934            4 
 1918000   0.94452951   -6.3536346    702.09458  0.030504631  0.030621797            7 
 1919000   0.95856359   -6.3659483    702.38047   0.03050115  0.030614208            4 
 1920000   0.94049379   -6.3361852    703.42539  0.030530616  0.030606629           13 
 1921000    0.9570236   -6.4004375     699.9638  0.030364558  0.030598841           12 
 1922000   0.92793567   -6.4023702    701.75749   0.03042653  0.030590994           10 
 1923000    0.9283502   -6.3661841    702.07885  0.030424634  0.030583256            5 
 1924000   0.95779442   -6.4056036    700.29288  0.030331466  0.030575498            5 
 1925000   0.93036123   -6.4023958    701.28224  0.030358538  0.030567668           11 
 1926000   0.94010382   -6.3835118    701.99348   0.03037355   0.03055985           12 
 1927000   0.94530024   -6.3878223    702.05636  0.030360507  0.030551971            6 
 1928000   0.93343241   -6.3675741    701.41988  0.030317249  0.030544004            7 
 1929000   0.94047132   -6.3873001    701.26277  0.030294746  0.030536101           16 
 1930000    0.9377527   -6.3572659    702.18785  0.030318992   0.03052819            6 
 1931000   0.96656278   -6.3659804     703.6841  0.030367862  0.030520388            5 
 1932000   0.95884884   -6.3673369     703.4227  0.030340869  0.030512509            6 
 1933000   0.95196497    -6.368852    703.17869  0.030314653  0.030504676            6 
 1934000   0.95137644   -6.3743591    705.00011  0.030377461   0.03049686            5 
 1935000   0.93719364   -6.3513103     705.2075  0.030370693  0.030489082           13 
 1936000   0.95140514   -6.3723183    705.69878  0.030376153  0.030481352            7 
 1937000   0.93324476   -6.3359168    705.58574  0.030355607  0.030473656            6 
 1938000   0.94130855   -6.3635003    705.88843   0.03035296  0.030465971            7 
 1939000   0.95820372   -6.3866986    706.34522  0.030356938  0.030458296            7 
 1940000   0.93335529   -6.3730264     706.9409  0.030366877  0.030450524           15 
 1941000   0.95067858   -6.3916315     705.4511   0.03028727  0.030442748           10 
 1942000   0.94984036   -6.3794978    706.85062  0.030331729  0.030435035            9 
 1943000   0.95398083    -6.347018    707.11454  0.030327438  0.030427365           11 
 1944000   0.95207377   -6.3516181    706.11919   0.03026917   0.03041972            5 
 1945000   0.93182764    -6.403467    707.76962   0.03032432  0.030412108            5 
 1946000   0.94768378   -6.3783484    707.24416  0.030286235  0.030404478           35 
 1947000    0.9390348    -6.381949    707.83111  0.030295802  0.030396753           15 
 1948000   0.94437491   -6.3875081     707.9433  0.030285049  0.030389025           11 
 1949000   0.93994684   -6.3905291    709.19915  0.030323206   0.03038134            6 
 1950000   0.93396453   -6.3933824    708.43145  0.030274848  0.030373682           10 
 1951000   0.94580462    -6.390941     708.3034  0.030253861  0.030366095            8 
 1952000   0.94661077    -6.377166     708.7878  0.030259042   0.03035854           14 
 1953000   0.93770967    -6.391141    709.32878  0.030266632   0.03035104            8 
 1954000   0.93577393   -6.3994884    710.01907  0.030280581  0.030343561           11 
 1955000   0.91163406   -6.4059427    710.13589  0.030270072  0.030336058           17 
 1956000   0.91812093   -6.4022373    709.42809  0.030224441  0.030328503           18 
 1957000   0.94558792   -6.3812796    709.62329  0.030217309  0.030320882            7 
 1958000   0.91822918   -6.4143997    710.45793  0.030237399  0.030313382           10 
 1959000   0.92868566   -6.3998076     710.3617  0.030217871  0.030305812            5 
 1960000   0.92126877   -6.3748185    709.74899  0.030176403  0.030298333           15 
 1961000   0.93148849   -6.3909458    711.42928  0.030232419   0.03029084            5 
 1962000    0.9700328   -6.3926704    709.95688  0.030154471  0.030283332           10 
 1963000   0.93940271   -6.3973203     710.3619  0.030156304  0.030275821           11 
 1964000    0.9606002   -6.3980023    711.62882  0.030194705    0.0302683            6 
 1965000   0.89697181   -6.3552824     711.5907  0.030177723   0.03026077            6 
 1966000   0.94591007   -6.3920109    713.83957  0.030257696  0.030253255            5 
 1967000   0.93258232   -6.3775924    712.15433  0.030170917   0.03024575            6 
 1968000   0.92995961   -6.3901129    714.74568  0.030265315  0.030238346            4 
 1969000   0.95614435   -6.4128226    712.70583  0.030163612  0.030230817            8 
 1970000    0.9445337    -6.354039    712.84993  0.030154396  0.030223292            5 
 1971000   0.95189801   -6.3858737    710.89833  0.030056584  0.030215756           13 
 1972000   0.94622816   -6.4000735    712.97963  0.030129295  0.030208203            8 
 1973000   0.90963683   -6.3661674    713.62517   0.03014129  0.030200702           12 
 1974000   0.93756364   -6.3959246    710.77221  0.030005581  0.030193171           10 
 1975000   0.94023423   -6.3866367    714.20388  0.030135185  0.030185669           18 
 1976000   0.94026588   -6.4025363     714.1314  0.030116877  0.030178182            5 
 1977000   0.91163538   -6.3839991    712.43143  0.030029988  0.030170652            3 
 1978000   0.93497579   -6.3886055    714.32244  0.030094474  0.030163171            6 
 1979000   0.93839734   -6.4119243    715.68485  0.030136637  0.030155648            6 
 1980000   0.93162949    -6.374159    714.30505  0.030063344  0.030148145            7 
 1981000   0.92679329   -6.3907244    713.32645  0.030007002  0.030140573           18 
 1982000   0.93440287   -6.3979437    717.79031  0.030179545  0.030133099            6 
 1983000    0.9227514   -6.3977271    715.63643  0.030073812  0.030125643           19 
 1984000   0.94012908   -6.3925871     715.4572  0.030051126  0.030118053            6 
 1985000   0.93810085   -6.3961498    716.45219  0.030077758  0.030110554            6 
 1986000   0.90634596   -6.3990056    717.17957  0.030093134  0.030103088           11 
 1987000   0.93255036    -6.374825    716.66115  0.030056247   0.03009555           10 
 1988000    0.9496492   -6.3951798    714.86439  0.029965811  0.030088037            5 
 1989000    0.9251319   -6.4044854    716.93667  0.030037568  0.030080668           10 
 1990000   0.93839583   -6.3932879    717.52938  0.030047294  0.030073274            7 
 1991000   0.93655885   -6.4133673    716.91351  0.030006425   0.03006584            5 
 1992000   0.92218965   -6.4096759    716.24639  0.029963454  0.030058348            9 
 1993000    0.9249881   -6.4248772    719.00145  0.030063616  0.030050779            8 
 1994000   0.94946133   -6.3933406    717.77908  0.029997454  0.030043202            7 
 1995000   0.91952285   -6.3608428    717.63658  0.029976465  0.030035742           12 
 1996000   0.92791748   -6.3860337     717.6559  0.029962254  0.030028245            8 
 1997000    0.9471493   -6.3812012     717.7664  0.029951861  0.030020772            9 
 1998000   0.92034254   -6.3662138    718.05707  0.029948994  0.030013307            8 
 1999000   0.94168848   -6.3949879     717.6643  0.029917638   0.03000581            7 
 2000000   0.92684933   -6.4355382    720.64877  0.030027032  0.029998324           16 
 2001000   0.91393763   -6.3788506    719.23539  0.029953165  0.029990806            8 
 2002000   0.93047598   -6.3970698    720.10247  0.029974295  0.029983275            9 
 2003000   0.93693691   -6.3926309    719.61264  0.029938951  0.029975781            8 
 2004000   0.93902837   -6.4083826      717.859  0.029851089  0.029968251            5 
 2005000   0.94084296   -6.4053526    720.51268  0.029946495  0.029960749            8 
 2006000   0.91977826   -6.4027244    719.31494  0.029881811  0.029953214            5 
 2007000    0.9221635   -6.3883937    720.18073   0.02990287  0.029945669           10 
 2008000   0.94072699   -6.4112856    719.17989  0.029846443  0.029938114           11 
 2009000   0.94167261   -6.4230408    721.29899  0.029919487  0.029930649            6 
 2010000    0.9356047   -6.3857646    722.51678   0.02995509  0.029923278           15 
 2011000   0.93439762   -6.3864339    720.47412  0.029855549  0.029915878            9 
 2012000   0.92618816   -6.3952587    720.80725  0.029854508  0.029908449            4 
 2013000   0.91712996   -6.3965518     719.9366  0.029803635  0.029901014            8 
 2014000   0.93110315   -6.3779603    722.95823  0.029913863  0.029893564            7 
 2015000   0.91947343    -6.409573    721.91748  0.029855975  0.029886074           14 
 2016000   0.96434791    -6.418578    719.06217  0.029723138  0.029878555            7 
 2017000   0.93302528   -6.3988561    721.95565  0.029827948  0.029871012            6 
 2018000   0.91002884   -6.4081189    722.77941  0.029847184  0.029863466            6 
 2019000   0.94833944   -6.3790631    720.92039  0.029755671  0.029855887            9 
 2020000   0.92571238   -6.3995575    721.82408  0.029778221   0.02984841            5 
 2021000   0.95377917   -6.4055165    721.26422  0.029740402  0.029840774            8 
 2022000   0.92204445   -6.4030226    723.31075  0.029810038  0.029833227            6 
 2023000   0.93883145   -6.4120596    720.39219  0.029675078  0.029825694           14 
 2024000   0.93438083   -6.3986738    722.60519  0.029751531  0.029818169            6 
 2025000   0.92981556   -6.4089531    723.88329  0.029789436  0.029810628            8 
 2026000   0.93519205   -6.4211233    722.46386  0.029716348   0.02980309            8 
 2027000   0.93915201   -6.3689547     724.6734  0.029792526  0.029795636           14 
 2028000   0.91491073   -6.4063151    721.87176  0.029662712  0.029788229            5 
 2029000   0.95657388    -6.397241    723.09504  0.029698334  0.029780756           10 
 2030000   0.92968386   -6.4227682    724.18212   0.02972833  0.029773316            8 
 2031000   0.92784038   -6.3855099    726.62537  0.029813941  0.029765909            9 
 2032000   0.94431048    -6.400697    724.13585  0.029697172  0.029758459            9 
 2033000   0.95038013   -6.4087816    724.31366  0.029689853  0.029751015           13 
 2034000   0.92821819   -6.3721427    726.45415  0.029762953  0.029743481            6 
 2035000   0.93937154   -6.4070268     722.5168  0.029587093   0.02973597            8 
 2036000    0.9257244   -6.4131807    724.67367  0.029660841  0.029728488           15 
 2037000    0.9216254   -6.3794884    726.18166  0.029707972  0.029721023            9 
 2038000   0.92902423   -6.3985908     725.0184  0.029645829   0.02971346           11 
 2039000   0.92765008   -6.4153559    724.61178  0.029614671  0.029705951            4 
 2040000    0.9267877   -6.4161251    725.88126  0.029652012  0.029698474            7 
 2041000   0.92641943    -6.384899    725.65775  0.029628358  0.029690986           11 
 2042000   0.92856561   -6.4149908    724.31448   0.02955903  0.029683516            9 
 2043000   0.89563606   -6.4133705    727.83416  0.029688128  0.029676014            7 
 2044000   0.93922275   -6.3833968    730.28244   0.02977342  0.029668519           10 
 2045000   0.92499682   -6.3914726    727.17293  0.029632149  0.029661099           17 
 2046000    0.9160714   -6.4202763    725.29907  0.029541344   0.02965365            9 
 2047000   0.90850163   -6.4055504    728.53492  0.029658644  0.029646172           10 
 2048000   0.92309584   -6.4305949    727.08245  0.029585061  0.029638723            9 
 2049000   0.92119831   -6.4148918    726.58631  0.029550444  0.029631183           12 
 2050000   0.92059524   -6.4572318    726.06325  0.029514766  0.029623635           10 
 2051000   0.90555181   -6.4054856    725.40333  0.029473563  0.029615996            7 
 2052000   0.92752364    -6.427426    727.91872  0.029561352  0.029608451            7 
 2053000   0.90600878   -6.4143704    727.79178    0.0295418   0.02960093            8 
 2054000    0.9213322   -6.4150467    726.38203  0.029470222  0.029593364            5 
 2055000   0.92821591     -6.42141     726.4212  0.029457469  0.029585846            8 
 2056000   0.92472343   -6.4343002    729.04989  0.029549688  0.029578272            7 
 2057000   0.93580091   -6.4190912    728.77356  0.029524127  0.029570753           13 
 2058000   0.91284022   -6.4183468    728.01715  0.029479152  0.029563207            9 
 2059000   0.91876169   -6.4394297    727.44372  0.029441627  0.029555552            6 
 2060000   0.92753562   -6.4029555    727.81776  0.029442466  0.029548035            8 
 2061000    0.9433904   -6.3987316     727.6427  0.029421102   0.02954046           14 
 2062000   0.91281375   -6.4450546    727.35253  0.029395107  0.029532861           10 
 2063000   0.92204887   -6.4095628     729.0818  0.029450711  0.029525227            9 
 2064000   0.93109959   -6.3908402     729.6725  0.029460291  0.029517619            8 
 2065000   0.92866135   -6.3964759    729.99546  0.029459058  0.029510124            6 
 2066000    0.9205541   -6.4014509    730.16612  0.029451683  0.029502603           13 
 2067000   0.93501056   -6.4359289    727.03982  0.029311394   0.02949504           25 
 2068000   0.92988685   -6.4605604    728.97014  0.029375006  0.029487443           14 
 2069000   0.92976315   -6.4001501    729.29364  0.029373837  0.029479916           17 
 2070000   0.91386379   -6.4183132    729.18497  0.029355273  0.029472387           16 
 2071000   0.92055334   -6.4249133    729.01509  0.029334262  0.029464824           20 
 2072000   0.91844194   -6.3989452     730.8087  0.029392242   0.02945726           20 
 2073000   0.89365025   -6.4204476    730.39059  0.029361255  0.029449703           16 
 2074000   0.92254046   -6.4171153    732.21892  0.029420561  0.029442212           13 
 2075000   0.94540853   -6.4363911    732.81013  0.029430126  0.029434741           13 
 2076000   0.89509174    -6.429213    730.59293  0.029326948  0.029427252           11 
 2077000    0.9245585   -6.4097149    733.90838  0.029445851  0.029419736           14 
 2078000   0.93119171    -6.421941    731.65941  0.029341491  0.029412263            9 
 2079000   0.90444607   -6.4046177    732.06839  0.029343771  0.029404717            5 
 2080000   0.92488774   -6.4263167    734.05041  0.029409071  0.029397223           14 
 2081000   0.93029523   -6.3999264    734.63505   0.02941835  0.029389768            5 
 2082000   0.90902017   -6.4291182    732.27066  0.029309584  0.029382337            4 
 2083000   0.92181436   -6.3953215    733.21143   0.02933315    0.0293749           13 
 2084000   0.92397452   -6.4142972    733.08069  0.029313847  0.029367419           10 
 2085000    0.9098485   -6.4041813    733.94756  0.029334435  0.029359921           10 
 2086000   0.90025475   -6.4241841    733.77216  0.029313365  0.029352425            8 
 2087000   0.91853677   -6.3978703    733.37745  0.029283559  0.029344918            9 
 2088000   0.92449569   -6.4472639    732.39669  0.029230392  0.029337446            7 
 2089000   0.93141702    -6.393069    737.43609  0.029417428  0.029329941            8 
 2090000   0.93392106   -6.4182795    734.43824  0.029283821  0.029322502            9 
 2091000   0.92282454   -6.4095917    734.61622   0.02927691  0.029315034           20 
 2092000   0.90557419   -6.4258583    734.31312  0.029250841  0.029307556           20 
 2093000   0.92511905   -6.4177825    734.68001  0.029251473  0.029300076           11 
 2094000   0.89162721   -6.4689288    735.21292  0.029258712  0.029292527           13 
 2095000   0.90493111   -6.4345418    736.03101  0.029277288  0.029285047           10 
 2096000   0.91670006   -6.4170337    734.01984  0.029183359  0.029277604           11 
 2097000   0.91236869   -6.4122459    735.57611  0.029231287  0.029270125            7 
 2098000   0.93239984   -6.4174037    738.10842  0.029317939  0.029262723            2 
 2099000   0.92007285   -6.3823534    736.22186  0.029229072  0.029255355            7 
 2100000   0.93306963   -6.3795108    736.11556  0.029210935  0.029247896           14 
 2101000   0.91902637   -6.4269473     735.6979  0.029180466  0.029240351            5 
 2102000   0.92129277   -6.4308863    734.72887  0.029128166   0.02923272           10 
 2103000   0.92026555   -6.4533284    736.68218  0.029191718  0.029225081            7 
 2104000    0.9039535   -6.4223072    735.78834  0.029142441  0.029217487            8 
 2105000   0.92781996   -6.4192895    734.92608  0.029094461  0.029209928            8 
 2106000   0.93386757   -6.4172294    738.03732  0.029203756  0.029202383           15 
 2107000   0.92522511   -6.4145245    737.12397  0.029153772  0.029194929            6 
 2108000   0.90923838   -6.4220673    739.00711  0.029214386  0.029187503            6 
 2109000   0.91306683   -6.4222583    738.02774  0.029161836  0.029180132            8 
 2110000   0.91574992   -6.4326048    738.65547  0.029172807  0.029172781           11 
 2111000   0.90666719   -6.4386315     738.4176  0.029149597   0.02916546            8 
 2112000   0.91489066   -6.4225409     738.6612  0.029145407  0.029158117            7 
 2113000   0.92547332   -6.4415285    739.26449  0.029155407  0.029150776           11 
 2114000   0.91579292   -6.4256301    740.71731  0.029198885  0.029143507           12 
 2115000   0.91285934   -6.4824407    738.07574  0.029080998  0.029136186           16 
 2116000   0.91348211   -6.4337421    740.33472  0.029156219  0.029128863            9 
 2117000   0.92003099   -6.4178611    741.41533  0.029184984  0.029121544            5 
 2118000   0.91432324   -6.4435405    739.22017  0.029084835  0.029114212           22 
 2119000   0.93120265   -6.4324208    741.76983  0.029171379  0.029106919            6 
 2120000   0.90644079   -6.4296041     741.7205   0.02915568  0.029099613            7 
 2121000   0.92009911   -6.4382032      739.779  0.029065653  0.029092348            8 
 2122000   0.90831314   -6.4349223    740.39174  0.029076019  0.029085089            9 
 2123000   0.93455287   -6.4282936     740.1801  0.029054016  0.029077759           13 
 2124000   0.92545042    -6.431824    741.95703  0.029110053  0.029070447            6 
 2125000   0.92258033    -6.407316    742.36651  0.029112412  0.029063151            9 
 2126000   0.93367116   -6.4606666    739.78544  0.028997548  0.029055771            6 
 2127000   0.90085956    -6.420216    741.82675  0.029063891  0.029048336            8 
 2128000   0.91023322   -6.4305951    742.37472  0.029071692  0.029040892            9 
 2129000   0.90283793   -6.4206024    742.02249   0.02904425  0.029033482           12 
 2130000   0.91640819   -6.4272036    740.85171  0.028984809  0.029026076           19 
 2131000   0.89593762   -6.4064482    742.68347  0.029042839  0.029018651           10 
 2132000   0.89272943   -6.4351216    741.08192  0.028966617  0.029011277           11 
 2133000   0.90984681    -6.450151    740.35724  0.028924724   0.02900379            8 
 2134000   0.88905919   -6.4273069    741.69139  0.028963269  0.028996388            5 
 2135000    0.9083454   -6.4374554    741.43955  0.028939873  0.028989015            5 
 2136000   0.91199031   -6.4489424    742.41195  0.028964261  0.028981631           11 
 2137000   0.91893004   -6.4300952    743.54313  0.028994819  0.028974283            8 
 2138000     0.916495   -6.4459213    741.63928   0.02890705  0.028966845            7 
 2139000   0.93216968   -6.4503033    744.70816  0.029013097  0.028959377           30 
 2140000   0.91349048   -6.4136466    743.44834  0.028950481  0.028951945           14 
 2141000   0.91348152   -6.4411891    745.09578  0.029001081  0.028944564            9 
 2142000   0.91638017   -6.4314362    743.77051  0.028935983  0.028937166           11 
 2143000   0.90642396   -6.4375461    741.52615  0.028835206  0.028929702            7 
 2144000   0.90690097   -6.4600644    742.76106  0.028869755  0.028922259           15 
 2145000    0.9231037   -6.4519323      743.422  0.028881973  0.028914786           10 
 2146000   0.90204511   -6.4284623    742.16557  0.028819725  0.028907243            8 
 2147000   0.90674896   -6.4167893    743.94867  0.028875511  0.028899715           14 
 2148000   0.90519901   -6.4497278    743.32437  0.028837848  0.028892222            5 
 2149000   0.90860071   -6.4203086    743.77362   0.02884185   0.02888477           16 
 2150000   0.90593712   -6.4453971    745.14686  0.028881661  0.028877308            9 
 2151000   0.91783023   -6.4869724    742.87943   0.02878039  0.028869767           13 
 2152000    0.8991981   -6.4119322    743.03854  0.028773178  0.028862258           15 
 2153000   0.91414585   -6.4251454    744.74523  0.028825872  0.028854736           16 
 2154000   0.91089367   -6.4362426    743.94953  0.028781706  0.028847299            9 
 2155000   0.90823736    -6.412736    743.34049  0.028744799  0.028839837            7 
 2156000   0.89575954   -6.4477638    746.67043  0.028860174  0.028832455           10 
 2157000   0.90794624   -6.4228357    746.83837  0.028853283   0.02882505           10 
 2158000   0.89978068   -6.4635074    745.04697  0.028770736  0.028817705            9 
 2159000   0.90669843   -6.4485163    743.97465   0.02871602  0.028810348           13 
 2160000   0.90536464   -6.4319171     744.2828  0.028714614  0.028802971           10 
 2161000   0.89174628   -6.4521685    746.70816  0.028794854  0.028795621           11 
 2162000   0.93135694   -6.4387549    746.49914  0.028773479    0.0287882            9 
 2163000   0.92012063   -6.4087953    748.78253  0.028848148  0.028780813            5 
 2164000   0.89342375   -6.4295303    747.24364  0.028775556  0.028773411           10 
 2165000   0.91735772   -6.3970764    748.67987  0.028817547  0.028766057           11 
 2166000   0.90290389   -6.4380926    745.32309  0.028675096  0.028758767            7 
 2167000   0.89254114   -6.4697659    746.79681  0.028718536   0.02875136           11 
 2168000   0.92133668   -6.4795232    747.30773  0.028724928  0.028743859           18 
 2169000   0.90419073   -6.4591663    747.54817  0.028720922  0.028736357           13 
 2170000   0.89677408   -6.4531353    746.72513   0.02867608  0.028728922           14 
 2171000   0.89805975   -6.4034588    749.69905  0.028777025  0.028721535           14 
 2172000   0.89306332   -6.4809622    746.90325  0.028656509  0.028714115           19 
 2173000    0.9035768   -6.4717085    748.53253  0.028705803  0.028706677           22 
 2174000   0.89169378   -6.4525992    746.82748  0.028627242  0.028699199           13 
 2175000   0.89891016   -6.4400669    746.58186  0.028604669  0.028691691           13 
 2176000   0.91033286   -6.4432056    748.25938  0.028655767  0.028684257           32 
 2177000   0.88525357   -6.4516592    747.07322  0.028597199  0.028676793            7 
 2178000   0.88450021   -6.4705277    748.95318  0.028655999  0.028669245           10 
 2179000   0.91706523   -6.4162485    747.50173  0.028587339  0.028661782           10 
 2180000   0.90993751   -6.4338004    749.11567   0.02863592  0.028654322           17 
 2181000   0.88968612   -6.4201101    750.90356  0.028691103  0.028646897           13 
 2182000   0.92226848   -6.4490808    748.73578  0.028595164  0.028639453           10 
 2183000   0.89828634   -6.4622031    747.58184  0.028538015  0.028631956           10 
 2184000   0.91837062   -6.4405417    747.73668  0.028530856  0.028624462           14 
 2185000   0.91206048    -6.481538    748.22896  0.028536573  0.028616937            9 
 2186000   0.89215241   -6.4357706    750.13159   0.02859605  0.028609397            9 
 2187000   0.90828319   -6.4343765    750.28588  0.028588854  0.028601912            7 
 2188000   0.89757955   -6.4631857    747.60551  0.028473702  0.028594365            4 
 2189000   0.91753087   -6.4435887    748.93868  0.028511447  0.028586827            7 
 2190000   0.90541131   -6.4843823    750.15293  0.028544632  0.028579301            9 
 2191000   0.90887544   -6.4510767    748.87851  0.028483132  0.028571727           13 
 2192000   0.89264231   -6.4343127    746.62594  0.028384502  0.028564144           30 
 2193000   0.90216093   -6.4403995    750.69067  0.028526017   0.02855659           20 
 2194000   0.89937854   -6.4597358    748.79396  0.028440974  0.028549056            6 
 2195000   0.88533348   -6.4205585    751.64217  0.028536149  0.028541512            9 
 2196000   0.89300623   -6.4422615    750.40809  0.028476324  0.028534024           15 
 2197000   0.90259687   -6.4748962    751.94489  0.028521654  0.028526453            9 
 2198000   0.89859579   -6.4573435    750.99997  0.028472853   0.02851898           37 
 2199000    0.9202843   -6.4633538    752.70372   0.02852447  0.028511472           12 
 2200000   0.92348991   -6.4608444    750.96789  0.028445754  0.028503981           16 
 2201000   0.90811661   -6.4693387    751.44953  0.028451065  0.028496502           12 
 2202000   0.89478679   -6.4512717    754.25613  0.028544359  0.028489065            4 
 2203000   0.89998228   -6.4537978    752.80728  0.028476596  0.028481569            6 
 2204000   0.91636807   -6.4696636    754.08506  0.028511988  0.028474151            8 
 2205000   0.89828961   -6.4679801     751.7458   0.02841065  0.028466676            9 
 2206000   0.91398664   -6.4450895    752.25216  0.028416899  0.028459184            6 
 2207000   0.86314712   -6.4441432    750.44896  0.028335937  0.028451782           12 
 2208000   0.87762098   -6.4459037    753.71097  0.028446217  0.028444368            6 
 2209000   0.91053664   -6.4522065    753.69113  0.028432591  0.028436948           16 
 2210000   0.89481409   -6.4550927    752.03865  0.028357415  0.028429491           10 
 2211000   0.90789644   -6.4624487    755.13192  0.028461176  0.028421986            7 
 2212000   0.93323225   -6.4378624    754.12363  0.028410324  0.028414491            7 
 2213000   0.88937708   -6.4345939    753.73646  0.028382906  0.028407105           13 
 2214000   0.90097993    -6.461998    753.27261  0.028352628  0.028399617           14 
 2215000   0.89787274   -6.4664794    752.26961  0.028302092   0.02839213           24 
 2216000   0.87131019   -6.4648404    754.18558  0.028361371  0.028384587            7 
 2217000   0.88188349   -6.4707435    752.95943  0.028302489  0.028377063           10 
 2218000   0.87816447   -6.4923431    751.85965  0.028248409  0.028369464           11 
 2219000   0.88873883   -6.4622692    752.49885  0.028259683  0.028361844           20 
 2220000   0.89511299   -6.4366087    753.45019  0.028282665  0.028354273            4 
 2221000   0.88236842   -6.4516874    755.51736  0.028347492  0.028346751            7 
 2222000   0.89935152   -6.4727027    754.67268  0.028303056  0.028339328           13 
 2223000    0.9284814   -6.4431973    754.07523  0.028267927  0.028331821            5 
 2224000   0.89846543   -6.4730859    754.42712  0.028268402  0.028324401           10 
 2225000   0.89385515   -6.4524771    755.50453   0.02829605  0.028316987           10 
 2226000    0.8808244   -6.4289483    757.73327  0.028366774  0.028309565            6 
 2227000   0.88850719   -6.4521707    755.59522  0.028274032  0.028302182            6 
 2228000   0.89438474   -6.4634551    757.84917  0.028345645  0.028294835           11 
 2229000   0.89110926   -6.4610766    757.54841  0.028321684  0.028287523            8 
 2230000   0.89182061   -6.4550867    757.12931  0.028293322  0.028280182            9 
 2231000   0.90124496   -6.4637319    757.20543  0.028283484  0.028272768           14 
 2232000    0.8909842   -6.4822924    757.82437  0.028293921  0.028265383            5 
 2233000   0.88118936   -6.4360464    756.16758   0.02821942  0.028257909           10 
 2234000   0.88399062   -6.4816231    756.61119  0.028223336   0.02825046            5 
 2235000   0.90398794   -6.4650502    756.31653  0.028199722  0.028242994            9 
 2236000   0.91209375   -6.4856318    754.41092   0.02811609  0.028235476            9 
 2237000   0.89941355    -6.482928    755.70259  0.028151639  0.028227862           10 
 2238000   0.88906015   -6.4585297    754.88014  0.028108435   0.02822031            8 
 2239000   0.88043921   -6.4939503    756.52538  0.028157116  0.028212733           11 
 2240000   0.88847923   -6.4640094    755.28488  0.028098396  0.028205203           11 
 2241000   0.88507321   -6.4319124    758.19219  0.028193968  0.028197704           22 
 2242000   0.89450253    -6.474548    758.86743  0.028206491  0.028190179           25 
 2243000   0.88643755   -6.4761435    755.07548  0.028053035  0.028182594           13 
 2244000    0.9176967   -6.4630084     756.5343  0.028094708  0.028175063           12 
 2245000   0.91003775   -6.5041878    758.13184  0.028141494  0.028167586           13 
 2246000   0.90108869   -6.4649019    756.38798  0.028064262  0.028160092            9 
 2247000   0.90099048   -6.4761862    757.42119   0.02809009  0.028152456            4 
 2248000   0.88321359    -6.505152    755.95914  0.028023396  0.028144794           17 
 2249000   0.88961363   -6.4640329    755.63788  0.027999032  0.028137151           16 
 2250000   0.90129665   -6.4624542    756.64128  0.028023751  0.028129573           11 
 2251000   0.90237241   -6.4487965    758.73928  0.028088971  0.028122014           11 
 2252000   0.88634886   -6.4623358    759.41311  0.028101432  0.028114498           11 
 2253000   0.89227606   -6.4685634    756.96201  0.027998299  0.028106967           19 
 2254000   0.88190937   -6.4555039    758.37901  0.028038266  0.028099452           13 
 2255000   0.88489347   -6.4663509    757.86006  0.028006654  0.028091895           12 
 2256000   0.87508404   -6.4702379    760.38165  0.028087383  0.028084387            6 
 2257000   0.87092058   -6.4678804     756.7672  0.027941486  0.028076822           18 
 2258000    0.8949993   -6.4799528    758.43535  0.027990676   0.02806928           10 
 2259000   0.88981724   -6.4866148    759.47021   0.02801646  0.028061814           13 
 2260000   0.89274801   -6.4711984    758.82729  0.027980357  0.028054299           11 
 2261000   0.90612571   -6.4825627    758.04423  0.027939121  0.028046808           11 
 2262000   0.89088197   -6.4751791    762.31946  0.028084271  0.028039267            8 
 2263000   0.89151637   -6.4688114    761.76152  0.028051316  0.028031848           15 
 2264000   0.88117062   -6.4592867    762.11608  0.028051976  0.028024429            5 
 2265000   0.86940271   -6.4742542    760.49614  0.027979991  0.028016953           11 
 2266000   0.88936409   -6.4617243    759.63528  0.027935984  0.028009481           12 
 2267000   0.90328629   -6.4487666    759.89378  0.027933163  0.028001975           12 
 2268000   0.90370322   -6.4579412    762.26725  0.028008056  0.027994496            7 
 2269000   0.88551998   -6.4594532    763.55743  0.028043096  0.027987106            5 
 2270000   0.89395535   -6.5027869    760.83561  0.027930823  0.027979683            9 
 2271000   0.87160616    -6.479775    763.31403  0.028009468  0.027972191           14 
 2272000   0.88510795   -6.4734379    760.84099  0.027906433  0.027964728           32 
 2273000   0.88744965   -6.5031537    761.05938  0.027902162  0.027957264           20 
 2274000   0.89912362    -6.469266    763.04088  0.027962506  0.027949792           10 
 2275000   0.90764788    -6.500579    760.80146  0.027868185  0.027942322           19 
 2276000   0.88428816   -6.5090807    761.36327  0.027876511  0.027934861           11 
 2277000    0.8853588   -6.4879474    761.62325  0.027873783  0.027927332           18 
 2278000   0.91538575   -6.4435651    763.27056  0.027921809  0.027919816            9 
 2279000   0.88865352   -6.4793365    762.94258  0.027897564  0.027912343            8 
 2280000   0.88816722   -6.4796365    762.23158  0.027859342  0.027904885            4 
 2281000    0.8904109   -6.4427609    763.82932  0.027905499  0.027897466            6 
 2282000   0.87790207   -6.4695735    765.60993  0.027958294  0.027890032           13 
 2283000    0.8898505   -6.4904365     763.2012  0.027858125  0.027882653            8 
 2284000   0.89914014    -6.498685    764.01829   0.02787574  0.027875303            8 
 2285000   0.86915802   -6.4821408    764.20142   0.02787022  0.027867953           28 
 2286000   0.88632994    -6.496702    762.10872  0.027781741  0.027860546            7 
 2287000   0.87919239   -6.4725251    765.14129  0.027880094  0.027853146           11 
 2288000   0.89169211   -6.4748766     762.4725  0.027770706  0.027845729            9 
 2289000   0.88136296   -6.4842677    763.08034  0.027780703   0.02783827           12 
 2290000   0.87702775   -6.4794791    765.57905  0.027859499  0.027830887           19 
 2291000   0.87096175   -6.4491022    764.91158  0.027823061  0.027823535            9 
 2292000   0.88504459   -6.4943784    764.91766  0.027811143  0.027816293            9 
 2293000   0.89634269   -6.4957362     765.4422  0.027818077  0.027808942           11 
 2294000   0.89566882   -6.4687724    766.85873  0.027857408  0.027801623            6 
 2295000   0.86814863   -6.4640688    765.83212  0.027807993  0.027794337           10 
 2296000   0.88345328    -6.496112    765.96046  0.027800539  0.027787001            8 
 2297000   0.91431983   -6.4608884     768.1782  0.027868894  0.027779667            8 
 2298000   0.86152749    -6.458482    765.03848   0.02774291  0.027772337           10 
 2299000   0.88525216   -6.4967278    764.95694  0.027727887  0.027764985           15 
 2300000   0.89785228    -6.484911    765.26563  0.027727015  0.027757608            9 
 2301000   0.87212616   -6.4914437    765.75051  0.027732526  0.027750246            9 
 2302000   0.88340707   -6.5045766    766.37871   0.02774322  0.027742878           23 
 2303000   0.87089402   -6.4722692    767.99723  0.027789739  0.027735551           16 
 2304000   0.87616022   -6.4807872    768.87006  0.027809247  0.027728236           13 
 2305000    0.8845802   -6.4776905    768.06792  0.027768182    0.0277209            4 
 2306000    0.9086009   -6.4989504    768.49336  0.027771515  0.027713564            6 
 2307000   0.90418471   -6.4504961    768.87934  0.027773419   0.02770625            6 
 2308000   0.86830601   -6.4689788    766.69638  0.027682567  0.027698906            8 
 2309000   0.86836593   -6.4795078    768.41116  0.027732466  0.027691542           21 
 2310000   0.88190877   -6.4906249    767.35617  0.027682401  0.027684203           17 
 2311000   0.86823575   -6.4755722    768.03243  0.027694808  0.027676828           15 
 2312000   0.89153797   -6.4855024    767.09387     0.027649  0.027669435           12 
 2313000   0.86887217   -6.4781209     768.4638  0.027686403  0.027662061           14 
 2314000    0.8819605    -6.481306    767.13152  0.027626459  0.027654657            6 
 2315000   0.88033969   -6.4972206    767.77788  0.027637793  0.027647252            9 
 2316000   0.86215734   -6.5103982    768.93506  0.027667497  0.027639853           12 
 2317000   0.86864505     -6.46804    768.80977  0.027651049  0.027632436            7 
 2318000    0.8955829   -6.4746518    769.68583  0.027670615  0.027625023            6 
 2319000   0.88565582   -6.4955428    768.49819  0.027616005  0.027617614           13 
 2320000   0.87059309   -6.4880701    767.05993   0.02755244  0.027610172           12 
 2321000   0.87032452   -6.4765175    768.23108  0.027582618  0.027602765            8 
 2322000   0.87330789   -6.4647931    769.22123  0.027606274  0.027595366            5 
 2323000   0.88352292   -6.5022019    768.54857   0.02757026  0.027587964           12 
 2324000     0.870052   -6.4960374    770.12003  0.027614746  0.027580618           10 
 2325000   0.86932808   -6.4936309     769.2622  0.027572122  0.027573185           10 
 2326000   0.86892618   -6.4521106    767.62655  0.027501668  0.027565734           10 
 2327000   0.89526229   -6.4886779    769.70203  0.027564175  0.027558309            8 
 2328000   0.87424094   -6.5165947    766.48676  0.027437241  0.027550876            7 
 2329000   0.87549372   -6.4703782    770.92616  0.027584305  0.027543429            5 
 2330000   0.86373133   -6.4989592    767.80902  0.027460981  0.027536011            6 
 2331000   0.87617631   -6.5010896    769.73881   0.02751819   0.02752855           12 
 2332000   0.88030779   -6.4819585    769.78333   0.02750798  0.027521109           16 
 2333000   0.86806027   -6.5027309    769.91964  0.027501059  0.027513658           12 
 2334000   0.87519912   -6.4522147    770.97644  0.027527008  0.027506257           14 
 2335000   0.87386894   -6.4873695    769.75111  0.027471489  0.027498863           12 
 2336000   0.88325075   -6.4954145    770.19816  0.027475676   0.02749149           10 
 2337000   0.87958428   -6.4850464    770.42909  0.027472154  0.027484059           24 
 2338000    0.8581212   -6.4844147    771.81512  0.027509806  0.027476664            9 
 2339000   0.87252378   -6.4973804    770.47905  0.027450444  0.027469277           24 
 2340000   0.88139439   -6.5033125    772.58409  0.027513678  0.027461943           45 
 2341000   0.88863401   -6.5132212    770.43147  0.027425298  0.027454559            6 
 2342000   0.88964232    -6.496533    773.27914  0.027514914  0.027447163            6 
 2343000   0.89602303   -6.5297649    770.58835  0.027407467  0.027439752            8 
 2344000   0.89616437    -6.520862    772.43164  0.027461307  0.027432324           12 
 2345000   0.86108127   -6.5294642     772.1521  0.027439662    0.0274249           13 
 2346000   0.87419188   -6.5375662    770.47397  0.027368356  0.027417448           14 
 2347000   0.88011299   -6.4903275    772.80257  0.027439375  0.027410077            7 
 2348000   0.88402194   -6.5121652    770.56179  0.027348161  0.027402714            6 
 2349000   0.88796944   -6.4925451     773.2241  0.027430967  0.027395338           28 
 2350000    0.8817229   -6.4840326    773.32156  0.027422751  0.027387926            5 
 2351000   0.87524966   -6.4818114     773.4446  0.027415447  0.027380563            5 
 2352000   0.86932135   -6.5278111    772.00246  0.027352695  0.027373204           21 
 2353000   0.87630042   -6.5020724    773.04377  0.027377949  0.027365822           21 
 2354000   0.86610874   -6.5095341    773.19052  0.027371514  0.027358495           14 
 2355000   0.88174795   -6.4976299    773.84664  0.027383108  0.027351157           23 
 2356000   0.86756218   -6.5284779    773.30141    0.0273522  0.027343812           12 
 2357000    0.8897404   -6.5162704    774.35571  0.027377871  0.027336491           13 
 2358000    0.8770756   -6.5082769    774.14908  0.027358958  0.027329183            8 
 2359000   0.86908693    -6.492085    775.42966  0.027392598   0.02732189           14 
 2360000    0.8709064   -6.5181827    774.25082  0.027339365  0.027314636            3 
 2361000   0.86302608   -6.5167471    774.67429  0.027342732  0.027307387           10 
 2362000   0.86638657   -6.4940362    774.98289  0.027342044  0.027300085           10 
 2363000   0.88180356   -6.5103094    773.11583  0.027264629   0.02729275            6 
 2364000   0.89072455   -6.5151292    773.63241  0.027271306  0.027285397           26 
 2365000   0.87118296   -6.5165836    775.83264  0.027337302  0.027278054           45 
 2366000   0.86053012     -6.53041    772.58745  0.027211449  0.027270656            9 
 2367000   0.87814641   -6.5104304    776.05098  0.027321891  0.027263268           13 
 2368000   0.88775048   -6.5247084    773.82996  0.027232192  0.027255872           23 
 2369000   0.87960097   -6.5399272    773.03708  0.027192806  0.027248455           39 
 2370000   0.87505148   -6.5111062    776.67552  0.027309266  0.027241111           11 
 2371000   0.85861605   -6.5414499    774.32007  0.027214961  0.027233751           14 
 2372000   0.85850089    -6.513417    775.42598   0.02724234  0.027226375            9 
 2373000    0.8807055    -6.511292    775.43325  0.027231116  0.027219038            7 
 2374000   0.86559173   -6.5193874    775.57094  0.027224478  0.027211746            6 
 2375000   0.87307462    -6.484996    776.59314  0.027248882  0.027204447           13 
 2376000   0.86458844   -6.5190531    777.31018  0.027262562  0.027197213            8 
 2377000   0.88160327   -6.4954171    778.05531  0.027277216  0.027190005            6 
 2378000   0.88319006   -6.5258086    778.04945   0.02726554  0.027182799           13 
 2379000   0.86543737    -6.518257    777.62691  0.027239278  0.027175549            9 
 2380000   0.86698973   -6.5186783    777.49292  0.027223141  0.027168302           22 
 2381000   0.87842527   -6.5167155    777.58047  0.027214772   0.02716108           13 
 2382000   0.87025103   -6.5311495     778.5242  0.027236363  0.027153936            9 
 2383000   0.86974775   -6.4957735    779.97938  0.027275821  0.027146798            7 
 2384000   0.85776186   -6.4910132    780.60503   0.02728625  0.027139695           18 
 2385000   0.86376145   -6.5345045    777.99954  0.027183771  0.027132553           11 
 2386000   0.86847281   -6.5479988    778.71769  0.027197461  0.027125393           20 
 2387000   0.87691707   -6.5184718    779.44858  0.027211583  0.027118248           15 
 2388000   0.86912197   -6.5128471    779.88251  0.027215331  0.027111086           11 
 2389000   0.89375281   -6.5176118    780.27911  0.027217773  0.027103921            7 
 2390000   0.89178629    -6.513714    780.34093   0.02720854  0.027096855           15 
 2391000   0.85592954   -6.5146415    780.37508  0.027198351  0.027089773           10 
 2392000   0.85914127    -6.522751    779.83534  0.027168177  0.027082634           11 
 2393000   0.85782899   -6.5102624    779.15881  0.027133264  0.027075527            7 
 2394000   0.86074743   -6.5093162    780.24519  0.027159746  0.027068406           14 
 2395000   0.86796137   -6.5144042    777.57345  0.027055444  0.027061219            6 
 2396000   0.87921857   -6.5341237    780.70668  0.027153126  0.027054023           15 
 2397000   0.87999875   -6.5012458    780.92345  0.027149334  0.027046849           37 
 2398000   0.85804539   -6.5018161    781.87942  0.027171234  0.027039722           23 
 2399000   0.84459175   -6.5528809    780.03192  0.027095732  0.027032556           19 
 2400000   0.86189388    -6.509283    782.86181  0.027182702  0.027025383           11 
 2401000   0.85661967    -6.526069    781.66158  0.027129723  0.027018296           30 
 2402000   0.87191368   -6.5341532    782.18241  0.027136498  0.027011126           17 
 2403000   0.85811335   -6.5538545    781.91091   0.02711579  0.027003997           12 
 2404000   0.85942584   -6.5227386    781.29649  0.027083212  0.026996817            8 
 2405000   0.84998909   -6.5227471    780.86962  0.027057159  0.026989639           12 
 2406000   0.88292854   -6.5273969    782.81453  0.027113277  0.026982445           17 
 2407000   0.87380229   -6.5285454     781.8571  0.027068865  0.026975326           12 
 2408000   0.87612792     -6.53113    782.32763  0.027073907  0.026968197           12 
 2409000    0.8609066   -6.5199934    782.17911  0.027057531  0.026961088            8 
 2410000   0.86759095   -6.5294796    782.24136  0.027048456  0.026953944           26 
 2411000   0.86889694   -6.5587505    781.07947  0.026997078  0.026946793           25 
 2412000   0.86541514   -6.5009949    782.28361  0.027027488  0.026939633           19 
 2413000   0.87644767   -6.5015546    783.61651  0.027062319  0.026932486           26 
 2414000   0.85941437   -6.4884538    783.11497  0.027033795  0.026925391            8 
 2415000   0.86436418   -6.5140886     783.5937   0.02703912  0.026918319            9 
 2416000   0.85443854   -6.5399946    782.89127    0.0270037  0.026911227           24 
 2417000   0.87974831   -6.5223912     782.8804  0.026992153  0.026904162           18 
 2418000    0.8584243   -6.4951819    785.24092  0.027062342   0.02689713            8 
 2419000   0.85481472   -6.5022645    784.20468  0.027015457  0.026890112            9 
 2420000   0.86675812   -6.5438005    783.58402  0.026982921  0.026883054           12 
 2421000   0.87568147   -6.4944106    784.39324   0.02699963  0.026875993           11 
 2422000   0.88941989   -6.5342206    782.65515   0.02692868  0.026868857            6 
 2423000   0.85841292   -6.5134231    783.90742  0.026960635  0.026861764           17 
 2424000   0.86375491   -6.5283566    783.44741  0.026933698  0.026854651           14 
 2425000   0.87017848   -6.5084277    783.36468  0.026919748  0.026847509           11 
 2426000   0.85118562    -6.515269    783.79786  0.026923532  0.026840352           27 
 2427000   0.87431067   -6.5268104    785.00692  0.026953953  0.026833253           13 
 2428000   0.87335479   -6.5071453    783.75687  0.026899947  0.026826153           12 
 2429000   0.86845243   -6.5649546    783.91721  0.026894374  0.026819022           12 
 2430000   0.85469523   -6.5226719    786.01901  0.026955384  0.026811882            4 
 2431000   0.86817685   -6.5155972    785.38786  0.026922661  0.026804755            8 
 2432000   0.85714661   -6.5305427    786.50929  0.026950017  0.026797632            8 
 2433000   0.85249402   -6.5051797     784.0379  0.026854292  0.026790484            8 
 2434000   0.86877331   -6.5394296     786.2626  0.026919426  0.026783349           14 
 2435000   0.88755176   -6.5257158    785.22391  0.026872824   0.02677624           47 
 2436000   0.85927169   -6.5621252    783.54891  0.026804492  0.026769048           31 
 2437000    0.8690131   -6.5179982    787.21688   0.02691892  0.026761891           22 
 2438000   0.87345115   -6.5310703    785.34019  0.026843731  0.026754761           24 
 2439000   0.84478487   -6.5434131    787.35548  0.026901581  0.026747614           15 
 2440000   0.87123354   -6.5370101    787.57341  0.026897999  0.026740505           10 
 2441000   0.86608065   -6.5072581     786.7153  0.026857685  0.026733396           20 
 2442000   0.86213476   -6.5215745    786.09069  0.026825372  0.026726292           13 
 2443000   0.84729122   -6.5182419    787.01045  0.026845765  0.026719166            6 
 2444000    0.8711824    -6.555844    786.62932  0.026821785  0.026712091           26 
 2445000   0.84811904   -6.5066522    789.42713  0.026906173  0.026704964            7 
 2446000   0.86467151        -6.56    786.59576  0.026798711  0.026697858           17 
 2447000   0.86424987   -6.5412279    786.84898  0.026796383  0.026690752           20 
 2448000   0.88270393   -6.5275145      786.997  0.026790475  0.026683653           15 
 2449000   0.87908317   -6.5191833    786.11463  0.026749511  0.026676558            7 
 2450000   0.85713584   -6.5149518    785.25344  0.026709301  0.026669455           25 
 2451000   0.85940346   -6.4956319    787.62907  0.026779174   0.02666238           11 
 2452000   0.86561777   -6.5386948    786.88188  0.026742859  0.026655278            9 
 2453000   0.85391364   -6.5253388    788.75478  0.026795583   0.02664817           13 
 2454000   0.85332095    -6.533093    789.57544  0.026812532  0.026641127            6 
 2455000   0.86017705   -6.5329257    785.48787  0.026662861  0.026633997            9 
 2456000    0.8494379   -6.5754032    789.02221  0.026771926  0.026626877           16 
 2457000   0.84952072   -6.5686462    787.58093  0.026712146  0.026619764           18 
 2458000   0.86615606   -6.5479313    788.07536  0.026718042  0.026612674           15 
 2459000   0.84761021   -6.5384238    789.99057  0.026772081  0.026605555           20 
 2460000   0.86378304   -6.5188965    788.23296  0.026701658  0.026598511           11 
 2461000   0.85059757   -6.5306082    787.62753  0.026670308  0.026591434            9 
 2462000   0.86174539   -6.5211366    788.02899  0.026673064  0.026584352            6 
 2463000   0.84663903   -6.5099678    788.77544  0.026687489  0.026577259            6 
 2464000   0.84978234   -6.5448516    788.19098  0.026656892  0.026570199            8 
 2465000   0.84012264   -6.5385258    789.96295  0.026705982   0.02656309           16 
 2466000    0.8654088   -6.5589953    790.71624  0.026720608  0.026556036           14 
 2467000   0.85322574   -6.5374394    790.99803  0.026719296  0.026549018           20 
 2468000   0.85102617   -6.5111557    789.62295  0.026662039  0.026541997           18 
 2469000   0.84075365   -6.5123539    791.82991  0.026725729  0.026534969            8 
 2470000   0.84600276   -6.5133512    791.87597  0.026716463  0.026527979           24 
 2471000   0.85812381   -6.5302521    789.94217  0.026640435  0.026520954           31 
 2472000   0.85909378   -6.5439601    792.39738  0.026712425  0.026513971           16 
 2473000   0.85260535   -6.5417313    790.62471   0.02664189  0.026506979           15 
 2474000   0.85768282   -6.5418147    791.45745   0.02665917  0.026499971            6 
 2475000   0.85924332   -6.5700117    790.90785  0.026629894  0.026492969           21 
 2476000   0.85183561   -6.5376245     790.5229  0.026606183  0.026485915           14 
 2477000     0.873016   -6.5482481    790.79896  0.026604729  0.026478829           16 
 2478000   0.85116793   -6.5142813     791.6065   0.02662115  0.026471788           14 
 2479000   0.85805791   -6.5544816    793.63756  0.026678686  0.026464758            7 
 2480000   0.85357809   -6.5635921    790.38795  0.026558735  0.026457732           18 
 2481000   0.84879299   -6.5552745    792.31194  0.026612654  0.026450708           19 
 2482000   0.84985343   -6.5056318      791.922   0.02658884  0.026443781           19 
 2483000   0.86191754   -6.5420938    791.99069  0.026580437  0.026436853           12 
 2484000   0.85315006    -6.535803    792.28409  0.026579579  0.026429876           14 
 2485000   0.84825485   -6.5308194    793.67403  0.026615494  0.026422937           22 
 2486000   0.84961113   -6.5420248    796.04278  0.026684191  0.026416026           20 
 2487000   0.85470289   -6.5779957     792.6223  0.026558849  0.026409104           17 
 2488000   0.87475109   -6.5425581    794.24475  0.026602517  0.026402154           15 
 2489000   0.84693891   -6.5510992     793.6845  0.026573072  0.026395202           20 
 2490000   0.85819808   -6.5580095    793.91508  0.026570116  0.026388224           16 
 2491000   0.84636962   -6.5645091    792.98665  0.026528391  0.026381258           15 
 2492000   0.84427034   -6.5445397      792.651  0.026506521  0.026374297           19 
 2493000   0.85301641   -6.5457428    795.48398  0.026590586  0.026367369           29 
 2494000   0.84742719    -6.537739    794.07002  0.026532679  0.026360447           10 
 2495000   0.85771454   -6.5503825    794.52983  0.026537403  0.026353561            9 
 2496000   0.84364227   -6.5564761    796.54392  0.026594014  0.026346674            7 
 2497000   0.84813888   -6.5259321    794.25267  0.026506897  0.026339807            9 
 2498000   0.85491882   -6.5506498    796.01154  0.026554962  0.026332987            6 
 2499000   0.84946022   -6.5556332    795.28197  0.026520007  0.026326127           10 
 2500000   0.84841683   -6.5515006    795.49554  0.026516518  0.026319254           14 
 2501000   0.85793002   -6.5626891    794.82423  0.026483547  0.026312373           21 
 2502000   0.84955804   -6.5249432    797.21057  0.026552444  0.026305468           13 
 2503000   0.85001539   -6.5309693    794.62034  0.026455598  0.026298631           27 
 2504000   0.85192667   -6.5640596     794.8857  0.026453864  0.026291753           16 
 2505000   0.84612544   -6.5406728    798.14144  0.026551611  0.026284872           24 
 2506000   0.83673811   -6.5511408    796.97579  0.026502254  0.026278005           17 
 2507000   0.85245773     -6.54996    796.49996  0.026475866  0.026271114           16 
 2508000   0.85183345   -6.5427584    797.64706  0.026503424  0.026264277           14 
 2509000    0.8597547   -6.5415726    796.67945  0.026460723  0.026257477           14 
 2510000   0.84286812    -6.573731    798.88908  0.026523542  0.026250655           19 
 2511000   0.84622687   -6.5649607    799.20485  0.026523458   0.02624382           11 
 2512000   0.84114523   -6.5202672    799.46716  0.026521602   0.02623703            8 
 2513000   0.85145089    -6.564253    799.15989  0.026500858  0.026230279           14 
 2514000   0.85353589   -6.5555361    799.38677  0.026497838  0.026223448           27 
 2515000   0.84864498   -6.5261252    797.29192   0.02641789  0.026216608           19 
 2516000   0.84949141   -6.5732976    798.42466  0.026444908  0.026209795           39 
 2517000   0.84661157   -6.5505693    797.55134  0.026405487  0.026202974           14 
 2518000   0.84537178   -6.5632215    798.41968  0.026423738  0.026196099           10 
 2519000   0.84666318   -6.5939665    797.14819  0.026371185  0.026189202           19 
 2520000   0.88101163   -6.5640809    796.13584  0.026327243   0.02618226            9 
 2521000   0.85500023   -6.5763758    796.78263   0.02633818  0.026175378           12 
 2522000   0.83402101   -6.5381144     800.3299  0.026444948  0.026168489           12 
 2523000   0.84286551   -6.5416646    794.86804  0.026254064  0.026161607           10 
 2524000   0.86209834   -6.5247619    798.62893  0.026367833  0.026154757           15 
 2525000   0.84910804   -6.5604802    798.78171  0.026362433  0.026147915           20 
 2526000   0.85380809   -6.5390249    796.53022  0.026277719  0.026141024           22 
 2527000    0.8750008     -6.54505     798.3475  0.026327249  0.026134124           24 
 2528000   0.84320888   -6.5703481    796.90939  0.026269429  0.026127245           56 
 2529000    0.8444299   -6.5615824    798.00528  0.026295152  0.026120311           17 
 2530000   0.85199026   -6.5912787    798.99716   0.02631743  0.026113379           15 
 2531000   0.82861821   -6.5473798    801.12544  0.026377105  0.026106466           11 
 2532000   0.83837205   -6.5486717    798.87224   0.02629253  0.026099606           11 
 2533000   0.84558328   -6.5648917    802.28658  0.026394479  0.026092788           13 
 2534000   0.83635215   -6.5440343    803.01032  0.026407864  0.026086018           11 
 2535000   0.84939681   -6.5537539    800.14009  0.026303093  0.026079212           12 
 2536000   0.81278118   -6.5891802     799.8228  0.026282295  0.026072369            8 
 2537000   0.84935313   -6.5493126    798.54068  0.026229821  0.026065529           13 
 2538000   0.82085371    -6.524189    799.56913  0.026253255  0.026058746           11 
 2539000   0.83288848    -6.542422    798.57154  0.026210173  0.026051897           14 
 2540000   0.84986214   -6.5652194    800.38507  0.026259353  0.026045023           26 
 2541000   0.84112647   -6.5796577    802.38371  0.026314565  0.026038191           12 
 2542000    0.8637798   -6.5374177    799.61327  0.026213391  0.026031369           18 
 2543000    0.8502464   -6.5466283    800.57485  0.026234593  0.026024545           23 
 2544000   0.82337503     -6.54185    800.56428  0.026223935  0.026017685           18 
 2545000   0.85382041   -6.5586154    801.40164  0.026241049  0.026010865            6 
 2546000   0.84858784   -6.5699705    801.91897  0.026247675     0.026004           21 
 2547000   0.84635688   -6.5430331    801.05336  0.026209049  0.025997165           38 
 2548000   0.83533403   -6.5729186    800.98469  0.026196517  0.025990358           17 
 2549000   0.84648353   -6.5564602    800.82747  0.026181099   0.02598354           11 
 2550000    0.8465076    -6.570068    801.99683  0.026209047  0.025976741           10 
 2551000   0.82817486   -6.5847334    801.94354  0.026197032  0.025969908           13 
 2552000   0.83531112   -6.5510057    802.59229  0.026207951  0.025963073           15 
 2553000   0.86231097   -6.5702936    801.11452  0.026149449  0.025956261           12 
 2554000   0.84079115    -6.553639    799.77447  0.026095486  0.025949419           19 
 2555000    0.8197986   -6.5249031    802.52612   0.02617502  0.025942591           13 
 2556000   0.82838461   -6.5764777    802.35256  0.026159121   0.02593575           10 
 2557000   0.84249229   -6.5453509    801.81439  0.026131351  0.025928908           10 
 2558000   0.84524142   -6.5548016     802.3473  0.026138497  0.025922033           13 
 2559000   0.84114856   -6.5750698    803.41288  0.026162983  0.025915188           22 
 2560000   0.85888747   -6.5550646    803.83392  0.026166469   0.02590835           10 
 2561000   0.83343181   -6.5672811     802.8296  0.026123571  0.025901519           13 
 2562000   0.82844718    -6.572613    803.42925   0.02613288  0.025894703           11 
 2563000   0.83952145   -6.5527547    801.78087  0.026069088   0.02588791            7 
 2564000   0.84884483   -6.5672829    803.58314  0.026117497  0.025881064           14 
 2565000   0.82513316   -6.5720954    801.63195  0.026043923  0.025874182           25 
 2566000   0.85560663   -6.5776078     803.0953  0.026081297   0.02586728            7 
 2567000   0.85215892   -6.5936378    802.81347  0.026061988  0.025860408           11 
 2568000    0.8319441   -6.5794936    801.96595  0.026024336  0.025853507           13 
 2569000   0.85035066   -6.5538395    804.33925  0.026091191  0.025846663           11 
 2570000   0.84277826    -6.575167     805.6099   0.02612224  0.025839818           14 
 2571000   0.83899636   -6.5464003    804.10134  0.026063184  0.025833043           32 
 2572000   0.85379152   -6.5943802    805.56396  0.026100439  0.025826193            9 
 2573000   0.84160531   -6.5955709     804.9509   0.02607044  0.025819382            7 
 2574000    0.8475821   -6.5733717    806.22416  0.026101533  0.025812601           22 
 2575000   0.83070123   -6.6067986    805.50896  0.026068251  0.025805856           10 
 2576000   0.83623953   -6.5812984     807.3223  0.026116793    0.0257991           16 
 2577000   0.85989354   -6.5695862    805.89988  0.026060661  0.025792371           20 
 2578000   0.84344663   -6.5883992    804.37886  0.026001385  0.025785617           11 
 2579000   0.83634474   -6.5528878    805.97358  0.026042833  0.025778898            7 
 2580000   0.84180415   -6.5649776    806.59769  0.026052897  0.025772186           13 
 2581000   0.84609489   -6.5640169    806.84294  0.026050721  0.025765424           21 
 2582000   0.84693505   -6.5654722    807.76605  0.026070425  0.025758709           26 
 2583000   0.84806916   -6.5567131     806.0884  0.026006207  0.025751991           10 
 2584000   0.84778768   -6.5619313    805.42033  0.025974598  0.025745218           11 
 2585000   0.83453197   -6.5642763    807.74409  0.026039461  0.025738496           10 
 2586000   0.83621542   -6.5845267    804.90765  0.025937988  0.025731767            6 
 2587000   0.82817654   -6.6066927    807.79271  0.026020897  0.025725003           11 
 2588000   0.83209269   -6.5585398    806.99469  0.025985146  0.025718271           28 
 2589000   0.82683338   -6.5719713    808.11662  0.026011221  0.025711526           18 
 2590000    0.8406759   -6.5880473     807.6041  0.025984688  0.025704825           18 
 2591000   0.82891952   -6.5411361    806.15115  0.025927928  0.025698105            8 
 2592000   0.82821616   -6.5691378    808.77073  0.026002145  0.025691405           19 
 2593000   0.82810338   -6.5750036    807.59471  0.025954323  0.025684724            9 
 2594000   0.84011305   -6.5939597    807.68355  0.025947171  0.025678061           16 
 2595000   0.81369218   -6.5774121    808.39658   0.02596007  0.025671333            9 
 2596000   0.83231025   -6.5773558    807.66558  0.025926604  0.025664646           13 
 2597000   0.85143922   -6.6024008    807.51183  0.025911688  0.025657924           19 
 2598000   0.83797727   -6.5838844    806.60683  0.025872685  0.025651177           24 
 2599000   0.84953616   -6.5971631    806.95822  0.025873997  0.025644488           20 
 2600000   0.82861252   -6.6031098    807.80092  0.025891055  0.025637799           36 
 2601000   0.82444886   -6.5778147    809.65984  0.025940659  0.025631054           32 
 2602000   0.83131325   -6.5542974    809.40836  0.025922635  0.025624306           13 
 2603000   0.84201641   -6.5713145    808.56759   0.02588576  0.025617605           11 
 2604000   0.84586162   -6.5540315    807.76593  0.025850164  0.025610986            7 
 2605000   0.80440783   -6.6151418    806.92123  0.025813219  0.025604296           15 
 2606000   0.82618301   -6.5677726    808.37367  0.025849759  0.025597619            7 
 2607000   0.83720187   -6.5444229    809.79374  0.025885236  0.025590934           12 
 2608000   0.81995621   -6.5792951    809.17804  0.025855638  0.025584259           12 
 2609000   0.84102397   -6.5816735    808.43829    0.0258221  0.025577579           16 
 2610000   0.82976289   -6.5730337    810.02988  0.025863023  0.025570876           20 
 2611000   0.83235573   -6.6243511    807.46768  0.025771342  0.025564159           14 
 2612000   0.82903122   -6.5726539    808.07738  0.025780927  0.025557421           10 
 2613000   0.83646499   -6.5750443    807.31724  0.025746819  0.025550669           14 
 2614000   0.83381813   -6.5865505    808.56184  0.025776646  0.025543935           45 
 2615000   0.83974877   -6.5887426     809.4769   0.02579595  0.025537197           16 
 2616000   0.83777116   -6.5666634    811.37067  0.025846415  0.025530499            8 
 2617000   0.81214485   -6.6128265     808.0443  0.025730617   0.02552375            9 
 2618000   0.83425551    -6.589862    811.32286  0.025825148  0.025516974           17 
 2619000   0.84501225   -6.6190712    811.69945   0.02582727  0.025510212           22 
 2620000   0.82000528   -6.5864829    812.60908  0.025846345  0.025503494           10 
 2621000   0.82760052   -6.6069992    811.88957  0.025813607  0.025496824           14 
 2622000   0.83808856   -6.6080926    810.88989   0.02577199  0.025490182           13 
 2623000   0.84203914   -6.5898096    809.41643  0.025715352  0.025483468            8 
 2624000   0.83276586   -6.5974917    812.31028  0.025797456  0.025476794            9 
 2625000   0.83482223   -6.5807564    811.50412  0.025762036  0.025470109           30 
 2626000   0.81735806   -6.5821515     811.9279  0.025765673  0.025463362           31 
 2627000   0.83083686     -6.57414    810.53233  0.025711595  0.025456639           13 
 2628000   0.82636755   -6.5734245    810.09865   0.02568806  0.025449933           22 
 2629000   0.83251906   -6.5762027    812.49955  0.025754392  0.025443222           15 
 2630000   0.82671702   -6.6056084    810.50807  0.025681498  0.025436496            7 
 2631000   0.82363647   -6.6241447    809.63937  0.025644222    0.0254297            5 
 2632000   0.81929942    -6.559503    810.43222  0.025659581  0.025422919            5 
 2633000   0.83600235   -6.5796761    809.51843  0.025620915  0.025416173           10 
 2634000   0.83156017   -6.5801631    811.60313  0.025677143  0.025409394            7 
 2635000   0.83143571   -6.5765969     812.0969  0.025683014  0.025402632           11 
 2636000   0.81779326   -6.5697634    812.67419  0.025691521  0.025395906           17 
 2637000    0.8336522   -6.5905656    811.47057  0.025643742  0.025389198           17 
 2638000   0.82653759   -6.5900498    811.35291  0.025630304  0.025382491            9 
 2639000    0.8119461   -6.5711202    810.94053   0.02560757   0.02537577           13 
 2640000   0.81152155   -6.5734665    811.14388  0.025604289  0.025369039           19 
 2641000   0.85194734   -6.5726027    812.66165  0.025642485  0.025362344           14 
 2642000   0.83976006   -6.6301442    810.34484  0.025559703  0.025355591           14 
 2643000   0.83336045   -6.5966828    813.14894  0.025638446  0.025348837           13 
 2644000   0.84610014    -6.610747    810.53554   0.02554638  0.025342057           26 
 2645000     0.830727    -6.615151    810.83398  0.025546124  0.025335224           13 
 2646000   0.83288843   -6.5835687    811.25203  0.025549636  0.025328441           11 
 2647000   0.81813842   -6.5887783    813.04248  0.025596351   0.02532166           10 
 2648000   0.83550498   -6.6016714    809.68914  0.025481154  0.025314883           29 
 2649000   0.82740338   -6.6011669     812.1047  0.025547524   0.02530813           22 
 2650000   0.81934838   -6.5791751    811.58392  0.025521507  0.025301416           25 
 2651000   0.82289433   -6.6018318    813.55557  0.025573858  0.025294683           12 
 2652000    0.8430374   -6.5718406    810.60951  0.025471641  0.025287982           14 
 2653000   0.83336494   -6.6035802    813.05893  0.025538979  0.025281288            8 
 2654000   0.83679422   -6.6157927    812.90023  0.025524373  0.025274553           10 
 2655000   0.83482979   -6.6076048    813.39705  0.025530353  0.025267788           20 
 2656000   0.83811071    -6.574131    814.61538  0.025558967  0.025261032           22 
 2657000   0.82497293   -6.5940503     812.8905  0.025495248  0.025254276           10 
 2658000   0.82096438    -6.607615    812.76507  0.025481724  0.025247481           11 
 2659000   0.83748294   -6.5884487    813.46978  0.025494227  0.025240692           11 
 2660000   0.82032162   -6.6302599    813.58866  0.025488366  0.025233939            9 
 2661000   0.83155404   -6.6319632    813.83962  0.025486647  0.025227132           17 
 2662000   0.83649382   -6.5839608    813.83225  0.025476842  0.025220364           29 
 2663000   0.83716197   -6.5815194    814.05988  0.025474399  0.025213638           58 
 2664000   0.81155336   -6.5999232    814.69033  0.025484557  0.025206896           35 
 2665000   0.83356495   -6.6206249    813.52594  0.025438585  0.025200142           42 
 2666000   0.83586397   -6.6095008    812.69071  0.025402935  0.025193356           26 
 2667000    0.8284625   -6.5757119     813.8514  0.025429677  0.025186544           14 
 2668000    0.8420448   -6.6040986    812.17363  0.025367742  0.025179734           17 
 2669000   0.81847012   -6.6110361    812.38605   0.02536487  0.025172884           58 
 2670000   0.83303232    -6.609491    812.73565  0.025366281  0.025166056           43 
 2671000   0.82094281   -6.6029962    815.66707  0.025448243  0.025159254           12 
 2672000   0.82839167   -6.5887841    815.98343  0.025448585  0.025152476           13 
 2673000   0.81737125   -6.5937332    814.50319  0.025392917  0.025145679            8 
 2674000   0.81581067   -6.5834497    815.13846  0.025403218  0.025138955           13 
 2675000   0.81858922    -6.578239    815.00857  0.025389675  0.025132227            7 
 2676000   0.81620691   -6.5888991    814.55028  0.025365916  0.025125509           10 
 2677000   0.82910246   -6.6201977    813.17042  0.025313486  0.025118768           16 
 2678000    0.8035178   -6.6166538     815.8403  0.025387114  0.025112031           30 
 2679000   0.84243589   -6.6279522    815.31684  0.025361355  0.025105252           10 
 2680000   0.81359557   -6.6231585     814.5871  0.025329201  0.025098492           18 
 2681000   0.81067004   -6.5857745    817.30139  0.025404121  0.025091753           12 
 2682000   0.82453339   -6.6037655    818.16478  0.025421476  0.025085046           12 
 2683000   0.81841059   -6.6068814    814.98362  0.025313195  0.025078333           13 
 2684000   0.82716699   -6.6311698    814.77043  0.025297144  0.025071578           16 
 2685000   0.82313877   -6.6208658    816.18727  0.025331697  0.025064848            9 
 2686000   0.84501324   -6.6285893    814.69331  0.025275916  0.025058121           11 
 2687000   0.82677573   -6.6038719    816.80424  0.025331976  0.025051384           11 
 2688000   0.81704117   -6.6282388    815.50941   0.02528241  0.025044641           16 
 2689000   0.81632932    -6.606043    814.62782  0.025245687  0.025037911           19 
 2690000   0.83157057   -6.5990651    815.41968  0.025260833  0.025031183           11 
 2691000   0.81358919   -6.6132729    817.48747   0.02531548  0.025024543           16 
 2692000   0.81526863   -6.6227957    818.26645   0.02533019  0.025017861           14 
 2693000   0.82522731   -6.6303659      818.411  0.025325257   0.02501117           27 
 2694000   0.82105493   -6.6256204    818.23502  0.025310413   0.02500449           18 
 2695000   0.83378805   -6.6194415    817.16513  0.025267938   0.02499781           17 
 2696000   0.83042997   -6.6142402    819.34681  0.025326002  0.024991139           33 
 2697000   0.81729321   -6.6287087    817.08326  0.025246671  0.024984444           12 
 2698000   0.83245559   -6.6265795    817.92787  0.025263401  0.024977759           16 
 2699000   0.83681982   -6.6424725    818.64338  0.025276132  0.024971086           22 
 2700000   0.80881213   -6.6337516    818.33396  0.025257221   0.02496439           10 
 2701000   0.82938525   -6.6197994    819.33737  0.025278828   0.02495773           21 
 2702000   0.80954339    -6.615638    817.88662  0.025224729  0.024951062           26 
 2703000   0.81494363    -6.609787    818.05325  0.025220534  0.024944359           10 
 2704000    0.8292089   -6.6013896    819.99272  0.025270979  0.024937698           23 
 2705000   0.82257066   -6.5905853    816.83981  0.025164504  0.024931065           18 
 2706000   0.83433773   -6.6160625    819.01474  0.025222183  0.024924396           18 
 2707000   0.82019068   -6.6366815     818.8031  0.025206351  0.024917749           13 
 2708000   0.80369894      -6.6325     819.1328  0.025207189    0.0249111           31 
 2709000   0.82204502   -6.6052761    818.34585  0.025173676  0.024904473           19 
 2710000    0.8155232   -6.5985611    819.96872   0.02521429  0.024897838           21 
 2711000   0.81386502   -6.6286403    820.17093  0.025211205  0.024891223           17 
 2712000   0.83576476   -6.5832823    820.15653  0.025201467  0.024884651           26 
 2713000   0.80348237    -6.619681    818.75705   0.02514919  0.024878042           20 
 2714000    0.8146587   -6.6176351    820.08786  0.025180787  0.024871444           14 
 2715000   0.80912582   -6.6313868    819.58894  0.025156198   0.02486481           18 
 2716000   0.82965748   -6.6180432    821.39688  0.025202408  0.024858184           19 
 2717000   0.83609808   -6.5838885    821.69313  0.025202218  0.024851623           10 
 2718000   0.81748132   -6.6002829    819.84326   0.02513623  0.024845006           14 
 2719000    0.8378312   -6.6211816    818.84579  0.025096414  0.024838344            8 
 2720000   0.80730927   -6.6051588    821.31376  0.025162799  0.024831734           13 
 2721000   0.81505182   -6.5973775    819.20394  0.025088936  0.024825103           31 
 2722000   0.84580749   -6.6297246    819.84366  0.025099304  0.024818435           15 
 2723000    0.8374614   -6.6228286    821.47732  0.025140082  0.024811799           14 
 2724000   0.83295509   -6.6292445    821.14561  0.025120705  0.024805178           23 
 2725000    0.8118341   -6.6224202    818.73875  0.025037882  0.024798508           16 
 2726000   0.79876763   -6.6491084    821.15078  0.025102433  0.024791867           15 
 2727000   0.82749472   -6.6445495    821.24666  0.025096158  0.024785202           17 
 2728000   0.79084404   -6.6019861     821.9536  0.025108553  0.024778562           20 
 2729000   0.82723211   -6.6063985    822.48698   0.02511564   0.02477198           32 
 2730000   0.80861157    -6.607738    821.96777  0.025090591  0.024765324           29 
 2731000   0.80923241    -6.611483    822.16505  0.025087424  0.024758657           13 
 2732000   0.81749578    -6.608549    821.12674   0.02504657  0.024752007           14 
 2733000   0.79824773   -6.6308764    820.78456  0.025026972  0.024745327           37 
 2734000   0.83133397    -6.615262    820.77435  0.025017506  0.024738648           10 
 2735000   0.80488655   -6.6119007    820.92089  0.025012824  0.024731972           18 
 2736000   0.81614064   -6.6110223    821.53001  0.025022235  0.024725276           15 
 2737000   0.82315048   -6.6158669    820.35656  0.024977365  0.024718604           15 
 2738000   0.81092209   -6.6207019     821.4323  0.025000983  0.024711929           20 
 2739000   0.83294103   -6.6536395    819.55281  0.024934672  0.024705241           32 
 2740000    0.8003802    -6.643621    821.78095  0.024993338  0.024698535           36 
 2741000   0.80418838   -6.6197689    820.07322    0.0249323  0.024691841           17 
 2742000   0.81367128   -6.6372166    820.70597  0.024942438  0.024685158           17 
 2743000   0.80012224   -6.6213014    819.78414  0.024905339  0.024678465           26 
 2744000   0.80894424    -6.612318    822.07863  0.024965945  0.024671731           11 
 2745000   0.80759629   -6.6257943    823.70475  0.025006216  0.024665071           13 
 2746000   0.82426875   -6.6160299    821.86257  0.024941204  0.024658431           25 
 2747000   0.83345018   -6.6132971    819.42538   0.02485819  0.024651769           27 
 2748000    0.8179967   -6.6433306    820.16798  0.024871664  0.024645088           32 
 2749000   0.80148867   -6.6299051    819.50962  0.024842659  0.024638387           65 
 2750000   0.78447019   -6.6030562    819.53175  0.024834295  0.024631696           13 
 2751000   0.82164703   -6.6237889    821.68717   0.02489056   0.02462498           10 
 2752000   0.81499071   -6.6220538    821.18165  0.024866208  0.024618288           23 
 2753000   0.80385191   -6.6251424    819.81725  0.024815875  0.024611529           17 
 2754000   0.81574925   -6.6015151    822.09902  0.024875909  0.024604818           17 
 2755000   0.81755537   -6.6074401    820.76543   0.02482654  0.024598086           16 
 2756000   0.81023927   -6.6307549    820.34415  0.024804794  0.024591357           19 
 2757000    0.7970092   -6.6387157    820.61812  0.024804078   0.02458461           56 
 2758000   0.82566292   -6.6197454    821.14376  0.024810967  0.024577889           16 
 2759000   0.81265419   -6.6165323    819.99795  0.024767366  0.024571188           30 
 2760000   0.80584454   -6.6143233    821.58273  0.024806242   0.02456451           33 
 2761000     0.793688   -6.6314798    819.68747  0.024740054  0.024557779           19 
 2762000   0.81836279   -6.6224815    821.23436  0.024777769  0.024551004           13 
 2763000   0.79635305    -6.624683    821.15363  0.024766366  0.024544241           11 
 2764000   0.81163663   -6.6378442    820.48092  0.024737124  0.024537461           10 
 2765000   0.81658706    -6.635753      820.489  0.024728421  0.024530679           21 
 2766000   0.78625357    -6.626973    820.81932  0.024729433  0.024523856           14 
 2767000   0.81829731   -6.5980157    820.72436  0.024717635  0.024517043           11 
 2768000   0.82705482   -6.6287451    820.68283  0.024707455  0.024510265           12 
 2769000   0.82415315    -6.652175    820.21124   0.02468434  0.024503439           33 
 2770000   0.80548923   -6.6289551    823.09309  0.024762127  0.024496628           21 
 2771000   0.81865945   -6.6358756    820.37374  0.024671411  0.024489803           23 
 2772000   0.81905097   -6.6233778    821.96172  0.024710249  0.024483008           16 
 2773000   0.79703754   -6.6688912    821.50241  0.024687535  0.024476194           34 
 2774000   0.80223072    -6.620319    821.89014  0.024690283  0.024469358           50 
 2775000   0.79787748   -6.6313762    820.66435  0.024644575   0.02446254           66 
 2776000   0.80428895   -6.5717634    821.72309   0.02466748  0.024455765           22 
 2777000   0.82517611   -6.6518169    821.84426  0.024662233  0.024448992           40 
 2778000   0.80180901   -6.6678973    820.45755  0.024611758  0.024442143           25 
 2779000   0.80814712   -6.6548713    822.47185  0.024663304   0.02443529           17 
 2780000   0.80730954   -6.6162058    821.27116   0.02461844   0.02442848           11 
 2781000   0.80258203   -6.6276615    821.61832   0.02461999  0.024421678           17 
 2782000   0.81132823   -6.6358763    823.72858  0.024674352  0.024414864           12 
 2783000   0.80431579   -6.6589576    822.15448  0.024618352  0.024408072           11 
 2784000   0.79564745   -6.6201618    823.39381  0.024646606  0.024401262           13 
 2785000   0.80892813      -6.6326    822.13758  0.024600167  0.024394485           16 
 2786000   0.80649096   -6.6485448    822.19245  0.024592978  0.024387659           11 
 2787000   0.80461992   -6.6567393     823.0205  0.024608913  0.024380843            8 
 2788000    0.7914298   -6.6459577    820.58289  0.024527226  0.024374019           26 
 2789000   0.81695177   -6.6317263    823.59119  0.024608318  0.024367183           16 
 2790000   0.81128236    -6.639529    823.22381  0.024588525  0.024360385           21 
 2791000   0.78752012   -6.6739357    822.50087   0.02455813  0.024353579           10 
 2792000   0.81233415   -6.6190576    821.51466  0.024519898  0.024346796           26 
 2793000   0.80855306   -6.6591722    822.39409  0.024537358  0.024339989           15 
 2794000   0.78679597   -6.6193593    823.91138   0.02457383  0.024333202           38 
 2795000   0.79991799   -6.6359687    823.28769  0.024546443  0.024326399           23 
 2796000   0.80247586   -6.6419172    822.66684   0.02451916  0.024319631           14 
 2797000    0.8163041   -6.6180968    823.25977  0.024528059  0.024312856            8 
 2798000    0.8033758   -6.6445348    822.75768  0.024504339  0.024306058           22 
 2799000   0.81699178   -6.6324744    823.17201   0.02450792  0.024299208           18 
 2800000   0.79583045   -6.6394792    823.25584  0.024501662  0.024292388           39 
 2801000   0.78626106   -6.6399271    824.19595  0.024520884   0.02428559           24 
 2802000   0.82223924   -6.6382795    825.18693  0.024541605    0.0242788           14 
 2803000   0.79806425   -6.6611523    823.84778  0.024493037  0.024271973           16 
 2804000   0.78432571   -6.6401992    823.71058  0.024480224  0.024265155           51 
 2805000   0.79002928   -6.6682625    822.93075  0.024448329  0.024258321           33 
 2806000   0.80926351   -6.6623898    824.22027  0.024477912  0.024251495            8 
 2807000   0.80268989   -6.6381997    823.76552  0.024455692  0.024244707           23 
 2808000   0.81888145   -6.6293507    824.05583  0.024455598  0.024237946           16 
 2809000   0.80765446    -6.676103    822.82906  0.024410498  0.024231137           30 
 2810000   0.80449352    -6.660403    822.71706  0.024398489  0.024224312           24 
 2811000    0.7853042   -6.6228771    822.75916  0.024391058  0.024217493            9 
 2812000   0.79687442   -6.6427936    823.80081  0.024413253  0.024210674           33 
 2813000   0.79692868   -6.6474493    823.53776  0.024396782  0.024203858           17 
 2814000   0.81211027   -6.6581034     823.1846  0.024377653  0.024197001           20 
 2815000   0.79415871   -6.6710215    823.03409  0.024364538  0.024190123           18 
 2816000   0.80936969   -6.6409687    823.87494  0.024380769  0.024183241           10 
 2817000   0.80857209   -6.6666405    824.01243  0.024376181  0.024176407           14 
 2818000   0.80776742   -6.6545255    823.92801  0.024365034  0.024169601           27 
 2819000   0.81693066    -6.631363    824.14448   0.02436279  0.024162807           25 
 2820000    0.8045313   -6.6489963    826.31334  0.024418243  0.024155998           13 
 2821000   0.81521656   -6.6519749    825.68845  0.024391128   0.02414918           34 
 2822000   0.83261275   -6.6556135    825.19294  0.024367852  0.024142375           15 
 2823000   0.80156113   -6.6584238    825.12898  0.024357332  0.024135554           13 
 2824000   0.79576986   -6.6353242    824.82251  0.024339663  0.024128725           25 
 2825000   0.80447179    -6.652785    825.04147  0.024337507  0.024121941           26 
 2826000   0.80159233   -6.6614544    824.46615  0.024311929  0.024115136           34 
 2827000   0.80817006   -6.6628959    825.12415  0.024322726  0.024108315           40 
 2828000   0.79915533   -6.6678551    826.41596  0.024352191   0.02410149           54 
 2829000   0.80064897   -6.6587887     826.1333  0.024335257  0.024094673           43 
 2830000   0.77486331   -6.6577289    824.81147  0.024287735  0.024087849           27 
 2831000   0.78306819   -6.6641993    823.44882  0.024239045  0.024081031           30 
 2832000     0.792852   -6.6433559    824.47918  0.024260804  0.024074235           34 
 2833000   0.80914229   -6.6681061    826.47149  0.024310845  0.024067454           71 
 2834000   0.80487969    -6.664458    824.12201  0.024233181  0.024060667           26 
 2835000   0.79435748   -6.6786542    824.63226  0.024239631  0.024053861           40 
 2836000   0.79720648   -6.6660048    827.99544  0.024329908   0.02404712           14 
 2837000   0.80202398    -6.644597    826.69181   0.02428304  0.024040378           16 
 2838000   0.77500936    -6.648175    824.80914  0.024219202  0.024033641           34 
 2839000   0.79590802   -6.6406706    827.59209  0.024292359  0.024026899           26 
 2840000   0.79076705   -6.6303513    828.46281  0.024309355  0.024020166           11 
 2841000   0.79349971   -6.6521576    827.05406  0.024259476  0.024013421           21 
 2842000   0.80699496   -6.6322744    826.46024  0.024233528  0.024006639           45 
 2843000   0.79004559   -6.6564686    826.37751  0.024222579  0.023999865           19 
 2844000   0.79999132   -6.6448184    827.75212   0.02425434   0.02399307           29 
 2845000   0.78916152   -6.6715906    826.17938  0.024199747  0.023986291           21 
 2846000   0.80483001   -6.6540426    828.42533  0.024257008  0.023979566            8 
 2847000   0.79799304   -6.6522624     826.5538  0.024193707  0.023972852           20 
 2848000   0.79946323   -6.6483606    826.94165   0.02419656  0.023966096           27 
 2849000   0.78216073   -6.6657284    825.17922  0.024136516  0.023959311           22 
 2850000   0.78431171   -6.6443136    824.21795   0.02409994  0.023952529           48 
 2851000    0.7948314    -6.659188    825.75434  0.024136395  0.023945754           16 
 2852000   0.77646693   -6.6530604    827.06972  0.024166366  0.023938985            9 
 2853000    0.7910262   -6.6761158    827.00648  0.024156049  0.023932227           18 
 2854000   0.78506604   -6.6607257    827.52145  0.024162621  0.023925468           33 
 2855000   0.79838441   -6.6557168    826.62763  0.024128068  0.023918716           52 
 2856000   0.79899115   -6.6688443    826.59195  0.024118579  0.023911948           25 
 2857000   0.80371368   -6.6457071    826.24465  0.024100007  0.023905163           30 
 2858000   0.79097703   -6.6564332    828.20918  0.024148856  0.023898397           24 
 2859000   0.81079168   -6.6523177    827.90228  0.024131464  0.023891633           24 
 2860000   0.79107302   -6.6756072    824.92834  0.024036374  0.023884861           59 
 2861000   0.79095714    -6.669975    826.28271  0.024067421  0.023878067           56 
 2862000   0.80467284   -6.6560261    826.89424  0.024076818  0.023871284           41 
 2863000   0.79336112   -6.6725348    827.62065  0.024089552  0.023864505           22 
 2864000   0.79668702   -6.6228903    828.78835  0.024115117  0.023857742           24 
 2865000   0.78947357   -6.6539406    828.36195  0.024094298  0.023850985           29 
 2866000   0.79143425   -6.6692513    827.34407  0.024056294  0.023844249            7 
 2867000   0.80418483   -6.6679221    829.31201  0.024105104   0.02383752            9 
 2868000   0.78608531   -6.6577255    827.23477  0.024036343   0.02383078           13 
 2869000    0.7825425   -6.6836602    826.11046  0.023995308  0.023823994           27 
 2870000   0.80731426   -6.6480196    826.94178  0.024011085  0.023817201           12 
 2871000    0.8052758    -6.672028    827.65442  0.024023407  0.023810416           15 
 2872000   0.78050207   -6.6807486    826.62145   0.02398507  0.023803611           21 
 2873000   0.80489044   -6.6693908    826.79954  0.023981887   0.02379679           19 
 2874000   0.80119994   -6.6769628    827.59791  0.023996692  0.023789989           21 
 2875000   0.79241784   -6.6419374     827.0027  0.023971093  0.023783211           16 
 2876000    0.8003802   -6.6590622    827.61014  0.023980359  0.023776389           27 
 2877000   0.79631055    -6.691713    827.36246  0.023964849  0.023769601           16 
 2878000   0.81440784   -6.6713231    828.59313  0.023992157  0.023762835           14 
 2879000   0.80458028   -6.6942181    828.24239  0.023973671  0.023756038           45 
 2880000   0.77496892   -6.6407964    828.84014  0.023982643  0.023749256           37 
 2881000   0.79641649   -6.6743254    827.77795  0.023943594  0.023742464           40 
 2882000   0.77978797   -6.6751889    828.26732  0.023949437  0.023735671           13 
 2883000    0.7805605   -6.7119149    827.04997  0.023905942  0.023728835           56 
 2884000   0.79115591   -6.6490931    829.89979  0.023979999  0.023722037           50 
 2885000   0.78583184   -6.6487412    827.92452  0.023914631  0.023715257           47 
 2886000   0.78019827   -6.6869993    829.00198  0.023937456  0.023708476           28 
 2887000   0.79782162   -6.6590985    828.97347  0.023928342  0.023701702           23 
 2888000   0.79453344   -6.6455815     828.7616  0.023913943  0.023694907           13 
 2889000   0.78595435   -6.6588053    829.48298  0.023926473   0.02368814           25 
 2890000   0.79703396   -6.6978802    829.60644  0.023921754   0.02368137           18 
 2891000   0.77985101   -6.6799569    826.12068  0.023813002  0.023674579           39 
 2892000   0.79133465    -6.701448    828.96501  0.023886728  0.023667762           31 
 2893000   0.77164501   -6.6554967    828.43377  0.023863169  0.023660952           51 
 2894000   0.78189857   -6.6908875    829.06347  0.023873056  0.023654189           35 
 2895000   0.76485606   -6.6431313    830.74991  0.023913354  0.023647458           10 
 2896000   0.78451616   -6.6390439    830.09346  0.023886207  0.023640751           15 
 2897000   0.77889788   -6.6850165     829.3751  0.023857298  0.023634034           22 
 2898000   0.78113268   -6.6523788    829.86415  0.023863128  0.023627325           12 
 2899000   0.78624309   -6.6491373    832.13652  0.023920217  0.023620643           18 
 2900000   0.79495105   -6.6570948    831.23395  0.023886033  0.023613954           35 
 2901000   0.79139967   -6.6537003    830.33863  0.023852081  0.023607206           11 
 2902000   0.80616681   -6.6937937    830.17152  0.023839063  0.023600511           13 
 2903000   0.77232054   -6.6583284    829.76082  0.023819061  0.023593807           14 
 2904000   0.77118878   -6.6616052    832.05796  0.023876778  0.023587122           19 
 2905000   0.77807607   -6.6802489    830.21571  0.023815712  0.023580481           15 
 2906000   0.77898107   -6.6538419    834.32874  0.023925463  0.023573833           39 
 2907000   0.80221325   -6.6863246    832.25286  0.023857725  0.023567157           98 
 2908000   0.79113244   -6.6661615    830.03999  0.023786107  0.023560476           79 
 2909000   0.78909292   -6.6842543    829.94247  0.023775137  0.023553739           82 
 2910000   0.80218024    -6.704488    830.65523  0.023787378  0.023547004           44 
 2911000   0.79296461   -6.6860344    832.24594  0.023824744  0.023540266           21 
 2912000    0.7945535   -6.6938155    830.86241  0.023776969  0.023533516           39 
 2913000   0.78977791   -6.6551495    831.68858  0.023792441  0.023526812           35 
 2914000   0.79454341   -6.6697021    832.88365  0.023818453  0.023520148           23 
 2915000   0.78160955   -6.6759146    830.77442  0.023749983  0.023513506           15 
 2916000   0.79429935   -6.6744452    830.15273  0.023724072  0.023506831           24 
 2917000   0.78022828   -6.6980888    833.27034  0.023805004  0.023500127           60 
 2918000   0.79109764   -6.6971419    831.55242  0.023747785  0.023493383           69 
 2919000   0.77509723   -6.6688698    831.92836  0.023750381  0.023486652           18 
 2920000   0.77375874   -6.6754238    832.08695  0.023746774  0.023479956           14 
 2921000   0.77589642   -6.6713708    831.49104  0.023721643  0.023473269           20 
 2922000   0.77401221   -6.6608908    831.10868   0.02370262  0.023466589           25 
 2923000   0.78517106   -6.6907603    833.76849  0.023770341  0.023459883           14 
 2924000   0.78960027   -6.6873105    831.31551  0.023692302  0.023453203           16 
 2925000   0.78721686   -6.6665814     832.5797  0.023720219  0.023446511           17 
 2926000   0.79106503   -6.6441222    831.51361   0.02368175   0.02343984           23 
 2927000   0.78133906   -6.6516718    833.97751  0.023743808  0.023433186           10 
 2928000   0.77671826   -6.6896448    832.82812  0.023702986  0.023426539           24 
 2929000   0.78511556   -6.6574467    832.69601  0.023691135  0.023419884           12 
 2930000   0.77044364   -6.6719436    832.73489  0.023684155  0.023413241           11 
 2931000   0.77028206   -6.6864018    833.34674   0.02369347  0.023406586           24 
 2932000    0.7819732    -6.673062    833.34186  0.023685251  0.023399915           35 
 2933000   0.76324803   -6.6892061    833.42454  0.023679524  0.023393262           64 
 2934000   0.77390352   -6.6477237    834.55257  0.023703493   0.02338661           65 
 2935000   0.78698692   -6.6718098    832.90831  0.023648731  0.023379936           19 
 2936000    0.7790317   -6.6856293    831.60225  0.023603606  0.023373257           30 
 2937000   0.79294876   -6.6795739    833.66648  0.023654139  0.023366597           17 
 2938000   0.77084655   -6.6676052    834.20085  0.023661245  0.023359939           17 
 2939000   0.77592801   -6.7196064    831.57476  0.023578733  0.023353226           42 
 2940000   0.78460795   -6.7010998    830.75487  0.023547474  0.023346487           35 
 2941000   0.78328983   -6.7071648    833.67721  0.023622272   0.02333978           44 
 2942000   0.78160313   -6.6696978    833.59429  0.023611893  0.023333073           18 
 2943000     0.791464   -6.6891083     835.0933  0.023646316  0.023326408           62 
 2944000   0.77253842   -6.6871059    834.07998  0.023609601  0.023319764           25 
 2945000   0.77794102   -6.7009588    833.28734  0.023579155  0.023313125           23 
 2946000   0.75674663   -6.6829033    836.63305  0.023665791  0.023306452           12 
 2947000   0.77816258    -6.681488    833.15687  0.023559464  0.023299791           43 
 2948000     0.777114   -6.7051609    831.58892   0.02350715  0.023293118           26 
 2949000    0.7853385   -6.6938288    831.98808  0.023510458  0.023286439           18 
 2950000   0.78110784   -6.6949298     832.3781  0.023513506  0.023279746           16 
 2951000   0.78070371   -6.6664855    832.89439  0.023520117  0.023273088           12 
 2952000   0.80028276   -6.6658567     833.3419  0.023524783  0.023266435           20 
 2953000   0.79418369   -6.6910552    833.95733  0.023534184  0.023259783           25 
 2954000   0.78331207   -6.6786429    832.42349  0.023482946  0.023253122           18 
 2955000   0.77594792   -6.6778249     834.6271  0.023537143  0.023246461           16 
 2956000   0.78211402   -6.7056255    835.74305  0.023560641  0.023239787           12 
 2957000    0.7778324   -6.6883098    834.36416  0.023513814  0.023233122           17 
 2958000    0.7849757   -6.6622944     834.9167  0.023521431  0.023226458           14 
 2959000   0.77346299   -6.6877745    833.97992  0.023487099  0.023219824           11 
 2960000   0.76992782   -6.6811823    836.39199  0.023547072  0.023213181           23 
 2961000   0.77245835   -6.7271978    835.29684  0.023508298  0.023206513           19 
 2962000   0.77398704   -6.6884474    834.23347  0.023470444   0.02319984           30 
 2963000   0.77996858   -6.6985109    835.30197  0.023492574  0.023193192            9 
 2964000   0.78260096   -6.7012383    832.67485  0.023410786  0.023186535           15 
 2965000   0.77610571    -6.680831    835.06419  0.023470045   0.02317986           29 
 2966000   0.77154594   -6.7108896    835.07744  0.023462504  0.023173196           29 
 2967000   0.77919371   -6.7049073    834.69958  0.023443983  0.023166532           12 
 2968000   0.76597046   -6.6984182    833.28947  0.023396492  0.023159852           45 
 2969000   0.76458486   -6.7072427    834.69348   0.02342802  0.023153204           18 
 2970000   0.77821567   -6.6974431     834.4906  0.023414439  0.023146583           21 
 2971000   0.76685627   -6.7012936    835.16003  0.023425335   0.02313996           29 
 2972000   0.77961739   -6.6820519    835.18135   0.02341805  0.023133342           32 
 2973000   0.76822627   -6.6785089    832.43558  0.023333209  0.023126716           25 
 2974000   0.77796578   -6.7137394    835.93795  0.023423502  0.023120064           37 
 2975000   0.77281721   -6.7021529    834.42821  0.023373339  0.023113418           71 
 2976000   0.78091998   -6.7026933    836.24674  0.023416407  0.023106761           19 
 2977000   0.76216953   -6.7162113    833.76557  0.023339088  0.023100119           25 
 2978000   0.77327552   -6.7052483     837.0942  0.023424396  0.023093468           38 
 2979000   0.77248154   -6.7005162    836.94288  0.023412299  0.023086861           23 
 2980000   0.77654827   -6.6963281    835.31437  0.023358903  0.023080275           41 
 2981000   0.78302565    -6.722883    835.51169  0.023356583  0.023073663           52 
 2982000   0.77379635   -6.6928676    837.16169  0.023394861  0.023067078           29 
 2983000   0.78528728   -6.6890781    834.56102  0.023314365  0.023060491           30 
 2984000   0.77480766   -6.6833011    835.93537  0.023344933  0.023053924           44 
 2985000   0.77349113   -6.6955465    837.79042  0.023388901  0.023047335           29 
 2986000   0.76476083   -6.7158593    836.94222  0.023357396  0.023040753           25 
 2987000   0.78632728   -6.6860188    837.18177   0.02335626  0.023034187           12 
 2988000   0.77024986   -6.7196846    835.41425  0.023299148  0.023027613           24 
 2989000   0.77217352   -6.6977957    837.08608  0.023337964  0.023021053            7 
 2990000   0.77294398   -6.6982643    834.51013  0.023258365  0.023014475           10 
 2991000   0.78369903    -6.697077    837.12858  0.023323542  0.023007873           18 
 2992000   0.77353815   -6.6851278     835.5202   0.02327095  0.023001325           16 
 2993000    0.7583616    -6.700714     837.8162  0.023327102  0.022994744           26 
 2994000   0.76485917   -6.7296287     837.9272    0.0233224  0.022988131           30 
 2995000    0.7942452   -6.7014398    836.21793  0.023267054  0.022981518           28 
 2996000   0.76112037   -6.6814826    836.24337  0.023259996  0.022974892           20 
 2997000   0.77492997   -6.7155199    835.63954  0.023235445  0.022968259           32 
 2998000   0.77056262   -6.7157645    837.37399  0.023275906  0.022961628           30 
 2999000   0.77091452   -6.6938811    836.02317  0.023230609  0.022954991           32 
 3000000   0.75987726   -6.6931658    837.74666   0.02327074  0.022948388           26 
 3001000   0.77918961   -6.6502619        838.6  0.023286682  0.022941823           10 
 3002000   0.75864699   -6.7198139    837.38377  0.023245164  0.022935262           19 
 3003000   0.76618758   -6.7175983    838.58114   0.02327065  0.022928676           19 
 3004000   0.77129734    -6.702936    838.20656  0.023252512  0.022922052           24 
 3005000   0.76007211   -6.6711261    836.32956  0.023192722  0.022915473           19 
 3006000   0.75767027   -6.7013604    836.34322  0.023185385  0.022908867           15 
 3007000    0.7674371    -6.706656    835.73757  0.023160891  0.022902242           27 
 3008000   0.76827284   -6.7003923    837.48492  0.023201599  0.022895603           27 
 3009000   0.77457207   -6.7485578    835.63273  0.023142592  0.022888941           32 
 3010000   0.77452367   -6.7086731     836.4815  0.023158403  0.022882273           20 
 3011000   0.76248153   -6.7284721    836.07512  0.023139464  0.022875654           53 
 3012000   0.78168183   -6.7268005     838.0173  0.023185516  0.022869027           55 
 3013000   0.78997371   -6.6975979    837.82332  0.023172456  0.022862442           36 
 3014000   0.77325547    -6.687413    837.52413  0.023156496  0.022855864           26 
 3015000   0.77922673     -6.70712    835.87082  0.023103118  0.022849214           24 
 3016000    0.7690998   -6.7250021      836.255  0.023106073   0.02284259           16 
 3017000   0.75922133   -6.6932167    835.91831  0.023089115  0.022835967           36 
 3018000   0.77335797   -6.7385597    836.26395  0.023091008  0.022829299           22 
 3019000   0.76500867   -6.7251571    836.03695  0.023077094  0.022822654           22 
 3020000   0.77358265   -6.7416128    837.52194  0.023110429  0.022816017           72 
 3021000   0.77863936   -6.7290134    835.14105  0.023037103  0.022809381           31 
 3022000   0.75627385   -6.7160545    838.47467  0.023121406  0.022802733           49 
 3023000   0.77156589   -6.7267296    837.85685  0.023096727  0.022796095           35 
 3024000   0.76216515    -6.714946    837.83473  0.023088479  0.022789438           62 
 3025000   0.76227077   -6.7144281    838.85841  0.023109047  0.022782837           62 
 3026000   0.75214198   -6.7276327    836.97451  0.023049529  0.022776212           32 
 3027000   0.76555572   -6.6982407    836.09629  0.023017737  0.022769614           25 
 3028000   0.75913577     -6.72436    838.78358  0.023084092  0.022763014           25 
 3029000   0.77865133   -6.6717306      837.118  0.023030648  0.022756428           22 
 3030000   0.77394913   -6.7294633    836.79089  0.023014051  0.022749809           46 
 3031000   0.77069293   -6.7337192    836.85155  0.023008126  0.022743168           57 
 3032000    0.7687042   -6.7476344     838.5698  0.023047763  0.022736516           88 
 3033000   0.75669243    -6.758923     837.2928  0.023005077  0.022729864           69 
 3034000   0.77052903   -6.7456919    837.15238  0.022993638  0.022723232          166 
 3035000   0.74859568   -6.7402649    839.61029   0.02305355  0.022716633          184 
 3036000   0.75321738   -6.7274852    838.61948   0.02301876  0.022710035           90 
 3037000   0.78430137   -6.7162091    839.12151  0.023024956  0.022703427           71 
 3038000   0.75786245   -6.7207993    837.44425  0.022971369  0.022696855           71 
 3039000   0.77180047   -6.7189899    841.79758  0.023083185  0.022690276           85 
 3040000   0.75699165   -6.7079882    840.51327  0.023040386  0.022683748          117 
 3041000   0.76184154   -6.7160056    840.80218  0.023040726  0.022677209          130 
 3042000   0.74890222   -6.6995401    838.30393  0.022964714  0.022670681          136 
 3043000   0.77439142   -6.7231892    840.47535  0.023016632  0.022664133          174 
 3044000   0.75842194   -6.7108355    840.69551  0.023015098  0.022657565          122 
 3045000   0.77299204   -6.7228121    838.99363  0.022960964   0.02265103          113 
 3046000    0.7601525   -6.7078145    842.12039  0.023038969  0.022644532           60 
 3047000   0.75869666   -6.7158859    840.65607   0.02299136  0.022638029           64 
 3048000   0.76219628   -6.7104252    840.19118  0.022971106  0.022631507           56 
 3049000   0.77561621    -6.692335    839.94392  0.022956814  0.022624999           34 
 3050000   0.73529518   -6.7350989    839.93174  0.022948955  0.022618502           28 
 3051000    0.7718513    -6.747711    839.24652  0.022922717  0.022611951           42 
 3052000   0.75780203   -6.7252879    839.24104  0.022915057   0.02260539           32 
 3053000   0.76653514   -6.7561016    840.47206  0.022941152  0.022598826           28 
 3054000   0.77435997   -6.7427505    838.19417  0.022871485  0.022592259           41 
 3055000   0.76091896   -6.7367503    839.08421  0.022888276  0.022585694           52 
 3056000   0.77399406   -6.7146724    840.87767  0.022929692  0.022579151           72 
 3057000   0.78193397   -6.7124032    839.39362  0.022881737  0.022572621           50 
 3058000   0.76833845   -6.7172833    840.13834  0.022894548  0.022566116           21 
 3059000    0.7601489   -6.7363223    838.98869  0.022855745  0.022559592           28 
 3060000   0.76102595   -6.7197947    838.55289  0.022836408  0.022553055           24 
 3061000   0.75443464   -6.7157767    839.80287  0.022862977  0.022546522           25 
 3062000   0.77145168   -6.7253391    839.15413  0.022837855  0.022539958           11 
 3063000   0.76847799    -6.728697    839.24193  0.022832787  0.022533415           10 
 3064000   0.75034674   -6.7179819    838.65364  0.022809335  0.022526878           21 
 3065000     0.777815   -6.7252342    842.18068  0.022897789  0.022520367           27 
 3066000   0.76298183   -6.7073957    840.38354  0.022841475  0.022513866           16 
 3067000   0.76782876   -6.7238192    841.80632  0.022872686  0.022507411           24 
 3068000   0.75951594   -6.7442982    841.83216  0.022865932  0.022500899           34 
 3069000   0.76327556   -6.7580981    840.58307  0.022824565  0.022494361           44 
 3070000   0.76616791   -6.7178739    842.13703  0.022859311  0.022487858           38 
 3071000   0.75556828   -6.7429858    840.78764  0.022815251  0.022481344           40 
 3072000   0.76559841   -6.7144894    839.46548  0.022771958  0.022474809           31 
 3073000   0.76624564   -6.7230319    839.92492  0.022777007  0.022468297           23 
 3074000   0.77683982   -6.7442451    840.62511  0.022788579  0.022461795           45 
 3075000   0.74902867   -6.7209987    841.73163  0.022811155   0.02245528           51 
 3076000    0.7660565   -6.7225487    840.82387  0.022779147  0.022448798           42 
 3077000   0.75344018   -6.7368443    841.49323  0.022789872  0.022442287           53 
 3078000   0.75039946   -6.7358777    840.51305   0.02275593  0.022435788           53 
 3079000   0.74853601   -6.7232108    842.64461  0.022806231  0.022429296           20 
 3080000   0.75069355   -6.7429919    840.78461  0.022748501  0.022422827           15 
 3081000   0.75307196   -6.7277595    841.09995  0.022749647  0.022416332           13 
 3082000   0.76942998   -6.7318081    842.42799  0.022778174  0.022409833           29 
 3083000   0.77802369   -6.7210552    842.23481  0.022765564  0.022403333           15 
 3084000   0.76006497   -6.7198152    844.78473  0.022827084  0.022396864           22 
 3085000     0.761851   -6.7351259    841.12042  0.022720703  0.022390377           35 
 3086000    0.7526372   -6.7322126     841.6435  0.022727465  0.022383895           43 
 3087000   0.75267039    -6.728843    842.81542  0.022751739  0.022377428           33 
 3088000   0.76194301   -6.7178522    840.92221  0.022693281  0.022370953           39 
 3089000   0.75469767   -6.7340042    843.54411  0.022756666  0.022364503           25 
 3090000   0.75707381    -6.729049    840.79421  0.022675141  0.022358036           21 
 3091000   0.76283201   -6.7220295    843.39429  0.022737903  0.022351589           25 
 3092000   0.73881238   -6.7283347    842.50925  0.022706696  0.022345156           15 
 3093000   0.75261265   -6.7335885    842.98626  0.022712207  0.022338718           20 
 3094000   0.75046976   -6.7171083    843.87764  0.022728874  0.022332291           27 
 3095000   0.75351837   -6.7356563    844.07919  0.022726957  0.022325888           45 
 3096000   0.74824265    -6.726415    842.99247  0.022690366   0.02231946           50 
 3097000   0.72769261   -6.7434858    842.53686   0.02267078  0.022313034           38 
 3098000   0.76094191   -6.7600809      842.003  0.022649102  0.022306579           80 
 3099000   0.76172225   -6.7662652    842.33652  0.022650762  0.022300143           50 
 3100000   0.75659372   -6.7555111    841.17486  0.022612227   0.02229368          142 
 3101000   0.77826127   -6.7317639    842.47895   0.02263998   0.02228724          159 
 3102000   0.76544864   -6.7247318    842.83983  0.022642377  0.022280826           84 
 3103000    0.7524743    -6.755116     840.7161  0.022578046   0.02227436          102 
 3104000   0.75940321   -6.7632653    842.23003  0.022611416  0.022267898          148 
 3105000   0.76028319   -6.7504125    843.69333  0.022643407  0.022261427          255 
 3106000   0.73231593   -6.7610915     843.0808  0.022619682  0.022254946           50 
 3107000   0.75512642   -6.7317903    841.99243  0.022583211  0.022248477           20 
 3108000   0.74603844   -6.7394559    841.64175  0.022566542  0.022241997           59 
 3109000    0.7553707   -6.7713338    843.31633  0.022604169  0.022235503           46 
 3110000   0.75162045   -6.7609632    843.72227  0.022607778  0.022229028           48 
 3111000   0.77002169   -6.7549509    840.60526  0.022517017  0.022222555           36 
 3112000   0.75574545    -6.755476    841.56693  0.022535533  0.022216068           60 
 3113000    0.7510198   -6.7487693    840.50973  0.022499993  0.022209549           74 
 3114000   0.73691757   -6.7819055    840.65951  0.022496776  0.022203024           96 
 3115000   0.74266871    -6.765569    841.62658  0.022515425  0.022196517           97 
 3116000   0.75646261   -6.7465464     842.6019  0.022534283  0.022190034           78 
 3117000   0.73700752   -6.7547268    842.23601  0.022517271   0.02218354           97 
 3118000   0.75878346   -6.7725334    839.94547  0.022448831  0.022177047           79 
 3119000   0.75565696   -6.7646485    844.05843  0.022551524  0.022170571           59 
 3120000   0.74143628    -6.758726    842.61742  0.022505807  0.022164102           93 
 3121000   0.76114705   -6.7734888    843.09156  0.022511256  0.022157607          261 
 3122000   0.75422147   -6.7554905    842.28474   0.02248251  0.022151113          268 
 3123000   0.75030256   -6.7562107    841.95967  0.022466637  0.022144617          223 
 3124000   0.75687177   -6.7505386    843.52581  0.022501222  0.022138129          310 
 3125000   0.74845082   -6.7800956    843.47142  0.022492571  0.022131638          449 
 3126000   0.75341885   -6.7819069    842.10045  0.022448828  0.022125115          372 
 3127000   0.75242956   -6.8230742    840.48017   0.02239847  0.022118559          457 
 3128000   0.75319606   -6.8066525    839.21754  0.022357671  0.022111971          470 
 3129000   0.73736337   -6.7637061    842.43315  0.022436166  0.022105395          455 
 3130000   0.75965139    -6.785272    842.64562  0.022434654  0.022098823          409 
 3131000   0.75468371   -6.8136135    840.23287  0.022363272  0.022092263          512 
 3132000   0.77426509   -6.8031386    842.39206  0.022413582  0.022085685          471 
 3133000   0.74256602   -6.7887528    841.10309  0.022372143  0.022079117          485 
 3134000   0.78156741   -6.8143917    841.75529  0.022382347  0.022072543          538 
 3135000   0.74741956    -6.811064     839.6466  0.022319155  0.022065944          566 
 3136000   0.76360261   -6.7936014    842.52255  0.022388461  0.022059369          602 
 3137000   0.75488227   -6.8221705    840.71288   0.02233325  0.022052776          566 
 3138000   0.74212377   -6.7903427    839.60687  0.022296762   0.02204617          617 
 3139000   0.75245494   -6.8092616    840.76808  0.022320486  0.022039568          714 
 3140000   0.75681707    -6.807443    840.19099  0.022298062   0.02203295          824 
 3141000   0.75470121   -6.7936406    839.65982  0.022276871  0.022026338          817 
 3142000   0.73993118   -6.8285301    840.70384  0.022297471  0.022019721          851 
 3143000   0.74906655   -6.8262213    842.48485  0.022337598  0.022013132          845 
 3144000   0.76563612   -6.8129963    841.69187  0.022309475   0.02200654          786 
 3145000   0.76234098   -6.8019398    842.31425  0.022318873  0.021999955          815 
 3146000   0.75844739   -6.8251475    842.09103  0.022305865   0.02199337          872 
 3147000   0.76398019   -6.8273498    842.28216  0.022303839  0.021986785          832 
 3148000   0.75139767   -6.8268502    837.80448  0.022178221   0.02198018          970 
 3149000   0.75411605   -6.8377573    840.53326  0.022243391  0.021973558          949 
 3150000   0.75479715   -6.8363461    840.69938  0.022240724  0.021966948         1020 
 3151000   0.76396265   -6.8729898     841.4715  0.022254086  0.021960335         1224 
 3152000   0.74751593   -6.8470689    839.90471  0.022205603  0.021953697         1163 
 3153000   0.75128413   -6.8412198    839.98826  0.022200768   0.02194707         1290 
 3154000   0.73498034   -6.8404573    840.20083  0.022199346   0.02194041         1232 
 3155000   0.74946689   -6.8575136    841.05583  0.022214893  0.021933755         1278 
 3156000   0.73592085    -6.882636     838.9418  0.022152033  0.021927074         1321 
 3157000   0.75556516   -6.8926634    839.21492  0.022152226  0.021920383         1390 
 3158000   0.72791036   -6.9035124    839.71493  0.022158405   0.02191366         1481 
 3159000   0.75501347   -6.9009943     837.6184  0.022096085  0.021906927         1584 
 3160000   0.74821713   -6.9087528     836.2931  0.022054143    0.0219002         1589 
 3161000   0.74601863   -6.9036852    837.76124  0.022085871  0.021893455         1511 
 3162000   0.74621703   -6.8952927    836.39244  0.022042812  0.021886703         1626 
 3163000   0.74579613   -6.9169749    838.39811  0.022088684  0.021879928         1800 
 3164000   0.75969427   -6.9207632     838.1405  0.022074918  0.021873127         1837 
 3165000   0.74020798   -6.9395932    837.17621  0.022042554  0.021866308         1928 
 3166000   0.74560059   -6.9437406    835.72152  0.021997303  0.021859459         2063 
 3167000   0.75185242   -6.9647124     835.7148   0.02199018  0.021852586         2338 
 3168000   0.75162973   -6.9675404    837.54173  0.022031295  0.021845699         2317 
 3169000    0.7476005   -6.9638083    834.82989  0.021953032  0.021838795         2359 
 3170000   0.74799859   -6.9763373    834.18525   0.02192916  0.021831865         2433 
 3171000   0.73521291   -6.9679557    834.27316  0.021924555  0.021824929         2409 
 3172000   0.73452248   -7.0103086     834.4146  0.021921359  0.021817979         2492 
 3173000    0.7635471   -7.0208918    832.07917  0.021853114  0.021811025         2622 
 3174000   0.74566022   -7.0148322     833.9433  0.021895172  0.021804029         2633 
 3175000   0.72290867   -7.0728503    830.63242  0.021801376  0.021796983         2891 
 3176000   0.75033219   -7.0532901    831.77092  0.021824384  0.021789908         2925 
 3177000   0.73295655   -7.0924418    829.42864  0.021756076  0.021782797         3032 
 3178000   0.74877605    -7.099594    830.67154  0.021781821  0.021775674         3087 
 3179000   0.76454389   -7.0859173    829.10989  0.021734033  0.021768519         3230 
 3180000   0.75547475   -7.1312203    829.22367   0.02173018  0.021761301         3367 
 3181000   0.74579925   -7.1558725    829.30897  0.021725583  0.021754043         3483 
 3182000   0.73620655   -7.1740723    826.97633  0.021657666  0.021746752         3526 
 3183000   0.74499248   -7.1423002    827.24994  0.021658025  0.021739415         3639 
 3184000   0.74453748   -7.1670401    826.71811  0.021637304  0.021732092         3654 
 3185000   0.74058925   -7.1637047    826.58506  0.021627029  0.021724726         3637 
 3186000   0.74669182   -7.1768777    826.21132  0.021610466  0.021717367         3639 
 3187000   0.76231222    -7.186744    824.89459  0.021569255      0.02171         3696 
 3188000   0.74287291    -7.189538    825.60073  0.021580948  0.021702624         3703 
 3189000   0.73896078   -7.1998622    826.32713  0.021593162  0.021695229         3697 
 3190000   0.72995513    -7.199089    825.80975  0.021572878  0.021687818         3760 
 3191000   0.74061803   -7.2115939    825.50771  0.021558229  0.021680407         3789 
 3192000   0.73682053   -7.2042518    827.65965  0.021607656  0.021672987         3781 
 3193000   0.73023827   -7.2182576    824.90874  0.021529093   0.02166558         3759 
 3194000   0.74384525   -7.2141404    823.93779   0.02149702  0.021658168         3763 
 3195000   0.72230373   -7.2106113    824.75263  0.021511545  0.021650754         3746 
 3196000   0.74914225   -7.2021323    824.62992  0.021501614  0.021643327         3765 
 3197000   0.75131301   -7.2413161    823.48257  0.021464982  0.021635889         3809 
 3198000   0.74609298   -7.2612808    823.43163  0.021456943  0.021628439         3808 
 3199000   0.72214407     -7.27529    824.27037  0.021472084  0.021620976         3828 
 3200000   0.72241452   -7.2691829    821.15751   0.02138431  0.021613471         3816 
 3201000   0.75900942   -7.2982362    822.56608    0.0214143  0.021605943         3821 
 3202000   0.74423964   -7.2863938    821.41499  0.021377654  0.021598416         3861 
 3203000   0.75371626   -7.3052158    820.37716  0.021343979  0.021590874         3857 
 3204000   0.75277843   -7.2852355    822.12046  0.021382659  0.021583334         3882 
 3205000   0.72121646   -7.3205328    822.12549  0.021376118  0.021575785         3852 
 3206000   0.73997026   -7.2971836    821.65926  0.021357331  0.021568237         3868 
 3207000   0.74251111   -7.2981155    823.09008  0.021387852  0.021560678         3857 
 3208000   0.74149285    -7.313695     821.2964  0.021334591  0.021553115         3867 
 3209000   0.74463835   -7.2965737    821.63153  0.021336645  0.021545538         3885 
 3210000   0.73792116   -7.2968199    821.34898  0.021322663   0.02153797         3907 
 3211000   0.72644462   -7.3150409    822.11193  0.021335823  0.021530402         3894 
 3212000   0.75447215   -7.2864908     822.0163  0.021326699  0.021522836         3920 
 3213000   0.72938651   -7.3291052     819.3258   0.02125028  0.021515258         3918 
 3214000   0.72772756   -7.3152145    820.45581  0.021272968  0.021507681         3910 
 3215000    0.7316747   -7.3249417    820.29847  0.021262272  0.021500106         3902 
 3216000    0.7595235   -7.3040849    821.08706  0.021276095  0.021492535         3896 
 3217000   0.73355156   -7.3255205    820.35803  0.021250597  0.021484954         3891 
 3218000   0.74274696   -7.3070069    819.96802  0.021233893  0.021477375         3917 
 3219000   0.74410004   -7.3040228     821.3354  0.021262695  0.021469805         3906 
 3220000   0.71850694   -7.3195844    821.39763  0.021257703  0.021462227         3902 
 3221000   0.73331521   -7.3261825    820.80017  0.021235646  0.021454645         3874 
 3222000   0.72300263     -7.31178    821.21704  0.021239837  0.021447058         3908 
 3223000   0.72560988   -7.3324945    819.50916  0.021189088  0.021439476         3922 
 3224000   0.72367048    -7.314605    821.28689  0.021228466  0.021431883         3904 
 3225000   0.72997724    -7.320708    821.26042  0.021221199  0.021424297         3905 
 3226000   0.71639173   -7.3378375    821.00542  0.021208034  0.021416706         3923 
 3227000   0.71269811   -7.3389242    821.27341  0.021208383  0.021409122         3898 
 3228000   0.73299181   -7.3433407    819.22539  0.021148941  0.021401532         3906 
 3229000   0.73982972   -7.3250107    821.09597  0.021190667  0.021393942         3905 
 3230000   0.72833399   -7.3517162    821.30016  0.021189375  0.021386348         3897 
 3231000   0.74056869   -7.3282514    820.50716  0.021162364   0.02137876         3883 
 3232000   0.73355816   -7.3265073    819.88611  0.021139803  0.021371161         3855 
 3233000   0.73812035   -7.3796327    820.01521  0.021136592   0.02136355         3888 
 3234000    0.7314329   -7.3271392    819.79686   0.02112443  0.021355943         3880 
 3235000   0.74604785   -7.3507044    817.17317  0.021050314  0.021348313         3890 
 3236000   0.72771304   -7.3302722    819.07328   0.02109274  0.021340682         3903 
 3237000   0.73445284    -7.363908    818.23427  0.021064624  0.021333042         3904 
 3238000   0.72429702   -7.3630531    819.76596  0.021097539  0.021325391         3903 
 3239000   0.72858723   -7.3532493    819.32239  0.021079613  0.021317742         3907 
 3240000   0.72357537   -7.3569032    817.85205  0.021035289  0.021310098         3912 
 3241000   0.71953402   -7.3614915    819.28716  0.021065699  0.021302458         3911 
 3242000   0.73478313   -7.3529083    818.33954  0.021034843  0.021294819         3901 
 3243000   0.72626577   -7.3734249    818.28463  0.021026946  0.021287179         3922 
 3244000   0.73277745   -7.3763754    817.94139  0.021011647   0.02127954         3917 
 3245000   0.74687326   -7.3710109     818.6081  0.021022293   0.02127189         3896 
 3246000   0.73580431   -7.3848908    818.34863  0.021009156  0.021264247         3901 
 3247000   0.74228173    -7.365399    817.45294  0.020979698  0.021256616         3921 
 3248000   0.73112036   -7.3513927    819.35499  0.021022039  0.021248974         3899 
 3249000   0.73130074   -7.3841058    818.07105  0.020982637  0.021241343         3907 
 3250000   0.71958658   -7.3749691    817.26995   0.02095564  0.021233699         3905 
 3251000   0.73613929   -7.3755614    818.64608  0.020984468  0.021226063         3904 
 3252000   0.73837011   -7.3730359    817.30865  0.020943744  0.021218437         3901 
 3253000   0.72528313   -7.3690134    819.57362  0.020995328  0.021210808         3909 
 3254000   0.73396846   -7.3660443    819.05098  0.020975491  0.021203169         3918 
 3255000    0.7311609   -7.3540995    818.03705  0.020943089  0.021195542         3898 
 3256000     0.742048     -7.35762    818.29312   0.02094321  0.021187917         3885 
 3257000   0.72030308   -7.3555519    818.45283  0.020940867  0.021180296         3901 
 3258000   0.73810376   -7.3770522    817.38855  0.020907217  0.021172668         3905 
 3259000   0.72716373    -7.363478    818.19413    0.0209214  0.021165055         3906 
 3260000   0.71451065   -7.3785157    819.55106  0.020949669  0.021157425         3901 
 3261000   0.74920607   -7.3828589    818.56902  0.020918149   0.02114981         3904 
 3262000   0.72996684   -7.3972962    816.42573  0.020856983  0.021142188         3922 
 3263000   0.73714439   -7.3862913    818.27948  0.020897933  0.021134559         3906 
 3264000   0.74420475   -7.3738397    818.03598  0.020885314   0.02112694         3905 
 3265000   0.73838508   -7.4027727    818.82346  0.020899016  0.021119312         3915 
 3266000   0.73026297   -7.3643373    816.68305  0.020838004  0.021111692         3914 
 3267000   0.73645213   -7.3975936    818.83168  0.020886432  0.021104084         3922 
 3268000   0.71563577     -7.37887    816.78765  0.020827918  0.021096459         3912 
 3269000   0.73176037   -7.3819632    817.76653  0.020846501  0.021088844         3933 
 3270000   0.73621039   -7.3921143    819.42674  0.020882435  0.021081222         3904 
 3271000   0.73086848   -7.3797718    816.91376  0.020812029  0.021073612         3903 
 3272000   0.72855652    -7.389072    818.34982  0.020842243  0.021066003         3921 
 3273000   0.72945931   -7.4008432    817.63718   0.02081773  0.021058401         3925 
 3274000   0.72760416   -7.3947041    816.78905  0.020789784  0.021050796         3934 
 3275000   0.75538916   -7.3912639    818.45455  0.020825815  0.021043181         3906 
 3276000   0.73526204     -7.37823    817.18019  0.020787042  0.021035569         3919 
 3277000   0.73914234   -7.3846699    818.53941  0.020815263   0.02102796         3921 
 3278000   0.72759696   -7.4004899    817.14114  0.020773366  0.021020349         3914 
 3279000   0.73762061   -7.3940426    818.14295  0.020792491  0.021012752         3926 
 3280000   0.74301078   -7.3681748    817.84163  0.020778497  0.021005153         3913 
 3281000   0.71759891   -7.3722705    816.92149  0.020748793  0.020997559         3926 
 3282000   0.73076762   -7.3837475    817.43555  0.020755524  0.020989964         3917 
 3283000   0.71808256   -7.3960679    818.26134  0.020770163  0.020982367         3921 
 3284000   0.72955408   -7.3633527     819.4557  0.020794146  0.020974775         3906 
 3285000    0.7374834   -7.3909975      818.411  0.020761314  0.020967192         3899 
 3286000   0.72963955    -7.374459      817.917  0.020742468  0.020959604         3911 
 3287000    0.7028772   -7.3895936    818.66644  0.020755158  0.020952009         3926 
 3288000     0.739056   -7.3887892    817.19422  0.020711532  0.020944425         3934 
 3289000    0.7241355   -7.3772313    817.65786  0.020716982  0.020936845         3908 
 3290000   0.73070026   -7.3962131    818.22683  0.020725097  0.020929263         3939 
 3291000   0.71769201   -7.3943325    818.04542  0.020714206  0.020921675         3914 
 3292000   0.73547366   -7.3935883    817.94613    0.0207054    0.0209141         3915 
 3293000   0.72354327   -7.3883522    819.72553  0.020744142  0.020906538         3919 
 3294000   0.71772744   -7.3994814    817.66009  0.020685592  0.020898961         3899 
 3295000   0.74726053   -7.4215648    818.66218  0.020704658  0.020891389         3936 
 3296000   0.73355943   -7.3817639    818.09132  0.020683943  0.020883828         3920 
 3297000   0.72468708   -7.4016537    817.54457   0.02066385  0.020876252         3902 
 3298000   0.72950161    -7.398108    816.98934  0.020643555  0.020868683         3922 
 3299000   0.74005987   -7.3788861    816.69931  0.020629972  0.020861114         3905 
 3300000   0.71485501   -7.4191928    816.43252  0.020616983  0.020853541         3929 
 3301000    0.7397854   -7.3926833    817.60425  0.020640317  0.020845971         3932 
 3302000   0.71528228   -7.3815737    817.74502  0.020637619  0.020838398         3926 
 3303000   0.72680656   -7.3664168    816.93291  0.020610882  0.020830835         3935 
 3304000   0.72725634   -7.4027357    816.23672  0.020587084  0.020823265         3926 
 3305000   0.71988079    -7.399135    817.82223  0.020620833  0.020815707         3899 
 3306000   0.74346579   -7.3976303    817.33919   0.02060242  0.020808154         3919 
 3307000   0.72304169   -7.4054237    815.89064  0.020559688  0.020800598         3916 
 3308000    0.7133863   -7.3989111    815.86972  0.020552945  0.020793035         3923 
 3309000   0.71934406   -7.4084977    815.04598  0.020525989  0.020785474         3901 
 3310000   0.72121945   -7.3841805    817.89175  0.020591434  0.020777918         3921 
 3311000   0.71926364   -7.3805032    816.57292  0.020552022  0.020770356         3906 
 3312000   0.69653882   -7.3866585    816.17268  0.020535746  0.020762806         3914 
 3313000    0.7233674   -7.4051991    817.13519  0.020553758  0.020755251         3892 
 3314000   0.70021778   -7.4005634    815.22305  0.020499473  0.020747688         3937 
 3315000   0.72209367   -7.3938087    816.81537  0.020533318  0.020740141         3935 
 3316000   0.71435476   -7.4159773    817.97738  0.020556327  0.020732586         3920 
 3317000    0.7155065   -7.3945966    818.52454  0.020563877  0.020725048         3914 
 3318000   0.72803445   -7.3915706    816.89655  0.020516791  0.020717495         3907 
 3319000   0.71611512   -7.3952713    817.04142  0.020514247  0.020709943         3914 
 3320000   0.71650549   -7.3915344    815.46644  0.020468535  0.020702405         3915 
 3321000   0.71538996    -7.384589    816.30724   0.02048347  0.020694863         3921 
 3322000   0.73489663   -7.3861913    816.61421  0.020485004  0.020687323         3919 
 3323000   0.71953637   -7.4063324    816.51605  0.020476378  0.020679796         3894 
 3324000   0.71568054   -7.4021311    816.85783  0.020478786   0.02067225         3932 
 3325000    0.7236525   -7.4034399    818.33075  0.020509542   0.02066473         3929 
 3326000   0.72628505   -7.3844439     817.7436  0.020488665  0.020657199         3918 
 3327000   0.72885268   -7.3859368     817.0138  0.020464227  0.020649675         3931 
 3328000   0.71108551   -7.3989369    816.30499  0.020440329  0.020642149         3930 
 3329000   0.72074497   -7.3834353     818.1634   0.02048071  0.020634633         3919 
 3330000   0.71552226   -7.3966574    817.90331  0.020468051  0.020627105         3909 
 3331000   0.70457396   -7.4276185    817.23346  0.020445148  0.020619576         3922 
 3332000   0.72894207   -7.4001396     816.1337  0.020411507  0.020612063         3922 
 3333000   0.70919133   -7.4136865    817.54913  0.020440772  0.020604544         3931 
 3334000   0.71821561   -7.3924701     817.4542  0.020432269  0.020597037         3928 
 3335000   0.71039495   -7.4247715    817.73968  0.020433275  0.020589529         3930 
 3336000   0.72818482   -7.4131057    817.00605  0.020408824  0.020582018         3944 
 3337000   0.71997895   -7.4058634    817.21636   0.02040796  0.020574504         3928 
 3338000   0.72791843   -7.4187252    817.36565  0.020405573  0.020567004         3928 
 3339000   0.71304952   -7.4083551    817.05206  0.020391636  0.020559505         3925 
 3340000   0.71845549   -7.4157344    816.03732  0.020360212  0.020551999         3947 
 3341000   0.72324064   -7.3936104    817.33655  0.020386525    0.0205445         3912 
 3342000   0.73057213    -7.396405    815.75596  0.020341012  0.020537002         3917 
 3343000   0.72499664   -7.3940702    818.26626  0.020397504  0.020529505         3921 
 3344000   0.71082846   -7.3976051    817.44683  0.020370984  0.020522019         3925 
 3345000   0.70011596   -7.4222273    817.17968  0.020358238  0.020514528         3924 
 3346000   0.72664408   -7.4217677    817.38601  0.020357292  0.020507033         3933 
 3347000    0.7299062   -7.4211488    815.96446  0.020315817  0.020499548         3917 
 3348000   0.71387809   -7.4287036    816.17653  0.020315027  0.020492056         3921 
 3349000   0.72176402   -7.4231872    816.48143  0.020316548   0.02048457         3915 
 3350000   0.70823336   -7.4267928    816.35739  0.020307398  0.020477094         3940 
 3351000   0.70757912    -7.418774    817.25267  0.020323602   0.02046961         3907 
 3352000   0.71640052   -7.4122515     816.2318  0.020292159  0.020462142         3935 
 3353000   0.70297183   -7.3929003    817.31703  0.020313079  0.020454665         3920 
 3354000   0.71949658   -7.3901242    816.57205  0.020288513   0.02044719         3919 
 3355000   0.71233472   -7.3908347    817.26708  0.020299729  0.020439722         3928 
 3356000   0.71921088   -7.3819648    816.21616  0.020267584  0.020432255         3911 
 3357000   0.72527478   -7.3977573    816.16639  0.020260312  0.020424789         3920 
 3358000   0.71542069   -7.4047101     816.9802  0.020274474  0.020417322         3922 
 3359000   0.71769893   -7.4052533    816.19619  0.020248987  0.020409854         3914 
 3360000   0.70206641    -7.402841    816.15403  0.020241915  0.020402393         3915 
 3361000   0.71109489   -7.3720549    816.55927   0.02024594  0.020394929         3919 
 3362000   0.70356155   -7.4255852    816.48221  0.020238008  0.020387467         3921 
 3363000   0.70176164   -7.4233137    817.18489  0.020249403  0.020380007         3927 
 3364000   0.72109031   -7.4093766     817.1145  0.020241639  0.020372547         3918 
 3365000   0.70212448   -7.3969693    817.82071  0.020253113  0.020365096         3921 
 3366000   0.72347647   -7.4249322     816.8628  0.020223381  0.020357645         3928 
 3367000    0.7237806   -7.4056894    816.14535  0.020199618  0.020350195         3924 
 3368000   0.71577905   -7.4091987    816.48067  0.020201917  0.020342746         3923 
 3369000   0.71021923   -7.3967989    817.09532  0.020211124  0.020335305         3932 
 3370000   0.72466894   -7.3932371    816.18505  0.020182617  0.020327866         3929 
 3371000    0.7103546   -7.3795183    815.83025  0.020167859  0.020320423         3928 
 3372000   0.69117336   -7.4024225    816.44468  0.020177063  0.020312984         3929 
 3373000   0.71082816   -7.4120358    817.46324  0.020196246  0.020305538         3935 
 3374000   0.71013911   -7.3977526    817.27141  0.020185522  0.020298104         3915 
 3375000   0.70889072   -7.3921716    816.18293  0.020152665  0.020290675         3934 
 3376000   0.71682938   -7.4115317    814.96407  0.020116609  0.020283248         3918 
 3377000   0.70936735   -7.4198989    816.12697  0.020139349  0.020275824         3913 
 3378000   0.70978991   -7.4170238    815.33472  0.020113843  0.020268396         3921 
 3379000   0.71026546   -7.4192097    818.10686  0.020176257   0.02026098         3922 
 3380000   0.70696245   -7.4061789    816.79025  0.020137827  0.020253562         3932 
 3381000   0.69976079   -7.4175704    816.80832  0.020132316  0.020246138         3918 
 3382000   0.71957161   -7.3972889    816.09402  0.020108763  0.020238715         3924 
 3383000   0.71450115   -7.4277809    815.86403  0.020097153   0.02023131         3906 
 3384000   0.71407306    -7.405775     818.1058  0.020146419  0.020223892         3905 
 3385000   0.72482061   -7.4248028    817.50082  0.020125574  0.020216478         3932 
 3386000   0.69739886   -7.4120204    815.87292  0.020079566  0.020209061         3931 
 3387000   0.70973211   -7.4353055    815.80766  0.020072032  0.020201654         3934 
 3388000   0.71076613   -7.4036673    816.37108  0.020079966  0.020194246         3923 
 3389000   0.71185582   -7.4054437    815.20983  0.020045486  0.020186843         3919 
 3390000   0.70184279   -7.4151606     816.4635  0.020070391  0.020179449         3925 
 3391000   0.69707249   -7.4301642    815.75834  0.020047143  0.020172059         3926 
 3392000   0.69841914   -7.4283164    816.40221  0.020057051  0.020164649         3924 
 3393000   0.72527569   -7.3917942    817.31283  0.020073505  0.020157256         3925 
 3394000   0.71406188   -7.4112081    814.89785  0.020008295  0.020149869         3914 
 3395000   0.69870224   -7.3876877    817.22602  0.020059549  0.020142482         3933 
 3396000   0.72524921   -7.4092358    816.28686  0.020030596  0.020135092         3908 
 3397000   0.70492151   -7.4191953    816.09489  0.020019991  0.020127706         3920 
 3398000   0.71685006   -7.3887327    816.86129  0.020032894   0.02012032         3911 
 3399000   0.72178579   -7.4076798     815.9449  0.020004533  0.020112946         3917 
 3400000   0.71014241   -7.3932266    815.87692  0.019996983  0.020105561         3924 
 3401000   0.71204531   -7.4182543    816.63073  0.020009574  0.020098187         3920 
 3402000   0.69711986   -7.4415839    816.62523  0.020003557  0.020090809         3929 
 3403000    0.7039941   -7.4084329    815.85062   0.01997871   0.02008343         3918 
 3404000   0.70311688   -7.4229431    816.97508  0.020000369  0.020076056         3930 
 3405000   0.69997723   -7.4117551     815.7449  0.019964388  0.020068694         3925 
 3406000   0.71156172    -7.418362    815.77802  0.019959337  0.020061316         3930 
 3407000   0.70093559   -7.4321974     815.4045  0.019944343  0.020053951         3924 
 3408000   0.72380882   -7.4170341     814.7246  0.019921865  0.020046592         3927 
 3409000   0.71279276   -7.4335473    816.23035  0.019952829  0.020039233         3926 
 3410000   0.70996917   -7.4087658    817.54533  0.019979114   0.02003187         3929 
 3411000   0.72396146    -7.416351    816.06123  0.019936999  0.020024513         3930 
 3412000   0.70715483    -7.393694    816.46885  0.019941111  0.020017155         3922 
 3413000   0.70857925   -7.4091715    816.69882  0.019940883  0.020009807         3920 
 3414000   0.72354946   -7.3876728    816.98431  0.019942011  0.020002463         3917 
 3415000   0.69452163   -7.4096565    814.29061   0.01987044  0.019995116         3912 
 3416000   0.70682853   -7.4337993     815.8726  0.019903215  0.019987776         3939 
 3417000   0.70038757   -7.4154599    815.54607  0.019889427  0.019980434         3928 
 3418000   0.72576689   -7.4161669    816.13427  0.019897949  0.019973082         3910 
 3419000    0.7052463   -7.4165263    817.14887  0.019916859  0.019965742         3926 
 3420000    0.7043893   -7.4253838    815.17121  0.019862846  0.019958392         3918 
 3421000   0.70579553   -7.4326606    814.67989  0.019845072  0.019951054         3922 
 3422000   0.68915118   -7.4422105    815.20918  0.019852162  0.019943719         3928 
 3423000   0.70161392   -7.4034079    816.27863  0.019872398  0.019936376         3922 
 3424000   0.70132937   -7.4178108    815.64806  0.019851248  0.019929049         3934 
 3425000   0.70916733   -7.4501582    815.23197  0.019835328  0.019921724         3936 
 3426000   0.71298125   -7.4338272    816.68679  0.019864925  0.019914402         3921 
 3427000   0.70248986   -7.4234188     815.9016  0.019840035  0.019907081         3930 
 3428000   0.70139641   -7.4207469    815.22445  0.019817786  0.019899755         3907 
 3429000   0.69701482   -7.4175902    816.17523  0.019835113  0.019892432         3923 
 3430000   0.71339687   -7.4313132    815.22119  0.019806151  0.019885117         3941 
 3431000   0.70578038   -7.4120571    815.85171  0.019815693  0.019877796         3903 
 3432000   0.69761687   -7.4324603    815.68796  0.019805943  0.019870479         3921 
 3433000   0.71290808     -7.42698    815.88026  0.019804842  0.019863168         3935 
 3434000   0.70548649    -7.414934    815.14923  0.019781335  0.019855854         3930 
 3435000   0.70742637   -7.4198886    816.39243  0.019805736  0.019848548         3935 
 3436000   0.70321465   -7.4458025    816.10552  0.019793013  0.019841238         3915 
 3437000   0.67928567   -7.4104077    816.09987  0.019787117  0.019833945         3921 
 3438000   0.70884937    -7.418094    816.05759  0.019780337   0.01982665         3906 
 3439000   0.70457821    -7.407312    815.76456  0.019767485  0.019819354         3933 
 3440000   0.70014888   -7.4280883    814.33585  0.019727128   0.01981206         3918 
 3441000   0.69340688   -7.4319624    815.39762  0.019747109  0.019804771         3938 
 3442000    0.6918206   -7.4450637    816.75326  0.019774193   0.01979748         3916 
 3443000   0.70210677   -7.4276354    815.23199  0.019731629  0.019790185         3922 
 3444000   0.70516158   -7.4304882     817.3386  0.019776873  0.019782899         3908 
 3445000   0.71097311   -7.4039264    815.47818  0.019726129  0.019775606         3911 
 3446000   0.69136655    -7.422082    815.69717  0.019725701  0.019768336         3930 
 3447000   0.71019225   -7.4233218    816.12506  0.019730322  0.019761058         3928 
 3448000   0.69250673   -7.4083089    816.80592  0.019741056  0.019753783         3925 
 3449000   0.70848332   -7.4315355    817.01363   0.01974035  0.019746511         3927 
 3450000   0.69466746   -7.4299005    815.87119  0.019707033  0.019739249         3912 
 3451000   0.68708052   -7.4452711    815.12759  0.019683367  0.019731977         3920 
 3452000   0.69137175   -7.4175591    816.77237  0.019717371  0.019724709         3926 
 3453000     0.707174   -7.4271347    814.85592   0.01966541  0.019717445         3920 
 3454000   0.70529731   -7.4035562    816.52277  0.019699932  0.019710186         3922 
 3455000   0.69950292   -7.4098537    816.05465  0.019682939  0.019702928         3922 
 3456000   0.70587108   -7.4370787    815.94322  0.019674557  0.019695664         3924 
 3457000   0.68685453   -7.4102066    816.21892  0.019675511  0.019688397         3919 
 3458000    0.6882348     -7.43551      815.663  0.019656425  0.019681131         3930 
 3459000   0.70060454    -7.423244     816.2315  0.019664438  0.019673878         3943 
 3460000   0.70115488   -7.4035698    815.07581   0.01963092  0.019666625         3918 
 3461000   0.70726828   -7.4499818    814.78034  0.019618134  0.019659373         3924 
 3462000   0.72071137   -7.4434405    816.82673  0.019661726  0.019652136         3915 
 3463000   0.69094344   -7.4367868    816.26427  0.019642513  0.019644896         3933 
 3464000   0.68902254   -7.4274974    816.43916   0.01964105  0.019637652         3918 
 3465000   0.71226555   -7.4596119     815.2326  0.019606364  0.019630411         3935 
 3466000   0.68575119   -7.4309933    814.00489  0.019571189  0.019623174         3935 
 3467000   0.69073765   -7.4335835    817.09204  0.019639747  0.019615951         3928 
 3468000   0.70816901   -7.4234788    815.19779  0.019588567   0.01960871         3926 
 3469000   0.70505086   -7.4368656    817.91042  0.019648083  0.019601481         3914 
 3470000    0.6930196   -7.4737101    815.25453  0.019578639  0.019594262         3920 
 3471000   0.68960658   -7.4302991    815.52815  0.019579568  0.019587033         3918 
 3472000   0.71002426   -7.4183027    813.48185  0.019524814  0.019579806         3940 
 3473000   0.68933578   -7.4466294    814.26845  0.019538066  0.019572582         3926 
 3474000    0.6922972   -7.4108276     815.6851  0.019566424  0.019565359         3924 
 3475000   0.68928578   -7.4558189    816.07042  0.019570034  0.019558143         3899 
 3476000   0.70993725   -7.4355801    815.87748  0.019559779  0.019550927         3920 
 3477000   0.69222221   -7.4361092    815.80383  0.019552388  0.019543718         3925 
 3478000   0.70914337    -7.426654    816.20344  0.019556341  0.019536506         3940 
 3479000   0.69592489   -7.4460252     814.6785  0.019514192  0.019529289         3926 
 3480000   0.70682991    -7.431195    815.00426  0.019516385  0.019522077         3933 
 3481000   0.69869927   -7.4407154    815.03381  0.019511486  0.019514868         3935 
 3482000   0.70203674   -7.4509806    815.40204  0.019514696  0.019507666         3931 
 3483000    0.6848008   -7.4564907    815.11427  0.019502208  0.019500462         3932 
 3484000   0.69204127    -7.439409    814.34244  0.019478149  0.019493254         3930 
 3485000   0.70672592   -7.4314742    815.73974  0.019505972  0.019486047         3901 
 3486000   0.70440797   -7.4451931    816.59894  0.019520915  0.019478852         3945 
 3487000   0.69727295   -7.4409638    815.63789   0.01949235  0.019471659         3939 
 3488000   0.69035096   -7.4392623    814.31823  0.019455233  0.019464459         3933 
 3489000   0.67592781   -7.4392093    813.57565  0.019431921  0.019457269         3954 
 3490000   0.69807878   -7.4303511    815.29717  0.019467459  0.019450079         3922 
 3491000   0.69889189   -7.4305081    815.31475  0.019462302  0.019442898         3926 
 3492000    0.7008372   -7.3954836     814.5095  0.019437512  0.019435722         3910 
 3493000    0.6933675    -7.443844    815.27639  0.019450243  0.019428546         3920 
 3494000   0.68196938   -7.4525132    817.10935  0.019488393  0.019421364         3921 
 3495000   0.70372476   -7.4646988    815.30813   0.01943987  0.019414186         3921 
 3496000   0.67946149   -7.4254419    814.65557  0.019418754  0.019407015         3911 
 3497000   0.70597138    -7.441022    814.94546  0.019420109   0.01939984         3921 
 3498000   0.69483087   -7.4395802     814.7123  0.019409003  0.019392654         3916 
 3499000   0.70223532   -7.4660491    814.24335  0.019392287  0.019385479         3943 
 3500000   0.69453957   -7.4969083    814.55136   0.01939408  0.019378298         3918 
 3501000   0.68843074   -7.4397521    814.55137  0.019388541  0.019371115         3941 
 3502000   0.70178618   -7.4407389    814.29505  0.019376905  0.019363938         3925 
 3503000   0.68264003    -7.451746    814.32219  0.019372019  0.019356764         3940 
 3504000   0.69716832   -7.4625936    813.78123  0.019353625  0.019349587         3941 
 3505000   0.68237417    -7.462704    813.63742  0.019344684  0.019342417         3943 
 3506000   0.69613137   -7.4592013    815.27988  0.019378206  0.019335249         3955 
 3507000   0.68011368   -7.4501241    815.01607  0.019366412  0.019328091         3932 
 3508000   0.67772491   -7.4672794    814.07969  0.019338647   0.01932092         3927 
 3509000   0.69159472   -7.4475413    813.80024    0.0193265  0.019313747         3936 
 3510000    0.6910471   -7.4550989    815.26653  0.019355806  0.019306588         3911 
 3511000   0.68017999   -7.4694011    814.88168  0.019341158   0.01929942         3938 
 3512000   0.68078734   -7.4674546    814.46931  0.019325866   0.01929225         3942 
 3513000   0.67523818   -7.4529648    815.15426  0.019336613  0.019285077         3939 
 3514000   0.68570043   -7.4838449    814.01392  0.019304068  0.019277916         3929 
 3515000   0.68133046   -7.4785447    814.30935   0.01930558  0.019270748         3942 
 3516000   0.68645997   -7.4711802    813.49977  0.019280901  0.019263583         3945 
 3517000   0.69253189   -7.4871759    813.24716  0.019269433  0.019256419         3947 
 3518000   0.68578774   -7.4822257     815.6527  0.019320938  0.019249262         3922 
 3519000   0.68277994   -7.4739177    813.62943  0.019267534  0.019242108         3945 
 3520000   0.68384854    -7.464858    813.21649  0.019252284  0.019234963         3914 
 3521000   0.68504403   -7.4809202    814.24939  0.019271263  0.019227805         3931 
 3522000   0.68404684   -7.4776922    814.13586  0.019263105   0.01922065         3929 
 3523000   0.68632011   -7.4697349    812.77237  0.019225385  0.019213494         3925 
 3524000    0.6879462    -7.460066    814.36473  0.019257584  0.019206347         3916 
 3525000   0.69527714   -7.4826561    813.75608  0.019237732  0.019199198         3930 
 3526000   0.68663463   -7.4693877    812.82637  0.019210304  0.019192047         3932 
 3527000     0.707443    -7.483445    813.90557  0.019230356  0.019184906         3921 
 3528000   0.69267306   -7.5061042    812.80591   0.01919893  0.019177764         3936 
 3529000   0.67982536   -7.4754694    812.01434  0.019174798  0.019170625         3934 
 3530000   0.68206601   -7.4804503    814.32461  0.019223905  0.019163497         3932 
 3531000   0.68856435   -7.4939248    814.17892  0.019215022  0.019156353         3944 
 3532000   0.69437672   -7.4856134    812.20514  0.019163013  0.019149222         3955 
 3533000   0.69373567   -7.4993536    813.46685  0.019187349  0.019142081         3952 
 3534000   0.70231921   -7.4743485    813.92467  0.019192715  0.019134949         3955 
 3535000   0.67673592   -7.4865574    813.28178  0.019172131  0.019127817         3956 
 3536000   0.69153674   -7.5107462    813.47276  0.019171209  0.019120681         3952 
 3537000   0.70506266   -7.5138301      813.613  0.019169094  0.019113549         3962 
 3538000   0.68844171   -7.4837079    814.14412  0.019176185  0.019106415         3962 
 3539000    0.6788306    -7.512122    812.34073  0.019128302  0.019099274         3972 
 3540000   0.68068887   -7.5026705    812.33995   0.01912288  0.019092131         3977 
 3541000   0.69891236    -7.512071    812.67939  0.019125468  0.019084999         3955 
 3542000   0.67382783   -7.5143472    811.65608  0.019095993  0.019077861         3966 
 3543000   0.68668757   -7.5190559    811.83626  0.019094841  0.019070729         3966 
 3544000   0.66415483   -7.5122067    813.02263  0.019117349  0.019063596         3961 
 3545000   0.68297446   -7.4989195    812.66878  0.019103638  0.019056463         3963 
 3546000   0.68805989   -7.5060849    812.23943  0.019088161  0.019049326         3965 
 3547000   0.69166416   -7.4928514    812.63729  0.019092127  0.019042194         3960 
 3548000    0.6912449   -7.4887157     812.8666  0.019092132   0.01903506         3968 
 3549000   0.67866955   -7.5098127    813.29437  0.019096797  0.019027939         3964 
 3550000   0.68852128   -7.4901773    811.97366  0.019060415  0.019020812         3969 
 3551000   0.69497961    -7.497977    811.33199  0.019039988  0.019013689         3973 
 3552000   0.68421889   -7.5056223     812.4936  0.019061881  0.019006572         3976 
 3553000   0.67772678   -7.5059566    814.21287   0.01909684  0.018999466         3971 
 3554000   0.68287318   -7.5409496    811.42313  0.019026054  0.018992349         3985 
 3555000   0.69421742   -7.4970779    810.71812  0.019004175  0.018985245         3970 
 3556000   0.67223433   -7.5000495    813.46471  0.019063196  0.018978135         3959 
 3557000   0.67695941   -7.5143168    812.52503  0.019035822  0.018971032         3982 
 3558000   0.68820166   -7.5149981    813.22974  0.019046977   0.01896393         3976 
 3559000    0.6811426   -7.5127291    813.20693  0.019041091  0.018956814         3969 
 3560000   0.68465566   -7.5091754    811.61319  0.018998436  0.018949714         3973 
 3561000   0.68524452   -7.5297401    811.57867  0.018992293  0.018942618         3977 
 3562000   0.67588718   -7.5292725    813.74521  0.019037648  0.018935521         3966 
 3563000   0.69689065   -7.5204175    812.76624  0.019009408  0.018928426         3973 
 3564000   0.67724782     -7.50601    812.26436  0.018992339  0.018921336         3974 
 3565000   0.69142649    -7.509465    813.05302  0.019005447  0.018914236         3973 
 3566000   0.67594496   -7.5277448    813.54865    0.0190117  0.018907154         3968 
 3567000   0.68386932    -7.512051    812.17389  0.018974252   0.01890007         3968 
 3568000   0.69135215   -7.5179951    813.13035  0.018991273  0.018892983         3970 
 3569000   0.65835118   -7.4875359    811.99579  0.018959461  0.018885905         3969 
 3570000   0.68334029   -7.5122576    812.37751  0.018963061  0.018878828         3970 
 3571000   0.68812827   -7.5262526    812.42122   0.01895877  0.018871756         3975 
 3572000   0.68125924   -7.5483767    812.15992  0.018947367  0.018864687         3974 
 3573000   0.67111095   -7.5057482    813.15195  0.018965201  0.018857616         3970 
 3574000   0.68663559   -7.5408594    812.72517  0.018949943  0.018850549         3977 
 3575000   0.68187179   -7.5246394    813.01331  0.018951359  0.018843481         3980 
 3576000   0.67496333   -7.5348733    811.33744  0.018907006  0.018836412         3973 
 3577000   0.66314689   -7.5266067    813.00192  0.018940498  0.018829339         3964 
 3578000   0.68609109   -7.5234696      810.947  0.018887344  0.018822281         3979 
 3579000    0.6773053   -7.5294155    813.63683  0.018944697  0.018815223         3970 
 3580000   0.67034608   -7.5107787    811.45572  0.018888634  0.018808168         3975 
 3581000   0.68633072   -7.5125297     812.0754   0.01889778  0.018801118         3984 
 3582000   0.68858914   -7.5401567     811.7915  0.018885899  0.018794061         3974 
 3583000   0.68115736   -7.5046586    810.87587  0.018859333  0.018787005         3964 
 3584000   0.67477528   -7.5382226    811.72487  0.018873811  0.018779958         3972 
 3585000   0.69315952    -7.534461    811.37331  0.018860374  0.018772911         3972 
 3586000   0.68179177   -7.5185609    810.94802  0.018845232  0.018765871         3969 
 3587000    0.6684836   -7.5182869    811.59967  0.018855117  0.018758837         3964 
 3588000   0.70199688   -7.4967821    811.18511  0.018840234  0.018751803         3968 
 3589000   0.65693713   -7.5120727    811.32618   0.01883826  0.018744775         3972 
 3590000   0.67793513   -7.5019751    810.77851    0.0188203  0.018737743         3966 
 3591000   0.68896255   -7.4990339    812.26283  0.018849504  0.018730719         3978 
 3592000   0.68032991   -7.5105258    811.45056  0.018825412  0.018723694         3981 
 3593000   0.68055179   -7.5242027    811.29381  0.018816537   0.01871667         3968 
 3594000   0.68275824   -7.5153385    811.45112  0.018814949  0.018709652         3968 
 3595000   0.67611199    -7.512853    812.46108  0.018833126  0.018702637         3967 
 3596000   0.68799639   -7.5139735    811.29756  0.018800926  0.018695621         3972 
 3597000   0.68260192   -7.5235964    809.78766  0.018760719  0.018688601         3973 
 3598000   0.67032926    -7.513709    811.20039  0.018788225  0.018681594         3978 
 3599000    0.6863629   -7.5107349    812.35331    0.0188097  0.018674589         3979 
 3600000   0.67388091   -7.5187948    811.03037  0.018773851  0.018667583         3981 
 3601000   0.68364107   -7.5170055    812.67469   0.01880669  0.018660583         3975 
 3602000   0.67333881   -7.5213717    811.55698   0.01877561  0.018653583         3977 
 3603000    0.6903287   -7.5351373    812.09036  0.018782736  0.018646582         3974 
 3604000   0.66868713   -7.5198057    811.39929  0.018761545  0.018639575         3974 
 3605000    0.6858688   -7.5128934     812.2297  0.018775536  0.018632584         3965 
 3606000   0.68354381   -7.5408685    811.46678  0.018752699  0.018625602         3973 
 3607000   0.67642744   -7.5290235     811.1512  0.018740209  0.018618614         3975 
 3608000   0.68735881   -7.5190632    812.77629  0.018772549  0.018611625         3979 
 3609000   0.67275721   -7.5286029    810.67999  0.018718943  0.018604646         3975 
 3610000   0.66585749   -7.5172101    812.12767  0.018747176  0.018597663         3975 
 3611000   0.67782808   -7.5012147    810.61359  0.018707043  0.018590688         3974 
 3612000   0.69261298   -7.5076962    813.14935  0.018760367  0.018583714         3971 
 3613000   0.67136149     -7.53997    810.67687  0.018698147  0.018576745         3980 
 3614000   0.67739026   -7.5304522    812.30024  0.018730406  0.018569776         3982 
 3615000   0.67229068   -7.5234414    812.77029   0.01873606  0.018562809         3969 
 3616000   0.66574196   -7.5242527     810.8304  0.018686173  0.018555844         3971 
 3617000   0.67852968   -7.5275384    810.65724  0.018677017  0.018548878         3977 
 3618000   0.68671836   -7.5280183    812.50137  0.018714331  0.018541913         3964 
 3619000   0.66614733   -7.5368662    812.02665  0.018698228  0.018534961         3977 
 3620000   0.68416605   -7.5239986    811.99145  0.018692253  0.018528014         3975 
 3621000   0.67900333   -7.5269118    810.81057  0.018659914  0.018521065         3980 
 3622000   0.66267575    -7.541365    811.18752  0.018663434  0.018514118         3975 
 3623000   0.66788407   -7.5436174    813.23719  0.018705428  0.018507171         3980 
 3624000   0.66240603   -7.5530728    810.55808  0.018638661  0.018500225         3971 
 3625000   0.66098333     -7.51449    811.43381  0.018653651  0.018493281         3976 
 3626000   0.66973959   -7.5320601    810.49788  0.018626997  0.018486335         3980 
 3627000   0.65610478   -7.5235122    811.57912  0.018646704  0.018479399         3970 
 3628000   0.66199931   -7.5389592    811.33731   0.01863601  0.018472466         3979 
 3629000   0.65486092   -7.5378075    811.58047  0.018636458  0.018465536         3977 
 3630000   0.67750166   -7.5228499    812.43288  0.018650892   0.01845861         3970 
 3631000   0.65198633   -7.5333309    811.09616  0.018615078  0.018451687         3975 
 3632000   0.67282468   -7.5368084    811.66665  0.018623042  0.018444763         3970 
 3633000   0.67046596   -7.5303574    812.06335  0.018627015  0.018437837         3974 
 3634000   0.66325938   -7.5454381    811.98013  0.018619981  0.018430925         3973 
 3635000   0.66635776   -7.5468229    810.57822  0.018582719   0.01842401         3972 
 3636000   0.67288268   -7.5489853    810.82234  0.018583204  0.018417094         3971 
 3637000   0.67128975   -7.5299543    812.52894  0.018617197  0.018410183         3979 
 3638000   0.66075744   -7.5352145    810.60292  0.018567961  0.018403269         3978 
 3639000    0.6812668   -7.5353849    810.16128  0.018552745  0.018396364         3977 
 3640000    0.6785553   -7.5456508    809.46533  0.018531715  0.018389458         3979 
 3641000   0.66760313   -7.5326922    810.54392  0.018551312  0.018382563         3975 
 3642000    0.6752523   -7.5364052    811.56817  0.018569654  0.018375662         3989 
 3643000   0.66404115   -7.5378691    811.54303  0.018563982  0.018368776         3978 
 3644000     0.670533   -7.5487511     810.4006  0.018532762  0.018361884         3986 
 3645000   0.66159105   -7.5397581    812.51245  0.018575959     0.018355         3987 
 3646000   0.67339615   -7.5393853     810.9913  0.018536097  0.018348125         3976 
 3647000   0.65704853   -7.5396324     811.6702  0.018546527  0.018341238         3982 
 3648000   0.66330217   -7.5362913    811.04431  0.018527145  0.018334361         3971 
 3649000   0.66087037   -7.5371555    812.24449  0.018549477  0.018327487         3965 
 3650000   0.66816099   -7.5512987    811.48516  0.018527058  0.018320603         3974 
 3651000   0.66806286   -7.5684642     809.6016  0.018478992  0.018313727         3983 
 3652000   0.67702535   -7.5458139    810.40284  0.018492215  0.018306859         3976 
 3653000   0.66613985   -7.5437894    811.16527  0.018504546  0.018299993         3981 
 3654000   0.66357739   -7.5660107    811.63517  0.018510198  0.018293125         3975 
 3655000   0.67480067   -7.5465897    811.62787  0.018504967  0.018286264         3986 
 3656000   0.66475726   -7.5474335    810.15575  0.018466351  0.018279401         3981 
 3657000   0.66717024   -7.5479048    810.07335  0.018459424  0.018272544         3980 
 3658000   0.68036826   -7.5397669    811.29596   0.01848223  0.018265693         3981 
 3659000   0.66924658    -7.525379    811.12204  0.018473218  0.018258836         3981 
 3660000   0.66967366   -7.5374489    809.23534  0.018425213  0.018251981         3978 
 3661000   0.66412009   -7.5442878    809.03864  0.018415703  0.018245136         3958 
 3662000    0.6681715   -7.5473929    810.79379  0.018450614  0.018238286         3977 
 3663000   0.67504631   -7.5383818    811.76175  0.018467598  0.018231451         3980 
 3664000   0.67009712   -7.5543657      812.239  0.018473413  0.018224615         3970 
 3665000   0.67026686   -7.5611499    809.93578  0.018416002  0.018217777         3977 
 3666000   0.66914803    -7.548412    811.57156  0.018448162  0.018210948         3982 
 3667000    0.6673503   -7.5245151    811.27928  0.018436489  0.018204114         3979 
 3668000   0.66228523   -7.5423326    812.27676  0.018454125  0.018197287         3979 
 3669000   0.67392803   -7.5435819    810.02801   0.01839802  0.018190454         3976 
 3670000   0.65108588   -7.5303837     808.5707  0.018359916  0.018183627         3972 
 3671000   0.66002173   -7.5267461    811.77861  0.018427736  0.018176811         3986 
 3672000   0.66570363   -7.5487895    812.38538  0.018436487  0.018169991         3973 
 3673000   0.67126431   -7.5405115    811.72243  0.018416427  0.018163178         3968 
 3674000   0.65765302    -7.528673    811.78883   0.01841292  0.018156368         3967 
 3675000    0.6669489   -7.5415274    810.23459  0.018372666  0.018149552         3980 
 3676000   0.66304999   -7.5626269    809.26263  0.018345634   0.01814274         3989 
 3677000   0.67420617   -7.5457612      810.345  0.018365175   0.01813593         3980 
 3678000   0.66605253   -7.5605053    810.33013  0.018359845   0.01812913         3978 
 3679000   0.65581999   -7.5248359    810.23365  0.018352669  0.018122332         3981 
 3680000   0.67208884   -7.5447526    811.73786  0.018381745  0.018115533         3969 
 3681000   0.66480785   -7.5456992     811.7558  0.018377157  0.018108734         3977 
 3682000   0.67494497   -7.5612261    810.72412  0.018348817  0.018101944         3970 
 3683000   0.67359242   -7.5375051     810.6916  0.018343099  0.018095153         3984 
 3684000   0.65997415   -7.5329135    810.59629  0.018335964  0.018088368         3974 
 3685000   0.65802437   -7.5707467    810.55366  0.018330024   0.01808158         3975 
 3686000   0.65616708   -7.5547426    809.89289  0.018310112  0.018074799         3974 
 3687000   0.67207037   -7.5392813    811.34627  0.018337995  0.018068028         3975 
 3688000   0.64777264   -7.5315045    812.07748  0.018349545  0.018061252         3981 
 3689000    0.6653576   -7.5303592      811.709  0.018336247  0.018054484         3975 
 3690000   0.66723034   -7.5219593    810.83124  0.018311455  0.018047719         3981 
 3691000   0.64803569    -7.565805    810.75963  0.018304877  0.018040955         3979 
 3692000   0.66775754   -7.5465914    812.38164   0.01833653  0.018034198         3974 
 3693000   0.66949101   -7.5457633    809.73868  0.018271926  0.018027441         3983 
 3694000   0.66057134   -7.5486239    810.65361   0.01828762  0.018020677         3983 
 3695000   0.66403929   -7.5512387    811.31634  0.018297617   0.01801392         3982 
 3696000    0.6541293   -7.5424462    811.25523  0.018291288   0.01800716         3980 
 3697000   0.64616301   -7.5488381    811.30127  0.018287379  0.018000407         3976 
 3698000   0.67590638   -7.5661533    810.77839  0.018270651  0.017993663         3982 
 3699000   0.65918153   -7.5385913    811.43483    0.0182805  0.017986912         3971 
 3700000   0.65690368   -7.5542733    810.52419  0.018255049  0.017980178         3972 
 3701000    0.6684332    -7.547334    809.58983  0.018229079   0.01797344         3974 
 3702000   0.63753551   -7.5431641     812.2163  0.018283277  0.017966699         3980 
 3703000    0.6602729   -7.5425035    811.10855   0.01825341  0.017959958         3970 
 3704000   0.64806499   -7.5560709     811.2868  0.018252493  0.017953228         3981 
 3705000   0.65887562   -7.5282354    811.63803  0.018255466  0.017946502         3980 
 3706000   0.65427801   -7.5543612    811.30615  0.018243078  0.017939774         3983 
 3707000   0.67020895   -7.5502956    811.45873  0.018241586   0.01793305         3981 
 3708000   0.67914295   -7.5577899    810.53667  0.018215945  0.017926335         3979 
 3709000    0.6661363   -7.5484802    811.53792  0.018233529  0.017919615         3982 
 3710000   0.64611293   -7.5697942    810.27326  0.018200208    0.0179129         3981 
 3711000   0.66061656   -7.5514435    811.34417  0.018219352   0.01790619         3978 
 3712000   0.66486493   -7.5521085    809.75522  0.018178772  0.017899473         3974 
 3713000   0.64446486   -7.5593667    810.82818  0.018197957   0.01789277         3977 
 3714000   0.65316732   -7.5501556    811.19803  0.018201356  0.017886064         3979 
 3715000   0.64753714   -7.5494235    811.10975  0.018194476  0.017879358         3968 
 3716000   0.67659347   -7.5601068     810.7228  0.018180902  0.017872659         3971 
 3717000   0.64521524   -7.5687399    811.25029  0.018187837  0.017865962         3981 
 3718000   0.65898101   -7.5531405    811.44026  0.018187203  0.017859265         3977 
 3719000   0.66739276   -7.5523502    811.42629     0.018182  0.017852577         3967 
 3720000   0.66148497    -7.544009    809.61354  0.018136504  0.017845882         3983 
 3721000    0.6357094   -7.5720113    809.32445  0.018125156  0.017839196         3979 
 3722000   0.65954261   -7.5449698     809.9979  0.018135364  0.017832508         3980 
 3723000   0.63781398    -7.550965    810.55512  0.018142965  0.017825834         3989 
 3724000   0.64580674   -7.5538758    808.46529  0.018091328   0.01781915         3976 
 3725000   0.66360482   -7.5325915      810.501  0.018132014   0.01781247         3974 
 3726000   0.67435573   -7.5442767    810.99747  0.018138251  0.017805799         3980 
 3727000   0.66663721   -7.5721136    809.97483  0.018110519  0.017799133         3984 
 3728000    0.6571616   -7.5613832    811.08215  0.018130413  0.017792467         3984 
 3729000   0.65548642    -7.554854    810.60083  0.018114795    0.0177858         3978 
 3730000   0.64708269   -7.5550846    810.57214  0.018109297  0.017779136         3984 
 3731000   0.64343066     -7.56317    809.43739  0.018079098  0.017772475         3984 
 3732000   0.65057156   -7.5508641    809.62682  0.018078484  0.017765819         3974 
 3733000   0.66058595   -7.5653155    810.05126  0.018083116  0.017759163         3985 
 3734000   0.66094005   -7.5553375    809.39906  0.018063718  0.017752513         3985 
 3735000   0.65810153   -7.5341109    810.46253  0.018082609  0.017745867         3967 
 3736000   0.66464131   -7.5640511    810.25769    0.0180732  0.017739222         3975 
 3737000   0.64831614   -7.5618786    810.47664  0.018073246  0.017732579         3982 
 3738000   0.65528019   -7.5390825    811.69999  0.018095684  0.017725944         3986 
 3739000   0.65526823   -7.5396931    809.38109  0.018039161  0.017719307         3978 
 3740000   0.65102233   -7.5349522    809.40897  0.018034959  0.017712673         3974 
 3741000   0.65745535   -7.5604849    810.66066  0.018058021   0.01770604         3967 
 3742000   0.64417142   -7.5543813    809.95406  0.018037459  0.017699409         3975 
 3743000   0.65372014   -7.5527529    810.92442  0.018054244  0.017692783         3981 
 3744000   0.64944923   -7.5472604    810.46692  0.018039239  0.017686159         3978 
 3745000   0.67026631   -7.5513628    810.17566  0.018027941  0.017679536         3986 
 3746000   0.63832541   -7.5377638    809.93782  0.018017837  0.017672918         3967 
 3747000   0.64753362    -7.548009    810.07742  0.018016133  0.017666298         3980 
 3748000   0.65798888   -7.5648919    811.50187  0.018042998  0.017659685         3975 
 3749000   0.64131544   -7.5807338    809.77691  0.017999842  0.017653075         3968 
 3750000   0.67888524   -7.5580892    810.55006  0.018012224  0.017646463         3975 
 3751000   0.63774503   -7.5467412    810.35609  0.018003112   0.01763986         3977 
 3752000   0.64371762   -7.5292199    810.24467  0.017995839  0.017633259         3973 
 3753000   0.64957458   -7.5780252    810.47036  0.017996056  0.017626661         3977 
 3754000   0.65854694   -7.5700085     810.3685  0.017989001  0.017620065         3977 
 3755000    0.6575183   -7.5571711     810.0822  0.017977856  0.017613472         3973 
 3756000   0.66389787   -7.5619868    811.10594  0.017995783  0.017606878         3976 
 3757000   0.64983407   -7.5513804    811.00204  0.017988689  0.017600282         3982 
 3758000   0.64997988   -7.5768354    810.94702  0.017982682  0.017593694         3981 
 3759000   0.64772921   -7.5796541      810.015  0.017957236  0.017587114         3985 
 3760000   0.63957862   -7.5355297    809.08438  0.017931835  0.017580529         3973 
 3761000   0.66331284   -7.5797143    809.59015  0.017938273  0.017573946         3984 
 3762000   0.67398771   -7.5316275    810.01097  0.017942827  0.017567368         3975 
 3763000   0.65221334   -7.5653886     809.7188  0.017931588  0.017560789         3980 
 3764000    0.6439134   -7.5487366    810.39065  0.017941699  0.017554216         3966 
 3765000   0.63948384   -7.5624397     809.8467  0.017924894  0.017547644         3981 
 3766000   0.63308395   -7.5696384    810.38073  0.017931951  0.017541074         3979 
 3767000   0.66662665   -7.5694769    808.70575  0.017890137  0.017534511         3976 
 3768000   0.64280926   -7.5857017    808.35978  0.017877738  0.017527954         3981 
 3769000   0.67975265   -7.5685518    812.07654  0.017955172  0.017521394         3986 
 3770000    0.6515644   -7.5415241    810.00904  0.017904709  0.017514842         3977 
 3771000   0.65818587   -7.5748915    809.88059  0.017897123  0.017508295         3977 
 3772000   0.64442209    -7.551116    809.60277   0.01788624  0.017501746         3983 
 3773000   0.64404777   -7.5594802    811.61495  0.017925942  0.017495196         3979 
 3774000   0.63234944   -7.5743339     808.8039  0.017859122  0.017488648         3982 
 3775000   0.64772867   -7.5573163    808.10863  0.017839043  0.017482102         3974 
 3776000   0.64882727   -7.5764078    810.99629  0.017898047  0.017475564         3979 
 3777000   0.65748357   -7.5749523    810.23102  0.017876424  0.017469031         3979 
 3778000    0.6475798   -7.5691272    810.25319  0.017872181  0.017462492         3973 
 3779000    0.6473218   -7.5609863    809.73921  0.017856117  0.017455958         3980 
 3780000    0.6498286   -7.5516545    807.93147   0.01781154  0.017449429         3976 
 3781000   0.64697405   -7.5657534    809.18771  0.017834517  0.017442906         3975 
 3782000   0.65477219   -7.5929714      809.096  0.017827781  0.017436382         3983 
 3783000   0.63823556   -7.5454038    809.70008  0.017836375  0.017429857         3980 
 3784000   0.64515461   -7.5661515    810.86611   0.01785734  0.017423336         3976 
 3785000   0.64916286     -7.56669    810.37124  0.017841727  0.017416819         3980 
 3786000   0.63891684   -7.5713906    808.87826  0.017804153  0.017410308         3977 
 3787000    0.6502841   -7.5815858    809.09661  0.017804256  0.017403799         3980 
 3788000   0.64701798   -7.5565123    809.47873  0.017807962  0.017397287         3970 
 3789000   0.63861744   -7.5701394     811.7093   0.01785232  0.017390786         3973 
 3790000    0.6533451   -7.5646399    809.66125  0.017802578  0.017384285         3975 
 3791000   0.65950773   -7.5765904    809.67472  0.017798178  0.017377788         3983 
 3792000   0.64686512   -7.5660411    809.23118  0.017783737  0.017371289         3980 
 3793000   0.64505188   -7.5713863    809.11942  0.017776593  0.017364798         3978 
 3794000   0.66171086   -7.5848914     810.3528  0.017798998  0.017358311         3972 
 3795000   0.65393677   -7.5839148    809.77151  0.017781544  0.017351823         3984 
 3796000   0.64784777   -7.5567508    810.29984  0.017788458   0.01734534         3976 
 3797000    0.6544768   -7.5495616    808.10359  0.017735572  0.017338859         3983 
 3798000   0.66092789   -7.5595007    809.20018  0.017754963  0.017332374         3969 
 3799000   0.63518702    -7.586399    809.80021  0.017763451  0.017325894         3978 
 3800000   0.65536668   -7.5729618    809.64734  0.017755424  0.017319415         3983 
 3801000   0.65267426   -7.5527827    810.04026  0.017759367  0.017312945         3975 
 3802000    0.6400372   -7.5678294    810.04091   0.01775471   0.01730648         3977 
 3803000   0.62831317   -7.5903189    809.29801  0.017733763  0.017300009         3974 
 3804000   0.65105296   -7.5796339    809.66253  0.017737087  0.017293541         3980 
 3805000   0.64505172   -7.5550742    809.89306  0.017737474  0.017287079         3974 
 3806000   0.64832601   -7.5713449    809.62459  0.017726935  0.017280624         3985 
 3807000   0.63886372    -7.575568     809.5411  0.017720451  0.017274168         3981 
 3808000   0.64016098   -7.5774165    809.52443  0.017715433  0.017267714         3978 
 3809000   0.64334887   -7.5845565    809.87291  0.017718406  0.017261262         3983 
 3810000   0.64612056   -7.5683217    810.99069  0.017738204  0.017254814         3978 
 3811000   0.63280785   -7.5863952    809.63116  0.017703821  0.017248366         3979 
 3812000   0.64255696   -7.5685015    809.78414  0.017702522  0.017241923         3976 
 3813000   0.62940949   -7.5789581    809.46964  0.017691005  0.017235481         3979 
 3814000   0.63781335   -7.5784003      810.349   0.01770558  0.017229044         3977 
 3815000   0.65247564   -7.5830338    810.01281  0.017693596  0.017222611         3975 
 3816000   0.64831878    -7.561369    810.32461  0.017695768   0.01721618         3981 
 3817000   0.64161352   -7.5660384    809.26657  0.017668033  0.017209747         3990 
 3818000   0.63583122   -7.5768253    809.91784   0.01767762  0.017203318         3981 
 3819000   0.64007448    -7.588155    808.74929  0.017647492   0.01719689         3985 
 3820000     0.654764     -7.56388    809.46078  0.017658394  0.017190469         3983 
 3821000   0.64918102   -7.5696121    809.44371    0.0176534  0.017184053         3976 
 3822000   0.64580185    -7.576084    808.86494  0.017636162  0.017177638         3978 
 3823000   0.63795575   -7.5567009    809.69354  0.017649611  0.017171223         3978 
 3824000   0.63172531   -7.5758834     808.4676  0.017618279  0.017164817         3986 
 3825000   0.66021834   -7.5897045    807.58045  0.017594345  0.017158411         3980 
 3826000   0.62599845   -7.5729372    809.62368   0.01763425  0.017152006         3983 
 3827000   0.64311822   -7.5689935    809.60618  0.017629261  0.017145602         3982 
 3828000   0.63132226    -7.576232    809.50685  0.017622493  0.017139198         3981 
 3829000   0.61242041   -7.5907103    808.80416  0.017602598  0.017132795         3983 
 3830000   0.64957294   -7.5809165    809.85652  0.017620899  0.017126398         3976 
 3831000   0.65168337   -7.5906773    809.67056  0.017612255  0.017120005         3985 
 3832000   0.63176293   -7.5839877    808.50848  0.017582387  0.017113611         3983 
 3833000   0.63513018   -7.5671146    810.26499  0.017615988  0.017107224         3979 
 3834000   0.63106782   -7.5989273    808.82485  0.017580092  0.017100836         3984 
 3835000   0.62114438   -7.5888354    810.29994  0.017607561  0.017094454         3984 
 3836000    0.6324559   -7.5569362    808.69577  0.017568122  0.017088082         3977 
 3837000   0.63667208   -7.6031786    808.34246   0.01755587  0.017081709         3981 
 3838000   0.64121898   -7.5868863    807.36479  0.017530067  0.017075336         3981 
 3839000   0.63730164    -7.577119      809.667  0.017575475  0.017068969         3973 
 3840000   0.64429419   -7.5638966    810.86682  0.017596936  0.017062607         3974 
 3841000   0.63361359   -7.5728987    809.35885  0.017559638  0.017056244         3981 
 3842000   0.64230497   -7.5724493     807.8819  0.017523033  0.017049884         3979 
 3843000   0.62693639   -7.5898216    809.29855  0.017549192  0.017043521         3979 
 3844000   0.64542521    -7.573539    809.55599  0.017550208  0.017037162         3974 
 3845000   0.64525973   -7.5757387    808.97777  0.017533112    0.0170308         3983 
 3846000   0.63294119   -7.5787583    808.45609  0.017517249  0.017024445         3984 
 3847000   0.62947805   -7.5777969    809.89543  0.017543875  0.017018097         3977 
 3848000   0.62027641   -7.5921467    807.66255   0.01749096  0.017011748         3982 
 3849000   0.62796942   -7.5707783    808.30291   0.01750028    0.0170054         3979 
 3850000   0.62502627   -7.5833804    809.91413  0.017530609  0.016999056         3981 
 3851000   0.64085507   -7.5830716    810.48393  0.017538387   0.01699272         3977 
 3852000   0.62975753   -7.5779349    809.88836  0.017520949  0.016986381         3979 
 3853000   0.63763269   -7.5823146    809.05518  0.017498382  0.016980049         3970 
 3854000   0.64023868   -7.5879022    810.58601  0.017526942   0.01697372         3982 
 3855000   0.63228301   -7.5948095    809.34919  0.017495659  0.016967394         3973 
 3856000   0.63570474   -7.5870139    808.53062  0.017473431  0.016961072         3977 
 3857000   0.64069794   -7.5709011    808.73186  0.017473249  0.016954754         3977 
 3858000   0.63750447   -7.5714986    808.77465  0.017469644  0.016948437         3982 
 3859000   0.63828094   -7.5798898     808.8563   0.01746688  0.016942114         3973 
 3860000    0.6381162   -7.5718817    808.42468  0.017453037  0.016935801         3971 
 3861000   0.63650885    -7.570324     811.0967  0.017506188  0.016929487         3978 
 3862000   0.63868346   -7.5873588    808.61375  0.017448079  0.016923186         3972 
 3863000   0.63584956   -7.5809167    809.12221   0.01745453  0.016916878         3977 
 3864000   0.63048895   -7.6148361    810.27507  0.017474876  0.016910574         3976 
 3865000   0.63783225   -7.5920453    809.93439   0.01746301  0.016904265         3970 
 3866000   0.62548523   -7.5791854    808.52888  0.017428196  0.016897965         3986 
 3867000   0.63188264   -7.5617452    809.47977  0.017444181  0.016891668         3970 
 3868000   0.63339041   -7.5798713    809.48411  0.017439765  0.016885372         3971 
 3869000   0.63044091   -7.5787034    808.91735   0.01742305  0.016879079         3974 
 3870000   0.63302688    -7.596241    808.11403   0.01740125  0.016872783         3986 
 3871000   0.63013821   -7.5910438    809.10545  0.017418097  0.016866504         3972 
 3872000   0.64162621    -7.588977    809.46865  0.017421415  0.016860223         3976 
 3873000   0.64825971   -7.5946802    809.51588  0.017417934  0.016853944         3982 
 3874000   0.61773843   -7.5833869    808.89448  0.017400071  0.016847664         3979 
 3875000   0.64099444   -7.5801675    808.91794  0.017396085  0.016841388         3969 
 3876000   0.62665465   -7.5857657    809.77226  0.017409964  0.016835113         3980 
 3877000   0.63375303   -7.5985199    809.05545  0.017390067  0.016828848         3978 
 3878000   0.62965835   -7.5823688    809.96701   0.01740517  0.016822581         3972 
 3879000   0.64254209   -7.5874225    809.03064  0.017380567  0.016816314         3977 
 3880000   0.63563471   -7.5825551    809.61399  0.017388617  0.016810049         3973 
 3881000   0.61342077    -7.594002    809.11785  0.017373483  0.016803795         3982 
 3882000   0.63437188   -7.5915648    809.30733  0.017373075  0.016797534         3983 
 3883000   0.63188623   -7.6066071    808.62921  0.017354048  0.016791276         3985 
 3884000   0.63923508   -7.5919291    809.34914  0.017365026  0.016785033         3975 
 3885000   0.62450966    -7.575796    809.24203  0.017358259  0.016778782         3977 
 3886000   0.63100549   -7.6109857    810.82384  0.017387713  0.016772533         3977 
 3887000   0.64419616   -7.5881012    808.15815   0.01732609  0.016766287         3981 
 3888000    0.6386611   -7.6082622    809.15464  0.017342992  0.016760046         3981 
 3889000   0.62354055    -7.599386    808.89417  0.017332951  0.016753806         3989 
 3890000   0.62548724    -7.574844     808.4962   0.01731997  0.016747566         3982 
 3891000   0.64059212   -7.5827428    809.43273  0.017335576  0.016741337         3971 
 3892000   0.62678166   -7.5932714    808.09526  0.017302485  0.016735108         3978 
 3893000   0.61125877   -7.5799155     807.9088  0.017294049  0.016728882         3982 
 3894000   0.62822103   -7.5843184    808.39082  0.017299923  0.016722656         3979 
 3895000   0.63064287   -7.6047522    809.08785  0.017310395  0.016716431         3977 
 3896000    0.6212617   -7.5832413    808.44443  0.017292189  0.016710215         3981 
 3897000   0.63025283   -7.5837893    807.45217  0.017266533  0.016704002         3980 
 3898000   0.63309116   -7.5910673    808.19321  0.017277946  0.016697783         3983 
 3899000   0.62749609   -7.5957919    809.01269  0.017291029  0.016691573         3976 
 3900000   0.63502626   -7.6106517    807.97833  0.017264494  0.016685359         3982 
 3901000   0.63278135   -7.5946664    808.82526  0.017278161  0.016679147         3973 
 3902000   0.63387379   -7.6068591    808.07546   0.01725772  0.016672939         3978 
 3903000   0.62014582   -7.5810133    809.44596   0.01728256  0.016666739         3982 
 3904000   0.62982949   -7.6043693    810.02071  0.017290401  0.016660536         3979 
 3905000   0.62798713    -7.607626    808.90741  0.017262215  0.016654342         3983 
 3906000   0.63186924    -7.589991    808.40528  0.017247083  0.016648144         3990 
 3907000    0.6243379   -7.5727788     807.9742  0.017233474  0.016641948         3979 
 3908000   0.62800632   -7.5962505    809.77577   0.01726748  0.016635762         3979 
 3909000   0.63118358    -7.580333    808.79566  0.017242169  0.016629578         3982 
 3910000    0.6300703   -7.5830486    808.19818  0.017225025    0.0166234         3986 
 3911000   0.64275162   -7.5971107    808.44693  0.017225921  0.016617219         3971 
 3912000   0.64182753   -7.5940656    809.03442  0.017234032  0.016611042         3979 
 3913000   0.62652525    -7.594333    809.04011  0.017229749  0.016604863         3981 
 3914000   0.62893692   -7.6142813    809.35052  0.017231956  0.016598685         3969 
 3915000   0.61782586   -7.5948748    808.97739  0.017219612  0.016592514         3985 
 3916000   0.62655385   -7.6203775    809.37113  0.017223594  0.016586347         3971 
 3917000   0.62920158   -7.5825579    807.35587  0.017176323  0.016580184         3979 
 3918000   0.62926738   -7.5914929    809.07333  0.017208468  0.016574024         3976 
 3919000   0.62408406   -7.5915524      808.274   0.01718708  0.016567867         3978 
 3920000   0.62422848   -7.5823363    808.66769  0.017191065  0.016561704         3979 
 3921000   0.62852262   -7.6296849    807.93505   0.01717111  0.016555549         3981 
 3922000   0.62357346   -7.5987531    809.18609  0.017193313  0.016549396         3980 
 3923000   0.62385999   -7.6052435    807.34591  0.017149841  0.016543245         3980 
 3924000   0.62988337   -7.5930217    808.49343   0.01716984  0.016537101         3972 
 3925000   0.62547048   -7.6129448    808.92122  0.017174548  0.016530953         3980 
 3926000    0.6225131   -7.5926207    808.94147  0.017170603   0.01652481         3984 
 3927000   0.62127752   -7.5795292    808.88537  0.017165041   0.01651867         3980 
 3928000   0.62545243   -7.6170161    809.09391  0.017165095  0.016512536         3979 
 3929000   0.61883924   -7.6178996    807.41233   0.01712506  0.016506402         3975 
 3930000   0.62084562   -7.6079926     807.8495  0.017129972  0.016500272         3973 
 3931000   0.63712286   -7.6090295    809.05709  0.017151214  0.016494145         3978 
 3932000   0.62923563   -7.6023131    809.40038  0.017154128  0.016488018         3976 
 3933000   0.63087633   -7.5929852    808.42812  0.017129166  0.016481891         3983 
 3934000   0.61560342   -7.5918528    807.88063  0.017113215  0.016475776         3982 
 3935000   0.63720157   -7.6126608    808.16579  0.017114905   0.01646966         3985 
 3936000   0.62388114   -7.6225708    808.00696  0.017107194  0.016463549         3978 
 3937000   0.62472888    -7.591329    809.20905  0.017128292  0.016457437         3981 
 3938000   0.61295446   -7.6119721    807.73954  0.017092846  0.016451333         3982 
 3939000   0.62274788   -7.5954489    809.21845  0.017119795  0.016445225         3976 
 3940000   0.61823947   -7.5971696    808.32547  0.017096562  0.016439115         3981 
 3941000   0.62105805   -7.6285827    806.90625  0.017062214  0.016433012         3984 
 3942000   0.61200698   -7.6174943    808.31195  0.017087603  0.016426912         3968 
 3943000    0.6118924   -7.5999465    807.90222  0.017074609  0.016420814         3984 
 3944000   0.61569152   -7.5946512    808.01978  0.017072764   0.01641472         3983 
 3945000   0.63394684   -7.5995411    807.06193  0.017048203  0.016408625         3979 
 3946000   0.63735347   -7.6035569    807.30666  0.017049051  0.016402534         3981 
 3947000   0.62047141    -7.610919    807.91449  0.017057565  0.016396449         3981 
 3948000   0.62422555   -7.6060036    808.45981  0.017064755  0.016390366         3978 
 3949000   0.61251156   -7.6064023    809.45468  0.017081427  0.016384283         3973 
 3950000   0.60721732    -7.616368    808.21499  0.017050949  0.016378202         3980 
 3951000   0.62560808   -7.6032784     808.5607  0.017053925  0.016372128         3979 
 3952000   0.63362749   -7.5937371    808.93213  0.017057442  0.016366054         3981 
 3953000   0.61582681    -7.617605    807.16883  0.017015955  0.016359982         3979 
 3954000   0.60442968   -7.5987003    807.87529  0.017026541  0.016353918         3982 
 3955000   0.62334204   -7.5976116    807.61226  0.017016693  0.016347853         3975 
 3956000   0.62774964   -7.6130027    808.56171  0.017032392  0.016341789         3984 
 3957000   0.61376606   -7.6273408    807.22423  0.016999921  0.016335727         3984 
 3958000    0.6132028   -7.6101023       807.33  0.016997853  0.016329665         3982 
 3959000   0.59899219   -7.5933566    809.38097   0.01703673   0.01632361         3976 
 3960000   0.61871748   -7.6111772    808.02587  0.017003911  0.016317559         3986 
 3961000   0.62194199   -7.5989426    807.25957  0.016983497   0.01631151         3975 
 3962000   0.61597151   -7.5961866    808.17327  0.016998428  0.016305463         3976 
 3963000   0.61702082   -7.6405468    807.72014  0.016984611  0.016299418         3980 
 3964000   0.61828521    -7.600055     808.0233  0.016986699  0.016293375         3982 
 3965000   0.60972259   -7.6040699    807.27276  0.016966641  0.016287335         3983 
 3966000   0.62601924   -7.6083442    808.49187  0.016987978  0.016281304         3981 
 3967000    0.6339786   -7.5957125    809.02957  0.016994991  0.016275271         3980 
 3968000   0.61844916   -7.5885137    808.41608  0.016977824  0.016269242         3982 
 3969000   0.60715014   -7.6063886      808.085  0.016966595  0.016263209         3982 
 3970000   0.62916136   -7.6129342    807.35219  0.016946939  0.016257191         3978 
 3971000   0.60352372   -7.5967251    807.56352  0.016947107  0.016251169         3983 
 3972000   0.60241848   -7.6091693    808.76164  0.016967977  0.016245148         3980 
 3973000   0.63205809   -7.6077455    808.36234  0.016955331  0.016239127         3984 
 3974000   0.61323696   -7.5920286    807.25574  0.016927859  0.016233117         3988 
 3975000   0.63112771   -7.5963359    808.31856  0.016945882  0.016227104         3985 
 3976000   0.62596178   -7.6188102    808.63388  0.016948229  0.016221095         3970 
 3977000    0.6025085   -7.6228332    807.96634   0.01692998  0.016215083         3977 
 3978000   0.62071633   -7.6021084    809.03732  0.016948159  0.016209077         3986 
 3979000   0.61020024   -7.6168299    807.92408  0.016920585  0.016203074         3986 
 3980000   0.60967647   -7.6049198    809.77046  0.016954993  0.016197076         3980 
 3981000   0.62950355   -7.6014059    809.94941   0.01695448   0.01619108         3985 
 3982000   0.61839399   -7.6053346    808.25036  0.016914665  0.016185084         3981 
 3983000   0.62745268   -7.6102652    810.05344  0.016948143  0.016179094         3983 
 3984000    0.5957108   -7.5955914     807.4069  0.016888531  0.016173104         3974 
 3985000    0.6081015   -7.6146372     807.9513  0.016895677  0.016167118         3973 
 3986000   0.62236458   -7.6290768    806.40133  0.016859034  0.016161133         3979 
 3987000   0.60986503   -7.6144275    807.41814  0.016876058  0.016155149         3977 
 3988000   0.60896377   -7.6004292    808.39797  0.016892301  0.016149171         3988 
 3989000   0.61676931   -7.6136866    806.99987  0.016858859  0.016143189         3975 
 3990000   0.62286947   -7.6084741    808.90896  0.016894506  0.016137218         3985 
 3991000    0.6214931   -7.5924768    808.97821  0.016891719  0.016131249         3977 
 3992000   0.62421723   -7.6080472    806.98158  0.016845808   0.01612528         3985 
 3993000   0.62416452   -7.6097799    807.91362  0.016861041  0.016119312         3973 
 3994000    0.6078633   -7.6091296    808.99291  0.016879338  0.016113347         3979 
 3995000   0.62046363   -7.6099557    808.48967  0.016864616  0.016107389         3984 
 3996000   0.60823893   -7.6247303    807.11056  0.016831635  0.016101428         3985 
 3997000   0.61294384   -7.6151172    805.97703  0.016803791   0.01609547         3989 
 3998000   0.59792834   -7.6217654    808.29221  0.016847845  0.016089512         3989 
 3999000   0.61922017   -7.6201182    806.76271  0.016811759  0.016083564         3972 
 4000000   0.60679129   -7.6145187    807.90794  0.016831415  0.016077612         3986 
 4001000   0.61075658   -7.6174814     806.5987   0.01679994  0.016071672         3987 
 4002000   0.61322193   -7.6183419    809.40967  0.016854274  0.016065726         3978 
 4003000   0.61359987   -7.6191093    807.13562  0.016802723  0.016059789         3982 
 4004000   0.60439374   -7.6062398    808.92984  0.016835869  0.016053849         3973 
 4005000    0.6158381   -7.6306182     807.6519  0.016805075  0.016047913         3986 
 4006000   0.60134981   -7.6195024    808.52348  0.016819011  0.016041978         3981 
 4007000   0.61262146   -7.5904162    808.29119  0.016809982  0.016036052         3982 
 4008000   0.60826302   -7.6378211    807.24549  0.016784046  0.016030123         3981 
 4009000   0.61083626   -7.6409875    807.94702  0.016794442  0.016024196         3983 
 4010000   0.60815394   -7.6083513    808.20155  0.016795543  0.016018275         3981 
 4011000   0.60971297   -7.6459383    808.54044  0.016798397  0.016012356         3984 
 4012000   0.60837372   -7.6138784    807.86623  0.016780206  0.016006436         3987 
 4013000   0.60699327   -7.6263425    807.23011  0.016762815  0.016000519         3992 
 4014000   0.60425042   -7.6317215    808.19239  0.016778616  0.015994604         3974 
 4015000   0.62443894   -7.6119771    806.86956  0.016746981  0.015988699         3983 
 4016000   0.62645999   -7.6099854    807.97018  0.016765649  0.015982794         3977 
 4017000   0.61663108   -7.6306002    807.32686   0.01674813  0.015976891         3981 
 4018000   0.61386033   -7.6084792    807.39666  0.016745409  0.015970991         3979 
 4019000   0.60501683   -7.6146247      805.383   0.01669949  0.015965092         3977 
 4020000   0.63011506   -7.6274109    808.08446  0.016751336  0.015959193         3986 
 4021000     0.603797   -7.6213215     806.9823  0.016724329  0.015953303         3983 
 4022000   0.62683501    -7.630322    807.58227  0.016732601  0.015947413         3970 
 4023000   0.61556132   -7.5959978    806.68553  0.016709867  0.015941522         3975 
 4024000   0.60643094   -7.6062076    807.24701  0.016717342  0.015935637         3973 
 4025000   0.60588131   -7.6331022    807.46539   0.01671771  0.015929752         3985 
 4026000   0.59565711   -7.6139418    808.14621   0.01672765  0.015923875         3983 
 4027000    0.6040655   -7.6156377    808.26712  0.016725998  0.015917994         3980 
 4028000   0.61036618   -7.6103831    809.27675  0.016742733  0.015912121         3978 
 4029000   0.60515322    -7.623066    807.20122  0.016695649  0.015906249         3979 
 4030000   0.60168328   -7.6291789    807.21145  0.016691717  0.015900379         3982 
 4031000   0.61350365   -7.6194824    808.16293  0.016707247  0.015894509         3981 
 4032000   0.61322121   -7.6295263     807.7367  0.016694294  0.015888644         3972 
 4033000   0.61036238   -7.6007307    807.82862  0.016692053  0.015882786         3970 
 4034000   0.60780421   -7.6214709    807.05049  0.016671841  0.015876927         3982 
 4035000   0.60185528   -7.6269927    807.26824  0.016672207  0.015871065         3987 
 4036000   0.60066297   -7.6270982    805.48213  0.016631197  0.015865206         3986 
 4037000   0.61022604   -7.6120372    806.42672  0.016646576  0.015859352         3975 
 4038000   0.59206193   -7.6262116    806.90783  0.016652382  0.015853501         3983 
 4039000   0.59950835     -7.61422    807.80141  0.016666696  0.015847655         3972 
 4040000   0.59947594   -7.6188039    807.39877  0.016654265  0.015841812         3988 
 4041000   0.59764897    -7.643987    808.03505  0.016663265  0.015835967         3980 
 4042000   0.59276673   -7.6214772    807.14476  0.016640787  0.015830125         3981 
 4043000   0.59040313   -7.6224184    807.58318  0.016645708  0.015824284         3983 
 4044000   0.60562001   -7.6307678    806.64027  0.016622162  0.015818452         3970 
 4045000   0.59083199   -7.6334987    807.23515  0.016630308  0.015812621         3980 
 4046000   0.60532848   -7.6369991    807.78551  0.016637533  0.015806787         3981 
 4047000   0.60544312   -7.6188254    807.66581  0.016630957   0.01580096         3978 
 4048000   0.59709799    -7.610192    806.79444  0.016608911  0.015795132         3983 
 4049000   0.60637187   -7.6334137    807.26675  0.016614529  0.015789314         3979 
 4050000   0.61630127   -7.6407439     807.9096  0.016623654  0.015783495         3980 
 4051000    0.6037575   -7.6413208    807.41865  0.016609451  0.015777676         3985 
 4052000   0.61068193   -7.6241769    806.95424  0.016595801  0.015771863         3982 
 4053000   0.60607801   -7.6265857     807.0222  0.016593104  0.015766051         3977 
 4054000   0.60772083   -7.6230915    805.90883  0.016566125  0.015760242         3977 
 4055000   0.61285895   -7.6259883    806.32339  0.016570559  0.015754435         3979 
 4056000   0.59952559   -7.6181933     807.1822  0.016584118  0.015748632         3988 
 4057000   0.60511756   -7.6118691    806.91315  0.016574504   0.01574283         3975 
 4058000   0.60019555   -7.6219592    806.72496  0.016566555  0.015737032         3989 
 4059000   0.59817718   -7.6066259    807.53394  0.016579082  0.015731241         3976 
 4060000   0.59906489   -7.6287949    807.10244  0.016566142  0.015725449         3980 
 4061000   0.60659995   -7.6318237     806.3786  0.016547209  0.015719657         3984 
 4062000   0.60736819   -7.6377194    806.64624  0.016548626  0.015713867         3985 
 4063000   0.61282827   -7.6363825    805.83821   0.01652798  0.015708081         3972 
 4064000    0.6151106   -7.6476999    807.16302  0.016551079  0.015702297         3973 
 4065000    0.5928318   -7.6183849    806.73679   0.01653827  0.015696514         3984 
 4066000   0.59933517   -7.6195159    806.76675  0.016534816  0.015690737         3988 
 4067000   0.60547832   -7.6206434    806.38833  0.016522997  0.015684961         3982 
 4068000   0.60230596   -7.6155031    804.95693  0.016489613  0.015679187         3975 
 4069000     0.598401    -7.617604    806.94188  0.016526212  0.015673416         3976 
 4070000   0.59253123   -7.6247169    807.79223  0.016539562  0.015667644         3984 
 4071000   0.58958526   -7.6288889    808.60158  0.016552067  0.015661878         3982 
 4072000   0.60548991   -7.6398617     807.6088  0.016527685  0.015656111         3984 
 4073000   0.59747305    -7.627347      806.157  0.016493923  0.015650348         3980 
 4074000   0.58981351   -7.6297893    805.49461  0.016476326  0.015644588         3972 
 4075000   0.59669476   -7.6300717    807.49902  0.016513272  0.015638832         3979 
 4076000   0.60135118   -7.6298268    807.60447  0.016511377  0.015633076         3974 
 4077000   0.60414311   -7.6361656    807.11801  0.016497384  0.015627324         3972 
 4078000   0.59543724    -7.624309    805.67204   0.01646379  0.015621579         3980 
 4079000   0.59878715   -7.6183238    806.96964  0.016486264  0.015615835         3979 
 4080000    0.5905629   -7.6336168    807.42517  0.016491527  0.015610085         3982 
 4081000   0.60211603   -7.6231341    807.04798  0.016479784  0.015604348         3974 
 4082000   0.60310884   -7.6191536    806.28233  0.016460116  0.015598607         3987 
 4083000   0.59652563   -7.6346938     806.4833  0.016460187  0.015592872         3987 
 4084000   0.60150332   -7.6488295    806.88357  0.016464324  0.015587139         3987 
 4085000   0.59320323   -7.6327284    807.27731  0.016468325  0.015581413         3973 
 4086000   0.59353584   -7.6339361    806.83148  0.016455202  0.015575682         3979 
 4087000   0.60029536   -7.6304179     806.3897  0.016442168   0.01556996         3981 
 4088000   0.59511639    -7.621502     806.7021  0.016444515  0.015564234         3978 
 4089000   0.58868134   -7.6344016    806.33772  0.016433067  0.015558513         3987 
 4090000    0.6028852   -7.6444433    806.90973  0.016440704  0.015552794         3973 
 4091000   0.59975792   -7.6429177    807.89193  0.016456692  0.015547077         3982 
 4092000   0.59856021   -7.6313686    807.32651  0.016441156  0.015541362         3988 
 4093000    0.5940983     -7.63547    807.42695  0.016439184  0.015535651         3984 
 4094000    0.5841379   -7.6438214    805.88983   0.01640388  0.015529938         3979 
 4095000   0.59294473    -7.629034    805.71337  0.016396284  0.015524229         3980 
 4096000   0.60232877    -7.647958    806.71858  0.016412732   0.01551852         3977 
 4097000   0.59310422   -7.6566212    807.45926  0.016423791  0.015512821         3983 
 4098000   0.60014633   -7.6514179    806.82426  0.016406871  0.015507125         3992 
 4099000   0.58900642    -7.634353    806.26674  0.016391533   0.01550143         3975 
 4100000    0.5862721   -7.6385914     806.7303  0.016396957  0.015495736         3983 
 4101000   0.59074349   -7.6315429    804.63807  0.016350444  0.015490046         3973 
 4102000   0.60575362    -7.628404    806.80208  0.016390421  0.015484354         3987 
 4103000   0.59643012   -7.6374416    805.81854   0.01636645  0.015478667         3981 
 4104000   0.60387567   -7.6514682    806.64514  0.016379247   0.01547298         3983 
 4105000   0.60015654   -7.6493912    805.76548  0.016357399  0.015467298         3986 
 4106000    0.5960444   -7.6242692    807.46463  0.016387901  0.015461618         3982 
 4107000   0.59869901   -7.6421989    807.05505    0.0163756  0.015455944         3982 
 4108000   0.59711689    -7.625578    807.80199  0.016386766  0.015450274         3974 
 4109000   0.59526491   -7.6295237    807.46087  0.016375859  0.015444605         3988 
 4110000   0.60030325   -7.6604744    805.03688  0.016322727  0.015438936         3987 
 4111000   0.59195544    -7.640578    805.91568   0.01633657  0.015433271         3984 
 4112000   0.59196224   -7.6343091    805.83971  0.016331058  0.015427608         3982 
 4113000    0.5920518   -7.6470692     807.2107  0.016354865  0.015421952         3983 
 4114000   0.58959673   -7.6658595    807.19872  0.016350646  0.015416293         3981 
 4115000   0.59705387   -7.6406196    805.73229  0.016316976  0.015410639         3986 
 4116000   0.57780931   -7.6242847    807.20853    0.0163429  0.015404986         3982 
 4117000   0.59557243   -7.6236813    806.13295  0.016317159  0.015399335         3980 
 4118000   0.58847816   -7.6512341    806.67909  0.016324249  0.015393689         3991 
 4119000   0.59170072   -7.6356591    807.11722   0.01632915  0.015388042         3983 
 4120000   0.59730563   -7.6412328     809.0332   0.01636394  0.015382399         3987 
 4121000   0.59774434   -7.6343341    806.89701  0.016316772  0.015376765         3982 
 4122000   0.59280226   -7.6308421    807.71498   0.01632935  0.015371126         3978 
 4123000   0.59445046   -7.6397433    805.28075  0.016276189  0.015365492         3986 
 4124000   0.59812439   -7.6338807    807.55784  0.016318256  0.015359855         3985 
 4125000   0.59739804   -7.6262365    806.21231  0.016287117  0.015354221         3981 
 4126000   0.59480552   -7.6300355    806.20943  0.016283112  0.015348597         3980 
 4127000   0.59743557   -7.6590452    806.51432  0.016285323  0.015342969         3980 
 4128000   0.58540414   -7.6382599    806.01944  0.016271387  0.015337345         3983 
 4129000   0.59604406   -7.6568484    807.73121  0.016301994  0.015331723         3987 
 4130000   0.59419446   -7.6441716    806.24118  0.016267982  0.015326101         3980 
 4131000   0.59054169   -7.6375436    805.87555  0.016256668  0.015320484         3983 
 4132000   0.58838141   -7.6303939    807.04768  0.016276373  0.015314875         3984 
 4133000   0.58100979    -7.625427     807.0176  0.016271828  0.015309263         3979 
 4134000   0.58533462   -7.6432612    807.32919  0.016274173  0.015303652         3986 
 4135000   0.59966595   -7.6382672    806.62825  0.016256111  0.015298048         3982 
 4136000   0.59597637   -7.6367994    806.19648  0.016243482  0.015292444         3985 
 4137000   0.59167496   -7.6357766    806.62824  0.016248252  0.015286838         3984 
 4138000   0.60213824   -7.6189809    806.69753  0.016245721  0.015281242         3983 
 4139000   0.58999437   -7.6543821    806.52973  0.016238418  0.015275651         3979 
 4140000   0.57837477   -7.6387739    806.81815  0.016240301  0.015270058         3985 
 4141000   0.59370188   -7.6221838    805.37103  0.016207257  0.015264471         3977 
 4142000   0.58569358   -7.6628897     807.6771  0.016249741  0.015258882         3986 
 4143000   0.58327948   -7.6441445    806.14226  0.016214946  0.015253292         3981 
 4144000   0.59409592   -7.6517169    806.12515  0.016210689  0.015247711         3987 
 4145000   0.59921625   -7.6434852    805.65852  0.016197397  0.015242135         3984 
 4146000   0.59867915   -7.6519248    807.13944  0.016223256  0.015236558         3970 
 4147000   0.58838127   -7.6414856    806.54523  0.016207404  0.015230983         3981 
 4148000   0.60011305   -7.6332069    806.83405  0.016209299  0.015225413         3979 
 4149000   0.58240472   -7.6557406    806.17601  0.016192175  0.015219843         3984 
 4150000   0.60700419   -7.6452481    806.52975  0.016195376  0.015214272         3980 
 4151000   0.57540649   -7.6281202    806.57127  0.016192309  0.015208703         3983 
 4152000   0.59544995   -7.6516044    806.37931  0.016184556  0.015203137         3981 
 4153000   0.58115133   -7.6478271    806.98959  0.016192904  0.015197575         3987 
 4154000   0.57891794   -7.6600262    806.65351  0.016182264  0.015192014         3982 
 4155000   0.58403244    -7.645134    807.36452   0.01619263  0.015186463         3980 
 4156000    0.5875178   -7.6480408    805.82294  0.016157823  0.015180904         3987 
 4157000   0.59244032   -7.6483455    805.49194    0.0161473  0.015175354         3988 
 4158000   0.57719842   -7.6497004    806.64084  0.016166443  0.015169808         3977 
 4159000   0.58538626   -7.6428647     806.8326  0.016166398  0.015164259         3976 
 4160000   0.58343881   -7.6512272     807.0389  0.016166645  0.015158714         3992 
 4161000   0.58774087   -7.6488609    805.68243  0.016135593  0.015153171         3986 
 4162000   0.58764539   -7.6302649    805.83686  0.016134808   0.01514763         3985 
 4163000   0.58414752   -7.6497605    806.94105  0.016153036  0.015142096         3989 
 4164000   0.58929258   -7.6382068    806.42056   0.01613874  0.015136561         3974 
 4165000   0.58149921   -7.6693966    806.24605  0.016131374  0.015131027         3975 
 4166000   0.57791396   -7.6387854    805.97847  0.016122149  0.015125494         3979 
 4167000   0.59761456   -7.6290891    806.52171  0.016129144  0.015119971         3985 
 4168000   0.57417925   -7.6731942    806.12424  0.016117327  0.015114443         3983 
 4169000   0.57687904   -7.6511948    804.96783  0.016090346  0.015108916         3982 
 4170000   0.59236227   -7.6492391    806.07646  0.016108642  0.015103396         3983 
 4171000    0.5690426   -7.6661679    806.19439  0.016107136  0.015097874         3981 
 4172000   0.56819896    -7.642323    805.44108  0.016088229  0.015092358         3984 
 4173000   0.57199945   -7.6638555    805.94429  0.016094422  0.015086841         3981 
 4174000    0.5842606   -7.6275313    805.47546  0.016081206  0.015081332         3987 
 4175000   0.58362631   -7.6679907    805.73641  0.016082563  0.015075824         3978 
 4176000   0.57743646   -7.6508301    805.01538  0.016064324   0.01507032         3983 
 4177000   0.58471284   -7.6518172    805.83799  0.016076889  0.015064818         3982 
 4178000   0.59355836   -7.6563985    805.92037  0.016074684  0.015059313         3988 
 4179000    0.5900726   -7.6439887    805.25685  0.016057606  0.015053815         3983 
 4180000   0.58970818   -7.6514057    805.27928  0.016054212   0.01504832         3987 
 4181000   0.58004262   -7.6381859    806.55448  0.016075789  0.015042831         3985 
 4182000   0.57498499   -7.6501408    805.81449  0.016057199   0.01503734         3982 
 4183000   0.58235241    -7.649413    805.52986   0.01604769   0.01503185         3972 
 4184000   0.58183957   -7.6664913    806.67738   0.01606671  0.015026366         3980 
 4185000   0.58067351   -7.6534056    806.92267  0.016067755  0.015020883         3984 
 4186000   0.59623598   -7.6660721    805.42447  0.016034091  0.015015401         3978 
 4187000    0.5871158   -7.6394983    806.07639  0.016043237  0.015009919         3981 
 4188000   0.58314844   -7.6445041    805.10489  0.016020075  0.015004446         3986 
 4189000   0.59417649   -7.6563521     806.9585  0.016053125  0.014998972         3992 
 4190000   0.57254973   -7.6405712    806.46338  0.016039447  0.014993504         3979 
 4191000   0.58597883   -7.6575985    805.51975  0.016016857  0.014988035         3978 
 4192000   0.56927406   -7.6636773     806.2207   0.01602697  0.014982571         3980 
 4193000   0.57652751   -7.6751741    805.54428  0.016009704  0.014977103         3984 
 4194000   0.58527961   -7.6615148    805.91521  0.016013257  0.014971638         3984 
 4195000    0.6077396   -7.6426549     805.5865   0.01600291  0.014966182         3978 
 4196000   0.59080632   -7.6680909    806.21725  0.016011623  0.014960727         3979 
 4197000   0.58607709   -7.6585661    806.44673  0.016012365  0.014955271         3992 
 4198000   0.58453546   -7.6607432    805.78318  0.015995378  0.014949822         3985 
 4199000   0.58779295   -7.6451781     805.6485  0.015988896  0.014944374         3983 
 4200000   0.56842488    -7.669425    807.50815  0.016021987  0.014938929         3974 
 4201000   0.59551252   -7.6521922    805.29154  0.015974203  0.014933491         3988 
 4202000   0.56599598   -7.6572109    804.76125  0.015959885  0.014928045         3983 
 4203000   0.57808011    -7.659393    805.98861  0.015980423  0.014922606         3984 
 4204000   0.58224534   -7.6474108    805.07935  0.015958598  0.014917168         3985 
 4205000    0.5743287   -7.6515693    805.31563  0.015959485  0.014911733         3972 
 4206000   0.56503155   -7.6488838     804.5033  0.015939596  0.014906299         3990 
 4207000   0.57057869   -7.6562577    805.73113  0.015960129  0.014900867         3987 
 4208000   0.57528564   -7.6608816    805.55777  0.015952903   0.01489544         3981 
 4209000   0.56765912   -7.6417354    807.69542  0.015991435   0.01489002         3988 
 4210000   0.58442758   -7.6629434    806.05229  0.015955113  0.014884599         3982 
 4211000   0.57682668   -7.6525553    805.83283  0.015946981  0.014879179         3985 
 4212000   0.57494998   -7.6642843    806.49295  0.015956255  0.014873761         3988 
 4213000   0.57253802    -7.645315    805.64742  0.015935743  0.014868342         3980 
 4214000   0.57230742   -7.6667542    806.08512  0.015940617  0.014862934         3982 
 4215000   0.56528137   -7.6693497    806.07688  0.015936672  0.014857527         3985 
 4216000   0.57735375   -7.6553685    807.51732  0.015961364  0.014852117         3985 
 4217000   0.57827892    -7.661852    807.10625  0.015949456  0.014846714         3983 
 4218000    0.5732856   -7.6387153    804.24161  0.015889079  0.014841313         3985 
 4219000   0.57997852   -7.6460432    804.61311  0.015892651  0.014835908         3984 
 4220000   0.57992131   -7.6472043    806.37235  0.015923625  0.014830513         3986 
 4221000   0.57048079    -7.660644    805.81608   0.01590887  0.014825121         3988 
 4222000   0.56259638   -7.6588208    805.50831  0.015899027   0.01481973         3987 
 4223000   0.56532439   -7.6549274    806.46695  0.015914179  0.014814336         3988 
 4224000   0.57310257   -7.6662637    805.91707  0.015899563  0.014808948         3980 
 4225000   0.56267122   -7.6483213    806.29422  0.015903239  0.014803561         3984 
 4226000    0.5696028   -7.6707407    805.86506  0.015891013  0.014798176         3980 
 4227000   0.57151412   -7.6530838    804.09769  0.015852411  0.014792796         3983 
 4228000   0.56988661   -7.6651191    805.43262  0.015874973  0.014787416         3978 
 4229000   0.57881708    -7.664676    805.51058  0.015872755  0.014782046         3981 
 4230000   0.57533836   -7.6574195    805.41816  0.015867182  0.014776674         3983 
 4231000   0.57692026   -7.6745965    804.94854  0.015854182  0.014771303         3982 
 4232000   0.57276394   -7.6565387    804.85937   0.01584868  0.014765933         3980 
 4233000   0.55965566   -7.6499779    805.67696  0.015861032  0.014760571         3981 
 4234000   0.57203517   -7.6484072    806.67405   0.01587691  0.014755207         3976 
 4235000   0.58067257   -7.6482052    805.88005  0.015857537  0.014749847         3983 
 4236000   0.57278783   -7.6557032    805.71413   0.01585053  0.014744489         3986 
 4237000   0.56379598   -7.6648392    804.84061  0.015829608  0.014739128         3982 
 4238000   0.55047215   -7.6461689     806.3285   0.01585513  0.014733772         3980 
 4239000    0.5824555   -7.6775031    805.41151  0.015833363  0.014728422         3981 
 4240000   0.57702218    -7.669858    804.29549  0.015807694  0.014723072         3986 
 4241000   0.57311549   -7.6554175    807.09015  0.015858881  0.014717722         3972 
 4242000   0.57358654    -7.648001    805.87969  0.015831363  0.014712379         3979 
 4243000      0.55819   -7.6592212    806.00046  0.015830003  0.014707036         3986 
 4244000   0.57824723   -7.6715884    805.95289   0.01582534  0.014701695         3980 
 4245000   0.55792217   -7.6706144    806.54088  0.015833154  0.014696359         3980 
 4246000   0.58676556   -7.6702897    805.08969  0.015800944  0.014691023         3987 
 4247000   0.58705048   -7.6627442    805.27825  0.015800923  0.014685688         3984 
 4248000   0.57828472   -7.6560802    806.16468  0.015814593  0.014680359         3989 
 4249000   0.57835572   -7.6652854    804.94891  0.015787026  0.014675028         3985 
 4250000   0.57631108   -7.6822235    805.76864  0.015799385  0.014669703         3976 
 4251000   0.56994242   -7.6523965     805.7464  0.015795233   0.01466438         3981 
 4252000    0.5658983   -7.6676481    805.82829  0.015793123  0.014659057         3980 
 4253000   0.57473896   -7.6566607    806.90897  0.015810584  0.014653737         3986 
 4254000   0.56454482   -7.6564397    804.30695  0.015755895   0.01464842         3985 
 4255000   0.57386023   -7.6709892    806.08893  0.015787092  0.014643109         3992 
 4256000   0.58762047   -7.6557482    805.01631  0.015762381    0.0146378         3984 
 4257000   0.56815734   -7.6554905    804.66298  0.015751761   0.01463249         3984 
 4258000   0.55934824   -7.6490047     805.1704  0.015757993  0.014627183         3982 
 4259000   0.55731226   -7.6780337    805.64324  0.015763545  0.014621878         3984 
 4260000   0.56796191   -7.6599625    804.68955  0.015741188  0.014616575         3989 
 4261000   0.57222699   -7.6637613    805.20085  0.015747494  0.014611273         3989 
 4262000   0.57218738    -7.662129    806.27601  0.015764821  0.014605978         3979 
 4263000    0.5719339   -7.6771717    804.42227  0.015724886  0.014600683         3985 
 4264000   0.57368299   -7.6620568    807.41992  0.015779783  0.014595393         3982 
 4265000   0.56982819   -7.6677794    805.09513  0.015730659  0.014590107         3980 
 4266000   0.55845121   -7.6789395    805.22603  0.015729529  0.014584822         3984 
 4267000   0.56387576   -7.6621701    804.15569  0.015704939  0.014579537         3989 
 4268000   0.58156272   -7.6637387    803.42135  0.015686921  0.014574256         3983 
 4269000   0.57134912   -7.6749586    804.59441  0.015706145  0.014568979         3981 
 4270000   0.57791843   -7.6506413    804.80847  0.015706645  0.014563702         3987 
 4271000   0.56497902     -7.65583    805.21064  0.015710814  0.014558427         3990 
 4272000    0.5796191   -7.6842395    805.10752  0.015705125  0.014553151         3983 
 4273000   0.57063682   -7.6674814    806.09548  0.015720717   0.01454788         3985 
 4274000   0.57249707    -7.682208    805.00852  0.015695845  0.014542609         3975 
 4275000   0.57091678   -7.6601934    805.06656  0.015693305  0.014537345         3976 
 4276000   0.58658389   -7.6806504     804.5911  0.015680369  0.014532082         3985 
 4277000   0.57422966   -7.6803307    804.62937  0.015677449   0.01452682         3982 
 4278000   0.57199272    -7.676424    804.07672  0.015663019  0.014521562         3987 
 4279000   0.56604915   -7.6527947    805.07937  0.015678885  0.014516307         3980 
 4280000    0.5680333   -7.6844726     804.9127  0.015671976   0.01451105         3985 
 4281000   0.55504223   -7.6660247    804.06388  0.015651792  0.014505793         3982 
 4282000   0.56395896   -7.6678945    806.04537    0.0156867  0.014500541         3983 
 4283000   0.56501366   -7.6723242    804.83246  0.015659438  0.014495296         3984 
 4284000   0.56867944   -7.6799133    806.47121   0.01568766   0.01449005         3980 
 4285000   0.55273779   -7.6789767    804.58492  0.015647315  0.014484806         3985 
 4286000   0.57047303   -7.6747399    802.98617  0.015612579  0.014479565         3979 
 4287000   0.55777713   -7.6660847    804.74747  0.015643175  0.014474328         3981 
 4288000   0.57151967   -7.6704384    804.71661  0.015638927  0.014469095         3982 
 4289000   0.56260366   -7.6488052     804.3108  0.015627396  0.014463862         3987 
 4290000    0.5623931   -7.6700755    804.51534  0.015627726  0.014458631         3987 
 4291000   0.57878566   -7.6834599    804.83028    0.0156302  0.014453402         3982 
 4292000   0.56154961   -7.6735942     806.5524  0.015659995  0.014448174         3980 
 4293000   0.57165127   -7.6804227    805.46003  0.015635143  0.014442949         3986 
 4294000   0.57148979   -7.6737699    805.58307   0.01563389  0.014437725         3975 
 4295000   0.56633538   -7.6610366    805.00554  0.015619044   0.01443251         3985 
 4296000   0.56555143   -7.6839212    804.95091  0.015614349  0.014427292         3987 
 4297000   0.55175292   -7.6924909    803.93465  0.015591006  0.014422074         3980 
 4298000   0.56735061   -7.6952783    804.39457  0.015596296  0.014416857         3983 
 4299000   0.57548781   -7.6820546    804.98091  0.015604034  0.014411641         3982 
 4300000   0.56394106   -7.6709326    804.34124  0.015588009  0.014406435         3984 
 4301000   0.57051356   -7.6716613    803.97035  0.015577198  0.014401232         3987 
 4302000   0.56857118   -7.6631376    804.91611  0.015591897  0.014396029         3985 
 4303000   0.56052583   -7.6904803    805.16836  0.015593159  0.014390829         3985 
 4304000   0.55264994   -7.6683086    804.39053  0.015574476   0.01438563         3988 
 4305000    0.5592202    -7.690525    805.76705  0.015597504  0.014380435         3979 
 4306000   0.56302628   -7.6769345    805.27489  0.015584357  0.014375241         3984 
 4307000   0.55378461   -7.6644005     804.3331  0.015562516   0.01437005         3985 
 4308000   0.55790974   -7.6724422    804.50912  0.015562309   0.01436486         3990 
 4309000   0.56059795   -7.6818649    805.42113  0.015576335  0.014359675         3978 
 4310000   0.55859657    -7.670431    804.88405  0.015562337   0.01435449         3979 
 4311000   0.56611814   -7.6625023    805.09598  0.015562823  0.014349304         3986 
 4312000   0.56524325   -7.6808538    804.55355  0.015548731  0.014344128         3982 
 4313000    0.5553516   -7.6914135    804.32486  0.015540707  0.014338953         3984 
 4314000   0.56616266   -7.6859122    804.91992    0.0155486  0.014333778         3979 
 4315000   0.56558262   -7.6792304    805.59382  0.015558011  0.014328602         3987 
 4316000    0.5570695   -7.6546894    804.46236   0.01553256  0.014323432         3983 
 4317000   0.55474367   -7.6625418    804.26448  0.015525142  0.014318269         3979 
 4318000   0.56091104   -7.6622028    805.33856  0.015542276  0.014313108         3976 
 4319000   0.55999423   -7.6835553    806.14843  0.015554303  0.014307947         3986 
 4320000   0.55894279   -7.6608641    803.81698  0.015505729  0.014302781         3984 
 4321000   0.55391908   -7.6773913    804.73222  0.015519791  0.014297621         3980 
 4322000   0.58179456   -7.6701811    803.68319  0.015495974  0.014292463         3985 
 4323000   0.56547407   -7.6870171    804.90627  0.015515966  0.014287311         3985 
 4324000   0.55623401    -7.695582     805.1685  0.015517432  0.014282157         3983 
 4325000   0.56391256   -7.6867495     805.6993  0.015524071  0.014277005         3981 
 4326000   0.55533576   -7.6798059    804.66946  0.015500645  0.014271857         3989 
 4327000   0.57222865   -7.6830705    804.37325  0.015491358  0.014266712         3982 
 4328000   0.55948252   -7.6903437    804.23284  0.015485075  0.014261572         3975 
 4329000   0.56008043   -7.6870754    805.06475  0.015497512  0.014256433         3979 
 4330000   0.56779035   -7.6957312    804.48054  0.015482689  0.014251295         3980 
 4331000   0.56003437    -7.685649    804.77633  0.015484806  0.014246159         3985 
 4332000   0.56637636   -7.6863159     804.0432  0.015467128  0.014241023         3983 
 4333000    0.5501592   -7.6794825     803.8512  0.015459866   0.01423589         3991 
 4334000   0.56620151   -7.6694081    804.92335  0.015476914  0.014230761         3984 
 4335000   0.55750504   -7.6949974    804.08524  0.015457233  0.014225632         3988 
 4336000   0.55839247    -7.687572    805.03516  0.015471924  0.014220507         3978 
 4337000   0.55706151   -7.6793318     804.9155  0.015466058  0.014215388         3989 
 4338000   0.55340555   -7.6766093    804.90712  0.015462331  0.014210265         3977 
 4339000   0.56272691   -7.6879666     805.1752  0.015463916  0.014205148         3983 
 4340000   0.55248219   -7.6807694    803.79965  0.015433941  0.014200033         3985 
 4341000   0.54727064   -7.6944553    806.04827  0.015473552  0.014194919         3990 
 4342000   0.54974033   -7.6579005    805.33946  0.015456384  0.014189812         3983 
 4343000   0.55966272   -7.6790977    804.90313  0.015444453  0.014184706         3988 
 4344000   0.56095494   -7.6913954    804.40162  0.015431277  0.014179598         3985 
 4345000   0.54644942   -7.6753837    805.18441  0.015442739   0.01417449         3992 
 4346000   0.55258311   -7.7066042    805.10187  0.015437603  0.014169387         3985 
 4347000   0.54191445   -7.6967802    804.47226  0.015421982  0.014164287         3990 
 4348000   0.55756919     -7.69898    804.00872  0.015409551  0.014159188         3984 
 4349000   0.56138944   -7.6804031    804.85459  0.015422216  0.014154094         3989 
 4350000   0.55998076   -7.6783399    804.53607  0.015412568  0.014149002         3984 
 4351000   0.55105925   -7.6797711    804.55765  0.015409439  0.014143912         3980 
 4352000   0.55602263   -7.6825747    803.59374  0.015387441  0.014138828         3985 
 4353000    0.5621364   -7.6876868    804.25221  0.015396512  0.014133744         3976 
 4354000   0.56411124   -7.6654742    803.94797  0.015387153  0.014128664         3981 
 4355000   0.56133603   -7.6983173    804.77044  0.015399358  0.014123583         3984 
 4356000   0.55006435   -7.6869693    805.27904  0.015405552  0.014118503         3989 
 4357000   0.54866437   -7.6861577     803.1953  0.015362163  0.014113424         3981 
 4358000    0.5466235    -7.684803      804.087  0.015375688  0.014108348         3991 
 4359000   0.56230993    -7.677245    803.97392  0.015369999  0.014103276         3982 
 4360000   0.55404492   -7.6939708    804.24514  0.015371658  0.014098208         3985 
 4361000   0.54495488   -7.6763913    804.58495  0.015374626  0.014093145         3980 
 4362000   0.55838687   -7.7072957    804.27498   0.01536518  0.014088076         3991 
 4363000   0.55658063   -7.7043432    804.40056  0.015364057  0.014083012         3990 
 4364000   0.54772161   -7.6765332    802.19531  0.015318426  0.014077955         3987 
 4365000   0.55022187   -7.6993553    804.57372  0.015360323    0.0140729         3985 
 4366000   0.56044947   -7.6850125    803.43781  0.015335124  0.014067846         3981 
 4367000   0.54689897    -7.695003    804.72189  0.015356116  0.014062787         3982 
 4368000   0.56901266   -7.7087873    805.15281  0.015360821  0.014057736         3980 
 4369000   0.56118566    -7.692449    805.28338  0.015359796  0.014052686         3984 
 4370000   0.55893068   -7.6847326    805.18201  0.015354348  0.014047641         3980 
 4371000   0.54443308   -7.6913076     804.9408  0.015346237  0.014042598         3980 
 4372000   0.54296502   -7.6775378    803.93466  0.015323549  0.014037554         3993 
 4373000   0.54573816   -7.6840832    801.96983  0.015282602  0.014032513         3987 
 4374000   0.55712593   -7.6941669    804.51964  0.015327687  0.014027476         3986 
 4375000   0.55042672    -7.683959    804.34878  0.015320929  0.014022441         3973 
 4376000   0.54947662   -7.6839109    804.83709  0.015326727  0.014017406         3982 
 4377000   0.53706592   -7.6744088    804.02908  0.015307842  0.014012374         3981 
 4378000   0.56448373   -7.7073582    805.01942  0.015323196  0.014007349         3985 
 4379000   0.55297304   -7.7074373    804.74832  0.015314537  0.014002322         3979 
 4380000   0.55418506   -7.6938202     804.4452  0.015305274  0.013997297         3988 
 4381000   0.53606107   -7.7065035    805.27867  0.015317634  0.013992273         3978 
 4382000   0.55675869   -7.6945453     805.2544  0.015313677  0.013987253         3989 
 4383000    0.5378553    -7.681946    802.39354   0.01525579  0.013982234         3981 
 4384000   0.54468886   -7.6784507     804.9462  0.015300833  0.013977219         3988 
 4385000   0.55092756   -7.6599163    803.03017  0.015260931  0.013972207         3991 
 4386000   0.55394679   -7.6890558     804.2416  0.015280468  0.013967193         3981 
 4387000   0.54106254    -7.704044    804.86874  0.015288898  0.013962183         3986 
 4388000   0.54980478   -7.7056217     803.2367  0.015254419  0.013957176         3988 
 4389000   0.55392376   -7.6989625    803.87617  0.015263085   0.01395217         3990 
 4390000   0.55675229   -7.6884025    804.25917  0.015266879  0.013947171         3986 
 4391000   0.54032478   -7.7041828    805.17177  0.015280721  0.013942168         3987 
 4392000   0.56431364   -7.6862716    804.94764   0.01527299   0.01393717         3985 
 4393000   0.55401752       -7.693     805.7097  0.015283969  0.013932177         3981 
 4394000   0.54980945   -7.7139628    804.52597  0.015258041  0.013927184         3990 
 4395000   0.54601697   -7.6992562     803.9586  0.015243811  0.013922192         3980 
 4396000   0.55631108   -7.6862509    804.97145  0.015259544  0.013917208         3981 
 4397000    0.5470391    -7.703434    804.28984  0.015243155  0.013912224         3981 
 4398000   0.54574743   -7.7089441    803.80276   0.01523046  0.013907241         3983 
 4399000   0.53365479   -7.6891831    804.58983  0.015241908  0.013902261         3990 
 4400000   0.55226037   -7.6945546    803.63789  0.015220415   0.01389728         3985 
 4401000   0.54082335   -7.6981311    804.68633  0.015236809  0.013892305         3994 
 4402000   0.55827362   -7.6960397    805.02378  0.015239735  0.013887331         3985 
 4403000   0.55982815   -7.7061395    803.08477  0.015199575  0.013882356         3987 
 4404000   0.55315858   -7.7092925     804.4555  0.015222061  0.013877388         3986 
 4405000     0.540722   -7.6898719    805.00935  0.015229083  0.013872417         3986 
 4406000     0.549571   -7.6944414     803.9098  0.015204831  0.013867451         3987 
 4407000   0.54636678   -7.7201073    804.16624  0.015206229  0.013862484         3986 
 4408000    0.5420385   -7.6845947    804.81623  0.015215068  0.013857522         3987 
 4409000   0.54339066    -7.707661    804.81596  0.015211612  0.013852564         3987 
 4410000   0.54610609   -7.7039111    803.38926  0.015181203  0.013847609         3988 
 4411000   0.55342126   -7.6931736    803.88643  0.015187154  0.013842653         3984 
 4412000   0.55187242   -7.6958224    804.21898  0.015189993  0.013837699         3979 
 4413000   0.55095173   -7.6942435      804.698  0.015195596   0.01383275         3986 
 4414000   0.54623804   -7.6902253    803.84858  0.015176117  0.013827803         3983 
 4415000   0.54468089   -7.7045271    805.16255  0.015197481   0.01382286         3983 
 4416000   0.53682419   -7.7066732    802.81252  0.015149693  0.013817914         3988 
 4417000     0.536118   -7.7066864    803.46364  0.015158547  0.013812973         3988 
 4418000   0.54426993   -7.7061883    803.42679  0.015154421  0.013808032         3972 
 4419000    0.5484093   -7.6858817    803.56611  0.015153619  0.013803099         3982 
 4420000   0.54303884   -7.6995151    803.57748  0.015150405  0.013798163         3986 
 4421000   0.54588014   -7.6969229    802.73202  0.015131042  0.013793229         3982 
 4422000    0.5467753   -7.6970749    803.80198  0.015147783    0.0137883         3987 
 4423000   0.53965112   -7.6994734    804.73623  0.015161961  0.013783371         3982 
 4424000   0.54866564   -7.6796851    803.89338  0.015142657  0.013778445         3983 
 4425000   0.53601523   -7.7130474    804.43914  0.015149513  0.013773522         3980 
 4426000   0.53747801   -7.6960213    803.49748  0.015128361  0.013768601         3985 
 4427000   0.53863053   -7.6953217    803.70159  0.015128785  0.013763679         3981 
 4428000   0.55245202   -7.7036573    802.71533  0.015106808  0.013758764         3986 
 4429000   0.53988373   -7.7039181    802.95192  0.015107848  0.013753849         3988 
 4430000   0.52519428   -7.6971805    803.27995  0.015110609  0.013748939         3984 
 4431000   0.55137563    -7.687532    803.18534  0.015105419  0.013744029         3973 
 4432000   0.54155052   -7.7034065    803.74983  0.015112625   0.01373912         3984 
 4433000   0.53869141   -7.6884569    804.32326  0.015119995  0.013734215         3976 
 4434000   0.55866765    -7.702589    803.91848  0.015108978  0.013729313         3985 
 4435000   0.53058765   -7.6986439    803.15995  0.015091318  0.013724414         3985 
 4436000   0.54086781   -7.6884574    803.31191  0.015090771  0.013719513         3985 
 4437000   0.54957095   -7.7004378    804.55179  0.015110656  0.013714618         3983 
 4438000   0.55028109   -7.7052114     804.1984  0.015100616  0.013709723         3985 
 4439000   0.54123289    -7.688104    805.37633  0.015119327   0.01370483         3987 
 4440000   0.54413078   -7.7027959    802.00049  0.015052562  0.013699938         3979 
 4441000   0.54634777   -7.7118869    804.65967  0.015099071   0.01369505         3980 
 4442000    0.5485495   -7.6865036    804.38105  0.015090444  0.013690165         3984 
 4443000   0.54164447     -7.69842    803.65518  0.015073434  0.013685284         3986 
 4444000   0.53124425   -7.7006491    802.42207  0.015046919  0.013680401         3988 
 4445000   0.54861938    -7.710466     804.0935  0.015074869  0.013675523         3988 
 4446000    0.5382313   -7.7035527    803.36873  0.015057893  0.013670645         3986 
 4447000   0.54164628    -7.698468    802.30178  0.015034513  0.013665766         3986 
 4448000   0.53902688   -7.7028204    803.54149  0.015054359  0.013660893         3986 
 4449000   0.53470001   -7.7220643    803.56303  0.015051379  0.013656025         3986 
 4450000    0.5371916   -7.7203501    803.30179  0.015043105  0.013651157         3987 
 4451000    0.5423842   -7.7297688    802.77758   0.01502991  0.013646289         3983 
 4452000    0.5608685   -7.7023481    804.30054  0.015055042  0.013641426         3983 
 4453000   0.55112373   -7.7282214    803.78297  0.015041975  0.013636567         3985 
 4454000   0.54023306   -7.7055381    802.76537  0.015019559  0.013631711         3984 
 4455000   0.55168511   -7.7217083    803.42537  0.015028533  0.013626853         3986 
 4456000   0.53602923   -7.7144585    803.69064  0.015030121  0.013622003         3982 
 4457000    0.5483117   -7.7095159    803.62452  0.015025513  0.013617153         3982 
 4458000   0.54348475   -7.6997393    804.32964  0.015035323  0.013612303         3982 
 4459000   0.52479552   -7.6983976    802.93244  0.015005839  0.013607456         3987 
 4460000    0.5296217   -7.6957279    803.98053  0.015022058   0.01360261         3983 
 4461000   0.53841674   -7.6850972    802.25284  0.014986416  0.013597764         3974 
 4462000   0.52387263   -7.7133404    803.46554  0.015005706  0.013592923         3981 
 4463000   0.53166702   -7.7163367     803.5193  0.015003348  0.013588082         3981 
 4464000   0.54008901   -7.7030126    802.60043  0.014982834  0.013583245         3983 
 4465000   0.52440809     -7.72787    802.53056  0.014978174  0.013578407         3988 
 4466000   0.53077859   -7.7339709    803.07965  0.014985066  0.013573573         3986 
 4467000    0.5474301   -7.7083644    803.32457   0.01498628  0.013568745         3983 
 4468000   0.54442739   -7.7185979     803.6896  0.014989734  0.013563919         3984 
 4469000   0.52863566   -7.7062848    803.91641   0.01499061  0.013559089         3982 
 4470000   0.54266708   -7.7036976    803.79102  0.014984918  0.013554261         3986 
 4471000   0.53754325    -7.728602    803.30383  0.014972486  0.013549439         3982 
 4472000   0.54797974   -7.7039061     802.8167  0.014960061  0.013544617         3985 
 4473000   0.53707718   -7.7163983     802.6795   0.01495416  0.013539797         3980 
 4474000   0.53168159   -7.7244456    802.99901  0.014956769   0.01353498         3989 
 4475000   0.54229791    -7.723719    803.77879  0.014967948  0.013530168         3992 
 4476000    0.5333609   -7.7318667    803.23635  0.014954505  0.013525356         3988 
 4477000   0.52112562   -7.7008021    803.39639  0.014954143  0.013520546         3987 
 4478000   0.53280856   -7.7358147    803.97649  0.014961599  0.013515738         3986 
 4479000   0.53419639    -7.721187    804.05502   0.01495972  0.013510934         3984 
 4480000   0.53425734   -7.6983341    803.19713  0.014940423  0.013506134         3988 
 4481000   0.52587575   -7.7176988    804.06855  0.014953294  0.013501333         3984 
 4482000   0.52595703   -7.7008422    802.83858  0.014927089  0.013496536         3984 
 4483000   0.53243054    -7.725612    804.02948  0.014945897  0.013491742         3978 
 4484000    0.5300504   -7.6917775    802.78548  0.014919445  0.013486949         3984 
 4485000   0.53026341   -7.7243157    802.71895  0.014914882  0.013482155         3981 
 4486000    0.5402199   -7.7221128    803.39696  0.014924152  0.013477365         3978 
 4487000   0.52011519    -7.719128     803.9404  0.014930919  0.013472578         3983 
 4488000   0.53147732   -7.7239083    802.56114  0.014901982  0.013467792         3991 
 4489000   0.52991814   -7.7068932    802.86729  0.014904346  0.013463009         3993 
 4490000   0.53524729   -7.7191259    803.11757  0.014905671  0.013458228         3992 
 4491000   0.53958065   -7.7175406    803.31197   0.01490596  0.013453446         3977 
 4492000   0.54081583   -7.7035245    803.91525  0.014913833   0.01344867         3985 
 4493000   0.52294881   -7.7211565    803.07942  0.014895011  0.013443894         3987 
 4494000   0.53243911   -7.7034963    803.18056  0.014893572  0.013439124         3991 
 4495000   0.52822244   -7.7120247    804.25552  0.014910188  0.013434349         3982 
 4496000   0.54298634   -7.7213755    802.85823  0.014880973  0.013429579         3981 
 4497000   0.53785421    -7.707997    801.46171  0.014851785  0.013424814         3986 
 4498000   0.52123168   -7.7177535    802.76843  0.014872692  0.013420052         3984 
 4499000   0.52362581    -7.723195      803.979  0.014891809  0.013415292         3982 
 4500000   0.53204947   -7.7057537    802.38013  0.014858891  0.013410531         3980 
 4501000   0.53971862   -7.7367868    803.04584  0.014867915  0.013405774         3985 
 4502000   0.53754149   -7.7168109    802.50907  0.014854677  0.013401018         3986 
 4503000   0.52637856   -7.7203325    802.09815  0.014843774  0.013396263         3989 
 4504000   0.53468784   -7.7215946    803.31491  0.014862991  0.013391514         3989 
 4505000   0.52930325   -7.7072304     803.5676  0.014864365  0.013386766         3974 
 4506000   0.53315619    -7.726256    803.49751   0.01485977  0.013382017         3985 
 4507000   0.53512533   -7.7160149    803.38558  0.014854404  0.013377273         3985 
 4508000   0.54417594   -7.7210345    803.05092  0.014844922  0.013372528         3991 
 4509000   0.52761067   -7.7324957      803.713  0.014853866   0.01336779         3982 
 4510000   0.52724486   -7.7229154    803.24612  0.014841946  0.013363053         3985 
 4511000   0.53341282   -7.7189557    803.81427  0.014849151  0.013358318         3980 
 4512000   0.53508435   -7.7111123    803.96894  0.014848717  0.013353584         3979 
 4513000   0.53003762   -7.7159568    804.01575  0.014846291  0.013348855         3992 
 4514000    0.5192435   -7.7112276    802.19305  0.014809353  0.013344122         3991 
 4515000     0.543265   -7.7206124    803.25647  0.014825701  0.013339395         3979 
 4516000   0.53919281   -7.7288887    803.77696  0.014832022  0.013334672         3982 
 4517000   0.53591196   -7.7237718    802.92241  0.014812973  0.013329947         3986 
 4518000   0.52019444   -7.7272291    803.49139  0.014820189  0.013325226         3988 
 4519000   0.53252154   -7.7149035    803.54211  0.014817845  0.013320509         3986 
 4520000   0.52841292   -7.7140973    803.23229  0.014808855  0.013315792         3984 
 4521000   0.53328615   -7.7108326    802.66593   0.01479514  0.013311075         3989 
 4522000   0.52520938   -7.7316629    802.88206  0.014795851   0.01330636         3977 
 4523000   0.52666796   -7.7110051    803.11156  0.014796808   0.01330165         3984 
 4524000   0.53006086   -7.7292505    803.23495   0.01479581  0.013296942         3986 
 4525000   0.52494545   -7.7056751    802.31559  0.014775609  0.013292236         3988 
 4526000   0.52062415   -7.7230455    803.39602  0.014792238  0.013287532         3986 
 4527000    0.5161931   -7.7263794    802.65139  0.014775263  0.013282827         3990 
 4528000   0.54669334   -7.7211584    803.19741  0.014782049  0.013278126         3991 
 4529000   0.53322745   -7.7294943    801.86927  0.014754347  0.013273429         3986 
 4530000   0.53299912   -7.7122979    804.11773  0.014792453  0.013268737         3983 
 4531000   0.53191045   -7.7049946    802.16117  0.014753203  0.013264047         3987 
 4532000   0.53490001   -7.7122066    802.47722  0.014755759  0.013259353         3989 
 4533000   0.51857731   -7.7336209    803.21969  0.014766154  0.013254666         3991 
 4534000   0.53282456   -7.7130534    803.15455    0.0147617  0.013249979         3986 
 4535000   0.51961917   -7.7313855     802.2729  0.014742244  0.013245292         3987 
 4536000   0.51997589   -7.7141484    803.50388  0.014761609  0.013240608         3990 
 4537000   0.52569339   -7.7186346    803.29684  0.014754552  0.013235928         3985 
 4538000   0.52620062   -7.7281808    802.45418  0.014735827  0.013231252         3981 
 4539000    0.5181938    -7.739193    802.90579  0.014740872  0.013226577         3985 
 4540000   0.52292389   -7.7247275    803.55535  0.014749548  0.013221902         3991 
 4541000   0.52383338   -7.7155612    802.08078  0.014719239  0.013217228         3987 
 4542000   0.52452003   -7.7228567    802.68385  0.014727063  0.013212558         3981 
 4543000   0.53653102   -7.7380495    803.63076  0.014741191  0.013207886         3989 
 4544000   0.53063338   -7.7189662     801.6789  0.014702151  0.013203219         3987 
 4545000   0.52470416   -7.7356613    802.23382  0.014709091  0.013198554         3985 
 4546000   0.52323365   -7.7263386    803.03808  0.014720598  0.013193892         3987 
 4547000   0.52191183    -7.715897    802.41493   0.01470594  0.013189231         3988 
 4548000   0.53393104   -7.7298776    803.34243  0.014719702  0.013184572         3982 
 4549000   0.52424262   -7.7186659    802.41919  0.014699553  0.013179915         3985 
 4550000   0.53354469   -7.7104074     803.0195  0.014707317  0.013175263         3986 
 4551000   0.52028228    -7.724798    802.44274  0.014693524  0.013170611         3991 
 4552000   0.53452808   -7.7182566    803.00973  0.014700676  0.013165964         3991 
 4553000   0.51730784   -7.7292979    803.10953  0.014699274  0.013161318         3990 
 4554000    0.5255053    -7.712481    802.78647  0.014690134  0.013156675         3983 
 4555000   0.52987925   -7.7276508    802.75915   0.01468641  0.013152034         3986 
 4556000   0.52353785   -7.7260839    802.15363  0.014672111   0.01314739         3981 
 4557000    0.5148076   -7.7265872    802.70205   0.01467892  0.013142752         3982 
 4558000   0.52576102   -7.7121987    802.14872  0.014665583  0.013138115         3983 
 4559000   0.52256167   -7.7227313    801.78002  0.014655627  0.013133482         3984 
 4560000   0.52176313   -7.7339039    802.66561  0.014668597  0.013128849         3988 
 4561000   0.53735918   -7.7157756    802.60028  0.014664187   0.01312422         3972 
 4562000   0.51070311   -7.7283691     800.5699  0.014623884  0.013119592         3987 
 4563000   0.52191354   -7.7426835    802.71499  0.014659855  0.013114963         3989 
 4564000   0.52297935   -7.7447928    803.91073  0.014678475  0.013110337         3987 
 4565000   0.51934441   -7.7368068    802.30105  0.014645875  0.013105712         3983 
 4566000   0.52449707   -7.7124746    801.76288  0.014632846  0.013101094         3981 
 4567000   0.50987536   -7.7374074    801.88156  0.014631807  0.013096475         3992 
 4568000   0.52226067   -7.7474937    803.34584  0.014655317  0.013091855         3989 
 4569000   0.52548482   -7.7450442    801.56376  0.014619606  0.013087239         3987 
 4570000   0.52193552   -7.7425744    803.16586  0.014645621  0.013082626         3988 
 4571000   0.52442926   -7.7336942    802.87526  0.014637119  0.013078014         3985 
 4572000   0.53359764   -7.7363668    802.11393  0.014620041  0.013073407         3989 
 4573000   0.51873878    -7.734389    802.21392  0.014618666    0.0130688         3980 
 4574000    0.5087544   -7.7238378    802.06003  0.014612666  0.013064196         3989 
 4575000    0.5319343   -7.7337842    803.92484   0.01464344  0.013059596         3989 
 4576000   0.51531807   -7.7379528    802.82795  0.014620264  0.013054999         3981 
 4577000   0.52349351    -7.728049    802.66607  0.014614123  0.013050401         3989 
 4578000   0.51252658   -7.7245474    803.17526  0.014620199  0.013045805         3977 
 4579000   0.51573617   -7.7335843    801.68855   0.01458995  0.013041209         3988 
 4580000    0.5240758    -7.730155     801.9264  0.014591092  0.013036622         3986 
 4581000   0.52915797   -7.7115916    802.44102  0.014597268  0.013032035         3985 
 4582000   0.51560022   -7.7333319    802.39649  0.014593272  0.013027449         3984 
 4583000   0.51892902   -7.7336004    801.83145  0.014579814  0.013022864         3981 
 4584000   0.51208671   -7.7204017    801.43791  0.014569479   0.01301828         3981 
 4585000   0.51854843   -7.7440808     803.4181  0.014602292  0.013013695         3989 
 4586000     0.516347   -7.7544313    803.38758  0.014598553  0.013009119         3989 
 4587000   0.53388794   -7.7172646    801.43107  0.014559826  0.013004543         3984 
 4588000   0.51793325   -7.7310454    802.00949  0.014567159  0.012999969         3989 
 4589000    0.5175566   -7.7363036    801.30092  0.014551117  0.012995395         3988 
 4590000   0.52406656    -7.730055    801.87318  0.014558337  0.012990825         3986 
 4591000   0.51570892   -7.7561635    802.37906  0.014564348  0.012986257         3990 
 4592000   0.51074701   -7.7208403     803.1521  0.014575205  0.012981688         3989 
 4593000   0.52173457   -7.7099739    801.77766  0.014547095  0.012977121         3984 
 4594000    0.5234396   -7.7368931    802.40264  0.014555265   0.01297256         3989 
 4595000   0.51847124   -7.7174289    801.86851   0.01454241  0.012967999         3986 
 4596000   0.51561302    -7.751149    803.74162  0.014573209  0.012963442         3985 
 4597000    0.5178461   -7.7509941     802.1304  0.014540831  0.012958888         3983 
 4598000   0.51528533   -7.7228227    802.60404  0.014546253  0.012954337         3986 
 4599000   0.50977913   -7.7414869    802.65222  0.014543963  0.012949787         3984 
 4600000   0.51759119   -7.7436029    802.09653  0.014530734  0.012945234         3984 
 4601000   0.51864681   -7.7396275    802.86525  0.014541499  0.012940688         3985 
 4602000   0.52202857    -7.726254    802.20729  0.014526425  0.012936141         3986 
 4603000   0.49881219   -7.7219108    801.87398  0.014517235  0.012931596         3988 
 4604000   0.52561408   -7.7441742    802.86372  0.014531996  0.012927055         3984 
 4605000   0.50935835   -7.7361094    801.50946  0.014504333  0.012922513         3985 
 4606000   0.51565289   -7.7348839    802.47882  0.014518722  0.012917974         3989 
 4607000   0.52193165   -7.7420971    801.29337  0.014494128  0.012913441         3985 
 4608000   0.52635469   -7.7320273     803.0226  0.014522255  0.012908913         3981 
 4609000   0.51143844   -7.7445093    801.47223  0.014491072  0.012904381         3987 
 4610000   0.51040828   -7.7601262    801.43067  0.014487178   0.01289985         3981 
 4611000   0.51589022   -7.7398445    801.99056  0.014494155  0.012895322         3982 
 4612000   0.49599769    -7.757539    801.99901  0.014491165  0.012890793         3980 
 4613000   0.51770385   -7.7475909    802.20584  0.014491759  0.012886268         3987 
 4614000    0.5079908   -7.7322844    801.54095   0.01447661  0.012881746         3981 
 4615000   0.52259244    -7.744763    802.55453  0.014491775  0.012877225         3982 
 4616000   0.51850468   -7.7234243    801.73884   0.01447391   0.01287271         3987 
 4617000   0.51665078   -7.7304102    801.25776  0.014462092  0.012868196         3990 
 4618000   0.51949145    -7.750017    801.26849  0.014459154  0.012863683         3985 
 4619000   0.51333078   -7.7522755    801.80213  0.014465651  0.012859172         3990 
 4620000   0.51808711   -7.7496045    802.24888  0.014470579  0.012854665         3984 
 4621000   0.51513989     -7.74035    801.21564  0.014448814  0.012850159         3987 
 4622000    0.5088954   -7.7495298    802.02496   0.01446028  0.012845651         3983 
 4623000   0.51897279   -7.7420465    801.29963  0.014444077  0.012841149         3983 
 4624000   0.52164236    -7.760349    801.39043   0.01444259  0.012836647         3991 
 4625000   0.51299171    -7.745851    801.27945  0.014437468  0.012832147         3987 
 4626000   0.51929553    -7.740614    802.16537  0.014450306   0.01282765         3986 
 4627000   0.50003973   -7.7338279    801.49831  0.014435169  0.012823157         3987 
 4628000   0.50505329   -7.7469803    802.49387  0.014449976  0.012818661         3990 
 4629000   0.50753453   -7.7365591    802.53993  0.014447684  0.012814167         3984 
 4630000   0.50807282   -7.7276126    802.30331  0.014440304  0.012809677         3990 
 4631000   0.51775296   -7.7537302      800.954  0.014412906  0.012805191         3985 
 4632000   0.50842209   -7.7461508    801.63606  0.014422065  0.012800707         3991 
 4633000   0.51000796   -7.7371272    800.79779  0.014403874  0.012796225         3984 
 4634000   0.50916341   -7.7386778    801.24516  0.014408811  0.012791744         3981 
 4635000   0.51269669   -7.7377961    802.00291  0.014419326  0.012787266         3986 
 4636000   0.51260978   -7.7364719    802.41241  0.014423577  0.012782787         3983 
 4637000   0.50738758    -7.739539    802.33582   0.01441909  0.012778309         3985 
 4638000   0.51136376   -7.7526541      800.798   0.01438835  0.012773834         3988 
 4639000   0.51627602      -7.7605    800.74405  0.014384279   0.01276936         3987 
 4640000   0.50653721   -7.7416792    801.72981  0.014398883  0.012764891         3991 
 4641000   0.50308251   -7.7495399    803.05026   0.01441949  0.012760423         3982 
 4642000   0.49518085   -7.7607507    802.54301  0.014407278  0.012755958         3986 
 4643000   0.50602436   -7.7428966    801.70794  0.014389187  0.012751493         3990 
 4644000    0.5248118   -7.7726782    803.09157  0.014410917  0.012747033         3982 
 4645000   0.51186735   -7.7409597    801.94073  0.014387168  0.012742574         3982 
 4646000    0.5082311   -7.7523551    801.41894  0.014374712  0.012738121         3985 
 4647000   0.50154787   -7.7522177    801.96639  0.014381436  0.012733667         3986 
 4648000   0.50184781    -7.747974    800.24423  0.014347465  0.012729215         3986 
 4649000   0.51285716   -7.7558652     802.5543  0.014385787  0.012724765         3991 
 4650000   0.50016282   -7.7549265    801.81688  0.014369478  0.012720315         3975 
 4651000   0.50523884   -7.7672036    801.36448  0.014358283  0.012715868         3987 
 4652000   0.50529711   -7.7524111    801.90716  0.014364918  0.012711421         3983 
 4653000   0.48165156   -7.7373118    801.37951   0.01435238  0.012706977         3983 
 4654000   0.49887608   -7.7453375     801.8189  0.014357164  0.012702534         3981 
 4655000   0.49567601     -7.75095    803.47261  0.014383684  0.012698094         3986 
 4656000   0.49466989   -7.7350911    800.75476  0.014331951  0.012693656         3989 
 4657000   0.51428198   -7.7491339    800.82869  0.014330196  0.012689223         3980 
 4658000    0.5102451   -7.7523046    803.75905  0.014379545  0.012684794         3985 
 4659000   0.51061172   -7.7441463    801.94493   0.01434401  0.012680364         3982 
 4660000   0.51224034   -7.7284722    800.18227  0.014309411  0.012675936         3983 
 4661000   0.50097229   -7.7552638    801.24194  0.014325287   0.01267151         3986 
 4662000   0.50871987   -7.7440174    802.06715  0.014336965  0.012667084         3989 
 4663000   0.51261347   -7.7453806    801.45036  0.014322867  0.012662663         3982 
 4664000   0.50481925   -7.7400685    801.76522  0.014325422  0.012658241         3991 
 4665000   0.49823644   -7.7432027    801.43654   0.01431648  0.012653825         3985 
 4666000   0.50312614    -7.750794    801.12941  0.014307926  0.012649407         3990 
 4667000   0.50848817   -7.7565442     801.6159  0.014313547  0.012644993         3992 
 4668000    0.5024656   -7.7415288    801.61768  0.014310513  0.012640579         3988 
 4669000   0.51184951   -7.7499273    802.92849  0.014330843   0.01263617         3980 
 4670000   0.49437927   -7.7453496    801.22556  0.014297387  0.012631759         3987 
 4671000   0.50796494   -7.7600409    800.44965  0.014280483  0.012627353         3991 
 4672000   0.50025964   -7.7696348    801.74091  0.014300459  0.012622947         3986 
 4673000   0.50068328   -7.7499507    800.74492  0.014279637  0.012618542         3991 
 4674000   0.50191842   -7.7399213    800.95502  0.014280328   0.01261414         3990 
 4675000   0.49567658   -7.7504838    801.28589  0.014283171   0.01260974         3987 
 4676000   0.49965791   -7.7592257    802.27602  0.014297762  0.012605344         3985 
 4677000   0.51002479   -7.7649645    800.88779   0.01426997  0.012600947         3990 
 4678000   0.51050657   -7.7531342    801.40879    0.0142762  0.012596553         3986 
 4679000    0.4971187    -7.769992    800.48042  0.014256615   0.01259216         3982 
 4680000   0.50309806   -7.7406028    801.42352  0.014270362  0.012587768         3981 
 4681000   0.49171896   -7.7646681    801.79443  0.014273916  0.012583379         3984 
 4682000   0.50121569   -7.7648867    802.02573  0.014274985  0.012578993         3986 
 4683000   0.50347171    -7.752585    800.97801  0.014253292  0.012574612         3985 
 4684000   0.49571239   -7.7589108    801.87202  0.014266155  0.012570232         3983 
 4685000   0.49340842   -7.7418564    801.37204  0.014254216  0.012565853         3984 
 4686000   0.49925812   -7.7539775    801.63625  0.014255873  0.012561475         3980 
 4687000   0.50553921   -7.7407327    803.37885  0.014283814    0.0125571         3988 
 4688000   0.49503544    -7.748632    801.07692  0.014239849  0.012552726         3993 
 4689000   0.49190634   -7.7549601    801.59085  0.014245945  0.012548354         3987 
 4690000   0.50515683   -7.7469461    802.39345  0.014257169  0.012543985         3986 
 4691000   0.49464584   -7.7488219    801.56075  0.014239337  0.012539619         3989 
 4692000   0.50064646   -7.7647419    801.02735  0.014226828  0.012535255         3991 
 4693000   0.50275099   -7.7727095    801.90758  0.014239427  0.012530892         3989 
 4694000   0.50261128   -7.7693399    801.95389  0.014237216  0.012526529         3988 
 4695000   0.50121561   -7.7567047    800.33733   0.01420549  0.012522165         3984 
 4696000   0.50755755    -7.752025     801.0367  0.014214876  0.012517806         3978 
 4697000   0.49593778   -7.7536072    800.98917  0.014211007   0.01251345         3984 
 4698000   0.49576856    -7.759422    800.84037  0.014205342  0.012509097         3981 
 4699000   0.51718134   -7.7524484    802.68309  0.014234998  0.012504745         3979 
 4700000   0.49300543   -7.7619703    802.36323  0.014226298  0.012500397         3983 
 4701000   0.49830633   -7.7539434    800.81725  0.014195867  0.012496046         3979 
 4702000   0.50803695   -7.7568037    802.33925  0.014219822  0.012491701         3987 
 4703000    0.5014715   -7.7545732    802.40281  0.014217925  0.012487357         3988 
 4704000   0.49818435   -7.7724008    801.12508  0.014192267  0.012483016         3990 
 4705000    0.5031756   -7.7564254    801.22474  0.014191016  0.012478675         3985 
 4706000   0.49267381   -7.7464901    802.78571  0.014215642  0.012474338         3986 
 4707000   0.50981538   -7.7621978    802.42275  0.014206196  0.012470002         3988 
 4708000   0.49730978   -7.7572734    800.00118  0.014160315  0.012465668         3988 
 4709000   0.49938477   -7.7572488    801.90428  0.014190987  0.012461336         3973 
 4710000   0.49141456   -7.7574541    801.07794  0.014173353  0.012457006         3983 
 4711000   0.50600711   -7.7687306    801.26834  0.014173713  0.012452677         3983 
 4712000   0.51155414   -7.7590076    800.16164  0.014151133  0.012448347         3987 
 4713000   0.49405601    -7.762597    801.87377  0.014178403  0.012444021         3988 
 4714000   0.49509029    -7.751335    800.54206  0.014151854  0.012439696         3978 
 4715000   0.49517504   -7.7650614    801.90351  0.014172915  0.012435375         3987 
 4716000   0.50234649   -7.7571751    801.16459  0.014156852  0.012431054         3982 
 4717000    0.5007761   -7.7503762    801.15407  0.014153665  0.012426738         3978 
 4718000   0.49840391   -7.7496827    800.97023  0.014147418  0.012422424         3983 
 4719000   0.49332441   -7.7547716    800.93301  0.014143763  0.012418108         3982 
 4720000   0.48494242   -7.7564939    801.63382  0.014153139    0.0124138         3987 
 4721000   0.49218328   -7.7841775    801.53445  0.014148388  0.012409491         3978 
 4722000   0.49510992    -7.754344    800.41552  0.014125644  0.012405183         3987 
 4723000   0.49639273   -7.7851083    800.98136  0.014132637  0.012400876         3992 
 4724000   0.50244559   -7.7624981    801.24849  0.014134358  0.012396572         3989 
 4725000   0.48898774   -7.7600511    800.80574  0.014123558  0.012392272         3987 
 4726000   0.50314721   -7.7640076    800.94471   0.01412302  0.012387975         3986 
 4727000   0.50375647   -7.7624319    801.71119  0.014133545  0.012383676         3989 
 4728000   0.49512945   -7.7439561    800.35076  0.014106577  0.012379381         3987 
 4729000   0.50099185   -7.7674967    801.27558  0.014119891  0.012375086         3988 
 4730000     0.508279   -7.7523809    800.57676  0.014104594  0.012370797         3982 
 4731000   0.50034524   -7.7762187    800.93725  0.014107963  0.012366509         3983 
 4732000   0.50611434   -7.7671617    800.33315  0.014094343   0.01236222         3992 
 4733000   0.49519147   -7.7555593    800.00778  0.014085636  0.012357934         3991 
 4734000   0.48877466   -7.7715134    800.49809  0.014091292  0.012353648         3983 
 4735000   0.49346642   -7.7613597    801.76983  0.014110697  0.012349366         3989 
 4736000   0.49256804   -7.7600135    801.69278  0.014106362  0.012345084         3982 
 4737000   0.48959046   -7.7564161     800.5606  0.014083467  0.012340803         3984 
 4738000   0.49256282   -7.7726704    801.54956  0.014097889  0.012336526         3989 
 4739000   0.48858619   -7.7650961    800.91961  0.014083836  0.012332255         3989 
 4740000   0.49132887   -7.7833847    801.67592  0.014094162  0.012327986         3988 
 4741000    0.4912824   -7.7706963    800.63168  0.014072834  0.012323714         3980 
 4742000   0.48604568   -7.7684585    802.03019  0.014094443  0.012319448         3991 
 4743000   0.49663028    -7.768617    802.29819   0.01409618  0.012315179         3987 
 4744000    0.4982095   -7.7568276    801.84746  0.014085291  0.012310914         3985 
 4745000   0.48866129   -7.7514766    801.29231  0.014072573  0.012306653         3977 
 4746000   0.49490168   -7.7707715    801.52585  0.014073709  0.012302391         3985 
 4747000   0.49258298   -7.7713319    800.81541  0.014058272  0.012298133         3983 
 4748000   0.48137065    -7.776759    800.78804  0.014054831  0.012293877         3986 
 4749000   0.49055045   -7.7609599     800.8956  0.014053759  0.012289621         3985 
 4750000    0.4811938   -7.7657466    800.97621  0.014052214   0.01228537         3983 
 4751000   0.48072809   -7.7713558    801.67856  0.014061576  0.012281117         3985 
 4752000   0.48198529   -7.7649505    800.41655  0.014036485  0.012276868         3990 
 4753000   0.48991649   -7.7656191    800.87442   0.01404156  0.012272622         3987 
 4754000   0.48744425   -7.7574234    801.23382  0.014044906  0.012268375         3983 
 4755000    0.4882391   -7.7674156    800.02909  0.014020839  0.012264131         3986 
 4756000   0.48959884   -7.7763958    801.88838  0.014050469  0.012259888         3983 
 4757000   0.49142748   -7.7691651    801.70868  0.014044368  0.012255647         3984 
 4758000   0.49818401   -7.7631119    800.35459    0.0140177  0.012251408         3990 
 4759000   0.48559189   -7.7711688    801.92924  0.014042327   0.01224717         3986 
 4760000   0.49969052   -7.7731038    799.81974  0.014002446  0.012242934         3991 
 4761000   0.48515851   -7.7619941     800.9844  0.014019891  0.012238699         3982 
 4762000    0.4897257   -7.7469745     801.0666  0.014018385  0.012234468         3982 
 4763000   0.47451762   -7.7887503    800.35064  0.014002916  0.012230242         3990 
 4764000   0.50799497   -7.7641751    800.43035   0.01400137  0.012226013         3983 
 4765000   0.48175593   -7.7763893    801.10604  0.014010249  0.012221787         3984 
 4766000   0.49672261   -7.7796515    800.85889  0.014002988  0.012217562         3978 
 4767000   0.48582206   -7.7747285     800.6201  0.013995876  0.012213338         3975 
 4768000   0.48390279   -7.7606792     800.2324  0.013986165  0.012209119         3988 
 4769000   0.49651426   -7.7690633    800.98961  0.013996463  0.012204902         3991 
 4770000   0.49045679   -7.7730249    800.59336  0.013986607  0.012200688         3989 
 4771000   0.49197162    -7.771804    800.98713  0.013990553  0.012196473         3988 
 4772000   0.48268898   -7.7839688    800.56972  0.013980332  0.012192259         3979 
 4773000   0.49130283   -7.7691001    800.20319  0.013971003  0.012188048         3978 
 4774000   0.49056407   -7.7833859    799.87455   0.01396234  0.012183838         3985 
 4775000   0.47827653   -7.7631759    801.05054   0.01397994   0.01217963         3988 
 4776000   0.49692299   -7.7754906    800.89143  0.013974236  0.012175428         3986 
 4777000   0.48453013   -7.7710579    801.51394   0.01398217  0.012171226         3985 
 4778000   0.48487675   -7.7725914    801.26101  0.013974833  0.012167024         3991 
 4779000   0.49815016    -7.775559    800.63299  0.013960958  0.012162826         3989 
 4780000   0.48283302   -7.7728301    801.02273  0.013964831   0.01215863         3982 
 4781000   0.48119057   -7.7792985    800.95425  0.013960717  0.012154434         3990 
 4782000   0.48987838    -7.766446    801.06766  0.013959774   0.01215024         3981 
 4783000    0.4838979   -7.7778845    800.53015   0.01394749  0.012146047         3988 
 4784000   0.48834816   -7.7632073    801.32528  0.013958425  0.012141858         3986 
 4785000   0.49438949   -7.7810762    801.53229  0.013959113  0.012137671         3985 
 4786000   0.47346599   -7.7738517    800.46909  0.013937684  0.012133485         3993 
 4787000   0.47445599   -7.7861966    800.63872  0.013937726  0.012129303         3983 
 4788000   0.49130934   -7.7682343     800.6028   0.01393419  0.012125122         3980 
 4789000   0.48012381   -7.7771563    800.56557  0.013930632   0.01212094         3986 
 4790000   0.47392014   -7.7906556    800.99948  0.013935273  0.012116761         3991 
 4791000    0.4919911   -7.7801213    800.33166  0.013920748  0.012112583         3984 
 4792000   0.47524211    -7.776296    799.46452  0.013902764  0.012108407         3985 
 4793000   0.47554845   -7.7789153    801.15989   0.01392934  0.012104233         3986 
 4794000   0.47565084   -7.7669483    799.13636  0.013891259   0.01210006         3982 
 4795000   0.48040187   -7.7781405    799.33846  0.013891875   0.01209589         3983 
 4796000   0.47909347   -7.7736191    801.34147  0.013923781  0.012091722         3984 
 4797000   0.48244227   -7.7846243    800.82247  0.013911863  0.012087557         3984 
 4798000   0.49549989   -7.7960993    799.84413  0.013891971  0.012083393         3983 
 4799000   0.48565305   -7.7686148     799.2372  0.013878537  0.012079231         3989 
 4800000   0.48125164   -7.7704382    801.20317  0.013909777  0.012075074         3989 
 4801000   0.48301482   -7.7785694     800.0412  0.013886711  0.012070915         3981 
 4802000   0.48379678   -7.7745335    799.71862  0.013878221  0.012066759         3988 
 4803000    0.4756141   -7.7791145    800.99287   0.01389744  0.012062604         3984 
 4804000   0.47609764   -7.7862598    800.06574  0.013878465  0.012058451         3988 
 4805000   0.47817447   -7.7781894    800.26348  0.013879006  0.012054299         3991 
 4806000   0.48368346   -7.7784334    798.43291  0.013844377   0.01205015         3984 
 4807000   0.48649931   -7.7799072    800.68746  0.013880581  0.012046004         3980 
 4808000   0.48176216   -7.7843685    800.52338  0.013874851  0.012041861         3984 
 4809000    0.4800071   -7.7821062     800.8859  0.013878247  0.012037723         3982 
 4810000   0.48431049   -7.7630412    801.32902  0.013883039   0.01203358         3983 
 4811000   0.48479411   -7.7893103    799.53936  0.013849154   0.01202944         3982 
 4812000   0.47860851   -7.7847859     800.9647   0.01387096  0.012025299         3978 
 4813000   0.49147501   -7.7740807    800.83088  0.013865761  0.012021166         3974 
 4814000   0.47464426   -7.7793433    801.13641  0.013868169  0.012017035         3988 
 4815000   0.48910105    -7.791955    800.42726  0.013853016  0.012012905         3984 
 4816000   0.47680017   -7.7910912    800.84926  0.013857441  0.012008777         3987 
 4817000   0.47679225   -7.7945882    800.39883  0.013846772  0.012004652         3984 
 4818000   0.48701592   -7.7658797    800.00366  0.013837063  0.012000526         3984 
 4819000   0.47300101   -7.7935771    801.39449  0.013858243  0.011996401         3986 
 4820000   0.47722501   -7.7759653    800.79887   0.01384507   0.01199228         3987 
 4821000   0.48395863   -7.7726108    799.85111  0.013825816   0.01198816         3984 
 4822000   0.48735181   -7.7826855    800.30929  0.013830867  0.011984039         3989 
 4823000   0.48574746   -7.7860738    800.35501  0.013828789  0.011979921         3986 
 4824000   0.48437904   -7.7702858    800.04484  0.013820565  0.011975805         3984 
 4825000    0.4829961   -7.7658802    800.67709   0.01382862  0.011971693         3985 
 4826000   0.47012365   -7.7735543    800.96865  0.013830789  0.011967581         3994 
 4827000   0.47591619   -7.7735821    799.74083  0.013806727  0.011963471         3987 
 4828000   0.47884942   -7.7858658    801.51459  0.013834483  0.011959362         3986 
 4829000   0.47286835    -7.787226    800.27971  0.013810308  0.011955256         3987 
 4830000   0.47577587   -7.7903506    799.74502  0.013798223  0.011951151         3986 
 4831000   0.48000969   -7.7882955     800.0828  0.013801194  0.011947048         3990 
 4832000   0.47277184   -7.7838026    799.74639  0.013792536   0.01194295         3985 
 4833000   0.48480748    -7.784935    799.13529  0.013779145  0.011938852         3985 
 4834000   0.47273878   -7.7878326    800.22691  0.013795113  0.011934753         3984 
 4835000    0.4829507   -7.7898648    800.98963  0.013805406  0.011930658         3990 
 4836000   0.49001439   -7.7875462    800.09257  0.013787093  0.011926562         3989 
 4837000   0.48108291   -7.7911718    800.26234  0.013787167   0.01192247         3980 
 4838000   0.47570734   -7.7763999    800.63119  0.013790671  0.011918381         3989 
 4839000    0.4692987   -7.7690403    798.73769  0.013755213  0.011914294         3988 
 4840000   0.47776058   -7.7921459    800.46433  0.013782099  0.011910209         3984 
 4841000   0.47150802   -7.7763064    799.14927  0.013756615  0.011906127         3985 
 4842000   0.48074529   -7.7731338    799.41646  0.013758372  0.011902044         3991 
 4843000   0.47521281   -7.7797647    799.91173  0.013764053  0.011897965         3986 
 4844000   0.47524822    -7.792259    799.72112  0.013757933  0.011893887         3986 
 4845000   0.47460673   -7.7717428    799.79456  0.013756356  0.011889809         3983 
 4846000    0.4765729   -7.7919171    799.05114  0.013740734  0.011885736         3982 
 4847000   0.47562062   -7.7750993    799.91847   0.01375281  0.011881662         3991 
 4848000   0.48002557   -7.7761427    799.73391  0.013746801  0.011877591         3985 
 4849000   0.47723979   -7.7846452    800.48642  0.013756899  0.011873523         3990 
 4850000   0.49068485   -7.7874439    799.24863  0.013732794  0.011869455         3982 
 4851000   0.47141511   -7.7998109    800.52519  0.013751893   0.01186539         3980 
 4852000   0.48029256   -7.7901999    800.78393  0.013753502  0.011861327         3989 
 4853000   0.47901408   -7.7844755    799.60742  0.013730466  0.011857266         3988 
 4854000   0.47431009   -7.7786409    800.04964  0.013735229  0.011853204         3986 
 4855000   0.46928727   -7.7904014    798.61512  0.013707778  0.011849145         3978 
 4856000   0.46831614   -7.8067055    799.54003  0.013720827  0.011845087         3981 
 4857000   0.47218151   -7.8025476    800.76731  0.013739059   0.01184103         3977 
 4858000   0.47782554   -7.7797259    799.06376  0.013707008  0.011836976         3989 
 4859000   0.47125339   -7.7947052    799.50998   0.01371184  0.011832925         3987 
 4860000   0.47604445   -7.7691647    799.60666  0.013710677  0.011828878         3983 
 4861000   0.47877406   -7.8016515    800.19163  0.013717884  0.011824832         3981 
 4862000   0.46851014    -7.775504    800.28442  0.013716653  0.011820787         3989 
 4863000    0.4764232   -7.7798098       800.16  0.013711701  0.011816743         3982 
 4864000   0.47818304   -7.7953846    800.49833  0.013714678  0.011812697         3986 
 4865000   0.47616973   -7.7978974    799.79597  0.013699828  0.011808655         3984 
 4866000   0.46083048   -7.7908943    799.35428  0.013689449  0.011804617         3996 
 4867000    0.4738693   -7.7845625    798.84201  0.013677865   0.01180058         3983 
 4868000   0.47111217   -7.8018214     800.9013  0.013710307  0.011796546         3985 
 4869000   0.46724622   -7.7823948    800.37514  0.013698486  0.011792512         3984 
 4870000   0.47127505   -7.7665192    800.41631  0.013696378   0.01178848         3986 
 4871000   0.47333375   -7.7864298     800.2531  0.013690774  0.011784452         3984 
 4872000   0.47856749   -7.7835382    799.83472  0.013680807  0.011780426         3984 
 4873000   0.47473183   -7.7962252    800.42967  0.013688174  0.011776401         3984 
 4874000    0.4728644   -7.7974023    799.81665  0.013674885  0.011772376         3983 
 4875000   0.46532347   -7.7919658    799.35353  0.013664163  0.011768353         3987 
 4876000   0.45892836   -7.8028634    800.56956  0.013682143  0.011764333         3984 
 4877000   0.47084236   -7.7955947    800.52344   0.01367855  0.011760312         3986 
 4878000   0.47180085   -7.7806063    800.15662  0.013669479  0.011756296         3981 
 4879000   0.47449812   -7.7889761    799.44114  0.013654457   0.01175228         3985 
 4880000   0.46578715   -7.7844615    800.21887   0.01366494  0.011748266         3985 
 4881000   0.46540456   -7.7817299    799.75895  0.013654288  0.011744254         3990 
 4882000   0.48258281   -7.7996862    800.31579  0.013660996  0.011740244         3981 
 4883000   0.47549615   -7.7828585    799.96904  0.013652281  0.011736238         3987 
 4884000   0.46326867   -7.7879024     799.0325  0.013633506  0.011732233         3987 
 4885000    0.4747623   -7.7811442     799.3416  0.013635988  0.011728228         3984 
 4886000   0.46925156   -7.7996618    799.53922  0.013636567  0.011724223         3987 
 4887000   0.47110479   -7.8012764    800.08513  0.013643086  0.011720223         3987 
 4888000     0.473487    -7.779961    799.73864  0.013634388  0.011716223         3992 
 4889000   0.46513331   -7.8010412     799.2615  0.013623466  0.011712226         3989 
 4890000   0.47348812   -7.8008892    798.84901   0.01361365   0.01170823         3980 
 4891000   0.47405024   -7.7888794    799.86543  0.013628185  0.011704236         3981 
 4892000   0.47929674   -7.7933109    798.92767  0.013609425  0.011700242         3984 
 4893000   0.47984614   -7.7917598    800.33813  0.013630665  0.011696251         3984 
 4894000   0.46102131   -7.7981894    799.29569   0.01361013  0.011692263         3988 
 4895000   0.46608952   -7.8059987    799.88138   0.01361732  0.011688277         3982 
 4896000   0.47486042    -7.800106    800.13669  0.013618884  0.011684292         3985 
 4897000   0.46162689   -7.7955071    800.20315  0.013617234  0.011680306         3984 
 4898000   0.46819921   -7.7931929    800.08883  0.013612509  0.011676325         3984 
 4899000   0.47533805   -7.7952344    798.84291  0.013588537  0.011672347         3982 
 4900000   0.46742715   -7.8153324    799.43552  0.013595842  0.011668369         3987 
 4901000   0.46817638   -7.8016749    799.36678  0.013591899  0.011664391         3987 
 4902000   0.46466739   -7.7920921    799.34442  0.013588746  0.011660415         3989 
 4903000   0.46775147   -7.7992438    799.40478  0.013587001  0.011656443         3984 
 4904000   0.47146791   -7.7926091    799.78847   0.01359075  0.011652472         3981 
 4905000   0.47196789   -7.8015396    800.20217  0.013595008  0.011648504         3982 
 4906000   0.47047903   -7.8063835    799.21482  0.013575466  0.011644534         3979 
 4907000   0.46111659   -7.8011965    798.94624  0.013568138  0.011640568         3984 
 4908000   0.46912467   -7.8064137    799.10701  0.013568103  0.011636604         3987 
 4909000   0.44895134   -7.7773702    799.29222  0.013568483   0.01163264         3980 
 4910000   0.45470122   -7.7983644    799.78471  0.013574079  0.011628681         3987 
 4911000   0.45839243   -7.8025508    799.21385  0.013561628  0.011624721         3992 
 4912000   0.45597283   -7.7912837    798.72156  0.013550515  0.011620765         3987 
 4913000   0.46213659   -7.8080674    799.48838  0.013560764  0.011616809         3988 
 4914000     0.472813   -7.7944006    799.79397  0.013563186  0.011612856         3986 
 4915000   0.46310106   -7.8044776    798.26664  0.013534531  0.011608902         3991 
 4916000   0.46251262   -7.8128588    799.13585  0.013546512  0.011604951         3987 
 4917000   0.44769009   -7.8055657    799.63497  0.013552216  0.011601003         3987 
 4918000   0.46000087   -7.8052348     799.4139  0.013545715  0.011597056         3978 
 4919000   0.45633621   -7.7940471    799.01118  0.013536138   0.01159311         3984 
 4920000   0.46032982   -7.8083634    799.00635  0.013533305  0.011589169         3982 
 4921000   0.46856915   -7.8036694     798.4799   0.01352164  0.011585228         3987 
 4922000   0.46180214   -7.8163848    799.25868  0.013532078  0.011581288         3991 
 4923000   0.46856529   -7.8068869    799.55281  0.013534309  0.011577349         3988 
 4924000   0.45784659   -7.7826261    800.15442  0.013541741  0.011573413         3988 
 4925000   0.45138008   -7.8172077    800.60285   0.01354658   0.01156948         3989 
 4926000   0.45968996   -7.8061108    799.30681  0.013521904  0.011565547         3986 
 4927000   0.45807084   -7.8011691    799.72819  0.013526287  0.011561614         3989 
 4928000    0.4590081   -7.8049394    799.13542  0.013513518  0.011557684         3983 
 4929000   0.46572371   -7.8006254    799.19826  0.013511839  0.011553758         3985 
 4930000   0.47339778   -7.7976741    799.48037  0.013513867  0.011549833         3982 
 4931000    0.4726624   -7.8066022    800.45289  0.013527562   0.01154591         3989 
 4932000   0.46068192    -7.813975    800.26984  0.013521726  0.011541989         3985 
 4933000   0.45976804    -7.798896    799.12705   0.01349968  0.011538068         3981 
 4934000   0.46340541   -7.8266207     799.4194  0.013501882   0.01153415         3991 
 4935000   0.46030759   -7.7969612    799.23147  0.013495972  0.011530234         3983 
 4936000   0.46060368   -7.8051632    798.57954  0.013482232  0.011526318         3985 
 4937000   0.46544528   -7.8119694    800.04402   0.01350422  0.011522404         3987 
 4938000   0.45376306   -7.7996986    800.07253  0.013501966  0.011518495         3988 
 4939000   0.45559157   -7.7859566    798.53883  0.013473356  0.011514582         3984 
 4940000   0.45646707   -7.8076118    799.39903  0.013485139  0.011510676         3980 
 4941000   0.46498478   -7.7978491    797.93151  0.013457659  0.011506769         3980 
 4942000   0.46024872   -7.8068083    799.56208  0.013482431  0.011502866         3987 
 4943000   0.46561265   -7.8057268     799.9266  0.013485849  0.011498963         3988 
 4944000   0.47219106   -7.8029022    799.09817  0.013469157  0.011495061         3986 
 4945000   0.45707306   -7.7977956    799.46267  0.013472576  0.011491162         3988 
 4946000   0.45945735   -7.7998482    799.22585  0.013465862  0.011487265         3986 
 4947000   0.46021083     -7.80152    799.02389  0.013459738  0.011483369         3987 
 4948000   0.46661602   -7.8076298    798.86913  0.013454411  0.011479474         3986 
 4949000   0.45283051   -7.8082934    798.08464  0.013438483  0.011475582         3981 
 4950000   0.46221034   -7.8147639     798.5321  0.013443301  0.011471692         3986 
 4951000   0.45919495   -7.8276374    799.64002  0.013459234  0.011467802         3982 
 4952000   0.45733429   -7.8128497     798.3222   0.01343434  0.011463915         3986 
 4953000   0.46782815   -7.8131973    799.07387  0.013444274  0.011460029         3990 
 4954000   0.45986017   -7.8117207    799.88633  0.013455227  0.011456146         3986 
 4955000    0.4553859   -7.8239073    798.86007  0.013435252  0.011452265         3991 
 4956000     0.455179   -7.8150758    799.53629  0.013443911  0.011448386         3983 
 4957000   0.46798699   -7.8109481    798.51754  0.013424073   0.01144451         3986 
 4958000   0.44766479   -7.8146281    799.02076  0.013429823  0.011440631         3987 
 4959000   0.45425273   -7.8142512    799.25665  0.013431079  0.011436756         3986 
 4960000   0.45646675   -7.8075744    797.99797  0.013407224  0.011432882         3990 
 4961000   0.45921095   -7.8129537     797.9744  0.013404125  0.011429012         3987 
 4962000   0.44789067   -7.8135296    799.24047  0.013422687  0.011425141         3988 
 4963000   0.45042036   -7.8147191    798.68709  0.013410691  0.011421272         3984 
 4964000   0.45467887   -7.8084695     798.2051  0.013399898  0.011417405         3982 
 4965000   0.45954305    -7.811105    798.49817  0.013402118   0.01141354         3990 
 4966000   0.46961383   -7.7975392    798.77158  0.013404007  0.011409678         3978 
 4967000   0.45072853   -7.8018841    798.51262  0.013396964  0.011405818         3993 
 4968000   0.44867898   -7.8172184    798.83756  0.013399718   0.01140196         3985 
 4969000   0.45058298   -7.8095366     798.3672  0.013389133  0.011398102         3985 
 4970000   0.45044176   -7.8126053    799.02281  0.013397431  0.011394249         3989 
 4971000   0.45846858   -7.8205041    798.27739   0.01338224  0.011390394         3986 
 4972000    0.4483822   -7.8150115    799.05511  0.013392584  0.011386542         3982 
 4973000   0.44767326   -7.8208458     799.2246  0.013392731  0.011382692         3978 
 4974000   0.45968752   -7.8169082     798.4027  0.013376268  0.011378841         3990 
 4975000   0.45688854   -7.8046252    799.07495   0.01338484  0.011374993         3986 
 4976000    0.4668402   -7.8104698    799.28139  0.013385607  0.011371148         3986 
 4977000   0.45507418   -7.8052358    798.22253  0.013365189  0.011367303         3988 
 4978000   0.45736618   -7.8041042      798.606  0.013368923  0.011363461         3985 
 4979000   0.47000037   -7.8170549    799.98796  0.013389368  0.011359622         3987 
 4980000    0.4678156   -7.8148775    799.65255  0.013381067  0.011355785         3989 
 4981000    0.4533358   -7.8182445    798.98047  0.013367136  0.011351947         3989 
 4982000   0.44964844   -7.8209883    799.24378  0.013368858  0.011348112         3984 
 4983000    0.4622914   -7.8198524    798.39097  0.013351913  0.011344279         3983 
 4984000   0.44623122   -7.8207589    798.56554  0.013352153  0.011340448         3985 
 4985000   0.45097581   -7.8114664     799.1385  0.013359052  0.011336616         3984 
 4986000   0.44744379   -7.8166769    799.30448  0.013359147  0.011332787         3988 
 4987000   0.44117704   -7.8062647    798.72186  0.013346732  0.011328962         3990 
 4988000   0.45183785   -7.8309743    799.51844  0.013357365  0.011325138         3987 
 4989000   0.44748197   -7.8234886    799.54679  0.013355161  0.011321315         3991 
 4990000   0.45172077   -7.8077446     798.9821  0.013343055  0.011317495         3980 
 4991000   0.44287883   -7.8099846    797.04123  0.013307975  0.011313673         3988 
 4992000   0.45497333    -7.815314    799.90626  0.013353136  0.011309852         3981 
 4993000   0.44731554   -7.8159227    798.50465  0.013327069  0.011306037         3983 
 4994000   0.45687336   -7.8205382     798.0981  0.013317616  0.011302222         3986 
 4995000   0.44832758   -7.8136707    798.39368  0.013319881  0.011298409         3991 
 4996000   0.45245222   -7.8274075    797.90414   0.01330905  0.011294597         3985 
 4997000   0.45693019   -7.8147427    798.23877  0.013311967  0.011290786         3987 
 4998000   0.45096274   -7.8010291    798.72467  0.013317405  0.011286979         3990 
 4999000   0.45384991   -7.8081349    799.19024  0.013322502  0.011283173         3989 
 5000000   0.43594688   -7.8150142     796.4273  0.013273788  0.011279365         3982 
 5001000   0.44637218   -7.8208065    799.07607  0.013315271  0.011275561         3986 
 5002000    0.4489082   -7.8215143    798.94685  0.013310457  0.011271758         3980 
 5003000   0.44766863   -7.8221766    799.46181  0.013316374   0.01126796         3989 
 5004000    0.4540179   -7.8150604    799.13503  0.013308271   0.01126416         3982 
 5005000   0.44368046    -7.813106    798.46848  0.013294514  0.011260362         3980 
 5006000   0.44684732   -7.8122791    799.85191  0.013314887  0.011256567         3979 
 5007000   0.45704485    -7.810738    798.74607  0.013293823  0.011252772         3982 
 5008000   0.46168452   -7.8216617    798.88394  0.013293463  0.011248982         3984 
 5009000    0.4498611   -7.8168463    798.91352  0.013291301  0.011245192         3987 
 5010000   0.46205223   -7.8129032    799.13175  0.013292278  0.011241405         3987 
 5011000   0.45865757   -7.8284987    798.17795  0.013273764  0.011237621         3987 
 5012000   0.45322428   -7.8206328    797.78349  0.013264557  0.011233836         3986 
Loop time of 10601.5 on 48 procs for 5000000 steps with 4000 atoms

Performance: 81497.745 tau/day, 471.630 timesteps/s
99.4% CPU use with 48 MPI tasks x no OpenMP threads

MPI task timing breakdown:
Section |  min time  |  avg time  |  max time  |%varavg| %total
---------------------------------------------------------------
Pair    | 685.15     | 712.26     | 740.24     |  47.7 |  6.72
Neigh   | 66.166     | 67.289     | 68.801     |   6.0 |  0.63
Comm    | 555.68     | 584.31     | 617.87     |  54.1 |  5.51
Output  | 15.262     | 15.267     | 15.347     |   0.3 |  0.14
Modify  | 9078       | 9112.4     | 9149.1     |  19.6 | 85.95
Other   |            | 110        |            |       |  1.04

Nlocal:        83.3333 ave          89 max          78 min
Histogram: 5 3 2 3 11 8 7 5 3 1
Nghost:        1752.33 ave        1774 max        1734 min
Histogram: 3 4 6 5 11 5 4 4 3 3
Neighs:        10295.4 ave       11106 max        9535 min
Histogram: 4 4 0 8 9 7 10 2 2 2
FullNghs:      20590.8 ave       22187 max       18887 min
Histogram: 2 3 3 4 5 15 7 6 2 1

Total # of neighbors = 988359
Ave neighs/atom = 247.08975
Neighbor list builds = 269912
Dangerous builds = 0

#clear
#
#next RN
#
#jump SELF
Total wall time: 2:56:44
