
units lj                  # Use reduced LJ style units
atom_style atomic         # Uncharged point particles
atom_modify map hash      # Needed for indexing of clusters etc
                          # Used to be able to find where atoms are in relation to each other.

lattice fcc 1.0 spacing 1 1 1
Lattice spacing in x,y,z = 1.5874011 1.5874011 1.5874011
region box block 0 10 0 10 0 10 units lattice
create_box 2 box
Created orthogonal box = (0.0000000 0.0000000 0.0000000) to (15.874011 15.874011 15.874011)
  3 by 4 by 4 MPI processor grid
create_atoms 1 box
Created 4000 atoms
  using lattice units in orthogonal box = (0.0000000 0.0000000 0.0000000) to (15.874011 15.874011 15.874011)
  create_atoms CPU = 0.003 seconds
set type 1 type/fraction 2 0.16 78393
Setting atom values ...
  677 settings made for type/fraction
mass 1 1.0
mass 2 1.0
pair_style lj/cut  3.5
pair_modify tail  yes
pair_coeff 1  1  1.0  1.0   # Intearaction between 1 and 1 set with epsilon = 1 and sigma = 1
pair_coeff 1  2  1.5  0.8
pair_coeff 2  2  0.5  0.88

write_data data.0
System init for write_data ...
Neighbor list info ...
  update every 1 steps, delay 10 steps, check yes
  max neighbors/atom: 2000, page size: 100000
  master list distance cutoff = 3.8
  ghost atom cutoff = 3.8
  binsize = 1.9, bins = 9 9 9
  1 neighbor lists, perpetual/occasional/extra = 1 0 0
  (1) pair lj/cut, perpetual
      attributes: half, newton on
      pair build: half/bin/atomonly/newton
      stencil: half/bin/3d
      bin: standard
WARNING: Not all mixed pair coeffs generated from mixing. Use write_data with 'pair ij' option to store all pair coeffs. (../write_data.cpp:312)


#############################
#   M E L T   S Y S T E M   #
#############################

velocity all create 2.4 2750902 mom yes dist gaussian # Assign velocities
                                                    # Temperature 2.4, random number seed, zero linear momentum
                                                                                # Gaussian distribution

timestep 0.002   # simulation timestep
thermo 1000       # output thermodynamic data every 1000 steps bf 100

# Define a fix  in this case with index 1 applied to all
# particles in the simulation. This fix is for simulations
# in the anisotropic NPT ensemble. Note that we use the MTK
# correction.
fix 1 all npt temp 2.4 2.4 0.1 iso 5.68 5.68 0.5 mtk yes tchain 5 pchain 5 # Use NPT ensemble
                                                                         # Set temperature and pressure and damping
                                                                         # Numbers of thermostats in chain and in barostat
run 10000          # run for 10000 steps
Per MPI rank memory allocation (min/avg/max) = 3.642 | 3.644 | 3.648 Mbytes
Step Temp E_pair E_mol TotEng Press Volume 
       0          2.4   -7.2871769            0   -3.6880769   -3.4159639         4000 
    1000    2.4198031    -4.674264            0   -1.0454669    6.0114064    4619.9202 
    2000    2.4101732   -4.7118102            0   -1.0974542    5.8368854    4614.4306 
    3000    2.3767131   -4.7857564            0    -1.221578    5.5088781    4605.0953 
    4000    2.4136711   -4.7616501            0   -1.1420486    5.4079287    4634.8722 
    5000    2.3772598   -4.7655772            0   -1.2005789    5.5259074    4616.9915 
    6000    2.4167255   -4.7752392            0   -1.1510572    5.5966443    4604.4499 
    7000    2.3728468   -4.7322294            0   -1.1738491    5.8317805     4598.073 
    8000    2.3373967   -4.6962566            0   -1.1910381    5.9696273    4609.7698 
    9000    2.4444241   -4.7037032            0   -1.0379838    6.1148329     4590.279 
   10000    2.4203877   -4.7649645            0   -1.1352906    5.6012352    4618.7828 
Loop time of 2.28433 on 48 procs for 10000 steps with 4000 atoms

Performance: 756458.254 tau/day, 4377.652 timesteps/s
99.6% CPU use with 48 MPI tasks x no OpenMP threads

MPI task timing breakdown:
Section |  min time  |  avg time  |  max time  |%varavg| %total
---------------------------------------------------------------
Pair    | 0.94424    | 1.0102     | 1.1892     |   4.4 | 44.22
Neigh   | 0.19445    | 0.20316    | 0.23077    |   1.5 |  8.89
Comm    | 0.62245    | 0.81275    | 0.91737    |   6.4 | 35.58
Output  | 0.00023279 | 0.00023982 | 0.00030802 |   0.0 |  0.01
Modify  | 0.19368    | 0.24352    | 0.29985    |   5.8 | 10.66
Other   |            | 0.01442    |            |       |  0.63

Nlocal:        83.3333 ave          92 max          77 min
Histogram: 4 1 11 5 9 7 4 4 2 1
Nghost:        1494.94 ave        1512 max        1464 min
Histogram: 1 0 2 1 6 11 7 6 8 6
Neighs:        8246.73 ave        9107 max        7449 min
Histogram: 1 4 6 6 11 4 10 2 1 3

Total # of neighbors = 395843
Ave neighs/atom = 98.960750
Neighbor list builds = 908
Dangerous builds = 223

# Equilibrate just above the melting temperature to avoid step fn in T

fix 1 all npt temp 1.25 1.25 0.1 iso 5.68 5.68 0.5 mtk yes tchain 5 pchain 5
run 2000
Per MPI rank memory allocation (min/avg/max) = 3.642 | 3.644 | 3.648 Mbytes
Step Temp E_pair E_mol TotEng Press Volume 
   10000    2.4203877   -4.7649645            0   -1.1352906    5.6012352    4618.7828 
   11000    1.2749199    -6.443038            0   -4.5311362    5.7127382    3768.5021 
   12000    1.2596015   -6.4360931            0   -4.5471632    5.7944736    3759.4239 
Loop time of 0.482853 on 48 procs for 2000 steps with 4000 atoms

Performance: 715746.309 tau/day, 4142.050 timesteps/s
99.6% CPU use with 48 MPI tasks x no OpenMP threads

MPI task timing breakdown:
Section |  min time  |  avg time  |  max time  |%varavg| %total
---------------------------------------------------------------
Pair    | 0.21546    | 0.2345     | 0.25388    |   1.6 | 48.57
Neigh   | 0.031655   | 0.033483   | 0.035531   |   0.5 |  6.93
Comm    | 0.14079    | 0.16173    | 0.18814    |   2.5 | 33.49
Output  | 4.8059e-05 | 4.9258e-05 | 6.3325e-05 |   0.0 |  0.01
Modify  | 0.040011   | 0.048826   | 0.055402   |   2.2 | 10.11
Other   |            | 0.004266   |            |       |  0.88

Nlocal:        83.3333 ave          90 max          76 min
Histogram: 2 1 6 5 4 13 4 9 0 4
Nghost:        1717.38 ave        1741 max        1692 min
Histogram: 3 2 2 5 9 11 6 6 2 2
Neighs:        10145.8 ave       11425 max        8920 min
Histogram: 2 2 7 3 10 7 9 5 2 1

Total # of neighbors = 486996
Ave neighs/atom = 121.74900
Neighbor list builds = 142
Dangerous builds = 8

#############################
# L I N E A R  Q U E N C H  #
#############################

# Define solid atoms. This closely follows ten Wolde  Ruiz-Montero and Frenkel  Faraday Discuss  1996  104  93-110
# Compute components of the per-atom q6 vector
compute q6 all orientorder/atom degrees 1 6 components 6 nnn NULL cutoff 1.3 # compute the Q6 parameter.
                                                                             # Use all neighbours within 1.3 unit cell.

# get number of connections
compute coord_number all coord/atom orientorder q6 0.5

# An atom is solid if it has 8 or more connections (of a possible 14)
variable is_solid atom c_coord_number>=8
group solid dynamic all var is_solid    # Must be dynamic to update
dynamic group solid defined

# do clustering
compute cluster solid cluster/atom 1.3 # Create a cluster where all atoms within are solid and max 1.3 units from another member

# define chunks one chunk per cluster
compute clus_chunks solid chunk/atom c_cluster nchunk every compress yes  # Says which atoms are in which chunk

# count the size of each chunk
compute size_chunks solid property/chunk clus_chunks count


# Find the maximum entry in the vector of chunk sizes
variable max_n equal max(c_size_chunks)


# Thermo style which includes this variable
# thermo_style custom step temp pe vol v_max_n

thermo ${N}  # Print the thermo information every 100 steps
thermo 1000  

# Reset the npt fix at a lower temperature (below freezing)
fix 1  all npt temp  ${temp} ${temp}  0.1  iso  5.68  5.68  0.5  mtk yes tchain  5  pchain  5
fix 1  all npt temp  0.45 ${temp}  0.1  iso  5.68  5.68  0.5  mtk yes tchain  5  pchain  5
fix 1  all npt temp  0.45 0.45  0.1  iso  5.68  5.68  0.5  mtk yes tchain  5  pchain  5

dump dmp2 all dcd ${N} traj.dcd
dump dmp2 all dcd 1000 traj.dcd


compute msd all msd com yes
variable twopoint equal c_msd[4]/6/(step*dt+1.0e-6)
fix 9 all vector 10 c_msd[4]
variable fit equal slope(f_9)/6/(10*dt)
thermo_style custom step temp pe c_msd[4] v_twopoint v_fit v_max_n

fix 1 all npt temp 1.25 ${temp} 0.1 iso 5.68 5.68 0.5 mtk yes tchain 5 pchain 5
fix 1 all npt temp 1.25 0.45 0.1 iso 5.68 5.68 0.5 mtk yes tchain 5 pchain 5
run 5000000 # 5000000  # Run for this many steps
Neighbor list info ...
  update every 1 steps, delay 10 steps, check yes
  max neighbors/atom: 2000, page size: 100000
  master list distance cutoff = 3.8
  ghost atom cutoff = 3.8
  binsize = 1.9, bins = 9 9 9
  4 neighbor lists, perpetual/occasional/extra = 1 3 0
  (1) pair lj/cut, perpetual
      attributes: half, newton on
      pair build: half/bin/atomonly/newton
      stencil: half/bin/3d
      bin: standard
  (2) compute orientorder/atom, occasional
      attributes: full, newton on
      pair build: full/bin/atomonly
      stencil: full/bin/3d
      bin: standard
  (3) compute coord/atom, occasional
      attributes: full, newton on
      pair build: full/bin/atomonly
      stencil: full/bin/3d
      bin: standard
  (4) compute cluster/atom, occasional
      attributes: full, newton on
      pair build: full/bin/atomonly
      stencil: full/bin/3d
      bin: standard
Per MPI rank memory allocation (min/avg/max) = 9.766 | 9.772 | 9.776 Mbytes
Step Temp PotEng c_msd[4] v_twopoint v_fit v_max_n 
   12000    1.2596015   -6.4360931 2.0595186e-30 1.4302212e-32 8.3333333e+20            3 
   13000    1.2436386    -6.440084   0.55875137 0.0035817394  0.045881486            3 
   14000    1.2552815   -6.4063996     1.103303 0.0065672795  0.046319066            2 
   15000    1.2588741   -6.3705679    1.5984629 0.0088803494   0.04449935            2 
   16000    1.2558008   -6.4416905    2.1049319  0.010963186  0.043597361            2 
   17000    1.2475274   -6.4491422    2.5862606  0.012677748  0.043007754            4 
   18000    1.2343395    -6.446691    3.0593018  0.014163434  0.042421058            2 
   19000    1.2286053   -6.4532465    3.4903733  0.015308655  0.041621407            2 
   20000    1.2269463   -6.3915331    4.0358437  0.016816015  0.041136169            1 
   21000    1.2488777    -6.466051    4.5170848  0.017924939  0.040992653            3 
   22000     1.254355   -6.4406475    5.0951454  0.019299793   0.04120561            3 
   23000    1.2451959   -6.4406412    5.6485904  0.020465907  0.041602052            1 
   24000    1.2528564   -6.4287178    6.1693528  0.021421363  0.041891434            1 
   25000    1.2407431   -6.4062548    6.7761843  0.022587281   0.04218089            2 
   26000    1.2530692   -6.4304977    7.3298658  0.023493159  0.042594034            1 
   27000    1.2405455   -6.4539431    7.8721384  0.024296723  0.042963939            1 
   28000    1.2329139   -6.4645644     8.407546  0.025022458  0.043224335            1 
   29000    1.2774048   -6.4240351    8.8389575  0.025399303  0.043368089            2 
   30000    1.2451855   -6.3934507    9.3091535  0.025858759  0.043352563            1 
   31000    1.2387046   -6.4252239    9.8207147   0.02639977  0.043296268            2 
   32000    1.2582509   -6.4505786      10.4838  0.027301563  0.043370346            1 
   33000    1.2450726   -6.4425311     11.07573  0.027969015  0.043495542            3 
   34000    1.2614213   -6.4414674    11.544134  0.028294446  0.043620219            2 
   35000    1.2452255   -6.4236798    12.082669  0.028768258  0.043692533            1 
   36000    1.2646622   -6.4281853    12.551381  0.029054122  0.043729068            1 
   37000    1.2226452   -6.4492396    12.985792   0.02924728  0.043711648            1 
   38000    1.2560251   -6.4764276    13.553425  0.029722422  0.043685434            1 
   39000     1.229865   -6.4071966    14.079858  0.030085165   0.04366054            2 
   40000    1.2463751   -6.4320116    14.721834  0.030670488  0.043691528            2 
   41000    1.2754451   -6.4445054    15.235948  0.030967375  0.043756902            2 
   42000    1.2162394    -6.454973    15.635057  0.031021937  0.043767364            1 
   43000    1.2246761   -6.3861747    16.208625  0.031412063  0.043739185            1 
   44000     1.219885   -6.3990695    16.688489  0.031606987  0.043730283            1 
   45000    1.2487748   -6.4313212    17.312096  0.032059436   0.04374291            2 
   46000    1.2498639   -6.4157411     17.92584  0.032474347  0.043789148            1 
   47000    1.2330994   -6.4492337    18.322977  0.032487548  0.043822398            2 
   48000    1.2097447    -6.479314    18.729183  0.032515942  0.043795153            2 
   49000    1.2442115   -6.4750442    19.214319  0.032677413  0.043752263            2 
   50000    1.2316895   -6.4115568    19.636658  0.032727763  0.043672025            1 
   51000    1.2299549   -6.4551076    20.212449  0.033026877  0.043586349            1 
   52000    1.2604874   -6.4343516    20.645997  0.033086534  0.043504291            3 
   53000    1.2602205    -6.447768    21.193143  0.033322551  0.043433101            3 
   54000    1.2355124   -6.4062672    21.733008  0.033538592  0.043379107            1 
   55000    1.2546705   -6.4121635    22.099686  0.033484373  0.043320747            2 
   56000    1.2260194   -6.4881909    22.476323  0.033446909  0.043245659            5 
   57000     1.230141   -6.4234097    22.935074  0.033530809  0.043151541            2 
   58000    1.2472279   -6.4688181    23.497667  0.033761015  0.043062576            2 
   59000    1.2383667   -6.4349009    23.981626  0.033872353  0.042978043            2 
   60000    1.2373202   -6.4598786    24.483148  0.034004372  0.042899256            1 
   61000    1.2489002   -6.4716387    25.019185  0.034179214  0.042846939            2 
   62000    1.2471097   -6.4201684    25.734368  0.034589204  0.042802929            1 
   63000    1.2526007   -6.4629079     26.09301  0.034514563  0.042783914            1 
   64000    1.2339113   -6.4212551    26.569768  0.034596052  0.042745468            2 
   65000    1.2134096   -6.4521724     27.00317  0.034619448   0.04270889            3 
   66000    1.2453684   -6.4405786    27.623498  0.034878154  0.042671228            4 
   67000    1.2617752   -6.4504517    28.057746  0.034897693  0.042631921            4 
   68000    1.2546002    -6.420459    28.493036  0.034917936  0.042581759            2 
   69000    1.2359507   -6.4448476    29.096348  0.035140517  0.042537457            1 
   70000    1.2397772   -6.4741338    29.376076  0.034971519    0.0425033            2 
   71000    1.2535244   -6.4314699    29.957537  0.035161428  0.042455674            3 
   72000    1.2325349   -6.4704683    30.295102  0.035063775  0.042405708            4 
   73000    1.2492804   -6.4919449    30.791652  0.035150288  0.042359471            2 
   74000     1.240354   -6.4790217    31.285721  0.035231667  0.042314532            3 
   75000    1.2530932   -6.4281282    31.715107  0.035239007  0.042259307            1 
   76000     1.260714   -6.4130218    32.216618  0.035325238  0.042205406            3 
   77000    1.2695814   -6.4447284    32.851187  0.035553233  0.042162756            1 
   78000    1.2171083   -6.4338507    33.396422  0.035679938  0.042130001            1 
   79000    1.2116496   -6.4113819     34.01279   0.03587847  0.042099532            2 
   80000    1.2416404   -6.4593802    34.248772  0.035675804  0.042064997            2 
   81000    1.2378009   -6.4932985    34.719488  0.035719638  0.042026191            2 
   82000    1.2312379   -6.4500447    35.119215  0.035690259   0.04199148            3 
   83000    1.2360199   -6.4672147    35.636213   0.03577933  0.041947461            2 
   84000    1.2519626   -6.4600952    36.233906  0.035946335  0.041915967            1 
   85000    1.2421003   -6.4609223    36.783289  0.036062048  0.041891095            1 
   86000    1.2290553   -6.4461307    37.420477  0.036260152  0.041874385            2 
   87000    1.2360315   -6.4611618    38.033001  0.036430077  0.041872139            3 
   88000    1.2175345   -6.4709437    38.403899  0.036367329  0.041868837            2 
   89000    1.2260253   -6.4229697      38.7233  0.036257771  0.041850061            3 
   90000    1.2396789   -6.4476974    39.219837  0.036314663  0.041825557            1 
   91000    1.2516749   -6.4115989    39.807043  0.036453336  0.041803242            1 
   92000    1.2661087   -6.4390037    40.254792  0.036462674  0.041790027            1 
   93000    1.2678956   -6.4891896    40.602664  0.036382315   0.04177092            4 
   94000    1.2368029   -6.4356574     41.33175  0.036641622  0.041752826            1 
   95000    1.2576284   -6.4501944    41.796827  0.036663883   0.04174124            4 
   96000    1.2476751   -6.4640715    42.216337  0.036646126  0.041721522            1 
   97000    1.2357914   -6.4322789    43.050724  0.036985157  0.041715343            2 
   98000    1.2266742   -6.4396166    43.648821  0.037116344  0.041722619            1 
   99000    1.2387453   -6.4636324    44.123725  0.037141183  0.041738357            1 
  100000     1.233706   -6.4835504    44.502518  0.037085432  0.041745298            2 
  101000    1.2216177   -6.4587607    45.288532  0.037366775   0.04175803            2 
  102000    1.2183721   -6.4077514     45.63822  0.037286128  0.041773541            1 
  103000    1.2290577   -6.4276644    46.573211  0.037680591  0.041792488            1 
  104000    1.2302437   -6.4713285    46.912613  0.037590234  0.041823681            4 
  105000    1.2259384   -6.4660827    47.391695  0.037612456  0.041850351            2 
  106000    1.2396707    -6.448919    48.064827  0.037786813  0.041876869            2 
  107000     1.244532   -6.4742227    48.445929  0.037730474  0.041897097            3 
  108000    1.2398158   -6.4586825    48.796781  0.037651837  0.041911005            2 
  109000    1.2288257   -6.4864161    49.041006  0.037493123  0.041919289            3 
  110000    1.2339175   -6.4611038    49.699806  0.037651368  0.041924322            1 
  111000    1.2171973   -6.4383181    50.226823  0.037707825  0.041926828            2 
  112000    1.2282469   -6.4343285    50.661525  0.037694587  0.041930896            3 
  113000    1.2147893    -6.431899    51.306974  0.037837001  0.041935338            1 
  114000    1.2350337   -6.4050305    51.971775  0.037991063  0.041941873            1 
  115000    1.2358427   -6.4340312    52.475926  0.038026033  0.041947588            3 
  116000    1.2182486    -6.493832    52.642092  0.037817595  0.041953209            4 
  117000    1.2376034   -6.4825537    53.271763  0.037942851  0.041955743            1 
  118000    1.2259075   -6.4690161    53.635243  0.037877996  0.041955884            1 
  119000    1.2332209   -6.4444953    54.338276  0.038052014  0.041958395            1 
  120000    1.2272631   -6.4713032    54.566998  0.037893749  0.041957785            3 
  121000    1.2299758    -6.463698    55.222336  0.038031911  0.041959772            3 
  122000    1.1930097   -6.4436851    55.845596  0.038145898  0.041966896            1 
  123000     1.240409   -6.4214175    56.458433   0.03825097   0.04197088            3 
  124000    1.2569012   -6.4913187    56.606837  0.038042229  0.041970668            2 
  125000    1.2300872   -6.4194492    57.394571  0.038263047  0.041968585            2 
  126000    1.2394471    -6.456725    57.647226  0.038126472  0.041967099            2 
  127000    1.2544364   -6.4570718    58.070781  0.038104187  0.041961465            3 
  128000    1.2324578   -6.4285752    58.289044  0.037948596  0.041950631            2 
  129000    1.2190212   -6.4808062    58.870047  0.038029746  0.041941533            3 
  130000    1.2298868   -6.4774965    59.523993  0.038156406   0.04193485            1 
  131000    1.1990836   -6.4480284    59.699271  0.037976635  0.041922756            3 
  132000     1.214234   -6.4749453    59.972482  0.037861415  0.041905732            5 
  133000    1.2685296   -6.4742451    60.713844  0.038041255  0.041889776            2 
  134000    1.2590733   -6.4621308    61.506816  0.038250507  0.041880884            2 
  135000    1.2398866   -6.4352017    61.850362  0.038179236  0.041871881            3 
  136000    1.2158042   -6.4722516    62.204652  0.038115595   0.04185811            1 
  137000    1.2363645   -6.4735577    62.841964  0.038225039   0.04184541            2 
  138000    1.2158473   -6.4491895    63.352396  0.038256278  0.041839327            6 
  139000    1.2461811   -6.4358408      63.7618  0.038226499  0.041831995            3 
  140000    1.2047406   -6.5005417    64.121493  0.038167555  0.041816991            4 
  141000    1.2173145   -6.4981714    64.363364  0.038039813  0.041799711            2 
  142000    1.2046657   -6.4646945    65.157141  0.038237759   0.04178393            2 
  143000    1.2376556   -6.4676358    65.674223  0.038271691  0.041774715            3 
  144000    1.2233164   -6.4805245    66.226842  0.038325718   0.04176383            4 
  145000     1.224521   -6.4832108    66.823996  0.038404595  0.041759878            3 
  146000    1.2359047    -6.495284    67.702698  0.038643092  0.041757176            3 
  147000    1.2600807    -6.478026    68.195103  0.038659356  0.041760425            5 
  148000    1.2380786   -6.4531258    68.338382  0.038478819  0.041760246            2 
  149000    1.2546697   -6.4625325    69.137256  0.038667369  0.041758821            3 
  150000    1.2072252   -6.4652181     69.83467  0.038797039  0.041761927            2 
  151000    1.2149234   -6.4303138    70.528595  0.038923066  0.041769181            1 
  152000    1.2398186   -6.4521771    70.745146  0.038785716  0.041776227            1 
  153000    1.2317774   -6.5418556    71.040539  0.038693104  0.041779649            2 
  154000    1.2128062   -6.5093351    71.738533  0.038819552  0.041785096            2 
  155000    1.2416237   -6.4739284    72.622176   0.03904418  0.041795297            3 
  156000    1.2228832   -6.4360526    72.891353  0.038937688  0.041807771            2 
  157000    1.2350554    -6.494225    73.347803  0.038931955  0.041819949            2 
  158000    1.2175876   -6.4274445    74.390382  0.039235434  0.041834041            2 
  159000    1.2520088   -6.4854396    74.706562  0.039154382  0.041848767            1 
  160000    1.2059756   -6.4829025    75.276355  0.039206435  0.041863921            3 
  161000    1.2383432   -6.4563192    75.996426  0.039335624  0.041882406            1 
  162000    1.2297859   -6.4514433    76.536099  0.039370421  0.041900464            2 
  163000    1.2505022   -6.4699875    77.002673  0.039367419  0.041915295            2 
  164000    1.2192379   -6.4958899    77.440054  0.039349621    0.0419323            1 
  165000    1.2062516   -6.4747609    78.021354  0.039404724  0.041950107            3 
  166000    1.1868916   -6.4566988    78.908581  0.039612741   0.04196946            1 
  167000    1.2478632   -6.4731092     79.25934  0.039550569  0.041989399            2 
  168000    1.2116496   -6.5072872    79.650587   0.03950922  0.042009065            3 
  169000    1.2066271   -6.4883736    80.281649  0.039586612  0.042028839            3 
  170000    1.2258959   -6.4791642    80.989084  0.039700531   0.04204661            2 
  171000    1.2262672   -6.4888402    81.433304  0.039684846  0.042062349            5 
  172000    1.2303035   -6.4808674    81.981622  0.039719778  0.042079714            1 
  173000    1.2400167   -6.4563767    82.614526  0.039795051   0.04209921            1 
  174000    1.1958792   -6.4620829    83.023167  0.039762053  0.042116464            3 
  175000    1.2109806   -6.4350916    83.811283  0.039910135  0.042134167            2 
  176000    1.2139883   -6.5105125    84.070793  0.039806247  0.042151445            1 
  177000    1.2493256   -6.4816799    84.616845  0.039838439   0.04216781            3 
  178000    1.2255303   -6.5093823    84.960668  0.039775594  0.042181992            2 
  179000    1.2124598   -6.4560163    85.898261  0.039989879  0.042198333            2 
  180000    1.2125484   -6.5196924    86.090049  0.039856504  0.042216701            3 
  181000    1.2257881   -6.5040673    86.793207   0.03996004  0.042233038            1 
  182000    1.2200433   -6.4583752    87.074863  0.039869443   0.04225001            2 
  183000    1.2225063   -6.4792825    87.553756  0.039869652  0.042261907            1 
  184000    1.2304756   -6.5233138    87.579611  0.039664679  0.042270353            2 
  185000    1.1945168   -6.5092033    88.357043   0.03980047  0.042279693            2 
  186000    1.2294417   -6.5065598    88.936409  0.039846061  0.042288978            2 
  187000    1.2063716   -6.5120882    89.505904  0.039886766  0.042302418            2 
  188000      1.22845   -6.5008193    90.101156  0.039938455  0.042315214            2 
  189000    1.2068337   -6.4690408    90.715959  0.039998218  0.042327622            3 
  190000    1.2045963     -6.51186    90.930534  0.039881813  0.042335843            2 
  191000    1.2414407   -6.4309903    91.810082  0.040056754  0.042346471            1 
  192000     1.197692   -6.4792766    92.131176   0.03998749  0.042353398            2 
  193000    1.2464086   -6.5271589     92.89581  0.040110453  0.042364891            2 
  194000    1.2178439   -6.4581043    92.858404  0.039887631  0.042374138            1 
  195000    1.2153209   -6.4740164    93.778073    0.0400761  0.042381909            3 
  196000    1.2022061   -6.5480309     94.11806  0.040016182  0.042389399            3 
  197000     1.235491   -6.5091707    94.787312  0.040096155  0.042399455            2 
  198000     1.248092   -6.5007696    95.236658  0.040082768  0.042411266            2 
  199000    1.2307131   -6.4439568    95.665939  0.040061114  0.042420126            3 
  200000    1.2111797   -6.5325476     96.23458  0.040097742  0.042429584            1 
  201000     1.218878   -6.4982237     96.79613  0.040131065  0.042438926            5 
  202000     1.214486   -6.4821834     97.78474  0.040340239  0.042452478            2 
  203000     1.239308   -6.4793133    98.060922  0.040254894  0.042466148            2 
  204000    1.2109109    -6.457041    99.202263    0.0405238  0.042481678            1 
  205000    1.2268688   -6.4760857    99.637597  0.040503088  0.042497787            2 
  206000    1.2128863   -6.4742681    100.12784  0.040504788  0.042516795            2 
  207000    1.2114915   -6.5036681     100.4561  0.040441263  0.042535033            2 
  208000    1.1835909   -6.4875762    101.25688  0.040567661   0.04255237            2 
  209000    1.2135456   -6.4725799    102.07012  0.040697814  0.042569661            2 
  210000    1.2146543   -6.4841896     102.0135  0.040481547  0.042584392            2 
  211000    1.1947487   -6.4466673    103.16766   0.04074552  0.042601215            3 
  212000    1.1965869   -6.4682146    103.28867   0.04060089  0.042617586            1 
  213000    1.2074541   -6.4927455    104.01263  0.040693516  0.042633489            3 
  214000     1.235598    -6.490653    104.23798  0.040591113  0.042645884            2 
  215000    1.2069674   -6.4870201    104.56888  0.040530575  0.042656511            2 
  216000    1.2245981   -6.4438579    104.69139  0.040390196  0.042665381            2 
  217000    1.2107469   -6.4764388    105.15499  0.040382102  0.042671949            2 
  218000    1.2190634   -6.4662653    106.35071  0.040653943  0.042678539            1 
  219000    1.2041315   -6.5046336    106.54006  0.040540357  0.042687313            2 
  220000    1.2128272   -6.5050774    107.19728  0.040605032  0.042695928            2 
  221000    1.2002259   -6.5122604     107.4764  0.040526546  0.042703104            4 
  222000     1.167895   -6.4944932    108.09957  0.040577917  0.042709893            2 
  223000    1.1885808   -6.4764418    109.08371  0.040763718  0.042718649            2 
  224000    1.2026515       -6.502    109.41032  0.040703245  0.042729887            2 
  225000    1.1744414   -6.4916084    109.96772  0.040728786  0.042742183            5 
  226000    1.2267381    -6.514998    110.42215  0.040716133  0.042751638            1 
  227000    1.1967006   -6.4874646    110.62785  0.040612279  0.042759441            3 
  228000    1.2257988   -6.5163116    111.52163   0.04076083  0.042767176            1 
  229000    1.2004444   -6.5339135    111.50048  0.040575139  0.042773784            6 
  230000    1.2285496   -6.5378206    111.92107  0.040551114  0.042778972            4 
  231000    1.1970103   -6.5123563    112.42933  0.040558922  0.042782504            4 
  232000    1.2112058   -6.4422593    113.23562  0.040673716  0.042785788            1 
  233000    1.1949234   -6.5073738    112.77559  0.040334615  0.042787867            7 
  234000    1.2091829   -6.4982131    113.84823  0.040544242  0.042786799            1 
  235000    1.2181757   -6.5055239    114.28472  0.040526496  0.042787813            2 
  236000    1.2100733   -6.5284753    114.78498  0.040531418  0.042789079            3 
  237000    1.2175353   -6.4945828    115.05187  0.040454246  0.042789219            3 
  238000    1.2242859   -6.4892173    115.67182  0.040501338  0.042788082            2 
  239000    1.2202118   -6.5177345    115.85757  0.040396643  0.042785292            2 
  240000    1.2036682   -6.4235371     116.7184  0.040527222  0.042783469            2 
  241000    1.1874752   -6.5050746    116.74755  0.040369139    0.0427822            2 
  242000    1.1914905   -6.4874584    117.22674  0.040367335  0.042778699            1 
  243000    1.2248181   -6.4537835    118.26889  0.040558603  0.042775189            3 
  244000    1.2065695   -6.4968548    118.07287  0.040325434  0.042770605            3 
  245000    1.2230385   -6.4610396    119.11829  0.040516423  0.042766481            2 
  246000    1.1960123   -6.4879438    119.14845  0.040361941  0.042762071            1 
  247000    1.2143163   -6.4799897    119.70004  0.040384629  0.042757046            3 
  248000    1.2172046   -6.4946557    120.27708  0.040415686  0.042752747            1 
  249000    1.1997511   -6.4753743     120.7286  0.040404483  0.042748191            2 
  250000    1.2360509   -6.4737002       121.27  0.040423334  0.042743482            3 
  251000      1.19963   -6.4807749    121.32329  0.040279976  0.042737322            1 
  252000    1.2303428   -6.4963584    121.93916  0.040323797  0.042730325            2 
  253000    1.2162973   -6.4931587    122.79414  0.040446028  0.042724363            2 
  254000     1.206391   -6.4735441    123.30833  0.040455487  0.042718225            1 
  255000     1.210483   -6.5043061    123.05979  0.040215616  0.042710616            3 
  256000    1.2361226   -6.5336153      123.356  0.040154949  0.042701762            4 
  257000     1.234434   -6.5235365     124.2298  0.040282036  0.042692941            2 
  258000     1.232149     -6.51811    125.16393  0.040427627  0.042685268            1 
  259000    1.2220788   -6.4998016    125.17811  0.040276099  0.042676993            5 
  260000    1.2216514   -6.4733387    126.00023  0.040384689  0.042671112            2 
  261000     1.239359   -6.4932088     126.7058  0.040455236  0.042665128            1 
  262000    1.1871222   -6.4991248    127.58002  0.040578886  0.042660012            1 
  263000    1.1988309   -6.4954471    128.14356  0.040603156  0.042656386            3 
  264000    1.1826726   -6.4970989     128.2519  0.040483553  0.042652676            2 
  265000    1.2140289   -6.5147265    129.03553   0.04057721  0.042651111            3 
  266000    1.2198849   -6.4814462    130.05444  0.040743872  0.042649256            2 
  267000     1.193751   -6.4992992    130.16635  0.040626201  0.042648366            2 
  268000     1.233949   -6.5141797    130.49194  0.040575851  0.042648641            1 
  269000    1.2209926   -6.5239638    131.31428  0.040679766   0.04264811            3 
  270000    1.2092557   -6.4871785    132.02616  0.040748816  0.042646777            1 
  271000    1.2208941    -6.498651    132.19679  0.040650921  0.042645292            2 
  272000    1.1824591   -6.5101943     131.9184  0.040416176  0.042641199            4 
  273000    1.2009631   -6.5216301    132.68903  0.040503366  0.042637237            3 
  274000    1.2225006   -6.5059142     133.3518  0.040557118  0.042634641            3 
  275000    1.2139859   -6.5433229     133.7056  0.040516849  0.042632746            2 
  276000    1.2270539   -6.4854275    135.29234  0.040849137  0.042630723            2 
  277000    1.1976256   -6.5453914    135.04383  0.040626905  0.042629233            4 
  278000    1.2059613   -6.4166999    135.55623   0.04063436  0.042626549            2 
  279000    1.2089825   -6.5212164    135.52745  0.040480122  0.042623185            1 
  280000    1.2317549   -6.5195841    135.82262  0.040423399  0.042618873            3 
  281000    1.1924741   -6.5424212    137.29355  0.040715764  0.042614996            2 
  282000    1.2183404   -6.5326671    137.06521  0.040503903   0.04260945            1 
  283000     1.179202    -6.541776    137.21847   0.04040591   0.04260303            2 
  284000    1.2154977   -6.4997518    137.88368  0.040458826   0.04259675            2 
  285000    1.2185468   -6.5197435    138.23682  0.040420124  0.042589133            1 
  286000    1.1913058   -6.5602346    138.74866  0.040427931  0.042582405            4 
  287000    1.2062388   -6.4893466    139.74011  0.040574945  0.042577542            1 
  288000     1.188502    -6.480895     140.5468  0.040667478   0.04257508            2 
  289000    1.1972963   -6.5002236    140.99293    0.0406554  0.042571141            2 
  290000    1.2012856   -6.5216407    141.64179  0.040701664  0.042567028            1 
  291000    1.2044224   -6.5296436    141.92147  0.040641887  0.042565284            1 
  292000    1.2280871   -6.4920004     142.6229  0.040702881  0.042563767            3 
  293000    1.2200471   -6.5068878    143.47476  0.040806246  0.042562049            2 
  294000    1.1993283   -6.5192576    143.45362  0.040661457  0.042559955            1 
  295000     1.198789   -6.5247473    143.58085  0.040559563  0.042556363            4 
  296000    1.1942638   -6.5165872    144.01012  0.040543389  0.042551069            1 
  297000    1.1951147   -6.5084757    144.75284  0.040615275  0.042544962            1 
  298000    1.1954339   -6.5180638    144.93785  0.040530718  0.042539317            3 
  299000    1.2126057    -6.526382    145.14145  0.040451908  0.042534003            3 
  300000    1.2072911   -6.4621677    146.27482  0.040631895  0.042528178            1 
  301000    1.2244271   -6.4717827    147.45922  0.040824811  0.042525554            2 
  302000    1.2276186    -6.496772    148.12771  0.040874093  0.042523685            2 
  303000    1.1991085    -6.521597    147.95451  0.040691558  0.042521174            2 
  304000     1.216532   -6.4504365    148.52787  0.040714876  0.042518367            1 
  305000    1.2163578   -6.5047466    148.92203  0.040689079  0.042516047            2 
  306000    1.2065575   -6.5068966     149.3095  0.040661628  0.042512059            2 
  307000    1.2005988    -6.521788    149.12287   0.04047852  0.042506129            1 
  308000    1.2193774   -6.5250039    149.94645  0.040569926  0.042499742            4 
  309000    1.2067046   -6.5235294    150.27588  0.040527476  0.042492779            2 
  310000    1.2109949   -6.5666663    150.17285  0.040369045   0.04248548            3 
  311000    1.2054553   -6.5489577    150.94362  0.040445772  0.042478137            3 
  312000    1.2241711   -6.5044272    151.04598  0.040343477  0.042471241            1 
  313000    1.2246689   -6.5083559    152.02802  0.040476045  0.042463513            4 
  314000    1.2014818   -6.5099019    152.28951  0.040416537   0.04245587            3 
  315000    1.2189337   -6.5453523    152.81345  0.040426837  0.042448732            3 
  316000    1.2167549   -6.4880754    153.49735   0.04047926  0.042441006            3 
  317000    1.1762545   -6.5401933    153.87398  0.040450572  0.042433622            2 
  318000    1.1852033   -6.5376355    154.42262  0.040467144  0.042426168            2 
  319000    1.2008102   -6.4904305    155.22533  0.040549981  0.042418385            4 
  320000    1.2077303   -6.4728513    155.40091  0.040468987  0.042412319            3 
  321000    1.2299432   -6.5119842    155.99029  0.040495921  0.042404988            1 
  322000    1.2171649   -6.5083986     156.6073  0.040529839   0.04239856            1 
  323000     1.216393   -6.5337769    156.90789  0.040481911   0.04239168            1 
  324000    1.1931816   -6.5280783    157.54084  0.040519763  0.042384921            2 
  325000    1.2037957   -6.5029999     158.5558  0.040655333  0.042378454            3 
  326000    1.2186373   -6.4896628    158.60274  0.040542622  0.042372951            1 
  327000    1.1578334   -6.5094185     159.1254  0.040551836  0.042366943            2 
  328000    1.1901211   -6.5369867    159.99512  0.040649168  0.042361305            2 
  329000    1.2064958   -6.5246447    159.82036  0.040481347  0.042355523            2 
  330000    1.1746795     -6.50225    160.52762  0.040537278  0.042349093            2 
  331000    1.1856881   -6.5256993    160.97058  0.040526328  0.042343272            2 
  332000    1.2004117   -6.5401024    160.78151  0.040356804  0.042334036            1 
  333000    1.1801952   -6.5641477    160.07625  0.040059122  0.042323491            3 
  334000    1.1948773   -6.5257147    161.81071  0.040371934  0.042312508            3 
  335000    1.1707587   -6.4736803     162.1129  0.040326593  0.042302468            2 
  336000    1.1950977   -6.5554138    162.13049  0.040210935  0.042291763            2 
  337000    1.2073957   -6.5275903    163.44183  0.040415883  0.042282131            2 
  338000    1.2200349   -6.5139286    163.26232   0.04025205  0.042273229            1 
  339000    1.1785761   -6.5570547     163.8782  0.040284709  0.042264046            5 
  340000    1.1852066   -6.5312123    164.45707  0.040308105  0.042254642            1 
  341000    1.1543722   -6.5346514    165.21296  0.040374625  0.042246404            2 
  342000    1.2011529   -6.4872328    166.20367   0.04049797  0.042238446            2 
  343000    1.2015395   -6.5367669    166.23143  0.040386644  0.042230943            1 
  344000    1.2315129   -6.5494082     165.9174  0.040193169  0.042221366            1 
  345000    1.2118744    -6.541261    167.29859  0.040410287  0.042211689            2 
  346000    1.1954236   -6.5202098     167.4605  0.040332491  0.042202488            1 
  347000    1.2153247   -6.5560143    168.19232  0.040392008   0.04219335            2 
  348000     1.190728   -6.5435357    169.08068   0.04048867  0.042186335            2 
  349000    1.1817165     -6.53724    169.30882   0.04042713  0.042179203            3 
  350000    1.1912163   -6.5348506     170.6963  0.040641977  0.042172507            2 
  351000    1.2047999   -6.5684335    170.89584   0.04057356    0.0421675            3 
  352000    1.1837166   -6.5710101    170.97918  0.040478024  0.042162225            1 
  353000    1.2112441   -6.5371432    171.97326  0.040598031  0.042156291            3 
  354000     1.213384   -6.5696266    171.97569   0.04048392  0.042151243            4 
  355000    1.1870983   -6.5006044    173.25926  0.040671187  0.042146564            1 
  356000    1.1922448   -6.5176533    173.33368  0.040574364  0.042142334            1 
  357000    1.2050434   -6.5209781    173.86584  0.040584929  0.042137682            1 
  358000    1.2044271    -6.540025    174.36014  0.040586624  0.042132938            3 
  359000    1.1878146   -6.5468167    174.25648  0.040449508  0.042127135            2 
  360000    1.1836968   -6.5590734     174.7579  0.040453217  0.042121095            2 
  361000    1.1767269   -6.5349933    174.95228  0.040386028  0.042114515            2 
  362000    1.1852454   -6.5488941    174.79818  0.040238993  0.042106729            3 
  363000    1.2078729    -6.530451    176.00542  0.040405286  0.042099495            2 
  364000     1.204638    -6.509435    175.99212  0.040291236  0.042091925            1 
  365000    1.1712374   -6.5458855    176.93669  0.040396504  0.042085392            3 
  366000    1.1929505   -6.5282451    177.75738  0.040472992  0.042078426            4 
  367000    1.1739981    -6.501571    178.36393  0.040500437  0.042071697            2 
  368000    1.2143284   -6.5574004    178.29267  0.040374246  0.042064186            2 
  369000    1.1898346   -6.5376863    178.97875  0.040419771  0.042055756            4 
  370000    1.1818483   -6.5422178    179.03244  0.040322622   0.04204773            3 
  371000    1.2055812   -6.5595321    179.30809   0.04027585  0.042038739            5 
  372000    1.1803574   -6.5476451    179.91552  0.040303655   0.04203049            2 
  373000    1.2183667   -6.5598687    180.53857  0.040334802  0.042021291            3 
  374000    1.1901953   -6.5283374    180.68465  0.040259503    0.0420127            6 
  375000    1.1956425    -6.575342    181.16601  0.040259113  0.042003255            1 
  376000    1.1817633   -6.5288731    181.90673  0.040316207  0.041994072            2 
  377000    1.1704667   -6.5308835    182.35816  0.040309053   0.04198575            2 
  378000    1.1881309   -6.4865982    183.07501  0.040360452  0.041977739       -1e+20 
  379000    1.1885274    -6.554824    183.19677  0.040280733   0.04196987            1 
  380000    1.1812769   -6.5216748    183.80051  0.040307129  0.041961036            4 
  381000    1.2170163   -6.5110582    183.86122  0.040214616  0.041951852            7 
  382000    1.1851368   -6.5141359    184.71472  0.040295531  0.041941611            4 
  383000    1.1860303   -6.5416698    184.47768  0.040138747  0.041930293            2 
  384000    1.1857714    -6.554844    184.60976  0.040062881  0.041918766            2 
  385000    1.2095573   -6.5584402    185.19933  0.040086436   0.04190682            3 
  386000    1.1682287   -6.5335626    185.23971  0.039991302  0.041895178            2 
  387000    1.2056725   -6.5485472    185.71969   0.03999132  0.041883155            1 
  388000     1.188943   -6.5174637    186.34403  0.040022343  0.041870967            1 
  389000    1.1906152      -6.5307    186.98291  0.040056322  0.041859941            3 
  390000    1.1903635   -6.5317555    186.85917  0.039927172  0.041846963            2 
  391000    1.1884341   -6.5648197    187.07074  0.039870148  0.041833418            1 
  392000    1.1827562    -6.552877    187.35438  0.039828738  0.041819277            3 
  393000    1.1776301   -6.4963641      188.597  0.039990881  0.041805373            2 
  394000    1.1766803   -6.5105149    189.11745  0.039999461  0.041793457            2 
  395000    1.2024184   -6.5593824    189.58833  0.039997538    0.0417822            1 
  396000    1.1864536   -6.5546156    190.23952  0.040033568  0.041770673            2 
  397000    1.2104328   -6.5489318    190.07496  0.039898186  0.041758893            3 
  398000    1.1812973   -6.5661386    190.20686  0.039825556  0.041745443            2 
  399000    1.1634855    -6.509642     191.2737   0.03994856  0.041733007            2 
  400000    1.1729941   -6.5095092    191.53763  0.039903674  0.041720736            1 
  401000    1.1960458   -6.5711792    191.89599  0.039878636  0.041707766            1 
  402000    1.1847519   -6.5832439    192.28421  0.039859911  0.041694801            3 
  403000    1.1809204   -6.5442646    191.77945  0.039656628   0.04168108            4 
  404000    1.1701721   -6.5489583    192.93436  0.039796692  0.041668821            4 
  405000    1.1688174   -6.5245088     193.3112  0.039775967  0.041656153            2 
  406000    1.2019649   -6.5667137    193.97432  0.039814105  0.041642616            2 
  407000    1.1481857   -6.5233618    194.40591   0.03980465  0.041629448            2 
  408000    1.2058972   -6.5600954    194.81693  0.039791039  0.041617373            1 
  409000     1.222953   -6.5368485    195.85636  0.039905534  0.041604823            5 
  410000    1.1791148   -6.5395755    195.56478   0.03974894   0.04159228            2 
  411000    1.1683232   -6.5400747    196.74112  0.039890738  0.041579849            3 
  412000     1.164237   -6.5084162    197.02151  0.039850629  0.041568078            2 
  413000    1.1594915   -6.5219939    197.48276  0.039847207  0.041555547            2 
  414000    1.2000623   -6.5447673    198.21535   0.03989842  0.041543798            2 
  415000    1.2098886   -6.5676071    198.95889  0.039951584  0.041533013            2 
  416000    1.1880496   -6.5571481    198.86641  0.039837022   0.04152221            2 
  417000    1.1889596   -6.5263216    199.98925  0.039965877  0.041511562            2 
  418000      1.15526   -6.5587429    200.23376  0.039919012  0.041500804            2 
  419000    1.1853878   -6.5764193    200.78255  0.039932886  0.041490267            2 
  420000    1.1870585   -6.5231441    202.00295   0.04007995  0.041481096            3 
  421000    1.2010812   -6.5609377    201.12059  0.039810093  0.041472174            2 
  422000    1.2115305   -6.5535092    203.05251  0.040097258  0.041463716            2 
  423000    1.1842149   -6.5212491    203.05989  0.040003918  0.041455265            3 
  424000    1.1829736   -6.5644111    203.87513  0.040069797  0.041447038            3 
  425000    1.1772196     -6.58593    203.96176  0.039992501  0.041439775            2 
  426000    1.1883316   -6.5016274    205.03715  0.040108989  0.041433411            2 
  427000    1.1949439   -6.5568193    205.79261  0.040162492  0.041427309            1 
  428000    1.1691228   -6.5706355    206.02588  0.040114072  0.041420168            2 
  429000    1.1818862   -6.5509331    206.67044  0.040145773   0.04141235            3 
  430000    1.1987343   -6.5463618    206.86031  0.040089207  0.041405167            2 
  431000    1.1698617   -6.5783098    206.77421  0.039979546  0.041398087            2 
  432000     1.180346   -6.5134242    207.67771  0.040061287  0.041389452            3 
  433000    1.1941656   -6.5579604    207.22238  0.039881134   0.04138018            1 
  434000    1.1885714   -6.5631636    207.89631  0.039918647  0.041370546            3 
  435000    1.1888716   -6.5074845    208.58064  0.039957977  0.041361765            1 
  436000    1.1808534   -6.5240044    208.51482   0.03985375  0.041352825            1 
  437000     1.172099   -6.5538187    209.15119  0.039883903  0.041342699            1 
  438000    1.1695719    -6.534857    209.33296  0.039827428  0.041332973            3 
  439000    1.1989836   -6.5698157    209.98577  0.039860625  0.041323296            3 
  440000    1.1613825   -6.5574766    210.35965  0.039840842  0.041314724            1 
  441000    1.1821294   -6.5403652     211.4072  0.039948451  0.041305939            2 
  442000    1.1823058   -6.5759981     211.8902  0.039949132  0.041298679            2 
  443000    1.1798806   -6.5632768    212.10191  0.039898778  0.041290864            1 
  444000    1.1996062   -6.5552055    212.22228  0.039831509  0.041282942            1 
  445000    1.2036266   -6.5296699    213.40034  0.039962611  0.041275602            2 
  446000    1.2046378   -6.5490301    213.84492  0.039956076   0.04126748            4 
  447000    1.1711519   -6.5490433     214.2646  0.039944928  0.041258872            3 
  448000    1.1803912   -6.5614807    214.12957  0.039830649  0.041250206            3 
  449000    1.1787242   -6.5532834    214.72956  0.039853297   0.04124158            1 
  450000    1.1704094   -6.5574697    215.88056  0.039977882  0.041233483            3 
  451000     1.199635   -6.5400074     216.1146  0.039932483  0.041225638            2 
  452000    1.1646795   -6.5292896    217.34249  0.040070519  0.041218348            2 
  453000    1.1659957   -6.5473477    217.52384  0.040015424  0.041210807            2 
  454000    1.1943909   -6.5342278    217.28952  0.039884274  0.041202984            3 
  455000    1.1955081   -6.5475736    218.50772  0.040019729  0.041196093            1 
  456000    1.1717691    -6.559342    218.93294  0.040009674  0.041188693            3 
  457000    1.2052467   -6.5711722    217.97911  0.039748196  0.041180949            1 
  458000    1.1912308   -6.5780625    219.51011  0.039939976  0.041172738            2 
  459000    1.1739273   -6.5285387    219.72572  0.039892106  0.041164293            2 
  460000    1.1784516   -6.5800711    220.46482  0.039939279  0.041156365            4 
  461000    1.1786574   -6.5910028    219.94308   0.03975833  0.041147851            3 
  462000    1.1619709   -6.5209676    221.24143  0.039906463   0.04113913            1 
  463000    1.1894064   -6.5993508     220.3389  0.039657829   0.04113028            2 
  464000    1.1671456   -6.5720355    221.39223  0.039761535  0.041121278            2 
  465000    1.1914245   -6.5545955    221.65237  0.039722646  0.041112169            4 
  466000    1.1851426    -6.595578    221.61758  0.039631184  0.041103165            1 
  467000    1.1401573   -6.5539162    223.21234  0.039830896  0.041094471            3 
  468000     1.203223   -6.5568248    223.40251  0.039779649  0.041086145            2 
  469000    1.1977961   -6.5450579    224.39219   0.03987068  0.041077964            2 
  470000      1.15955    -6.584133     224.3118  0.039771596  0.041070214            2 
  471000    1.1792409   -6.5486515    224.16711  0.039661555  0.041061451            3 
  472000    1.1947636   -6.5932204    225.12632  0.039746879   0.04105212            1 
  473000     1.161533   -6.5601358    225.52706   0.03973345  0.041042747            3 
  474000     1.167622    -6.578211    226.14116  0.039757588  0.041034586            4 
  475000    1.1576496   -6.5367963    226.22434  0.039688481  0.041026173            1 
  476000    1.1693009    -6.545606    226.76137   0.03969912  0.041017967            2 
  477000    1.1391831   -6.5659328    227.25951  0.039702919  0.041009704            4 
  478000    1.1523297   -6.5905534       227.26  0.039619944  0.041000571            2 
  479000    1.1813947   -6.5871623    228.23621  0.039707064  0.040991467            1 
  480000    1.1615727   -6.5895511    228.53718  0.039676593   0.04098175            1 
  481000    1.1690177   -6.5361792     228.4912   0.03958614   0.04097203            2 
  482000    1.1698548    -6.586454    228.83628  0.039563672   0.04096253            2 
  483000    1.1508739   -6.5285033    230.36906  0.039746215  0.040953599            6 
  484000    1.1902022   -6.5973379    229.77777  0.039562289   0.04094486            3 
  485000    1.1872242   -6.5868962    230.01803  0.039521999  0.040936022            3 
  486000    1.1785574   -6.5301495    230.69919  0.039557474  0.040926365            4 
  487000    1.1924345   -6.5727434     231.4425   0.03960344  0.040916469            3 
  488000    1.1689366   -6.5735668    231.85576  0.039592855  0.040905567            3 
  489000    1.1616289   -6.6007642    231.91458  0.039521912  0.040895075            4 
  490000    1.1577405   -6.5468072    232.40469  0.039524607   0.04088455            2 
  491000    1.1862713   -6.5316453    233.17978  0.039575659  0.040874928            1 
  492000     1.179628   -6.5568836    233.18893  0.039496769  0.040865767            3 
  493000    1.1690714   -6.6066153    233.54028  0.039476045  0.040855554            3 
  494000    1.1834958   -6.5705098    234.21785  0.039510433  0.040844915            4 
  495000    1.1929396   -6.5475584    234.08333  0.039407969  0.040833924            2 
  496000    1.1946516   -6.5554557    234.83154  0.039454223  0.040823327            2 
  497000    1.1759424   -6.5968264    234.69924  0.039352656  0.040812586            2 
  498000    1.1783315   -6.5598581    235.73945  0.039447699  0.040801504            3 
  499000     1.173644   -6.5775781    236.38787  0.039476933  0.040790818            1 
  500000    1.1531954   -6.5937821    236.14785  0.039357974  0.040780506            2 
  501000    1.1775198   -6.5799161    237.66574  0.039531893  0.040769754            3 
  502000    1.1906005   -6.5582725    237.28279  0.039389573  0.040759228            3 
  503000    1.1912103   -6.5973086    237.04231  0.039271423  0.040748378            1 
  504000    1.1807082   -6.5625497    238.10572  0.039369333  0.040737622            2 
  505000    1.1478189   -6.6026166    237.79506  0.039240109  0.040726503            1 
  506000    1.1558524   -6.5569031    238.77687  0.039324254  0.040715519            2 
  507000    1.1564191   -6.5351095    239.97225  0.039443171  0.040705491            1 
  508000    1.1597376   -6.5869192    240.31832  0.039422296   0.04069552            2 
  509000    1.1381649   -6.5572095     240.0568   0.03930203  0.040685254            2 
  510000    1.1641342   -6.5962321    240.93218  0.039368003  0.040674676            2 
  511000       1.1654   -6.5659375    239.89866  0.039122417  0.040663334            4 
  512000    1.1636832   -6.6044957    241.34227  0.039280968  0.040651971            1 
  513000    1.1898029   -6.5702115    241.19078   0.03917979  0.040640472            3 
  514000    1.1763289   -6.6104838    241.15464  0.039097703  0.040627967            2 
  515000    1.1542011   -6.6053011    241.69021  0.039108448  0.040615803            2 
  516000    1.1797161   -6.5448608    242.58528  0.039177209  0.040603275            1 
  517000    1.1891694   -6.5710357    241.73397  0.038964212  0.040590888            1 
  518000    1.1736457   -6.5922176    242.66441  0.039038676  0.040577531            2 
  519000    1.1930751   -6.5802152    243.56688  0.039108362  0.040564313            1 
  520000    1.1595626    -6.623111    243.88367  0.039083921  0.040550261            2 
  521000    1.1816675   -6.5370295    244.22417  0.039063367  0.040537338            2 
  522000    1.1828355   -6.5968437    244.47327  0.039028299  0.040524481            6 
  523000    1.1502282   -6.6027576    244.99776  0.039037247  0.040512437            2 
  524000    1.1575207   -6.5726817    245.83335  0.039095634  0.040500122            5 
  525000    1.2011128   -6.5959031    245.39281   0.03895124  0.040487409            3 
  526000    1.1778936   -6.5625322    246.41691  0.039039434  0.040474596            2 
  527000    1.1469698   -6.6150901    245.86127  0.038877493  0.040460722            2 
  528000    1.1575427    -6.642583    245.82635   0.03879835   0.04044671            4 
  529000    1.1615092   -6.5487444    247.50025  0.038988697  0.040432663            4 
  530000     1.153709   -6.5570194      247.664  0.038940881  0.040418928            2 
  531000    1.1478911   -6.5591253    247.79905   0.03888874  0.040404885            2 
  532000    1.1834161   -6.5948922    247.51683  0.038771433  0.040390704            2 
  533000    1.1731759    -6.557171    248.73185  0.038888657  0.040377068            2 
  534000    1.1720688   -6.5986376    248.20082  0.038732962  0.040363069            2 
  535000    1.1623957   -6.6079694    248.76914  0.038749087  0.040348945            2 
  536000    1.1960579   -6.5739608    249.46282  0.038784643  0.040334907            1 
  537000    1.1709444   -6.5860381    250.50962  0.038874863  0.040320407            3 
  538000    1.1781013   -6.6038298    250.11584   0.03874161  0.040305796            2 
  539000    1.1549303   -6.5898451    250.91786  0.038793732   0.04029044            3 
  540000    1.1747995   -6.5891702    250.74934  0.038695886  0.040276296            2 
  541000    1.1658431   -6.5906772    252.02395  0.038820694  0.040262923            1 
  542000    1.1934895    -6.628464    252.63248  0.038842633  0.040250338            1 
  543000    1.1564689   -6.5808755    252.93234  0.038817118  0.040237451            8 
  544000    1.1730006   -6.5623381    254.57191  0.038996923  0.040224788            3 
  545000    1.1468522    -6.563124     253.5078  0.038762661  0.040211973            2 
  546000     1.172554   -6.5970667    252.94531  0.038605816  0.040198848            5 
  547000    1.1971401   -6.5629492     255.3886  0.038907466  0.040186244            3 
  548000    1.1695004   -6.5852299    254.55838  0.038710217  0.040173499            3 
  549000    1.1687975   -6.5885358    254.93907  0.038697491  0.040160388            4 
  550000    1.1723404   -6.6012571    255.04261   0.03864282  0.040147127            1 
  551000    1.1574565   -6.5724239    256.10954   0.03873405  0.040133499            1 
  552000    1.1609898   -6.5884551    255.72807  0.038606291  0.040120036            2 
  553000    1.1676213   -6.6116907    256.26271  0.038617044  0.040106332            2 
  554000    1.1780007   -6.5929783    256.54093  0.038589189   0.04009263            4 
  555000     1.147288    -6.557688     257.8044  0.038709369  0.040078767            4 
  556000    1.1712509   -6.6050723    257.91784  0.038656751   0.04006488            2 
  557000    1.1657767   -6.6309882    257.95564  0.038593004  0.040051753            1 
  558000    1.1776408   -6.5859339    257.98267  0.038527878  0.040038363            3 
  559000    1.1654869   -6.6006914    259.36832  0.038665522  0.040025166            3 
  560000    1.1721932    -6.620058    258.99585   0.03854105  0.040011456            5 
  561000    1.1734909   -6.5859098    260.06103  0.038630575  0.039998409            4 
  562000    1.1477087   -6.6050311    260.27066  0.038592921  0.039985189            3 
  563000    1.1628579   -6.6339932    259.97166  0.038480115  0.039971495            2 
  564000    1.1543175   -6.6279306    260.21278  0.038447515   0.03995728            1 
  565000     1.176637   -6.5815807    260.61672  0.038439045  0.039943401            2 
  566000    1.1731814   -6.5666203    261.35641  0.038480037  0.039930145            3 
  567000    1.1473558   -6.6219447    261.06328  0.038369089  0.039916697            2 
  568000    1.1459275   -6.6436413    262.17499  0.038464641  0.039903338            6 
  569000    1.1778293   -6.5828416    264.04457   0.03867085  0.039890095            3 
  570000    1.1802137   -6.5776241    263.30176   0.03849441  0.039877651            3 
  571000     1.159611   -6.5845671    265.24464  0.038710543  0.039865265            1 
  572000    1.1395132   -6.5964083    265.04783  0.038614195  0.039852539            2 
  573000    1.1480851   -6.5993754      264.718  0.038498837  0.039839826            4 
  574000    1.1395347   -6.6233581    266.20516  0.038647671  0.039827143            2 
  575000    1.1449371   -6.5966843    265.80574  0.038522571  0.039814515            4 
  576000    1.1547762   -6.5826071    267.35864  0.038680358  0.039802533            1 
  577000    1.1408232   -6.5882316     266.7534   0.03852591  0.039790797            4 
  578000    1.1237582    -6.588044    267.52333  0.038570261  0.039779048            2 
  579000    1.1436745   -6.5942954     267.7122  0.038530829  0.039767114            1 
  580000    1.1610119   -6.5770654    268.58786  0.038590209  0.039755616            4 
  581000    1.1711712   -6.5649456    269.10883  0.038598512  0.039743371            3 
  582000    1.1884041   -6.6006193     268.7427  0.038479768  0.039731923            3 
  583000    1.1301194   -6.5849531    269.69838  0.038550369  0.039720494            2 
  584000    1.1556147   -6.5588475    271.28575  0.038710867  0.039709691            4 
  585000    1.1306737   -6.6130618    270.04442  0.038467866  0.039698503            6 
  586000    1.1616052   -6.6215787    270.21314  0.038426214  0.039687039            2 
  587000    1.1529472   -6.5922891    271.91809  0.038602795  0.039676012            2 
  588000    1.1324008   -6.6027718    271.34045   0.03845528  0.039664918            2 
  589000    1.1653949   -6.6076461    271.91378  0.038471107  0.039653364            4 
  590000    1.1690882   -6.5724333    272.67169  0.038512951  0.039641589            1 
  591000    1.1797934   -6.5938914    271.98752  0.038351314  0.039629825            4 
  592000      1.16817   -6.6022366    273.12599  0.038446789  0.039617988            2 
  593000    1.1593932   -6.6333548    273.41738  0.038422903  0.039605582            2 
  594000    1.1742956   -6.5558665    274.24445   0.03847425  0.039593446            3 
  595000    1.1644227   -6.5988222    273.37619  0.038287981  0.039581426            2 
  596000    1.1331812    -6.610293    274.13447  0.038329763  0.039568994            1 
  597000    1.1517342   -6.6276346    273.62048  0.038193813  0.039555862            1 
  598000    1.1343056   -6.5823033    275.36241  0.038372688   0.03954288            2 
  599000    1.1378591    -6.593908    274.72438  0.038219864   0.03952984            7 
  600000    1.1663909   -6.5879671    275.20922  0.038223503  0.039516796            2 
  601000    1.1630265   -6.6212021    275.16724  0.038154082  0.039503062            2 
  602000    1.1379076   -6.5859211    276.08221  0.038217361  0.039489778            2 
  603000    1.1502284    -6.570402      276.403  0.038198314  0.039476474            2 
  604000    1.1501913   -6.6119623     277.0729  0.038227498  0.039463102            4 
  605000    1.1526649   -6.5572238    277.26185  0.038190337  0.039450708            2 
  606000    1.1406646   -6.6203265     277.2921  0.038131477  0.039437667            5 
  607000     1.125099   -6.6053699    277.58066  0.038108273  0.039424627            2 
  608000    1.1630722   -6.6111869    277.75152  0.038069013  0.039411629            2 
  609000    1.1442851   -6.6120957    277.61876  0.037988336  0.039397911            4 
  610000    1.1434905   -6.6130736      278.389  0.038031284   0.03938361            1 
  611000    1.1469515   -6.6115814    278.18482  0.037941192  0.039369291            6 
  612000    1.1330613   -6.5828892    279.74877  0.038092153  0.039354856            2 
  613000    1.1502648   -6.5926173    279.83496  0.038041729  0.039340778            2 
  614000    1.1661922    -6.628663     279.4064  0.037921608  0.039326743            1 
  615000     1.188784   -6.6370989    280.80197  0.038049047  0.039313242            5 
  616000    1.1539449    -6.590877     281.5675  0.038090841  0.039300127            1 
  617000    1.1423053   -6.6142383    281.77821  0.038057565   0.03928687            2 
  618000    1.1480309   -6.6036722    282.89833  0.038147024  0.039273849            3 
  619000    1.1619834   -6.6141976    282.65478  0.038052609  0.039260851            2 
  620000    1.1556319   -6.5991964    282.59909  0.037983749  0.039247715            2 
  621000     1.144821   -6.6297429    283.55485  0.038050838  0.039234967            1 
  622000     1.162575   -6.6207885    283.77115  0.038018643  0.039222659            2 
  623000    1.1649322   -6.6087966    284.54061  0.038060541  0.039210297            4 
  624000    1.1521821   -6.6031141    285.12044  0.038076982  0.039198604            3 
  625000    1.1422082   -6.6413427    285.68159  0.038090879  0.039186913            2 
  626000    1.1300855   -6.6223878    285.51744  0.038008179   0.03917475            2 
  627000    1.1429111   -6.6246475     285.6996   0.03797177  0.039162709            2 
  628000    1.1402146   -6.5777447    287.01806   0.03808626  0.039150619            2 
  629000    1.1529084   -6.6264478    287.06404  0.038031802  0.039138765            3 
  630000     1.150845   -6.6057305    286.65092  0.037916789  0.039127149            1 
  631000    1.1246582   -6.5567992    288.41557  0.038089747  0.039115922            1 
  632000    1.1566941   -6.6031347    287.85591  0.037955684  0.039104348            3 
  633000    1.1585423   -6.5710867    290.18802   0.03820274   0.03909313            3 
  634000    1.1666019   -6.5823236    289.28158  0.038023341  0.039081889            1 
  635000    1.1311635   -6.6051936    289.22971  0.037956655  0.039070167            2 
  636000    1.1520316   -6.6030855    289.52571  0.037935758  0.039058602            4 
  637000    1.1544606   -6.6067468    289.79783  0.037911804  0.039046536            3 
  638000    1.1355483   -6.6162429    290.68757  0.037968596  0.039034255            1 
  639000      1.16076   -6.6341759    290.42278  0.037874646  0.039022218            2 
  640000    1.1514689   -6.6345381    290.80218  0.037864867  0.039010157            2 
  641000    1.1417667   -6.6140017    291.59366  0.037908692  0.038998281            3 
  642000    1.1543587   -6.5480147    291.57571  0.037847314  0.038985982            3 
  643000     1.133969   -6.5773766    293.42441  0.038028048  0.038974167            3 
  644000    1.1452614   -6.5995035    291.71305  0.037747548  0.038962168            3 
  645000    1.1492128   -6.6274284    293.67799  0.037942893   0.03894942            7 
  646000    1.1642751   -6.6131711    293.12161  0.037812385  0.038936828            3 
  647000    1.1460373    -6.629112    293.32764  0.037780479  0.038923778            3 
  648000    1.1551626   -6.6375481    293.41087  0.037732879  0.038911125            1 
  649000    1.1281646    -6.615413    294.58431  0.037825413  0.038898305            4 
  650000    1.1138863   -6.6197126    294.43203  0.037747697  0.038885853            2 
  651000    1.1343429   -6.6413005    294.31269  0.037674436  0.038873341            3 
  652000    1.1308546   -6.6114773    294.95382  0.037698597  0.038861348            2 
  653000    1.1570033   -6.5520984    297.05071  0.037908462  0.038849395            1 
  654000    1.1717878   -6.6472117    295.65727  0.037672945  0.038837197            1 
  655000    1.1553425   -6.6165853    295.74951  0.037627164  0.038824981            2 
  656000    1.1459767   -6.5816025    296.63384  0.037682145  0.038812658            1 
  657000    1.1362748   -6.6086671    296.15895  0.037564555  0.038800754            1 
  658000    1.1358245   -6.6485994    297.09641  0.037626192  0.038787986            1 
  659000    1.1291276   -6.6356916    296.53735    0.0374984  0.038774666            2 
  660000      1.14571   -6.6255027    298.26478  0.037659694  0.038762258            3 
  661000    1.1503181   -6.6113704    298.76752  0.037666101  0.038749603            5 
  662000    1.1507373    -6.642409    298.58568  0.037586314  0.038736861            2 
  663000    1.1297884   -6.6482429    299.30585  0.037620142  0.038723764            2 
  664000     1.142729   -6.6278066    299.97367  0.037647298  0.038711137            1 
  665000    1.1720124   -6.6274937    299.35153  0.037512723  0.038698433            2 
  666000    1.1633693   -6.6330658    300.67891  0.037622486  0.038685724            2 
  667000    1.1531065   -6.6435188     300.8164  0.037583258  0.038673373            4 
  668000    1.1138929    -6.621402    301.56464  0.037620339  0.038661265            2 
  669000    1.1485776   -6.6261528     301.6443  0.037574028  0.038649054            3 
  670000    1.1377988   -6.6237248    302.23023  0.037590824  0.038636437            4 
  671000    1.1501656   -6.6314404     303.2336  0.037659414  0.038624589            3 
  672000    1.1464714   -6.6151028    303.56285  0.037644203  0.038612596            4 
  673000    1.1402122   -6.6475797    303.93763  0.037634674  0.038601057            2 
  674000    1.1254566   -6.6546379    303.26664  0.037495875  0.038589319            3 
  675000    1.1163545    -6.635416    303.82218   0.03750891  0.038577841            3 
  676000    1.1443467   -6.6255876    305.36768  0.037643945  0.038566504            1 
  677000    1.1360334   -6.6222225    304.84739  0.037524297   0.03855532            3 
  678000    1.1335398   -6.6457981    305.09289  0.037499126  0.038544002            2 
  679000    1.1214368   -6.6274357    306.71125   0.03764252  0.038532833            2 
  680000    1.1203992   -6.6303445    308.11366  0.037759027  0.038521905            2 
  681000    1.1291458   -6.6160672    308.53464  0.037755096  0.038511227            3 
  682000    1.1188525   -6.6157038    308.30667  0.037671881  0.038500587            1 
  683000    1.1458629   -6.6237919    308.38512  0.037626296  0.038489922            3 
  684000    1.1284536   -6.6266759    308.87613  0.037631108  0.038479244            4 
  685000    1.1496039    -6.644537    309.48835  0.037650651   0.03846887            5 
  686000     1.151873   -6.6389553    309.22797  0.037564137  0.038458445            2 
  687000    1.1295097   -6.6451013    309.98751   0.03760159  0.038447947            3 
  688000    1.1539068   -6.6399697    309.47188  0.037484482  0.038437522            1 
  689000    1.1531187   -6.6239993    310.89428  0.037602114  0.038426918            3 
  690000    1.1100676   -6.6435599    311.22245  0.037587252  0.038416475            5 
  691000    1.1293515   -6.6222274    312.15888  0.037645789  0.038406475            3 
  692000    1.1543792   -6.6436853    312.28676  0.037606787   0.03839624            2 
  693000    1.1575724   -6.6159957    312.16523  0.037537907  0.038385606            3 
  694000    1.1282716    -6.608717    312.20775  0.037488923  0.038375443            1 
  695000    1.1323537   -6.6447519    313.01774  0.037532103   0.03836514            5 
  696000    1.1295345   -6.6487676    313.35963  0.037519112  0.038354804            5 
  697000    1.1348836   -6.6208357    313.44529  0.037475524  0.038344492            1 
  698000    1.1452235   -6.6755654    313.52151  0.037430935  0.038333882            4 
  699000    1.1369109   -6.6498314    314.43028  0.037485727  0.038323506            2 
  700000     1.139217   -6.6294666    315.16519  0.037519665  0.038313392            3 
  701000    1.1221103   -6.6409923     315.3112    0.0374835  0.038303228            3 
  702000    1.1393428   -6.6410515    316.56507  0.037578949  0.038293207            3 
  703000    1.1463025   -6.6461998    316.10593  0.037471068  0.038283302            2 
  704000    1.1528166   -6.6489964    316.64625    0.0374818  0.038273533            2 
  705000    1.1226422   -6.6457855    317.17369   0.03749098  0.038263793            1 
  706000    1.1146291   -6.6636954    317.55279  0.037482623  0.038253605            1 
  707000    1.1293874   -6.6627704    317.39066  0.037410497  0.038243566            1 
  708000    1.1414291   -6.6502751    318.65385  0.037506338  0.038233415            3 
  709000    1.1227331   -6.6079467    319.26801  0.037525624   0.03822374            2 
  710000    1.1335181   -6.6267108    319.55427  0.037506369  0.038213791            3 
  711000    1.1366774   -6.6619641    318.83955  0.037369849  0.038203274            5 
  712000    1.1438566   -6.6723627    319.38291  0.037380959  0.038193104            3 
  713000    1.1265905   -6.6208931    319.86489  0.037384863  0.038183066            4 
  714000    1.1211371   -6.6328578    321.00488  0.037465555  0.038172772            3 
  715000    1.1357428   -6.6358495    321.02859  0.037415919  0.038162723            2 
  716000    1.1216549   -6.6759525    321.00422  0.037360826  0.038152885            2 
  717000    1.1500043    -6.598472    321.80951  0.037402315  0.038142944            3 
  718000    1.1338098   -6.6672199    321.80354  0.037349528  0.038132922            3 
  719000    1.1256197   -6.6343962    322.06962  0.037328422  0.038123143            2 
  720000    1.1218594   -6.6370312    323.31833  0.037421103  0.038113925            2 
  721000    1.1183663   -6.6203371    323.90964  0.037437545   0.03810441            1 
  722000     1.145986   -6.6368252    324.81257  0.037489909  0.038095048            3 
  723000     1.133652   -6.6415873    323.66296  0.037305551  0.038085373            3 
  724000    1.1638584   -6.6569607    323.75732  0.037264885   0.03807532            2 
  725000    1.1225854   -6.6378957    323.89768  0.037229618  0.038064622            2 
  726000    1.1128576   -6.6414365    322.82352  0.037055041  0.038054083            2 
  727000    1.1387137   -6.6612152    325.26401  0.037283816  0.038043281            2 
  728000    1.1437419   -6.6547739    324.99009  0.037201247  0.038032625            2 
  729000    1.1482847   -6.6202339    326.47506  0.037319965  0.038021971            2 
  730000    1.1408639    -6.641056    325.54331  0.037162479  0.038010928            3 
  731000    1.1242844   -6.6499797    326.02011  0.037165995  0.037999777            3 
  732000    1.1268588   -6.6719625    326.86656  0.037211584  0.037988859            3 
  733000    1.1206325   -6.6318302     327.9916  0.037288722  0.037978465            4 
  734000    1.1360585   -6.6281848    327.83172  0.037219769  0.037968101            1 
  735000    1.1433261    -6.655089    327.93073  0.037180355  0.037957591            1 
  736000    1.1408203    -6.647007    329.35676    0.0372913  0.037947278            5 
  737000    1.1635392   -6.6486591    327.81544  0.037066423  0.037937179            2 
  738000     1.139575   -6.6378015    329.37036  0.037191775  0.037927194            3 
  739000    1.1543525   -6.6751268    328.54697  0.037048598   0.03791678            6 
  740000    1.1162295    -6.655947    329.88692  0.037149428  0.037906002            2 
  741000    1.1383832   -6.6650318    328.95229  0.036994184   0.03789542            1 
  742000    1.1255589   -6.6928396    329.78605  0.037037966  0.037884498            4 
  743000     1.132397   -6.6363107    330.31152  0.037047053  0.037873672            1 
  744000    1.1346143   -6.6623108    330.39597  0.037006717  0.037862459            2 
  745000    1.1371222    -6.668356    330.76068  0.036997839  0.037851072            2 
  746000    1.1135774   -6.6308607    330.93201  0.036967382  0.037840288            3 
  747000    1.1312547   -6.6486424    331.55685  0.036987601    0.0378295            3 
  748000    1.1417266   -6.6357416    332.38372  0.037030272  0.037818537            2 
  749000    1.1288794   -6.6197977     332.9971  0.037049077  0.037807729            3 
  750000    1.0943233    -6.666441    333.03042   0.03700338   0.03779669            4 
  751000    1.1383559      -6.6705     333.1107  0.036963015  0.037785484            3 
  752000    1.1261825   -6.6472403    333.71984  0.036981365  0.037773992            6 
  753000    1.1162187   -6.6647439    333.65064  0.036924595  0.037763034            2 
  754000     1.127618   -6.6518131    334.22769    0.0369394  0.037752008            2 
  755000    1.1150745   -6.6476878    334.14199  0.036881014  0.037741122            3 
  756000    1.1470942   -6.6576981    334.27862  0.036847291  0.037729817            1 
  757000    1.1324611   -6.6450472    335.71922  0.036957202  0.037718583            2 
  758000    1.1220717   -6.6657028    334.87101  0.036815195  0.037707736            2 
  759000    1.1171094   -6.6667813    336.65182  0.036962212  0.037696928            1 
  760000    1.1435578   -6.6574154    336.95768  0.036947114  0.037686563            4 
  761000    1.1341591   -6.6566964    337.31015   0.03693716  0.037676517            2 
  762000    1.1590711   -6.6669417    337.69922  0.036931236  0.037666001            2 
  763000    1.1378321   -6.6499787    337.97493  0.036912946  0.037655564            3 
  764000    1.1431595    -6.653471    339.00757  0.036977266  0.037644997            2 
  765000    1.1439416   -6.6761612    339.07228  0.036935978  0.037634713            6 
  766000    1.1401042   -6.6484428     340.3263  0.037024184  0.037624694            2 
  767000    1.1286888   -6.6036083    341.38159  0.037090568  0.037614979            2 
  768000    1.1610333   -6.6403229    341.15261  0.037017427  0.037605435            2 
  769000    1.1199067   -6.6472931    341.17232  0.036971426  0.037595412            2 
  770000    1.1272809   -6.6430279    341.08237  0.036913677  0.037585782            1 
  771000    1.1358861   -6.6883807    340.87375   0.03684325  0.037575957            2 
  772000    1.1202287   -6.6648179    341.88794  0.036905002  0.037566009            2 
  773000    1.1279956    -6.671454    342.67832  0.036942467  0.037556199            2 
  774000    1.1307874   -6.6502552    342.51225  0.036876857  0.037546026            2 
  775000    1.1067801   -6.6882574    342.73792   0.03685354  0.037535954            2 
  776000    1.1168258   -6.6584375    343.40135  0.036877292  0.037526389            5 
  777000    1.1301566   -6.6301879    343.69569  0.036861399  0.037516741            2 
  778000    1.1333916   -6.6603749    343.98921  0.036845459  0.037506546            2 
  779000    1.1055137   -6.7023526    343.93834  0.036792719  0.037496251            4 
  780000    1.1447002   -6.6429018    342.70394  0.036613669  0.037485529            2 
  781000    1.1285071   -6.6227146    345.33785  0.036847829  0.037475203            1 
  782000    1.1278381   -6.6727707      344.501   0.03671153  0.037464572            1 
  783000    1.1281453   -6.6621127    346.05245  0.036829763    0.0374541            2 
  784000    1.1212096    -6.717295    345.91472  0.036768146  0.037443952            2 
  785000    1.1147698   -6.6362496    348.32827  0.036977523  0.037434092            1 
  786000    1.1384857   -6.6309638    347.77511  0.036871831   0.03742412            4 
  787000    1.1469746   -6.6269364    347.50488  0.036796365  0.037414307            3 
  788000    1.1437451   -6.6547206    346.34245  0.036626739  0.037404128            3 
  789000    1.1102088   -6.6580249    349.07853  0.036869299  0.037393804            1 
  790000    1.1065898   -6.6769353    348.40773   0.03675187  0.037383671            2 
  791000    1.1407156   -6.6685348    347.86572  0.036648306  0.037373341            2 
  792000    1.1296735   -6.6463741    348.69533  0.036689324  0.037363394            2 
  793000    1.1168211   -6.6631671    348.88007   0.03666247  0.037353208            6 
  794000    1.1330807   -6.6690815    349.73707  0.036706241  0.037343052            2 
  795000    1.1139408   -6.6640863    348.78341  0.036560106  0.037333118            1 
  796000     1.144957   -6.6593776    350.39096   0.03668247  0.037323309            2 
  797000    1.1101601   -6.6664857    351.80582  0.036784381  0.037313956            3 
  798000    1.1145626   -6.6587915    352.78567  0.036840609  0.037304698            3 
  799000     1.130113   -6.6682164    351.29238  0.036638754  0.037295466            4 
  800000    1.1133749   -6.6103664    353.03601  0.036774585  0.037286282            1 
  801000    1.1452508   -6.6684449    352.63698  0.036687159  0.037276935            1 
  802000    1.1157804   -6.6358646    353.82319  0.036764671  0.037267315            6 
  803000    1.1527362   -6.6385522    354.76813  0.036816949  0.037257828            1 
  804000    1.1100665   -6.6708458    353.57804  0.036647807  0.037249026            4 
  805000    1.1106717    -6.618854    355.50581  0.036801844  0.037239935            3 
  806000    1.1314929   -6.6413967    354.68085   0.03667089  0.037230941            3 
  807000    1.1080087   -6.6644932    354.48444  0.036605168  0.037221884            3 
  808000    1.1221326   -6.6903192    355.30495  0.036644487  0.037212293            4 
  809000     1.154996   -6.6833807    354.99905  0.036567681  0.037202404            2 
  810000    1.1116765   -6.6633845    355.58342  0.036582656  0.037192806            2 
  811000    1.1235091   -6.7066049    355.15767  0.036493801  0.037182968            2 
  812000    1.1154379   -6.6780996     356.1083  0.036546418  0.037172895            3 
  813000    1.1460858   -6.6867205    356.74986  0.036567226  0.037163013            1 
  814000    1.1304396    -6.677283    356.17506  0.036463458  0.037153457            3 
  815000    1.1214509   -6.6668978    358.43072  0.036649358  0.037143954            2 
  816000    1.1189043    -6.666348    358.17981  0.036578821  0.037134624            3 
  817000    1.0853357   -6.6692573    358.20675  0.036536797  0.037125202            2 
  818000    1.1178563    -6.648752     359.4633  0.036620141  0.037115707            2 
  819000    1.1291125   -6.6716506    359.29702  0.036558508  0.037105964            4 
  820000    1.1363987     -6.71211    359.31802  0.036516059  0.037096226            4 
  821000    1.1379711   -6.6527211    359.18392   0.03645797  0.037086424            3 
  822000    1.0953726   -6.6424909    359.31581  0.036426988   0.03707695            6 
  823000    1.1332542   -6.6403999    359.62556   0.03641409  0.037067208            3 
  824000    1.1262625   -6.6601963    359.78698  0.036386224  0.037057301            3 
  825000    1.1207213    -6.694101    360.81399  0.036445857  0.037047582            1 
  826000    1.1150141   -6.6724852    361.59191  0.036480217  0.037037816            2 
  827000    1.1204831   -6.6452864    362.81203  0.036559051  0.037028319            2 
  828000    1.1203904   -6.6628913    361.23027  0.036355703   0.03701867            3 
  829000    1.0984789   -6.6722504    363.12122  0.036501932  0.037009129            4 
  830000    1.1382606   -6.6501207    363.37225  0.036483157  0.036999534            1 
  831000    1.1144119   -6.7111121    363.53322  0.036455397  0.036990149            3 
  832000    1.1280335   -6.6383853    364.03104  0.036461443  0.036980814            3 
  833000    1.1279735   -6.6734531    364.54592   0.03646918  0.036971716            4 
  834000    1.1159146   -6.6345701     366.0218  0.036572921  0.036962438            1 
  835000    1.0977078   -6.7009776    365.54866  0.036481902  0.036953106            1 
  836000    1.1210892   -6.6413495     366.0941  0.036492633  0.036943793            3 
  837000    1.0931585   -6.6727112    365.12484  0.036352533   0.03693472            2 
  838000    1.1258575   -6.6719331    366.49941  0.036445845  0.036925634            5 
  839000      1.10327   -6.6579547    366.28509  0.036381117   0.03691683            5 
  840000     1.128722    -6.699574    366.37426  0.036346652  0.036908105            3 
  841000    1.1279707   -6.6386231    368.52513   0.03651656  0.036899339            4 
  842000    1.1206064   -6.6885303    367.41384  0.036363206  0.036890774            3 
  843000    1.1167498    -6.644295    369.18882  0.036495534  0.036881992            2 
  844000    1.1086916   -6.6498571    369.85887  0.036518451  0.036873254            3 
  845000    1.1250584   -6.6905279    368.50292  0.036341511  0.036864192            2 
  846000    1.1357852   -6.6736651    369.67113  0.036413626  0.036855381            4 
  847000    1.1041266   -6.6996771    369.97115  0.036400152  0.036846724            2 
  848000    1.1342305   -6.6860718    371.01512   0.03645982  0.036838168            2 
  849000    1.1113153   -6.7144162    370.26433  0.036343181   0.03683009            2 
  850000    1.1338209    -6.658284    372.04043  0.036474552  0.036821726            4 
  851000    1.1080432   -6.7123738    369.81772  0.036214035  0.036813129            2 
  852000    1.1169659   -6.7054552    371.57069  0.036342986   0.03680443            2 
  853000    1.1188078   -6.6936316    372.32206  0.036373784  0.036795715            3 
  854000    1.1035519   -6.7058319    371.70092  0.036270582  0.036786598            3 
  855000    1.1330653   -6.6780326    371.53598  0.036212084  0.036777585            1 
  856000     1.078787   -6.6745079    373.69275  0.036379746  0.036768286            4 
  857000     1.107137   -6.6465797    373.19148  0.036288553  0.036759449            2 
  858000    1.0961359   -6.6421218    373.77594  0.036303025  0.036750222            4 
  859000    1.1106585   -6.6651836    373.64019  0.036247593  0.036741337            2 
  860000    1.0856757   -6.7124904    374.28415  0.036267844   0.03673212            2 
  861000    1.1161267   -6.7100754    373.96686  0.036195012  0.036722738            2 
  862000    1.0912192   -6.7100979     374.6092  0.036215119  0.036713498            4 
  863000    1.1236197   -6.7046984    376.16626  0.036323509  0.036704097            1 
  864000    1.1179918   -6.6511173    375.48693  0.036215946  0.036695241            5 
  865000    1.1201017   -6.6826552    375.19508  0.036145962  0.036686167            3 
  866000    1.1028515    -6.698438    375.58291  0.036141542  0.036677103            1 
  867000    1.1279623   -6.6916405    375.96311    0.0361364  0.036668205            8 
  868000    1.1204284   -6.7165247    377.76854  0.036268101  0.036659318            6 
  869000    1.0655936    -6.652318    378.13049  0.036261075  0.036650701            5 
  870000     1.135984   -6.6836415    377.81409  0.036189089  0.036642079            2 
  871000    1.1315266   -6.7241811    377.70293  0.036136905  0.036633414            3 
  872000    1.1246932    -6.689336    376.75374  0.036004753  0.036624711            3 
  873000    1.1050262   -6.7159433    379.16501  0.036193681  0.036616248            2 
  874000    1.1157261     -6.65862    380.63642  0.036292564  0.036607994            1 
  875000    1.1252477    -6.722233     380.5621  0.036244009  0.036600072            3 
  876000    1.1108532   -6.6936986    381.48635  0.036290558  0.036592302            1 
  877000    1.1096486   -6.7261794    382.31854  0.036328253  0.036584401            4 
  878000     1.104566   -6.7295683    381.67987  0.036226259  0.036576542            1 
  879000    1.0942167   -6.6643251    383.10254  0.036319922  0.036569164            3 
  880000    1.1056601   -6.7140995    382.22246  0.036195308  0.036561374            3 
  881000    1.1228494   -6.7175616    383.20337  0.036247008  0.036553524            2 
  882000    1.1175033   -6.6992726    382.67233  0.036155738  0.036545833            1 
  883000    1.1222018   -6.6810789    384.63933  0.036300427  0.036537938            3 
  884000    1.1328583   -6.6930034    384.20414  0.036218339  0.036529808            2 
  885000    1.0979143   -6.6832859    384.42116   0.03619785  0.036521855            1 
  886000    1.1287686    -6.679118    385.26534  0.036236394  0.036514067            2 
  887000    1.0835592   -6.6925446    385.23355  0.036192555  0.036506317            1 
  888000    1.1175064   -6.7009858    386.90397  0.036308555   0.03649867            4 
  889000    1.1059482   -6.6984922    386.71131  0.036249654  0.036491047            2 
  890000     1.106815    -6.704139    386.09971  0.036151658  0.036483233            2 
  891000    1.1054004   -6.7281611    385.97664  0.036099574  0.036475057            3 
  892000    1.1055506   -6.6792796    386.94413  0.036149489  0.036467068            2 
  893000    1.0906072   -6.7006011    385.86503  0.036008308  0.036458422            2 
  894000    1.1039157     -6.69118    387.11648  0.036084683  0.036450005            3 
  895000    1.1036489   -6.6677765    387.93571  0.036120643  0.036441699            5 
  896000     1.099053   -6.6735695    387.57043  0.036046357  0.036433268            3 
  897000    1.1102483   -6.7036413    387.86275  0.036033329  0.036424811            4 
  898000    1.1012704    -6.659063    389.46424  0.036141819  0.036416207            2 
  899000    1.1175979     -6.67537    388.81946  0.036041848   0.03640773            2 
  900000    1.1232762   -6.6915663    388.74406   0.03599482  0.036399589            2 
  901000    1.1019088   -6.6787699    388.85004  0.035964673  0.036391243            3 
  902000    1.1031798   -6.6794481    390.13359  0.036043384  0.036383082            2 
  903000    1.0761724   -6.7164703    389.20086  0.035917392  0.036375037            2 
  904000     1.115499   -6.7015802    390.71631  0.036017359  0.036366798            3 
  905000    1.1174233   -6.7114871     392.0909  0.036104134  0.036358578            4 
  906000    1.0952486   -6.6942828    391.75944  0.036033797   0.03635065            1 
  907000    1.1259563   -6.7055545    392.45953  0.036058392  0.036342599            1 
  908000    1.1186079   -6.6867689    392.63138  0.036034451  0.036334776            2 
  909000    1.1076594   -6.7112089    392.92282  0.036021528  0.036326889            4 
  910000    1.1251053   -6.6805367    392.80768  0.035971399  0.036319155            1 
  911000    1.1166079   -6.7035879    394.35272  0.036073245  0.036311446            2 
  912000    1.1313897    -6.722329    394.49959  0.036047111  0.036303699            2 
  913000    1.1044088   -6.7088592    394.20257  0.035980519  0.036295557            3 
  914000    1.1332881   -6.7232073    394.79824  0.035995464  0.036287522            2 
  915000    1.1060599   -6.7067791    395.13017  0.035986355  0.036279566            4 
  916000    1.1016369   -6.6924775    394.62405  0.035901024  0.036271215            1 
  917000     1.119961    -6.706047    395.97841  0.035984952  0.036263139            3 
  918000    1.0989408     -6.68907    397.04817  0.036042862  0.036255277            3 
  919000    1.1000564   -6.7015668    397.05297  0.036004078  0.036247434            3 
  920000    1.0961724   -6.7041576    396.09587  0.035878249  0.036239523            3 
  921000    1.0905541   -6.7137901    396.79808   0.03590283   0.03623163            3 
  922000    1.0823273   -6.6849027     395.9147  0.035784047  0.036223356            2 
  923000    1.1032412    -6.726308    395.54006  0.035711454  0.036215248            2 
  924000    1.0908639   -6.7318033    396.37674  0.035748263  0.036206786            3 
  925000    1.0835333    -6.727978    396.93463  0.035759877  0.036198447            2 
  926000    1.1122308   -6.6766316    399.09752  0.035915903  0.036189955            2 
  927000    1.1242353   -6.7335849    398.04587  0.035782621  0.036181829            2 
  928000    1.0909185   -6.6835862    398.98192  0.035828118  0.036173495            2 
  929000    1.1003547   -6.7650797    398.07826  0.035708491  0.036164866            2 
  930000    1.1322504   -6.7022634    399.74805  0.035819718   0.03615611            3 
  931000    1.0834563   -6.7127402    399.74078  0.035780593  0.036147369            2 
  932000    1.0991637   -6.6919786    399.96576  0.035762318  0.036138781            2 
  933000    1.1090214   -6.7081974    399.75416  0.035705088  0.036129806            3 
  934000    1.1068176   -6.7125513    401.11492  0.035788269  0.036121171            5 
  935000    1.0908204   -6.7055312    400.43986  0.035689827  0.036112508            3 
  936000     1.103118   -6.7391322     400.4767  0.035654977  0.036103825            2 
  937000    1.0896554   -6.7452634     401.5578  0.035713074  0.036095335            4 
  938000    1.0725701   -6.7600288    401.56259  0.035675425  0.036086807            2 
  939000    1.1093145   -6.7157053    402.33217  0.035705731  0.036078251            1 
  940000    1.0880677   -6.7168256    401.77748  0.035618571   0.03606945            2 
  941000    1.1154769   -6.7219202    402.15432  0.035614091  0.036060638            4 
  942000    1.1291259   -6.7301513    401.89899  0.035553697  0.036051651            4 
  943000    1.0675442   -6.7109131     403.1215  0.035624028  0.036042746            4 
  944000    1.0583049   -6.6842254    402.48545  0.035530142  0.036033704            3 
  945000    1.1079184   -6.7146139    403.90689  0.035617891  0.036024412            2 
  946000    1.1102922   -6.7014603    403.50195  0.035544569  0.036015157            1 
  947000    1.1064706   -6.7084266    404.00889  0.035551645  0.036006012            3 
  948000    1.0919563   -6.6963772    403.39554  0.035460227  0.035996434            4 
  949000    1.1140422   -6.7053157    403.28157  0.035412853  0.035986766            2 
  950000    1.0945713   -6.7277274    404.27602  0.035462808  0.035976949            2 
  951000    1.0905972   -6.7236692    403.34854  0.035344247  0.035967354            5 
  952000    1.0884106   -6.6940712    404.26364  0.035387223  0.035957643            3 
  953000    1.0986465   -6.7344882    404.78582  0.035395752  0.035947822            2 
  954000    1.0772488   -6.7332027    403.24641  0.035224179  0.035938116            2 
  955000    1.0792288   -6.6738109    404.11496  0.035263086  0.035928286            2 
  956000    1.0991968   -6.7121109    404.52639  0.035262064  0.035918472            2 
  957000    1.1015909   -6.7101933    405.77639  0.035334063  0.035908265            2 
  958000    1.1132812   -6.7154539    404.82508  0.035214429   0.03589803            1 
  959000    1.1102974   -6.6974978    405.81292  0.035263549  0.035887837            2 
  960000    1.1090834   -6.7049516    405.63748  0.035211587  0.035877513            4 
  961000    1.0787117   -6.7557737    405.11033  0.035129234  0.035867239            2 
  962000    1.0560874   -6.6644818      407.187  0.035272609  0.035857044            5 
  963000    1.1137236    -6.678777     407.5965  0.035271418  0.035846759            2 
  964000    1.1152213   -6.7001168    407.63516  0.035238171  0.035836518            2 
  965000    1.0927302   -6.7016915    407.75133  0.035211687   0.03582644            4 
  966000    1.1073909    -6.710399    408.71225  0.035258131  0.035816219            2 
  967000    1.0829332   -6.7251286      406.963  0.035070924  0.035805959            3 
  968000    1.0956672   -6.7051078    408.06368  0.035129449  0.035795746            3 
  969000    1.1179916   -6.7124344    407.35721   0.03503244  0.035785153            5 
  970000     1.108833   -6.7315743    408.52992  0.035097072  0.035774484            3 
  971000    1.1026138   -6.6959697    408.23615  0.035035715  0.035763967           12 
  972000    1.0998965   -6.6982866    408.42835  0.035016148  0.035753152            1 
  973000     1.090067   -6.6745406    410.24854  0.035136052  0.035742567            2 
  974000    1.0706338   -6.7084647    409.22127  0.035012086  0.035731971            3 
  975000    1.0926132   -6.7121652    410.26814  0.035065653  0.035721222            1 
  976000    1.0910827   -6.7014678    410.50031  0.035049548  0.035710883            2 
  977000    1.1156545   -6.6942307    412.24508  0.035162494  0.035700582            2 
  978000    1.1039396   -6.7209118    410.73151  0.034997573  0.035690166            2 
  979000    1.0961765   -6.6903746    411.61676  0.035037177  0.035679636            5 
  980000    1.0913908    -6.733863    411.45064  0.034987299  0.035669097            2 
  981000    1.1091557   -6.7182778    412.59685  0.035049002  0.035658333            3 
  982000    1.1142479   -6.7259896    413.23166  0.035067181  0.035647693            2 
  983000    1.0973293   -6.7170306    412.51937  0.034971123  0.035637071            5 
  984000    1.0951178   -6.7437299    413.04204  0.034979847  0.035626598            2 
  985000    1.0706217   -6.7105361    412.58106  0.034905335  0.035616109            2 
  986000    1.0878919   -6.7221884    413.68347  0.034963106  0.035605727            2 
  987000    1.0948194   -6.7213759    413.27334  0.034893055  0.035595222            2 
  988000     1.103457   -6.7336502    414.79138  0.034985777  0.035584825            3 
  989000    1.0954211   -6.6986286    414.46521  0.034922919  0.035574237            4 
  990000     1.086801   -6.7130924    416.63927  0.035070645  0.035563716            3 
  991000    1.0667293    -6.688481    414.41097  0.034847879  0.035553227            1 
  992000    1.0944855   -6.7498652    416.54209  0.034991775  0.035542544            4 
  993000    1.0933668    -6.710667    414.33737  0.034771515  0.035531748            3 
  994000    1.0881145    -6.748678     414.9562  0.034788414  0.035520748            2 
  995000    1.0823591   -6.7116671    416.73239   0.03490221  0.035510251            8 
  996000    1.0732729   -6.7155823    417.74039  0.034951505   0.03549982            3 
  997000     1.081556   -6.7123723     417.7099    0.0349139  0.035489663            7 
  998000    1.0950019   -6.7342276    417.26847  0.034842056  0.035479326            3 
  999000    1.1018812   -6.7575754    418.10375  0.034876856  0.035469031            4 
 1000000    1.0801025   -6.7369718    418.41092  0.034867577  0.035458668            3 
 1001000    1.0934134   -6.7075293    418.62838  0.034850848  0.035448469            3 
 1002000     1.080147   -6.7340635    419.61664  0.034898257  0.035438047            3 
 1003000    1.0959188   -6.7038872    419.39728  0.034845238  0.035427613            2 
 1004000    1.0828362    -6.744936    419.14702   0.03478976  0.035417299            2 
 1005000    1.1045515   -6.7470326    420.48337  0.034865951  0.035407204            2 
 1006000    1.0993302   -6.7014623    419.57385  0.034755952   0.03539722            4 
 1007000    1.1085537   -6.7099856    420.97346  0.034837261  0.035387187            2 
 1008000     1.088778   -6.6932231    421.56834   0.03485188  0.035377343            1 
 1009000    1.0900608    -6.713371    421.09218  0.034778013  0.035367399            3 
 1010000    1.0872988   -6.7255645    421.91073  0.034811116  0.035357618            2 
 1011000    1.0647077   -6.7169415    422.25193  0.034804808  0.035347689            3 
 1012000    1.0699484   -6.7351073    422.68998  0.034806487  0.035337538            2 
 1013000    1.0670418   -6.7393987    422.51245  0.034757523  0.035327518            3 
 1014000    1.0906972   -6.7212543    424.45659   0.03488302  0.035317686            2 
 1015000    1.0934043    -6.710841    424.93612  0.034888023   0.03530783           11 
 1016000     1.078475   -6.7708628    423.15277  0.034707412  0.035297903            1 
 1017000    1.1070091   -6.7185613    426.11142  0.034915718  0.035288105            3 
 1018000    1.0720393   -6.7292868     423.7666  0.034689473  0.035278461            3 
 1019000    1.0733162   -6.7119026    426.57158   0.03488482  0.035268848            3 
 1020000    1.0954968   -6.7244285    427.77372  0.034948834  0.035259473            4 
 1021000    1.0614874   -6.7670644     425.8604  0.034758439  0.035250065            3 
 1022000    1.1088484   -6.7364093    426.34773  0.034764166  0.035240415            2 
 1023000    1.0789523   -6.7338704    426.11676  0.034711369   0.03523073            3 
 1024000    1.0821236   -6.7432506    426.32382  0.034694321  0.035221425            3 
 1025000     1.099726   -6.7094524    427.84191  0.034783895  0.035211923            1 
 1026000    1.0903028   -6.7255698    428.51067   0.03480431  0.035202663            5 
 1027000    1.0732265   -6.7396676    429.56019  0.034855581   0.03519355            1 
 1028000     1.074329   -6.7037942    430.45651  0.034894334  0.035184515            1 
 1029000     1.081479   -6.7439797    430.28781  0.034846761  0.035175741            2 
 1030000    1.1080665   -6.7430209    431.01024  0.034871378  0.035167231            5 
 1031000    1.0744504   -6.7416945    430.61323  0.034805467  0.035158652            2 
 1032000    1.0836811   -6.7439705    430.81103  0.034787712  0.035150096            3 
 1033000     1.077621   -6.7379095    432.09992  0.034858012   0.03514142            2 
 1034000    1.0834528   -6.7284476    432.24113  0.034835681  0.035132824            2 
 1035000     1.072938   -6.7604989    433.09716  0.034870947  0.035124355            2 
 1036000    1.0716795   -6.7413187    434.45284  0.034946336  0.035115919            3 
 1037000    1.0962977   -6.7523715    433.52632   0.03483818  0.035107676            1 
 1038000    1.0841995   -6.7646608    435.82069  0.034988816  0.035099561            1 
 1039000    1.1002434   -6.7105022    436.33214  0.034996162  0.035091484            2 
 1040000     1.079062   -6.7496174    434.37786  0.034805918   0.03508326            7 
 1041000    1.0718394   -6.7445862    435.63424  0.034873058  0.035075247            2 
 1042000    1.1037315   -6.7379926    435.05416  0.034793199  0.035066874            3 
 1043000    1.1102335   -6.7382396    436.43038  0.034869797   0.03505886            2 
 1044000    1.0737876   -6.7118199    437.28402  0.034904535  0.035050844            8 
 1045000    1.0956239   -6.7105289    437.54008  0.034891554  0.035042999            2 
 1046000    1.1037626   -6.7659788     437.9178  0.034888289   0.03503504            6 
 1047000    1.0953074   -6.7371562      439.184  0.034955747  0.035027005            2 
 1048000    1.0900885   -6.7568697    437.75225  0.034808544  0.035019326            2 
 1049000    1.0742299   -6.7705248    437.11065  0.034724392  0.035011523            3 
 1050000    1.0778639   -6.7345025    438.85228  0.034829546  0.035003552            2 
 1051000    1.0730013   -6.7378298    440.59088   0.03493426  0.034995947            1 
 1052000    1.1004998   -6.7091991    440.51028  0.034894667  0.034988305            2 
 1053000    1.0901967   -6.7313067    439.25492  0.034762181   0.03498057            2 
 1054000    1.1108232   -6.7209996    439.77364  0.034770212  0.034972758            2 
 1055000    1.0956314   -6.7092264    441.46082  0.034870523  0.034964979            2 
 1056000    1.0726813   -6.7332288    440.68843  0.034776549  0.034957028            6 
 1057000    1.0975245   -6.7528371    440.77864   0.03475076  0.034949123            2 
 1058000    1.0631635   -6.7382004    442.23323  0.034832485  0.034941308            5 
 1059000    1.0856448   -6.7554314    441.00857  0.034703224  0.034933195           10 
 1060000     1.102774   -6.7620723    442.75604  0.034807865  0.034925136            4 
 1061000    1.1116009   -6.7409618    441.18801  0.034651901  0.034917005            4 
 1062000    1.0751964   -6.7390856    442.29408  0.034706064  0.034908734            3 
 1063000    1.0816836   -6.7330623    441.67776  0.034625099  0.034900499            2 
 1064000    1.0683919   -6.7752517     440.9564  0.034536059  0.034892083            3 
 1065000    1.0804672   -6.7497864    441.74885  0.034565638  0.034883597            5 
 1066000    1.0697799    -6.745324    444.05211  0.034713267  0.034875196            6 
 1067000    1.0899861   -6.7613502    442.77094  0.034580673  0.034866796            3 
 1068000    1.0775116   -6.7336747    444.00068  0.034644248  0.034858425            3 
 1069000    1.0641839   -6.7090295    443.43016  0.034567365  0.034849944            5 
 1070000    1.0884619   -6.7243552    445.23655  0.034675744  0.034841672            2 
 1071000    1.1034849   -6.7926887     443.4722  0.034506084  0.034833266            4 
 1072000      1.07025   -6.7231034    444.38453  0.034544818  0.034824763            2 
 1073000    1.0805063   -6.7006482    446.49197  0.034676294  0.034816582            1 
 1074000    1.0461718   -6.7613295    444.75263   0.03450905  0.034808368            3 
 1075000    1.0872202   -6.7661742    444.01959  0.034420123  0.034800144            1 
 1076000     1.100626   -6.7953284    443.96964  0.034384266   0.03479168            1 
 1077000    1.0806832   -6.7401468    445.49555  0.034470408  0.034783045            5 
 1078000    1.0812608   -6.7570063    445.82413  0.034463832  0.034774493            2 
 1079000    1.0469162   -6.7066584    448.29914  0.034623041  0.034766183            4 
 1080000    1.0741413   -6.7361286    448.34762  0.034594724  0.034757751            2 
 1081000    1.0835074   -6.7717828    447.14947  0.034470357  0.034749208            6 
 1082000    1.0835278    -6.750543    446.27196  0.034370915  0.034740592            2 
 1083000     1.075248   -6.7395993    448.55006  0.034514471  0.034731965            2 
 1084000    1.0920894   -6.7862614    448.04548  0.034443841   0.03472359            2 
 1085000    1.0828179   -6.7781376    448.91766  0.034479083  0.034714989            4 
 1086000    1.0906555   -6.7962421    447.30793  0.034323813  0.034706531            2 
 1087000    1.0750425   -6.7320782    450.39612  0.034528988  0.034698002            6 
 1088000    1.0746631   -6.7553088    448.00061  0.034313772  0.034689514            1 
 1089000    1.0750936   -6.7781127    449.24971  0.034377848  0.034681019            3 
 1090000    1.0631489   -6.7491448    450.43353  0.034436814  0.034672508            7 
 1091000    1.0966493   -6.7506146     450.3967  0.034402436  0.034664097            1 
 1092000    1.0917519   -6.7518246    451.94329  0.034488957  0.034655738            2 
 1093000    1.0545372   -6.7552446    450.87113  0.034375658  0.034647518            3 
 1094000    1.0625457   -6.7682886    451.28098  0.034375455  0.034638921            2 
 1095000    1.0685847   -6.7482507    451.93921  0.034394156  0.034630416            1 
 1096000    1.0687622   -6.7122446    451.84229  0.034355405  0.034621853            3 
 1097000    1.0754376   -6.7884811      453.057  0.034416363  0.034613416            5 
 1098000    1.0875311   -6.7586094    452.54085  0.034345845  0.034604983            1 
 1099000    1.0747198   -6.7643163    452.68673  0.034325654  0.034596283            1 
 1100000    1.0702663   -6.7777138     451.8394  0.034230258  0.034587492            2 
 1101000     1.096176   -6.7691955    452.46825  0.034246764  0.034578781            2 
 1102000    1.0687751   -6.7854229    451.99149  0.034179635  0.034569965            2 
 1103000    1.0828149   -6.7604529    453.97457  0.034298472  0.034561155            3 
 1104000    1.0864425   -6.7434484    453.71344  0.034247693  0.034552618            3 
 1105000    1.0812121   -6.7422135    454.80119  0.034298732  0.034544004            2 
 1106000     1.088469   -6.7249815    454.84366  0.034270921  0.034535607            1 
 1107000    1.0864775   -6.7405417    456.15274  0.034338508  0.034527146            2 
 1108000    1.0632308   -6.7651128    453.45741  0.034104799  0.034518281            3 
 1109000    1.0744461   -6.7979695    455.48994  0.034226777  0.034509476            3 
 1110000    1.0703415   -6.7506046    456.36326  0.034261506  0.034500721            3 
 1111000    1.0735109   -6.7663261    455.98408  0.034202227  0.034492033            3 
 1112000    1.0815439   -6.7908735    455.57448  0.034140774  0.034483327            2 
 1113000    1.0614177   -6.7496432    455.41925  0.034098476  0.034474525            2 
 1114000    1.0830228   -6.7505979    456.77878  0.034169568  0.034465807            1 
 1115000    1.0606489   -6.7598432    457.58784   0.03419939  0.034457273            3 
 1116000     1.061786   -6.7509063    458.53981  0.034239831  0.034448808            2 
 1117000    1.0614473   -6.7573693    458.22133  0.034185417  0.034440523            3 
 1118000    1.0657805   -6.7678262    457.52879  0.034103219  0.034431948            4 
 1119000    1.0503467   -6.7478162    458.01354  0.034108842  0.034423677            3 
 1120000    1.0941729   -6.7520815    459.47453  0.034187093  0.034415275            2 
 1121000    1.0359962     -6.73941    459.54059  0.034161507  0.034406644            4 
 1122000     1.083438   -6.7796481    458.94781  0.034087033  0.034397981            2 
 1123000    1.0556706   -6.7780317    459.12797  0.034070048   0.03438924            3 
 1124000    1.0870986   -6.7964409    458.85275  0.034019332  0.034380646            2 
 1125000    1.0627859   -6.7383813    460.78451  0.034132186  0.034371972            7 
 1126000    1.0636397   -6.7634822    461.22205  0.034134255  0.034363148            3 
 1127000    1.0723112   -6.7925861    459.24618  0.033957866  0.034354384            1 
 1128000    1.0778439   -6.7487005    460.05557  0.033987557  0.034345605            3 
 1129000    1.0801401   -6.7739086    460.94005  0.034022738  0.034336712            2 
 1130000    1.0646139   -6.7566964    461.25272  0.034015687  0.034327683            3 
 1131000     1.075111   -6.7591073    462.23586   0.03405805  0.034318738            3 
 1132000    1.0802527   -6.7475745    461.76886  0.033993585  0.034310009            2 
 1133000    1.0590341   -6.7694081    462.11931  0.033989358  0.034301459            4 
 1134000    1.0730519   -6.7560998    464.08354  0.034103729  0.034292959            4 
 1135000    1.0527483   -6.7515173    462.79526  0.033979094  0.034284498            4 
 1136000    1.0901568   -6.7363261     462.5506  0.033931236  0.034275967            2 
 1137000    1.0545392   -6.8158782    463.13337  0.033944105  0.034267403            2 
 1138000    1.0542134   -6.7737087    464.48121  0.034012977  0.034258891            1 
 1139000    1.0629959   -6.7698061    465.40919  0.034051009  0.034250734            2 
 1140000    1.0823848   -6.7417513    464.71732  0.033970564  0.034242408            3 
 1141000    1.0940237     -6.75047    466.92942  0.034102353  0.034234055            2 
 1142000    1.0719383   -6.7692903    466.09564  0.034011649  0.034225854            3 
 1143000    1.0718418   -6.7850814    464.87964  0.033893237  0.034217418            2 
 1144000    1.0553939   -6.7806228    467.42612  0.034049105  0.034208887            4 
 1145000    1.0692842    -6.756433    465.88432  0.033907155  0.034200233            4 
 1146000    1.0687245    -6.820539    465.19803  0.033827664  0.034191814            5 
 1147000    1.0712707   -6.8154725    466.63234  0.033902379  0.034183213            3 
 1148000    1.0858523   -6.7423991    468.44471  0.034004407   0.03417472            2 
 1149000    1.0547101   -6.7927237    468.91238   0.03400873  0.034166559            2 
 1150000    1.0532189   -6.7416246    470.20562  0.034072871  0.034158461            2 
 1151000    1.0927275     -6.76232    470.38586  0.034056317  0.034150423            2 
 1152000    1.0541529   -6.8170358      469.546  0.033966001  0.034142277            4 
 1153000    1.0584464    -6.762443    470.95084  0.034038077  0.034133977            3 
 1154000    1.0694129   -6.7662816    471.23776  0.034029301  0.034125653            3 
 1155000    1.0688993   -6.7746488    470.47903  0.033945096  0.034117335            2 
 1156000    1.0594899    -6.758622    472.10095  0.034032652   0.03410919            4 
 1157000    1.0822358   -6.7421616    471.60958  0.033967847  0.034101354            2 
 1158000    1.0580898   -6.7813629    471.21782  0.033910321  0.034093504            4 
 1159000    1.0691427   -6.7627294    472.13447  0.033946971  0.034085528            2 
 1160000    1.0620218   -6.8165015    471.51235  0.033873013  0.034077425            3 
 1161000    1.0742285   -6.7473563    472.68532   0.03392803  0.034069359            2 
 1162000     1.046691   -6.7906309    473.66356  0.033968988  0.034061349            2 
 1163000    1.0610011   -6.8048267      473.392  0.033920321  0.034053497            1 
 1164000    1.0933411   -6.7650925    474.93135  0.034001385  0.034045756            3 
 1165000    1.0679588   -6.7394707    474.05836  0.033909754  0.034037973            3 
 1166000    1.1005706   -6.7611371    474.96431   0.03394542  0.034030262            3 
 1167000    1.0644041    -6.825119    473.80432  0.033833499  0.034022314            4 
 1168000    1.0776857   -6.7902631    475.11257  0.033897871  0.034014385            2 
 1169000    1.0639194   -6.7915765    475.68626   0.03390977  0.034006576            2 
 1170000    1.0589268   -6.7881446     475.7292  0.033883846  0.033998835            2 
 1171000    1.0675091   -6.8056969    475.31039  0.033825106  0.033991049            3 
 1172000    1.0677668   -6.8096376    476.20847  0.033860102  0.033983211            3 
 1173000    1.0752182   -6.7643498    477.42365  0.033917565  0.033975544            2 
 1174000     1.068798   -6.7727999    479.44156  0.034031911  0.033968081            4 
 1175000    1.0622058   -6.7670548    478.10783  0.033908357  0.033960523            6 
 1176000    1.0490854   -6.7686874    478.18017  0.033884649  0.033952996            4 
 1177000    1.0974579   -6.7679947    479.16106  0.033925309  0.033945308            1 
 1178000    1.0596595   -6.7711563    476.44493  0.033704367  0.033937649            4 
 1179000      1.06529   -6.8045012    477.59037  0.033756741  0.033929798            3 
 1180000    1.0717524   -6.7857734    478.18942  0.033770439  0.033922197            3 
 1181000    1.0826643   -6.8157947    479.02784  0.033801005  0.033914443            5 
 1182000    1.0648915   -6.7678677    479.78151  0.033825543  0.033906808            3 
 1183000     1.057859   -6.7614636    479.78095  0.033796911  0.033899311            1 
 1184000     1.044752   -6.7421881    481.49114  0.033888735  0.033891806            2 
 1185000     1.065627   -6.7686064    481.08908  0.033831862  0.033884509            6 
 1186000    1.0495903   -6.8033903    480.40036  0.033754944  0.033876836            3 
 1187000    1.0405077   -6.7803179    482.29336  0.033859404  0.033869154            3 
 1188000    1.0483766   -6.7520739    481.75187   0.03379292  0.033861496            3 
 1189000    1.0539527   -6.8026216    480.27036  0.033660665  0.033853787            4 
 1190000    1.0336962   -6.8017412    482.74219  0.033805476  0.033846048            4 
 1191000     1.060023   -6.8205067    482.26528  0.033743722  0.033838347            2 
 1192000     1.042622   -6.7890914    483.49065   0.03380108   0.03383082            2 
 1193000    1.0753054   -6.7998077    481.53441    0.0336361  0.033823233            4 
 1194000    1.0451081   -6.8166204     483.6913  0.033758466  0.033815726            2 
 1195000    1.0357414   -6.8117322    481.13787  0.033552153  0.033808066            5 
 1196000    1.0684299   -6.8036106    484.36235   0.03374877  0.033800375            2 
 1197000    1.0659223   -6.7949183    482.88702  0.033617866  0.033792758            5 
 1198000    1.0727538   -6.8047469    484.15163   0.03367777  0.033784963            4 
 1199000    1.0505679   -6.7668985    484.22948  0.033655093  0.033777089            3 
 1200000    1.0341655   -6.7698948    483.69606  0.033590004  0.033768952            7 
 1201000    1.0483814   -6.7719539    484.76572  0.033636256  0.033760913            6 
 1202000    1.0535261   -6.8151188    483.54821  0.033523864   0.03375259            5 
 1203000    1.0473024   -6.7882769    484.72067  0.033577214  0.033744421            3 
 1204000    1.0733727    -6.805615    485.57711  0.033608604  0.033736289            2 
 1205000    1.0687208    -6.796048    484.55677   0.03351015  0.033728037            2 
 1206000    1.0477819   -6.7728139    485.33025  0.033535811  0.033719674            4 
 1207000      1.07572   -6.7914533    484.05419  0.033419925  0.033711257            7 
 1208000    1.0789631    -6.776232    485.74071  0.033508603  0.033702991            5 
 1209000     1.073933   -6.7859661    485.26102  0.033447823  0.033694705            2 
 1210000    1.0774685   -6.8147707    486.57364  0.033510581  0.033686329            3 
 1211000    1.0393809   -6.7883562    486.83489  0.033500887  0.033678028            2 
 1212000    1.0619915   -6.7730624    486.49855   0.03345012  0.033669725            3 
 1213000      1.05927   -6.7969217    487.74498  0.033508174  0.033661551            2 
 1214000     1.034245   -6.7779293    486.60408  0.033402257  0.033653391            5 
 1215000     1.038663   -6.7940324    488.53035  0.033506882  0.033644944            1 
 1216000    1.0412432    -6.776107    488.81433  0.033498789  0.033636581            4 
 1217000    1.0370432   -6.8153347    487.27562  0.033365901  0.033628091            4 
 1218000    1.0832806   -6.8048318    487.10678  0.033326956  0.033619563            2 
 1219000    1.0466315   -6.7911053    488.88834  0.033421407  0.033611195            3 
 1220000    1.0467713   -6.7932977    489.29563  0.033421833  0.033602806            3 
 1221000    1.0593897   -6.7868758    488.86854  0.033365311  0.033594703            2 
 1222000    1.0564778   -6.8128411    489.24119   0.03336342  0.033586382            2 
 1223000    1.0587438   -6.8246232    488.94334  0.033315845  0.033578171            4 
 1224000    1.0509894   -6.7687395    491.08125  0.033434181  0.033570066            3 
 1225000    1.0652331   -6.8296973    491.62654  0.033443983  0.033561836            3 
 1226000    1.0798157   -6.8349259    490.16792  0.033317558  0.033553614            2 
 1227000    1.0485065   -6.8070621     490.9992  0.033346862  0.033545284            2 
 1228000    1.0715392   -6.7715273    492.65607  0.033432144  0.033537157            2 
 1229000    1.0616546   -6.8179732    491.69483  0.033339764  0.033529091            2 
 1230000    1.0488847   -6.8091801    491.65759  0.033310135  0.033520742            2 
 1231000    1.0592852    -6.787776    492.33761   0.03332911  0.033512589            4 
 1232000    1.0761339   -6.8200299     491.7704   0.03326369  0.033504313            4 
 1233000    1.0625857   -6.8388985    492.56932  0.033290708  0.033496126            7 
 1234000    1.0363492   -6.7908654    492.89133  0.033285476  0.033487915            5 
 1235000    1.0588201   -6.7949152    493.09838  0.033272495   0.03347976            3 
 1236000    1.0871563    -6.799735     493.4972  0.033272465   0.03347158            3 
 1237000    1.0542977   -6.8041636    493.79616  0.033265707  0.033463404            3 
 1238000     1.059018   -6.8024426    494.57295  0.033291124   0.03345535            3 
 1239000    1.0359127   -6.8229337    495.11982  0.033301037  0.033447318            7 
 1240000    1.0332472   -6.7917974    495.78352  0.033318785  0.033439171            2 
 1241000    1.0295763   -6.8113602     496.2993  0.033326571  0.033431182            6 
 1242000    1.0381601    -6.806807    495.59286  0.033252339  0.033423053            3 
 1243000    1.0548621   -6.7894879    496.89264  0.033312727   0.03341503            3 
 1244000    1.0701523   -6.8442408    495.48557  0.033191691  0.033407049            4 
 1245000    1.0380936    -6.800105    496.32139  0.033220977  0.033399012            2 
 1246000    1.0438055   -6.7526747    499.33759   0.03339604  0.033391148            4 
 1247000    1.0554138   -6.7885184    499.62983  0.033388788  0.033383408            3 
 1248000    1.0593705   -6.8333487    497.51706  0.033220957  0.033375519            3 
 1249000    1.0512819   -6.8335115    498.96057  0.033290671  0.033367683            4 
 1250000    1.0310342   -6.8232388    500.74924  0.033383283  0.033360079            3 
 1251000     1.040092   -6.8097421    499.72331  0.033288257  0.033352527            2 
 1252000    1.0197948   -6.7826028    501.11925  0.033354583  0.033344826            2 
 1253000    1.0505346   -6.8095708    500.51331  0.033287664  0.033337355            2 
 1254000    1.0395139   -6.8251748    501.12432  0.033301723   0.03332975            3 
 1255000    1.0303416   -6.8323712    500.11478  0.033208153  0.033322034            9 
 1256000    1.0432563   -6.8179703    503.53041  0.033408334  0.033314513            3 
 1257000    1.0507723   -6.8053637    504.54289  0.033448879  0.033307122            3 
 1258000    1.0398865   -6.8248453    501.52541  0.033222404  0.033299787            5 
 1259000    1.0476063   -6.8025291    502.60367  0.033267386  0.033292302            2 
 1260000     1.068438   -6.8017144    505.44447  0.033428867  0.033284867            5 
 1261000    1.0513636   -6.8080236    503.28578    0.0332597  0.033277725            4 
 1262000    1.0674808   -6.8169793    503.62383  0.033255667  0.033270432            4 
 1263000    1.0565593   -6.8154714    504.59226  0.033293234  0.033262963            2 
 1264000     1.050555   -6.7860221    504.43386  0.033256452  0.033255448            7 
 1265000     1.038235   -6.8138848    504.43021  0.033229921  0.033248097            4 
 1266000    1.0464242   -6.8220985     504.1733  0.033186763  0.033240601            5 
 1267000    1.0427216   -6.7840201     503.8283  0.033137878  0.033233075            3 
 1268000    1.0152153   -6.8162338    504.39524  0.033149004  0.033225443            1 
 1269000    1.0493825   -6.8098167    504.14312  0.033106325   0.03321768            3 
 1270000     1.042888   -6.8382045    502.45394  0.032969419  0.033209726            2 
 1271000    1.0526385   -6.8403071    504.36425  0.033068729  0.033201733            2 
 1272000    1.0346195   -6.8526879    505.53317  0.033119311  0.033193849            2 
 1273000    1.0254083   -6.7877927    506.27061  0.033141569  0.033186145            1 
 1274000    1.0309924   -6.7787961    505.80824  0.033085311  0.033178445            3 
 1275000    1.0321896    -6.836237     507.2913  0.033156294  0.033170628            2 
 1276000    1.0802944   -6.8218818     507.2689  0.033128847  0.033162837            2 
 1277000    1.0580301   -6.7971778    507.93876  0.033146617  0.033155206            2 
 1278000    1.0281266   -6.8252468    507.20709  0.033072971  0.033147613            3 
 1279000    1.0712103   -6.7918903    507.73639    0.0330816  0.033139734            3 
 1280000    1.0304114   -6.8025817    507.56909  0.033044863  0.033132052            2 
 1281000     1.044717   -6.7818535    508.95962  0.033109525  0.033124423            3 
 1282000    1.0411374   -6.8252812    509.61705  0.033126433  0.033116829            4 
 1283000    1.0561453   -6.8286407    507.04016   0.03293324  0.033108968            8 
 1284000    1.0501798   -6.8138346    509.62402  0.033075287  0.033100836            2 
 1285000    1.0386716   -6.7956229    509.26701  0.033026395  0.033092969            3 
 1286000    1.0602096   -6.8347788    509.72847  0.033030616  0.033085332            4 
 1287000    1.0179545   -6.8528962    509.86662  0.033013896  0.033077697            5 
 1288000    1.0502357   -6.8235333    510.99034  0.033060969  0.033070012            6 
 1289000    1.0426842   -6.7790381    512.79705  0.033152123   0.03306244            2 
 1290000    1.0613178      -6.7878    512.37442  0.033099123  0.033054989            2 
 1291000    1.0551714   -6.8525652    511.13617  0.032993556  0.033047375            5 
 1292000     1.066029   -6.8124902    513.57634  0.033125409  0.033039977            3 
 1293000    1.0365403   -6.8395565    511.99904  0.032998134  0.033032713            5 
 1294000    1.0438612   -6.8238884    513.02543  0.033038732  0.033025306            4 
 1295000    1.0591739   -6.8339693    512.75238  0.032995649  0.033017792            3 
 1296000    1.0585373   -6.8068756    513.46477  0.033015996  0.033010306            3 
 1297000      1.05767   -6.8468479    513.64029  0.033001817  0.033002762            3 
 1298000    1.0633793    -6.829077    512.40646  0.032897179  0.032995217            1 
 1299000    1.0642005    -6.867387    513.36868  0.032933582  0.032987605            2 
 1300000    1.0355698   -6.8456206    513.23744  0.032899836  0.032979967            5 
 1301000    1.0550084    -6.825856     515.5386  0.033021945  0.032972395            4 
 1302000    1.0436822   -6.8106541    514.72757  0.032944673  0.032965045            1 
 1303000    1.0501353   -6.8225546    514.59062   0.03291063  0.032957729            4 
 1304000    1.0146727   -6.8518602    515.01931  0.032912788  0.032950263            3 
 1305000    1.0498151   -6.8085953    515.65605  0.032928228  0.032942759            9 
 1306000    1.0284284   -6.8479996    516.93511  0.032984629  0.032935323            5 
 1307000    1.0489885    -6.834638    515.38643   0.03286065  0.032927764            4 
 1308000    1.0636412   -6.8521954    515.32759  0.032831778  0.032920106            3 
 1309000     1.058131    -6.836174    515.41293   0.03281213  0.032912236            3 
 1310000    1.0406406   -6.8004896    516.62296  0.032864056  0.032904728            3 
 1311000    1.0505414   -6.8282788    515.26622  0.032752748  0.032897177            2 
 1312000    1.0349084   -6.7959837    518.92544  0.032960203  0.032889648            2 
 1313000    1.0130816   -6.8174689     519.4646  0.032969319  0.032882083            3 
 1314000    1.0336455   -6.8335251    517.50542  0.032819978  0.032874757            1 
 1315000    1.0509616   -6.8423529    517.88601  0.032819139  0.032867199            3 
 1316000    1.0458504   -6.8351311    518.92674  0.032860102  0.032859715            2 
 1317000    1.0581116   -6.8303174    519.82683  0.032892105  0.032852084            3 
 1318000    1.0399438   -6.8183023    519.50611  0.032846871  0.032844773            2 
 1319000    1.0625645   -6.8430791    519.43777  0.032817651  0.032837323            4 
 1320000    1.0407036   -6.8326823    520.57404  0.032864523  0.032829932            3 
 1321000    1.0393484   -6.8269628     519.5959   0.03277794  0.032822598            3 
 1322000    1.0784879   -6.8273508    518.78114  0.032701787  0.032815309            2 
 1323000    1.0470904   -6.8415145    521.14174  0.032825758  0.032807844            4 
 1324000    1.0636917   -6.8614681    520.71723  0.032774247  0.032800521            5 
 1325000    1.0389737   -6.8250291    521.63016  0.032806928  0.032793206            3 
 1326000    1.0305332   -6.8374835    522.07892   0.03281039  0.032785939            3 
 1327000     1.026654   -6.8456303    522.84977  0.032834072  0.032778628            4 
 1328000    1.0575216   -6.8229173    521.80575  0.032743835  0.032771236            2 
 1329000    1.0684231    -6.822584    521.47735  0.032698605  0.032763792            2 
 1330000    1.0315762   -6.8653449    520.97531  0.032642563  0.032756112            4 
 1331000    1.0352051   -6.8405081    520.41485  0.032582948  0.032748417            1 
 1332000    1.0485459   -6.8438842    522.39137  0.032682143  0.032740769            2 
 1333000     1.038835   -6.8258287    522.30563  0.032652265  0.032733116            4 
 1334000    1.0218679   -6.8518527    521.05562  0.032549701  0.032725438            3 
 1335000    1.0325356   -6.8593094    522.88582  0.032639564  0.032717704            3 
 1336000    1.0503183   -6.8325679    523.49664  0.032653233  0.032709843            4 
 1337000    1.0149124   -6.8290728    523.44947  0.032625871  0.032702065            3 
 1338000    1.0494527   -6.8268047    525.05806  0.032701673  0.032694486            2 
 1339000    1.0292089    -6.816374    524.44027  0.032638802  0.032686853            2 
 1340000    1.0511735   -6.8399121    523.91544  0.032581806  0.032679219            1 
 1341000    1.0246353   -6.8755705    524.85132  0.032615667  0.032671475            2 
 1342000    1.0227341   -6.8292862    525.35832  0.032622847  0.032663842            5 
 1343000     1.047634   -6.8287741    524.19767  0.032526537  0.032656271           12 
 1344000    1.0403149   -6.8397348    526.35224  0.032635927  0.032648867            3 
 1345000      1.03828   -6.8412452    526.34689  0.032611332  0.032641266            2 
 1346000    1.0228347   -6.8677312    525.83352   0.03255532  0.032633699            3 
 1347000     1.034111   -6.8782017    526.35409  0.032563356  0.032626245            2 
 1348000     1.026349   -6.8620923    528.11655  0.032648155  0.032618794            3 
 1349000    1.0236986   -6.8397373    527.84151  0.032606962  0.032611442            3 
 1350000    1.0529364   -6.8123279    528.29933   0.03261107  0.032603957            5 
 1351000    1.0172409   -6.8382281    528.14262  0.032577265  0.032596465            5 
 1352000    1.0301988   -6.8245845     529.9924  0.032667184  0.032589019            3 
 1353000    1.0267892   -6.8297491    527.86094   0.03251176  0.032581684            4 
 1354000    1.0497154   -6.8633113    529.52938  0.032590435   0.03257439            2 
 1355000   0.99133561   -6.8328884    528.82653  0.032523157  0.032567087            3 
 1356000    1.0006911   -6.8195188    530.70262  0.032614468  0.032559833            2 
 1357000    1.0471241    -6.831376    531.16077  0.032618568  0.032552489            5 
 1358000    1.0178998    -6.829952    530.45831  0.032551443  0.032545226            3 
 1359000    1.0277985   -6.8395811    529.96818  0.032497436  0.032537702            3 
 1360000    1.0153544   -6.8187454    530.23146  0.032489673   0.03253023            3 
 1361000    1.0485065    -6.830136    531.08774   0.03251823  0.032522691            4 
 1362000     1.024952   -6.8273802    530.50681  0.032458811  0.032515239            5 
 1363000    1.0450143   -6.8408427    530.30972  0.032422947  0.032507548            2 
 1364000    1.0373102   -6.8741306    530.75396  0.032426317  0.032499674            1 
 1365000    1.0359454   -6.8278458    530.49857   0.03238697  0.032491872            4 
 1366000    1.0401608   -6.7993517    530.91072  0.032388404  0.032484238            3 
 1367000    1.0346767   -6.8744377    530.75428  0.032355174  0.032476358            2 
 1368000    1.0152243   -6.8333422    531.08487  0.032351661  0.032468729            4 
 1369000    1.0211858   -6.8299314    533.07992  0.032449472  0.032461127            3 
 1370000     1.033464   -6.8154667    533.14009  0.032429446  0.032453531            3 
 1371000    1.0428518   -6.8590205    533.07464  0.032401814  0.032445878            3 
 1372000    1.0368156   -6.8723984    533.98675  0.032433597  0.032438262            2 
 1373000   0.99264257   -6.8013534    535.27321  0.032488056  0.032430655            4 
 1374000    1.0434102   -6.8625455    532.82876  0.032316155  0.032423235            4 
 1375000    1.0398969   -6.8536952    536.06529  0.032488806  0.032415594            3 
 1376000    1.0296178   -6.8535599    534.64614  0.032379248  0.032408021            3 
 1377000    1.0506876    -6.853188    534.60576   0.03235329  0.032400429            5 
 1378000    1.0236523   -6.8548444    536.59989  0.032450405  0.032392985            3 
 1379000    1.0414539   -6.8658659    534.34935  0.032290872  0.032385276            3 
 1380000    1.0210037   -6.8549072     535.4965  0.032336745  0.032377683            3 
 1381000    1.0294084   -6.8457968    537.04825  0.032406967  0.032370042            2 
 1382000    1.0099092   -6.8369364    535.51198  0.032290882  0.032362368            3 
 1383000    1.0259352   -6.8515656    536.03074  0.032298792  0.032354782            4 
 1384000    1.0093005   -6.8611841    536.06695  0.032277634  0.032347055            3 
 1385000    1.0759555   -6.8793119    534.55703   0.03216348  0.032339269            3 
 1386000   0.98956097   -6.8272938    537.24564  0.032301926  0.032331563            3 
 1387000    1.0252002   -6.8247788    535.94696   0.03220061  0.032323765            3 
 1388000    1.0204126   -6.8554825    537.78763  0.032287922  0.032316031            4 
 1389000    1.0591129   -6.8614667    539.01566  0.032338352  0.032308272            2 
 1390000    1.0267389   -6.8708744    536.90082  0.032188299  0.032300525            2 
 1391000    1.0286959   -6.8978146    537.02553  0.032172629  0.032292533            3 
 1392000    1.0233384   -6.8440421    538.77662  0.032254347  0.032284556            3 
 1393000    1.0363873   -6.8547369    537.40165  0.032148938  0.032276802            2 
 1394000    1.0250782    -6.845834    539.18968  0.032232764  0.032269042            3 
 1395000    1.0369961    -6.837758       539.57  0.032232377  0.032261422            4 
 1396000    1.0286991   -6.8521137    539.05762  0.032178703  0.032253721            3 
 1397000    1.0366759   -6.8684884    541.13668  0.032279688  0.032245999            5 
 1398000    1.0194446   -6.8449742    541.41435  0.032273149  0.032238451            7 
 1399000    1.0278646   -6.8393755    540.83037  0.032215295  0.032230917            4 
 1400000    1.0244984   -6.8588479    540.85192  0.032193567   0.03222341            2 
 1401000    1.0216207   -6.8405866    540.49446  0.032149326  0.032215871            4 
 1402000    1.0361231   -6.8735596    541.47491  0.032184671  0.032208388            3 
 1403000    1.0051639   -6.8408332     542.3893  0.032216043  0.032200762            1 
 1404000    1.0496173   -6.8238189    542.28156  0.032186703  0.032193082            2 
 1405000     1.016332   -6.8711538    540.22105  0.032041581  0.032185525            3 
 1406000    1.0187295   -6.8602582    543.08783  0.032188705  0.032177867            2 
 1407000     1.021616   -6.8582668    541.94873  0.032098361  0.032170153            2 
 1408000    1.0339424   -6.8290333     543.2782   0.03215425  0.032162488            3 
 1409000    1.0142506   -6.8734476    542.12247  0.032063075  0.032154635            2 
 1410000    1.0121699    -6.857878    542.18065  0.032043774  0.032146856            3 
 1411000     1.033422   -6.8782606    541.10962  0.031957809  0.032139044            5 
 1412000    1.0127807   -6.8533243    544.06355  0.032109511  0.032131225            3 
 1413000    1.0328913   -6.8568339     542.1338  0.031972977  0.032123547            4 
 1414000    1.0327296    -6.840151    544.36536  0.032081881  0.032115746            3 
 1415000    1.0144038   -6.8278077    542.67194  0.031959478  0.032107981            3 
 1416000    1.0359705   -6.8508376    544.53619  0.032046621  0.032100125            4 
 1417000    1.0206919   -6.8681714    545.11432  0.032058005   0.03209233            1 
 1418000    1.0186617   -6.8526189    546.90004  0.032140341  0.032084634            2 
 1419000    1.0060084   -6.8761932    544.35242  0.031968077  0.032076978            5 
 1420000     1.021527   -6.8712027    546.47212   0.03206996  0.032069196            1 
 1421000    1.0209719   -6.8622226    547.20943  0.032090631  0.032061669            3 
 1422000    1.0531826   -6.8771593    546.94403   0.03205251  0.032054297            3 
 1423000    1.0266694   -6.8965727    546.63813  0.032012071  0.032046921            1 
 1424000    1.0197557   -6.8580601    548.69525  0.032109975  0.032039481            1 
 1425000    1.0083383   -6.8709622    546.11146  0.031936343  0.032031957            3 
 1426000    1.0293165   -6.8516773    546.42353  0.031932184  0.032024448            3 
 1427000    1.0179721   -6.8624441    546.79406  0.031931445   0.03201679            2 
 1428000    1.0120047   -6.8478954    546.82928  0.031911139  0.032009231            5 
 1429000    1.0138994   -6.8560817    547.52291  0.031929258  0.032001678            3 
 1430000     1.033772   -6.8551019    548.07386  0.031939036  0.031994021            1 
 1431000    1.0304918   -6.8197055    548.28758  0.031929163  0.031986469            6 
 1432000    1.0207711   -6.8300714    549.87397  0.031999183  0.031978875            3 
 1433000    1.0105495   -6.8598292    548.21938  0.031880634  0.031971269            4 
 1434000    1.0446095   -6.8534019    549.54621  0.031935507  0.031963526            2 
 1435000    1.0407577   -6.8550136    550.14477  0.031948012  0.031955993            2 
 1436000    1.0365977   -6.8602744    549.45888  0.031885961  0.031948508            4 
 1437000    1.0022954   -6.8412658    550.52206  0.031925427  0.031941042            4 
 1438000    1.0241497   -6.8795652    549.24479  0.031829207  0.031933489            3 
 1439000   0.99952825   -6.8556528    552.15069   0.03197537  0.031926053            3 
 1440000    1.0232661   -6.8400814    551.71382  0.031927883  0.031918711            3 
 1441000    1.0361127   -6.8731899    551.45674   0.03189086  0.031911391            3 
 1442000    1.0172196   -6.8948633    551.47904  0.031870032  0.031903939            3 
 1443000    1.0419381   -6.8345147    554.41322  0.032017395  0.031896613            5 
 1444000    1.0420205   -6.9166941    551.84855  0.031847215  0.031889259            2 
 1445000    1.0053719   -6.8795748    553.37991   0.03191349  0.031881876            5 
 1446000    1.0155033   -6.8728694     553.0413  0.031871905  0.031874434            2 
 1447000    1.0158292   -6.8336617    552.69853  0.031830139  0.031867118            5 
 1448000    1.0305297   -6.8885663    552.97728  0.031824199  0.031859821            2 
 1449000    1.0247387   -6.8842126    552.81042   0.03179264   0.03185241            5 
 1450000    1.0179261   -6.9095106    553.13399   0.03178931  0.031844906            3 
 1451000   0.99705056   -6.8839031    553.52606  0.031789918  0.031837338            2 
 1452000    1.0112431   -6.9016593     553.6901  0.031777439  0.031829735            2 
 1453000    1.0071665   -6.8241328    555.44982  0.031856493  0.031822322            2 
 1454000    1.0132589   -6.9008774     553.4647   0.03172081   0.03181463            3 
 1455000     1.044588   -6.8519374    555.58814  0.031820626  0.031807053            3 
 1456000    1.0207168   -6.8973508    554.59953  0.031742189  0.031799578            2 
 1457000    1.0014443   -6.9126667    555.51017  0.031772488  0.031792046            4 
 1458000    1.0223021   -6.8949165    554.53722  0.031695086  0.031784294            4 
 1459000    1.0218606   -6.8783778    554.30071  0.031659853  0.031776615            2 
 1460000    1.0274542   -6.8752891    555.47117  0.031704975  0.031768958            7 
 1461000    1.0403121   -6.8815391    556.77751  0.031757786  0.031761234            2 
 1462000   0.99260051   -6.8562192    556.67754  0.031730366  0.031753661            3 
 1463000    1.0159781   -6.8936687    555.89599   0.03166416  0.031746049            2 
 1464000    1.0024631   -6.8456228    557.71805  0.031746246  0.031738476            2 
 1465000     1.023064   -6.8787608    556.68836  0.031666004  0.031730826            3 
 1466000     1.024784   -6.8479615    556.80416  0.031650987  0.031723351            2 
 1467000    1.0159662   -6.8833045    556.78938  0.031628572   0.03171586            2 
 1468000    1.0041942   -6.8579026    559.09422  0.031737864   0.03170836            2 
 1469000    1.0097839    -6.888883    558.81003  0.031700138   0.03170087            3 
 1470000    1.0155151   -6.8580185     559.7831  0.031733736  0.031693318            5 
 1471000    1.0196828   -6.8526121    558.88459  0.031661261  0.031685763            3 
 1472000    1.0141707   -6.8982502    559.91671  0.031698183  0.031678351            4 
 1473000    1.0029399   -6.8926338    559.73792  0.031666549  0.031670979            7 
 1474000    1.0401515    -6.867901     561.1423  0.031724463  0.031663662            5 
 1475000    1.0204329   -6.9147899     559.7927  0.031626706  0.031656371            3 
 1476000    1.0263646   -6.8715994     561.2333  0.031686614  0.031648854            2 
 1477000    1.0299667   -6.8971288    561.40629   0.03167492  0.031641388            3 
 1478000    1.0379747   -6.9043979    560.71113  0.031614295  0.031633901            3 
 1479000     1.016121   -6.8956554    559.18819   0.03150711  0.031626483            4 
 1480000    1.0286825   -6.9127031    561.15423  0.031596522  0.031618954            6 
 1481000    1.0560095     -6.84122    562.39044  0.031644747  0.031611587            1 
 1482000   0.98584905   -6.8906652    560.90295  0.031539752  0.031604145            4 
 1483000    1.0251097   -6.8588308    563.59106  0.031669536  0.031596706            3 
 1484000    1.0144302   -6.8768889    562.70612  0.031598502  0.031589291            3 
 1485000    1.0169423   -6.8683766    563.76278   0.03163652  0.031581948            3 
 1486000   0.98619845    -6.890074    563.64084  0.031608392  0.031574503            3 
 1487000    1.0050413   -6.8868783    565.18181  0.031673493  0.031567078            3 
 1488000    1.0168809   -6.9105637    563.07489  0.031534212  0.031559792            3 
 1489000   0.98604914   -6.8935692    561.71958  0.031437183  0.031552312            5 
 1490000    1.0216145   -6.9018991    564.43592  0.031568004   0.03154499            2 
 1491000    1.0230239    -6.882426    564.38558  0.031544019  0.031537461            4 
 1492000    1.0158898   -6.8679803    563.87641  0.031494438  0.031530027            5 
 1493000     1.011698   -6.8987693    564.23387  0.031493295  0.031522379            3 
 1494000    1.0298419   -6.8821736    564.60368  0.031492842  0.031514905            2 
 1495000     1.014229   -6.8781879     564.6831  0.031476204  0.031507334            5 
 1496000    1.0194259   -6.8800404    564.35431  0.031436849  0.031499798            3 
 1497000    1.0213921    -6.925606    564.79283   0.03144026  0.031492193            2 
 1498000    1.0102161   -6.9054057    565.18056  0.031440841  0.031484471            3 
 1499000    1.0073436   -6.8791447    567.27953  0.031536554  0.031476913            5 
 1500000    1.0151719   -6.8895872    567.17931  0.031509961   0.03146941            3 
 1501000   0.99542952   -6.8981359      566.339  0.031442316  0.031462167            2 
 1502000    1.0210072   -6.8862172    567.81096  0.031503049  0.031454821            3 
 1503000    1.0066428   -6.8714942    567.65768   0.03147359  0.031447594            3 
 1504000    1.0065082   -6.8511841    568.30176  0.031488351  0.031440253            1 
 1505000    1.0101818   -6.8944193    568.19623  0.031461585  0.031432913            5 
 1506000    1.0092665   -6.8737032    569.37224  0.031505768  0.031425569            2 
 1507000    1.0017244   -6.8722995    570.15959    0.0315284  0.031418325            3 
 1508000    0.9900485   -6.8778958     568.3522  0.031407615  0.031410963            4 
 1509000    1.0164828    -6.851347    568.14655  0.031375445  0.031403627            4 
 1510000    1.0166777   -6.8846951    568.93132  0.031397976  0.031396298            2 
 1511000    1.0423221   -6.8930515    568.15834  0.031334566  0.031388885            2 
 1512000    1.0024323   -6.8712683    568.96115  0.031358088  0.031381514            2 
 1513000   0.98437132   -6.8954184    570.10463  0.031400343   0.03137415            5 
 1514000    1.0190489   -6.8735147    569.87552  0.031366992  0.031366753            3 
 1515000    1.0084564   -6.8935599    569.29364  0.031314282  0.031359418            3 
 1516000    1.0387629   -6.8841501    570.32985  0.031350585  0.031352246            3 
 1517000    1.0220762   -6.8550801    572.05646  0.031424767  0.031345042            8 
 1518000    1.0147354   -6.9232403    571.34642  0.031365086  0.031337614            4 
 1519000   0.98676117   -6.9076979      570.921    0.0313211  0.031330148            2 
 1520000    1.0082513   -6.8669261    572.10035  0.031365151  0.031322773            3 
 1521000    1.0099237   -6.9247193    573.41927  0.031416791  0.031315416            3 
 1522000    1.0240437   -6.8916936    572.67644  0.031355477  0.031308083            4 
 1523000    1.0208059    -6.908657    572.51578  0.031326099  0.031300783            2 
 1524000    1.0236399   -6.9536871    573.40022  0.031353905  0.031293445            4 
 1525000    1.0055439    -6.885182    575.63013  0.031455198  0.031286229            3 
 1526000    1.0016782   -6.8856206    575.18556  0.031410308  0.031279084            2 
 1527000    1.0236701   -6.8971279    574.41552  0.031347714  0.031271909            2 
 1528000    1.0260116   -6.8935589    574.58146  0.031336249  0.031264757            5 
 1529000    1.0122349   -6.8995823    575.38789  0.031359706  0.031257617            3 
 1530000     1.020144   -6.9017327    576.26436  0.031386948   0.03125054            6 
 1531000    1.0029275   -6.9254891    575.06341  0.031301079  0.031243395            4 
 1532000    1.0108602   -6.8840299    577.01259  0.031386673  0.031236257            2 
 1533000    1.0142031   -6.9091644    575.21801  0.031268646  0.031229081            3 
 1534000   0.99841526   -6.8999267    575.56792  0.031267271   0.03122198            2 
 1535000   0.99963353   -6.8907114    577.69073  0.031362146  0.031214908            2 
 1536000    1.0120846   -6.9069546    575.47452  0.031221491  0.031207948            2 
 1537000     1.011927   -6.9109594    577.79247  0.031326853  0.031200871            3 
 1538000    1.0194308   -6.9044898    577.96605  0.031315889    0.0311939            2 
 1539000      1.02029   -6.9138126    577.68869  0.031280522  0.031186795            2 
 1540000    1.0229436   -6.9401055    577.60078  0.031255453   0.03117968            8 
 1541000     1.010293    -6.896347    579.07662   0.03131498  0.031172613            3 
 1542000    1.0012166   -6.8841983    579.13443  0.031297797  0.031165531            3 
 1543000    1.0098669   -6.9108942    579.69881  0.031307994   0.03115858            6 
 1544000   0.99623863   -6.8739665     581.6785  0.031394565   0.03115165            3 
 1545000   0.99455324   -6.8600314    581.72204  0.031376593  0.031144734            4 
 1546000   0.99162274   -6.8858182    581.27553   0.03133223  0.031137902            3 
 1547000     1.001199   -6.8805832     582.1684  0.031360073  0.031131197            4 
 1548000    1.0069179   -6.8789628    583.56634   0.03141507  0.031124657            6 
 1549000    1.0186794    -6.900077     582.6225  0.031344012  0.031118082            3 
 1550000   0.98435502   -6.8864241    581.86573  0.031283104  0.031111474            5 
 1551000   0.99959553   -6.9387534     582.3439  0.031288626  0.031104903            7 
 1552000   0.98869852   -6.9158393     582.2807  0.031265072  0.031098231            5 
 1553000     1.010527   -6.9020239     583.7192  0.031322129  0.031091533            5 
 1554000     1.011615   -6.9101308    583.99805  0.031316927  0.031084961            2 
 1555000    1.0111814   -6.8913207    584.29482  0.031312691  0.031078389            4 
 1556000    1.0020369   -6.9467474    582.74034  0.031209315    0.0310718            3 
 1557000    1.0120151   -6.9091968    584.77306  0.031298066  0.031065167            3 
 1558000   0.98982661   -6.9186662    584.36047  0.031255909  0.031058481            4 
 1559000    1.0043604   -6.9383836    584.31711  0.031233542  0.031051737            3 
 1560000   0.98614801   -6.9316192    584.86445  0.031242759  0.031045059            5 
 1561000    1.0155226   -6.9080986    584.66833  0.031212275  0.031038351            4 
 1562000    0.9940154   -6.8504113    585.87506  0.031256672  0.031031806            1 
 1563000    0.9934116   -6.9106695     585.6088  0.031222478  0.031025113            3 
 1564000   0.97651398   -6.9146753    584.77016  0.031157831  0.031018434            3 
 1565000   0.99740842   -6.8685352    587.05487  0.031259578  0.031011649            5 
 1566000     1.006469    -6.921256     587.8653  0.031282742  0.031005149            2 
 1567000    1.0108349   -6.8821488    587.60693  0.031249039  0.030998619            3 
 1568000    1.0001564   -6.8741013    587.84149  0.031241576  0.030992085            3 
 1569000   0.98892864   -6.8895554    588.70295  0.031267418  0.030985682            2 
 1570000    1.0150159   -6.9304497    588.04995  0.031212842   0.03097916            3 
 1571000     1.017355    -6.901972    588.09477  0.031195352  0.030972579           11 
 1572000    1.0053514   -6.9443044    588.27021  0.031184808  0.030966003            2 
 1573000   0.99418429   -6.9064737     589.5887  0.031234832  0.030959337            3 
 1574000    0.9985104    -6.948426    587.84104  0.031122461  0.030952584            4 
 1575000    1.0422977   -6.9347244    589.19406  0.031174289  0.030945997            3 
 1576000   0.99916871   -6.9030463    589.67288  0.031179827  0.030939439            4 
 1577000    0.9825868   -6.9120428    589.24991  0.031137704  0.030932714            6 
 1578000    1.0151893   -6.9346244    589.53946  0.031133263   0.03092605            4 
 1579000    1.0075341   -6.8974111    588.57204  0.031062489  0.030919252            3 
 1580000   0.99337338   -6.8846541    590.25859  0.031131782  0.030912409            3 
 1581000   0.99270449   -6.8952862    589.76907  0.031086289   0.03090555            4 
 1582000   0.98864694   -6.8969062    589.54196  0.031054675  0.030898695            3 
 1583000    0.9574101   -6.9005141    589.17818  0.031015908  0.030891934            3 
 1584000    1.0150121   -6.9355288    588.41372  0.030956109  0.030885106            3 
 1585000    1.0060025    -6.913313    589.37655    0.0309872  0.030878323            3 
 1586000   0.99830467   -6.9357694    590.57764  0.031030771   0.03087146            4 
 1587000     0.990673   -6.8789836    590.65975   0.03101553  0.030864671            3 
 1588000   0.99264749   -6.9130933    589.63444  0.030942194  0.030857812            3 
 1589000    1.0050422   -6.9508709    589.91101  0.030937225  0.030850799            7 
 1590000    1.0026803   -6.9304334     590.5219  0.030949785  0.030843757            2 
 1591000    0.9882391    -6.903247    592.48736  0.031033279  0.030836862            3 
 1592000    0.9977318   -6.9143346    593.57529  0.031070733  0.030830023            5 
 1593000   0.96086617   -6.8963382    593.49639  0.031047101  0.030823219            2 
 1594000    1.0137725   -6.9119086    591.77184  0.030937466  0.030816461            3 
 1595000   0.99731486   -6.9507789    591.39641  0.030898454  0.030809648            5 
 1596000   0.99603389   -6.9217939     592.8144  0.030953133  0.030802701            2 
 1597000   0.98652292   -6.9204392    590.99606  0.030838868  0.030795687            3 
 1598000     1.010623    -6.853993    594.95362   0.03102595  0.030788707            1 
 1599000    1.0067937   -6.9402851    590.74741  0.030787336  0.030781558            5 
 1600000   0.99630975    -6.920917    594.08777  0.030942071  0.030774473            2 
 1601000   0.99735727   -6.9433826    592.21063  0.030825038  0.030767283            5 
 1602000    1.0035785   -6.9197729    591.81443  0.030785187  0.030759955            1 
 1603000   0.99890153   -6.9683173    591.70111  0.030760091  0.030752675            3 
 1604000   0.98579433   -6.9225636     592.8974  0.030803065  0.030745442            5 
 1605000    0.9978937   -6.8859159    594.27723  0.030855516  0.030738282            3 
 1606000   0.98481661   -6.8866359    593.08892  0.030774643  0.030731165            3 
 1607000   0.96519667   -6.9234207    593.40797  0.030772037  0.030723895            2 
 1608000    1.0082578   -6.9100403     593.6812  0.030767061  0.030716732            7 
 1609000    1.0139057   -6.9543918    592.70262  0.030697256  0.030709488            3 
 1610000   0.97480473   -6.9060046    593.16571  0.030702159  0.030702202            3 
 1611000   0.99980231   -6.9031401    594.47568  0.030750863  0.030694994            2 
 1612000   0.97736315   -6.9222724    594.47098  0.030731543  0.030687715            2 
 1613000   0.98957689    -6.863124    596.43225  0.030813817  0.030680522            8 
 1614000    1.0003359   -6.9071986    595.07128  0.030724457  0.030673298            2 
 1615000    1.0108516   -6.9345083    594.39701   0.03067064  0.030666064            2 
 1616000   0.99257261   -6.9268809    595.40314  0.030703545  0.030658781            2 
 1617000     0.985013   -6.9429032     593.9854  0.030611492  0.030651443            6 
 1618000    1.0038544   -6.9109384    595.18916  0.030654572  0.030644028            2 
 1619000   0.96671503    -6.943553     594.7105     0.030611    0.0306366            3 
 1620000   0.99200025   -6.9391477    594.63794  0.030588372  0.030629124            5 
 1621000    1.0026907   -6.9171975    596.09997  0.030644662  0.030621802            4 
 1622000   0.97486043   -6.9162431    596.60345  0.030651636  0.030614415            2 
 1623000   0.99605864   -6.9349808    596.49139  0.030626997  0.030607108            3 
 1624000   0.99574752   -6.9127747     598.5007  0.030711243  0.030599925            2 
 1625000   0.98021633   -6.9395146    597.27211  0.030629339  0.030592601            5 
 1626000   0.99232237   -6.9280379     597.6083  0.030627732    0.0305853            2 
 1627000   0.99720197   -6.9477231    596.05046  0.030529116  0.030577803            2 
 1628000    0.9823345   -6.8984974    598.82992  0.030652637  0.030570395            4 
 1629000   0.98009579   -6.9194275    597.58236      0.03057  0.030563053            2 
 1630000   0.99309348   -6.9202123    598.43769  0.030594974   0.03055567            3 
 1631000   0.99024998   -6.9274188    597.47585  0.030527072    0.0305482            3 
 1632000   0.99696577   -6.9360084     596.6498  0.030466187  0.030540682            6 
 1633000   0.98101828   -6.9220989    598.88682  0.030561687  0.030533179            2 
 1634000   0.98508512   -6.9156784    599.19311  0.030558604  0.030525774            3 
 1635000   0.98873722   -6.9287342    601.33446  0.030649055   0.03051847            4 
 1636000   0.99461937   -6.9204925    599.07939  0.030515454  0.030511123            2 
 1637000   0.99507429   -6.9157591    600.47502  0.030567859  0.030503898            4 
 1638000   0.99066514   -6.9212482    599.57211  0.030503262  0.030496593            3 
 1639000    1.0015022   -6.9645828    600.49939  0.030531797  0.030489353            4 
 1640000   0.98687689   -6.9082333    601.51788  0.030564933  0.030482291            3 
 1641000    0.9907858   -6.9300094    600.12457  0.030475552  0.030475103            4 
 1642000   0.99335917   -6.9390039    603.10628  0.030608317  0.030467882            2 
 1643000    1.0098937   -6.9372329    600.28483  0.030446583  0.030460601            9 
 1644000   0.99464049   -6.9307463    600.68208    0.0304482  0.030453242            2 
 1645000    0.9976879   -6.9334442    600.51235  0.030421092  0.030445846            5 
 1646000   0.98604061   -6.9162017    601.94204  0.030474992  0.030438426            4 
 1647000   0.97289226   -6.9490923    601.98048  0.030458433  0.030430968            3 
 1648000   0.96952856   -6.9466226    599.39767  0.030309348  0.030423461            4 
 1649000    0.9832863   -6.9086406    602.40594  0.030442993  0.030416018            5 
 1650000   0.96402462   -6.9404627    602.07545  0.030407851  0.030408604            2 
 1651000   0.98929906    -6.932035    602.00956  0.030386107  0.030401091            3 
 1652000   0.98855837   -6.9275241    601.99383   0.03036692  0.030393598            4 
 1653000    1.0114487   -6.9326468    602.00563  0.030349144  0.030386144            4 
 1654000   0.98362419   -6.9201617    602.29599  0.030345425  0.030378719            2 
 1655000   0.98925994   -6.9316539    603.40522  0.030382942  0.030371305            3 
 1656000   0.99509225   -6.9636081    601.41453  0.030264419  0.030363852            2 
 1657000   0.99646412   -6.9408351    603.82089  0.030367174  0.030356292            5 
 1658000   0.98698131   -6.9503501    602.37745   0.03027631  0.030348805            4 
 1659000   0.98516823   -6.9448202    605.01046  0.030390318    0.0303414            2 
 1660000    1.0099282   -6.9658356    604.25562  0.030334117  0.030333908            5 
 1661000   0.98517986   -6.9184573    604.65854   0.03033607  0.030326412            5 
 1662000    0.9710213   -6.9319646    601.67679  0.030168311   0.03031887            3 
 1663000   0.99452002   -6.9742285    603.70128  0.030251617  0.030311233            2 
 1664000   0.98935409   -6.9034386    605.48251  0.030322642  0.030303747            1 
 1665000   0.98000014   -6.9639764    605.45999  0.030303303  0.030296258            3 
 1666000   0.96996288   -6.9475184    605.67911  0.030296074  0.030288682            6 
 1667000   0.98833231   -6.9305811    606.73961  0.030330914  0.030281222            2 
 1668000   0.98731463   -6.9404089    603.79818  0.030165777  0.030273878            1 
 1669000   0.99392259   -6.9302218    606.55326  0.030285264  0.030266487            2 
 1670000   0.98558783     -6.93988    604.39037    0.0301592  0.030258917            4 
 1671000   0.96947409   -6.9157088    606.73383  0.030258021  0.030251358            2 
 1672000   0.97399856   -6.9057201     606.4855  0.030227547  0.030243845            5 
 1673000   0.99476582   -6.9438178    605.60173  0.030165458  0.030236295            2 
 1674000   0.98782735   -6.9422588    608.33702  0.030283603  0.030228677            5 
 1675000   0.99777123   -6.9246216    606.92361  0.030195204  0.030221114            3 
 1676000   0.98986146   -6.9533509    605.72429  0.030117556  0.030213449            3 
 1677000   0.96403579   -6.9567591     607.5304  0.030189346  0.030205741            5 
 1678000   0.99025064   -6.9565345    604.39749  0.030015767     0.030198            3 
 1679000    0.9873875   -6.9547305    606.46217  0.030100366  0.030190245            5 
 1680000   0.98245806   -6.9911201    606.59213  0.030088895   0.03018248            4 
 1681000   0.99572963   -6.9012633    605.89507   0.03003644  0.030174719            2 
 1682000     0.980067   -6.9271136    608.45584  0.030145454  0.030166957            5 
 1683000   0.99028641   -6.9455248    608.12067  0.030110946   0.03015911            3 
 1684000   0.99740804   -6.9692066    607.52159   0.03006342   0.03015134            3 
 1685000    1.0033597   -6.9497383    607.08447   0.03002396  0.030143539            4 
 1686000   0.96150202   -6.9507689    608.93908  0.030097819  0.030135756            2 
 1687000   0.97754936   -6.9700809    607.92973  0.030030119  0.030127979            4 
 1688000   0.98302999   -6.9665175     608.8596  0.030058234  0.030120216            4 
 1689000    1.0100943   -6.9059702    608.00515  0.029998281  0.030112454            9 
 1690000   0.97544913   -6.9605199    608.53851   0.03000683  0.030104698            3 
 1691000   0.97860273   -6.9466039    609.36286  0.030029709  0.030096954            2 
 1692000   0.98575918   -6.9396448    608.93401   0.02999084   0.03008918            3 
 1693000   0.98604972   -6.9427718    610.56318  0.030053316  0.030081446            2 
 1694000   0.99261403   -6.9596825    612.36334  0.030124131  0.030073681            3 
 1695000   0.97936131   -6.9612733    608.02416  0.029893027  0.030065891            7 
 1696000   0.97982638   -6.9343381    610.29709  0.029987082  0.030058117            2 
 1697000   0.98749023   -6.9407025    610.63922  0.029986212  0.030050192            6 
 1698000   0.98304206   -6.9262604    609.58487  0.029916807  0.030042258            5 
 1699000     1.006858   -6.9614691    608.35892  0.029839068   0.03003435            3 
 1700000   0.98108002   -6.9593923    609.50705  0.029877796  0.030026385            3 
 1701000    0.9911958   -6.9522928    610.60798  0.029914167  0.030018513            4 
 1702000   0.97404834   -6.9753012    611.96367  0.029962968  0.030010555            3 
 1703000   0.96527323   -6.9334877    611.33092  0.029914412  0.030002726            2 
 1704000   0.99689841   -6.9353841     610.9742  0.029879411  0.029994945            3 
 1705000   0.98775897   -6.9746598    611.52122  0.029888623  0.029987051            3 
 1706000   0.97956236   -6.9447724    612.07523  0.029898165   0.02997929            2 
 1707000   0.96629918   -6.9667971     611.4039  0.029847876  0.029971577            5 
 1708000    0.9851956    -6.981142    612.84001  0.029900469   0.02996379            2 
 1709000   0.99208121   -6.9569123    612.63536  0.029872994  0.029956054            4 
 1710000   0.98392229   -6.9354945    613.05125  0.029875792  0.029948377            3 
 1711000   0.98110233   -6.9430642    616.32685  0.030017867  0.029940728            3 
 1712000   0.99729529   -6.9447226    614.31919  0.029902609   0.02993325            2 
 1713000    0.9688769   -6.9566472    615.64495  0.029949647  0.029925765            3 
 1714000   0.96982912   -6.9368885    613.26541  0.029816483  0.029918281            3 
 1715000   0.96080798    -6.929493    616.04846  0.029934328   0.02991077            1 
 1716000   0.99211507   -6.9539605    615.57698  0.029893987  0.029903237            4 
 1717000   0.97743814   -6.9564491    616.98765  0.029945042  0.029895722            2 
 1718000   0.96716547    -6.965017    616.73223  0.029915223  0.029888315            2 
 1719000   0.95701434   -6.9682103     616.6157  0.029892171   0.02988081            4 
 1720000   0.95447956   -6.9176608    619.29365  0.030004537  0.029873494            2 
 1721000   0.97789375   -6.9555402    615.02645  0.029780479  0.029866136            4 
 1722000    0.9753838   -6.9722037    617.23209  0.029869923  0.029858677            3 
 1723000   0.97929275   -6.9720254    616.81471  0.029832401    0.0298512            5 
 1724000   0.97789074   -6.9403189    617.36508    0.0298417  0.029843711            6 
 1725000   0.95215846   -6.9394073    618.49625  0.029879046  0.029836277            2 
 1726000   0.97311569   -6.9846236    617.52322  0.029814756  0.029828783            2 
 1727000   0.97928384   -6.9524328    617.66683  0.029804421  0.029821189            3 
 1728000   0.98401661   -6.9989454    616.43533  0.029727784  0.029813549            3 
 1729000   0.98946753   -6.9451735    618.25083  0.029798093  0.029805952            3 
 1730000   0.97153269   -6.9508325    619.99416  0.029864844  0.029798493            1 
 1731000   0.97338497   -6.9665027    618.91309  0.029795547  0.029791129            2 
 1732000   0.97187102   -6.9488833    620.29668  0.029844913  0.029783706            4 
 1733000   0.96838221   -6.9376036     619.5337  0.029791003  0.029776382            3 
 1734000   0.97584117   -6.9561073     618.7616  0.029736717  0.029769204            1 
 1735000   0.98542179   -6.9281057    621.79978  0.029865503  0.029762066            2 
 1736000   0.97251267   -6.9301664    621.87243  0.029851787  0.029755011            5 
 1737000   0.96292015   -6.9863826     621.8704  0.029834504  0.029747864            6 
 1738000   0.96940441   -6.9566037    621.93864   0.02982061  0.029740599            5 
 1739000   0.98616159   -6.9267219    622.79686  0.029844588  0.029733491            3 
 1740000   0.97422637   -6.9480139    624.17677  0.029893523   0.02972632            2 
 1741000   0.96555874   -6.9638777     622.6256  0.029802106  0.029719065            2 
 1742000   0.96844416   -6.9655933    622.70512  0.029788802  0.029711793            4 
 1743000   0.96768343   -6.9555506    623.72836  0.029820633  0.029704532            3 
 1744000   0.96445014    -6.933429    623.72183  0.029803222  0.029697408           12 
 1745000    1.0079235   -6.9841923    622.31564   0.02971899  0.029690195            7 
 1746000   0.97212619   -6.9531263    623.90922  0.029778027  0.029682981            2 
 1747000   0.96620055   -6.9698284    623.72671  0.029752276  0.029675741            4 
 1748000   0.96084371   -6.9864407    624.22752   0.02975913  0.029668437            6 
 1749000   0.96394204   -6.9604119    623.95737  0.029729244  0.029660981            1 
 1750000   0.96486077    -6.942861    624.83107   0.02975386  0.029653596            8 
 1751000   0.96822004   -6.9860536    623.04047   0.02965165  0.029646254            2 
 1752000   0.97425735   -6.9728538     624.5321  0.029705674  0.029638848            7 
 1753000   0.97523484   -6.9588203     624.5209  0.029688196  0.029631482            3 
 1754000   0.96316455   -6.9739435    624.55626  0.029672951  0.029624183            4 
 1755000   0.96983072   -6.9783699    624.94526  0.029674514  0.029616881            5 
 1756000    0.9878155   -6.9807196    622.93314  0.029562127  0.029609479            5 
 1757000   0.95730127   -6.9436985    623.65992  0.029579772  0.029602049            3 
 1758000   0.99414454   -6.9488055    625.94607  0.029671315  0.029594566            2 
 1759000   0.96240537   -7.0177466    623.64644  0.029545501  0.029587029            6 
 1760000   0.96268785   -6.9810182    624.80389  0.029583517  0.029579538            4 
 1761000   0.97195575   -6.9909832    625.28416  0.029589445  0.029571973            4 
 1762000   0.96933776   -6.9801428    625.07848  0.029562925  0.029564457            5 
 1763000   0.97441738   -6.9429164    626.35932  0.029606699   0.02955711            3 
 1764000   0.98013789   -7.0036721    625.62622  0.029555283  0.029549754            2 
 1765000   0.97471661   -6.9862631    626.68622  0.029588585  0.029542368            3 
 1766000   0.97505698   -6.9577074    626.70433  0.029572684  0.029534968            1 
 1767000   0.96784758   -6.9459727    628.26634  0.029629614  0.029527572            2 
 1768000   0.96367925   -6.9651146     628.3509  0.029616841  0.029520231            3 
 1769000   0.95740926   -6.9337853    628.15342  0.029590796  0.029512916            4 
 1770000   0.97782816   -6.9622857    628.61429  0.029595777  0.029505692            2 
 1771000   0.96550225   -6.9668391    628.40213  0.029569082  0.029498418            4 
 1772000   0.98149851   -6.9808675    627.15204  0.029493606  0.029491094            3 
 1773000   0.95838191   -6.9635578    627.24586  0.029481381  0.029483809            3 
 1774000   0.98807133   -6.9576073    627.84004  0.029492674  0.029476481            4 
 1775000   0.98914239   -6.9969008    626.72069  0.029423506  0.029469029            3 
 1776000   0.95594801   -6.9875946    629.53378  0.029538935  0.029461598            1 
 1777000   0.97986048   -6.9559072    627.66245  0.029434555   0.02945426            2 
 1778000   0.97504784   -6.9859621    628.84907  0.029473616  0.029446973            3 
 1779000   0.98932192   -6.9623129    627.68296  0.029402425  0.029439622            3 
 1780000   0.95644063   -6.9828674    629.23137  0.029458398  0.029432273            4 
 1781000   0.96050779   -6.9682216    628.26772  0.029396768  0.029424859            4 
 1782000   0.98030296    -6.978887    629.25875  0.029426616  0.029417506            7 
 1783000   0.94395993   -6.9500744    631.34577  0.029507654  0.029410093            2 
 1784000   0.95064424   -6.9797866    628.97268  0.029380263  0.029402707            4 
 1785000   0.97069225   -7.0042235    630.16842  0.029419628   0.02939531            5 
 1786000   0.96119199   -6.9821021    630.80926  0.029433056  0.029387881            2 
 1787000   0.96848734   -6.9699531    631.16591  0.029433217  0.029380455            4 
 1788000   0.97751934   -6.9765719    632.03046   0.02945705  0.029373085            2 
 1789000   0.94968133   -6.9730852    631.37583  0.029410091  0.029365714            3 
 1790000    0.9547338   -6.9893823    631.34784  0.029392357  0.029358267            3 
 1791000   0.96959404   -7.0116817    632.05831  0.029409004  0.029350955            2 
 1792000   0.98701777   -6.9887357    631.96311  0.029388165  0.029343672            5 
 1793000    0.9530944   -6.9961607    631.72513  0.029360714  0.029336397            4 
 1794000   0.93979225   -6.9759778    633.93439  0.029446971  0.029329025            2 
 1795000   0.96053559   -6.9846962    634.28847  0.029447004  0.029321652            3 
 1796000   0.96873956   -6.9817611    633.28154  0.029383887  0.029314352            3 
 1797000   0.97424563   -6.9774785    632.31852  0.029322877  0.029306961            3 
 1798000   0.95444473    -6.997368     632.5897  0.029319137  0.029299605            2 
 1799000   0.99360704   -6.9871367    635.70161  0.029446989  0.029292329            5 
 1800000   0.96117834   -6.9475855    635.37713  0.029415608  0.029285068            6 
 1801000   0.96248106   -6.9702917    633.79235  0.029325946  0.029277829            4 
 1802000    0.9622565   -6.9846213    635.66411  0.029396231  0.029270599            3 
 1803000   0.95116842   -6.9752077    635.01356   0.02934986  0.029263342            2 
 1804000   0.96491992   -6.9910024    633.09115  0.029244787  0.029256148            3 
 1805000    0.9608698   -7.0055721    634.15255  0.029277588  0.029248939            5 
 1806000    0.9382198   -6.9988683    635.75021  0.029335097  0.029241716            3 
 1807000   0.96238652     -7.01406    633.91128  0.029234056  0.029234499            5 
 1808000   0.95745025   -6.9949405    635.58108  0.029294851  0.029227252            3 
 1809000   0.97377571   -7.0173878    634.64855  0.029235699   0.02921993            3 
 1810000   0.97224407   -7.0186885    636.20934  0.029291406  0.029212676            2 
 1811000   0.96714093   -6.9946904    635.81369  0.029257026   0.02920532            2 
 1812000   0.93431913   -6.9779708    637.25568  0.029307196   0.02919808            1 
 1813000   0.95752764   -6.9575788    637.03375  0.029280831  0.029190985            2 
 1814000   0.95248451   -6.9905737    638.33775  0.029324593  0.029183962            4 
 1815000   0.97162064   -6.9925856    637.06419  0.029249963  0.029176949            3 
 1816000   0.96361387   -6.9874245     637.9793  0.029275849   0.02916983            6 
 1817000   0.96651277   -6.9629432     637.9631  0.029258994  0.029162807            4 
 1818000   0.94579436    -7.008715    638.49107  0.029267101  0.029155694            5 
 1819000   0.98047315   -6.9653922    636.83366  0.029175081  0.029148516            2 
 1820000   0.94595221   -7.0194461    638.00822  0.029212831  0.029141292           13 
 1821000   0.95455143    -7.006624    636.55754  0.029130402  0.029134071            3 
 1822000   0.95570653   -7.0176509    637.54895  0.029159758  0.029126787            3 
 1823000    0.9420743    -6.986893    637.54892  0.029143761   0.02911959            3 
 1824000   0.95300436   -6.9861799    638.45108  0.029169001  0.029112355            3 
 1825000   0.99681298   -6.9889641    637.68074  0.029117842  0.029105115            3 
 1826000   0.96050636   -6.9710741    640.30615  0.029221712  0.029097921            2 
 1827000   0.95490512   -7.0205168     638.4842  0.029122615  0.029090669            3 
 1828000   0.98291121    -6.995273    640.01761  0.029176587  0.029083471            2 
 1829000   0.95706638   -6.9821987    641.42128  0.029224589  0.029076285            2 
 1830000   0.96327942   -6.9764089    641.28652  0.029202483  0.029069091            3 
 1831000   0.95341238   -7.0383023    638.84582  0.029075451  0.029061873            3 
 1832000   0.94935953    -6.979144    641.60808  0.029185229  0.029054625            5 
 1833000   0.97628435   -7.0038416    639.42001  0.029069831  0.029047429            3 
 1834000   0.94804356   -6.9885216    641.13073  0.029131713  0.029040167            5 
 1835000   0.96230058   -6.9966875    640.03166  0.029065925  0.029032833            4 
 1836000   0.94986031    -6.999929    641.15802  0.029101217  0.029025527            3 
 1837000   0.94775689   -7.0009641    639.10721  0.028992343  0.029018131            4 
 1838000    0.9650476   -7.0078562    639.24456  0.028982796  0.029010783            3 
 1839000   0.94953357   -6.9975456    640.95931   0.02904474  0.029003419            3 
 1840000   0.98399442    -6.988355    639.31643  0.028954549  0.028996076            4 
 1841000   0.97247888   -6.9933476    640.74002   0.02900326  0.028988773            3 
 1842000   0.94046421   -6.9865551    641.65319  0.029028827    0.0289814            2 
 1843000   0.96946313   -7.0250899    640.87945  0.028978091  0.028974027            8 
 1844000   0.93164578   -6.9999134    640.96015  0.028966023  0.028966564            5 
 1845000   0.96855444   -6.9758083    641.18406  0.028960436  0.028959208            4 
 1846000   0.95654863   -6.9788819    644.34917  0.029087629  0.028951785            6 
 1847000   0.95813232   -7.0245157    642.42866  0.028985231  0.028944369            3 
 1848000   0.95201724   -7.0017027    641.29327  0.028918347   0.02893695            4 
 1849000   0.97110821   -7.0201635    640.57326  0.028870257  0.028929441            7 
 1850000   0.93167169    -7.031319    641.01713  0.028874645  0.028921907            2 
 1851000   0.96058119   -6.9567807    644.23904  0.029004098   0.02891444            3 
 1852000   0.95483386   -7.0470856    641.32809  0.028857455   0.02890704            4 
 1853000   0.94387049     -7.02815    644.15546  0.028969035  0.028899563            3 
 1854000   0.96579899   -6.9783146    644.34763  0.028962047  0.028892178            2 
 1855000   0.93268215   -7.0250068    645.03841  0.028977467  0.028884783            2 
 1856000     0.960825   -7.0188609    643.91847  0.028911569  0.028877408            4 
 1857000   0.95452157   -6.9692897    644.54653  0.028924185  0.028870066            4 
 1858000   0.94227812   -7.0073026    644.37771  0.028901045  0.028862708            1 
 1859000   0.94327232   -7.0302611    644.24639  0.028879612  0.028855304            4 
 1860000   0.95710913   -6.9779037    643.34893  0.028823877  0.028847955            3 
 1861000   0.91521161   -6.9945036    644.60433  0.028864604  0.028840577            2 
 1862000     0.979869   -7.0044212    645.90436  0.028907284  0.028833214            2 
 1863000   0.94473458   -6.9918383    645.57669  0.028877111  0.028825908            4 
 1864000   0.95498752   -6.9870134    645.07943  0.028839388  0.028818583            4 
 1865000   0.93874161   -7.0058343    642.65154   0.02871544  0.028811103            3 
 1866000   0.95110423    -7.009033    645.50801  0.028827617   0.02880359            4 
 1867000   0.94988241   -7.0338743     644.5178  0.028767979  0.028796077            5 
 1868000   0.95134126   -6.9918548     645.4279  0.028793179  0.028788505            3 
 1869000   0.93406398   -6.9985338     644.9803  0.028757816  0.028780985            2 
 1870000   0.97839863   -7.0023614    644.92265  0.028739869  0.028773472            2 
 1871000   0.96079412   -7.0135771    645.61832  0.028755493  0.028765875           10 
 1872000   0.96693846   -6.9956941    645.79537  0.028748013  0.028758306            3 
 1873000   0.95120352   -7.0257997     644.5254  0.028676161  0.028750728            3 
 1874000   0.94585776   -7.0281168    643.28988  0.028605918  0.028743073            9 
 1875000   0.95651544   -7.0131694    644.94547  0.028664243  0.028735515            4 
 1876000   0.97706824   -7.0056169     646.9547  0.028738215  0.028727912            3 
 1877000    0.9513601   -7.0153533    645.56214  0.028661079  0.028720305            3 
 1878000   0.94989581    -7.013249    646.11472  0.028670337  0.028712639            6 
 1879000   0.95856841   -7.0343425    644.96744  0.028604197  0.028705041            4 
 1880000   0.95124034   -7.0316462    647.54844  0.028703388  0.028697522            5 
 1881000   0.95219381   -7.0056996     647.6942  0.028694586  0.028689932            3 
 1882000   0.93669347   -6.9968021    645.70003  0.028591039  0.028682401            4 
 1883000   0.94207383   -7.0050958    646.33702  0.028604046  0.028674949            3 
 1884000   0.96161168   -7.0011484    648.68467  0.028692705  0.028667469            3 
 1885000    0.9429855   -6.9941336    645.11648  0.028519738  0.028659953            8 
 1886000   0.98476505   -7.0086721    647.88254  0.028626836  0.028652363            3 
 1887000   0.96770367   -6.9758458     647.2098  0.028581955   0.02864472            3 
 1888000   0.95719175   -6.9901388     648.0266  0.028602869  0.028637159            2 
 1889000   0.96453973   -7.0255298    647.82366  0.028578775   0.02862955            8 
 1890000   0.94628207   -7.0025256    648.07554  0.028574759  0.028621959            5 
 1891000   0.94738162   -7.0155607    650.45768  0.028664625  0.028614314            4 
 1892000   0.95338231   -7.0124568    648.68787  0.028571524  0.028606742            3 
 1893000   0.95478069   -7.0199941    649.55536  0.028594619  0.028599229            2 
 1894000   0.93797809   -7.0159936     651.5293  0.028666372  0.028591741            5 
 1895000   0.94778922   -7.0024776    650.06724   0.02858695  0.028584321            2 
 1896000   0.93596017    -7.036648    649.16689    0.0285323  0.028576846            3 
 1897000    0.9316242   -7.0371578    649.94985  0.028551654  0.028569387            4 
 1898000   0.95417337   -6.9729823    651.34199  0.028597734  0.028561895            3 
 1899000   0.94391533   -7.0555218    649.22697  0.028489862  0.028554373            5 
 1900000   0.94487684    -7.016558    648.57509  0.028446276  0.028546716            3 
 1901000   0.94699241   -7.0127735    651.51844  0.028560338  0.028539148            3 
 1902000   0.94331499   -7.0239789    649.66911  0.028464297  0.028531545            7 
 1903000   0.94231415   -6.9748379    651.61959  0.028534752  0.028524022            2 
 1904000   0.96346777   -7.0173015     651.0459  0.028494656  0.028516495            2 
 1905000    0.9519033   -7.0105494    650.43934  0.028453164  0.028508965            4 
 1906000   0.95403601   -7.0225234    651.80335  0.028497873  0.028501451            4 
 1907000   0.95925656   -6.9921322    651.71424  0.028479035  0.028493949            4 
 1908000   0.93646039    -7.040872    649.15815   0.02835247  0.028486405            4 
 1909000   0.95290561   -7.0664574    652.01351  0.028462262  0.028478849            4 
 1910000     0.949367    -7.008602    653.49389   0.02851195  0.028471321            3 
 1911000    0.9309589   -7.0048601     651.2473  0.028399062  0.028463833            5 
 1912000   0.93186201   -6.9996223    652.52996  0.028440113   0.02845637            6 
 1913000   0.94617346   -7.0034431    652.83416  0.028438498  0.028448872            3 
 1914000   0.91401523   -7.0252698    651.51169  0.028366061  0.028441363            2 
 1915000   0.93829368   -7.0059054    653.67025  0.028445181  0.028433859            4 
 1916000   0.96055677   -6.9937356    652.09508  0.028361825  0.028426357            4 
 1917000    0.9354207   -7.0086248    652.82179  0.028378621  0.028418879            4 
 1918000   0.94562813   -7.0394557    651.72052  0.028315977  0.028411421            9 
 1919000   0.93667706   -7.0064056    654.11433  0.028405173  0.028403977            3 
 1920000   0.92935967   -7.0240664    654.55992  0.028409719  0.028396439            5 
 1921000    0.9526463   -6.9935087    655.03862  0.028415696  0.028388899            4 
 1922000   0.94823608   -7.0097883    654.32208  0.028369844  0.028381403            3 
 1923000   0.95204132   -6.9978732    655.60229  0.028410569  0.028373895            3 
 1924000   0.94444668   -7.0424278    654.05589  0.028328824   0.02836634            4 
 1925000   0.95451376   -7.0391665    654.48279  0.028332588  0.028358855            5 
 1926000   0.95545884   -7.0163832    654.10718  0.028301626  0.028351346            3 
 1927000   0.95392156   -6.9925177    653.79872    0.0282736  0.028343889            4 
 1928000   0.94090507   -7.0794456    653.74753  0.028256722  0.028336296            2 
 1929000   0.96103831   -7.0491962    655.39757  0.028313356   0.02832872            5 
 1930000   0.92820105   -6.9987927    654.84686  0.028274908  0.028321217            5 
 1931000    0.9436661   -7.0309373      655.057  0.028269334  0.028313745            5 
 1932000   0.96180803   -7.0464872    655.41378   0.02827009  0.028306162            3 
 1933000   0.93448452    -7.032812    655.73273  0.028269216  0.028298452            4 
 1934000    0.9389731   -7.0365556     653.4411  0.028155856  0.028290721            8 
 1935000   0.94880098   -7.0393376    653.80361  0.028156917   0.02828306            5 
 1936000   0.92184739   -7.0163468    656.13871  0.028242885  0.028275448            5 
 1937000    0.9472774   -7.0410102    654.07152   0.02813937  0.028267811            4 
 1938000   0.93221928   -7.0096282    656.12793  0.028213275  0.028260123            4 
 1939000   0.94027389   -7.0197186    656.47932  0.028213827  0.028252515            5 
 1940000    0.9512065   -7.0216048    657.44464  0.028240749  0.028244896            3 
 1941000   0.93754162   -7.0188366     658.5491  0.028273618  0.028237482            3 
 1942000   0.96005642   -7.0528931    657.90252  0.028231313  0.028230007            9 
 1943000   0.93368117   -7.0195699    660.70211  0.028336855  0.028222579            3 
 1944000   0.94500886   -7.0319813    657.92663  0.028203302  0.028215055            5 
 1945000   0.93037175   -6.9950235    660.54413  0.028300948  0.028207651            2 
 1946000    0.9540557   -7.0325421     658.8981  0.028215917  0.028200276            3 
 1947000   0.93461309   -7.0136262    658.80028  0.028197238  0.028192847            2 
 1948000   0.94504939   -6.9844385    660.87661  0.028271587  0.028185445            3 
 1949000    0.9566421   -7.0314155    659.54355  0.028200083  0.028178074            4 
 1950000   0.93522601   -6.9955549    660.20689  0.028213969  0.028170664            3 
 1951000   0.92255301   -6.9937749    660.38032  0.028206916  0.028163228            6 
 1952000   0.92806164    -7.029388    660.36107  0.028191644  0.028155815            5 
 1953000   0.93009577   -7.0110241    659.65822  0.028147219   0.02814834            3 
 1954000   0.93934307   -7.0687982    659.97597  0.028146365  0.028140932            6 
 1955000    0.9247008   -7.0450875    659.57211  0.028114753  0.028133399            5 
 1956000   0.94970148   -7.0164537    658.83175  0.028068837  0.028125883            4 
 1957000   0.95396737   -7.0629006    658.95715  0.028059834  0.028118299            4 
 1958000   0.94441017   -7.0664274    661.11344  0.028137276  0.028110722            4 
 1959000   0.94032626   -7.0721471     660.1725  0.028082887  0.028103199            4 
 1960000   0.93117306   -7.0109402    662.88384  0.028183837  0.028095748            4 
 1961000   0.94644741   -7.0673459    660.85861  0.028083402  0.028088276            3 
 1962000   0.93153692   -7.0718272    661.60526  0.028100801  0.028080645            3 
 1963000    0.9391242    -7.036137    659.45899  0.027995372  0.028073084            5 
 1964000    0.9415449   -7.0339159    661.87931  0.028083813   0.02806554            3 
 1965000    0.9028485   -7.0235679    659.39199  0.027964037  0.028057921            3 
 1966000   0.93244634   -7.0155304    660.41309  0.027993095   0.02805043            3 
 1967000   0.93232536   -7.0312289    662.40025  0.028063051  0.028042962            6 
 1968000   0.94319401   -7.0398758    662.23679   0.02804187   0.02803548            5 
 1969000   0.94553486    -7.058808    661.94706  0.028015366  0.028027957            4 
 1970000   0.94317135   -7.0536135    662.32599  0.028017174  0.028020425            3 
 1971000   0.92996555   -6.9881049     663.1703  0.028038656  0.028012943            3 
 1972000    0.9378619    -7.041407    664.11368  0.028064304  0.028005523            5 
 1973000   0.93745872   -7.0260919    662.32312  0.027974452  0.027997999            2 
 1974000   0.93214343   -7.0366794    661.47771  0.027924591  0.027990471            2 
 1975000   0.93927273   -7.0627808    661.44348  0.027909008  0.027982838            3 
 1976000   0.91390531   -7.0415252    661.88626  0.027913557  0.027975353            4 
 1977000   0.93025183   -7.0365349    665.55474  0.028054069  0.027967907            4 
 1978000   0.92004859   -7.0357135     664.5915  0.027999305  0.027960487            2 
 1979000   0.95400777   -7.0191361    664.07217  0.027963288  0.027953037            2 
 1980000   0.92428662   -6.9912452    666.45455  0.028049434  0.027945668           14 
 1981000   0.94042128   -7.0399661    663.32202  0.027903501  0.027938162            5 
 1982000   0.93368787    -7.045197    664.26885  0.027929232  0.027930734            3 
 1983000   0.95234514   -7.0158998    664.08324  0.027907347  0.027923217            4 
 1984000     0.918525   -7.0340364    665.45718   0.02795099  0.027915757            4 
 1985000   0.93702963   -7.0329738    665.18112   0.02792532  0.027908304            4 
 1986000   0.94779524   -7.0572237    664.26897  0.027872984  0.027900899            2 
 1987000   0.94447082   -7.0495944     665.7204  0.027919829  0.027893425            5 
 1988000   0.90914517   -7.0171747    663.95274  0.027831688  0.027885939            3 
 1989000   0.93624703   -7.0261258    664.98431  0.027860915  0.027878519            2 
 1990000   0.93413258   -7.0445817    667.33735   0.02794545  0.027871213            5 
 1991000   0.91144922   -7.0185312    667.48333  0.027937524     0.027864            3 
 1992000   0.95016365   -7.0385785    666.14123  0.027867354  0.027856661            5 
 1993000   0.93102887   -7.0745821     666.9718    0.0278881  0.027849315            4 
 1994000   0.94164392    -7.019388    668.26425  0.027928128  0.027841989            3 
 1995000   0.93088925   -7.0051753    668.65166  0.027930311  0.027834702            3 
 1996000    0.9322216   -7.0794786     666.6815  0.027834064  0.027827367            6 
 1997000    0.9274187   -7.0270649     668.7322    0.0279057  0.027820071            2 
 1998000   0.92281032   -7.0247944    668.06567  0.027863934  0.027812735            2 
 1999000    0.9299899   -7.0264939    667.12045  0.027810591  0.027805441            3 
 2000000    0.9498076   -7.0475085    668.34275  0.027847614  0.027798116            5 
 2001000   0.93470423   -7.0479643    668.59243  0.027844096  0.027790798            3 
 2002000   0.90714156   -7.0556138    668.52165  0.027827242  0.027783498            8 
 2003000   0.93586421    -7.045439    668.88057  0.027828281  0.027776165            4 
 2004000   0.92420866   -7.0587229    669.14653  0.027825455  0.027768893            5 
 2005000   0.94065627   -7.0462299    670.31513  0.027860147  0.027761592            3 
 2006000   0.92718837   -7.0641096    669.48263  0.027811674  0.027754324            2 
 2007000   0.91113716   -7.0505138    668.72294  0.027766274  0.027747047            5 
 2008000   0.95016341   -7.0297143    670.24846  0.027815756  0.027739783            3 
 2009000   0.94331177   -7.0160368    672.62426  0.027900459  0.027732547            4 
 2010000   0.92233922   -7.0013595    672.03517  0.027862155  0.027725247            4 
 2011000   0.92946552   -7.0641953    668.96098  0.027720909  0.027718043            3 
 2012000   0.93281298   -7.0726563    671.55208   0.02781445  0.027710781            5 
 2013000   0.93352809   -7.0744711    670.60573  0.027761456   0.02770354            2 
 2014000   0.91765952   -7.0579316    672.09273  0.027809199  0.027696266            4 
 2015000   0.93433151   -7.0396764      672.694  0.027820264  0.027689069            5 
 2016000   0.92514836   -7.0516686    670.99062  0.027736054  0.027681825            3 
 2017000   0.92641828   -7.0619737    671.05874  0.027725117  0.027674602            5 
 2018000   0.92995972   -7.0292219    673.13605  0.027797161   0.02766747            5 
 2019000   0.92640855   -7.0433406    672.76369  0.027768024   0.02766031            2 
 2020000   0.90911478   -7.0387771    672.39513  0.027739073  0.027653176            6 
 2021000   0.92660064   -7.0787661    673.18473  0.027757906   0.02764598            5 
 2022000   0.91798003   -7.0499895    673.30044  0.027748946  0.027638734            4 
 2023000   0.91367982    -7.047032    673.73566  0.027753158  0.027631542            3 
 2024000   0.91681391   -7.0564549    672.03829  0.027669561  0.027624328            4 
 2025000   0.92827408   -7.0435809    675.20249  0.027786111   0.02761717            2 
 2026000    0.9488885   -7.0551829    674.09335  0.027726775  0.027609989            7 
 2027000   0.93028031    -7.046831    673.89737  0.027705039   0.02760276            6 
 2028000   0.92596799   -7.0801829     671.4299  0.027589986  0.027595517            5 
 2029000   0.92744679   -7.0474289     673.7062  0.027669878  0.027588279            1 
 2030000   0.92741074   -7.0672046    674.12122  0.027673285  0.027581166            3 
 2031000   0.93699147   -7.0507887    674.43639  0.027672591  0.027573997            2 
 2032000   0.90962131   -7.0429739    675.21639  0.027690961   0.02756679            6 
 2033000   0.90954695   -7.0661795    676.03269    0.0277108  0.027559648            3 
 2034000    0.9374746   -7.0902989    674.30383  0.027626345  0.027552451            2 
 2035000   0.93392686   -7.0662948    675.81215  0.027674535  0.027545328            2 
 2036000   0.93480758   -7.0086122    676.82009  0.027702197   0.02753837            6 
 2037000   0.92259146   -7.0518712    676.43786  0.027672961  0.027531316            5 
 2038000   0.93050885   -7.0718205    676.30461  0.027653934  0.027524178            3 
 2039000   0.92828569   -7.0447293    677.09091  0.027672508  0.027517104            3 
 2040000   0.92329014   -7.0312114    678.19164  0.027703907  0.027510059            7 
 2041000   0.93354721    -7.088453    676.80227  0.027633606  0.027503006            3 
 2042000   0.92778324   -7.0846101    676.72135  0.027616771  0.027495905            5 
 2043000   0.92307379   -7.0485497    676.96995  0.027613393  0.027488784            2 
 2044000   0.91935133   -7.0515689    678.66282  0.027668902  0.027481816            4 
 2045000   0.92132781   -7.0288253    676.89443   0.02758331  0.027474843            4 
 2046000   0.92067485   -7.0716958    679.60844   0.02768037  0.027467724            4 
 2047000   0.94022355   -7.0700926    678.57273  0.027624684   0.02746068            2 
 2048000   0.93453274   -7.0401671    679.14229   0.02763437  0.027453728            3 
 2049000   0.91999667   -7.0441405    679.24363  0.027625005  0.027446736            4 
 2050000   0.93538435   -7.0628568    678.94924  0.027599563   0.02743968            3 
 2051000   0.93310486   -7.0726361    679.60993   0.02761295  0.027432696            8 
 2052000   0.93228217   -7.0529911    679.08274  0.027578084  0.027425765            3 
 2053000   0.93184205   -7.0578731    679.18862  0.027568948  0.027418672            6 
 2054000   0.91863908   -7.0846306    679.93692  0.027585886  0.027411621            3 
 2055000   0.91829843   -7.0813636     679.4942  0.027554509  0.027404541            5 
 2056000   0.92817488   -7.0527678    680.58178  0.027585189  0.027397498            5 
 2057000   0.93846249   -7.0621351    680.39205  0.027564092  0.027390555            3 
 2058000   0.92771268   -7.0624736    679.71346  0.027523221  0.027383538            4 
 2059000   0.91438034   -7.0648155    680.99472   0.02756171  0.027376541            3 
 2060000   0.91984757   -7.0787357    681.46437  0.027567329  0.027369617            4 
 2061000   0.94061156   -7.0440847     680.5938  0.027518753  0.027362673            5 
 2062000   0.92794444    -7.064261     681.8648  0.027556773  0.027355723            4 
 2063000   0.94025529   -7.0698858    683.16545  0.027595955  0.027348717            3 
 2064000   0.92912246   -7.0416479    682.78021  0.027567031  0.027341792            4 
 2065000   0.90317565   -7.0564486    682.75175  0.027552532    0.0273349            3 
 2066000   0.91983709   -7.0663169    680.83858  0.027462027  0.027327898            6 
 2067000   0.92297411   -7.1025971    679.98978  0.027414521    0.0273209            4 
 2068000   0.92281078   -7.0542935    683.52137  0.027543576  0.027313908            7 
 2069000   0.92411377   -7.0918372    682.40232  0.027485191  0.027306914            3 
 2070000   0.90110326   -7.0452071    682.67778  0.027483002  0.027299974            5 
 2071000   0.92832082   -7.0681197    682.13389  0.027447847  0.027293012            3 
 2072000   0.91794579   -7.0733073    681.28015  0.027400263  0.027286036            4 
 2073000   0.90578598   -7.0811975    683.46012  0.027474679   0.02727906            3 
 2074000   0.90637565   -7.1012519    682.31929  0.027415594  0.027272064            2 
 2075000   0.92213731   -7.0761022    683.22239   0.02743865  0.027265015            3 
 2076000   0.91884677   -7.0760562     681.8313  0.027369593  0.027258005            4 
 2077000   0.90093083   -7.0831576    683.30602  0.027415584  0.027250964            6 
 2078000   0.91288673   -7.0232608    686.04002  0.027512032  0.027243939            2 
 2079000   0.92574374   -7.0988704    683.21251  0.027385462  0.027236934            6 
 2080000   0.92249057   -7.0738612    682.46944  0.027342526  0.027229897            3 
 2081000   0.92510263   -7.0842853    684.72581  0.027419742  0.027222861            3 
 2082000   0.91951237   -7.0807411    683.08262  0.027340803  0.027215844            3 
 2083000   0.90435812   -7.0581761    684.19565  0.027372206  0.027208844            2 
 2084000   0.93541094   -7.0945716    682.60447  0.027295444  0.027201793            3 
 2085000   0.90559229   -7.0869664    684.28903  0.027349681  0.027194718            3 
 2086000    0.9455388   -7.0711823    684.29321  0.027336737  0.027187683            7 
 2087000   0.90251098    -7.083132    683.81653  0.027304605  0.027180625            3 
 2088000   0.93979298   -7.0869459    683.39912  0.027274869  0.027173555            2 
 2089000   0.92792391   -7.0528806    686.27048  0.027376356  0.027166596            5 
 2090000   0.90292833   -7.0917603    684.57473  0.027295643  0.027159581            2 
 2091000    0.9048234   -7.0778226    685.08437    0.0273029  0.027152502            3 
 2092000   0.93367975   -7.0897912    683.28829  0.027218304  0.027145408            4 
 2093000   0.93004258   -7.0801644    683.14923  0.027199762  0.027138408            2 
 2094000   0.92817223   -7.1016023    685.79735  0.027292158  0.027131407            7 
 2095000   0.91332098   -7.0708539    687.70062  0.027354838  0.027124419            3 
 2096000    0.9074406   -7.1019678    685.80134  0.027266275  0.027117508            3 
 2097000   0.92042643   -7.0764029    685.36252  0.027235834  0.027110551            4 
 2098000   0.91141804   -7.0823523    685.38017  0.027223553  0.027103611            7 
 2099000   0.92696369   -7.0975877    685.08161   0.02719873  0.027096659            4 
 2100000   0.91209948   -7.0770937    687.54603  0.027283573  0.027089774            4 
 2101000   0.90404688   -7.0894277    687.38136  0.027264055  0.027082874            8 
 2102000   0.93582114   -7.0663635    687.36969  0.027250622  0.027075941            3 
 2103000   0.91993851   -7.1113224    686.98159  0.027222285  0.027069046            2 
 2104000   0.92295921   -7.1072988    687.64079  0.027235456  0.027062107            2 
 2105000   0.89841171   -7.0733878    689.02687   0.02727739  0.027055203            3 
 2106000   0.89308641   -7.0783327    689.99862  0.027302889  0.027048262            4 
 2107000   0.89817315   -7.0993547     688.8584  0.027244834  0.027041337            3 
 2108000   0.92481624   -7.0988937    688.83279  0.027230898  0.027034459            4 
 2109000   0.90459568   -7.0676335    689.10619  0.027228789  0.027027557            3 
 2110000   0.90755769   -7.0560191    690.27318  0.027261974  0.027020706            4 
 2111000   0.93536511    -7.096707    688.48101  0.027178312  0.027013831            4 
 2112000   0.91132929   -7.0938035    687.64155  0.027132321  0.027006946            3 
 2113000   0.90982963   -7.0808752    687.98276  0.027132937  0.027000033            3 
 2114000   0.91182118   -7.0985826    689.18425  0.027167465  0.026993123           11 
 2115000   0.91207362   -7.0886373    689.86094  0.027181282  0.026986202            3 
 2116000   0.89864635   -7.0912491    689.19086  0.027142047  0.026979261            3 
 2117000   0.93241201   -7.1089484    690.24486  0.027170716  0.026972298            5 
 2118000   0.89900718   -7.0772269    689.50125   0.02712863  0.026965325            2 
 2119000   0.90090576   -7.0805991    689.65478  0.027121865  0.026958378            6 
 2120000   0.92934359   -7.1010623    688.29162  0.027055488  0.026951426           12 
 2121000   0.91757677    -7.066004    690.93059  0.027146417  0.026944539            4 
 2122000   0.92812138    -7.088979    688.95136  0.027055897  0.026937574            4 
 2123000   0.91725522   -7.0814029    690.85098  0.027117718  0.026930642            3 
 2124000   0.91309492   -7.0969521    691.68112   0.02713752  0.026923675            7 
 2125000   0.92058111   -7.0733119    691.13414    0.0271033  0.026916754            6 
 2126000   0.92257743   -7.0655379    692.18976  0.027131929  0.026909873            8 
 2127000   0.97083594   -7.1111662    690.74846  0.027062704  0.026902996            4 
 2128000   0.91423479   -7.0637898    691.85972  0.027093504  0.026896129            4 
 2129000   0.90642985   -7.1174636    691.33074  0.027060073  0.026889262            5 
 2130000   0.93605655   -7.1131785    690.17639  0.027002206  0.026882352            3 
 2131000   0.92151483   -7.1370408    692.41932  0.027077246  0.026875473            2 
 2132000   0.89647779   -7.0840233     691.8984  0.027044184  0.026868619            5 
 2133000    0.9113696   -7.1004207    693.47592  0.027093136  0.026861759            3 
 2134000   0.91975741   -7.0494307    694.87155   0.02713494  0.026854906            2 
 2135000   0.91717283   -7.1222956    692.63166  0.027034803  0.026848048            5 
 2136000   0.89881983   -7.0694671    693.73317   0.02706512  0.026841169            4 
 2137000   0.90560235   -7.0947866     693.1583  0.027030038  0.026834268            6 
 2138000   0.91651674   -7.0827599    693.33901  0.027024439  0.026827345            2 
 2139000   0.88672487   -7.1244077    692.67888  0.026986087  0.026820401            3 
 2140000     0.894623   -7.0988947    693.20163  0.026993833  0.026813438            3 
 2141000   0.90511037   -7.0891306    694.30463  0.027024156  0.026806599            7 
 2142000   0.90523193   -7.1184272    693.74931  0.026989936  0.026799799            4 
 2143000   0.92379491   -7.0924005    694.58705  0.027009918  0.026793004            3 
 2144000   0.90613644    -7.129484    696.73224    0.0270807  0.026786192            6 
 2145000   0.90809336   -7.1048151    696.67133  0.027065708  0.026779408            3 
 2146000   0.90843192    -7.089252    696.26637  0.027037371  0.026772667            3 
 2147000   0.88025137   -7.1275485    694.34803  0.026950319  0.026765858            6 
 2148000   0.89446851   -7.1076916    696.46937  0.027020072  0.026759053            4 
 2149000   0.90718907   -7.1135845    696.36539  0.027003466  0.026752305            3 
 2150000    0.9084911   -7.0927214    697.04009  0.027017058  0.026745563            5 
 2151000   0.88255649    -7.076365    697.05496  0.027005073  0.026738848            5 
 2152000   0.92233612   -7.1117874     695.9185  0.026948517   0.02673208            6 
 2153000   0.90966701   -7.0977622    695.68667  0.026927027  0.026725355           12 
 2154000   0.89978643   -7.1017903    695.98349  0.026926009   0.02671857            4 
 2155000    0.9027551   -7.1334986    696.68341   0.02694058  0.026711795            4 
 2156000   0.89911527   -7.0912224    698.64114  0.027003755  0.026704971            4 
 2157000   0.90323379   -7.0985541    699.31536  0.027017283  0.026698207            3 
 2158000   0.91328431   -7.0804187    698.46581  0.026971957  0.026691442            6 
 2159000   0.90269924      -7.0725    699.88227  0.027014137  0.026684676            6 
 2160000   0.91619639    -7.108605    696.00269  0.026851956  0.026677905            2 
 2161000    0.9114383   -7.0989539    697.14872  0.026883724   0.02667109            1 
 2162000   0.90456559   -7.0648193    700.15816  0.026987286  0.026664325            5 
 2163000    0.8957742   -7.0878084    697.58906  0.026875831  0.026657533            3 
 2164000   0.90930165   -7.1129416    698.29176  0.026890471  0.026650698            3 
 2165000    0.9105428    -7.126164    698.17058  0.026873386  0.026643763            5 
 2166000   0.90462679   -7.0982647    698.36923  0.026868622  0.026636926            4 
 2167000   0.89855518   -7.1066594    699.45161  0.026897847  0.026630068            4 
 2168000   0.90175526   -7.1358789     698.3286  0.026842274  0.026623219            5 
 2169000   0.89543829   -7.1228402    696.98382  0.026778232  0.026616301            4 
 2170000   0.90575014   -7.1158307    698.63129  0.026829159  0.026609409            2 
 2171000   0.91964742   -7.1028687    696.78238  0.026745831  0.026602508            4 
 2172000   0.91874777   -7.0992393    697.93151  0.026777605  0.026595585            4 
 2173000    0.8976331   -7.1228468    697.56284  0.026751144  0.026588605            7 
 2174000   0.91033578   -7.1269508    697.25461  0.026727024  0.026581643            5 
 2175000   0.92022752   -7.1093638    697.57483  0.026727005  0.026574684            4 
 2176000   0.91022968   -7.0877069    696.81981  0.026685808  0.026567726            5 
 2177000   0.89896817   -7.0902924    699.05644  0.026759166  0.026560767            6 
 2178000   0.89340683   -7.1175235     699.2834  0.026755563  0.026553822            6 
 2179000   0.91309411   -7.1105883    699.43581  0.026749113  0.026546909            5 
 2180000   0.90553378   -7.1242705    699.95405  0.026756653  0.026540041            4 
 2181000    0.9005683   -7.1013664    698.17661  0.026676471  0.026533083            4 
 2182000   0.89846688   -7.0668873    699.85865  0.026728485  0.026526101            2 
 2183000   0.89051942   -7.1323485    697.61622  0.026630639  0.026519061            8 
 2184000   0.92100919   -7.1541588    698.56358  0.026654593  0.026511991            3 
 2185000   0.91102466   -7.1107583    698.56034  0.026642271  0.026504931            2 
 2186000   0.88799629   -7.1137287     699.1219   0.02665149  0.026497861            2 
 2187000    0.9064739   -7.1338848    698.21761  0.026604847  0.026490904            2 
 2188000   0.92383909   -7.0958564    699.96974   0.02665942  0.026483902            5 
 2189000   0.91617423   -7.1177535    696.54277   0.02651678  0.026476875            9 
 2190000   0.89631894   -7.1175774    698.77449  0.026589592  0.026469863            4 
 2191000   0.90135544   -7.1166871    698.63022  0.026571969  0.026462782            5 
 2192000    0.9077224    -7.130027    698.67576  0.026561579  0.026455635            2 
 2193000   0.88905891   -7.1134645    699.12386  0.026566494  0.026448536            2 
 2194000   0.90821532   -7.1074644    700.52535  0.026607617   0.02644153            5 
 2195000   0.89957735   -7.1342489    697.61626  0.026485052  0.026434452            3 
 2196000   0.91332204    -7.088236    699.40224  0.026540765  0.026427384            3 
 2197000   0.90826024   -7.0988694    700.69313  0.026577649  0.026420338            5 
 2198000   0.89987384   -7.1182521    699.91364  0.026536004  0.026413223            6 
 2199000   0.90206018   -7.0927712    700.66374  0.026552363  0.026406086            3 
 2200000   0.89118187   -7.1204259    699.27721  0.026487773  0.026399017            4 
 2201000   0.90829806   -7.1199559    699.12007  0.026469789  0.026391927            3 
 2202000   0.88371985   -7.0982616    698.68827  0.026441427  0.026384834            4 
 2203000   0.88326229   -7.0984486     699.7492  0.026469557  0.026377711            5 
 2204000   0.89170628   -7.1001187    700.84174  0.026498856  0.026370621            2 
 2205000   0.87525473   -7.1474487    701.16799  0.026499168  0.026363502            3 
 2206000   0.91455961   -7.1056041    700.50245  0.026462014   0.02635636            2 
 2207000   0.89471824   -7.1299981    700.85605  0.026463376  0.026349211            5 
 2208000   0.87789508   -7.1316548      700.456  0.026436292  0.026342039            2 
 2209000   0.88974609   -7.1291145    699.38769  0.026384023  0.026334868            6 
 2210000   0.88563186   -7.1493476    700.37112  0.026409167  0.026327694            5 
 2211000   0.88504716   -7.0897366    701.00713  0.026421194  0.026320612            9 
 2212000   0.90253862   -7.1238723    704.41785  0.026537743  0.026313589            4 
 2213000   0.89633302   -7.1178104    701.35151  0.026410284  0.026306548            3 
 2214000   0.89852169   -7.1134133     703.3049   0.02647188  0.026299424            3 
 2215000   0.89070183   -7.1066499    702.57564  0.026432492  0.026292355            4 
 2216000   0.89547644   -7.1510081    703.15051  0.026442182  0.026285245            3 
 2217000   0.90347896   -7.1447049    703.29921  0.026435844  0.026278172            6 
 2218000   0.90008785   -7.1316473    703.04963  0.026414549  0.026271059            5 
 2219000   0.89989555   -7.1522916    702.14733   0.02636876  0.026263952            3 
 2220000   0.90190962   -7.1188734     702.7267   0.02637863  0.026256844            3 
 2221000   0.90490534   -7.1432486    703.12959   0.02638187  0.026249778            2 
 2222000   0.89783352   -7.1607919    702.85069  0.026359537  0.026242748            3 
 2223000   0.88840733   -7.0839206    705.58328  0.026450116  0.026235708            3 
 2224000   0.91053864   -7.1339768    704.07729  0.026381793   0.02622869            3 
 2225000    0.8986491   -7.1278233    703.66443  0.026354473  0.026221616            5 
 2226000   0.89242557   -7.1184208    705.13752  0.026397781  0.026214575            2 
 2227000   0.90321896   -7.1022522    702.77185  0.026297405  0.026207472            7 
 2228000   0.89510733   -7.1222434     704.5992   0.02635395  0.026200407            5 
 2229000    0.8864675   -7.1276366    703.66204   0.02630709  0.026193288            3 
 2230000   0.89838182   -7.1205239    702.85093  0.026264982   0.02618612            3 
 2231000   0.88890818   -7.1300941    704.26907  0.026306181  0.026178978            3 
 2232000    0.8961287   -7.1249282    703.22809  0.026255529  0.026171911            2 
 2233000   0.91453797   -7.1019216    704.10036  0.026276323  0.026164802            2 
 2234000    0.8853744   -7.1471688     704.3399  0.026273497  0.026157678            5 
 2235000   0.90031695   -7.1521165    704.60474  0.026271616  0.026150521            5 
 2236000   0.88814803   -7.1464425    705.45589  0.026291588  0.026143392            4 
 2237000   0.89237886   -7.1331847    705.29499  0.026273841  0.026136239            4 
 2238000   0.88364759   -7.1495377    704.80064  0.026243694  0.026129128            3 
 2239000   0.89330582   -7.1478634    705.79192  0.026268867  0.026122037            2 
 2240000   0.89060502   -7.1253403    705.23201   0.02623631     0.026115            2 
 2241000   0.89885475   -7.1385724    705.48106  0.026233864  0.026107913            5 
 2242000   0.90453074   -7.1231001    706.50231  0.026260122  0.026100823            3 
 2243000   0.89720014   -7.1096276    704.42658  0.026171295  0.026093775            7 
 2244000   0.88732191   -7.1522513    704.37038  0.026157545  0.026086699            3 
 2245000    0.8835769   -7.1159885    706.14607  0.026211807  0.026079614            7 
 2246000   0.88246477   -7.1500845    705.88063  0.026190288  0.026072579           12 
 2247000   0.89240092   -7.0900604     706.6046  0.026205481  0.026065545            2 
 2248000    0.8839115   -7.1314761    706.18329  0.026178206  0.026058538            4 
 2249000   0.89662551   -7.1311809    706.58589  0.026181484  0.026051558            6 
 2250000   0.88265242   -7.1142443    706.74832  0.026175864   0.02604463            2 
 2251000   0.88364845   -7.1380087    707.19119   0.02618063  0.026037652            3 
 2252000   0.90721448   -7.1325135    707.38295  0.026176101  0.026030671            5 
 2253000   0.89223678   -7.1368208    708.01469  0.026187849  0.026023749            6 
 2254000    0.8840968   -7.1007158    708.47501   0.02619325  0.026016797            2 
 2255000   0.90150655   -7.1884343    707.48127   0.02614491  0.026009813            2 
 2256000   0.87431692   -7.1465534    707.56015  0.026136235  0.026002874            3 
 2257000   0.88107629   -7.1156571    709.24991  0.026187044  0.025995874            3 
 2258000    0.9015472   -7.1225352    710.40747  0.026218168  0.025988907            4 
 2259000    0.8743139   -7.1282838    707.97504   0.02611683  0.025981963            6 
 2260000   0.88591245   -7.1154388    709.42916  0.026158892    0.0259751            3 
 2261000   0.91666276   -7.1364717    708.07836  0.026097537  0.025968201            4 
 2262000   0.89389651   -7.1663836     708.5854  0.026104679  0.025961213            3 
 2263000   0.89287303   -7.1782855    707.43124  0.026050642  0.025954207            4 
 2264000   0.90602955   -7.1490794    707.31967  0.026035029  0.025947174            5 
 2265000   0.88194704   -7.1588672    708.05507  0.026050591  0.025940129            2 
 2266000   0.90126943   -7.1415491    710.54334  0.026130602  0.025933118            6 
 2267000   0.89372376   -7.1323341    710.34541    0.0261118  0.025926099            9 
 2268000    0.8816083   -7.1487993    707.71051  0.026003472  0.025919074            3 
 2269000   0.89219997    -7.147441    710.61803  0.026098797  0.025912087            6 
 2270000   0.88380181    -7.173047    709.85756  0.026059382   0.02590511            4 
 2271000   0.88684478   -7.1697015    708.86474  0.026011476  0.025898085            3 
 2272000   0.91432898   -7.1521066    709.54736  0.026025065  0.025891095            3 
 2273000   0.89884288   -7.1333018    710.49568  0.026048382  0.025884095            4 
 2274000   0.91467762    -7.129844    711.15804  0.026061201  0.025877125            3 
 2275000     0.866084   -7.1394901    710.90993  0.026040657   0.02587019            4 
 2276000   0.86432644   -7.1365825    709.08876  0.025962535  0.025863154            2 
 2277000   0.89066125   -7.1372515    710.67393  0.026009147  0.025856113            6 
 2278000   0.86813154   -7.1614581    709.81773  0.025966408  0.025849088            5 
 2279000   0.88432191   -7.1602986    709.99129  0.025961361  0.025842015            4 
 2280000   0.88231227   -7.1577508    709.78294  0.025942359  0.025834909            2 
 2281000   0.89159171   -7.1383633    709.28573  0.025912821  0.025827828            3 
 2282000   0.89769119   -7.1860453    708.53361     0.025874   0.02582072            3 
 2283000    0.8887123   -7.1274115    710.78539   0.02594486  0.025813619            3 
 2284000   0.86474503   -7.1770841    709.04413   0.02586997  0.025806538            5 
 2285000   0.88790147   -7.1507268    708.75805  0.025848215  0.025799508            8 
 2286000   0.89503893   -7.1855678    709.08126   0.02584869  0.025792455            2 
 2287000   0.85844607   -7.1388832    712.17657  0.025950174  0.025785362            3 
 2288000   0.88118275   -7.1413614    711.51728  0.025914819  0.025778293            4 
 2289000   0.89569475   -7.1351377    711.39063  0.025898887  0.025771275            4 
 2290000   0.88225401   -7.1773699    711.48156  0.025890887  0.025764217            3 
 2291000    0.8752736   -7.1349129    710.96632  0.025860844  0.025757095            4 
 2292000   0.90089737   -7.1368185    712.11291  0.025891249  0.025750021            6 
 2293000   0.87786946   -7.1744149    710.22653  0.025811402  0.025742893            2 
 2294000     0.882151   -7.1488236    710.90593   0.02582483  0.025735809            4 
 2295000   0.88487783   -7.1403039    714.37949  0.025939706  0.025728717            4 
 2296000   0.87651346   -7.1323331    711.19692  0.025812896  0.025721701            2 
 2297000   0.87539359    -7.143413    713.70729  0.025892733  0.025714714            4 
 2298000    0.8963217   -7.1229664    712.90229  0.025852273  0.025707701            7 
 2299000    0.8896283   -7.1591903    712.63032   0.02583117  0.025700697            4 
 2300000   0.87890165   -7.1328352    715.77382  0.025933834  0.025693749            2 
 2301000   0.88645073   -7.1288742    712.03896  0.025787301   0.02568677            8 
 2302000   0.88975872   -7.1554076    712.79869  0.025803602  0.025679672            8 
 2303000   0.88362894   -7.1330459    713.48777  0.025817331  0.025672554            4 
 2304000   0.87143941   -7.1477479    712.74494  0.025779259  0.025665481            8 
 2305000    0.8738523   -7.1559014    714.57229  0.025834139  0.025658404           14 
 2306000   0.87167087   -7.1634971    714.09642  0.025805739  0.025651317            4 
 2307000   0.90744992   -7.1477895    714.02844  0.025792098  0.025644235            3 
 2308000   0.87794373   -7.1558959    714.97773  0.025815198  0.025637153            4 
 2309000   0.88669962   -7.1274922    714.64939  0.025792168  0.025630088            5 
 2310000   0.87192795   -7.1270465    715.15381    0.0257992  0.025623002            4 
 2311000     0.875614   -7.1322223    713.14878  0.025715736  0.025615914            4 
 2312000   0.89160853   -7.1499499    713.45288  0.025715574  0.025608916            4 
 2313000   0.88041691   -7.1297122    714.48107    0.0257415   0.02560189            3 
 2314000   0.88260582   -7.1599604      714.716  0.025738836  0.025594849            6 
 2315000   0.90711609   -7.1502935    715.63249  0.025760709  0.025587819            9 
 2316000   0.89229303    -7.169723    714.79974  0.025719622  0.025580804            3 
 2317000    0.8904307   -7.1661093    715.55825  0.025735803  0.025573859            3 
 2318000   0.88351226   -7.1556981     715.4778  0.025721808  0.025566926            4 
 2319000   0.89189997   -7.1641541    716.30604  0.025740479  0.025559885            4 
 2320000     0.868911   -7.1660514    715.03639  0.025683778  0.025552927            7 
 2321000   0.89836549   -7.1522541     717.0711  0.025745767  0.025545983            6 
 2322000   0.87621528   -7.1463432    715.57968  0.025681154    0.0255391            4 
 2323000   0.85475054   -7.1381327    715.68385  0.025673836   0.02553221            3 
 2324000    0.8872835   -7.1350196    719.32319  0.025793287  0.025525315            4 
 2325000   0.85600003   -7.1568809     716.1202  0.025667391  0.025518377            4 
 2326000   0.85796416   -7.1405999    716.55011  0.025671758   0.02551148            3 
 2327000   0.87545777   -7.0928036     719.8566  0.025779136  0.025504594            2 
 2328000   0.88668585   -7.1819535    716.70415  0.025655217  0.025497755            9 
 2329000   0.85746894   -7.1647272    717.67393  0.025678901  0.025490879            3 
 2330000   0.88951832   -7.1509714    717.66354  0.025667509  0.025483981            3 
 2331000   0.89249356   -7.1933033    716.09714  0.025600498  0.025477047            4 
 2332000   0.90563526   -7.2035138    714.00007  0.025514582   0.02547003            5 
 2333000   0.89714244   -7.1483943      718.798  0.025675025  0.025463065            3 
 2334000   0.89121646   -7.1589775    717.65094   0.02562307  0.025456104            6 
 2335000   0.87214161   -7.1240466     718.2372  0.025633019  0.025449165            3 
 2336000   0.87849371   -7.1608681     717.5478  0.025597453   0.02544218            3 
 2337000   0.88875439   -7.1954272    716.56473  0.025551445  0.025435184            4 
 2338000   0.87078326   -7.1603418     719.7904  0.025655489  0.025428119            4 
 2339000   0.86996607   -7.1722788    718.11432  0.025584806  0.025421156            4 
 2340000   0.87131396   -7.1709799    718.57358  0.025590227  0.025414216            7 
 2341000   0.86974065   -7.1882552    716.69178  0.025512309  0.025407213            6 
 2342000   0.87434309   -7.1435205    716.95755  0.025510872  0.025400268            4 
 2343000   0.87342203   -7.1625571    718.09668  0.025540499  0.025393301            6 
 2344000   0.88467948   -7.1786584    720.40126  0.025611535  0.025386344            4 
 2345000   0.86615104   -7.1680296    721.45522  0.025638068   0.02537947            3 
 2346000   0.86788317   -7.1771769    719.92157  0.025572661  0.025372533            3 
 2347000   0.88660101   -7.1324098    720.55791   0.02558436  0.025365564            2 
 2348000   0.88435115   -7.1718413    719.31684  0.025529417  0.025358563            2 
 2349000   0.87682082   -7.1775484     718.4228  0.025486831  0.025351593            3 
 2350000    0.8644121   -7.1572728    719.16463  0.025502292   0.02534456            5 
 2351000    0.8503212   -7.1625283    716.89938  0.025411151  0.025337522            3 
 2352000    0.8838157   -7.1527426    720.49718   0.02552782   0.02533049            4 
 2353000   0.86745319   -7.2046292    717.08584  0.025396155  0.025323435            2 
 2354000   0.89079813   -7.1597299    720.26138  0.025497783   0.02531638            3 
 2355000   0.89291986    -7.153719    719.51042  0.025460383  0.025309302            6 
 2356000   0.84599893   -7.1372268    720.32441  0.025478368  0.025302323            6 
 2357000   0.89043792   -7.1739216    718.48811  0.025402634  0.025295316            3 
 2358000   0.86072988   -7.1529705    719.98459  0.025444748   0.02528834            2 
 2359000   0.87526065   -7.1565505    719.28827  0.025409364  0.025281265            6 
 2360000   0.88489287   -7.1781935    721.74137  0.025485218  0.025274212            4 
 2361000   0.86902249   -7.2006975    719.61109  0.025399234  0.025267146            2 
 2362000   0.86286149    -7.178649    718.75305  0.025358208   0.02526011            7 
 2363000   0.88231938   -7.2087223     718.1618  0.025326626  0.025253035            7 
 2364000   0.86726784   -7.1590466    721.27147  0.025425531  0.025245933            3 
 2365000   0.89397402   -7.1736818    719.52067  0.025353089  0.025238888            3 
 2366000    0.8857542   -7.1785612    720.15893  0.025364854  0.025231821            3 
 2367000   0.87870857   -7.1952217     719.6936  0.025337755   0.02522473            3 
 2368000   0.86543166   -7.2008228    719.24551  0.025311286  0.025217608            4 
 2369000   0.88195276   -7.1813892    719.74727  0.025318252  0.025210426            3 
 2370000   0.88044351    -7.165539    719.51598  0.025299437  0.025203253            6 
 2371000   0.86485557   -7.1949332    718.31322  0.025246493  0.025196114            5 
 2372000   0.87826046   -7.1720219    719.45905  0.025276105  0.025188968            8 
 2373000   0.86584042    -7.180336    720.05394  0.025286344  0.025181842            6 
 2374000   0.86856757   -7.1930889    719.96662  0.025272628   0.02517471            4 
 2375000    0.8738673   -7.1603226    720.71695  0.025288314  0.025167659            7 
 2376000   0.87030656   -7.1814843     720.1832  0.025258951  0.025160589            6 
 2377000   0.85919213   -7.1834154    721.73994  0.025302901  0.025153532            3 
 2378000   0.86310851   -7.1983779    719.77342  0.025223347  0.025146454            8 
 2379000   0.86033168   -7.1819541    721.44896  0.025271436  0.025139366            8 
 2380000   0.86510501   -7.1851854    721.43539  0.025260343  0.025132266            3 
 2381000   0.87629707   -7.2048369    720.20741  0.025206755  0.025125166            2 
 2382000   0.85744804   -7.1933147    719.90198  0.025185488   0.02511801            2 
 2383000   0.88047245   -7.1630586    719.69651  0.025167734  0.025110893            3 
 2384000   0.86369318   -7.1693063    721.57754  0.025222929  0.025103753            4 
 2385000   0.88320667    -7.173187    722.07794  0.025229837  0.025096675            5 
 2386000   0.86459411   -7.1663402    721.44653   0.02519721  0.025089546            4 
 2387000   0.88367678   -7.1776347    722.61849  0.025227569  0.025082466            7 
 2388000   0.85159057   -7.1428046    723.12447  0.025234662  0.025075394            2 
 2389000   0.86612673   -7.1688037    720.78014  0.025142324   0.02506836            3 
 2390000   0.86800489   -7.1798653    722.45242  0.025190112  0.025061389            8 
 2391000   0.87480039    -7.187297    724.61175  0.025254836  0.025054434            2 
 2392000    0.8705618   -7.1992042    722.83395  0.025182342  0.025047441            8 
 2393000   0.86789534    -7.176272    723.46412  0.025193764  0.025040456            5 
 2394000   0.87146811     -7.15998    724.13339  0.025206537  0.025033485            6 
 2395000   0.86334099   -7.1765131    724.37614  0.025204458  0.025026564            3 
 2396000   0.85376225   -7.1858869    725.32941  0.025227094  0.025019689            3 
 2397000   0.86823449   -7.2024045     722.8146  0.025129141  0.025012735            2 
 2398000    0.8622707   -7.1957829    724.98956  0.025194244  0.025005775            3 
 2399000   0.86284008   -7.2072607    723.44757  0.025130178  0.024998824            4 
 2400000   0.87668357   -7.1952471     723.9714  0.025137896  0.024991848            5 
 2401000   0.85679044   -7.1873195     725.6195  0.025184628  0.024984908            5 
 2402000   0.88369951   -7.1879214     726.3721  0.025200253  0.024977973            7 
 2403000   0.85964652   -7.2059052    723.76674  0.025099415  0.024971016            4 
 2404000   0.85558766   -7.1624048    726.66933  0.025189591  0.024964071            5 
 2405000    0.8570097   -7.2288796    723.75939  0.025078288  0.024957145            8 
 2406000   0.84976839   -7.2278991    723.62854  0.025063333  0.024950149            4 
 2407000   0.87413893   -7.1837163    726.82709  0.025163658  0.024943211            4 
 2408000   0.86580749   -7.1610637     727.0896  0.025162292  0.024936282            5 
 2409000   0.87047832   -7.1862716    724.60746  0.025065984  0.024929377            3 
 2410000   0.85886346   -7.1961161    725.07297  0.025071679  0.024922465            4 
 2411000   0.86122698   -7.1989944    725.58327  0.025078919  0.024915529            3 
 2412000   0.86943702   -7.1961864    725.92167  0.025080212  0.024908618            2 
 2413000   0.86823412   -7.1751761    726.14956  0.025077689  0.024901675            2 
 2414000   0.85136922   -7.1882456    726.32711   0.02507343  0.024894778            4 
 2415000   0.86170438    -7.187545    727.15058  0.025091462  0.024887803            4 
 2416000   0.88495915   -7.1665902    725.94932  0.025039643  0.024880897            2 
 2417000   0.86833021   -7.2122296     729.2132  0.025141815   0.02487404           11 
 2418000   0.86147256   -7.1918345    728.48794  0.025106422  0.024867262            3 
 2419000   0.84948803   -7.2026603    726.33106   0.02502174  0.024860431            2 
 2420000   0.88271592   -7.1989903    727.80372  0.025062112  0.024853598            3 
 2421000   0.84719648   -7.1883001    727.68443  0.025047654  0.024846773            9 
 2422000   0.85165387   -7.1868717    728.54152  0.025066802  0.024839986            6 
 2423000   0.84369511    -7.199581    728.17818   0.02504396  0.024833176            7 
 2424000   0.86001391   -7.1927898    727.41561  0.025007412   0.02482636            2 
 2425000    0.8905831     -7.16364    729.19621  0.025058289  0.024819597            3 
 2426000   0.88156689   -7.1744059    730.06054   0.02507765  0.024812883            3 
 2427000   0.86200664   -7.1727832    729.60567  0.025051699   0.02480618            6 
 2428000   0.85642958   -7.1966131    729.69747  0.025044532   0.02479944            4 
 2429000   0.85044177   -7.1928334    729.10997  0.025014065  0.024792764            9 
 2430000   0.86500345   -7.2042216    729.71012  0.025024353  0.024786067            4 
 2431000   0.86383168    -7.189157    729.97542  0.025023153  0.024779324            4 
 2432000   0.86328092   -7.1949775    728.64758  0.024967365  0.024772584            6 
 2433000   0.84776611   -7.1561379    732.42571  0.025086509  0.024765829            3 
 2434000   0.87779257   -7.1743055    732.04299  0.025063099   0.02475911            4 
 2435000   0.85969789   -7.1924146    730.50805  0.025000275  0.024752406           11 
 2436000    0.8659892     -7.19481    731.39875  0.025020483  0.024745659            3 
 2437000   0.84119789   -7.1863773    730.71177  0.024986725  0.024738909            6 
 2438000   0.88334092   -7.1781543    732.53108  0.025038661  0.024732138            9 
 2439000   0.86468635   -7.1815415    730.66105  0.024964502  0.024725405            9 
 2440000    0.8584757   -7.1549873    732.68581  0.025023423   0.02471868            5 
 2441000   0.84661559   -7.2076757    730.79006  0.024948452  0.024711914            4 
 2442000   0.85901266   -7.2101979     729.5793  0.024896919  0.024705078            7 
 2443000    0.8746547   -7.2130971    729.45055  0.024882336  0.024698215            4 
 2444000   0.86262085   -7.1970178    730.38888  0.024904149  0.024691341            7 
 2445000   0.85826591   -7.2128695    731.62911  0.024936234  0.024684475            5 
 2446000   0.86875135   -7.2013831    731.09343  0.024907789  0.024677647            3 
 2447000   0.86428157   -7.1998388    731.99438  0.024928292  0.024670833            2 
 2448000   0.85815993   -7.2224047    730.13956  0.024854969  0.024663992            2 
 2449000   0.87036406   -7.1758127    731.95973  0.024906756  0.024657181            7 
 2450000   0.87218951   -7.2339529    730.06211  0.024832044  0.024650327            3 
 2451000    0.8543404    -7.222038    729.17195  0.024791648  0.024643462            4 
 2452000   0.84698189   -7.2173036    729.30335  0.024786003  0.024636545            6 
 2453000    0.8629605   -7.1975223    728.80747  0.024759052  0.024629634            3 
 2454000   0.85073946   -7.2047097    731.52057  0.024841095  0.024622725            3 
 2455000   0.85781027   -7.2081732    730.04081  0.024780747  0.024615823            4 
 2456000   0.84272974   -7.2016359    732.66758  0.024859785  0.024608998            3 
 2457000   0.85339265   -7.1949692    730.86689  0.024788594  0.024602191            3 
 2458000    0.8571592   -7.1924529    732.75195  0.024842418  0.024595306            3 
 2459000   0.87016445   -7.2478504    727.97809  0.024670533  0.024588361            3 
 2460000   0.85994146    -7.218466    732.34852  0.024808554  0.024581387            3 
 2461000   0.87837807     -7.20061    732.60583  0.024807186  0.024574496            6 
 2462000   0.83984541   -7.2154925    731.09399  0.024745938  0.024567572            8 
 2463000   0.85656866   -7.2340512    731.07676  0.024735308  0.024560655            4 
 2464000    0.8784779   -7.2224237      733.113  0.024794136  0.024553728           13 
 2465000   0.85684431   -7.2447879    731.99108  0.024746149  0.024546834            5 
 2466000   0.86837239   -7.2024202    731.13814  0.024707291  0.024539881            3 
 2467000   0.84114188   -7.2022456    732.71668  0.024750597  0.024533032            4 
 2468000   0.85365595   -7.2095937      732.523  0.024734029   0.02452617            4 
 2469000   0.87118265   -7.2102373    733.73586  0.024764947  0.024519274            5 
 2470000   0.84406922   -7.2086268    732.87582  0.024725905  0.024512385            4 
 2471000   0.85117946   -7.2213917    731.37852  0.024665403   0.02450549            9 
 2472000   0.84493187    -7.198768    731.41317  0.024656593  0.024498586            3 
 2473000   0.85286038     -7.21253    733.16052  0.024705503   0.02449163            3 
 2474000   0.86242711   -7.2304452    731.00972  0.024623071  0.024484746            4 
 2475000   0.84199785   -7.2282915    732.56793  0.024665587  0.024477849            2 
 2476000    0.8750006   -7.2294142    734.13885  0.024708496  0.024470947            5 
 2477000   0.85971874   -7.2009492    733.81963  0.024687782  0.024464061            3 
 2478000   0.86893952   -7.2189637    734.02119  0.024684597  0.024457145            5 
 2479000   0.85610687   -7.2350502    732.08195  0.024609451  0.024450211            4 
 2480000   0.86932591   -7.2507837    731.27435  0.024572391   0.02444324            6 
 2481000   0.87573398    -7.221801    731.91855  0.024584124  0.024436285            7 
 2482000   0.85399918   -7.2222889    734.17113   0.02464985  0.024429332            3 
 2483000   0.86844612   -7.1971799     731.7653  0.024559179  0.024422434            8 
 2484000   0.85282405   -7.1981486    733.34512  0.024602292  0.024415577            2 
 2485000   0.85476243   -7.2049897    731.66925  0.024536192  0.024408639            3 
 2486000   0.83395407    -7.202185    732.66037  0.024559546  0.024401734            3 
 2487000   0.86300339   -7.2193062     733.2161  0.024568292  0.024394822            3 
 2488000    0.8453219   -7.2148785    733.74735  0.024576211  0.024387951            4 
 2489000   0.86060449   -7.2003622     735.0512  0.024609991  0.024381065            2 
 2490000   0.84082586    -7.227189    732.88831  0.024527721  0.024374149            4 
 2491000   0.86293573   -7.2224989    734.31623  0.024565644  0.024367265            4 
 2492000   0.84642326   -7.2060319    736.00881  0.024612387  0.024360395            6 
 2493000   0.84891066   -7.2065357    734.18188  0.024541445  0.024353524            7 
 2494000   0.84874591   -7.2110492    732.96093  0.024490809  0.024346635            2 
 2495000   0.85374438   -7.2273997    733.68668  0.024505233  0.024339773            6 
 2496000   0.85742559   -7.2195843    734.74165  0.024530637  0.024332854            4 
 2497000   0.84610189    -7.233822    734.57193  0.024515149  0.024325887            4 
 2498000   0.85651965   -7.2306482    734.67069   0.02450863  0.024318927            5 
 2499000   0.85787917   -7.2156637    736.87207  0.024572231  0.024312031            5 
 2500000   0.84743757   -7.2534342    735.27486  0.024509162  0.024305143            2 
 2501000   0.84457945   -7.2098046    733.50729  0.024440467   0.02429823            2 
 2502000   0.84327669    -7.223902    736.13882  0.024518346  0.024291323            3 
 2503000   0.83765529    -7.236823    734.88533  0.024466817  0.024284387            3 
 2504000   0.86024665   -7.2207639    734.52839  0.024445168  0.024277466            2 
 2505000   0.84954791   -7.2475991    734.71336  0.024441562  0.024270596            3 
 2506000   0.85786565   -7.2009201    735.70561  0.024464805  0.024263781            3 
 2507000   0.85446199   -7.1902521    737.89814  0.024527926  0.024256988            3 
 2508000   0.85253982    -7.232095    735.98558  0.024454598  0.024250182            8 
 2509000    0.8374395   -7.2339529    738.70466  0.024535162  0.024243381            5 
 2510000   0.84814054   -7.2186567    736.41559  0.024449389  0.024236602            7 
 2511000   0.85974633   -7.1955267    737.66296  0.024481049  0.024229836            3 
 2512000   0.84582317    -7.223271    737.23884  0.024457233  0.024223029            4 
 2513000   0.83683746   -7.2081323    737.21915  0.024446848  0.024216194           10 
 2514000   0.84350051   -7.2227213    738.18351   0.02446909  0.024209379            4 
 2515000    0.8435562   -7.2496466    736.56734   0.02440581  0.024202564            9 
 2516000   0.85008713   -7.2257666    738.07309  0.024445982  0.024195821            2 
 2517000   0.84613931   -7.2336957    740.01664  0.024500617  0.024189075            2 
 2518000   0.84387522    -7.184198    737.24017  0.024398999  0.024182321            2 
 2519000   0.84612208   -7.2196292    737.82045   0.02440851  0.024175552            6 
 2520000   0.84435485   -7.2172268    735.86889  0.024334289  0.024168766            2 
 2521000   0.85737644   -7.1946924    739.57822   0.02444725  0.024162011            4 
 2522000   0.83761392   -7.2049452     738.8666  0.024414043  0.024155222            2 
 2523000   0.84669472   -7.2323223    736.51794  0.024326792  0.024148447            6 
 2524000   0.83846126   -7.2209114    739.97311  0.024431231  0.024141652            4 
 2525000   0.83142986   -7.2248881    738.54186  0.024374319  0.024134892            4 
 2526000   0.84723744   -7.2392135    737.75933  0.024338854  0.024128087            5 
 2527000   0.86852853   -7.2320761    737.99056  0.024336847  0.024121293            4 
 2528000   0.85128401   -7.2045996    740.30509  0.024403517  0.024114468            4 
 2529000   0.84718143   -7.2176227    737.99265   0.02431767  0.024107661            5 
 2530000   0.84837682   -7.2312184    738.35321  0.024319934  0.024100874            6 
 2531000   0.86604136   -7.2425987    739.43675  0.024346001  0.024094043            7 
 2532000   0.84330373   -7.2275704    738.50305  0.024305656   0.02408723            4 
 2533000   0.85619997   -7.2491998    738.34314  0.024290799  0.024080398            5 
 2534000   0.83576469   -7.2425457    737.88848  0.024266262  0.024073606            3 
 2535000   0.82605673   -7.1968654    739.96264  0.024324873  0.024066845            5 
 2536000   0.84123006   -7.2552608    737.29355  0.024227575  0.024060084            3 
 2537000   0.84450124   -7.2181731    739.03235   0.02427514  0.024053344            4 
 2538000   0.86778307   -7.2370327    739.71313  0.024287928  0.024046591            9 
 2539000   0.84766632   -7.2285797    739.15872  0.024260165  0.024039823            3 
 2540000   0.85189642   -7.2388213    738.55214  0.024230713  0.024033008            3 
 2541000   0.83375192   -7.2500824    740.89572  0.024298036  0.024026227            4 
 2542000   0.85752841   -7.2636448     739.5884   0.02424562  0.024019482            3 
 2543000   0.82074354   -7.2139276     737.3297  0.024162069  0.024012714            6 
 2544000   0.85452645    -7.219118    741.93996  0.024303589  0.024005967            6 
 2545000   0.83443152   -7.2378698    741.34466  0.024274547  0.023999274            4 
 2546000   0.83954797    -7.255268    741.92755  0.024284091  0.023992601            3 
 2547000   0.84769036    -7.242947      741.475   0.02425975  0.023985901            6 
 2548000   0.84684681   -7.2263637    742.07367  0.024269809  0.023979141            6 
 2549000   0.86006295   -7.2595206     741.1734  0.024230855  0.023972444            4 
 2550000   0.84818037   -7.2214314    741.69532  0.024238409  0.023965713            2 
 2551000   0.84473737   -7.2408475    740.31829  0.024183924  0.023958991            8 
 2552000   0.85333729   -7.2372479    740.51036   0.02418072  0.023952217           10 
 2553000   0.83501048   -7.2595251    741.80977  0.024213663  0.023945449            3 
 2554000   0.83803088   -7.2203936    741.10225  0.024181097   0.02393871            3 
 2555000    0.8613359   -7.2426423    742.34183  0.024212062  0.023931959            5 
 2556000   0.84032829   -7.2203477      741.587   0.02417798  0.023925194            6 
 2557000   0.83749244   -7.2336669     741.5037   0.02416581  0.023918444            3 
 2558000   0.83564789   -7.2139073    741.30869  0.024150009  0.023911695            8 
 2559000   0.84383975   -7.2452713    743.01224  0.024196048   0.02390498            3 
 2560000   0.85604404   -7.2322225    743.51513  0.024202966  0.023898313            7 
 2561000     0.847038   -7.2076634    742.05127  0.024145883  0.023891627            5 
 2562000   0.84507786   -7.2274068      742.273   0.02414367   0.02388492            3 
 2563000   0.83150507    -7.190911    744.99093  0.024222621  0.023878274            4 
 2564000   0.83337853   -7.2270687    745.04433  0.024214909  0.023871644            3 
 2565000   0.83419324   -7.2623595    741.40013  0.024087074  0.023864931            4 
 2566000   0.84722379   -7.2704454    743.78619  0.024155176  0.023858249           11 
 2567000   0.84584629   -7.2680025    743.22365  0.024127505  0.023851576            6 
 2568000   0.84511088   -7.2390204    742.58544  0.024097399  0.023844896            5 
 2569000   0.84058941    -7.260079    742.90356  0.024098338  0.023838196            5 
 2570000   0.85021401   -7.2605119    743.16245  0.024097356  0.023831508            7 
 2571000   0.85121738   -7.2490317      744.813  0.024141482   0.02382482            3 
 2572000   0.84550302   -7.2375432    744.89793  0.024134847  0.023818147            3 
 2573000   0.85443983   -7.2811737    741.35896  0.024010849  0.023811437            7 
 2574000   0.81891091   -7.2534477     743.0718  0.024056974  0.023804707           10 
 2575000   0.81790446   -7.2571318    743.40791  0.024058508  0.023798048            2 
 2576000   0.83793024   -7.2680109    743.18266  0.024041882  0.023791372            4 
 2577000    0.8608439   -7.2465981    742.08349  0.023997008  0.023784708            4 
 2578000   0.83050498   -7.2734177    744.06902  0.024051882  0.023778014            3 
 2579000   0.84508315   -7.2621175    744.10009   0.02404356  0.023771306            6 
 2580000    0.8238715    -7.237901    742.61317  0.023986214  0.023764599           12 
 2581000   0.83832278   -7.2518208    742.34918  0.023968397  0.023757885            3 
 2582000   0.83762541   -7.2713409    743.71675  0.024003252  0.023751158            3 
 2583000   0.84596705     -7.23941    744.77394  0.024028066  0.023744431            4 
 2584000   0.84650075    -7.232717    744.15143  0.023998691  0.023737757            7 
 2585000   0.84208749   -7.2193354    744.84894  0.024011894  0.023731027           10 
 2586000   0.83300738   -7.2658316    745.05976  0.024009402  0.023724295           15 
 2587000   0.85211309   -7.2347887    744.55467  0.023983851  0.023717533           10 
 2588000    0.8235321   -7.2598124    743.76908  0.023949288  0.023710762           14 
 2589000   0.83097156   -7.2547311    742.63554  0.023903551  0.023704009            9 
 2590000   0.84003802    -7.245619     743.5368   0.02392332  0.023697247            6 
 2591000   0.83957996   -7.2463137    744.17639  0.023934658  0.023690471            4 
 2592000    0.8572455   -7.2434986    744.85299  0.023947177  0.023683733            5 
 2593000   0.85087798   -7.2744831    741.24529  0.023821998  0.023676937            4 
 2594000   0.82069997   -7.2674041    742.86837  0.023864957  0.023670125            6 
 2595000   0.81986011   -7.2280708    743.04049  0.023861287  0.023663321            3 
 2596000   0.84249258   -7.2384495    743.85898   0.02387837  0.023656549            4 
 2597000   0.81036066   -7.2444191    743.47481  0.023856848  0.023649797            5 
 2598000   0.83631188   -7.2740213    742.91114  0.023829585  0.023643045            5 
 2599000   0.85420913   -7.2592825    744.32914  0.023865882  0.023636266            4 
 2600000   0.83367856   -7.2580797    744.40149  0.023859022  0.023629496           12 
 2601000   0.83539741   -7.2491122    743.81708  0.023831125  0.023622709            6 
 2602000   0.85094866   -7.2617021    745.36747   0.02387162  0.023615938            3 
 2603000   0.84776225   -7.2573609    743.78669  0.023811842  0.023609182            3 
 2604000    0.8436988   -7.2149418    746.17229  0.023879042  0.023602438            3 
 2605000   0.82575699   -7.2516397    745.18198  0.023838195  0.023595701            5 
 2606000   0.83188085   -7.2625674    744.01514  0.023791735  0.023588944            4 
 2607000   0.83880759   -7.2638726    743.79866  0.023775689  0.023582171            7 
 2608000   0.82597909   -7.2750115    743.72054  0.023764076  0.023575322            4 
 2609000   0.84292762   -7.2665092     744.2465  0.023771768  0.023568494            8 
 2610000   0.83574535   -7.2628072    742.38676  0.023703281   0.02356166            4 
 2611000   0.83572603   -7.2669484    744.60336  0.023764948  0.023554875            2 
 2612000   0.82085822   -7.2769789    744.12943   0.02374073  0.023548099            5 
 2613000   0.85069074   -7.2546323    744.65381  0.023748368  0.023541275            7 
 2614000   0.82262629   -7.2614299     743.9299  0.023716204  0.023534471            4 
 2615000   0.83619483   -7.2831086    743.83561   0.02370413  0.023527691            6 
 2616000   0.82415924   -7.2595141    743.84378  0.023695329  0.023520851            4 
 2617000     0.831501   -7.2444372    745.52928  0.023739946  0.023514064            3 
 2618000   0.84243224   -7.2925651    743.61446  0.023669928  0.023507215            5 
 2619000   0.85178852   -7.2765187    743.88416  0.023669472  0.023500408            9 
 2620000   0.82252767   -7.2533397    744.42735  0.023677715  0.023493662            3 
 2621000   0.82634707   -7.2474157    746.58088  0.023737151   0.02348691            4 
 2622000   0.82397757   -7.2474314    747.08845   0.02374423  0.023480172            7 
 2623000   0.82167603   -7.2676088    746.12457  0.023704555  0.023473433            6 
 2624000   0.82531463   -7.2832366    745.28753  0.023668938  0.023466695            6 
 2625000   0.83222519   -7.2566434    747.50354  0.023730271  0.023460014            3 
 2626000   0.84075977   -7.2383578    748.50634  0.023753057  0.023453337            4 
 2627000   0.83151175   -7.2778941    745.45583  0.023647247  0.023446641           10 
 2628000   0.83664896   -7.2585353    747.40692  0.023700118  0.023439911            5 
 2629000     0.832527    -7.231042    746.44589   0.02366064  0.023433206            8 
 2630000   0.84051081   -7.2667614    746.73459  0.023660792  0.023426511            3 
 2631000   0.83236113    -7.276921    746.04928  0.023630093  0.023419816            5 
 2632000   0.82616877    -7.241815    747.26315  0.023659547  0.023413094            6 
 2633000   0.83313617    -7.280847    746.26968  0.023619119  0.023406358            5 
 2634000   0.83017178   -7.2744504    747.89824  0.023661675  0.023399584            5 
 2635000    0.8255373   -7.2616809    747.99572  0.023655779  0.023392882            6 
 2636000   0.83010677   -7.2923336    747.59348  0.023634088  0.023386136            3 
 2637000   0.83440579   -7.2785718     746.0599  0.023576662  0.023379382           11 
 2638000   0.81559103   -7.2741517    746.27502  0.023574521  0.023372621            4 
 2639000   0.82849628    -7.252303    749.00863  0.023651908  0.023365913            5 
 2640000   0.82353855    -7.263992    747.66398  0.023600504  0.023359227            5 
 2641000   0.82982367   -7.2602475     749.8583  0.023660807  0.023352511            8 
 2642000   0.83432483   -7.2679757    747.20342  0.023568112  0.023345812            5 
 2643000   0.81042614   -7.2645054    748.46007  0.023598817  0.023339079            5 
 2644000   0.83887992   -7.2753574    747.11355  0.023547452  0.023332325            4 
 2645000   0.81441547   -7.2564086    748.90208  0.023594898  0.023325512            5 
 2646000   0.82319949   -7.2642781    747.57291   0.02354412  0.023318749            6 
 2647000   0.82855196   -7.2554649    747.34031  0.023527903  0.023312048            8 
 2648000   0.83767753   -7.2836604    747.94587  0.023538075  0.023305333            3 
 2649000   0.81717635   -7.2790399    746.61113  0.023487201  0.023298567            4 
 2650000   0.83133971   -7.2872622      750.627  0.023604623  0.023291823            3 
 2651000   0.81375986   -7.2683439    748.42951  0.023526641  0.023285109            4 
 2652000   0.82829324     -7.26085    750.45106  0.023581293  0.023278384           12 
 2653000   0.81606663   -7.2797346    747.41037  0.023476893  0.023271627            2 
 2654000   0.83306754   -7.2781269    746.81726  0.023449424  0.023264871            4 
 2655000   0.81792748   -7.2870749    749.92064  0.023537999  0.023258111            5 
 2656000   0.83056468   -7.2671486    748.61967  0.023488318  0.023251351            7 
 2657000   0.81035956   -7.2770058    749.89388  0.023519442  0.023244635            5 
 2658000   0.81194452   -7.2598923    748.90132  0.023479475   0.02323792           14 
 2659000   0.82482219   -7.2775962    750.13956  0.023509451  0.023231242            4 
 2660000   0.80570391   -7.2578813    751.93733  0.023556934  0.023224599            4 
 2661000   0.83934873   -7.2856974    750.53587  0.023504192  0.023217958            5 
 2662000   0.81191624   -7.2958222    750.17465  0.023484055  0.023211331            7 
 2663000   0.84424391   -7.2893509    748.55274  0.023424482  0.023204659            5 
 2664000   0.81208256   -7.2969688    750.61875  0.023480316  0.023197968            3 
 2665000    0.8368498   -7.2877777    749.06243   0.02342284   0.02319128            7 
 2666000   0.82279695   -7.2820519    750.48538  0.023458533  0.023184639            6 
 2667000   0.82902387   -7.2631056    749.74052  0.023426463  0.023178031            4 
 2668000   0.82206731   -7.2950507    751.35343  0.023468061  0.023171393            7 
 2669000    0.8198793   -7.2755762    753.08072  0.023513198  0.023164738            3 
 2670000   0.82298521   -7.2489692    753.11832  0.023505566  0.023158165            5 
 2671000   0.82233358   -7.2631077    751.40577  0.023443335  0.023151586            3 
 2672000   0.80509801   -7.2861254    751.16178  0.023426952  0.023144914            4 
 2673000   0.82308955   -7.3102745     750.1084  0.023385347  0.023138246            8 
 2674000   0.83091464   -7.2957586    750.85997  0.023400024   0.02313162           12 
 2675000   0.81576607   -7.2745655    750.75114  0.023387886  0.023125001            5 
 2676000   0.84385142   -7.2726642    751.53421  0.023403532  0.023118369            2 
 2677000    0.8142973    -7.279886    751.47701  0.023393009   0.02311177            5 
 2678000   0.81733944   -7.2936264    751.87099  0.023396533  0.023105183            6 
 2679000   0.83189688   -7.2763362    750.09507  0.023332558  0.023098595            3 
 2680000   0.82166629    -7.262812    753.66041  0.023434714  0.023092015            5 
 2681000   0.81891992   -7.2732896    753.49998  0.023420986   0.02308546            3 
 2682000   0.82971623    -7.269156    754.73633  0.023450669  0.023078899            3 
 2683000    0.8255392    -7.283929    750.74759  0.023318039   0.02307234            8 
 2684000   0.82228116    -7.297857    755.07078  0.023443579  0.023065806            5 
 2685000   0.82306104   -7.2757471    753.34875  0.023381401  0.023059258            4 
 2686000   0.81557918   -7.2755944     753.8976  0.023389724  0.023052703            4 
 2687000   0.80630251   -7.2635576    753.04178  0.023354478   0.02304618            7 
 2688000   0.81491135   -7.3130583    755.22229   0.02341339  0.023039634            4 
 2689000   0.81985429    -7.285538    751.61334  0.023292839  0.023033039            5 
 2690000    0.8032265    -7.271462    753.30342  0.023336537  0.023026451            7 
 2691000   0.83355478   -7.2813058    754.56657  0.023366981  0.023019904            8 
 2692000   0.81654724   -7.2918989    756.09018  0.023405466   0.02301338            4 
 2693000   0.83216897   -7.2986811    754.03081  0.023333049  0.023006853            4 
 2694000   0.81859318   -7.3236885    752.85325  0.023287963  0.023000255            3 
 2695000   0.81871615   -7.2993575    754.07105  0.023316977  0.022993674            3 
 2696000   0.81972197   -7.3081075    752.71849  0.023266521  0.022987103            5 
 2697000    0.8168822    -7.281553    754.78518  0.023321752  0.022980543            4 
 2698000   0.81670101   -7.2521782     756.3775   0.02336229   0.02297403            2 
 2699000   0.81062744   -7.2983004    754.56155  0.023297566  0.022967532            3 
 2700000   0.82222453    -7.292324    754.61516  0.023290591  0.022960989            2 
 2701000   0.81929812   -7.2793646    753.91112  0.023260247  0.022954422            4 
 2702000   0.81200257   -7.3039221    752.72062  0.023214922  0.022947854            5 
 2703000   0.80954854   -7.3025488    753.87325  0.023241869  0.022941254            4 
 2704000   0.81892833   -7.2769049    755.63963   0.02328771  0.022934728            8 
 2705000   0.83345427   -7.2732849    756.41208  0.023302898  0.022928211            4 
 2706000   0.82907363   -7.2790552    755.56903  0.023268324  0.022921678            5 
 2707000   0.81527195   -7.2841942    755.54623  0.023259027  0.022915138            8 
 2708000   0.81310591   -7.3172264    753.59376  0.023190354  0.022908595            4 
 2709000   0.80491386   -7.2879369    752.82111  0.023158026   0.02290203            6 
 2710000   0.81935937   -7.2856076    755.17889  0.023221983  0.022895497            4 
 2711000   0.82128734    -7.290245     756.1804  0.023244203  0.022888995            6 
 2712000   0.79329823   -7.2875789    756.07404  0.023232363  0.022882532            6 
 2713000   0.80885844   -7.2758052    758.24662  0.023290534  0.022876078            5 
 2714000   0.81305119   -7.3062163    754.98184  0.023181707  0.022869552           10 
 2715000   0.80899032   -7.2802064    755.75717  0.023196967   0.02286304            5 
 2716000   0.81352308   -7.2884657    754.82517   0.02315983  0.022856517            6 
 2717000   0.81857006    -7.295576    756.73371  0.023209843  0.022849966            4 
 2718000   0.82186689   -7.3165153    757.09667  0.023212432  0.022843418            4 
 2719000   0.82369404   -7.2973361    755.18627  0.023145344  0.022836875           11 
 2720000   0.82255158   -7.2965079    754.15853  0.023105347  0.022830303            5 
 2721000   0.79885874   -7.2849627    756.20808  0.023159625  0.022823724            3 
 2722000   0.82062417   -7.2883711    754.07352  0.023085768  0.022817143            6 
 2723000    0.8196229   -7.2996165    754.55725  0.023092094  0.022810568            4 
 2724000   0.80976698   -7.3138625    754.18557  0.023072246  0.022804004            6 
 2725000   0.81705229   -7.2860735    755.16247  0.023093653   0.02279743            3 
 2726000   0.80578021   -7.2769047    754.33098  0.023059763  0.022790825            6 
 2727000    0.8011454   -7.2981345    754.87846  0.023068037  0.022784222            3 
 2728000   0.82054944   -7.2704397    755.19908  0.023069376  0.022777631            5 
 2729000   0.80562219   -7.3095028    754.98011  0.023054236  0.022771051            3 
 2730000   0.82599117   -7.2662259    756.23788  0.023084184  0.022764466            8 
 2731000   0.82723654   -7.2851694    755.99037  0.023068179  0.022757881            3 
 2732000   0.81094528   -7.2916751    755.75059  0.023052422  0.022751345            4 
 2733000   0.80653216   -7.3134843    756.16543  0.023056636  0.022744789            4 
 2734000   0.81144105   -7.3112782     755.7241  0.023034751  0.022738204            9 
 2735000   0.81322923   -7.3175371    756.65123  0.023054577  0.022731661            6 
 2736000   0.81778458   -7.3091672    758.41874  0.023099986  0.022725139            6 
 2737000   0.82858385   -7.2988037    756.29137  0.023026774  0.022718614            4 
 2738000   0.81577592   -7.3028035    759.23753  0.023108033  0.022712122            4 
 2739000   0.81494193    -7.292592    758.20636  0.023068223  0.022705648            6 
 2740000   0.82199338   -7.3251412    758.08413  0.023056087  0.022699154            6 
 2741000   0.82269302   -7.3198392    756.07126  0.022986479   0.02269263            5 
 2742000   0.79912208   -7.3088592    758.51527  0.023052373  0.022686111           18 
 2743000   0.80366086   -7.3158143    757.73627  0.023020302  0.022679617            7 
 2744000   0.81615146    -7.324419    756.68089  0.022979862  0.022673127            5 
 2745000   0.80684045   -7.3070352    757.95128  0.023010057   0.02266658            5 
 2746000    0.8026496   -7.3060517    758.31834  0.023012817  0.022660069            4 
 2747000   0.80937505   -7.3137364    757.91511  0.022992207  0.022653573            5 
 2748000   0.82041433   -7.3449376    756.31594  0.022935345  0.022647087            4 
 2749000   0.80512294   -7.2968134    757.66838     0.022968  0.022640621            5 
 2750000   0.79633782   -7.3095691    759.90858  0.023027533  0.022634187            4 
 2751000    0.8015883   -7.3099908    757.63511  0.022950294  0.022627741            5 
 2752000   0.80918888    -7.302686    759.28239  0.022991836  0.022621271            6 
 2753000    0.7832846   -7.2811092    759.87659  0.023001471  0.022614825            7 
 2754000   0.80042696   -7.2891154     760.6231  0.023015707  0.022608421            4 
 2755000   0.82825077   -7.2858819    758.15436  0.022932679  0.022601979            7 
 2756000   0.79924711   -7.3019764    761.59964  0.023028533  0.022595517            8 
 2757000   0.80941712   -7.3215799     758.7996  0.022935546  0.022589048            7 
 2758000   0.81437528   -7.3176267    760.66508  0.022983596  0.022582618            4 
 2759000   0.79824303   -7.2525997    761.30251  0.022994518  0.022576201            4 
 2760000   0.81372162   -7.3356849     760.2033  0.022952998  0.022569766            4 
 2761000   0.79828785    -7.296258    759.68236  0.022928962  0.022563351            7 
 2762000   0.81012857   -7.2784933    759.44152  0.022913394  0.022556937            5 
 2763000   0.82630381   -7.3213852    759.88271  0.022918407  0.022550575            4 
 2764000   0.81006404    -7.293315    761.48044  0.022958286  0.022544177            4 
 2765000   0.79743118   -7.3028818    760.45835  0.022919179  0.022537809            5 
 2766000   0.81842135   -7.3307468    759.52178  0.022882676  0.022531423            4 
 2767000   0.80819674    -7.328161    758.95351  0.022857292  0.022525005            6 
 2768000   0.82710402   -7.3120537    760.29754  0.022889497  0.022518626            5 
 2769000   0.80700005   -7.2912588    761.23661  0.022909492  0.022512226           15 
 2770000   0.82144283   -7.3041122    760.21986  0.022870634  0.022505816            3 
 2771000    0.8165786    -7.302678    760.85741  0.022881553  0.022499403            9 
 2772000   0.81113694   -7.3101876    760.87369  0.022873788  0.022493007            3 
 2773000   0.80109361   -7.2972664    760.71762  0.022860849  0.022486634            9 
 2774000   0.80510713   -7.3346751    760.08319  0.022833549  0.022480238            4 
 2775000   0.81306349   -7.3431573    761.18184  0.022858313  0.022473791            4 
 2776000   0.82003487   -7.3009609    761.92596  0.022872417   0.02246735            5 
 2777000   0.81615265   -7.3289145    760.81054  0.022830709   0.02246096            3 
 2778000    0.8090501   -7.3071379    761.04984  0.022829669  0.022454604            5 
 2779000   0.81150183   -7.3523378    762.87802  0.022876275    0.0224482            3 
 2780000   0.79570175   -7.3167886    761.01375  0.022812163   0.02244181            4 
 2781000   0.80889884   -7.3047606    763.01235  0.022863848  0.022435446            6 
 2782000   0.78758181   -7.3471367    762.36808  0.022836331  0.022429065            9 
 2783000    0.7998919   -7.3123532    762.25213  0.022824653  0.022422671           13 
 2784000    0.8056203   -7.3380476    760.92514  0.022776734  0.022416273            6 
 2785000   0.80677895   -7.3175141    761.79744  0.022794657  0.022409883            7 
 2786000   0.82588013   -7.3161566    762.26825  0.022800558  0.022403526            6 
 2787000   0.80414605    -7.303754    763.10129  0.022817285  0.022397176            7 
 2788000   0.80902809   -7.2921784    763.38695   0.02281764  0.022390819            3 
 2789000   0.80046757   -7.2854322    763.08998  0.022800585  0.022384504            5 
 2790000   0.80792584   -7.3356319    762.63738  0.022778894  0.022378154            3 
 2791000   0.80434098   -7.3272381     762.8724   0.02277775    0.0223718            7 
 2792000   0.79905424   -7.3100678    763.09402  0.022776206  0.022365485            5 
 2793000   0.79971485   -7.2997734    763.85027  0.022790616  0.022359125            4 
 2794000   0.80569804   -7.3252842     762.0432  0.022728561  0.022352763            3 
 2795000   0.80101961   -7.3057465    763.96431  0.022777707  0.022346377           15 
 2796000   0.80153366   -7.3297206    764.47097  0.022784662   0.02234003            6 
 2797000   0.80714832   -7.3542295    761.03866  0.022674254  0.022333614            3 
 2798000   0.80613482   -7.3339906    762.60362   0.02271276  0.022327217            4 
 2799000   0.81365425   -7.3036562    763.26664  0.022724385  0.022320807            8 
 2800000   0.80065327   -7.3025649    761.14527  0.022653133  0.022314449            8 
 2801000   0.80028776   -7.3312854    762.10354  0.022673555  0.022308084            4 
 2802000    0.8010961   -7.3003662    764.22926  0.022728684  0.022301707            4 
 2803000   0.80550477    -7.322435     763.5606  0.022700696  0.022295335            8 
 2804000   0.80717924   -7.3155992    762.22899  0.022653025   0.02228897            6 
 2805000   0.79734064    -7.337651    764.11911  0.022701103  0.022282618           12 
 2806000   0.79626325   -7.3180734    765.84194  0.022744177  0.022276227            6 
 2807000   0.80965187   -7.3272592    765.69432  0.022731692  0.022269893            8 
 2808000   0.80632441   -7.3419972    764.22904  0.022680112  0.022263539            8 
 2809000   0.80800251   -7.3104321     762.3602  0.022616596  0.022257199            3 
 2810000   0.79668761   -7.3259199    763.88958  0.022653902  0.022250862            8 
 2811000    0.8257909   -7.3191318    763.29104  0.022628099    0.0222445            8 
 2812000   0.80497799    -7.320426    764.51192  0.022656233  0.022238159           15 
 2813000   0.81672772   -7.3458287    764.12923  0.022636842  0.022231795            8 
 2814000   0.80256627   -7.3406928    765.25234  0.022662057  0.022225429            6 
 2815000   0.81209241   -7.3148922    763.48443  0.022601671  0.022219064            4 
 2816000     0.803757   -7.2892701    764.33122  0.022618703  0.022212699            6 
 2817000    0.8030269   -7.3041901    765.05906  0.022632205  0.022206374            5 
 2818000   0.80372722   -7.3188543    763.79147  0.022586689  0.022200014            4 
 2819000   0.80288933    -7.336575    765.14491  0.022618686  0.022193688            5 
 2820000   0.80263729   -7.3474617    764.34252  0.022586954  0.022187313           10 
 2821000   0.80858328   -7.3617633    764.67749  0.022588842  0.022180951            6 
 2822000   0.80089051   -7.3286487    763.13045  0.022535154  0.022174604            5 
 2823000   0.80940047   -7.3111246    765.63234  0.022601025  0.022168286            5 
 2824000   0.78318344    -7.308243    766.02158  0.022604509  0.022161973            5 
 2825000   0.80164945   -7.3536842    763.23148  0.022514203  0.022155662            6 
 2826000    0.7942026   -7.3228545    763.19976  0.022505301  0.022149314            3 
 2827000   0.79841826    -7.344184    763.79407  0.022514859  0.022142951            5 
 2828000   0.79951978    -7.362533    762.77309  0.022476812  0.022136549            4 
 2829000   0.79871829   -7.3391371    765.58427  0.022551675   0.02213014            7 
 2830000   0.81930562   -7.3457252    762.45581  0.022451585  0.022123759            4 
 2831000   0.80196514   -7.3288213    765.01958  0.022519121  0.022117386            4 
 2832000   0.78305718   -7.3506765    764.79839  0.022504661  0.022110989            7 
 2833000   0.78585816   -7.3219214    766.07807  0.022534359  0.022104627            7 
 2834000   0.78973643   -7.3543955    764.61531  0.022483395  0.022098253            5 
 2835000   0.78613007   -7.3164252    766.25067  0.022523535  0.022091886            3 
 2836000   0.79682299    -7.346177    764.63613  0.022468151  0.022085522            4 
 2837000   0.79036125   -7.3531693    765.85737  0.022496104  0.022079144            7 
 2838000   0.80777543   -7.3348792    766.68838  0.022512579  0.022072769            3 
 2839000   0.80199882   -7.3468315    763.99297  0.022425531  0.022066398            3 
 2840000   0.79569703   -7.3625313    765.55914   0.02246359  0.022060041           13 
 2841000   0.80590775   -7.3268563    767.36195  0.022508564  0.022053682            4 
 2842000   0.80044935   -7.3353635    764.91632  0.022428933  0.022047328            5 
 2843000   0.81533685   -7.3468568    764.64026  0.022412952  0.022040952            3 
 2844000   0.79484967   -7.3523074    766.22539  0.022451518  0.022034561            5 
 2845000   0.81216309   -7.3346799    764.04018  0.022379619  0.022028178            9 
 2846000   0.78360398   -7.3398327      767.606  0.022476165  0.022021793            8 
 2847000   0.78526748   -7.3619281    764.76534  0.022385123  0.022015436            3 
 2848000   0.80791268   -7.3384804    766.56516  0.022429926  0.022009065            7 
 2849000    0.7796418   -7.3314295    765.10184  0.022379251  0.022002709            4 
 2850000   0.79838058   -7.3546121    765.00081  0.022368445  0.021996315            5 
 2851000   0.80879858   -7.3819673    765.37217  0.022371454  0.021989939            3 
 2852000    0.7933489   -7.3310207    766.30106  0.022390751  0.021983561            6 
 2853000   0.78221955   -7.3759208    764.05818   0.02231739  0.021977161            5 
 2854000   0.77639202   -7.3609554    765.19606  0.022342795  0.021970763            4 
 2855000   0.78552499   -7.3745245    764.32136  0.022309439  0.021964358            6 
 2856000   0.81509538   -7.3420569    764.34133   0.02230221  0.021957932           17 
 2857000   0.79559356   -7.3581745    766.32786  0.022352347  0.021951508            5 
 2858000   0.79417346   -7.3515899    764.45984  0.022290058  0.021945083            3 
 2859000    0.7955664   -7.3511241    764.01229  0.022269217  0.021938663            9 
 2860000   0.80686326   -7.3432724    763.77865  0.022254623  0.021932227            6 
 2861000   0.80133568   -7.3753114    765.40079  0.022294093  0.021925807            5 
 2862000   0.80819443   -7.3582081    765.90736  0.022301053  0.021919402            5 
 2863000   0.78210261   -7.3787738    765.67535   0.02228651   0.02191297            5 
 2864000   0.78558694    -7.322567    768.12337  0.022349958  0.021906602            3 
 2865000   0.81265897   -7.3602904    766.94354   0.02230784  0.021900221            8 
 2866000   0.78584102   -7.3607664    766.60235  0.022290136  0.021893847           16 
 2867000   0.78694596   -7.3645903    765.13344  0.022239665  0.021887464            8 
 2868000   0.78418263   -7.3649641    765.48457  0.022242113  0.021881071            8 
 2869000   0.78871767   -7.3606308    765.99386  0.022249154  0.021874675            4 
 2870000    0.7584774   -7.3675898    764.90115  0.022209673   0.02186827            2 
 2871000   0.79406078   -7.3581854    767.06519  0.022264751   0.02186189            4 
 2872000   0.78269543   -7.3313176    768.19806  0.022289869  0.021855536            2 
 2873000   0.79178712   -7.3609597    766.98864  0.022247031  0.021849163            5 
 2874000    0.7831377   -7.3838027    765.30421  0.022190449  0.021842768            4 
 2875000    0.7869941   -7.3314241    767.75282  0.022253705  0.021836436            5 
 2876000   0.78661396   -7.3456733    766.43162  0.022207685  0.021830104            6 
 2877000   0.79770285    -7.368339    767.11738  0.022219829  0.021823734            4 
 2878000   0.79645988    -7.411261    767.69019  0.022228694  0.021817329            6 
 2879000   0.78204429   -7.3683002    768.00449  0.022230071  0.021810978            3 
 2880000   0.79892954   -7.3595611    765.99018  0.022164068  0.021804586            5 
 2881000   0.81239334    -7.338814    767.29501  0.022194117  0.021798235            5 
 2882000   0.78113848   -7.3050077    769.66832   0.02225504  0.021791915            9 
 2883000   0.77625051   -7.3504821    767.27524  0.022178149  0.021785589            4 
 2884000   0.78115382   -7.3543252    768.91363    0.0222178  0.021779262            8 
 2885000    0.7757453   -7.3719221    767.45771  0.022168045  0.021772864            8 
 2886000   0.77184352   -7.3591699     767.7076  0.022167579  0.021766468            7 
 2887000   0.77961969   -7.3792421    767.30995  0.022148423   0.02176011            6 
 2888000   0.78733994   -7.3602841    766.16603  0.022107746  0.021753748            8 
 2889000   0.79380574   -7.3617446    766.12822  0.022099002  0.021747362            5 
 2890000   0.78526322   -7.3659547    767.05549  0.022118094     0.021741            4 
 2891000   0.80605624   -7.3701335    766.52223  0.022095072  0.021734633            3 
 2892000   0.80700096   -7.3810928    767.55895  0.022117305  0.021728274            4 
 2893000   0.79189096    -7.367113    767.85132  0.022118082  0.021721913            5 
 2894000     0.786982   -7.3702873    768.45576  0.022127844  0.021715546            4 
 2895000   0.79112284   -7.3886262    768.34995  0.022117155  0.021709143            5 
 2896000   0.79029762   -7.3441909    768.21387  0.022105602  0.021702808            8 
 2897000   0.79768351   -7.3661206    766.90472  0.022060313  0.021696471            4 
 2898000   0.79296444   -7.3500786    766.69372  0.022046633  0.021690138            4 
 2899000   0.79741138   -7.3522007    768.61015  0.022094117  0.021683801            3 
 2900000   0.79644434   -7.3681118    767.36715   0.02205078  0.021677464            7 
 2901000   0.79265568   -7.3461171    769.97486  0.022118088  0.021671104           10 
 2902000   0.81220858   -7.3391971    767.83666  0.022049066  0.021664768            7 
 2903000   0.78534138   -7.3705874    769.41061  0.022086652   0.02165842            5 
 2904000   0.80495242   -7.3520127    766.58391  0.021997931  0.021652066            6 
 2905000   0.80339162   -7.3826316    769.53419  0.022074991  0.021645706            5 
 2906000   0.81480709   -7.3636075    768.23693  0.022030194  0.021639356            3 
 2907000   0.79179957   -7.3368369    768.94655  0.022042958  0.021633026            5 
 2908000   0.79982636   -7.3711971    767.38813  0.021990719  0.021626692            2 
 2909000   0.79600596   -7.3572425    768.30043  0.022009294  0.021620336            3 
 2910000   0.78330695    -7.374334    768.46408  0.022006417  0.021613968            8 
 2911000   0.78036842    -7.354867    768.91391  0.022011735  0.021607612            7 
 2912000   0.76523556   -7.3419877    768.39695  0.021989382  0.021601276            5 
 2913000   0.77970547   -7.3839411    767.86127  0.021966509  0.021594946            7 
 2914000   0.79792814   -7.3621235    769.07398  0.021993651  0.021588609            3 
 2915000   0.79363057   -7.3341899    769.24179  0.021990903  0.021582303            3 
 2916000   0.79248042    -7.357029    769.20692  0.021982365  0.021575975            6 
 2917000   0.77783854   -7.3413461    770.78009  0.022019772  0.021569683            5 
 2918000   0.79104343   -7.3733003    768.53644  0.021948151  0.021563381            4 
 2919000    0.7907535   -7.3713021    769.28251  0.021961931  0.021557066            6 
 2920000   0.80517165   -7.3495682    770.35759  0.021985091  0.021550757            4 
 2921000    0.7811186   -7.3920661     767.9195  0.021908008  0.021544434            9 
 2922000   0.79274577    -7.356611    770.65232  0.021978449  0.021538112            3 
 2923000   0.78419767   -7.3820043    769.29344  0.021932188  0.021531831            8 
 2924000   0.78984397   -7.3668962    768.96234  0.021915251   0.02152555            5 
 2925000    0.7867176   -7.3405902    770.98755  0.021965457  0.021519287            5 
 2926000   0.79261185   -7.3710236    770.71153  0.021950089  0.021512975           13 
 2927000   0.78637784   -7.3580531    771.95032  0.021977859  0.021506709            8 
 2928000   0.78738206   -7.3644174    770.11868  0.021918223  0.021500422            2 
 2929000   0.77941666   -7.3948083     769.4606  0.021892017   0.02149414            7 
 2930000   0.78027562   -7.3751071     769.1224  0.021874926  0.021487854            4 
 2931000   0.77801434   -7.3591116    770.57285  0.021908702  0.021481563           10 
 2932000   0.78416618   -7.3517853    769.61242  0.021873932   0.02147526            7 
 2933000    0.7773907   -7.3870033    768.98606  0.021848678  0.021468933            7 
 2934000   0.78561197    -7.389131    769.05615  0.021843222   0.02146259           13 
 2935000   0.79521031    -7.360415    770.28584  0.021870694  0.021456283           11 
 2936000   0.78656955   -7.3715009     768.6122  0.021815741  0.021449985            6 
 2937000   0.77938118   -7.3845336    770.01025  0.021847981  0.021443685            8 
 2938000   0.77381523   -7.3748974    769.79536   0.02183445  0.021437374            5 
 2939000   0.76725198    -7.407615     770.1127  0.021836018  0.021431064            7 
 2940000   0.78608213   -7.4113652    768.44684  0.021781373  0.021424715            6 
 2941000   0.78280674   -7.3817946    771.31414  0.021855212  0.021418412            3 
 2942000   0.78350459    -7.416523    769.80828  0.021805129   0.02141212            3 
 2943000   0.79812765    -7.387651    770.63497  0.021821128  0.021405846            5 
 2944000   0.78422235   -7.3890475    773.18164  0.021885803  0.021399566            6 
 2945000   0.79213808   -7.3915562    770.06811  0.021790269  0.021393274            5 
 2946000   0.77437331   -7.3699209    771.64638  0.021827517  0.021386974            9 
 2947000   0.78791888   -7.3814183    770.24095  0.021780368  0.021380715           11 
 2948000   0.78007231   -7.3818754    770.37238  0.021776696  0.021374441            5 
 2949000   0.77433827   -7.3760614    769.47899  0.021744066  0.021368145           11 
 2950000   0.77110098   -7.3758125    771.52457   0.02179448   0.02136189            2 
 2951000   0.77731465   -7.3621868     772.0293  0.021801347  0.021355624            4 
 2952000   0.76933983   -7.3840674    771.94714  0.021791643  0.021349357            4 
 2953000     0.779263    -7.376077    772.02945  0.021786586  0.021343094            7 
 2954000   0.77433543   -7.3758488     770.6933  0.021741517  0.021336801            4 
 2955000   0.76141294   -7.3902098    770.80975  0.021737444  0.021330488            4 
 2956000    0.7683302   -7.3992941    770.81529  0.021730246  0.021324177            5 
 2957000   0.76593729    -7.392995    771.58847  0.021744687  0.021317904            2 
 2958000   0.79236615   -7.3927574    771.99742  0.021748857  0.021311616            5 
 2959000   0.78759184   -7.3905847    772.08605  0.021744003  0.021305319            8 
 2960000   0.75932992   -7.3894971    770.45586  0.021690762  0.021299018            5 
 2961000   0.79706289   -7.3816945    771.09634  0.021701462  0.021292704            8 
 2962000   0.77129329   -7.3851901    771.01903   0.02169196  0.021286399            7 
 2963000   0.78111415   -7.3959475    770.60907  0.021673109  0.021280094            3 
 2964000   0.76766496   -7.4144932    770.58309  0.021665067  0.021273777            6 
 2965000   0.78245901   -7.3909618    771.29093  0.021677654  0.021267456            6 
 2966000   0.77775211   -7.4180978    771.49306  0.021676024  0.021261169            5 
 2967000    0.7744266   -7.3938876    771.43856  0.021667188  0.021254916            3 
 2968000   0.77010958   -7.3782062    773.12856  0.021707338  0.021248665            3 
 2969000   0.78058487   -7.3693868    774.81192  0.021747275  0.021242465            4 
 2970000   0.79107208   -7.3507133    771.58766  0.021649485  0.021236276            5 
 2971000   0.78169986   -7.3938616    774.34987  0.021719675  0.021230087            3 
 2972000   0.77632345   -7.3775848    773.93803   0.02170082  0.021223888            3 
 2973000   0.76664682     -7.37215    774.15018  0.021699467  0.021217706            4 
 2974000   0.77516431   -7.3864452    772.51581  0.021646374   0.02121148            4 
 2975000   0.76106219   -7.3940324     773.4975  0.021666597  0.021205232            6 
 2976000   0.78036356   -7.3884754    773.40774  0.021656803  0.021198989            5 
 2977000   0.77959063   -7.3788002    774.44194  0.021678478  0.021192745            5 
 2978000   0.78706685   -7.3737078    771.80577   0.02159743  0.021186488           13 
 2979000   0.76065033   -7.3833409    773.01818  0.021624096  0.021180208            8 
 2980000   0.78110494   -7.3905447    773.46701  0.021629391  0.021173924            5 
 2981000   0.77602058   -7.3896126    773.83829  0.021632514  0.021167648            3 
 2982000    0.7696562   -7.3690734    771.55866  0.021561554  0.021161411           11 
 2983000   0.76681117   -7.3818761    772.71785  0.021586709  0.021155148            7 
 2984000   0.76828704   -7.3857311    773.47841  0.021600715  0.021148917            7 
 2985000    0.7709789   -7.3882702    772.43407  0.021564324  0.021142676            4 
 2986000   0.76321567   -7.4028413    773.33632  0.021582282  0.021136451            9 
 2987000   0.76617699   -7.3963549     772.6718  0.021556517  0.021130216            7 
 2988000   0.77562978    -7.395621    774.73623  0.021606878  0.021123982            3 
 2989000   0.77194184    -7.404671    772.59042  0.021539824  0.021117753            4 
 2990000    0.7835852   -7.4112189    772.75138  0.021537107  0.021111546           15 
 2991000   0.76501878   -7.4058565    775.58601  0.021608882  0.021105344            7 
 2992000   0.77557649   -7.3895216    774.09118  0.021560026  0.021099132            7 
 2993000   0.78804428   -7.3746107    773.22548  0.021528719  0.021092963            5 
 2994000    0.7754978   -7.3714933    773.99675  0.021542996  0.021086822            5 
 2995000   0.77499897   -7.4062825     774.5502  0.021551202  0.021080646            5 
 2996000   0.77950723   -7.3989649    773.96035  0.021527602  0.021074467            8 
 2997000   0.77620459   -7.3708382    774.88335  0.021546084  0.021068318            5 
 2998000   0.78314187   -7.4109093     774.5132  0.021528608  0.021062135            6 
 2999000   0.74926585   -7.3870558    774.67006  0.021525788  0.021055967            4 
 3000000   0.77209664   -7.4040347    774.50122  0.021513923  0.021049789            5 
 3001000   0.78705449   -7.3808738    774.98465  0.021520178  0.021043636            5 
 3002000   0.75378815   -7.4091065     772.5928  0.021446613  0.021037462            4 
 3003000   0.77565725   -7.3663896    777.07687  0.021563905  0.021031297            7 
 3004000   0.75570388   -7.3824193    775.07561   0.02150121  0.021025132           12 
 3005000   0.76845299    -7.395522    776.67009  0.021538272  0.021018964            5 
 3006000   0.77246786   -7.3732975    776.12633  0.021516033  0.021012834            6 
 3007000   0.77519473   -7.4102933     775.2475  0.021484522  0.021006697            4 
 3008000   0.78009896   -7.4038161    775.56999  0.021486314  0.021000525           11 
 3009000   0.76243959   -7.4098751    774.00528  0.021435839  0.020994372            6 
 3010000   0.77491478   -7.3958423    774.30069  0.021436896  0.020988206            4 
 3011000   0.76374159   -7.3842765    775.22344  0.021455315  0.020982037            3 
 3012000   0.77921182   -7.3900816    776.26403  0.021476982  0.020975872           10 
 3013000   0.78898217   -7.3918549    776.21672  0.021468545  0.020969717            7 
 3014000   0.74853807   -7.4067792    774.62769  0.021417488  0.020963548            5 
 3015000   0.78285472   -7.4122504    775.93112   0.02144641  0.020957368            4 
 3016000   0.76013744   -7.3953069    775.31521  0.021422281  0.020951214            4 
 3017000   0.78342699   -7.3847115    776.36266  0.021444113   0.02094506            6 
 3018000    0.7842048    -7.391294    773.37745  0.021354579  0.020938922            7 
 3019000   0.78101421   -7.3903602    776.21735  0.021425896  0.020932742            4 
 3020000   0.77835391   -7.4239613    776.57939  0.021428791   0.02092659            5 
 3021000   0.77391624   -7.4180124    776.76413  0.021426794  0.020920414            4 
 3022000     0.776161   -7.4266611    775.58683  0.021387239  0.020914254           11 
 3023000   0.77010346   -7.3810424    775.32049  0.021372822  0.020908089            8 
 3024000   0.77247139   -7.4059816    777.27171  0.021419525  0.020901947            7 
 3025000    0.7724755   -7.4001078    776.85551  0.021400978  0.020895804            8 
 3026000   0.75835028   -7.3985616    775.70906  0.021362334   0.02088962            4 
 3027000   0.76376383   -7.3987501    777.02934  0.021391624  0.020883434            7 
 3028000   0.77381473   -7.3809031    776.13432  0.021359927  0.020877293            5 
 3029000   0.77027231   -7.4101929    774.76487    0.0213152  0.020871131            3 
 3030000   0.75038484   -7.4178885    775.99146  0.021341899  0.020864955            6 
 3031000   0.76691308   -7.4288007     775.6791   0.02132627  0.020858764            7 
 3032000   0.79991501   -7.4117596    776.64773  0.021345859  0.020852591            7 
 3033000   0.77389859   -7.3917379    775.15893  0.021297915   0.02084643            3 
 3034000   0.75923572   -7.3980221     777.6867  0.021360325  0.020840266            7 
 3035000   0.76754241      -7.4115    775.89147  0.021303994  0.020834085            3 
 3036000   0.75403094   -7.3911105    776.06547  0.021301753  0.020827913            7 
 3037000   0.76180442   -7.4234007    773.91131   0.02123563   0.02082173           11 
 3038000   0.77066622   -7.4308975     774.5913  0.021247293  0.020815553            8 
 3039000   0.77123806   -7.4006217    778.88747  0.021358108  0.020809411            6 
 3040000   0.75446587   -7.4195489    775.68875  0.021263398  0.020803253            4 
 3041000    0.7597164   -7.4365861    776.04818  0.021266255  0.020797078           10 
 3042000    0.7690429   -7.3957456    775.55576  0.021245775  0.020790924            9 
 3043000   0.77067439   -7.3767041    778.27042  0.021313135  0.020784792            7 
 3044000    0.7719741   -7.3977407    776.12261  0.021247334  0.020778654            5 
 3045000   0.76359723   -7.4014714    777.15651  0.021268651   0.02077251            6 
 3046000   0.76871759   -7.4035495    776.94817  0.021255969  0.020766388            8 
 3047000   0.77618836   -7.4096167    777.76665  0.021271378  0.020760267           11 
 3048000   0.75090608   -7.3895063    776.93159  0.021241568  0.020754152            5 
 3049000   0.74876832   -7.4246308    775.82422  0.021204335  0.020748026            4 
 3050000    0.7831587   -7.4121204    776.48978  0.021215568  0.020741884            6 
 3051000   0.76580199   -7.3884824    777.84693  0.021245683  0.020735738            6 
 3052000   0.78857003   -7.4108288    775.91102  0.021185862  0.020729627            2 
 3053000   0.77189972   -7.4085753    777.54806  0.021223607  0.020723493            4 
 3054000   0.76265969   -7.4136524    776.35532  0.021184111  0.020717366            7 
 3055000   0.77654627   -7.4201812    776.87941  0.021191473  0.020711247            5 
 3056000    0.7556393   -7.4253255    776.29754  0.021168672  0.020705139           13 
 3057000   0.75877393   -7.4254803    777.00364  0.021180995  0.020699037            4 
 3058000   0.74393618   -7.4336894    776.87816   0.02117065  0.020692905            3 
 3059000   0.77664833   -7.4538555    777.84807  0.021190151  0.020686751            5 
 3060000   0.75853068   -7.4195438     776.0645  0.021134654  0.020680599            5 
 3061000   0.77371265   -7.4264815    775.96943  0.021125161  0.020674466            3 
 3062000   0.74595156   -7.4271674    776.37517  0.021129305  0.020668343            3 
 3063000   0.77311298   -7.4426649    776.74458  0.021132457  0.020662209            5 
 3064000   0.77829385   -7.4013344    777.65814  0.021150406  0.020656087            6 
 3065000    0.7470511   -7.4139115    776.84427  0.021121378  0.020649974            8 
 3066000   0.76569926   -7.4038791    777.04801  0.021120026  0.020643874            4 
 3067000   0.75940641   -7.4263711    776.54167  0.021099382  0.020637777            4 
 3068000   0.76108491    -7.434109    777.66413  0.021122994  0.020631675            5 
 3069000   0.74528176   -7.4100605    780.58362  0.021195384  0.020625565            4 
 3070000   0.76126128   -7.4410796    777.51824  0.021105272  0.020619443            3 
 3071000   0.75724116   -7.4429621    779.51057  0.021152463  0.020613341            6 
 3072000   0.75073929   -7.4235504    775.93368  0.021048548  0.020607201            6 
 3073000   0.75334995   -7.4421609    776.69465  0.021062334   0.02060109            6 
 3074000   0.76684463   -7.4384433    777.73152  0.021083591  0.020594963            6 
 3075000   0.75775608   -7.4134326     776.7435  0.021049959  0.020588831            6 
 3076000   0.75989958   -7.4489579    776.48113  0.021036008   0.02058271           11 
 3077000   0.74702755   -7.4459453    777.36205  0.021053029  0.020576592            8 
 3078000   0.75164181    -7.445211    777.06594  0.021038173   0.02057048           15 
 3079000   0.75836026   -7.4261221    777.16005  0.021033887  0.020564357            7 
 3080000   0.76308859   -7.4324205     776.5922  0.021011694  0.020558222            9 
 3081000   0.75733744    -7.424529    779.60364  0.021086326  0.020552118            8 
 3082000    0.7572129   -7.4412901     776.9571  0.021007925  0.020546023            9 
 3083000    0.7461333   -7.4230077    778.73616  0.021049199   0.02053994            4 
 3084000   0.75814121   -7.4185001    778.85339  0.021045541   0.02053392            4 
 3085000   0.77271431    -7.430878    779.45511  0.021054973  0.020527868            3 
 3086000   0.77463303   -7.4426975    780.06862  0.021064718  0.020521849            4 
 3087000   0.75865743   -7.4297541    780.49372  0.021069369  0.020515808            3 
 3088000   0.76186704    -7.418375    779.53358  0.021036636  0.020509763            1 
 3089000   0.76607925   -7.4357505    778.37645  0.020998609  0.020503704            6 
 3090000   0.75584612   -7.4502499    779.37173  0.021018655  0.020497679           10 
 3091000   0.75452175    -7.449901    779.48476  0.021014902  0.020491655            4 
 3092000   0.74994888   -7.4421744    780.06019  0.021023614  0.020485629            5 
 3093000   0.76262245   -7.4166034    779.69032  0.021006852  0.020479574            3 
 3094000   0.75448778   -7.4072095    778.63953  0.020971761  0.020473523           10 
 3095000   0.75341932   -7.4240863    779.35022   0.02098412   0.02046747            6 
 3096000   0.74895474   -7.4227124    779.86751  0.020991266   0.02046146            7 
 3097000   0.75981157   -7.3913299    779.19979  0.020966521  0.020455451            5 
 3098000   0.75446839   -7.3979417    779.33955  0.020963513  0.020449429            5 
 3099000   0.76551713   -7.4202372    780.55103  0.020989325  0.020443373            6 
 3100000   0.76157744   -7.4353266    781.45918  0.021006967  0.020437377            8 
 3101000   0.75895141   -7.4385617    779.71561  0.020953338   0.02043133            3 
 3102000    0.7463175   -7.4615651    779.97768  0.020953623  0.020425286           12 
 3103000   0.74523141   -7.4503232     778.9328   0.02091881   0.02041926            3 
 3104000   0.75340328   -7.4447051    780.37374  0.020950756  0.020413214            9 
 3105000   0.74678862   -7.4323272    778.98042  0.020906614  0.020407197            4 
 3106000   0.73960119   -7.4393617    780.60993  0.020943602  0.020401155            4 
 3107000   0.75876494   -7.4270499    781.24555  0.020953909  0.020395121            6 
 3108000   0.75741258   -7.4496859    779.44793  0.020898969  0.020389072            6 
 3109000   0.75784587   -7.4507116    780.87028  0.020930371  0.020383038            4 
 3110000   0.76773328   -7.4456476    780.35592  0.020909859  0.020377003            8 
 3111000   0.75179661   -7.4264076    779.70658  0.020885744   0.02037095            9 
 3112000   0.76482346   -7.4098545    780.82583  0.020909004  0.020364913            6 
 3113000   0.74863727   -7.4244067    780.44123  0.020891991  0.020358887            9 
 3114000   0.76364901   -7.4358074    781.29415  0.020908107  0.020352839           12 
 3115000   0.74624099   -7.4268865    780.57859  0.020882252  0.020346803            5 
 3116000   0.76391981   -7.4329378    778.40655  0.020817462  0.020340773            7 
 3117000   0.75236667   -7.4310014    779.91221  0.020851038  0.020334743            6 
 3118000   0.74756192   -7.4684439    779.65117  0.020837374  0.020328743            5 
 3119000   0.75561298   -7.4404234    780.32072  0.020848582  0.020322723            5 
 3120000   0.75940527   -7.4160081     779.4478  0.020818585  0.020316722            6 
 3121000   0.73662979   -7.4280423    782.60681  0.020896262   0.02031073            6 
 3122000   0.75650045   -7.4231189    782.08175  0.020875554  0.020304741            9 
 3123000   0.75030628   -7.4273682    782.37974  0.020876821  0.020298779            4 
 3124000   0.74462303   -7.4299795    780.85647  0.020829505  0.020292837            9 
 3125000   0.74112969   -7.4254447     783.4193  0.020891181  0.020286895            2 
 3126000   0.75794804   -7.4130413    784.05626  0.020901479  0.020280931            4 
 3127000   0.75391737    -7.422278    782.10078  0.020842681  0.020274969            4 
 3128000   0.73908908   -7.4385776    783.87598  0.020883312  0.020269042            3 
 3129000   0.75418423   -7.4422911     783.2207  0.020859186  0.020263126            3 
 3130000   0.75913845   -7.4300542    781.69198  0.020811821  0.020257223            5 
 3131000   0.74265154   -7.4425409    781.91741  0.020811173  0.020251271            8 
 3132000   0.74104872   -7.4491031    781.41991  0.020791292  0.020245314            6 
 3133000   0.76017768   -7.4453036    782.14497  0.020803941  0.020239374           10 
 3134000   0.73845159   -7.4414923    782.19198  0.020798553  0.020233442            4 
 3135000   0.74785981   -7.4539509    781.94514  0.020785357  0.020227522            3 
 3136000   0.76881756   -7.4345223    783.98891  0.020833039  0.020221608            5 
 3137000    0.7389343    -7.389667    783.25306   0.02080685   0.02021572            6 
 3138000   0.75347173   -7.4497645    781.80287  0.020761708  0.020209815            6 
 3139000   0.73732772   -7.4099751    785.03328  0.020840854   0.02020392            9 
 3140000    0.7641357   -7.4602963     783.1592   0.02078448  0.020198051            4 
 3141000   0.74742659   -7.4377094    782.27343  0.020754362  0.020192156            4 
 3142000   0.74336464   -7.4540732    783.16397  0.020771376  0.020186266            6 
 3143000   0.76363204   -7.4468095    782.22191   0.02073979  0.020180364            3 
 3144000   0.74536054   -7.4440159    782.80824  0.020748734  0.020174443            7 
 3145000   0.73704332   -7.4673505    783.49938   0.02076045  0.020168538            9 
 3146000   0.73639597   -7.4650639    782.68616   0.02073231  0.020162608            5 
 3147000    0.7393162    -7.448015    783.99075  0.020760268  0.020156691           11 
 3148000   0.75507037   -7.4435857    783.69223  0.020745771   0.02015077            9 
 3149000   0.74962552   -7.4442497    780.58673     0.020657  0.020144822            9 
 3150000   0.75247218   -7.4704114     780.7929  0.020655897  0.020138853            5 
 3151000   0.75376907    -7.477669    780.67677   0.02064627  0.020132867            9 
 3152000   0.74990495   -7.4553655     783.4199  0.020712243  0.020126904           26 
 3153000   0.74955785   -7.4471684    781.81177  0.020663172  0.020120934            6 
 3154000   0.75138655   -7.4415081    780.79481  0.020629751  0.020114961            6 
 3155000   0.73679173   -7.4686858    782.59298  0.020670707     0.020109           10 
 3156000   0.74893344   -7.4782955    782.10217  0.020651198  0.020103035           10 
 3157000   0.72916985    -7.468394    781.92024  0.020639854  0.020097095            9 
 3158000   0.73023072   -7.4718889    783.10609  0.020664611  0.020091124            6 
 3159000    0.7350645   -7.4447645    782.09567  0.020631415  0.020085161           11 
 3160000   0.75783822   -7.4564523    781.61946  0.020612327  0.020079218           22 
 3161000   0.74395412    -7.462057    780.98953    0.0205892  0.020073268            9 
 3162000   0.75721081   -7.4454044    784.19991  0.020667297  0.020067334           11 
 3163000     0.742658   -7.4476288    782.13888  0.020606462  0.020061401            6 
 3164000   0.75876084   -7.4497281    784.07968  0.020651066  0.020055469            8 
 3165000   0.75765788   -7.4550338    782.88912  0.020613194  0.020049521            7 
 3166000   0.73889032   -7.4592768    782.18582  0.020588172  0.020043587            8 
 3167000    0.7566662    -7.438144    782.83139  0.020598658  0.020037637            6 
 3168000   0.72556447   -7.4644788    782.29059   0.02057793  0.020031675           11 
 3169000   0.75368979   -7.4631144    783.88569  0.020613382  0.020025708            6 
 3170000   0.75201274   -7.4710726    783.63692   0.02060034  0.020019744            8 
 3171000   0.72177214   -7.4672212     784.8874  0.020626705  0.020013786           17 
 3172000   0.75720086   -7.4517754    781.83221  0.020539938  0.020007858           13 
 3173000   0.74530762   -7.4601228     780.7412  0.020504812  0.020001912           10 
 3174000   0.72561892   -7.4693684    782.63796  0.020548151  0.019995974           11 
 3175000   0.72000685   -7.4760481    783.29986  0.020559052  0.019990025           15 
 3176000   0.74257035   -7.4302357    782.38759  0.020528642  0.019984073            6 
 3177000   0.74790793   -7.4648957    784.05963  0.020566038  0.019978146            6 
 3178000   0.74891703   -7.4590695    783.49466  0.020544752  0.019972216           15 
 3179000   0.75234702   -7.4485659    782.84271  0.020521199  0.019966273            6 
 3180000   0.73805596   -7.4641417    784.37067  0.020554787   0.01996035           17 
 3181000   0.73683098   -7.4591488    783.24161  0.020518747  0.019954396            5 
 3182000   0.75845356    -7.466698     780.6131   0.02044346  0.019948443            7 
 3183000   0.74696266   -7.4788955     782.1136  0.020476322  0.019942469            9 
 3184000   0.73437103   -7.4765659    780.20625  0.020419971  0.019936491            7 
 3185000   0.75107053   -7.4756744    782.71924   0.02047931  0.019930505            7 
 3186000   0.75334961   -7.4676168    782.57848  0.020469201  0.019924553           11 
 3187000     0.739459   -7.4524175    782.41366  0.020458468  0.019918604            4 
 3188000   0.75786564   -7.4413335    782.26176   0.02044808  0.019912647            6 
 3189000   0.73431078   -7.4595939    783.80793  0.020482072  0.019906693            7 
 3190000   0.74643692   -7.4817337    781.09902  0.020404885  0.019900731            9 
 3191000   0.73523558   -7.4588591    782.96406  0.020447197  0.019894776           10 
 3192000    0.7423866   -7.4809466    782.43872  0.020427076  0.019888816           12 
 3193000   0.74386542   -7.4743753    781.35231  0.020392324  0.019882858           10 
 3194000    0.7474596   -7.4634836    782.46218  0.020414897  0.019876897            5 
 3195000   0.74355445    -7.467323    784.58417  0.020463854  0.019870957            3 
 3196000   0.73580141   -7.4750419    783.22456     0.020422  0.019865008            4 
 3197000   0.73072114    -7.463936    782.09943  0.020386285  0.019859038            4 
 3198000   0.73718597   -7.4661416    783.54911  0.020417686  0.019853081            3 
 3199000   0.75032763   -7.4757766    781.70217  0.020363191  0.019847101           15 
 3200000   0.73813131   -7.4634799    782.81308  0.020385757   0.01984112            8 
 3201000   0.74136213   -7.4589586    782.43081  0.020369437   0.01983515            5 
 3202000   0.74977924   -7.4347136    783.60971  0.020393757  0.019829196            8 
 3203000   0.75227748   -7.4697818    783.83019  0.020393126  0.019823241            8 
 3204000   0.74067759   -7.4515536    782.84095  0.020361032  0.019817289            8 
 3205000    0.7416954   -7.4404838     781.5831  0.020321973  0.019811319            6 
 3206000   0.72987367   -7.4493738    783.43587  0.020363794  0.019805357            5 
 3207000   0.73868294   -7.4758613    782.38313  0.020330089  0.019799413            4 
 3208000    0.7437942   -7.4578067    785.47591  0.020404092  0.019793464            6 
 3209000   0.73423788   -7.4660777     783.0886  0.020335738  0.019787534            6 
 3210000   0.73579603   -7.4602375    781.87893  0.020297999  0.019781588           16 
 3211000   0.73047558   -7.4590517    784.90872  0.020370308  0.019775657           12 
 3212000   0.74219435   -7.4594911    783.09038  0.020316791  0.019769718            5 
 3213000   0.74101029   -7.4548022    782.33859  0.020290969   0.01976379            5 
 3214000   0.74555256   -7.4884615    782.31751  0.020284109  0.019757835            5 
 3215000   0.73650254   -7.4581636    783.85831  0.020317738  0.019751908           10 
 3216000   0.73761576   -7.4798624    782.84779  0.020285235  0.019745978            8 
 3217000   0.74567913   -7.4675387    783.38149  0.020292754  0.019740046           10 
 3218000   0.73699626   -7.4669577    783.55246  0.020290876  0.019734129            6 
 3219000   0.75764233   -7.4882993    783.26273  0.020277072  0.019728181            8 
 3220000   0.72399917   -7.4908257    783.21199  0.020269462  0.019722224            4 
 3221000   0.75156312   -7.4749365    783.60173  0.020273252  0.019716281           14 
 3222000   0.73033568   -7.4719886    783.72624   0.02027018  0.019710361            5 
 3223000   0.73609889   -7.4733119    783.89083  0.020268146  0.019704463            6 
 3224000   0.74025231   -7.4797865    783.38455  0.020248774  0.019698573            8 
 3225000    0.7357156   -7.4779882    784.13411  0.020261863  0.019692672           11 
 3226000   0.75022077   -7.4715275    786.29289  0.020311348  0.019686789            5 
 3227000   0.72641761   -7.4954148    784.89928  0.020269065  0.019680922            4 
 3228000    0.7358882   -7.4660662    783.75804  0.020233324   0.01967504           11 
 3229000   0.72371487   -7.4791279    783.99768  0.020233242  0.019669157            3 
 3230000   0.72758678   -7.4761794     784.4447  0.020238511  0.019663279            3 
 3231000   0.72857474   -7.4820848    784.71904  0.020239323  0.019657385            4 
 3232000   0.73159379   -7.4683589    785.03165  0.020241121  0.019651506            7 
 3233000   0.73247156   -7.4850065     784.7461    0.0202275  0.019645649            4 
 3234000   0.71641084    -7.472795    784.12627  0.020205274  0.019639777            4 
 3235000    0.7249116    -7.482021    783.78075  0.020190128  0.019633912            6 
 3236000   0.72645733   -7.4681766    784.47553   0.02020178  0.019628049            5 
 3237000   0.74620618   -7.4736629    785.35664  0.020218223  0.019622212            4 
 3238000   0.73160085   -7.4915361    785.82829  0.020224117  0.019616375            5 
 3239000   0.72693784   -7.4777486    785.62491   0.02021264  0.019610518            6 
 3240000   0.72722586   -7.4802075    784.93687  0.020188705  0.019604676            8 
 3241000   0.74869745   -7.4851984    785.43792  0.020195359  0.019598848            9 
 3242000   0.73686408   -7.4821481    785.29847  0.020185546  0.019593006            5 
 3243000   0.72741724   -7.4587781    785.02008  0.020172168  0.019587171            2 
 3244000   0.73438982   -7.4956994    786.12978  0.020194456  0.019581316            5 
 3245000   0.72668409   -7.5069261    784.49039  0.020146132  0.019575461            6 
 3246000   0.74677336   -7.4650132    786.96328  0.020203411  0.019569598            4 
 3247000   0.70836707   -7.4988019     786.1335  0.020175893  0.019563743            5 
 3248000   0.72228303   -7.4731875    785.03359  0.020141461  0.019557899            6 
 3249000   0.74031062   -7.4639578    787.26911    0.0201926  0.019552072            4 
 3250000   0.75065647   -7.4892606    785.29302  0.020135719  0.019546239            5 
 3251000   0.73448211   -7.4695058    785.08999   0.02012432  0.019540409            4 
 3252000   0.73075532   -7.4898163    785.53528  0.020129543  0.019534569            7 
 3253000   0.73325979   -7.4696166    788.01191    0.0201868  0.019528711            3 
 3254000   0.74653746   -7.4770229    785.01715  0.020103901  0.019522861            3 
 3255000   0.74543898   -7.4843068    784.12086  0.020074779     0.019517            7 
 3256000   0.74055471   -7.4534675    787.16607  0.020146552  0.019511162            8 
 3257000   0.72732164   -7.4904508    784.12443  0.020062543  0.019505322            5 
 3258000   0.74229717   -7.4510779    785.78514  0.020098863  0.019499501            2 
 3259000   0.72362614   -7.4846311    786.84537  0.020119806    0.0194937            4 
 3260000   0.72460614    -7.490015    785.05538  0.020067878  0.019487867           12 
 3261000   0.71830135   -7.4857981     786.3361  0.020094452  0.019482009            7 
 3262000   0.71670808    -7.518967    784.44103  0.020039879  0.019476163           11 
 3263000   0.72520813   -7.5001654    785.20711  0.020053302  0.019470311           18 
 3264000   0.73783918   -7.4862801    786.22315  0.020073099  0.019464455            5 
 3265000   0.73212209   -7.5135461    785.00778  0.020035931  0.019458597            6 
 3266000   0.72184947   -7.5118862    786.06461  0.020056762  0.019452726           10 
 3267000   0.73588102   -7.5104225    786.69964  0.020066821  0.019446885           15 
 3268000   0.73400856   -7.4928421    785.63553  0.020033546  0.019441044           15 
 3269000   0.74472453   -7.4629491    785.66401  0.020028143  0.019435218            8 
 3270000   0.72705734   -7.5036509    785.34465   0.02001388  0.019429396            5 
 3271000   0.72888497   -7.4929679    784.80897  0.019994114  0.019423557            6 
 3272000   0.72940094   -7.4927714    785.52766  0.020006308  0.019417734            9 
 3273000   0.71252548   -7.5156961    786.04166  0.020013282   0.01941189           28 
 3274000   0.73516755   -7.4959705    785.38316  0.019990408   0.01940606           12 
 3275000   0.72387354   -7.4881364    785.72344  0.019992963  0.019400254            9 
 3276000   0.73914282   -7.4727938    786.70548  0.020011841   0.01939444            7 
 3277000   0.72252771   -7.4815799    786.69395  0.020005441  0.019388623            5 
 3278000    0.7120617   -7.5016538    785.88566  0.019978789  0.019382805            5 
 3279000   0.73388339   -7.4861081    786.26111  0.019982238   0.01937699            7 
 3280000   0.72621789   -7.5195824    786.53207   0.01998303  0.019371187           16 
 3281000   0.71604097   -7.4821851    785.31173  0.019945945  0.019365371            6 
 3282000   0.72643036   -7.4938919    787.23708  0.019988754  0.019359557           10 
 3283000    0.7313981   -7.4671066    786.32303  0.019959464  0.019353754            8 
 3284000   0.72892071   -7.5108126    786.28194  0.019952343  0.019347936            9 
 3285000   0.72452674   -7.4887035    786.40965  0.019949509  0.019342109            7 
 3286000   0.72098047   -7.5079041     786.9937   0.01995825  0.019336282            6 
 3287000   0.71375021   -7.5075989     785.6101    0.0199171  0.019330469           11 
 3288000   0.73939071   -7.5077606     786.3709  0.019930325  0.019324647           10 
 3289000   0.71877839   -7.4859191    786.44172   0.01992606  0.019318849            8 
 3290000   0.72936704   -7.5008872    786.84757  0.019930283  0.019313046            4 
 3291000   0.74284814    -7.505285    787.60937  0.019943517  0.019307249            6 
 3292000   0.73227136   -7.5163243    786.68142  0.019913969  0.019301466            5 
 3293000   0.73556288   -7.5022241    787.52268   0.01992921  0.019295705            6 
 3294000   0.71717506   -7.5107562    786.34819  0.019893447  0.019289927            4 
 3295000    0.7188405   -7.5277196     787.2455  0.019910104   0.01928412            6 
 3296000   0.72483213   -7.4774604    785.34291   0.01985596  0.019278315            4 
 3297000   0.70653013   -7.4835337    788.17152  0.019921432  0.019272494            7 
 3298000    0.7225857   -7.4990059    786.95577  0.019884672   0.01926669            9 
 3299000   0.72462063   -7.4972452    787.49522  0.019892271  0.019260883           14 
 3300000   0.71090146   -7.4941392     787.2022  0.019878843  0.019255064           10 
 3301000   0.73017989   -7.4933709    787.30647  0.019875454  0.019249253            4 
 3302000   0.73632345   -7.5069265    786.43388  0.019847413  0.019243423            5 
 3303000   0.70407618   -7.4899176    786.54312   0.01984416  0.019237615            2 
 3304000   0.71705899   -7.5047281    786.18587  0.019829143  0.019231832            6 
 3305000   0.72999075    -7.496468    786.71542  0.019836496  0.019226046            4 
 3306000   0.72850319   -7.4699318    785.86157  0.019808973  0.019220292            5 
 3307000   0.73919345   -7.5217788    786.78861  0.019826343  0.019214502            5 
 3308000   0.71781202   -7.5171128    787.19964  0.019830704  0.019208717            9 
 3309000    0.7287109   -7.5331225    788.96363  0.019869135  0.019202927            6 
 3310000   0.70623839   -7.5080635    787.16608  0.019817877  0.019197157            6 
 3311000   0.71470147   -7.5023193    787.02708  0.019808393  0.019191379            9 
 3312000   0.72227996   -7.4979387    787.19199  0.019806562  0.019185593           11 
 3313000   0.72488128   -7.5203404    788.11151  0.019823712  0.019179825            7 
 3314000   0.73092459   -7.5229744      785.881  0.019761643  0.019174047            9 
 3315000   0.72365515   -7.5471778    786.93685  0.019782223  0.019168281            5 
 3316000   0.71179144   -7.5210245    789.25247  0.019834451  0.019162529            5 
 3317000   0.71590306   -7.5198423    786.77264   0.01976617  0.019156777            6 
 3318000   0.70072506   -7.5337492    787.99244  0.019790849  0.019151019            9 
 3319000   0.72250259   -7.5353085    789.02786  0.019810883  0.019145296            3 
 3320000   0.71115993   -7.4914582    789.84356  0.019825391  0.019139556            3 
 3321000   0.71820673   -7.5400027    787.83907  0.019769123  0.019133809            5 
 3322000   0.72075641   -7.5176547    790.39391  0.019827261  0.019128069           10 
 3323000   0.72536796   -7.5146291    788.32229  0.019769342  0.019122334           10 
 3324000   0.72857889   -7.4868932    788.19334  0.019760162  0.019116612            5 
 3325000   0.73378757    -7.525524     786.5726  0.019713599  0.019110881            9 
 3326000   0.71391369   -7.5330864    787.97057  0.019742698  0.019105157            8 
 3327000    0.7161083   -7.5128572    790.17144   0.01979189  0.019099457            9 
 3328000   0.70726641    -7.475786    789.63547  0.019772523  0.019093757            4 
 3329000   0.73156083   -7.5091209    789.00054  0.019750689   0.01908808            4 
 3330000   0.72046817   -7.5097873    788.01111  0.019719998  0.019082377           15 
 3331000   0.72220699   -7.5328032    788.71779  0.019731757  0.019076712            8 
 3332000    0.7118166   -7.5071465    791.24253  0.019788979  0.019071043            6 
 3333000   0.71821648   -7.5059497      789.002  0.019727023  0.019065371            6 
 3334000   0.71421479   -7.5378743    789.07384  0.019722901  0.019059683           12 
 3335000   0.72438081   -7.4902978    789.65851  0.019731597  0.019054007            8 
 3336000    0.7315508   -7.5364056    789.66487  0.019725841  0.019048319           12 
 3337000   0.72422186   -7.5278919     790.3479  0.019736987  0.019042629            8 
 3338000    0.7201329   -7.5427585    789.74692  0.019716071  0.019036925           15 
 3339000   0.71524173   -7.5498161    789.84405   0.01971259  0.019031225           12 
 3340000   0.71634159    -7.515823     789.3386  0.019694077  0.019025501           14 
 3341000   0.71533992   -7.5176377    789.15038  0.019683487  0.019019802            6 
 3342000   0.72074521   -7.5222451    790.51612  0.019711653  0.019014091            6 
 3343000   0.69744378   -7.5223651    790.84624  0.019713985  0.019008407            4 
 3344000   0.71304429   -7.5537387    789.59987   0.01967703  0.019002731            6 
 3345000   0.71662126   -7.5250482    789.38348  0.019665757  0.018997068            6 
 3346000   0.69549855   -7.5468432    788.93654  0.019648748  0.018991406            9 
 3347000   0.72822974   -7.5330856    788.94395  0.019643062  0.018985749            6 
 3348000   0.71247709    -7.519627    789.83717  0.019659428  0.018980089            5 
 3349000   0.72393934   -7.5185996    790.38551  0.019667202  0.018974424           10 
 3350000   0.73407819   -7.5168116     790.5471  0.019665351  0.018968775            4 
 3351000   0.69781505   -7.5330221    790.39795  0.019655773  0.018963123            9 
 3352000   0.71255084   -7.5303006    790.43877  0.019650924  0.018957491            5 
 3353000   0.71899541   -7.5186821    788.71434  0.019602205  0.018951851           12 
 3354000   0.70096691   -7.5272745    788.63054  0.019594279  0.018946171            6 
 3355000   0.71551846   -7.5224253    789.09041  0.019599861  0.018940496            7 
 3356000   0.72878579   -7.5291099    791.27084  0.019648163   0.01893483            9 
 3357000     0.708523   -7.5081436    790.86003  0.019632113  0.018929169            5 
 3358000   0.72415377   -7.5111929    789.92643  0.019603098  0.018923506            6 
 3359000    0.7138172   -7.5520167    790.41664  0.019609423  0.018917836            5 
 3360000    0.7209916   -7.5066198    790.73631  0.019611516  0.018912177           13 
 3361000   0.70180593   -7.5179752    789.48273  0.019574599  0.018906508            4 
 3362000   0.72203605   -7.5248929    789.32077  0.019564762  0.018900847            4 
 3363000   0.70989424   -7.5277507    788.39035  0.019535889  0.018895175           11 
 3364000   0.70084787   -7.5375266    790.15106  0.019573699   0.01888952            8 
 3365000   0.71089232   -7.5393725    789.80929  0.019559418  0.018883874           15 
 3366000   0.71582448   -7.5465295      790.153  0.019562116   0.01887823            8 
 3367000   0.70131019   -7.5421354    789.54729  0.019541315  0.018872595            9 
 3368000   0.69509572   -7.5312108    789.34751   0.01953057  0.018866962            9 
 3369000   0.71306545   -7.4990695    790.99998  0.019565647  0.018861331            6 
 3370000   0.70628493   -7.5491475    791.94735  0.019583268  0.018855705           13 
 3371000    0.6885859   -7.5461271    790.14496  0.019532902  0.018850076            4 
 3372000   0.70095294   -7.5332658     791.0745  0.019550082  0.018844437            3 
 3373000    0.7153646    -7.552591    790.81916  0.019537977  0.018838829            8 
 3374000    0.7139374   -7.5231114    792.12867   0.01956453  0.018833211            6 
 3375000    0.7187285   -7.5218504    790.62224  0.019521537  0.018827598            4 
 3376000   0.72686692   -7.5590267    790.21577  0.019505721  0.018821983            6 
 3377000   0.71886732   -7.5590563    790.19892  0.019499529  0.018816374            6 
 3378000   0.72117789   -7.5418933    790.71153  0.019506402  0.018810761           12 
 3379000   0.70133445   -7.5699654    790.83525  0.019503681  0.018805138            7 
 3380000   0.69413063   -7.5367291    791.17349   0.01950625  0.018799512            8 
 3381000   0.68798578   -7.5306698    791.15649  0.019500061  0.018793903            5 
 3382000    0.7143782   -7.5190599    790.29442  0.019473054  0.018788309            9 
 3383000   0.73434857   -7.5099261    789.32329  0.019443376  0.018782696            6 
 3384000   0.70520808   -7.5034752    791.72195  0.019496699  0.018777112            7 
 3385000   0.69670389   -7.5340377    792.43722  0.019508548  0.018771522            4 
 3386000   0.71098149   -7.5385759    791.11932  0.019470351  0.018765937            3 
 3387000   0.70348871   -7.5280215    791.31078  0.019469314  0.018760363            8 
 3388000   0.70294225   -7.5152243    791.57398  0.019470041  0.018754796            9 
 3389000   0.70760167   -7.5387683    791.21421  0.019455449  0.018749221           15 
 3390000   0.69495765   -7.5596558    790.50749  0.019432338  0.018743616           15 
 3391000   0.70862327   -7.5372958    790.07673  0.019416021   0.01873801           12 
 3392000   0.70748197   -7.5388411    791.56827  0.019446941  0.018732391           16 
 3393000   0.71693518   -7.5268429    791.79544  0.019446788  0.018726775           13 
 3394000   0.70551767    -7.521653    790.95557  0.019420437   0.01872116            5 
 3395000   0.72151899   -7.5581809    791.45009  0.019426856  0.018715541            6 
 3396000   0.70225157   -7.5601088    791.62787  0.019425498  0.018709916            6 
 3397000   0.70675517   -7.5658337     790.5408  0.019393112  0.018704277            9 
 3398000   0.69994781   -7.5783142    790.76566  0.019392919  0.018698642            8 
 3399000   0.72198379   -7.5279165    791.06577  0.019394571  0.018693027            8 
 3400000   0.72829664    -7.550208    790.59152  0.019377243   0.01868742            6 
 3401000   0.69955545   -7.5646155    791.28044  0.019388426  0.018681805            5 
 3402000   0.70481076   -7.5674303    791.07853  0.019377781  0.018676202            4 
 3403000   0.70063727   -7.5518096    792.55914  0.019408344  0.018670599            7 
 3404000   0.70071417   -7.5177714    791.20401  0.019369467  0.018664999            8 
 3405000   0.70360903   -7.5414504    791.41007  0.019368822  0.018659393           11 
 3406000   0.71615387   -7.5668973    790.09431  0.019330943  0.018653776            5 
 3407000   0.71786904   -7.5556554    791.15624  0.019351243  0.018648172           12 
 3408000   0.70168525   -7.5412802    792.90164  0.019388244  0.018642563           10 
 3409000     0.721587     -7.55332    791.04953  0.019337282   0.01863694            4 
 3410000   0.71076201   -7.5834825    793.31085  0.019386873  0.018631347            7 
 3411000   0.69574756   -7.5545355    791.28716  0.019331749  0.018625748           15 
 3412000   0.71231905   -7.5644971    789.54167  0.019283452  0.018620148            7 
 3413000   0.69859586   -7.5249128    793.34797  0.019370739  0.018614556           12 
 3414000    0.6929839   -7.5475245    793.09376  0.019358859  0.018608983           14 
 3415000   0.70007768   -7.5290673    794.21809  0.019380627  0.018603414            7 
 3416000   0.71906738   -7.5166793    792.15985  0.019324743  0.018597846            7 
 3417000   0.70099811   -7.5397147    791.54118  0.019303999  0.018592295           14 
 3418000   0.68531453   -7.5509141    792.44258  0.019320328  0.018586732            3 
 3419000   0.71925377   -7.5665503    792.25748  0.019310166  0.018581149            5 
 3420000   0.71001067   -7.5704987     791.3534   0.01928249  0.018575575            7 
 3421000   0.70964581   -7.5380266    791.70545   0.01928543  0.018569996            6 
 3422000   0.71581834   -7.5441196    790.67816  0.019254777  0.018564406            4 
 3423000   0.70407272   -7.5678424    790.15011  0.019236296  0.018558832            7 
 3424000   0.69820785   -7.5525432    792.59749  0.019290243  0.018553248            5 
 3425000   0.69275973   -7.5348728    791.71782  0.019263207   0.01854767            7 
 3426000   0.69924711   -7.5558856    791.75626   0.01925852  0.018542085           13 
 3427000   0.70609134   -7.5630345    792.83998  0.019279252  0.018536525            4 
 3428000   0.71097109   -7.5754501    792.70036  0.019270234  0.018530963           11 
 3429000   0.70627155   -7.5465758    790.55634   0.01921251  0.018525399            7 
 3430000   0.69531019   -7.5433291    792.28935  0.019249012  0.018519821            7 
 3431000   0.70465428   -7.5738576    791.03244  0.019212874  0.018514239            9 
 3432000   0.70205313    -7.553704     791.2352  0.019212199  0.018508683           21 
 3433000   0.70783051   -7.5469482    794.35847  0.019282417  0.018503133           13 
 3434000   0.70113052   -7.5348793    791.93503  0.019217992  0.018497587           13 
 3435000   0.69454749   -7.5448397    791.83444  0.019209957  0.018492048            8 
 3436000   0.69427373   -7.5137981    792.83416  0.019228613  0.018486526            8 
 3437000   0.70457411   -7.5326393    791.96123  0.019201853  0.018481018            5 
 3438000   0.70261904   -7.5319537     792.6483  0.019212922   0.01847551            4 
 3439000   0.68850859   -7.5158691     794.4654  0.019251367  0.018470008            2 
 3440000   0.70796605    -7.530029    792.33246    0.0191941  0.018464509            6 
 3441000   0.68887309    -7.576579    792.33022  0.019188468  0.018459002            3 
 3442000    0.6878915    -7.554903    791.90997  0.019172719  0.018453488            7 
 3443000   0.70463645   -7.5549744    792.76895  0.019187941  0.018447988            4 
 3444000   0.70581925   -7.5634961    794.47661  0.019223689  0.018442469            6 
 3445000   0.70501792   -7.5774013    793.03063  0.019183131  0.018436959            4 
 3446000   0.70682258   -7.5743029    793.04889  0.019178006   0.01843145            3 
 3447000   0.70120076   -7.5425275     795.2441  0.019225513  0.018425956            6 
 3448000   0.69532015   -7.5399576     792.8773  0.019162735  0.018420467           14 
 3449000   0.70801407   -7.5398004     792.1089  0.019138613  0.018414964           12 
 3450000   0.68908059   -7.5391034    794.51619  0.019191212  0.018409451            8 
 3451000   0.71728834   -7.5432121     792.9618  0.019148117  0.018403933           17 
 3452000   0.69654319   -7.5501006    792.00788  0.019119541  0.018398413            7 
 3453000   0.68824483   -7.5456943    793.74271  0.019155872  0.018392913           14 
 3454000   0.70780903   -7.5532044     792.8553  0.019128916  0.018387412           14 
 3455000   0.69866711   -7.5696455    792.46491  0.019113963  0.018381893            8 
 3456000   0.71250351   -7.5575785    793.36818  0.019130213  0.018376377           17 
 3457000   0.69788859   -7.5450001    794.27807  0.019146612  0.018370867           12 
 3458000   0.69105345   -7.5401298    792.31529  0.019093775  0.018365363           13 
 3459000   0.68903511   -7.5368313    792.71072  0.019097782  0.018359869           11 
 3460000   0.70589238    -7.565138    794.28946  0.019130286  0.018354366            7 
 3461000   0.68713634    -7.578902    793.84673  0.019114098  0.018348857           10 
 3462000   0.70176145   -7.5747634     792.4931  0.019075994  0.018343333            9 
 3463000   0.70384755   -7.5636758     792.7905  0.019077642  0.018337826            6 
 3464000   0.69581777   -7.5640685    793.03833  0.019078097  0.018332327           14 
 3465000   0.70068179   -7.5566566    794.56613  0.019109335  0.018326848            4 
 3466000   0.69647608   -7.5754118     792.8661  0.019062947  0.018321347            5 
 3467000    0.6917604   -7.5421335     794.7547  0.019102843  0.018315854           10 
 3468000   0.70209263   -7.5369133    794.68627  0.019095691  0.018310376            8 
 3469000   0.69414761   -7.5789321    793.51631  0.019062081  0.018304888            5 
 3470000   0.69595496    -7.550542    794.69846  0.019084977  0.018299409            7 
 3471000    0.6939269   -7.5574457    791.69051  0.019007263   0.01829392            6 
 3472000     0.683381     -7.55203    793.61907  0.019048077  0.018288413            5 
 3473000   0.70982239   -7.5815219    792.88646  0.019025013  0.018282907            5 
 3474000   0.70475258   -7.5676788    793.32125  0.019029967  0.018277412            6 
 3475000   0.69861226    -7.571831    792.27299  0.018999352  0.018271917            6 
 3476000   0.69180753    -7.570134    793.07029  0.019013001  0.018266415            8 
 3477000   0.70796318   -7.5601123    793.80423  0.019025123  0.018260911            6 
 3478000    0.6908703   -7.5766622    794.06944  0.019026007  0.018255407           14 
 3479000   0.68907658   -7.5607175     793.7819  0.019013651  0.018249905            9 
 3480000   0.68500298   -7.5747603       795.55  0.019050527  0.018244394            5 
 3481000   0.69464768   -7.5802121    793.26178  0.018990275  0.018238889            8 
 3482000   0.69072941   -7.5684472    790.21231   0.01891184  0.018233388            7 
 3483000   0.71262492   -7.5557849    794.68486  0.019013419  0.018227893            7 
 3484000   0.68195324   -7.5919384    793.91223  0.018989481  0.018222406            4 
 3485000   0.69583857   -7.5720714    794.28241  0.018992884   0.01821691            7 
 3486000   0.69087109   -7.5599904    793.20456  0.018961669  0.018211423           11 
 3487000   0.69184644    -7.568678    792.86306  0.018948071  0.018205948            6 
 3488000   0.69542503   -7.5783608    793.69104   0.01896242  0.018200465            6 
 3489000   0.69134205   -7.5755234     794.0607  0.018965814  0.018195008            5 
 3490000   0.68568395   -7.5469142    794.23055  0.018964435  0.018189547            8 
 3491000   0.68544547   -7.5452358    795.24915  0.018983318  0.018184073            6 
 3492000     0.693236   -7.5678144    793.63812  0.018939436  0.018178602            5 
 3493000   0.67804218   -7.5832365    794.01643  0.018943039  0.018173128            9 
 3494000   0.68317123   -7.5690675    793.28454  0.018920162  0.018167661           10 
 3495000   0.67411014   -7.5414802    793.39957  0.018917491  0.018162198            6 
 3496000   0.67985341   -7.5860377    792.16891  0.018882745  0.018156734            4 
 3497000   0.70171338   -7.5856478    793.53578  0.018909917  0.018151267            6 
 3498000   0.68828649   -7.5845198    792.49279  0.018879664    0.0181458            6 
 3499000   0.69438018    -7.561047    794.86702  0.018930814   0.01814034            7 
 3500000   0.69608365   -7.5910472    793.10537  0.018883461  0.018134863           15 
 3501000   0.71676672   -7.5967989    794.91473  0.018921135  0.018129378            6 
 3502000   0.69532439   -7.5777246    792.89363  0.018867638  0.018123897            7 
 3503000   0.67908815   -7.5815398    793.54351  0.018877712  0.018118438            8 
 3504000    0.6914096   -7.5741184    793.42726   0.01886956  0.018112952            6 
 3505000    0.7080034   -7.5769145    794.38478  0.018886942  0.018107477            5 
 3506000   0.69350869   -7.5686254    794.68504  0.018888692  0.018102027            7 
 3507000    0.6862908   -7.5606514    793.88717  0.018864347  0.018096573            4 
 3508000   0.69249279   -7.5679698    794.71764  0.018878697  0.018091129            7 
 3509000    0.6763198   -7.5621147    793.79522  0.018851411  0.018085677            6 
 3510000   0.68564493   -7.5621776    792.81532  0.018822776  0.018080216           10 
 3511000   0.69512519   -7.5831171    794.14994  0.018849092  0.018074758            8 
 3512000   0.69179312    -7.588762    794.79365  0.018858999  0.018069328            5 
 3513000   0.69438337   -7.5426039    794.79286  0.018853612   0.01806389            7 
 3514000   0.70025441   -7.5556157    794.76229  0.018847522   0.01805846            7 
 3515000   0.69992447   -7.5776228    794.00655  0.018824242  0.018053022            5 
 3516000   0.68707422   -7.5828073    795.42524  0.018852513  0.018047598            8 
 3517000   0.69513466   -7.5759217    793.09366  0.018791907  0.018042156           10 
 3518000   0.68012721   -7.5934677    794.07394  0.018809786   0.01803671           11 
 3519000   0.69814649   -7.5975051    794.20421  0.018807526  0.018031262            7 
 3520000   0.69217679   -7.6061334    794.32416  0.018805023  0.018025793            8 
 3521000   0.68387205    -7.574946    794.57589   0.01880564  0.018020327            3 
 3522000   0.67927818   -7.5923219    793.79647  0.018781859  0.018014866            6 
 3523000   0.68006818   -7.5683847    793.87064  0.018778282  0.018009422            5 
 3524000   0.66378236   -7.5676558     795.0293  0.018800352  0.018003975            8 
 3525000   0.67219588   -7.5906934    793.13419  0.018750217  0.017998529           11 
 3526000    0.6926912   -7.5756498    794.10666  0.018767883  0.017993066           18 
 3527000   0.68723272   -7.5827187    794.41851   0.01876993  0.017987609           10 
 3528000   0.67630794   -7.5878316    793.49692  0.018742841  0.017982161           13 
 3529000   0.68187427   -7.5835613    793.14115  0.018729129   0.01797671            5 
 3530000   0.68240542   -7.6077791    793.70014  0.018737019  0.017971262            8 
 3531000   0.68880162   -7.6086119    794.69319  0.018755149  0.017965826            6 
 3532000   0.68922659   -7.5910679    794.30773  0.018740745  0.017960369            8 
 3533000   0.67785961   -7.5824828    793.89742  0.018725762  0.017954912           12 
 3534000   0.68928363   -7.5975678    794.45137  0.018733526  0.017949444            5 
 3535000     0.678728   -7.5892924    794.39599  0.018726921  0.017943984           14 
 3536000    0.6962396   -7.5920833    793.09575  0.018690982  0.017938525           15 
 3537000   0.69522045   -7.5807849     794.1762  0.018711154  0.017933097            6 
 3538000   0.68411805   -7.6128966    793.66749  0.018693883  0.017927663            4 
 3539000   0.69337515   -7.5748122    793.63639  0.018687868  0.017922234           12 
 3540000   0.68496787   -7.5844342    794.29449  0.018698081  0.017916795           10 
 3541000   0.65526085   -7.5745182    795.26873  0.018715728  0.017911373           12 
 3542000   0.67295052   -7.6039346    792.57755  0.018647129  0.017905932            6 
 3543000   0.68558326   -7.5782892    794.32675  0.018683008  0.017900495            8 
 3544000   0.68379098   -7.5913261    794.24667  0.018675853  0.017895073            7 
 3545000   0.68592635   -7.5815121    793.15457  0.018644912  0.017889651            7 
 3546000    0.6817456   -7.5809865    793.33033  0.018643785  0.017884231            6 
 3547000   0.68397006   -7.5820559    792.55647  0.018620347  0.017878813            5 
 3548000   0.68810613   -7.5837722    793.83054  0.018645024  0.017873388            8 
 3549000   0.69047369   -7.5934083    795.41608     0.018677  0.017867986           11 
 3550000   0.68428447   -7.6159416     793.9662  0.018637704  0.017862563           16 
 3551000   0.69085105   -7.5852362    792.72932  0.018603429  0.017857143           11 
 3552000   0.69040305   -7.5806275    794.05518  0.018629298  0.017851708            6 
 3553000     0.678296   -7.5935018    793.24153  0.018604971  0.017846276            6 
 3554000   0.68537783   -7.5869439    792.86731  0.018590961  0.017840841            5 
 3555000   0.66185042   -7.6246038    794.07731  0.018614095  0.017835402            8 
 3556000    0.6750177   -7.6048529     794.5517  0.018619978  0.017829963           14 
 3557000   0.69021058    -7.601216    793.61373  0.018592768  0.017824573           16 
 3558000    0.6672701   -7.5704001    794.89519  0.018617556  0.017819175           16 
 3559000   0.68917079   -7.5754413    794.12229  0.018594228  0.017813788            6 
 3560000   0.67995547    -7.599511    793.68458  0.018578759  0.017808394           12 
 3561000   0.66760981   -7.5766502    795.11593  0.018607038  0.017802983            8 
 3562000   0.67989418   -7.5827932    793.74514  0.018569744  0.017797587           13 
 3563000   0.68055004   -7.5957416     794.7355  0.018587695  0.017792181            6 
 3564000   0.67367013   -7.5853197    797.37327  0.018644156  0.017786799            6 
 3565000   0.69064529   -7.5784341    794.91031  0.018581354  0.017781413           10 
 3566000   0.69073276   -7.6109937    795.26605  0.018584456  0.017776034            9 
 3567000   0.68761594   -7.6007598    794.39566  0.018558912  0.017770633            6 
 3568000   0.66956294   -7.6231889    792.96842  0.018520376  0.017765215            9 
 3569000   0.67571531   -7.5934494    793.26519  0.018522116  0.017759799           12 
 3570000   0.66634011   -7.5940594    793.22415   0.01851597  0.017754389           11 
 3571000   0.67735112   -7.5916282    792.72834  0.018499215  0.017748981           10 
 3572000   0.68727988   -7.6088576    794.63798  0.018538587  0.017743558            5 
 3573000   0.67535547   -7.6126386    795.35758  0.018550181  0.017738139            7 
 3574000   0.67521108   -7.6167837    794.93532  0.018535145  0.017732721           16 
 3575000   0.67977584     -7.63392    794.26719  0.018514387  0.017727307           14 
 3576000   0.67028454   -7.6156129    793.66428  0.018495159  0.017721899           10 
 3577000    0.6739248   -7.5975785    795.77165  0.018539084  0.017716502           14 
 3578000   0.69903804   -7.6316102    793.50823  0.018481187  0.017711093           10 
 3579000   0.68245519   -7.6206724    793.33894  0.018472081  0.017705693           12 
 3580000   0.68337365   -7.6294213    793.09059   0.01846114  0.017700297           11 
 3581000    0.6974116   -7.6106671    793.18358  0.018458149    0.0176949            6 
 3582000   0.68274305   -7.6170195    793.65254  0.018463906  0.017689503           10 
 3583000    0.6811779   -7.6252626     793.8804  0.018464052  0.017684108           11 
 3584000   0.68339079    -7.608561      794.606  0.018475772  0.017678719            7 
 3585000   0.68409711   -7.6206694    795.69043  0.018495826  0.017673345            8 
 3586000   0.66932064   -7.6092354    795.90662  0.018495692   0.01766796            7 
 3587000   0.66405204   -7.5969605    794.42597  0.018456137  0.017662579            8 
 3588000   0.67871511   -7.6273986    794.77077  0.018459001  0.017657202            8 
 3589000   0.67837765   -7.6357653    793.90629  0.018433786  0.017651833            9 
 3590000   0.69357595   -7.6116784    794.50569  0.018442565  0.017646474           16 
 3591000   0.68496994   -7.6137996    794.76183  0.018443373  0.017641103           10 
 3592000    0.6818233   -7.5956564    794.25765  0.018426542  0.017635752           10 
 3593000   0.67938013   -7.5973885    796.09162  0.018463949  0.017630393            8 
 3594000   0.66540412   -7.6109515    796.28364  0.018463264  0.017625037            4 
 3595000   0.68183844   -7.6048882    794.81427  0.018424067  0.017619662            7 
 3596000    0.6638776   -7.6148075    794.32693   0.01840765   0.01761429            4 
 3597000   0.68212326   -7.6177126      796.838  0.018460708  0.017608928            9 
 3598000   0.67851487   -7.6052185    795.21015  0.018417875   0.01760357            7 
 3599000   0.66451743   -7.6044775    794.94767  0.018406679  0.017598203            5 
 3600000   0.67781783   -7.6277419    794.83632  0.018398989  0.017592827            8 
 3601000   0.66802352   -7.6073357    796.28812  0.018427477  0.017587476            9 
 3602000   0.67731113   -7.6049606    796.24169  0.018421286  0.017582118            5 
 3603000   0.66899599   -7.6420086    794.46155  0.018375001  0.017576748            5 
 3604000   0.67378252   -7.5953061    795.19261  0.018386807   0.01757137           11 
 3605000   0.67429501   -7.6034755     794.5111  0.018365952  0.017566005            7 
 3606000   0.67978657   -7.6083277    794.69829  0.018365185  0.017560645            8 
 3607000   0.66077036   -7.6154721    794.65672  0.018359133  0.017555284            5 
 3608000    0.6933243   -7.6153357    794.47913  0.018349943   0.01754991            9 
 3609000   0.67273324   -7.6393165    793.13112  0.018313732   0.01754453            6 
 3610000   0.66015857   -7.6243386    793.17819  0.018309746  0.017539161            5 
 3611000   0.66132786   -7.6236927    794.37531  0.018332302  0.017533792            3 
 3612000   0.67993184   -7.6471506    794.78158    0.0183366  0.017528416            9 
 3613000   0.65492603   -7.6336849    794.74108   0.01833059  0.017523041           11 
 3614000   0.67649626   -7.6172502    795.23846  0.018336987  0.017517671            5 
 3615000   0.67762508   -7.6107021    795.40311   0.01833571  0.017512322            8 
 3616000   0.66549731     -7.63634    793.43511  0.018285285  0.017506981            5 
 3617000   0.67305941   -7.6224839    793.47712  0.018281198  0.017501628           16 
 3618000   0.65174869   -7.6061473     795.8173  0.018330047  0.017496284           12 
 3619000   0.66605484   -7.6245381    795.82617  0.018325186   0.01749094           19 
 3620000   0.67156044   -7.6230364    794.89706  0.018298735  0.017485608           20 
 3621000   0.68067365   -7.6257549    794.99415  0.018295916   0.01748027           16 
 3622000    0.6769199   -7.6281826    794.37401  0.018276597  0.017474926           10 
 3623000   0.65879104   -7.6343499    794.71869   0.01827948  0.017469585           23 
 3624000   0.66383949   -7.6287907    794.62082  0.018272186  0.017464234           10 
 3625000   0.67989852   -7.6344629    794.44454  0.018263093  0.017458889            5 
 3626000   0.66922531    -7.617083    794.46376  0.018258498  0.017453553           14 
 3627000   0.67962898   -7.6287066    794.86881   0.01826277  0.017448234            7 
 3628000   0.67040048   -7.6208294    794.40764  0.018247144  0.017442913           11 
 3629000    0.6690887   -7.6442995    794.73061  0.018249532  0.017437582            7 
 3630000   0.65834115   -7.6158213    795.52586  0.018262761  0.017432248            6 
 3631000   0.67900864   -7.6483836     794.5752  0.018235913   0.01742691            6 
 3632000   0.67890811   -7.6330594    795.55279  0.018253322  0.017421588           13 
 3633000   0.67218011   -7.6319137    796.61295  0.018272616  0.017416271            7 
 3634000   0.68075128   -7.6266235    794.89196  0.018228122  0.017410939            6 
 3635000    0.6647952   -7.6347255    794.63204  0.018217149  0.017405603            6 
 3636000   0.67693274   -7.6419003    796.21448  0.018248407  0.017400287           16 
 3637000   0.64638914   -7.6395079    794.91088   0.01821352  0.017394967            6 
 3638000    0.6640676   -7.6238949    797.76332  0.018273853   0.01738965           10 
 3639000   0.67416755   -7.6643693    794.56591   0.01819561  0.017384332            4 
 3640000   0.65191581   -7.6344134    795.27651   0.01820688  0.017379022            8 
 3641000   0.65446435   -7.6271649    796.30961  0.018225524  0.017373706           10 
 3642000   0.66202052   -7.6361686    795.76684  0.018208101  0.017368406           11 
 3643000   0.66188161   -7.6407998    795.62863  0.018199941  0.017363105            9 
 3644000   0.66601379   -7.6151714    795.58885  0.018194037  0.017357802           10 
 3645000   0.68472902   -7.6417161    796.14161  0.018201683  0.017352495            5 
 3646000   0.66478963   -7.6300372    797.25002  0.018222025  0.017347199           12 
 3647000   0.67595734   -7.6220204    794.32123  0.018150106  0.017341899           11 
 3648000    0.6711074   -7.6216739    796.42253  0.018193132  0.017336605           12 
 3649000   0.67191047   -7.6385192    795.31472  0.018162846  0.017331302           13 
 3650000   0.66100021   -7.6492003     793.5998  0.018118717  0.017326005           13 
 3651000   0.67033159   -7.6206548    794.43365  0.018132787  0.017320689            7 
 3652000   0.68758927   -7.6331911     797.1175  0.018189063  0.017315376            7 
 3653000   0.66994122    -7.646241    795.16031  0.018139436  0.017310079           14 
 3654000   0.65718487   -7.6510495    795.45767  0.018141253  0.017304779           10 
 3655000   0.65075031   -7.6364189    796.44076  0.018158704  0.017299495           10 
 3656000   0.67797841   -7.6174385    795.66738  0.018136109  0.017294211            4 
 3657000   0.68398354   -7.6114147    795.43437   0.01812584  0.017288947            7 
 3658000   0.66702521   -7.6386691    795.53179  0.018123104  0.017283683           10 
 3659000   0.66903443   -7.6292144    797.12883  0.018154524  0.017278415           12 
 3660000   0.67163805   -7.6399677    796.93961  0.018145255  0.017273151           15 
 3661000   0.65064785   -7.6307355    796.68293  0.018134456  0.017267887           15 
 3662000   0.66788124   -7.6459205    796.97567  0.018136166  0.017262627            9 
 3663000   0.64977257   -7.6327445    795.46069  0.018096749  0.017257366           12 
 3664000   0.66546856   -7.6390586    797.08521  0.018128758  0.017252105            4 
 3665000   0.66018192   -7.6623949    796.04072  0.018100062   0.01724684            7 
 3666000   0.67306435   -7.6267337    795.68111   0.01808695  0.017241589            4 
 3667000   0.66375752   -7.6348294    796.92202  0.018110218  0.017236332            5 
 3668000   0.66235505   -7.6551331    796.76649  0.018101747   0.01723107            4 
 3669000   0.67320834   -7.6586149    796.22001  0.018084401  0.017225813            5 
 3670000   0.66389868    -7.640468    796.45223  0.018084746   0.01722056           11 
 3671000   0.66545719   -7.6354913    795.92944  0.018067952  0.017215312            4 
 3672000   0.66051481   -7.6601465    795.21562  0.018046832  0.017210042            5 
 3673000   0.67692566   -7.6359214    798.12521  0.018107932   0.01720479            6 
 3674000   0.66595885   -7.6413694    798.71065  0.018116282  0.017199529            5 
 3675000   0.67083448   -7.6388416    796.84374  0.018069019  0.017194276            8 
 3676000   0.66395435   -7.6645732    794.66484  0.018014709  0.017189019            7 
 3677000   0.66759983   -7.6546204    797.23222  0.018067995  0.017183773           13 
 3678000    0.6762125   -7.6438967    796.64188  0.018049707  0.017178527            8 
 3679000   0.65725616    -7.650052    796.17991  0.018034337  0.017173286            7 
 3680000   0.65959891   -7.6682839    796.42757  0.018035045  0.017168033           12 
 3681000   0.65275285   -7.6605291    795.40102  0.018006905  0.017162781            9 
 3682000   0.65337389   -7.6534125    795.10752  0.017995372  0.017157531           13 
 3683000   0.66065867   -7.6394251    795.70145  0.018003925  0.017152288           10 
 3684000   0.65836721   -7.6628145    796.21637  0.018010685  0.017147056           19 
 3685000   0.66119859   -7.6697747    797.13338  0.018026535  0.017141818            8 
 3686000   0.66320903   -7.6810569    795.53474  0.017985502  0.017136584            9 
 3687000    0.6709016   -7.6413869    797.80487  0.018031934  0.017131345            9 
 3688000   0.67649055   -7.6581624    796.78814   0.01800407  0.017126111            7 
 3689000   0.65476724   -7.6785169    796.40319  0.017990494  0.017120869           12 
 3690000   0.67019359   -7.6524689    796.70238  0.017992375  0.017115638           11 
 3691000   0.66834808   -7.6532931    795.95547  0.017970637  0.017110398            5 
 3692000   0.66810097   -7.6552749    795.54743   0.01795656  0.017105173            7 
 3693000   0.65306862   -7.6581774    797.45648  0.017994776  0.017099953            9 
 3694000   0.65572428   -7.6620755      796.484  0.017967966  0.017094733           14 
 3695000    0.6555863   -7.6766689    796.32898  0.017959607  0.017089509           10 
 3696000   0.66472737   -7.6828689    795.83623  0.017943638  0.017084286            6 
 3697000   0.65466063   -7.6544429    795.00089  0.017919955  0.017079051            9 
 3698000   0.66736328   -7.6727516    796.49121  0.017948693  0.017073821            7 
 3699000   0.65288606    -7.655399    797.00072  0.017955319  0.017068604            6 
 3700000   0.65072621   -7.6411252    796.17631  0.017931899  0.017063388            6 
 3701000   0.65333564   -7.6555407     796.5522  0.017935517  0.017058174            8 
 3702000   0.66597147   -7.6500393    797.50819  0.017952192  0.017052971            6 
 3703000   0.66363988   -7.6549505    797.00434  0.017936006  0.017047788            4 
 3704000   0.66886424   -7.6289603    797.98574  0.017953243  0.017042603           10 
 3705000   0.64823299   -7.6606805    794.62451  0.017872796  0.017037424           14 
 3706000   0.64893553   -7.6442685     797.0677  0.017922911  0.017032238           18 
 3707000   0.66407331   -7.6492072    796.22822  0.017899205  0.017027047           17 
 3708000   0.64872646   -7.6388285    796.99545   0.01791162  0.017021845           10 
 3709000   0.65341046   -7.6448345      795.643  0.017876404  0.017016652           11 
 3710000   0.66980468   -7.6575514    798.10497  0.017926886  0.017011453            4 
 3711000   0.66762761   -7.6441887    796.38894  0.017883521  0.017006264            8 
 3712000    0.6557673   -7.6391502    796.53699  0.017882026  0.017001071           10 
 3713000    0.6536575    -7.677175    795.50065  0.017853951  0.016995875            7 
 3714000   0.66876334   -7.6306159    798.88063  0.017924983  0.016990689            7 
 3715000   0.65306577   -7.6755779    797.54471  0.017890191  0.016985512            5 
 3716000   0.67153811   -7.6523892    797.51595  0.017884732  0.016980345            5 
 3717000   0.65247193   -7.6589765    797.42261  0.017877827  0.016975173            5 
 3718000   0.66115182   -7.6276426    797.36286   0.01787168  0.016969993            4 
 3719000   0.65831285   -7.6552994    797.06397  0.017860177  0.016964821            5 
 3720000   0.65979165   -7.6546398    798.49203  0.017887366  0.016959648            4 
 3721000    0.6602708   -7.6505233    797.77023  0.017866394   0.01695447            7 
 3722000   0.66232946   -7.6561828    797.84165  0.017863193    0.0169493            5 
 3723000     0.651286   -7.6880448    797.67952  0.017854766  0.016944128           10 
 3724000   0.65098388   -7.6558714    797.39041  0.017843502  0.016938953            8 
 3725000   0.65635636   -7.6613889    795.46571  0.017795654  0.016933784           13 
 3726000   0.64840396   -7.6382514    797.67709  0.017840336  0.016928612            6 
 3727000   0.65011566   -7.6610206    797.75952  0.017837392  0.016923451           13 
 3728000   0.65143276   -7.6584708    797.30627  0.017822476  0.016918283            9 
 3729000   0.66078725   -7.6589382    797.90449  0.017831065  0.016913126            7 
 3730000   0.66433667   -7.6548315    796.73306  0.017800113  0.016907954            9 
 3731000   0.66094174   -7.6421953    798.51585  0.017835162  0.016902796           13 
 3732000   0.64753645   -7.6531399    797.06336  0.017797949  0.016897631           10 
 3733000   0.66744873   -7.6683929    797.32253  0.017798967  0.016892482            4 
 3734000   0.65285544   -7.6682446    797.43296  0.017796665  0.016887311            7 
 3735000   0.64306204   -7.6649146    797.33107  0.017789627  0.016882143            9 
 3736000   0.64436601   -7.6846535    796.07683  0.017756889  0.016876977            7 
 3737000   0.63513619   -7.6446252    796.90627  0.017770633  0.016871804            7 
 3738000   0.66362723    -7.670121    796.54018  0.017757718  0.016866637            4 
 3739000   0.65416748   -7.6644048    796.56219  0.017753459  0.016861471            9 
 3740000   0.66802936    -7.653788    796.89499  0.017756127    0.0168563            9 
 3741000   0.66299308   -7.6796462    795.27446  0.017715282  0.016851133           10 
 3742000   0.66243397   -7.6573688    795.80648  0.017722396  0.016845966            7 
 3743000   0.65942097   -7.6579099    798.69389  0.017781946  0.016840804            7 
 3744000   0.64976046   -7.6699796    794.78535  0.017690201  0.016835645           14 
 3745000   0.64320677   -7.6657324    795.41954  0.017699589  0.016830483           15 
 3746000   0.64373986   -7.6681347     796.0526  0.017708947  0.016825336           15 
 3747000   0.67102195   -7.6627469    797.68134  0.017740444  0.016820179            9 
 3748000   0.65334554   -7.6672492    796.97018  0.017719899  0.016815037            9 
 3749000   0.65463922   -7.6722773    797.68027  0.017730957   0.01680989            9 
 3750000   0.63559794   -7.6614807     796.0925  0.017690944   0.01680473           12 
 3751000   0.64587256   -7.6845826    796.43635  0.017693867  0.016799577           21 
 3752000   0.65246924   -7.6665485     797.6844  0.017716871  0.016794423            5 
 3753000   0.64212329   -7.6408849    797.04118  0.017697868  0.016789268           20 
 3754000   0.64705204   -7.6599838    797.22606  0.017697258  0.016784107            6 
 3755000   0.65128368   -7.6652443      796.541  0.017677341  0.016778957            8 
 3756000   0.66920436   -7.6525504    796.09617  0.017662766  0.016773812           10 
 3757000   0.65707323   -7.6360226     797.3667  0.017686246  0.016768675            9 
 3758000   0.64866694   -7.6328928    796.54331  0.017663281  0.016763536            5 
 3759000   0.66163021   -7.6421214    796.34255  0.017654131  0.016758383           12 
 3760000   0.65704613   -7.6516618    798.11757  0.017688776  0.016753238           10 
 3761000   0.65828889   -7.6604044    795.66307  0.017629688  0.016748091           10 
 3762000   0.64371389   -7.6516022    795.28531  0.017616634  0.016742938            7 
 3763000   0.65148504   -7.6545283     796.1009  0.017630014  0.016737785            8 
 3764000   0.64603224    -7.661387    795.73072  0.017617134  0.016732638           19 
 3765000   0.64896781   -7.6773941    797.26579  0.017646432  0.016727506            7 
 3766000   0.63585579    -7.656327    795.47602  0.017602142  0.016722355            5 
 3767000    0.6611366   -7.6651895    796.22806  0.017614106  0.016717204           12 
 3768000   0.64749052   -7.6776477    796.20705  0.017608967  0.016712045            7 
 3769000    0.6487371   -7.6803813      797.011   0.01762207  0.016706876           13 
 3770000   0.64907235    -7.689233    796.32735  0.017602284  0.016701719           11 
 3771000     0.646749    -7.645494    795.13799  0.017571334  0.016696559           12 
 3772000   0.66030947   -7.6748691     796.8524  0.017604551  0.016691415            8 
 3773000   0.67178802   -7.6574632    795.05104  0.017560099  0.016686276            7 
 3774000   0.64253333   -7.6820359    796.74808  0.017592918  0.016681144           11 
 3775000   0.65440219    -7.656248    796.63188  0.017585693  0.016676014            8 
 3776000   0.65553817   -7.6534492    797.05596  0.017590395  0.016670876           10 
 3777000   0.64604609   -7.6646234    796.45441  0.017572465  0.016665751            6 
 3778000   0.66485265   -7.6833986    796.58366  0.017570665   0.01666062           15 
 3779000   0.63012322   -7.6727116    795.76341  0.017547927  0.016655487            8 
 3780000   0.63572956   -7.6938156    795.21302  0.017531151  0.016650342           17 
 3781000   0.64635655   -7.6685964    795.29507  0.017528323  0.016645197            5 
 3782000   0.64465374   -7.6485878    796.61037   0.01755267   0.01664006            9 
 3783000   0.65256319    -7.672875    796.47516  0.017545052  0.016634913           10 
 3784000   0.64784065   -7.6955547    797.47027   0.01756233  0.016629772            9 
 3785000   0.63639922   -7.6870636    795.29791  0.017509861  0.016624622            5 
 3786000   0.65524034   -7.6854831    795.30305   0.01750535  0.016619483            9 
 3787000   0.63615478   -7.6674303    795.58824  0.017507003  0.016614337            5 
 3788000   0.64607498    -7.686879    795.92797  0.017509855  0.016609203            4 
 3789000   0.65402165   -7.6852439    796.02932  0.017507463  0.016604085            6 
 3790000   0.65218309   -7.6891476    796.59889  0.017515367  0.016598966           12 
 3791000   0.63463329   -7.6871118    796.18404  0.017501627  0.016593835            5 
 3792000   0.65000513   -7.6901259    796.09756  0.017495112  0.016588712           24 
 3793000   0.64584022   -7.6932723    795.51785  0.017477763  0.016583586            7 
 3794000   0.64893308    -7.666925    796.66111  0.017498267  0.016578464            4 
 3795000   0.65474661   -7.6893638     795.5144  0.017468476  0.016573336            6 
 3796000   0.62681955   -7.6669795    795.68746  0.017467673  0.016568214           14 
 3797000   0.65071178   -7.6858369    796.29915  0.017476498  0.016563095            4 
 3798000   0.63111292   -7.6742273    796.70731  0.017480852  0.016557975            5 
 3799000   0.63291736   -7.6830675    795.92772   0.01745915  0.016552848           11 
 3800000    0.6560311   -7.6983531    794.84488  0.017430809   0.01654772           11 
 3801000   0.64814731   -7.6939376    794.33863  0.017415124  0.016542587            8 
 3802000   0.63767865    -7.691311     796.4445  0.017456701  0.016537452           16 
 3803000   0.65287554   -7.7008328    796.80683   0.01746005  0.016532331            7 
 3804000   0.65280053     -7.71561    797.15173  0.017463016  0.016527202            7 
 3805000   0.63952036   -7.6844145     795.4555  0.017421277  0.016522078            8 
 3806000     0.644217    -7.688099    795.00737  0.017406888  0.016516961           10 
 3807000    0.6370527   -7.6757863    796.22095   0.01742888  0.016511831            9 
 3808000   0.63454467   -7.7098566    795.51131  0.017408773  0.016506703           10 
 3809000   0.63390418   -7.7146906    795.84072   0.01741141  0.016501575           34 
 3810000   0.64683244   -7.7081405    797.00722  0.017432354   0.01649644           19 
 3811000   0.64038025   -7.7137212     795.4868  0.017394533  0.016491316           11 
 3812000   0.63884708   -7.7017954    796.15211  0.017404514  0.016486182           10 
 3813000   0.63857917   -7.7183671    795.93219  0.017395144  0.016481055            8 
 3814000   0.65030426    -7.702666     796.2507  0.017397542  0.016475938            9 
 3815000   0.63477107   -7.6894049    796.29104  0.017393863  0.016470811           28 
 3816000   0.64296567   -7.7125739    795.08361  0.017362937    0.0164657           14 
 3817000   0.64901246   -7.6800447    796.10085  0.017380597  0.016460596           11 
 3818000   0.63530728   -7.7230875    795.74306  0.017368235  0.016455503           16 
 3819000   0.64415267   -7.6952901      797.294   0.01739753  0.016450402           12 
 3820000   0.64043958   -7.7140011    795.64679  0.017357042  0.016445308           10 
 3821000   0.62032677   -7.6973937    795.32694  0.017345524  0.016440209           12 
 3822000   0.64533662   -7.6959389     795.6484  0.017347994  0.016435119           13 
 3823000   0.63811554   -7.6903573    797.65879  0.017387279  0.016430043            9 
 3824000   0.64746016   -7.7129604    797.19532  0.017372632  0.016424963            5 
 3825000   0.64854245   -7.6896438    796.08063  0.017343805  0.016419879            8 
 3826000     0.640896   -7.7105319    797.97043  0.017380433    0.0164148           11 
 3827000   0.64057239   -7.6877502    797.69797  0.017369958  0.016409724            8 
 3828000   0.64268621   -7.7208174    796.55458   0.01734053  0.016404639           19 
 3829000   0.63969863    -7.691358    797.87787  0.017364801  0.016399561           17 
 3830000   0.62802716   -7.6872529    797.17148  0.017344897   0.01639448           15 
 3831000   0.63917598   -7.7101075    795.59389  0.017306053  0.016389403           12 
 3832000   0.65242656   -7.6870936    795.48156  0.017299094  0.016384327           24 
 3833000   0.63720388   -7.7120202    796.50772  0.017316891  0.016379252           20 
 3834000   0.63458581   -7.7153565    796.29248  0.017307696  0.016374166           29 
 3835000   0.64606573   -7.7128402    795.68892  0.017290068  0.016369103           24 
 3836000   0.64484407   -7.6853815    795.92385  0.017290664  0.016364039           34 
 3837000   0.63742468   -7.6849567    797.52658  0.017320966  0.016358964           15 
 3838000     0.622932   -7.6900845    796.67596  0.017297984  0.016353905           17 
 3839000   0.63837863   -7.6944466    796.56127  0.017290989  0.016348839           30 
 3840000   0.62997412   -7.6982434    796.52151  0.017285623  0.016343772           14 
 3841000   0.63979197   -7.7069092    795.44917  0.017257858  0.016338696           22 
 3842000   0.63279927   -7.7158355    794.71347  0.017237408  0.016333607           15 
 3843000   0.63879361    -7.708394    793.48898   0.01720637  0.016328523           13 
 3844000   0.64535813   -7.7164782     795.6649  0.017249066  0.016323437           17 
 3845000   0.65535999   -7.7043837    796.83026  0.017269837  0.016318359           13 
 3846000   0.63233815   -7.7093377    796.34581  0.017254849  0.016313293           15 
 3847000   0.63405575   -7.6831919    796.97746  0.017264047  0.016308217           11 
 3848000   0.63566486   -7.7272048    795.26797  0.017222539  0.016303155           21 
 3849000   0.63795536   -7.7007805    796.15418  0.017237252  0.016298095           11 
 3850000   0.64618807   -7.7076866    795.32377    0.0172148  0.016293024           25 
 3851000   0.63725005   -7.7148726    793.97569  0.017181158  0.016287956            8 
 3852000   0.63165311   -7.7307339     796.2404  0.017225692  0.016282867           10 
 3853000   0.64156883   -7.7237067    795.60217  0.017207418  0.016277799            7 
 3854000   0.63537441   -7.7272569    794.18541  0.017172319  0.016272729           17 
 3855000    0.6327037   -7.7254309    794.68501  0.017178664  0.016267656            9 
 3856000   0.62740753   -7.7207737    795.02946  0.017181653  0.016262589           10 
 3857000   0.63033649    -7.728071    796.38091  0.017206398  0.016257516            8 
 3858000   0.63376931   -7.7038653    795.15502  0.017175458  0.016252452            4 
 3859000   0.63977303   -7.7145884    795.05755  0.017168903  0.016247384            6 
 3860000   0.63415732   -7.7166686    795.26498  0.017168933  0.016242319            5 
 3861000   0.63396739   -7.7240806    794.28753   0.01714339  0.016237254            7 
 3862000   0.62827344   -7.7191943    797.35371  0.017205112  0.016232186            5 
 3863000   0.63600229   -7.6981404      795.377  0.017158016  0.016227137            6 
 3864000   0.64757279   -7.6907932    795.71963  0.017160965  0.016222091            7 
 3865000   0.64241154   -7.7309243    797.53194    0.0171956  0.016217044            6 
 3866000   0.62019363   -7.7044914    797.16673   0.01718328  0.016212003            5 
 3867000   0.63007296   -7.7132388    794.64542  0.017124503  0.016206954            7 
 3868000   0.63465696   -7.6635538    794.91539  0.017125892  0.016201918            7 
 3869000   0.62966263   -7.7013982    796.27625  0.017150776  0.016196882           11 
 3870000   0.63046839   -7.6954723    795.17892  0.017122716  0.016191831           11 
 3871000   0.62488457   -7.7231684    794.62313  0.017106328  0.016186774            7 
 3872000   0.62528997   -7.7181974    795.92963  0.017130028  0.016181727            6 
 3873000   0.62220439   -7.7173124     794.5855  0.017096684  0.016176685            7 
 3874000   0.62456734   -7.7308173      796.253  0.017128141  0.016171647           12 
 3875000   0.62020675   -7.7080872    795.94253  0.017117044  0.016166606            6 
 3876000   0.64135413   -7.7017488      796.429  0.017123087  0.016161578           20 
 3877000   0.62224762   -7.7166591    794.74367  0.017082445  0.016156554            7 
 3878000   0.63031417   -7.7119395    795.90489  0.017102993  0.016151516            9 
 3879000    0.6205964   -7.7319689     796.7739  0.017117253  0.016146494            5 
 3880000   0.62314608   -7.7128779    794.95628  0.017073803  0.016141468            6 
 3881000   0.63710355   -7.7041183    796.63007  0.017105344   0.01613643            5 
 3882000   0.63236279   -7.7345885     794.4456  0.017054044   0.01613139            6 
 3883000   0.64938931   -7.7055639    794.51934  0.017051235  0.016126367           12 
 3884000   0.63305801   -7.6983196    795.95817  0.017077716  0.016121346           10 
 3885000   0.62770111   -7.7095265    795.56605  0.017064909  0.016116337            9 
 3886000   0.62759438   -7.7084729    795.83353  0.017066254  0.016111323            7 
 3887000   0.63552736   -7.7177305    794.89731  0.017041791  0.016106292            9 
 3888000   0.64816859   -7.7167152    795.05272  0.017040739  0.016101262            6 
 3889000   0.63019043   -7.6954076    796.17091  0.017060318  0.016096234            8 
 3890000   0.61973345   -7.7115312    794.64895  0.017023328  0.016091213           12 
 3891000    0.6109579   -7.7029426    795.43127  0.017035708  0.016086192           11 
 3892000   0.62507508    -7.719523    795.35297  0.017029654  0.016081175           15 
 3893000   0.63003701   -7.6977642    795.10888  0.017020055  0.016076163            6 
 3894000   0.61911128   -7.7202603    796.33776  0.017041982  0.016071156           12 
 3895000   0.62211005   -7.7147866     796.6593  0.017044487  0.016066152           12 
 3896000   0.61569328   -7.6957208    796.26675  0.017031715  0.016061156            4 
 3897000   0.62371638   -7.7085624    796.29546  0.017027959  0.016056146            6 
 3898000   0.63616754   -7.7231436    795.79161  0.017012819   0.01605114           10 
 3899000    0.6273753   -7.7175023    796.19367  0.017017049   0.01604613           12 
 3900000   0.63643236   -7.7129726    795.31243  0.016993855  0.016041118            6 
 3901000   0.62939765   -7.6924453    794.92277  0.016981175  0.016036109           16 
 3902000    0.6269497   -7.6987201    796.20444  0.017004195  0.016031103           17 
 3903000   0.63285239   -7.7005829    794.42581  0.016961863  0.016026106            9 
 3904000   0.63209527   -7.7136526    795.63696  0.016983371  0.016021112            5 
 3905000   0.61983905   -7.6978891    797.18808  0.017012123  0.016016119           17 
 3906000   0.59801111   -7.7360429     796.7524  0.016998472  0.016011124           13 
 3907000   0.63543801   -7.7251721      796.509   0.01698893  0.016006128           19 
 3908000   0.60731581   -7.7328717    796.10766  0.016976025  0.016001132           22 
 3909000   0.62039658   -7.7431448    795.99216   0.01696922  0.015996124           18 
 3910000   0.62818822   -7.7276562    794.22757  0.016927271  0.015991119            8 
 3911000   0.62536454   -7.7359824     794.7115  0.016933255   0.01598612            5 
 3912000   0.61377217   -7.7063982     795.9739  0.016955817  0.015981126            4 
 3913000   0.62905921   -7.7090659    796.56002  0.016963967  0.015976133            7 
 3914000   0.63406963    -7.711291    795.12873  0.016929159  0.015971145            7 
 3915000   0.61474773   -7.7145795    795.92025  0.016941683  0.015966161            6 
 3916000   0.63501936   -7.7457913    794.98467  0.016917447   0.01596118           11 
 3917000   0.63266584   -7.7284035    795.55252  0.016925209  0.015956187            8 
 3918000   0.63059968   -7.7105453    795.15149  0.016912359  0.015951196            5 
 3919000   0.61353292   -7.7388705    794.34256  0.016890843  0.015946206            6 
 3920000   0.61687837   -7.7244414    795.36477  0.016908265  0.015941223           18 
 3921000   0.63260046   -7.7255218     794.9686  0.016895533  0.015936228            5 
 3922000   0.62101415   -7.7219672    795.86977  0.016910372  0.015931247            7 
 3923000   0.63008951   -7.7191376    796.98332  0.016929716  0.015926265            6 
 3924000   0.63061132   -7.7227767    796.40572  0.016913135  0.015921286           10 
 3925000   0.61046052   -7.7213275    795.35079  0.016886429  0.015916305            6 
 3926000   0.63024667   -7.7159652    796.49212  0.016906353  0.015911346           11 
 3927000   0.63396313   -7.7202967    796.82615  0.016909137  0.015906384            7 
 3928000   0.63077985    -7.708729    795.93506  0.016885927  0.015901419            7 
 3929000   0.62049472    -7.726259    796.56156  0.016894917  0.015896452            4 
 3930000   0.62952202   -7.7107064    794.68392  0.016850804  0.015891481            6 
 3931000   0.60510898   -7.7490267    795.01711  0.016853581  0.015886507            6 
 3932000   0.63144088   -7.7237723    795.63026  0.016862289  0.015881538            7 
 3933000   0.61894546   -7.7155837    796.49309  0.016876284  0.015876576            8 
 3934000   0.62829995   -7.7160153    794.91638  0.016838595   0.01587161            5 
 3935000   0.61207458   -7.7189104    797.34471  0.016885742  0.015866659            7 
 3936000   0.61752371   -7.7336697    795.39454  0.016840162  0.015861706            6 
 3937000   0.62647951   -7.7367684    794.47765  0.016816477   0.01585674            4 
 3938000   0.61698318   -7.7349298    794.53232  0.016813364  0.015851775            6 
 3939000   0.62322177   -7.7746923    793.98221  0.016797457  0.015846807           11 
 3940000   0.62457558   -7.7257273    796.18125  0.016839705   0.01584185           12 
 3941000    0.6195279   -7.7217222    796.21855  0.016836221  0.015836903           12 
 3942000   0.62195338   -7.7310141    795.56425  0.016818118  0.015831939           20 
 3943000   0.61569488   -7.7367284    795.78073  0.016818428  0.015826981           12 
 3944000   0.61477285   -7.7402106    794.44619  0.016785966  0.015822022           16 
 3945000   0.61425962   -7.7217306    795.00793  0.016793577  0.015817059           17 
 3946000   0.61255965    -7.728996    796.81613  0.016827507    0.0158121            7 
 3947000   0.62015857   -7.7413071    796.63261  0.016819369  0.015807137           14 
 3948000   0.61084261   -7.7525838    795.45054  0.016790158  0.015802185            7 
 3949000   0.62388248   -7.7470354    795.32469  0.016783251  0.015797225           13 
 3950000    0.6174732     -7.75659    795.32795  0.016779071   0.01579226           11 
 3951000   0.62782481    -7.759085    795.19206  0.016771958  0.015787304           29 
 3952000   0.61411448   -7.7052382    794.58784  0.016754973  0.015782357           14 
 3953000   0.61413231   -7.7505732    794.83244  0.016755891   0.01577741           14 
 3954000   0.63297968   -7.7557169    794.09241  0.016736056  0.015772457           19 
 3955000    0.6266871   -7.7418498    794.49074  0.016740218  0.015767501           16 
 3956000   0.61603919    -7.763997    795.08304  0.016748463  0.015762556           19 
 3957000   0.59948033   -7.7406151    795.29388  0.016748671  0.015757598            7 
 3958000   0.60464969   -7.7424362    794.95397  0.016737282  0.015752658            6 
 3959000   0.60548905   -7.7213799    796.18047  0.016758872  0.015747716           17 
 3960000   0.60696211   -7.7271027    794.88127  0.016727299  0.015742782            9 
 3961000   0.61598238    -7.730665     794.4556  0.016714121  0.015737843            9 
 3962000   0.62016754   -7.7485974     795.4045  0.016729861  0.015732898            6 
 3963000   0.62268631   -7.7469636    795.97744  0.016737687  0.015727957            5 
 3964000   0.61976615   -7.7505967    794.51621  0.016702746  0.015723014           14 
 3965000   0.61493014   -7.7348248    795.50563  0.016719328  0.015718067            5 
 3966000     0.634631   -7.7540836     795.5838  0.016716755  0.015713124            6 
 3967000   0.61793436    -7.770795    796.83874  0.016738903  0.015708191           31 
 3968000   0.61699064   -7.7515914    794.79059  0.016691671  0.015703247           22 
 3969000   0.61270729   -7.7392901    795.28267  0.016697797  0.015698319            5 
 3970000   0.61921545    -7.741377    795.13539  0.016690499  0.015693394           14 
 3971000   0.61217282   -7.7425124    794.36934   0.01667022  0.015688468            5 
 3972000   0.61613952   -7.7596748    795.11627  0.016681694  0.015683547           14 
 3973000   0.62061471   -7.7442889    794.78193  0.016670483  0.015678627           10 
 3974000   0.62224803   -7.7489408    795.44852  0.016680266  0.015673714            5 
 3975000   0.60755685   -7.7495122    796.50258  0.016698167  0.015668799            9 
 3976000   0.61106833   -7.7531766    796.22273  0.016688102  0.015663881           10 
 3977000   0.62822057   -7.7310366    794.52998  0.016648437  0.015658972           12 
 3978000   0.62049846   -7.7500283     794.1442   0.01663617  0.015654066           16 
 3979000   0.61163416   -7.7522755    795.44865  0.016659308  0.015649157           15 
 3980000   0.61400298   -7.7455241    795.23234  0.016650593  0.015644246           10 
 3981000   0.60751817   -7.7631778    796.17286  0.016666099  0.015639334           25 
 3982000   0.62874217   -7.7384356     794.8859   0.01663498  0.015634424           21 
 3983000   0.61723381   -7.7673541    793.98476   0.01661195  0.015629508           19 
 3984000   0.60879338   -7.7515065    795.45708  0.016638577  0.015624596           11 
 3985000   0.62202722    -7.743434    795.77994  0.016641153  0.015619683            9 
 3986000   0.60950462   -7.7638729    795.61023   0.01663343  0.015614765            6 
 3987000    0.6160242   -7.7561518    796.49071  0.016647661  0.015609853           13 
 3988000   0.60659132   -7.7713335    794.32537   0.01659824  0.015604955            5 
 3989000   0.62264561   -7.7416957    794.23408  0.016592172  0.015600046            8 
 3990000   0.60329565   -7.7582644     794.1265  0.016585767  0.015595148            9 
 3991000   0.61787074   -7.7554633    794.24936  0.016584176  0.015590256           10 
 3992000   0.61827476   -7.7744389    796.18466  0.016620421  0.015585366           15 
 3993000   0.61352685   -7.7767467    795.41291  0.016600152  0.015580472           15 
 3994000   0.61114495   -7.7581267    796.27464  0.016613976  0.015575573           13 
 3995000   0.61059215   -7.7630644    793.46783  0.016551269  0.015570674           10 
 3996000   0.60713924   -7.7462291    794.32717  0.016565048  0.015565764           10 
 3997000   0.62188302   -7.7532328    795.36908  0.016582626  0.015560866           10 
 3998000    0.6005929   -7.7670517     794.5839  0.016562112   0.01555597           13 
 3999000   0.61762077    -7.775997    795.12425  0.016569231  0.015551064            9 
 4000000     0.611311    -7.770227    795.16625  0.016565964  0.015546163            9 
 4001000   0.60601402   -7.7496676    795.21498  0.016562838  0.015541258            9 
 4002000     0.601316   -7.7619204     794.8074  0.016550212  0.015536363           14 
 4003000   0.61876585   -7.7840147    796.30509  0.016577256  0.015531469            6 
 4004000   0.62324375   -7.7547331    794.19679  0.016529237   0.01552658           13 
 4005000   0.61088558   -7.7432974    793.96526  0.016520293  0.015521692            5 
 4006000   0.59857862   -7.7510331    794.48522  0.016526985  0.015516801            8 
 4007000   0.61222917    -7.784173    793.56967   0.01650382  0.015511903           17 
 4008000    0.6196732   -7.7521232    795.19931  0.016533585  0.015507022           24 
 4009000   0.61393101   -7.7579552    793.49837  0.016494104  0.015502152           14 
 4010000   0.62100118   -7.7499744    794.34648  0.016507616  0.015497277           15 
 4011000   0.60362777   -7.7602949    794.72968  0.016511462  0.015492402           14 
 4012000   0.61514649   -7.7671836    795.24929  0.016518139   0.01548753           15 
 4013000   0.61085233   -7.7685522    793.73697  0.016482618  0.015482641           18 
 4014000   0.60392597     -7.77364    795.32836   0.01651155  0.015477767           22 
 4015000   0.60574562   -7.7484683     794.6945  0.016494282  0.015472894           15 
 4016000   0.60672945   -7.7473805    794.82057  0.016492791  0.015468018           12 
 4017000   0.60739917   -7.7457793    795.75844  0.016508141  0.015463157           17 
 4018000   0.60698273    -7.767906    794.33297  0.016474468  0.015458291           10 
 4019000    0.6035865   -7.7539033    795.42302  0.016492971  0.015453434            6 
 4020000    0.6143697    -7.760914    794.62119  0.016472247  0.015448572           11 
 4021000   0.60568508   -7.7646994    794.62392  0.016468207  0.015443718            8 
 4022000   0.60948351    -7.748961    795.51592  0.016482594  0.015438869           10 
 4023000    0.6037779   -7.7834211    793.88086  0.016444628  0.015434016           10 
 4024000   0.61302366   -7.7737457    794.05879  0.016444226  0.015429161            7 
 4025000   0.61444511   -7.7593152    795.17035  0.016463154  0.015424305            9 
 4026000   0.60379434   -7.7570084     794.9895  0.016455322  0.015419443            9 
 4027000   0.61506156   -7.7593752    793.53095  0.016421053  0.015414587            8 
 4028000   0.60945377   -7.7913879    794.37374  0.016434412  0.015409737            9 
 4029000   0.60218431   -7.7686004    794.59593  0.016434929  0.015404888            9 
 4030000   0.60357695   -7.7884802    795.55786  0.016450742  0.015400044            9 
 4031000   0.61975878   -7.7453653    794.72189  0.016429378  0.015395203            8 
 4032000   0.61473272   -7.7562021    793.68849  0.016403945  0.015390363            9 
 4033000   0.60055245   -7.7696804    794.09211  0.016408218  0.015385515           17 
 4034000   0.59273051     -7.76083    793.97675  0.016401767  0.015380675           10 
 4035000   0.61432782   -7.7775086     796.2665  0.016444992  0.015375844           12 
 4036000   0.60490252    -7.763165    796.16583  0.016438839  0.015371011           11 
 4037000   0.60134572   -7.7607906    794.50483  0.016400479   0.01536618            9 
 4038000   0.60770939   -7.7848552    794.65892  0.016399598  0.015361357           14 
 4039000   0.61212661   -7.7452572    795.17432  0.016406171   0.01535654           14 
 4040000   0.60752875   -7.7583622    794.65575  0.016391414  0.015351717           10 
 4041000   0.60993047   -7.7749825    795.61513  0.016407142  0.015346898           11 
 4042000   0.62343808   -7.7698293    795.45671  0.016399817  0.015342078           23 
 4043000   0.60521448   -7.7438401    795.75731  0.016401956  0.015337263           16 
 4044000   0.59129839    -7.760325     794.7006  0.016376125  0.015332447           26 
 4045000    0.5929162   -7.7662457    793.96073  0.016356834  0.015327633           19 
 4046000   0.60029769   -7.7667009    794.88256  0.016371778  0.015322825           16 
 4047000   0.60347938   -7.7629167    795.42825  0.016378969  0.015318021           11 
 4048000   0.60585643   -7.7560193    796.96244  0.016406506  0.015313214           18 
 4049000   0.60601409   -7.7682814    794.29712  0.016347599  0.015308411            9 
 4050000   0.59798457   -7.7725119    795.66142  0.016371634  0.015303588           14 
 4051000   0.61582787   -7.7538253    793.92842  0.016331943  0.015298786           14 
 4052000   0.60545693   -7.7659956    795.14114  0.016352853   0.01529398           19 
 4053000   0.60247514   -7.7489297    794.46766  0.016334971  0.015289171           13 
 4054000   0.61905548   -7.7587751    796.44717  0.016371632  0.015284372           14 
 4055000   0.61286235   -7.7473769    794.79032  0.016333545  0.015279566           10 
 4056000   0.61278954   -7.7796029    795.54714  0.016345068  0.015274772           12 
 4057000    0.6035709   -7.7609318    793.55083  0.016300034  0.015269977           16 
 4058000   0.59694351   -7.7786796    794.89565  0.016323633  0.015265179           19 
 4059000   0.60140421   -7.7836938    795.54554  0.016332954  0.015260378           15 
 4060000   0.59980412   -7.7864379    794.59563  0.016309434  0.015255579            8 
 4061000   0.60872083   -7.7895589    795.25868  0.016319024  0.015250779           10 
 4062000   0.61042184   -7.7578948    793.72779    0.0162836  0.015245979           15 
 4063000   0.59888997   -7.7645654    795.29103  0.016311655  0.015241178           10 
 4064000   0.60975775   -7.7924005    794.62867  0.016294059  0.015236377           14 
 4065000   0.60407534   -7.7926558    794.65812  0.016290654  0.015231566            6 
 4066000   0.59365284   -7.7679023    795.65799   0.01630714  0.015226766            9 
 4067000   0.60736926   -7.7515547    794.01277   0.01626942  0.015221972           15 
 4068000   0.59434184   -7.7963512    794.34603  0.016272248  0.015217174            6 
 4069000   0.60426278   -7.7745176    795.04271  0.016282516  0.015212377           19 
 4070000   0.61859264   -7.7811993    795.80045   0.01629403  0.015207579           17 
 4071000   0.60124162   -7.7799177     793.9472  0.016252092  0.015202784           11 
 4072000   0.60173004   -7.7847963    793.85589  0.016246232  0.015197985           23 
 4073000   0.61440734   -7.7953246    794.27766  0.016250873  0.015193188           18 
 4074000   0.59136253   -7.7921713    793.55269  0.016232055  0.015188393            9 
 4075000   0.59191411   -7.8110002    793.46926  0.016226365  0.015183597           19 
 4076000   0.60685363   -7.7966268    793.68515  0.016226798  0.015178801           15 
 4077000   0.60956857   -7.7722651    794.51511  0.016239782  0.015174009           15 
 4078000   0.60080014   -7.7699035    793.59435  0.016216984  0.015169221           14 
 4079000   0.60973919   -7.7944867    793.91728  0.016219606  0.015164424            8 
 4080000   0.59474073   -7.7836639    793.72752  0.016211755   0.01515963           10 
 4081000   0.60272264   -7.8029463    794.77056  0.016229081  0.015154834           18 
 4082000   0.59950912   -7.7939411    794.12066  0.016211838  0.015150048           17 
 4083000   0.59541178   -7.8099813    793.43524  0.016193878  0.015145258            8 
 4084000    0.5956495   -7.8059826    795.34141  0.016228808  0.015140462           43 
 4085000   0.59305671   -7.8010351    796.22629  0.016242886  0.015135672           18 
 4086000   0.60639688   -7.8098337    793.70997  0.016187591  0.015130879            9 
 4087000    0.5914306   -7.8046934    794.70979  0.016204017  0.015126089           14 
 4088000   0.59529776   -7.8089664    794.16798  0.016189008  0.015121295           35 
 4089000   0.59562333   -7.8136059    792.39641  0.016148945  0.015116498           39 
 4090000    0.6106447   -7.8190687    793.02771  0.016157859  0.015111703           30 
 4091000   0.60203121   -7.8043329    794.05153  0.016174764  0.015106915           21 
 4092000   0.60587325   -7.8058672    794.11046  0.016172012  0.015102129           23 
 4093000   0.60444008   -7.8088777    793.65139  0.016158714  0.015097352           16 
 4094000   0.58899591   -7.8163845    792.10185  0.016123226  0.015092569           13 
 4095000   0.60775854   -7.7819006    793.43216  0.016146361  0.015087783           10 
 4096000   0.60816208   -7.8060864    793.51767  0.016144158  0.015083013           18 
 4097000   0.58769324   -7.7910298    793.18977  0.016133548  0.015078248           17 
 4098000   0.59517836   -7.7980257    793.12702  0.016128335  0.015073485           28 
 4099000   0.60341761   -7.7898125    794.28122  0.016147866  0.015068719           25 
 4100000   0.60326603    -7.805095    793.64074  0.016130909  0.015063957           17 
 4101000   0.59288521   -7.7919526    794.84111  0.016151368  0.015059198           15 
 4102000   0.58984959   -7.7939098    793.71966  0.016124648  0.015054437           11 
 4103000   0.59201182   -7.7956046    794.20051  0.016130484  0.015049675           13 
 4104000   0.60352195   -7.8101524    793.47235  0.016111768  0.015044922           12 
 4105000   0.61044273   -7.8040667    794.44484  0.016127585  0.015040168           17 
 4106000   0.58100236   -7.7934018    792.59063  0.016086025  0.015035407           27 
 4107000    0.6022838   -7.8030836    794.53271  0.016121514   0.01503065           33 
 4108000   0.58420339   -7.7632989    794.35615  0.016114008  0.015025891           15 
 4109000   0.59681692   -7.7867652      793.157  0.016085767  0.015021138           30 
 4110000   0.59819479   -7.7923409    793.97511  0.016098441  0.015016387           17 
 4111000   0.60545445   -7.8074854    792.21857  0.016058919  0.015011637            7 
 4112000   0.59006158   -7.7895496    793.52609  0.016081511  0.015006878           23 
 4113000   0.59636643   -7.7838759    794.80861  0.016103586  0.015002122           23 
 4114000   0.60095927   -7.7964173    792.88182  0.016060643  0.014997379           17 
 4115000   0.60086208    -7.801171     791.9977  0.016038836  0.014992624           25 
 4116000   0.58763529   -7.7858249    794.15312  0.016078578  0.014987875           27 
 4117000    0.5919717   -7.8135969    793.82941   0.01606812  0.014983133           12 
 4118000   0.59551327   -7.7931647    794.81113  0.016084085  0.014978389           37 
 4119000    0.5732663   -7.8045144    793.85744  0.016060885  0.014973649           10 
 4120000   0.59735477   -7.8075752    794.16567  0.016063222  0.014968903           14 
 4121000   0.58900325   -7.7943462    794.85016  0.016073165  0.014964157           29 
 4122000   0.59104303   -7.7875956     793.3921  0.016039789  0.014959416           23 
 4123000   0.58988855   -7.8141739    793.08776  0.016029747  0.014954669           29 
 4124000   0.59066818   -7.8207763    793.06558  0.016025412   0.01494993           24 
 4125000   0.60460831   -7.8113942     792.3782   0.01600764  0.014945191           20 
 4126000   0.59199921   -7.7948558    793.44193  0.016025245  0.014940444           13 
 4127000    0.5946725    -7.809295    793.66476  0.016025861  0.014935696           23 
 4128000   0.60298222   -7.8186008    792.34961   0.01599543  0.014930955           18 
 4129000   0.58233976   -7.8061389    793.90011  0.016022849  0.014926223           17 
 4130000   0.60590592   -7.8198553    793.17738  0.016004386  0.014921484           14 
 4131000   0.60023822    -7.822138    792.48989  0.015986643  0.014916745           16 
 4132000   0.59262105   -7.8180611    792.95784  0.015992212  0.014911998           11 
 4133000   0.59656152   -7.7956087    793.78472  0.016005015  0.014907252           11 
 4134000   0.61134748   -7.8102953    793.69087  0.015999251   0.01490252           22 
 4135000   0.58891244   -7.7967834    792.60815  0.015973562  0.014897796           19 
 4136000    0.5956828   -7.8156852    793.52607  0.015988194  0.014893065           18 
 4137000   0.59416283    -7.822412     793.5044  0.015983893  0.014888339           14 
 4138000   0.57504434   -7.8260792    792.71523  0.015964138  0.014883613           14 
 4139000   0.58022417   -7.8083992    793.30638  0.015972183  0.014878886           18 
 4140000   0.59451064   -7.8397326     793.9054  0.015980382  0.014874168           15 
 4141000   0.59316216   -7.8176724    793.39868  0.015966326  0.014869452           17 
 4142000   0.58121801   -7.8226788    791.94472  0.015933219  0.014864726           20 
 4143000   0.58427439   -7.8304838    793.01625  0.015950926  0.014860004           26 
 4144000   0.59322708      -7.8433    792.80211  0.015942771  0.014855283           11 
 4145000   0.58382015   -7.8219196    792.23485   0.01592752  0.014850564           18 
 4146000      0.59156   -7.8030476     793.1917  0.015942911  0.014845848           19 
 4147000   0.59439327   -7.8144135    793.73908  0.015950066  0.014841135           13 
 4148000   0.58715125   -7.8476885    792.80083  0.015927371  0.014836416           11 
 4149000   0.59573811    -7.816618    791.91855  0.015905812  0.014831704           15 
 4150000   0.58101149   -7.8288035    792.81438  0.015919967  0.014826988           17 
 4151000   0.58263634   -7.8290851    793.26689  0.015925217  0.014822278           18 
 4152000    0.5967356   -7.8095474    791.99916  0.015895937   0.01481758           15 
 4153000   0.58521453   -7.8126261    793.69179  0.015926073   0.01481287           26 
 4154000   0.57948471   -7.8110654    793.75636  0.015923535  0.014808169           10 
 4155000   0.58652442   -7.8132765    793.22266  0.015908998  0.014803468           21 
 4156000   0.58458573   -7.8008472    791.86815  0.015878011  0.014798767           13 
 4157000   0.57991391   -7.8225027    794.40439  0.015925034  0.014794072            6 
 4158000    0.5848844   -7.8214795    793.27715  0.015898612  0.014789373            8 
 4159000   0.57533813   -7.8320865    793.50369  0.015899329  0.014784675           10 
 4160000    0.5907625   -7.8217104    792.40773  0.015873552  0.014779979            6 
 4161000   0.59414129   -7.8124224    793.83631  0.015898348  0.014775288           24 
 4162000   0.58334288   -7.7979194    792.37888  0.015865347  0.014770592           19 
 4163000   0.58004614   -7.8219405    793.15822  0.015877136  0.014765899           12 
 4164000   0.60237044   -7.8175887    793.80128  0.015886193  0.014761207           10 
 4165000   0.59701146   -7.8229374    793.26338  0.015871616  0.014756518           10 
 4166000   0.58536906    -7.811618    794.02897  0.015883121  0.014751837            5 
 4167000   0.57288326   -7.8205625    793.10653  0.015860862  0.014747155            6 
 4168000   0.59182949   -7.8143958    793.62924  0.015867507  0.014742475           11 
 4169000   0.58974955    -7.828347    794.48023  0.015880711  0.014737801           11 
 4170000   0.57338151   -7.8112836    792.69954  0.015841318  0.014733131            8 
 4171000   0.58572062   -7.8015339    793.88694  0.015861243  0.014728465           10 
 4172000   0.59075825   -7.8133963    792.24018  0.015824548    0.0147238            8 
 4173000   0.57613353   -7.8272068    792.37527  0.015823454   0.01471913            6 
 4174000   0.58269935    -7.816968    793.85984  0.015849302  0.014714463           26 
 4175000   0.57674495   -7.8141763    792.13998  0.015811177  0.014709798           12 
 4176000    0.5930039    -7.807711    792.79306  0.015820423  0.014705129           20 
 4177000   0.59143044   -7.8325911    793.57518   0.01583224  0.014700468           18 
 4178000   0.59549165   -7.8303707     791.9771  0.015796575  0.014695804           13 
 4179000   0.59695305   -7.8349314     792.6868  0.015806947  0.014691137            7 
 4180000   0.59393088   -7.8184586    792.87179  0.015806854  0.014686469           10 
 4181000    0.5860511   -7.8403409    792.04927  0.015786679    0.0146818           13 
 4182000   0.59269768   -7.8237429    791.95283  0.015780983  0.014677132           10 
 4183000   0.58113261   -7.8230354    792.99747  0.015798021  0.014672468           13 
 4184000   0.58452534   -7.8237932    794.21164  0.015818428  0.014667812           20 
 4185000   0.60076181    -7.834456    792.82053  0.015786948  0.014663152           12 
 4186000   0.58461057   -7.8142713    793.42746  0.015795259  0.014658493           18 
 4187000   0.60031362   -7.8316978    791.76778  0.015758454  0.014653835           11 
 4188000   0.58410899   -7.8321357    793.31334  0.015785445  0.014649179           24 
 4189000   0.59105054   -7.8335356    794.09364    0.0157972  0.014644531           11 
 4190000   0.56925178   -7.8415712    792.75083  0.015766723  0.014639878           27 
 4191000   0.58167361   -7.8186405    793.18827  0.015771659  0.014635221           15 
 4192000   0.57926428   -7.8370928    794.27627  0.015789525  0.014630575           11 
 4193000   0.58889518   -7.8385297    793.44747  0.015769288  0.014625932           25 
 4194000   0.57867373    -7.833009    793.41689   0.01576492  0.014621285           12 
 4195000   0.58041735   -7.8132314     792.5949  0.015744833  0.014616633           26 
 4196000   0.59097823   -7.8217784    792.21487  0.015733533  0.014611995           23 
 4197000   0.57401815   -7.8352036    793.75162  0.015760297  0.014607353           12 
 4198000   0.58671375   -7.8180345    793.33197  0.015748213  0.014602715           12 
 4199000   0.58775574   -7.8396364    793.62387  0.015750255  0.014598074           17 
 4200000   0.57964562   -7.8049801    791.86828  0.015711672  0.014593435            7 
 4201000   0.58631496   -7.8184806    793.35773  0.015737478    0.0145888           11 
 4202000   0.58424392   -7.8213301    791.78479  0.015702538  0.014584162           16 
 4203000   0.56781194   -7.8283096    792.23597  0.015707748  0.014579531           12 
 4204000    0.5713296    -7.818734     793.3737  0.015726564  0.014574902           21 
 4205000    0.5902132   -7.8402613    792.29733  0.015701493  0.014570271           18 
 4206000   0.58679224   -7.8235909     791.6689  0.015685309  0.014565642           12 
 4207000   0.57680457   -7.8249013    792.16828  0.015691472  0.014561014            8 
 4208000   0.57377991   -7.8542051    792.01713   0.01568475  0.014556384           14 
 4209000   0.58457755   -7.8500288    793.55058  0.015711384  0.014551763           12 
 4210000   0.57566913   -7.8281048    793.56557  0.015707949  0.014547155           33 
 4211000   0.58967171   -7.8272848    792.64648   0.01568603  0.014542545           14 
 4212000   0.57743119    -7.833985     792.1383  0.015672252  0.014537928           11 
 4213000   0.57951779     -7.85518    791.51515  0.015656206   0.01453331           14 
 4214000   0.56873223   -7.8467507     792.6442  0.015674818  0.014528693           10 
 4215000   0.58352343   -7.8409731    793.43943  0.015686822  0.014524082           16 
 4216000   0.58187943   -7.8302848     793.2931  0.015680208  0.014519477           28 
 4217000   0.57424516   -7.8449641    792.94743  0.015669659  0.014514868           14 
 4218000     0.581068   -7.8341453    793.70693  0.015680949  0.014510259           17 
 4219000   0.57863117   -7.8444431    791.73645  0.015638312  0.014505657           17 
 4220000    0.5745377   -7.8182734    793.95906  0.015678496  0.014501062           18 
 4221000   0.57692687   -7.8494236    793.90976  0.015673809  0.014496465           15 
 4222000   0.57968649   -7.8366563    792.51676  0.015642602   0.01449187           13 
 4223000   0.57609276   -7.8478617    792.92529  0.015646959  0.014487274           17 
 4224000   0.58153972   -7.8288235    792.52112  0.015635281  0.014482683           11 
 4225000   0.56790244   -7.8400699    793.63329  0.015653517  0.014478093           20 
 4226000   0.57294434    -7.866486    792.55712  0.015628591  0.014473497           17 
 4227000   0.57984722   -7.8658244    793.79966   0.01564939  0.014468898           36 
 4228000   0.58659948   -7.8436401    792.49861  0.015620045  0.014464304           39 
 4229000   0.56263495   -7.8539704    792.51557  0.015616686  0.014459705           31 
 4230000   0.58743736   -7.8562791    792.53589  0.015613394  0.014455108           47 
 4231000   0.56014421   -7.8531249    791.63456  0.015591952  0.014450509           27 
 4232000   0.56767579   -7.8637039    791.12991   0.01557833  0.014445915           54 
 4233000   0.57207074   -7.8501636    792.18206  0.015595363  0.014441319           49 
 4234000   0.56809704   -7.8533227    791.62307  0.015580678  0.014436726           41 
 4235000   0.57156573   -7.8645345    792.50753  0.015594402  0.014432135           28 
 4236000    0.5686162   -7.8759554     791.3877  0.015568691  0.014427547           35 
 4237000    0.5780233   -7.8609227    790.89615  0.015555349  0.014422956           27 
 4238000     0.582813   -7.8620923    794.35897  0.015619769  0.014418366           43 
 4239000   0.58845934   -7.8714828    793.61751  0.015601508   0.01441378           39 
 4240000   0.57789479   -7.8610722    792.36072  0.015573127  0.014409198           20 
 4241000   0.57608931    -7.857719    791.78313  0.015558106  0.014404613           19 
 4242000   0.57540831   -7.8309811    792.76287  0.015573685  0.014400027           20 
 4243000   0.57251805   -7.8618345    792.40874   0.01556306  0.014395455           18 
 4244000   0.57391315   -7.8389044    791.93041      0.01555  0.014390874           23 
 4245000   0.58656041   -7.8687637    793.75439  0.015582143  0.014386297           27 
 4246000   0.56946163   -7.8615603     791.7498  0.015539131  0.014381719           18 
 4247000   0.57662824   -7.8587679     792.1456  0.015543238  0.014377137           15 
 4248000   0.57533509   -7.8587571    792.18551  0.015540362  0.014372563           14 
 4249000   0.57780839   -7.8714912    793.57497  0.015563956  0.014367989           25 
 4250000   0.56231782   -7.8576851    792.51433  0.015539497  0.014363411           27 
 4251000    0.5720891    -7.858273    792.55449  0.015536628  0.014358841           30 
 4252000   0.57324434   -7.8589127    792.13102  0.015524675  0.014354274           20 
 4253000   0.57039111   -7.8700346    791.51202  0.015508896  0.014349699           26 
 4254000   0.56251939   -7.8538459    791.23347  0.015499794  0.014345133           12 
 4255000   0.57132736    -7.857158    790.45485  0.015480902  0.014340567           31 
 4256000   0.57739841   -7.8645381    792.55527  0.015518391  0.014335996           38 
 4257000   0.56269286   -7.8713382    793.22401  0.015527837  0.014331432           32 
 4258000   0.56779698   -7.8624158    791.35738  0.015487658   0.01432687           28 
 4259000   0.56887466   -7.8554398    790.35976  0.015464502    0.0143223           25 
 4260000   0.56686846   -7.8871135    790.74448  0.015468397  0.014317731           20 
 4261000   0.56919916   -7.8712621    791.69534  0.015483363  0.014313168           22 
 4262000   0.57114209   -7.8689371    790.67639  0.015459807  0.014308606           32 
 4263000   0.57271803   -7.8855516    792.59713  0.015493728  0.014304056           23 
 4264000   0.56595449   -7.8642268    792.14058  0.015481171    0.0142995           17 
 4265000   0.57374078   -7.8719158    793.08354  0.015495966  0.014294955           21 
 4266000   0.57612709   -7.8686853    792.08298  0.015472788  0.014290404           22 
 4267000   0.57158857   -7.8591665    791.22228  0.015452353  0.014285859           23 
 4268000   0.55754205   -7.8477629    791.39839  0.015452171  0.014281315           31 
 4269000   0.56576685   -7.8577044    789.98136   0.01542089  0.014276769           21 
 4270000   0.56745847   -7.8585466    791.91904  0.015455094  0.014272225           23 
 4271000   0.55949181   -7.8691943    792.03302    0.0154537  0.014267684           21 
 4272000   0.57089476   -7.8523951    792.65664  0.015462247  0.014263142           17 
 4273000   0.56862038   -7.8572161    792.05533  0.015446902  0.014258603           21 
 4274000   0.56829023   -7.8463456     791.8383  0.015439056  0.014254065           30 
 4275000   0.56342545   -7.8698206    791.11303  0.015421307   0.01424953           12 
 4276000   0.56826194   -7.8556522      792.289  0.015440618  0.014244998           18 
 4277000   0.57165633   -7.8797168    793.00155  0.015450891   0.01424047           24 
 4278000   0.57451944    -7.862329    792.94169  0.015446114  0.014235939           21 
 4279000   0.56615695   -7.8645917    791.34088  0.015411328  0.014231409           22 
 4280000   0.56952079   -7.8772244    790.88476  0.015398847   0.01422688           18 
 4281000   0.56850311   -7.8631787    791.83839  0.015413813  0.014222353           22 
 4282000   0.56032214   -7.8630005    791.80336  0.015409531  0.014217828           18 
 4283000   0.56347602   -7.8671816    790.27244  0.015376147  0.014213302           13 
 4284000   0.56984067   -7.8785261    791.27674  0.015392093   0.01420878           30 
 4285000   0.56785803   -7.8759098    791.92608  0.015401129  0.014204263           20 
 4286000   0.56770625   -7.8714493    791.77526  0.015394604  0.014199748           30 
 4287000   0.55665537    -7.864562     793.3873  0.015422349  0.014195235           17 
 4288000   0.56794129   -7.8663866    791.14451  0.015375165  0.014190724           32 
 4289000   0.56604388   -7.8548452    792.26661  0.015393382   0.01418621           28 
 4290000   0.56164305   -7.8694147    793.15894  0.015407128  0.014181698           39 
 4291000   0.55663382   -7.8501661    791.76954  0.015376554  0.014177186           22 
 4292000   0.56498819   -7.8770482    791.21801  0.015362263  0.014172672           41 
 4293000   0.57084312   -7.8947412    791.63263  0.015366733  0.014168156           26 
 4294000   0.56382784   -7.8593975    791.63622  0.015363224  0.014163645           25 
 4295000   0.57337286    -7.852295    792.02619  0.015367214  0.014159141           20 
 4296000   0.55345918   -7.8754417     791.6424  0.015356192  0.014154634           17 
 4297000   0.57413552   -7.8792955    792.43728  0.015368033  0.014150124           27 
 4298000   0.56017527   -7.8740583    792.18601  0.015359586  0.014145623           18 
 4299000   0.56053332   -7.8800199     791.6196  0.015345034  0.014141127           27 
 4300000   0.54926815   -7.8934428    790.50905  0.015319943  0.014136626           11 
 4301000   0.55302872   -7.8677613    791.89605  0.015343254  0.014132128           29 
 4302000   0.56586191   -7.8521824    792.18014  0.015345191  0.014127637           21 
 4303000   0.55929299   -7.8657084    791.82317  0.015334712  0.014123145           16 
 4304000   0.56258724    -7.875539     790.9836  0.015314893  0.014118652           15 
 4305000   0.55903428   -7.8647926    793.12107  0.015352711  0.014114163           28 
 4306000    0.5813151   -7.8515589    793.09259  0.015348595  0.014109677           24 
 4307000    0.5592789   -7.8592376    793.62048  0.015355245  0.014105195           21 
 4308000   0.56504697   -7.8868109       792.08  0.015321882   0.01410071           34 
 4309000   0.56535388     -7.87516     793.1322  0.015338675  0.014096235           21 
 4310000   0.55815569   -7.9097396    791.66204  0.015306691   0.01409175           20 
 4311000     0.574858   -7.8702705    791.03909  0.015291098  0.014087273           19 
 4312000   0.56010234   -7.8720786    792.41573  0.015314157  0.014082797           23 
 4313000   0.56497341   -7.8726344    791.02318    0.0152837  0.014078324           20 
 4314000   0.56106699   -7.8809946    791.81165  0.015295388  0.014073855           24 
 4315000   0.56247988   -7.8798334    791.70473  0.015289778  0.014069385           35 
 4316000   0.56354874    -7.869668     791.8981   0.01528997  0.014064905           28 
 4317000   0.56415775   -7.8707067    791.52593  0.015279243  0.014060441           11 
 4318000   0.55187412   -7.8743909    791.87447  0.015282432  0.014055971           22 
 4319000   0.56524554   -7.8734198    793.02129   0.01530102  0.014051505           16 
 4320000   0.55144145   -7.8733019    791.46983  0.015267551  0.014047042           19 
 4321000   0.54456695   -7.8748783    790.88499  0.015252738  0.014042578           32 
 4322000   0.57856893   -7.8890597    791.81353  0.015267113  0.014038115           29 
 4323000   0.55774261   -7.8517847    791.12319  0.015250274  0.014033651           26 
 4324000   0.55814431   -7.8643443    792.06497  0.015264897  0.014029188           24 
 4325000   0.55584678   -7.8667181    792.37012  0.015267247  0.014024731           17 
 4326000   0.55196536   -7.8913436    792.51499  0.015266509   0.01402027           19 
 4327000   0.56758306   -7.8791722    791.06429  0.015235041   0.01401581           26 
 4328000    0.5622987   -7.8637721    790.57559  0.015222112   0.01401136           33 
 4329000   0.57119986   -7.8957749    791.63435  0.015238976  0.014006911           25 
 4330000   0.55436701   -7.8825763    791.13326  0.015225813  0.014002461           34 
 4331000   0.56629816   -7.8879348    792.00759  0.015239121  0.013998013           11 
 4332000   0.56478138    -7.870093    792.21242  0.015239543  0.013993571           34 
 4333000   0.55748103   -7.8848805    791.77797  0.015227671  0.013989125           31 
 4334000   0.56643759    -7.905399    791.18063  0.015212672  0.013984682           27 
 4335000   0.55117458   -7.8847282     790.5981  0.015197964  0.013980233           23 
 4336000   0.56647429   -7.8881543    791.77386  0.015217056   0.01397579           25 
 4337000   0.55977454   -7.8848421    791.48321  0.015207963  0.013971351           40 
 4338000   0.56024297   -7.8800744    791.92306  0.015212906  0.013966911           39 
 4339000   0.55138521   -7.8891592     791.8609  0.015208207  0.013962473           41 
 4340000   0.55262348   -7.8634578    792.82473  0.015223209  0.013958042           28 
 4341000   0.56498733   -7.8985507      791.148  0.015187514  0.013953615           35 
 4342000   0.57429087   -7.8928561    791.73197  0.015195224   0.01394918           40 
 4343000    0.5529285   -7.8862739    791.28257  0.015183103   0.01394475           14 
 4344000   0.54282582   -7.9030484    791.01268   0.01517443  0.013940315           30 
 4345000   0.54490846   -7.8900323    791.09264  0.015172471  0.013935884           54 
 4346000   0.55505218   -7.8871701    791.61791  0.015179052  0.013931453           31 
 4347000   0.54911327   -7.8995831      791.287  0.015169216  0.013927018           36 
 4348000   0.55593552   -7.8961165    791.10143  0.015162171  0.013922585           37 
 4349000     0.559912   -7.8968075    792.18447  0.015179437  0.013918157           38 
 4350000   0.54654292   -7.8984738    790.95282  0.015152353  0.013913728           35 
 4351000   0.54691992   -7.8847905    791.82193  0.015165516  0.013909305           45 
 4352000   0.55067196   -7.8839643    791.27995  0.015151653  0.013904886           49 
 4353000   0.55049676   -7.8814169    791.49439  0.015152278  0.013900469           39 
 4354000   0.55048099   -7.8920825    790.23814  0.015124754  0.013896054           41 
 4355000   0.56455353   -7.8870251    791.72663  0.015149763   0.01389164           34 
 4356000   0.55347442   -7.8815364     791.4522  0.015141035  0.013887225           39 
 4357000   0.54464679   -7.9117857    790.97697  0.015128471   0.01388281           34 
 4358000   0.56005772   -7.8825834    791.55417  0.015136037    0.0138784           29 
 4359000   0.56320105   -7.8807131    790.37598   0.01511004  0.013873991           34 
 4360000   0.54889442    -7.873864    790.64774  0.015111769  0.013869582           34 
 4361000   0.54967057   -7.9019294    790.37638  0.015103118  0.013865176           45 
 4362000   0.55190283   -7.8985975    790.92759  0.015110186  0.013860768           40 
 4363000   0.55334087   -7.8786645    793.03391  0.015146954  0.013856363           45 
 4364000    0.5635651   -7.8837096    791.48783   0.01511396  0.013851956           40 
 4365000   0.55887531   -7.8842421    791.61893     0.015113  0.013847555           35 
 4366000   0.54046403   -7.8884082    789.75277  0.015073919  0.013843145           27 
 4367000   0.56000008   -7.8970091    791.95776  0.015112544  0.013838744           33 
 4368000   0.55212563    -7.909863    791.87184  0.015107445  0.013834346           44 
 4369000   0.54959477    -7.907613    792.42485  0.015114535  0.013829952           36 
 4370000   0.55089798    -7.899356    791.45433  0.015092569  0.013825555           36 
 4371000   0.55229019   -7.8720627    792.57731  0.015110526  0.013821155           27 
 4372000   0.55637781   -7.8978663    790.43917  0.015066315  0.013816769           44 
 4373000   0.54482567   -7.8960927    789.81803  0.015051033  0.013812373           21 
 4374000   0.55241739   -7.8875649    790.56971  0.015061913  0.013807978           31 
 4375000   0.54812986   -7.9018106    790.94829  0.015065682  0.013803585           30 
 4376000   0.54931985   -7.8910542    790.57737  0.015055175  0.013799192           32 
 4377000   0.55736998   -7.9036375    789.53601  0.015031909  0.013794802           29 
 4378000   0.52872995   -7.9085143    791.68483  0.015069378  0.013790406           39 
 4379000   0.55591663   -7.8938391    792.24297  0.015076558  0.013786018           35 
 4380000    0.5554463   -7.8932331    791.19889  0.015053251  0.013781633           25 
 4381000   0.54879101   -7.8798553    790.63039  0.015039002  0.013777251           29 
 4382000   0.54522137    -7.903005    792.25473   0.01506646  0.013772871           37 
 4383000   0.54414463   -7.9038798    791.01461  0.015039444  0.013768491           29 
 4384000   0.55040582   -7.9093946    791.26047  0.015040687  0.013764114           42 
 4385000   0.56077551   -7.9002153    792.49186  0.015060659   0.01375974           29 
 4386000   0.56034114   -7.9133601    790.68649  0.015022923  0.013755369           33 
 4387000   0.52963445   -7.9065105    791.42784  0.015033581     0.013751           30 
 4388000   0.56280436   -7.8946787    790.03401  0.015003684  0.013746629           28 
 4389000   0.52963312   -7.8919876    790.27197  0.015004784  0.013742258           34 
 4390000   0.55604028   -7.9007966     790.0734  0.014997597   0.01373789           32 
 4391000   0.53956612   -7.8979939    790.80861  0.015008134  0.013733526           32 
 4392000   0.54846791   -7.9201001    790.81351   0.01500481  0.013729162           34 
 4393000   0.55334885   -7.8937546    791.50379  0.015014489  0.013724799           24 
 4394000    0.5483057   -7.8898556    790.94346  0.015000445  0.013720442           29 
 4395000   0.55461365   -7.8753275    790.67797  0.014991998  0.013716087           27 
 4396000   0.55984433   -7.8863891    791.57645   0.01500562  0.013711734           28 
 4397000   0.55841621   -7.8986713    790.54577  0.014982673   0.01370738           32 
 4398000   0.54920719   -7.9172042    791.11759  0.014990101  0.013703026           32 
 4399000   0.55436541   -7.9153964    790.32099  0.014971603  0.013698672           38 
 4400000   0.55049672   -7.9033062    789.18365   0.01494666  0.013694319           40 
 4401000   0.53953878   -7.9093517    789.80111  0.014954956  0.013689971           38 
 4402000   0.55265196   -7.8859948    791.00532  0.014974355  0.013685619           26 
 4403000     0.551124   -7.8965521     790.3226  0.014958032  0.013681267           31 
 4404000   0.52971074   -7.9017648    791.04474    0.0149683  0.013676922           30 
 4405000   0.54654411   -7.8940899    789.66612  0.014938822  0.013672575           43 
 4406000   0.53968777   -7.9056397    791.06083   0.01496181  0.013668231           29 
 4407000   0.54015222   -7.9214669    790.01041  0.014938553   0.01366388           46 
 4408000   0.55061979   -7.9123273     791.8535  0.014970007  0.013659533           43 
 4409000   0.56068669   -7.9263707    792.01527  0.014969669  0.013655188           32 
 4410000   0.54634968   -7.9221778    791.41774  0.014954984  0.013650843           35 
 4411000   0.54964623   -7.9035472    790.30794  0.014930627    0.0136465           36 
 4412000    0.5359432   -7.9077827    791.25698  0.014945168  0.013642165           30 
 4413000   0.56201835   -7.9160331     791.7092  0.014950321  0.013637833           26 
 4414000   0.54081681   -7.9263093    789.93077  0.014913358  0.013633497           25 
 4415000   0.55006587   -7.9310723    789.94239    0.0149102  0.013629162           18 
 4416000   0.55538665   -7.9221898    790.92463  0.014925359  0.013624825           34 
 4417000   0.56675253   -7.9185771    790.77667  0.014919188  0.013620503           25 
 4418000   0.53481785   -7.9256096     791.4092  0.014927743  0.013616176           32 
 4419000   0.52705821   -7.9118032    791.29415  0.014922195  0.013611855           26 
 4420000   0.54154576   -7.9329359    790.71271  0.014907856  0.013607535           30 
 4421000    0.5423403   -7.9134851    792.49609    0.0149381  0.013603224           23 
 4422000   0.56028295   -7.9276708    790.38744  0.014894984  0.013598909           13 
 4423000   0.55488068   -7.9133731    791.06461  0.014904375  0.013594597           23 
 4424000   0.54967178   -7.9366277    790.79851  0.014895994  0.013590286           11 
 4425000   0.54856619   -7.9266751     790.1115  0.014879689  0.013585976           15 
 4426000   0.54539929   -7.9076026    791.62934  0.014904905  0.013581665           23 
 4427000   0.54340856   -7.9334586    790.89761  0.014887765  0.013577359           11 
 4428000   0.54281821   -7.9152253    790.37416  0.014874551  0.013573051           12 
 4429000   0.53415367   -7.8950465    789.63516  0.014857288   0.01356874           12 
 4430000    0.5367141   -7.9106951    790.38591  0.014868057  0.013564432           20 
 4431000   0.54194502   -7.9046604    790.27174  0.014862554  0.013560126           26 
 4432000    0.5395867   -7.9164523    789.84836   0.01485124  0.013555821           36 
 4433000   0.55222646   -7.9067932    791.06949  0.014870845  0.013551519           27 
 4434000   0.54356452   -7.9157015    790.77096  0.014861881  0.013547218           29 
 4435000   0.54280954   -7.9209803    791.39983  0.014870346  0.013542921            6 
 4436000   0.55241361   -7.9395393    791.07346  0.014860863  0.013538617           30 
 4437000   0.54672606   -7.9201112    790.65895  0.014849729   0.01353432           15 
 4438000   0.52420103   -7.9108835    789.45092  0.014823699  0.013530018           30 
 4439000   0.54711513     -7.91265     790.3392  0.014837035  0.013525722           30 
 4440000   0.54746903   -7.9261406    789.29173  0.014814034  0.013521432           11 
 4441000    0.5414404   -7.9043373     789.1804  0.014808609  0.013517144           25 
 4442000    0.5452616     -7.92328     791.2422  0.014843955  0.013512855           20 
 4443000    0.5397166   -7.9021995    790.45752  0.014825897  0.013508564           42 
 4444000   0.53931053   -7.9276849    790.35667   0.01482067   0.01350428           29 
 4445000   0.53503638   -7.9310684    789.92217   0.01480919  0.013499996           26 
 4446000   0.52826218   -7.9318727    792.69413  0.014857815  0.013495713           26 
 4447000   0.53494316   -7.9118059    790.35238  0.014810591  0.013491431           43 
 4448000   0.53403317   -7.9126978    789.26719   0.01478693  0.013487148           14 
 4449000   0.54271916   -7.9256766    790.04534  0.014798182  0.013482866           32 
 4450000   0.53429837   -7.9289594    790.31511  0.014799908  0.013478583           25 
 4451000   0.53615632   -7.9344709     790.5186  0.014800393  0.013474308           30 
 4452000   0.54131289   -7.9191408    789.66249  0.014781044  0.013470031           34 
 4453000    0.5428616   -7.9249535    791.62329  0.014814419  0.013465752           33 
 4454000    0.5371253   -7.9320738     790.8379  0.014796398  0.013461481           29 
 4455000   0.53003133    -7.909996    790.20027   0.01478115  0.013457212           25 
 4456000   0.53843722   -7.9103526    791.06339  0.014793974  0.013452937           43 
 4457000   0.53891911   -7.9128089    791.18122  0.014792858  0.013448667           32 
 4458000   0.54331627   -7.9236011    790.39018  0.014774753  0.013444397           12 
 4459000   0.53984243   -7.9082891    791.59903  0.014794031  0.013440133           44 
 4460000   0.53098527   -7.9214264    791.08365  0.014781085  0.013435869           20 
 4461000   0.54292151   -7.9341979    790.00606  0.014757641  0.013431605           25 
 4462000    0.5290257   -7.9176751    790.21621  0.014758259  0.013427342           22 
 4463000   0.52994828   -7.9241257    789.48789  0.014741353  0.013423082           27 
 4464000   0.54195797   -7.9057104    791.01112  0.014766486  0.013418828           29 
 4465000   0.55032647   -7.9162867    791.15537  0.014765871  0.013414577           38 
 4466000    0.5445572   -7.8984044    790.19078  0.014744566  0.013410329           44 
 4467000   0.54989597   -7.9170642    789.57045  0.014729693  0.013406077           46 
 4468000   0.52592152   -7.9288246    790.99341  0.014752936  0.013401826           29 
 4469000   0.53080536   -7.9240105    792.43695  0.014776552   0.01339758           10 
 4470000   0.53360945   -7.9170268    789.88559  0.014725682   0.01339333           26 
 4471000   0.54247523      -7.9384    790.02112  0.014724915  0.013389085           15 
 4472000   0.55490898   -7.9094568    791.07024  0.014741172  0.013384844           19 
 4473000   0.53075592   -7.9189916    789.34477   0.01470573  0.013380601           19 
 4474000   0.54114551    -7.942768    790.17114  0.014717835  0.013376355           20 
 4475000   0.55093391   -7.9094427    789.62548  0.014704385  0.013372116           29 
 4476000   0.53511803   -7.9267872    790.82686  0.014723467  0.013367879           28 
 4477000   0.53249918   -7.9071155    789.87881  0.014702532  0.013363637           29 
 4478000   0.52699894   -7.9370245    790.80842  0.014716548  0.013359403           46 
 4479000   0.53911161   -7.9329934    790.63152  0.014709971  0.013355161           28 
 4480000   0.53301587   -7.9323888    789.54709  0.014686516  0.013350924           35 
 4481000   0.53487769   -7.9332209    790.29015  0.014697057  0.013346692           18 
 4482000    0.5293008   -7.9196174    789.74917   0.01468372  0.013342464           20 
 4483000   0.53747467   -7.9320089    789.72862  0.014680062  0.013338235           16 
 4484000   0.53716361   -7.9052011     790.4933  0.014690999  0.013334006           32 
 4485000   0.53722723   -7.9393991    789.75194  0.014673949  0.013329783           25 
 4486000   0.53800914   -7.9452541    790.07659  0.014676709  0.013325556           31 
 4487000   0.53019047   -7.9267558    789.48822  0.014662511  0.013321333           25 
 4488000    0.5295307    -7.931484    789.88221  0.014666559  0.013317112           31 
 4489000   0.52943356   -7.9289463    790.07072  0.014666791   0.01331289           21 
 4490000   0.53152766   -7.9209657    789.83485  0.014659147  0.013308668           21 
 4491000   0.53513371   -7.9271488    791.05131  0.014678455  0.013304454           31 
 4492000   0.53650841   -7.9334689    790.24316  0.014660195  0.013300236           25 
 4493000   0.54018479    -7.915229    790.98528  0.014670697  0.013296026           15 
 4494000   0.52046034   -7.9426638    789.88872  0.014647098  0.013291812           19 
 4495000   0.52591531   -7.9270163    789.93149  0.014644633  0.013287593           18 
 4496000   0.53403688   -7.9304235    791.30971  0.014666921  0.013283382           24 
 4497000   0.53986225   -7.9257365    790.58593  0.014650247  0.013279172           27 
 4498000   0.53246818   -7.9406012    791.21147  0.014658579  0.013274963           29 
 4499000   0.53360516   -7.9435088     789.9323  0.014631627  0.013270752           30 
 4500000   0.52863253   -7.9366299    789.43072  0.014619087  0.013266545           24 
 4501000   0.53030439   -7.9274082    790.44378  0.014634596  0.013262339           23 
 4502000   0.53339311   -7.9315624    788.87925  0.014602385  0.013258131           19 
 4503000   0.52898848   -7.9255931      789.785  0.014615904  0.013253924           34 
 4504000   0.53673384   -7.9279365    790.15974  0.014619592  0.013249723           37 
 4505000   0.52504899   -7.9525217    790.94683  0.014630907  0.013245522           44 
 4506000   0.53283157   -7.9244258    789.25771  0.014596422  0.013241322           28 
 4507000   0.52846573   -7.9493518     789.1492  0.014591177  0.013237117           33 
 4508000   0.53053396   -7.9354651    789.64509  0.014597107  0.013232918           28 
 4509000   0.53111161   -7.9241749    789.22015  0.014586016   0.01322872           18 
 4510000   0.53169045   -7.9361434    789.80077   0.01459351  0.013224529           22 
 4511000   0.53227041   -7.9502068    789.07745  0.014576913  0.013220339           27 
 4512000   0.53289026   -7.9235345    790.90634   0.01460746  0.013216152           25 
 4513000   0.53501279   -7.9323694    791.10568  0.014607905  0.013211966           28 
 4514000   0.52780046   -7.9302047    789.58194  0.014576539  0.013207779           21 
 4515000   0.53636746   -7.9319735    789.63126   0.01457422  0.013203589           32 
 4516000   0.52048332   -7.9368955    790.73305  0.014591324    0.0131994           15 
 4517000    0.5198009   -7.9385454    790.43642  0.014582622  0.013195216           21 
 4518000   0.52436125   -7.9403683    789.60998   0.01456415  0.013191031           38 
 4519000   0.51850845    -7.958945    789.40066  0.014557068  0.013186848           21 
 4520000   0.52645722   -7.9328579    790.09266  0.014566605  0.013182667           23 
 4521000   0.52730894   -7.9322744    788.95738  0.014542457  0.013178487           25 
 4522000   0.52060831   -7.9279295    790.61855  0.014569854  0.013174312           27 
 4523000   0.53815361   -7.9507795    789.61655  0.014548171  0.013170133           22 
 4524000   0.53141867   -7.9540889     789.8461  0.014549184  0.013165963           17 
 4525000   0.52758258   -7.9496858    789.75233  0.014544242  0.013161788           18 
 4526000   0.53457971   -7.9416323    789.69611  0.014539993  0.013157618           35 
 4527000   0.52436515   -7.9374756    789.08719  0.014525572  0.013153446           27 
 4528000   0.52733744   -7.9478517    790.71715  0.014552362  0.013149275           41 
 4529000   0.53261613   -7.9357435    789.99298  0.014535824   0.01314511           18 
 4530000   0.52580736   -7.9303962    788.26092  0.014500753  0.013140936           34 
 4531000   0.51202289   -7.9601164    789.87735  0.014527281  0.013136776           33 
 4532000    0.5280027   -7.9230513    790.20321  0.014530068  0.013132613           26 
 4533000   0.52532317   -7.9369588    789.00071  0.014504756  0.013128449           23 
 4534000   0.52541525   -7.9546083    790.04012  0.014520661  0.013124293           32 
 4535000   0.52327707   -7.9533476    790.59305  0.014527619  0.013120135           39 
 4536000   0.51853293   -7.9339995    791.88058  0.014548071  0.013115974           26 
 4537000   0.53331413   -7.9442532    789.84576   0.01450749  0.013111825           36 
 4538000   0.52286242   -7.9458623    789.53277  0.014498545  0.013107675           30 
 4539000   0.53045313   -7.9201732    789.72225   0.01449883  0.013103528           27 
 4540000   0.52726957   -7.9311507    789.31309  0.014488126  0.013099384           32 
 4541000    0.5316898   -7.9372205    789.70781  0.014492179  0.013095237           26 
 4542000    0.5251997   -7.9388955    789.00453  0.014476085  0.013091094           34 
 4543000   0.52985092   -7.9285256    788.86281  0.014470299  0.013086956           17 
 4544000   0.52994139   -7.9241617    788.78487  0.014465685  0.013082818           20 
 4545000   0.53477186   -7.9382924    789.84689  0.014481974  0.013078682           23 
 4546000   0.51432984   -7.9401559    790.21084   0.01448546  0.013074547           24 
 4547000   0.53289774   -7.9341065    789.56404  0.014470421  0.013070408           22 
 4548000   0.53656259   -7.9311975    789.75953  0.014470821  0.013066275           15 
 4549000   0.52218305   -7.9496765    789.42066  0.014461432  0.013062141           16 
 4550000   0.52645998   -7.9605882    788.47662  0.014440964  0.013058006           25 
 4551000   0.53321971   -7.9570006    789.67901  0.014459808  0.013053873           29 
 4552000   0.52395866   -7.9485889    789.86003  0.014459945  0.013049741           31 
 4553000   0.54379214   -7.9227788    789.35642  0.014447551  0.013045618           11 
 4554000   0.52935427   -7.9292654    790.68964  0.014468775  0.013041499           19 
 4555000   0.51696596   -7.9221423    790.08404   0.01445452   0.01303738           15 
 4556000   0.53291817   -7.9487492    789.65812  0.014443557  0.013033259           13 
 4557000   0.52581509   -7.9562254    788.96699  0.014427748  0.013029134           14 
 4558000   0.51347534   -7.9469197    789.48195  0.014433998  0.013025019           11 
 4559000   0.52801039   -7.9564478    788.56547   0.01441408  0.013020899           13 
 4560000   0.52541359   -7.9512106    789.30919   0.01442451  0.013016778           12 
 4561000   0.52779139   -7.9493293    789.33463  0.014421812  0.013012664           10 
 4562000   0.51953349   -7.9476413    788.65741   0.01440628  0.013008551           11 
 4563000   0.52685454   -7.9522787    788.60398  0.014402147  0.013004439           23 
 4564000   0.52201132   -7.9320842    789.98271  0.014424166  0.013000328           33 
 4565000   0.52764089   -7.9411899    789.39318  0.014410244   0.01299622           13 
 4566000   0.53033041   -7.9365105    788.16459  0.014384666  0.012992114           30 
 4567000   0.51201745   -7.9388309    789.06959  0.014398029  0.012988007           23 
 4568000   0.52082804      -7.9391     789.0764  0.014395001  0.012983899           36 
 4569000   0.52034241   -7.9381522    789.32786  0.014396437  0.012979794           31 
 4570000   0.50867898   -7.9380691    789.63242  0.014398841  0.012975686           25 
 4571000   0.51964417   -7.9553335    789.34192  0.014390394  0.012971582           52 
 4572000   0.51264707   -7.9233299    789.33994  0.014387211  0.012967479           40 
 4573000   0.53220685   -7.9475775    788.08938  0.014361276  0.012963376           22 
 4574000   0.51634622   -7.9297275    789.68872  0.014387274  0.012959279           42 
 4575000   0.52029967   -7.9407988    790.22618  0.014393919  0.012955181           40 
 4576000   0.52138413   -7.9492598    789.75888  0.014382264  0.012951083           35 
 4577000   0.53452431    -7.948544    789.01998  0.014365669  0.012946992           41 
 4578000   0.51412576   -7.9353942    789.66486  0.014374269  0.012942903           27 
 4579000   0.51983516    -7.943275    790.81587  0.014392077  0.012938815           19 
 4580000   0.52238418   -7.9577746    789.46448  0.014364347  0.012934723           33 
 4581000   0.51603861   -7.9543987    787.40273  0.014323705  0.012930632           37 
 4582000   0.51395363   -7.9549896    789.15154  0.014352385  0.012926547           32 
 4583000   0.52623623   -7.9576407    789.89868  0.014362839  0.012922459           36 
 4584000   0.52414372   -7.9573471    789.23791  0.014347693  0.012918371           32 
 4585000   0.52244552   -7.9368489    788.39543  0.014329252  0.012914289           46 
 4586000   0.51013591   -7.9452857    790.01888  0.014355627  0.012910207           31 
 4587000   0.51797867   -7.9518991    788.66865  0.014327968  0.012906126           52 
 4588000   0.52871294   -7.9575034    789.63027  0.014342311  0.012902041           23 
 4589000   0.51996528   -7.9432104    790.05654  0.014346926  0.012897962           29 
 4590000   0.50839511   -7.9531116    789.37817  0.014331485  0.012893884           44 
 4591000   0.51867427   -7.9454241    789.71262  0.014334434  0.012889806           38 
 4592000   0.51699899   -7.9448149    789.10711  0.014320324  0.012885732           30 
 4593000   0.51645461   -7.9349754    790.55102  0.014343403  0.012881658           26 
 4594000   0.51009233   -7.9677484    789.46191  0.014320525  0.012877588           32 
 4595000   0.50879366   -7.9600778    789.20503   0.01431275  0.012873518           28 
 4596000   0.52765931   -7.9540657      789.769  0.014319861  0.012869448           29 
 4597000   0.50973608   -7.9512369    788.85831  0.014300238  0.012865379           29 
 4598000   0.51584357   -7.9528183    788.33112  0.014287573  0.012861313           31 
 4599000   0.51136389   -7.9459271      787.872  0.014276147  0.012857251           38 
 4600000   0.52477734   -7.9577332    789.33531  0.014299553  0.012853192           33 
 4601000   0.51415992   -7.9577347    787.37039  0.014260856  0.012849127           41 
 4602000    0.5159118   -7.9548454    789.56035  0.014297413  0.012845068           34 
 4603000   0.51036853   -7.9405597     789.4942  0.014293109  0.012841007           29 
 4604000   0.52141303   -7.9606928     788.4356  0.014270844  0.012836948           34 
 4605000   0.52679393   -7.9499124    789.58422  0.014288531  0.012832892           45 
 4606000   0.51175555   -7.9539013    788.82198  0.014271638  0.012828838           27 
 4607000   0.51749547    -7.956233    788.59686  0.014264468  0.012824786           24 
 4608000   0.51118467   -7.9598959    788.73502  0.014263871  0.012820732           22 
 4609000   0.51120307    -7.945131    789.38568  0.014272541  0.012816679           33 
 4610000   0.51122144   -7.9460566    788.29111  0.014249659  0.012812629           28 
 4611000   0.50601417   -7.9472799    789.36678  0.014266009  0.012808578           22 
 4612000   0.50752665   -7.9435419    789.18837  0.014259692  0.012804531           24 
 4613000   0.52484346   -7.9539542    788.14386  0.014237731  0.012800481           30 
 4614000   0.51125653   -7.9410968    790.28869  0.014273383  0.012796438           38 
 4615000   0.50974328   -7.9552253    789.14269  0.014249597  0.012792399           36 
 4616000   0.50771654   -7.9278233    787.56197  0.014217973  0.012788358           30 
 4617000   0.51670769   -7.9692318    789.23283  0.014245051  0.012784321           29 
 4618000   0.51967123   -7.9519623     788.4655   0.01422812   0.01278028           28 
 4619000   0.51584177   -7.9662594    789.51102  0.014243902  0.012776241           32 
 4620000   0.50945967   -7.9601249    788.73325   0.01422679  0.012772209           33 
 4621000   0.52356187   -7.9470918    789.37123  0.014235217  0.012768176           29 
 4622000   0.50302129   -7.9553548    788.97092  0.014224919  0.012764144           34 
 4623000    0.5109045   -7.9477549    788.81309  0.014218997  0.012760115           35 
 4624000   0.50664178   -7.9538889    787.64952  0.014194952  0.012756086           21 
 4625000   0.51385753   -7.9467801    788.72964  0.014211345  0.012752062           32 
 4626000   0.50798212   -7.9594089    789.90732  0.014229488  0.012748033           39 
 4627000   0.51019426   -7.9617695    789.59065  0.014220709   0.01274401           38 
 4628000    0.5063456   -7.9667716    788.18683  0.014192359  0.012739985           31 
 4629000   0.50627894   -7.9456732    787.90624  0.014184241  0.012735963           28 
 4630000   0.50987313   -7.9474956     788.3522  0.014189204   0.01273194           51 
 4631000   0.51583914   -7.9422101    787.57893  0.014172226  0.012727921           33 
 4632000   0.50773263   -7.9347941    789.49142  0.014203573  0.012723901           37 
 4633000   0.49887499   -7.9713555    789.49443  0.014200562  0.012719887           34 
 4634000   0.50983914   -7.9653421    788.71765  0.014183528  0.012715869           27 
 4635000   0.50862118   -7.9626931    788.09293  0.014169236  0.012711855           31 
 4636000   0.51774189   -7.9506558    788.47273  0.014173007  0.012707845           21 
 4637000   0.49934472   -7.9692188    788.86895  0.014177071  0.012703834           29 
 4638000   0.52181092   -7.9510471    789.22308  0.014180377  0.012699827           20 
 4639000    0.5118816   -7.9447536    788.34695  0.014161582   0.01269582           37 
 4640000   0.50132422   -7.9630853    789.28516   0.01417538  0.012691814           30 
 4641000   0.51068709   -7.9652327    787.41915   0.01413882  0.012687808           33 
 4642000   0.51800252   -7.9545795    788.42344  0.014153803  0.012683805           24 
 4643000   0.51230317   -7.9522479      788.564  0.014153277    0.0126798           28 
 4644000   0.50688256   -7.9557809    788.02635  0.014140582  0.012675801           26 
 4645000   0.50327175   -7.9654132    788.95101  0.014154126  0.012671796           37 
 4646000   0.52852931   -7.9556918    788.59729  0.014144736  0.012667797           42 
 4647000   0.50492516    -7.952518    788.32446  0.014136799  0.012663793           30 
 4648000   0.52143746   -7.9512678     788.5436  0.014137687  0.012659791           30 
 4649000   0.52618442   -7.9753505    788.69276  0.014137319   0.01265579           36 
 4650000   0.50311308   -7.9514314     788.0276  0.014122358  0.012651793           25 
 4651000   0.50699181   -7.9558122    788.34284   0.01412497  0.012647797           33 
 4652000   0.50607942   -7.9612018    789.03413  0.014134317   0.01264381           39 
 4653000   0.50269828   -7.9511528     788.1333  0.014115146  0.012639822           25 
 4654000   0.51152873   -7.9556702      787.851  0.014107059  0.012635831           18 
 4655000   0.50739245   -7.9609306     788.7214   0.01411961  0.012631843           21 
 4656000   0.49673856   -7.9751777    788.38746    0.0141106  0.012627859           25 
 4657000   0.50606839   -7.9612543    789.03705  0.014119194  0.012623875           31 
 4658000   0.50760719   -7.9555841    788.79927  0.014111909  0.012619893           26 
 4659000   0.52063796    -7.966412      788.858  0.014109931  0.012615914           33 
 4660000   0.49508279   -7.9640587    788.60995  0.014102467  0.012611934           32 
 4661000   0.50605822   -7.9560742    788.80547  0.014102937  0.012607955           25 
 4662000    0.5103371   -7.9668682    787.66102  0.014079455  0.012603974           27 
 4663000   0.50507139   -7.9717404    787.17204  0.014067697  0.012599994           42 
 4664000   0.50172978   -7.9563558    787.51964  0.014070891  0.012596022           39 
 4665000   0.51164754   -7.9862826    789.19437  0.014097791  0.012592043           29 
 4666000   0.50283825   -7.9764133    787.96288  0.014072776  0.012588071           20 
 4667000   0.50246394   -7.9658302    787.81729  0.014067161  0.012584098           31 
 4668000   0.49338612   -7.9717325    788.25459  0.014071954  0.012580122           27 
 4669000   0.50734136   -7.9694791    787.77524  0.014060385  0.012576149           27 
 4670000   0.51406149   -7.9762175    788.61685  0.014072392   0.01257218           30 
 4671000   0.49687583   -7.9719965    790.53003  0.014103512  0.012568211           21 
 4672000    0.5066854    -7.948131    788.63427  0.014066679  0.012564247           29 
 4673000   0.51353637   -7.9729631    787.11981  0.014036661   0.01256028           33 
 4674000   0.50460375   -7.9702223    788.53357  0.014058864  0.012556317           40 
 4675000   0.50583261   -7.9757172    788.13541  0.014048759  0.012552354           25 
 4676000    0.4988885   -7.9819808    788.05977  0.014044407  0.012548393           27 
 4677000   0.50709041   -7.9568606     786.6533  0.014016344  0.012544435           34 
 4678000   0.49149895   -7.9699069    788.36711  0.014043878  0.012540479           30 
 4679000   0.50949081   -7.9804861    787.66679  0.014028403   0.01253652           29 
 4680000   0.51375902   -7.9812749    788.51749  0.014040554  0.012532562           45 
 4681000    0.4990823   -7.9630711    788.84616  0.014043405  0.012528605           45 
 4682000   0.49846353   -7.9605173    787.51163  0.014016653  0.012524655           37 
 4683000   0.50911016   -7.9770235    787.25498  0.014009093  0.012520704           33 
 4684000   0.50248615   -7.9610764    788.21729  0.014023223  0.012516757           50 
 4685000   0.48806235   -7.9762563    789.32621  0.014039954  0.012512812           41 
 4686000   0.50754118   -7.9834608    786.94491   0.01399461   0.01250887           29 
 4687000    0.5012648   -7.9788212    787.39101  0.013999556  0.012504927           40 
 4688000   0.49704036   -7.9676572    788.13068  0.014009718  0.012500989           35 
 4689000    0.5081462   -7.9642364    788.06268  0.014005521   0.01249705           39 
 4690000   0.50469951   -7.9663339    788.44108  0.014009259  0.012493112           53 
 4691000   0.50738023   -7.9844307      787.853  0.013995825  0.012489175           45 
 4692000   0.50087768   -7.9747393     788.3263  0.014001249  0.012485237           36 
 4693000   0.50378355   -7.9687686    788.83495  0.014007297  0.012481296           27 
 4694000   0.50089481   -7.9941926    789.33023  0.014013106  0.012477358           39 
 4695000   0.50807552   -7.9671492    786.89635  0.013966921   0.01247342           41 
 4696000   0.49232873     -7.97411    786.77014  0.013961708  0.012469483           42 
 4697000   0.50062634   -7.9747487    787.13293  0.013965172  0.012465553           35 
 4698000   0.49883863   -7.9941052    788.14452  0.013980143  0.012461621           37 
 4699000   0.50379011   -7.9756494    787.78378   0.01397077  0.012457688           35 
 4700000   0.49773115   -7.9869094    788.07079  0.013972886  0.012453758           49 
 4701000   0.50254129   -7.9877801    786.42399  0.013940722  0.012449832           32 
 4702000   0.50477581   -8.0046861    788.66847  0.013977536  0.012445906           38 
 4703000   0.49193891   -7.9774532    787.25181  0.013949461  0.012441981           44 
 4704000   0.50068565   -7.9922495    789.14306      0.01398   0.01243806           42 
 4705000    0.4968583   -7.9807951    788.24987  0.013961209  0.012434139           44 
 4706000   0.50256162   -7.9817099    788.87525  0.013969317  0.012430223           40 
 4707000    0.4997139   -7.9729402    788.87411  0.013966329  0.012426309           41 
 4708000   0.50895907   -7.9586708    787.66646  0.013941986  0.012422394           52 
 4709000   0.49272196   -7.9884136    787.11037  0.013929185  0.012418484           57 
 4710000    0.5024602   -7.9665426     787.8098  0.013938602  0.012414576           44 
 4711000   0.49359602   -7.9715395    787.47662   0.01392975  0.012410669           38 
 4712000   0.49321252   -7.9831071    787.32455  0.013924104   0.01240676           55 
 4713000   0.49649203   -7.9804707    787.32505  0.013921159  0.012402852           38 
 4714000   0.49994336   -7.9841565    787.97818  0.013929751  0.012398948           30 
 4715000   0.49017729   -7.9695432    787.26861  0.013914256  0.012395042           41 
 4716000   0.49669138   -7.9709067    787.27282   0.01391138  0.012391135           35 
 4717000   0.49864389   -7.9852235    789.78355  0.013952787   0.01238723           36 
 4718000    0.4902779    -7.954323    788.09094  0.013919933  0.012383334           42 
 4719000   0.48189769   -7.9758545    786.88781  0.013895737  0.012379434           45 
 4720000   0.48477734   -7.9943982    788.02432  0.013912859  0.012375535           30 
 4721000   0.50105079   -7.9840582    788.16775  0.013912444   0.01237164           42 
 4722000   0.48947225   -7.9895219    788.53814  0.013916034  0.012367741           43 
 4723000   0.50351794   -7.9921518    787.82948  0.013900584  0.012363849           43 
 4724000   0.49575891   -7.9962612     788.2071  0.013904303  0.012359958           44 
 4725000    0.5059585   -7.9604982    787.14697  0.013882663  0.012356068           42 
 4726000   0.49398745   -7.9927963    789.02787  0.013912891  0.012352176           33 
 4727000   0.49534606   -7.9801101    786.78085  0.013870334  0.012348289           26 
 4728000   0.48291567   -7.9779672    787.51996  0.013880428  0.012344397           49 
 4729000   0.49940786   -7.9823021    788.84788  0.013900893  0.012340511           40 
 4730000   0.48627697   -7.9772024    786.68768  0.013859896  0.012336626           35 
 4731000   0.50174684   -7.9790146    787.27071  0.013867236  0.012332741           38 
 4732000   0.49241085   -7.9792234    788.12335  0.013879321  0.012328857           36 
 4733000   0.49209187   -7.9946306    788.00948  0.013874383  0.012324977           43 
 4734000   0.49411952   -7.9834043     787.6189  0.013864577    0.0123211           38 
 4735000   0.48229915   -7.9826791    788.40724  0.013875523  0.012317221           57 
 4736000    0.4926919   -8.0047606    788.13743  0.013867846  0.012313343           30 
 4737000   0.49769357   -7.9920084     788.3671  0.013868959  0.012309467           44 
 4738000   0.49583108   -7.9811692    787.48247  0.013850473  0.012305594           33 
 4739000   0.49135082   -7.9917495    788.93574  0.013873105   0.01230172           34 
 4740000   0.51311832   -7.9887621    787.52687  0.013845409  0.012297851           47 
 4741000   0.49662074   -7.9963513    787.50162  0.013842045   0.01229398           38 
 4742000   0.48651841   -8.0002853    787.82394   0.01384479  0.012290113           43 
 4743000   0.50022775   -7.9881153    788.02868  0.013845468  0.012286241           45 
 4744000   0.49320298   -7.9970728    786.90192  0.013822757  0.012282376           43 
 4745000   0.48836196   -7.9915567    787.85287  0.013836545  0.012278511           35 
 4746000   0.49696834   -7.9968374    787.49154  0.013827285  0.012274649           50 
 4747000   0.49542872   -7.9759625    787.78188  0.013829469  0.012270786           32 
 4748000   0.47814329   -7.9828811    787.40528  0.013819947  0.012266923           53 
 4749000   0.50555693    -7.995475    786.86773  0.013807604  0.012263062           24 
 4750000   0.49339721    -7.990989    786.34569  0.013795538  0.012259203           49 
 4751000   0.48212715   -7.9966653    787.60331  0.013814694  0.012255348           41 
 4752000   0.48503669   -7.9864606    788.02715  0.013819219  0.012251489           53 
 4753000   0.49049246   -7.9810885    786.86912  0.013796008  0.012247634           53 
 4754000   0.49040049   -7.9727134    786.84501  0.013792684  0.012243781           39 
 4755000   0.49121739   -7.9930815    787.24359  0.013796768  0.012239929           44 
 4756000   0.48677394   -8.0061134    786.63823   0.01378326  0.012236081           61 
 4757000   0.49798623    -7.990722    786.60856  0.013779843  0.012232232           48 
 4758000   0.48487107   -7.9946683     787.2389  0.013787987  0.012228385           25 
 4759000   0.49268121   -7.9953519    787.21962  0.013784752  0.012224538           46 
 4760000   0.48190726   -7.9937707    787.34309  0.013784018  0.012220694           55 
 4761000   0.48816237   -7.9905729    787.76923  0.013788581   0.01221685           49 
 4762000   0.49267932   -7.9998327    786.98995  0.013772049  0.012213007           35 
 4763000   0.47856241   -7.9850419    787.22613  0.013773289  0.012209165           47 
 4764000   0.47969521   -7.9912146    788.02894  0.013784441   0.01220533           40 
 4765000   0.49248514   -8.0065163    786.97286  0.013763079   0.01220149           44 
 4766000   0.48665817   -7.9887616    789.24276   0.01379988  0.012197657           40 
 4767000   0.49294661   -8.0072548    787.64613  0.013769074  0.012193821           38 
 4768000   0.49028654   -7.9861086    786.61854  0.013748227   0.01218999           39 
 4769000   0.47991192   -7.9920718    787.32179  0.013757632   0.01218616           61 
 4770000   0.50020191   -7.9921077    788.43414  0.013774181  0.012182333           37 
 4771000   0.49068164   -8.0017206      786.967  0.013745668  0.012178502           34 
 4772000   0.49337258   -7.9840287    786.63201  0.013736938  0.012174673           42 
 4773000   0.49806006    -7.993433    788.43797  0.013765591  0.012170849           56 
 4774000   0.48096305   -7.9922274    786.51365  0.013729117  0.012167023           41 
 4775000   0.48538963   -7.9933191    788.56956  0.013762121  0.012163199           45 
 4776000   0.49075865   -7.9944326    786.93401  0.013730702  0.012159375           45 
 4777000   0.49377056   -8.0010852    786.13665  0.013713918  0.012155554           69 
 4778000   0.49190583   -7.9916386    787.07865  0.013727478   0.01215173           47 
 4779000   0.50246629   -7.9969997    786.42074  0.013713133  0.012147911           45 
 4780000   0.48525013   -7.9995067    786.90895  0.013718775  0.012144093           34 
 4781000   0.48882321   -8.0090147    786.94209  0.013716483  0.012140276           39 
 4782000   0.48940758   -7.9832087    786.54345  0.013706668   0.01213646           47 
 4783000   0.49200707   -7.9997274    786.43697  0.013701947  0.012132647           37 
 4784000   0.48465022   -8.0024194    786.18836  0.013694753   0.01212884           48 
 4785000   0.48338671   -8.0020295    786.47053  0.013696805  0.012125029           44 
 4786000   0.48886667   -7.9839005    786.21268  0.013689453   0.01212122           52 
 4787000   0.47781518   -8.0098345    786.41954  0.013690195  0.012117411           49 
 4788000   0.48320753   -7.9970112    787.86436  0.013712482  0.012113607           47 
 4789000   0.48248831   -8.0187464    787.57741  0.013704625  0.012109802           30 
 4790000   0.49743248   -7.9977424    786.56388  0.013684132  0.012105999           42 
 4791000   0.48734562   -8.0176785    787.33539  0.013694695  0.012102199           45 
 4792000   0.48859434   -7.9978197    786.35624  0.013674809    0.0120984           43 
 4793000    0.4939297   -8.0081161    787.71985  0.013695665  0.012094601           48 
 4794000   0.48604181   -8.0107771    787.32206  0.013685893  0.012090801           41 
 4795000   0.47595377   -8.0098864     785.1507  0.013645302  0.012087006           34 
 4796000   0.48275469   -7.9928664    787.52893   0.01368378  0.012083209           45 
 4797000   0.48753656   -7.9899635    786.24706  0.013658659  0.012079416           45 
 4798000   0.48649454   -7.9918607    787.89765  0.013684481  0.012075621           41 
 4799000   0.48106311    -7.984185    787.08274  0.013667478  0.012071828           49 
 4800000   0.48971711   -7.9949693    786.21978  0.013649649  0.012068041           47 
 4801000   0.49017652   -7.9898381    787.25057  0.013664698  0.012064255           38 
 4802000   0.47344558   -8.0087229    787.47596  0.013665764  0.012060469           45 
 4803000   0.49375433   -8.0063287    787.31484  0.013660123  0.012056686           45 
 4804000    0.4785461   -7.9830028    785.79693  0.013630949  0.012052906           50 
 4805000   0.48352186    -7.990923    786.88956  0.013647061  0.012049125           55 
 4806000   0.48350759   -8.0072239    787.66136  0.013657604  0.012045346           46 
 4807000    0.4845068   -7.9976567    786.43643  0.013633528  0.012041569           55 
 4808000   0.48482013   -8.0037469    786.79571   0.01363692  0.012037791           47 
 4809000   0.48598428   -8.0124321    787.30479  0.013642906   0.01203402           33 
 4810000   0.48045433   -7.9969686    785.85889  0.013615019  0.012030246           39 
 4811000   0.47125127   -8.0188397    787.47341  0.013640155  0.012026474           34 
 4812000   0.48240356   -8.0016687    787.25059  0.013633461  0.012022699           25 
 4813000   0.48257277   -8.0007699    786.94854  0.013625399  0.012018931           47 
 4814000    0.4853165    -7.999281    787.07218  0.013624709   0.01201516           37 
 4815000   0.48252106    -8.011466    786.01707  0.013603618  0.012011392           44 
 4816000   0.48527047   -8.0134033    787.05684  0.013618785  0.012007626           42 
 4817000   0.48231775   -8.0089117    786.80743  0.013611643   0.01200386           45 
 4818000   0.46701013   -8.0119549    787.07883  0.013613512  0.012000093           30 
 4819000   0.47718155   -8.0071231    785.93656  0.013590934  0.011996331           36 
 4820000   0.48278329   -8.0164011    786.44557  0.013596915  0.011992567           28 
 4821000   0.48916991   -8.0007969    787.21315  0.013607363  0.011988806           33 
 4822000   0.48343762   -8.0118295    786.56368  0.013593317  0.011985043           36 
 4823000   0.48779103   -8.0233892    786.74647  0.013593657  0.011981283           46 
 4824000   0.48609314   -7.9997252      787.256  0.013599641  0.011977526           38 
 4825000   0.48175442   -8.0065169    786.59355  0.013585381   0.01197377           45 
 4826000   0.47820583   -8.0113958    785.94825  0.013571423  0.011970016           29 
 4827000   0.47429245   -8.0205616    786.37767  0.013576025  0.011966259           35 
 4828000   0.47484511   -8.0031825    786.07831  0.013568046  0.011962507           45 
 4829000   0.47584139   -8.0100624    786.67054  0.013575456  0.011958756           53 
 4830000   0.47190698   -7.9881254    786.43406  0.013568566  0.011955008           45 
 4831000   0.46279904   -8.0142729    786.98006  0.013575175   0.01195126           40 
 4832000    0.4747595   -8.0046423    786.88069  0.013570652  0.011947513           39 
 4833000   0.47442163   -8.0182741     786.4626  0.013560635  0.011943767           55 
 4834000   0.47982211    -8.006205    786.28572  0.013554781  0.011940021           46 
 4835000   0.48006187   -8.0136376    787.99506  0.013581438  0.011936279           36 
 4836000   0.47063565   -8.0057935     786.2072  0.013547822  0.011932535           35 
 4837000   0.48205492   -8.0101105    786.12546  0.013543613  0.011928795           53 
 4838000    0.4833109   -8.0060532    786.81715  0.013552728  0.011925056           51 
 4839000   0.48188987   -8.0025073    786.21058  0.013539481  0.011921315           50 
 4840000   0.47729959   -7.9952218    786.83221  0.013547386  0.011917578           46 
 4841000    0.4890066   -8.0225706    784.56118  0.013505494  0.011913841           46 
 4842000    0.4689636    -8.007239    785.98615   0.01352723  0.011910107           37 
 4843000   0.48758515    -8.017047    786.80821  0.013538582  0.011906371           51 
 4844000   0.48183248   -8.0236998    786.56463  0.013531596   0.01190264           44 
 4845000   0.47521424   -8.0069954    786.16704  0.013521965  0.011898906           40 
 4846000    0.4803302   -8.0073531    786.11873  0.013518344  0.011895174           44 
 4847000    0.4776433   -8.0126067    786.06372  0.013514609  0.011891447           38 
 4848000    0.4671505   -8.0174128     785.8103  0.013507465  0.011887721           57 
 4849000   0.49222445   -8.0160788    785.62277  0.013501457  0.011883996           48 
 4850000   0.48331445   -8.0322885    786.47908  0.013513386  0.011880274           32 
 4851000   0.49230273   -8.0298653    786.14687  0.013504894  0.011876551           49 
 4852000   0.47735351    -8.017596    786.04006  0.013500276  0.011872829           54 
 4853000    0.4835464    -8.021375    786.94204  0.013512982  0.011869113           33 
 4854000   0.46694169   -8.0127785    785.09441  0.013478478  0.011865393           49 
 4855000   0.48306046   -7.9980157    785.57601  0.013483969  0.011861674           31 
 4856000    0.4818789   -8.0251812     785.3689  0.013477638  0.011857957           42 
 4857000   0.46961333   -8.0116331    786.06276  0.013486767  0.011854243           42 
 4858000   0.48509872   -8.0276347    786.36747  0.013489218   0.01185053           48 
 4859000   0.47683731   -8.0211266    786.51073  0.013488899  0.011846818           39 
 4860000   0.46760482   -8.0255442    786.28259  0.013482212  0.011843107           40 
 4861000   0.47823115   -8.0058837    786.30766  0.013479868  0.011839395           36 
 4862000   0.47495115   -8.0053965    786.14725  0.013474346  0.011835688           38 
 4863000   0.47997906   -8.0278092    786.64521  0.013480109   0.01183198           46 
 4864000   0.46773542   -8.0308682    786.22741  0.013470179  0.011828278           42 
 4865000   0.47615569   -8.0216734    784.89617  0.013444607  0.011824575           49 
 4866000   0.46156949   -8.0155132    787.05563  0.013478826  0.011820871           31 
 4867000   0.48483295   -8.0147037    785.77631  0.013454152  0.011817168           53 
 4868000   0.47488773   -8.0128424    786.70568  0.013467298  0.011813472           49 
 4869000   0.47421365   -8.0163041    786.86294  0.013467224  0.011809777           45 
 4870000   0.46709011   -8.0166211    786.31006  0.013454998  0.011806081           48 
 4871000   0.47138593   -8.0246306    786.25912  0.013451364   0.01180239           43 
 4872000   0.46499524   -8.0351085    785.56453  0.013436722  0.011798698           45 
 4873000    0.4620956   -8.0131322    784.80458  0.013420969  0.011795007           52 
 4874000   0.47836859   -8.0217631    786.70663  0.013450736  0.011791317           55 
 4875000   0.46967021   -8.0347298    785.27225  0.013423457  0.011787628           30 
 4876000   0.47861764   -8.0256129    786.25648  0.013437525  0.011783939           46 
 4877000   0.46073719   -8.0068234    784.89846  0.013411565   0.01178025           61 
 4878000    0.4682155   -8.0278224    785.62442  0.013421218  0.011776566           42 
 4879000   0.46573422   -8.0218359    786.17499  0.013427871  0.011772879           63 
 4880000   0.45995853    -8.014612    786.17249  0.013425077  0.011769195           54 
 4881000   0.46906738   -8.0209433    784.51662  0.013394056  0.011765511           44 
 4882000   0.47122731   -8.0247927    785.83583   0.01341383  0.011761832           55 
 4883000   0.46247325   -8.0255443    787.01394  0.013431189  0.011758152           62 
 4884000   0.47250696   -8.0309394    784.82134  0.013391028  0.011754473           60 
 4885000   0.46832329   -8.0185165    786.91713  0.013424038  0.011750797           54 
 4886000   0.47524852   -8.0274094    785.22922  0.013392503   0.01174712           60 
 4887000   0.48154632   -8.0093079    785.04384  0.013386601  0.011743444           45 
 4888000   0.46997417   -8.0390615    785.96187  0.013399514  0.011739772           57 
 4889000   0.47484147   -8.0254904     786.0109  0.013397609  0.011736097           38 
 4890000   0.46860235   -8.0140833    784.43689  0.013368045  0.011732426           62 
 4891000   0.48493731   -8.0326027    786.40908  0.013398914  0.011728756           39 
 4892000   0.46604452   -8.0527947    785.47461  0.013380257  0.011725086           59 
 4893000   0.47495954   -8.0175464    785.62506  0.013380085  0.011721418           40 
 4894000    0.4755606   -8.0336232    785.90155  0.013382059  0.011717752           45 
 4895000    0.4529499   -8.0320949     785.1731  0.013366924  0.011714089           60 
 4896000   0.45848403   -8.0052168     787.0281  0.013395767  0.011710428           58 
 4897000   0.46897072   -8.0280804    785.80106  0.013372151  0.011706766           52 
 4898000   0.47383592   -8.0179396     785.1687  0.013358662  0.011703105           49 
 4899000   0.47153081    -8.018364    785.59779  0.013363234  0.011699446           61 
 4900000   0.47222532   -8.0121552    784.90303  0.013348691   0.01169579           42 
 4901000   0.47131806   -8.0292316    785.73301   0.01336008  0.011692135           66 
 4902000   0.46626254   -8.0267693    785.91845  0.013360507  0.011688482           38 
 4903000   0.47560204   -8.0159085     785.9147  0.013357718  0.011684831           41 
 4904000   0.45948694   -8.0296697    785.25795  0.013343834  0.011681183           53 
 4905000   0.46664458   -8.0330267    785.58993  0.013346754  0.011677532           52 
 4906000   0.47079338   -8.0333672    786.09434  0.013352601  0.011673888           45 
 4907000   0.47035346   -8.0230745    784.97438   0.01333086  0.011670245           37 
 4908000   0.46237223   -8.0427205     785.3023  0.013333712  0.011666602           75 
 4909000   0.46977995   -8.0296052       785.18   0.01332892  0.011662959           54 
 4910000   0.46650106   -8.0317044    785.43821  0.013330587  0.011659316           55 
 4911000   0.46288261   -8.0346896    787.37914  0.013360808  0.011655674           38 
 4912000   0.46507062   -8.0424331    785.98548  0.013334444  0.011652036           51 
 4913000   0.46247248   -8.0262885    785.72981  0.013327393  0.011648398           58 
 4914000   0.45914125   -8.0319388    785.93883  0.013328226  0.011644763           53 
 4915000   0.46963224   -8.0393019    785.45269  0.013317272  0.011641128           50 
 4916000   0.46354779   -8.0409756    784.93626  0.013305809   0.01163749           53 
 4917000   0.47307325   -8.0229648    785.61435  0.013314595  0.011633854           59 
 4918000   0.45587823   -8.0175089    785.24148  0.013305569  0.011630222           45 
 4919000   0.45990972   -8.0327028    785.95667  0.013314981  0.011626591           45 
 4920000   0.46346119   -8.0448605    784.31299  0.013284434  0.011622961           45 
 4921000   0.47278449   -8.0331191    784.44528  0.013283975  0.011619331           61 
 4922000   0.46373186   -8.0322614    785.39872  0.013297418  0.011615708           55 
 4923000   0.46376967   -8.0430741    785.20936  0.013291512  0.011612086           52 
 4924000   0.45938764   -8.0312897    787.29771  0.013324156  0.011608463           38 
 4925000   0.46637817   -8.0312935     786.1722  0.013302406  0.011604839           59 
 4926000   0.46901399   -8.0373357    784.76139  0.013275839  0.011601218           52 
 4927000   0.46367031   -8.0327252    786.47775  0.013302174  0.011597598           66 
 4928000    0.4605158   -8.0255175    785.22035  0.013278212  0.011593982           55 
 4929000   0.46085278   -8.0314865    785.53776  0.013280885  0.011590366           51 
 4930000   0.46980558   -8.0449234    785.37479  0.013275436   0.01158675           58 
 4931000   0.46309934   -8.0536422    785.20141  0.013269814  0.011583138           61 
 4932000   0.46064159   -8.0263583    785.37699   0.01327009  0.011579525           60 
 4933000   0.46044617   -8.0327909     784.9266  0.013259791   0.01157591           64 
 4934000   0.46507631   -8.0386251    785.22516  0.013262146  0.011572299           68 
 4935000   0.47121636   -8.0253759    785.62572  0.013266223  0.011568689           61 
 4936000   0.46852036   -8.0312949    784.51143  0.013244723  0.011565081           63 
 4937000    0.4563203   -8.0244746    785.54598  0.013259503  0.011561475           58 
 4938000   0.46028985   -8.0270862    785.39037  0.013254192  0.011557871           49 
 4939000   0.45705377   -8.0324632    785.23042  0.013248809  0.011554267           47 
 4940000   0.45772647   -8.0285071    784.36912  0.013231598  0.011550664           56 
 4941000   0.46320824   -8.0445319    785.14787  0.013242054  0.011547062           46 
 4942000   0.46216909   -8.0381252    785.15065  0.013239421  0.011543462           66 
 4943000   0.46128662   -8.0405022    785.64395   0.01324506  0.011539867           71 
 4944000   0.45665751   -8.0497014    784.92691  0.013230294  0.011536268           51 
 4945000   0.45945056   -8.0360898    784.84831  0.013226294  0.011532671           55 
 4946000    0.4585653   -8.0259133    784.37969  0.013215725  0.011529078           56 
 4947000   0.46281433   -8.0329325    784.64263  0.013217482  0.011525483           52 
 4948000   0.46175251    -8.043614    784.84366  0.013218197  0.011521895           47 
 4949000   0.45628171   -8.0493351    785.44683  0.013225682  0.011518304           73 
 4950000   0.45081496   -8.0318536    784.59391  0.013208652  0.011514714           52 
 4951000   0.45830233   -8.0453726    785.34236  0.013218581  0.011511126           61 
 4952000   0.45800447   -8.0576505    785.66824  0.013221396  0.011507541           30 
 4953000   0.45815837   -8.0517773    785.10063  0.013209177  0.011503956           57 
 4954000   0.45824085   -8.0259742    784.54722  0.013197201  0.011500373           40 
 4955000   0.46074317   -8.0333632    785.23321  0.013206075   0.01149679           59 
 4956000   0.46412122   -8.0196083    784.31772  0.013188017  0.011493209           46 
 4957000   0.45791288   -8.0277091    785.63909   0.01320757  0.011489629           49 
 4958000   0.45272551   -8.0404748    786.54417  0.013220118  0.011486051           52 
 4959000   0.46520329    -8.032049    784.41127   0.01318161  0.011482473           55 
 4960000   0.45123198   -8.0448305     785.8035  0.013202344  0.011478897           44 
 4961000   0.46394168   -8.0378675    784.08768  0.013170861  0.011475322           49 
 4962000   0.46461202   -8.0637788    785.26039  0.013187901  0.011471752           59 
 4963000   0.47323913    -8.041371    785.24722  0.013185023  0.011468179           48 
 4964000   0.45688712   -8.0432826    785.07391  0.013179457  0.011464609           46 
 4965000   0.45902105   -8.0496868    785.32875   0.01318108  0.011461043           57 
 4966000   0.44755485   -8.0543234     784.7674  0.013169006  0.011457473           51 
 4967000   0.45852749   -8.0336385    784.99062    0.0131701  0.011453905           35 
 4968000   0.45031584   -8.0260528    785.84905  0.013181848  0.011450339           58 
 4969000   0.44722469   -8.0338386    784.67145  0.013159446  0.011446776           51 
 4970000   0.44908591   -8.0461523    785.38256  0.013168722  0.011443214           49 
 4971000   0.45998355   -8.0416048    784.53296   0.01315183  0.011439653           49 
 4972000   0.45688092   -8.0504009    785.82058  0.013170766  0.011436094           66 
 4973000   0.46306703   -8.0198107     784.5658  0.013147091  0.011432537           35 
 4974000   0.45501784   -8.0466657    784.49192   0.01314321   0.01142898           82 
 4975000   0.46426591   -8.0485393    785.20203  0.013152463  0.011425423           60 
 4976000   0.45007678   -8.0367607    785.16103  0.013149133  0.011421867           66 
 4977000   0.45338142   -8.0532756    783.77706  0.013123318  0.011418311           58 
 4978000    0.4579879   -8.0608851    783.90319  0.013122794  0.011414758           41 
 4979000   0.45315577   -8.0608834    783.98937    0.0131216  0.011411209           46 
 4980000   0.47084711   -8.0548776    785.07886  0.013137196   0.01140766           59 
 4981000   0.45552232   -8.0431184    784.60675  0.013126661  0.011404111           43 
 4982000   0.45126327   -8.0383842    784.27892  0.013118542  0.011400564           65 
 4983000   0.45313126   -8.0388356    785.41996  0.013134992  0.011397019           57 
 4984000   0.45009623   -8.0417352    784.72872  0.013120798  0.011393476           54 
 4985000   0.47154336   -8.0434822    784.98581  0.013122464  0.011389933           61 
 4986000   0.45309307    -8.058276    785.17404  0.013122978  0.011386395           55 
 4987000   0.46292685    -8.061443    785.28555   0.01312221  0.011382858           47 
 4988000   0.45339883    -8.049697     785.3741  0.013121059  0.011379321           56 
 4989000   0.45307787   -8.0526994     784.7181  0.013107471  0.011375786           65 
 4990000   0.45226132   -8.0427262    784.78573  0.013105974  0.011372252           77 
 4991000   0.45530795   -8.0486977    784.12735  0.013092355  0.011368719           61 
 4992000   0.45494098   -8.0446068     784.6495  0.013098449  0.011365187           68 
 4993000   0.44839488   -8.0401185    784.04206  0.013085688  0.011361654           40 
 4994000   0.45390522   -8.0477423    785.18736  0.013102179  0.011358126           61 
 4995000   0.44880865   -8.0562595    785.34763  0.013102229  0.011354597           38 
 4996000   0.44566354   -8.0500539    785.30535  0.013098902  0.011351071           70 
 4997000   0.45318381   -8.0618907    785.63196  0.013101727  0.011347547           61 
 4998000   0.45255037   -8.0334326    785.29036   0.01309341  0.011344023           60 
 4999000   0.44741121   -8.0355952    784.76791  0.013082082  0.011340502           53 
 5000000   0.45228411    -8.045069    785.26462  0.013087744  0.011336979           63 
 5001000   0.45406756   -8.0587411    784.85443  0.013078292  0.011333458           41 
 5002000   0.44527361   -8.0419203    785.77452  0.013091006  0.011329937           54 
 5003000   0.44196101    -8.037698    784.03733  0.013059453  0.011326418           69 
 5004000   0.44715897   -8.0461151     784.7648  0.013068958  0.011322899           65 
 5005000   0.44821439   -8.0499337    784.03541  0.013054203  0.011319381           80 
 5006000   0.44799882   -8.0400037    784.41042  0.013057838  0.011315869           33 
 5007000   0.44953831   -8.0350345    784.99711  0.013064994  0.011312357           38 
 5008000   0.44844862   -8.0371995    783.96001  0.013045128  0.011308846           64 
 5009000   0.43830825    -8.055818    784.66328  0.013054224  0.011305336           59 
 5010000   0.44332474   -8.0419465    783.93425  0.013039492  0.011301826           55 
 5011000   0.45699287   -8.0681371    784.35575  0.013043899  0.011298321           58 
 5012000   0.44681469   -8.0435756    785.28915  0.013056816  0.011294813           67 
Loop time of 11507.3 on 48 procs for 5000000 steps with 4000 atoms

Performance: 75082.491 tau/day, 434.505 timesteps/s
99.4% CPU use with 48 MPI tasks x no OpenMP threads

MPI task timing breakdown:
Section |  min time  |  avg time  |  max time  |%varavg| %total
---------------------------------------------------------------
Pair    | 724.65     | 761.06     | 790.7      |  55.9 |  6.61
Neigh   | 71.861     | 73.253     | 74.841     |   9.0 |  0.64
Comm    | 681.67     | 718.3      | 759.38     |  72.4 |  6.24
Output  | 13.404     | 13.408     | 13.491     |   0.3 |  0.12
Modify  | 9788.8     | 9819.5     | 9850.2     |  18.0 | 85.33
Other   |            | 121.8      |            |       |  1.06

Nlocal:        83.3333 ave          90 max          76 min
Histogram: 1 1 8 6 5 8 6 7 3 3
Nghost:        1876.81 ave        1902 max        1858 min
Histogram: 5 5 5 9 6 7 3 5 0 3
Neighs:        11755.7 ave       13099 max       10149 min
Histogram: 2 1 2 7 10 8 6 4 5 3
FullNghs:      23510.9 ave       25620 max       21405 min
Histogram: 1 5 5 5 10 6 5 4 5 2

Total # of neighbors = 1128524
Ave neighs/atom = 282.13100
Neighbor list builds = 268984
Dangerous builds = 1

#clear
#
#next RN
#
#jump SELF
Total wall time: 3:11:50
