
units lj                  # Use reduced LJ style units
atom_style atomic         # Uncharged point particles
atom_modify map hash      # Needed for indexing of clusters etc
                          # Used to be able to find where atoms are in relation to each other.

lattice fcc 1.0 spacing 1 1 1
Lattice spacing in x,y,z = 1.5874011 1.5874011 1.5874011
region box block 0 10 0 10 0 10 units lattice
create_box 2 box
Created orthogonal box = (0.0000000 0.0000000 0.0000000) to (15.874011 15.874011 15.874011)
  3 by 4 by 4 MPI processor grid
create_atoms 1 box
Created 4000 atoms
  using lattice units in orthogonal box = (0.0000000 0.0000000 0.0000000) to (15.874011 15.874011 15.874011)
  create_atoms CPU = 0.002 seconds
set type 1 type/fraction 2 0.49 78393
Setting atom values ...
  1962 settings made for type/fraction
mass 1 1.0
mass 2 1.0
pair_style lj/cut  3.5
pair_modify tail  yes
pair_coeff 1  1  1.0  1.0   # Intearaction between 1 and 1 set with epsilon = 1 and sigma = 1
pair_coeff 1  2  1.5  0.8
pair_coeff 2  2  0.5  0.88

write_data data.0
System init for write_data ...
Neighbor list info ...
  update every 1 steps, delay 10 steps, check yes
  max neighbors/atom: 2000, page size: 100000
  master list distance cutoff = 3.8
  ghost atom cutoff = 3.8
  binsize = 1.9, bins = 9 9 9
  1 neighbor lists, perpetual/occasional/extra = 1 0 0
  (1) pair lj/cut, perpetual
      attributes: half, newton on
      pair build: half/bin/atomonly/newton
      stencil: half/bin/3d
      bin: standard
WARNING: Not all mixed pair coeffs generated from mixing. Use write_data with 'pair ij' option to store all pair coeffs. (../write_data.cpp:312)


#############################
#   M E L T   S Y S T E M   #
#############################

velocity all create 2.4 8172548 mom yes dist gaussian # Assign velocities
                                                    # Temperature 2.4, random number seed, zero linear momentum
                                                                                # Gaussian distribution

timestep 0.002   # simulation timestep
thermo 1000       # output thermodynamic data every 1000 steps bf 100

# Define a fix  in this case with index 1 applied to all
# particles in the simulation. This fix is for simulations
# in the anisotropic NPT ensemble. Note that we use the MTK
# correction.
fix 1 all npt temp 2.4 2.4 0.1 iso 5.68 5.68 0.5 mtk yes tchain 5 pchain 5 # Use NPT ensemble
                                                                         # Set temperature and pressure and damping
                                                                         # Numbers of thermostats in chain and in barostat
run 10000          # run for 10000 steps
Per MPI rank memory allocation (min/avg/max) = 3.642 | 3.644 | 3.648 Mbytes
Step Temp E_pair E_mol TotEng Press Volume 
       0          2.4   -5.3537253            0   -1.7546253   -4.2069924         4000 
    1000    2.4428366   -4.8523258            0    -1.188987    5.7572344    3734.9114 
    2000    2.3857304   -4.9588359            0    -1.381135    5.8519262    3681.3083 
    3000    2.3616606   -4.8717437            0   -1.3301384    5.4901112    3748.7184 
    4000    2.4014144   -4.9312893            0   -1.3300682    5.4638611    3718.5703 
    5000    2.4209128   -4.9313679            0   -1.3009065    5.8535444    3700.4981 
    6000    2.4447866   -4.8777165            0   -1.2114534    5.8095967    3726.5598 
    7000     2.396003    -4.896275            0    -1.303169    5.6602008    3729.1017 
    8000    2.3755158   -4.9424369            0   -1.3800539    5.6744793    3700.7989 
    9000    2.4082626   -4.9094772            0   -1.2979865     5.746285    3712.1057 
   10000    2.4280414   -4.9146814            0   -1.2735299    5.8445712    3709.5625 
Loop time of 2.64447 on 48 procs for 10000 steps with 4000 atoms

Performance: 653439.247 tau/day, 3781.477 timesteps/s
99.7% CPU use with 48 MPI tasks x no OpenMP threads

MPI task timing breakdown:
Section |  min time  |  avg time  |  max time  |%varavg| %total
---------------------------------------------------------------
Pair    | 1.1761     | 1.2457     | 1.4035     |   3.7 | 47.10
Neigh   | 0.21268    | 0.22298    | 0.24995    |   1.4 |  8.43
Comm    | 0.73966    | 0.91051    | 0.99281    |   4.8 | 34.43
Output  | 0.00024479 | 0.0002494  | 0.00031856 |   0.0 |  0.01
Modify  | 0.2104     | 0.24953    | 0.30859    |   5.0 |  9.44
Other   |            | 0.01552    |            |       |  0.59

Nlocal:        83.3333 ave          95 max          75 min
Histogram: 3 4 8 6 9 7 5 3 1 2
Nghost:        1721.42 ave        1742 max        1692 min
Histogram: 1 2 3 5 6 6 7 7 4 7
Neighs:        10296.7 ave       11873 max        9064 min
Histogram: 2 9 2 9 9 5 5 2 3 2

Total # of neighbors = 494243
Ave neighs/atom = 123.56075
Neighbor list builds = 906
Dangerous builds = 215

# Equilibrate just above the melting temperature to avoid step fn in T

fix 1 all npt temp 1.25 1.25 0.1 iso 5.68 5.68 0.5 mtk yes tchain 5 pchain 5
run 2000
Per MPI rank memory allocation (min/avg/max) = 3.644 | 3.646 | 3.649 Mbytes
Step Temp E_pair E_mol TotEng Press Volume 
   10000    2.4280414   -4.9146814            0   -1.2735299    5.8445712    3709.5625 
   11000    1.2664714   -7.0150174            0   -5.1157852    5.1701171    2919.2618 
   12000    1.2353028   -7.0882009            0   -5.2357099    5.7560889    2879.6055 
Loop time of 0.643384 on 48 procs for 2000 steps with 4000 atoms

Performance: 537159.925 tau/day, 3108.564 timesteps/s
99.7% CPU use with 48 MPI tasks x no OpenMP threads

MPI task timing breakdown:
Section |  min time  |  avg time  |  max time  |%varavg| %total
---------------------------------------------------------------
Pair    | 0.28922    | 0.31285    | 0.33492    |   1.9 | 48.63
Neigh   | 0.040831   | 0.042645   | 0.045401   |   0.5 |  6.63
Comm    | 0.21578    | 0.23731    | 0.26058    |   2.4 | 36.88
Output  | 5.3782e-05 | 5.5268e-05 | 7.1586e-05 |   0.0 |  0.01
Modify  | 0.040804   | 0.045589   | 0.050121   |   1.3 |  7.09
Other   |            | 0.004936   |            |       |  0.77

Nlocal:        83.3333 ave          93 max          75 min
Histogram: 3 2 2 13 6 10 8 2 0 2
Nghost:        2056.12 ave        2078 max        2038 min
Histogram: 3 3 6 6 10 8 4 3 2 3
Neighs:        13269.0 ave       14878 max       11539 min
Histogram: 1 0 7 9 8 4 8 7 1 3

Total # of neighbors = 636912
Ave neighs/atom = 159.22800
Neighbor list builds = 142
Dangerous builds = 7

#############################
# L I N E A R  Q U E N C H  #
#############################

# Define solid atoms. This closely follows ten Wolde  Ruiz-Montero and Frenkel  Faraday Discuss  1996  104  93-110
# Compute components of the per-atom q6 vector
compute q6 all orientorder/atom degrees 1 6 components 6 nnn NULL cutoff 1.3 # compute the Q6 parameter.
                                                                             # Use all neighbours within 1.3 unit cell.

# get number of connections
compute coord_number all coord/atom orientorder q6 0.5

# An atom is solid if it has 8 or more connections (of a possible 14)
variable is_solid atom c_coord_number>=8
group solid dynamic all var is_solid    # Must be dynamic to update
dynamic group solid defined

# do clustering
compute cluster solid cluster/atom 1.3 # Create a cluster where all atoms within are solid and max 1.3 units from another member

# define chunks one chunk per cluster
compute clus_chunks solid chunk/atom c_cluster nchunk every compress yes  # Says which atoms are in which chunk

# count the size of each chunk
compute size_chunks solid property/chunk clus_chunks count


# Find the maximum entry in the vector of chunk sizes
variable max_n equal max(c_size_chunks)


# Thermo style which includes this variable
# thermo_style custom step temp pe vol v_max_n

thermo ${N}  # Print the thermo information every 100 steps
thermo 1000  

# Reset the npt fix at a lower temperature (below freezing)
fix 1  all npt temp  ${temp} ${temp}  0.1  iso  5.68  5.68  0.5  mtk yes tchain  5  pchain  5
fix 1  all npt temp  0.45 ${temp}  0.1  iso  5.68  5.68  0.5  mtk yes tchain  5  pchain  5
fix 1  all npt temp  0.45 0.45  0.1  iso  5.68  5.68  0.5  mtk yes tchain  5  pchain  5

dump dmp2 all dcd ${N} traj.dcd
dump dmp2 all dcd 1000 traj.dcd


compute msd all msd com yes
variable twopoint equal c_msd[4]/6/(step*dt+1.0e-6)
fix 9 all vector 10 c_msd[4]
variable fit equal slope(f_9)/6/(10*dt)
thermo_style custom step temp pe c_msd[4] v_twopoint v_fit v_max_n

fix 1 all npt temp 1.25 ${temp} 0.1 iso 5.68 5.68 0.5 mtk yes tchain 5 pchain 5
fix 1 all npt temp 1.25 0.45 0.1 iso 5.68 5.68 0.5 mtk yes tchain 5 pchain 5
run 2000000 # 5000000  # Run for this many steps
Neighbor list info ...
  update every 1 steps, delay 10 steps, check yes
  max neighbors/atom: 2000, page size: 100000
  master list distance cutoff = 3.8
  ghost atom cutoff = 3.8
  binsize = 1.9, bins = 8 8 8
  4 neighbor lists, perpetual/occasional/extra = 1 3 0
  (1) pair lj/cut, perpetual
      attributes: half, newton on
      pair build: half/bin/atomonly/newton
      stencil: half/bin/3d
      bin: standard
  (2) compute orientorder/atom, occasional
      attributes: full, newton on
      pair build: full/bin/atomonly
      stencil: full/bin/3d
      bin: standard
  (3) compute coord/atom, occasional
      attributes: full, newton on
      pair build: full/bin/atomonly
      stencil: full/bin/3d
      bin: standard
  (4) compute cluster/atom, occasional
      attributes: full, newton on
      pair build: full/bin/atomonly
      stencil: full/bin/3d
      bin: standard
Per MPI rank memory allocation (min/avg/max) = 9.840 | 9.844 | 9.848 Mbytes
Step Temp PotEng c_msd[4] v_twopoint v_fit v_max_n 
   12000    1.2353028   -7.0882009 8.5118092e-31 5.9109783e-33 8.3333333e+20            1 
   13000    1.2705991   -7.1088846   0.46610135  0.002987829  0.038158219            3 
   14000    1.2299324   -7.0707269   0.90029594 0.0053589042  0.036127404            1 
   15000    1.2412016   -7.0694495    1.3479908 0.0074888377  0.036382146            2 
   16000    1.2655129   -7.1004588    1.7712777 0.0092254044  0.036754603            1 
   17000    1.2536655   -7.1353178    2.1687159   0.01063096  0.036069601            1 
   18000    1.2126788   -7.1083654    2.5816074  0.011951886  0.035481874            2 
   19000    1.2519325   -7.1279901    2.9661393  0.013009383  0.035177112            2 
   20000    1.2585094   -7.1332952    3.3671343  0.014029726  0.034722248            1 
   21000    1.2466751   -7.0812697    3.7608129   0.01492386   0.03447627            1 
   22000    1.2621733   -7.1783905    4.1538039  0.015734105   0.03430396            2 
   23000    1.2562316   -7.1422764    4.5807747  0.016597009   0.03417114            1 
   24000    1.2454962   -7.0790901    5.0413096  0.017504547  0.034187126            2 
   25000    1.2842819   -7.1643309    5.5198091  0.018399363  0.034370338            2 
   26000    1.2375905   -7.0909949    5.8905798  0.018880063  0.034566981            2 
   27000    1.2525268   -7.0832145    6.3361917  0.019556147  0.034609148            1 
   28000    1.2417394    -7.207609    6.6137698  0.019683838  0.034568228            3 
   29000    1.2615767   -7.0871528    7.0087524  0.020140093  0.034370654            1 
   30000    1.2374331   -7.0884146    7.3201945  0.020333873  0.034165519            1 
   31000    1.2514548   -7.1542007    7.7386325  0.020802775  0.033969977            3 
   32000    1.2326105   -7.1032266     8.116223  0.021135997  0.033845681            1 
   33000    1.2480829   -7.1363899    8.4693175  0.021387165  0.033668709            1 
   34000    1.2402278    -7.151912    8.8349899  0.021654387  0.033480753            5 
   35000     1.249792   -7.1204186    9.2523039  0.022029295  0.033316871            2 
   36000    1.2324437    -7.108032    9.6665938  0.022376374   0.03322136            1 
   37000    1.2501513   -7.1404429    9.9965612  0.022514777  0.033137457            2 
   38000    1.2228206   -7.1104276    10.373066  0.022747951    0.0330142            3 
   39000    1.2330216   -7.0846328    10.753282  0.022977098  0.032910427            2 
   40000      1.23832   -7.1541397    11.088839  0.023101749   0.03280718            3 
   41000    1.2386147   -7.1152356    11.574045  0.023524481  0.032741845            3 
   42000    1.2508459   -7.1387505    11.954117  0.023718486  0.032704016            2 
   43000     1.234005   -7.0737013    12.458508  0.024144396  0.032704023            3 
   44000    1.2199138   -7.1579875    12.848199   0.02433371   0.03273756            1 
   45000    1.2549087   -7.1237184    13.168103  0.024385375  0.032741679            2 
   46000    1.2267406   -7.1631808    13.473063  0.024407722   0.03271394            1 
   47000    1.2060605   -7.1455578    13.844175  0.024546408  0.032648498            1 
   48000    1.2252495   -7.1298223    14.202975  0.024657943  0.032586653            2 
   49000    1.2688636   -7.1488005    14.614706  0.024854941   0.03253391            1 
   50000    1.2576164   -7.1592783    15.050191  0.025083652  0.032505271            2 
   51000    1.2353322    -7.185225    15.377887  0.025127266  0.032485324            2 
   52000    1.2218811   -7.1521984    15.724811  0.025200018  0.032464679            2 
   53000    1.2498305   -7.1334855    16.112872  0.025334704  0.032421296            1 
   54000    1.2296333   -7.2062159     16.45796  0.025398086  0.032391926            5 
   55000    1.2214307   -7.1347778    16.891679  0.025593452  0.032366797            1 
   56000    1.2190457   -7.1258599    17.323449  0.025778942  0.032335755            1 
   57000    1.2393455   -7.1664705    17.554462  0.025664418  0.032308266            2 
   58000    1.2110351   -7.1898282    17.890427  0.025704636  0.032256561            1 
   59000    1.2311331   -7.1902234    18.327786  0.025886703  0.032216255            1 
   60000    1.2204842   -7.1395168    18.736456  0.026022856  0.032188073            1 
   61000    1.2243935   -7.1645772    19.071665  0.026054187  0.032152992            1 
   62000    1.2140964   -7.1391475    19.372095  0.026037762  0.032111041            1 
   63000    1.2629703   -7.1502743    19.671675  0.026020733  0.032053124            2 
   64000    1.2400495   -7.1792574    19.973163  0.026006722  0.031994701            4 
   65000    1.2285304   -7.1611015     20.37736  0.026124821  0.031928808            2 
   66000    1.2356727   -7.2193618    20.710858  0.026150073  0.031872218            2 
   67000    1.2211812   -7.1899928    21.069467  0.026205804  0.031817438            1 
   68000    1.2344988   -7.1599012    21.533599  0.026389215  0.031775808            1 
   69000    1.2211462    -7.167413    22.035762  0.026613238  0.031751274            4 
   70000    1.2194668   -7.1937669    22.326828  0.026579557  0.031726342            1 
   71000    1.2252311   -7.2200197     22.62614  0.026556503  0.031699212            3 
   72000    1.2109185   -7.1158182    23.220432  0.026875499  0.031685487            3 
   73000    1.2400614   -7.1719703      23.4442  0.026762785  0.031675558            1 
   74000    1.2074342   -7.1534559    23.824518  0.026829412  0.031657109            3 
   75000    1.2284191   -7.1714139    24.026604  0.026696227  0.031621274            2 
   76000    1.2341137   -7.1870815    24.554186   0.02692345  0.031589771            3 
   77000     1.212939   -7.1853769    24.849414  0.026893305  0.031566025            3 
   78000    1.2515934   -7.1718087    25.162098  0.026882583  0.031537192            2 
   79000    1.2154537   -7.1922879    25.303719  0.026691687  0.031496432            1 
   80000    1.2017108    -7.180799    25.794882  0.026869669  0.031453775            1 
   81000    1.2229007     -7.22293    25.983975  0.026732484  0.031412102            2 
   82000    1.1961289   -7.2007813     26.43007  0.026859827  0.031371451            2 
   83000    1.2182511   -7.1591047    26.831812   0.02693957  0.031332812            2 
   84000    1.1982858   -7.2140871     27.16365  0.026948066  0.031290656            2 
   85000    1.2188597   -7.1770782    27.638121  0.027096197  0.031254907            2 
   86000    1.2179082   -7.2230234     28.07262  0.027202151  0.031234214            1 
   87000    1.2265997   -7.2347532    28.467567  0.027267784  0.031221201            1 
   88000    1.2222222   -7.1608033    28.860021  0.027329565  0.031210494            2 
   89000    1.2274144   -7.2320589    29.193482  0.027334721  0.031198152            4 
   90000     1.233374   -7.2006556    29.580069  0.027388952  0.031187185            2 
   91000    1.2370869    -7.184223    30.013361  0.027484763  0.031176351            5 
   92000    1.2350819   -7.1865003    30.183599  0.027340216  0.031155498            1 
   93000    1.2026796   -7.2016804    30.592098  0.027412274  0.031133398            2 
   94000    1.1934124      -7.2144    31.033022  0.027511544  0.031117592            2 
   95000    1.2186069   -7.2136565    31.451836  0.027589329  0.031105067            5 
   96000    1.1925315   -7.1901622    31.712294  0.027528033    0.0310963            1 
   97000    1.2167252   -7.1466142    32.277241  0.027729588  0.031088158            9 
   98000    1.1904723   -7.2328198    32.302313  0.027467953  0.031074119            1 
   99000    1.2210727   -7.1885717    32.775678  0.027588954  0.031056373            2 
  100000    1.2216083    -7.181926    33.173191  0.027644325  0.031044403            1 
  101000    1.2003505   -7.1622448    33.578829  0.027705304  0.031030912            6 
  102000    1.2039141   -7.2192212      33.9653  0.027749428   0.03101697            1 
  103000      1.20829   -7.2269323    34.292475  0.027744721   0.03100233            1 
  104000    1.2090044   -7.2396793    34.571179  0.027701265  0.030991612            3 
  105000    1.2107744   -7.2345607    35.000272  0.027777994  0.030980268            1 
  106000    1.1934509   -7.2254675    35.423079  0.027848333  0.030967678            1 
  107000    1.2155313   -7.1943798    35.713667  0.027814382  0.030953809            1 
  108000     1.222798    -7.212794    35.997654  0.027775967  0.030936443            2 
  109000    1.2159076     -7.23754    36.174148  0.027656076   0.03091672            1 
  110000    1.1898164   -7.2289767    36.604879  0.027730969  0.030897454            2 
  111000    1.1980559    -7.256779    36.893368  0.027697724  0.030876208            1 
  112000    1.2338001     -7.20712    37.385808  0.027816821  0.030855715            1 
  113000    1.2506953   -7.2213184    37.651594  0.027766662  0.030832759            1 
  114000    1.2134665   -7.2156725    37.953022  0.027743437  0.030807341            1 
  115000    1.2074429   -7.2338796    38.177767  0.027665048   0.03078231            2 
  116000    1.2292273   -7.2728681    38.570654  0.027708803  0.030757018            4 
  117000    1.2030999   -7.2065113    39.135284  0.027874134  0.030734412            4 
  118000    1.1988396   -7.2098907    39.449207  0.027859609  0.030718352            1 
  119000     1.197733   -7.1937422    39.927281  0.027960281  0.030701835            3 
  120000    1.2189703   -7.1756604    40.329233  0.028006412  0.030691282            2 
  121000    1.2103872   -7.2538782    40.488683  0.027884768   0.03068084            2 
  122000    1.1942885   -7.2023336    41.095404  0.028070631  0.030672446            4 
  123000    1.2031164   -7.2084965    41.476657  0.028100716  0.030666126            2 
  124000    1.1883091   -7.2833306    41.609903  0.027963645    0.0306531            3 
  125000     1.232063   -7.2327198    41.982798  0.027988532  0.030639746            3 
  126000    1.2128714   -7.2426675     42.45351  0.028077718  0.030628167            2 
  127000      1.21099   -7.2038871    42.812419  0.028092138  0.030620449            1 
  128000    1.1892508   -7.2658962    43.186206  0.028116019  0.030611918            3 
  129000    1.2355973   -7.2596691       43.623  0.028180232  0.030606475            2 
  130000    1.1961398   -7.2858351    44.087328  0.028261107  0.030602674            2 
  131000    1.1938948   -7.2113506    44.544719  0.028336335  0.030600226            4 
  132000    1.2203621   -7.2609385    44.867161  0.028325228  0.030599825            1 
  133000    1.1940339   -7.2584997     45.07772  0.028244185  0.030601203            4 
  134000    1.1945161   -7.2364632    45.597675  0.028356763   0.03059552            3 
  135000    1.1971398   -7.2184586    45.873483  0.028316965  0.030589621            2 
  136000    1.1678345   -7.2740793    46.225863  0.028324671  0.030584177            3 
  137000    1.1902404   -7.2667586    46.585587  0.028336732  0.030580684            3 
  138000    1.2009137   -7.2428356    46.801553  0.028261807  0.030573677            2 
  139000    1.2015518   -7.1811403    47.457402   0.02845168  0.030568103            1 
  140000    1.1929909   -7.2629712    47.566044  0.028313122  0.030564379            3 
  141000    1.2088815   -7.2780607    47.849409  0.028279793  0.030558186            2 
  142000    1.1899439   -7.1989012    48.421119  0.028416149  0.030552269            2 
  143000    1.2072639   -7.2863278    48.935129  0.028516975  0.030551479            2 
  144000    1.2119491   -7.2506516    49.550841  0.028675255  0.030556568            2 
  145000    1.2100327   -7.2414884    49.783155  0.028611009  0.030561809            3 
  146000     1.181317   -7.2891182    49.773827  0.028409718  0.030565573            1 
  147000    1.1746341   -7.2781971    50.335178  0.028534681   0.03056781            2 
  148000    1.1881058   -7.2563779    50.723352  0.028560446  0.030568775            3 
  149000    1.1783549   -7.2092249    51.134457   0.02859869  0.030569107            3 
  150000     1.184761   -7.3191029    51.195222   0.02844179  0.030566449            5 
  151000    1.2054391   -7.2253141    51.875404   0.02862881  0.030564755            1 
  152000    1.2066877   -7.2423111    52.373349  0.028713459  0.030566629            3 
  153000    1.1672335    -7.264746    52.529324  0.028610743  0.030566304            2 
  154000     1.230063   -7.2357361    52.907585  0.028629646  0.030565413            3 
  155000     1.207625   -7.2643632    53.098124  0.028547379  0.030559291            2 
  156000    1.1787106   -7.2275807    53.299296  0.028471846  0.030554204            4 
  157000    1.1818375   -7.2427303    53.757025  0.028533453  0.030544625            2 
  158000    1.1791105   -7.2547163    54.036096  0.028500051  0.030535135            2 
  159000    1.1987367   -7.2812753    54.123576  0.028366654   0.03052473            4 
  160000    1.1975036   -7.2951077    54.377425  0.028321575  0.030509836            4 
  161000    1.1587582   -7.2613127    54.717086  0.028321473  0.030493204            2 
  162000    1.1940015   -7.2422263    55.013604  0.028299179  0.030474032            2 
  163000    1.1899056   -7.2803504    55.140239  0.028190306  0.030456406            1 
  164000    1.2010363   -7.2926845    55.678362   0.02829185  0.030438596            1 
  165000    1.1952789   -7.3196982    55.830414  0.028197179  0.030422344            1 
  166000    1.2064996   -7.2437412    56.290303  0.028258184  0.030406045            2 
  167000    1.1759236   -7.2544061     56.61824  0.028252615  0.030386952            2 
  168000    1.1949991   -7.2818117    56.723471  0.028136642  0.030366876            3 
  169000    1.1731996   -7.2756019    57.089582  0.028150681  0.030345313            2 
  170000    1.2047615   -7.2922453    57.396824  0.028135698  0.030323515            1 
  171000    1.1808596   -7.3106309      57.7608  0.028148538  0.030303291            5 
  172000    1.1955579    -7.216931    58.436249  0.028312136  0.030284596            1 
  173000    1.2127918   -7.2766619    58.715539  0.028283015    0.0302709            3 
  174000    1.1853517   -7.3180629    58.751383  0.028137635  0.030253708            3 
  175000    1.1943015   -7.2322822    59.127129  0.028155775  0.030233985            2 
  176000    1.1697686   -7.2599758    59.325909  0.028089919   0.03021378            2 
  177000    1.2054834   -7.3198518    59.398939  0.027965602  0.030189824            1 
  178000    1.1672344   -7.2814897    59.860859  0.028024747  0.030165427            1 
  179000    1.1782426   -7.2879725    60.161681  0.028008232  0.030142709            1 
  180000    1.1932199   -7.2704549    60.410714  0.027967923  0.030119357            2 
  181000    1.1802344   -7.3220669    60.470168  0.027840777  0.030094291            2 
  182000    1.1678944   -7.2835752    61.022731  0.027940811  0.030068079            5 
  183000    1.1598313   -7.2347791    61.457082  0.027985921  0.030044213            2 
  184000    1.1996715   -7.2912763    61.789584  0.027984413  0.030019663            1 
  185000     1.174958   -7.2610379    62.130925  0.027986903  0.029992751            2 
  186000     1.168354   -7.2613239     62.32002  0.027921156  0.029968346            3 
  187000    1.1914897   -7.2715696    62.826493  0.027997546  0.029947932            2 
  188000     1.189133   -7.2872621    63.021677   0.02793514  0.029926685            1 
  189000    1.1977166   -7.3056175     63.37263  0.027942076  0.029904837            2 
  190000    1.1720808   -7.2980761    63.712043  0.027943878    0.0298806            1 
  191000     1.165775   -7.2853109    63.882357  0.027871884  0.029854926            1 
  192000    1.1825665    -7.320208    64.029952  0.027790778  0.029831317            2 
  193000    1.1969296   -7.2749664    64.178108  0.027710755  0.029806982            2 
  194000    1.1900373   -7.2867867    64.530108  0.027719119  0.029779172            1 
  195000    1.1575784   -7.3003629    64.719744   0.02765801  0.029750818            4 
  196000    1.1553303   -7.3132812    65.073201  0.027667177  0.029725944            1 
  197000    1.1817408   -7.3222614    65.636601   0.02776506  0.029701303            1 
  198000    1.1794197   -7.3243916    66.084697  0.027813425  0.029675638            2 
  199000     1.173389    -7.322087    66.139604  0.027696652  0.029650056            2 
  200000    1.1909994    -7.316236    66.359727  0.027649886  0.029623463            2 
  201000    1.1610609   -7.3035883    66.734692  0.027667783  0.029597422            2 
  202000     1.171917   -7.2805308    67.315647  0.027770481  0.029575227            8 
  203000    1.2005994    -7.326241    67.656609  0.027773649  0.029552124            1 
  204000    1.1536746   -7.3236415    67.794252   0.02769373  0.029529495            2 
  205000     1.175115   -7.2671287    68.379011  0.027796346  0.029507692            1 
  206000    1.1529293   -7.3107249    68.027111  0.027519058  0.029483035            3 
  207000    1.1845666   -7.2735429     68.73681  0.027671823  0.029457033            3 
  208000    1.1841963   -7.2438132    68.939849  0.027620132  0.029432091            2 
  209000    1.1530745   -7.2962011    69.392561  0.027668485  0.029408429            2 
  210000     1.176031   -7.3557926    69.501107  0.027579804  0.029385187            4 
  211000    1.1660539   -7.2943675    69.846339  0.027585442  0.029362628            4 
  212000    1.1763184   -7.3058729    70.219055   0.02760183   0.02934032            5 
  213000    1.1752414   -7.3126706    70.636002  0.027635369  0.029317904            2 
  214000    1.1663015   -7.3287369    70.777622  0.027561379  0.029293769            2 
  215000    1.1545081   -7.3337321    71.231916   0.02760927   0.02926979            2 
  216000    1.1784679    -7.317849    71.430141  0.027557925   0.02924647            9 
  217000    1.1550744   -7.3124574    71.891324  0.027608035  0.029223754            2 
  218000    1.1582853   -7.3323752    71.962267  0.027508512  0.029200753            3 
  219000    1.1729819   -7.2841932    72.049032  0.027415918  0.029176599            3 
  220000    1.1772614   -7.3329138    72.258351  0.027370587  0.029150235            3 
  221000    1.1318929   -7.3020007    72.942156  0.027504584  0.029123402            2 
  222000    1.1825886   -7.3342952    73.090183  0.027436255  0.029097269            1 
  223000    1.1471737   -7.3182999    73.371596  0.027418384  0.029073047            2 
  224000    1.1837591   -7.3775726    73.574168  0.027371342  0.029048821            1 
  225000    1.1485177   -7.3284507    73.875541  0.027361311  0.029024468            4 
  226000    1.1670851   -7.3188378    74.514372  0.027475801  0.029001696            2 
  227000    1.1357524   -7.3183189    74.822596  0.027467913  0.028981366            2 
  228000    1.1834959   -7.3183622     75.03386  0.027424656  0.028962158            3 
  229000    1.1774369   -7.3401431    75.390848  0.027434806  0.028942116            2 
  230000     1.173301   -7.3486803    76.000979  0.027536586  0.028922624            4 
  231000    1.1748643   -7.3708461    75.886839  0.027376205  0.028903629            2 
  232000    1.1684926   -7.3595774    76.439898   0.02745686  0.028884159            1 
  233000     1.139852   -7.3664113    76.599145  0.027395974  0.028865512            2 
  234000    1.1717654   -7.3319549    77.054686  0.027441127  0.028846545            2 
  235000    1.1581199   -7.3397133      77.2779  0.027403511   0.02882695            3 
  236000    1.1922985    -7.357837    77.073169  0.027215102  0.028805717            3 
  237000    1.1647708   -7.3519459    77.788408  0.027351761  0.028783395            2 
  238000    1.1427375   -7.3039174    78.245888   0.02739702  0.028762519            4 
  239000    1.1665055   -7.3606513    78.016302  0.027202337  0.028740724            2 
  240000    1.1278896   -7.3760583    78.733571  0.027338046  0.028719671            1 
  241000    1.1558918   -7.3394587    79.374589  0.027446262  0.028700826            2 
  242000    1.1600737   -7.3848142    79.155528  0.027257413  0.028681989            2 
  243000    1.1618471   -7.3738019    79.170976  0.027150541  0.028660202            1 
  244000    1.1350541   -7.3351042    79.754167  0.027238445  0.028638341            4 
  245000    1.1461023   -7.3289491    80.215967  0.027284342  0.028618864            2 
  246000    1.1504732   -7.3456341    80.328619  0.027211592  0.028598558            5 
  247000    1.1390732   -7.3625873    80.339688  0.027105158  0.028577595            3 
  248000    1.1360829   -7.3532996    80.911317  0.027187942  0.028557248            2 
  249000    1.1526617   -7.3800464    81.198056  0.027174718  0.028536391            2 
  250000      1.16447   -7.3663639    81.578573  0.027192858  0.028515575            7 
  251000    1.1505371   -7.3572932    81.720204  0.027131542  0.028494327            3 
  252000    1.1521699   -7.3416555    82.025999     0.027125  0.028471916            2 
  253000    1.1750555   -7.3117792    82.136421  0.027054157  0.028449837            2 
  254000    1.1574206    -7.352783    82.600863  0.027100021  0.028428508            3 
  255000    1.1661958   -7.3477902     82.93211  0.027101997  0.028408117            4 
  256000    1.1495371   -7.3589865    83.183253  0.027077882  0.028387752            2 
  257000    1.1573959   -7.4157717    83.112743  0.026949657  0.028366067            1 
  258000    1.1352133   -7.4078385    83.327681  0.026914626   0.02834287            4 
  259000    1.1458547   -7.3405011    83.415172  0.026838858  0.028318697            2 
  260000    1.1411347   -7.3720184    84.198007  0.026986541  0.028295848            4 
  261000    1.1710358   -7.3908508    84.288096  0.026911908  0.028272667            1 
  262000    1.1656099   -7.3490139    84.604339  0.026909777  0.028249456            2 
  263000    1.1546835   -7.3509651    84.983321  0.026927541  0.028226995            1 
  264000    1.1631636   -7.3762617    85.061184  0.026850121  0.028203234            4 
  265000     1.134321   -7.4087545    85.179919  0.026786138  0.028179721            1 
  266000    1.1351332   -7.4161977     85.29844  0.026722569  0.028155818            2 
  267000    1.1560781   -7.3807954    86.056039  0.026858938  0.028130977            1 
  268000    1.1368855   -7.3372084    86.440837   0.02687837  0.028106888            4 
  269000    1.1538018   -7.3740738    86.304717  0.026736281   0.02808386            4 
  270000    1.1447052   -7.3629719    86.957587  0.026838761  0.028060691            2 
  271000    1.1288601    -7.419219    86.955899  0.026739206   0.02803858            3 
  272000    1.1352982   -7.3987243    87.364342  0.026766036  0.028015545            4 
  273000    1.1435033   -7.4466378    87.139379  0.026599322  0.027993902            3 
  274000    1.1528014   -7.3855263    87.725177  0.026680406  0.027970313            3 
  275000    1.1378576   -7.3928508    88.368851   0.02677844  0.027947198            5 
  276000    1.1252143   -7.3894601    88.099349  0.026600045  0.027923991            3 
  277000    1.1352613    -7.415321    88.306478  0.026566329  0.027900072            3 
  278000    1.1327732   -7.4075389    88.378036  0.026492217  0.027876323            3 
  279000    1.1521907   -7.3766095    88.627783  0.026471859  0.027851735            3 
  280000    1.1237824   -7.4006449    88.987039  0.026484238   0.02782821            2 
  281000    1.1135185   -7.3695666    89.733301  0.026611299  0.027804594            2 
  282000    1.1343443   -7.4097237     89.56451  0.026467054  0.027780808            8 
  283000    1.1322989   -7.4202117    89.485088  0.026350144  0.027756124            3 
  284000    1.1369581   -7.4181657    89.611613  0.026294487  0.027729824            2 
  285000    1.1408671   -7.3851251    90.225716  0.026381788  0.027703912            4 
  286000    1.1339237   -7.4371899    90.432263  0.026349727  0.027678055            2 
  287000    1.1646788   -7.4058451    90.498604  0.026277179  0.027652862            2 
  288000    1.1202296   -7.4229205     91.19218  0.026386626  0.027627762            3 
  289000    1.1377111   -7.4217773    91.322006  0.026332758   0.02760396            2 
  290000    1.1368084   -7.3795739    91.868573  0.026399015  0.027579825            3 
  291000    1.1324342   -7.4103898    92.047605  0.026359566  0.027555469            3 
  292000     1.148424   -7.3793015    92.591105  0.026424402  0.027531809            1 
  293000    1.1161637   -7.3630372    92.900684  0.026422265   0.02750866            2 
  294000    1.1488518   -7.3922532    92.986634  0.026356756  0.027485422            1 
  295000    1.1314079   -7.3553625    93.283248    0.0263512  0.027463279            4 
  296000    1.1206292   -7.3682686      93.4346  0.026304786  0.027440753            4 
  297000    1.1473438   -7.3605627    94.115252  0.026407198  0.027419157            5 
  298000    1.1350156   -7.3706352    94.017779  0.026291325  0.027397735            2 
  299000    1.0889471   -7.4074838    94.086749  0.026222617  0.027374416            2 
  300000    1.1181402   -7.4189375    94.482191  0.026245053  0.027351727            2 
  301000    1.1588914   -7.3366967    95.198225  0.026356098  0.027330493            2 
  302000    1.1433514   -7.3910298    95.361707  0.026313937  0.027309521            1 
  303000     1.122907   -7.3906439    95.321631   0.02621607  0.027286812            2 
  304000    1.1191391    -7.460887    95.016697  0.026046244   0.02726349            2 
  305000    1.1511324   -7.4276694    95.569222  0.026111809  0.027240253            2 
  306000    1.1496662   -7.3966896    96.082828  0.026166347  0.027217196            2 
  307000    1.1334745    -7.444135    96.103623   0.02608676   0.02719433            2 
  308000    1.1127634   -7.4098212    96.409472  0.026084814  0.027172184            1 
  309000    1.1478076    -7.393973    97.028391  0.026167311  0.027150814            2 
  310000    1.1313115   -7.4153104    97.020273  0.026080718   0.02712903            2 
  311000    1.1131529   -7.4260667    97.350562   0.02608536  0.027107827            1 
  312000    1.1584816   -7.4325523    97.766061   0.02611273  0.027086847            5 
  313000    1.1661548   -7.4487776    97.413925   0.02593555  0.027064246            2 
  314000    1.1381814   -7.4517426    97.631331  0.025910651  0.027041242            2 
  315000     1.139343    -7.414252    98.062886  0.025942562  0.027018748            3 
  316000    1.1213988   -7.4207499     97.90534  0.025818919  0.026995451            3 
  317000    1.1397407   -7.4454759    98.388393  0.025864457  0.026972125            1 
  318000     1.109557    -7.425862    98.645606  0.025850526  0.026949106            1 
  319000    1.1025592   -7.4526671    98.714267  0.025787426  0.026925826            4 
  320000    1.1354648   -7.4403392    99.230282  0.025841219  0.026901984            2 
  321000    1.1438433    -7.422935    99.670888  0.025875101  0.026879483            3 
  322000    1.1313666   -7.4360096    99.435997  0.025733954  0.026856876            3 
  323000    1.1396614   -7.4382196    99.962301  0.025790067  0.026833063            2 
  324000    1.1252806   -7.4258973    99.847921  0.025681049  0.026809611            2 
  325000    1.1118851   -7.5038642    100.04354  0.025652189  0.026786082            2 
  326000    1.1222183   -7.4507149    100.56037  0.025705617  0.026761967            4 
  327000     1.122044   -7.3697714    101.26472  0.025806503   0.02673875            1 
  328000    1.1246668   -7.4422113    100.96964  0.025652856  0.026715953            3 
  329000    1.1226101   -7.4164657    101.15939  0.025622947  0.026692086            2 
  330000      1.11548   -7.4806875    100.90521  0.025481112  0.026666801            2 
  331000    1.0970855   -7.4427216    101.26794  0.025495453   0.02664112            7 
  332000    1.1239118   -7.4385424    101.56682  0.025493679   0.02661543            2 
  333000    1.1099099    -7.439498    101.61483  0.025429136  0.026589228            3 
  334000    1.0915793   -7.4189995    102.18405  0.025495023   0.02656406            3 
  335000       1.1406   -7.4257738     102.2588  0.025437512  0.026538785            1 
  336000    1.1051061   -7.4437164     102.8327  0.025504143  0.026514091            1 
  337000    1.1174288      -7.4502    103.04004  0.025479734  0.026489747            2 
  338000    1.1269331   -7.4650994     102.8341  0.025353574  0.026465731            2 
  339000      1.14272   -7.4630335    103.27469  0.025387093   0.02644119            3 
  340000    1.1199151   -7.4759615     103.3749  0.025336984  0.026416657            2 
  341000    1.0960871   -7.4818537    103.51078  0.025295891  0.026391611            3 
  342000    1.0899116   -7.4206838    104.08723  0.025362386  0.026367809            3 
  343000    1.1245353   -7.4487798    104.06042   0.02528193  0.026344177            2 
  344000    1.1049478    -7.401775    104.49321  0.025313277  0.026320163            5 
  345000    1.1106575   -7.4408203    104.37223  0.025210685  0.026295629            3 
  346000    1.1315617   -7.4558137    104.31471  0.025123968  0.026269486            3 
  347000     1.107051   -7.4448984    104.66923  0.025136702  0.026242801            4 
  348000    1.1605515   -7.4346727    105.41192  0.025242319  0.026217841            1 
  349000    1.0843661   -7.4491651     105.5686  0.025207401  0.026193752            3 
  350000    1.1258776   -7.4511968    105.84164  0.025200392  0.026169441            1 
  351000     1.087695   -7.4598458    105.92211  0.025147699  0.026144909            4 
  352000    1.1195576   -7.4396357    106.27097  0.025158847  0.026121813            1 
  353000    1.1253446   -7.4604166    106.91728  0.025240152  0.026098625            2 
  354000    1.1270314   -7.5094754    106.59856  0.025093824  0.026075104            4 
  355000    1.1302681   -7.4974526    107.01571  0.025121058  0.026051837            2 
  356000    1.1103134   -7.4650649    107.13024  0.025077304  0.026029759            1 
  357000    1.1238805   -7.4750913    107.76268  0.025154687   0.02600788            3 
  358000    1.1142462   -7.4333211     108.5283   0.02526264   0.02598667            2 
  359000    1.1279513   -7.4821487    108.27778  0.025134118  0.025965276            5 
  360000    1.0943178   -7.4526478    108.47702  0.025110422  0.025944371            3 
  361000    1.1206371   -7.5025282    108.38562  0.025019765  0.025923242            3 
  362000    1.1119563   -7.4863143    108.80141  0.025046365  0.025901388            1 
  363000    1.1103996   -7.4926253     108.9039  0.025000896   0.02588025            1 
  364000    1.1064839   -7.4580159    108.88516  0.024927922   0.02585818            2 
  365000    1.1047401   -7.4621607    109.50082  0.025000186  0.025836557            2 
  366000    1.1046287   -7.4774283    109.40233  0.024909456  0.025814226            2 
  367000    1.1055997   -7.5579765    109.30255  0.024818926  0.025790964            2 
  368000    1.0990459   -7.4929694    110.05724  0.024922383  0.025768039            2 
  369000    1.0960729   -7.5269144    109.91595  0.024822933  0.025746075            2 
  370000    1.0834723     -7.40962    111.30386  0.025068437  0.025724157            2 
  371000    1.1027132   -7.4689584      111.114  0.024958221  0.025702515            2 
  372000    1.0917393   -7.4959954    110.99441  0.024864338  0.025680372            2 
  373000    1.1227205   -7.4938843    111.13813  0.024829789  0.025657727            2 
  374000    1.1250422   -7.4807913    111.46916  0.024837157   0.02563473            3 
  375000    1.0789181   -7.5149603      111.606  0.024801334  0.025612551            2 
  376000    1.1031587   -7.4383948    112.08693  0.024841961  0.025590451            2 
  377000    1.1285319   -7.5253148    112.24801  0.024811673  0.025568488            8 
  378000    1.1062404   -7.4660797    112.84345  0.024877305  0.025547028            2 
  379000    1.0960329   -7.4252593    112.59819  0.024757739  0.025525773            3 
  380000    1.0837524   -7.5238691    112.60679  0.024694471  0.025504067            3 
  381000    1.1150297   -7.4607996    113.11776  0.024741418  0.025482524            3 
  382000    1.1002093   -7.4343504     113.6591  0.024794744  0.025461835            5 
  383000    1.0688149   -7.5014286    113.75183  0.024750181  0.025440971            1 
  384000    1.1084697   -7.5009969      113.572  0.024646702  0.025419727            3 
  385000    1.0860457   -7.4469688    114.27427   0.02473469  0.025398219            3 
  386000    1.0972225   -7.4611526    114.60625  0.024742283  0.025377417            3 
  387000    1.0873057   -7.4694236    114.79314  0.024718592  0.025357399            1 
  388000    1.0850812    -7.499833    114.94954  0.024688475  0.025336955            7 
  389000     1.119223   -7.4982831    115.13715    0.0246652  0.025316775            6 
  390000    1.1009189   -7.5025838    114.99866  0.024572363  0.025295893            4 
  391000    1.0847134   -7.5027077    115.13042    0.0245376    0.0252754            4 
  392000     1.088859   -7.4864922    115.58085   0.02457076  0.025254121            4 
  393000    1.0969248   -7.5045433    115.73687  0.024541322  0.025232678            2 
  394000    1.0998392   -7.4652593    115.97198   0.02452876  0.025211939            2 
  395000    1.0789442   -7.5134251    116.12823  0.024499626  0.025191221            2 
  396000    1.0886657   -7.4772329    116.30341  0.024474624  0.025170145            1 
  397000    1.1091441   -7.5124205    116.68491  0.024493054  0.025149185            2 
  398000     1.098121   -7.5263273    116.39401  0.024370606  0.025127711            3 
  399000    1.1171062   -7.4991717    117.22999  0.024484126   0.02510627            2 
  400000    1.0904311   -7.4878576    117.48168  0.024475351  0.025086114            5 
  401000    1.1000432   -7.5456902    117.40828  0.024399061  0.025065747            4 
  402000    1.0990533   -7.5321719    117.57211  0.024372328  0.025045513            1 
  403000    1.1306533   -7.5067552    118.04258  0.024409135  0.025025557            5 
  404000    1.1149515   -7.4768344    118.41558  0.024425656  0.025006096            1 
  405000    1.1098591   -7.4854811    118.74086  0.024432275  0.024986553            3 
  406000     1.071837   -7.5658867    118.31572  0.024284836  0.024966473            2 
  407000    1.0984408   -7.5232868    118.53982  0.024271051  0.024945951            2 
  408000    1.0776345   -7.5394638    118.69992  0.024244265  0.024924776            2 
  409000    1.0778935   -7.5208969    118.95381  0.024236718  0.024903683            2 
  410000    1.0696741   -7.5019399    119.65477  0.024320074  0.024883203            2 
  411000    1.0748544   -7.4941712    119.64429  0.024258777  0.024863159            3 
  412000    1.1073426   -7.5218818    119.54187  0.024179182  0.024842629            3 
  413000    1.1167119   -7.5268471    119.68581   0.02414968  0.024821814            3 
  414000     1.074406   -7.5006112    120.28786  0.024212532  0.024801099            5 
  415000     1.091187   -7.4951097    120.34917  0.024166501   0.02478041            1 
  416000     1.075228   -7.5300674    119.92355  0.024023147   0.02475915            6 
  417000    1.0927778   -7.5463161    120.80518  0.024141722  0.024738375            2 
  418000    1.0924069   -7.5240536    121.04572  0.024131922  0.024717325            3 
  419000    1.0579688   -7.5473316    121.40036  0.024144861  0.024696915            2 
  420000    1.0880572   -7.5636147    121.33077  0.024073566  0.024677116            4 
  421000    1.0789722   -7.5556186     121.5268  0.024055186  0.024657219            2 
  422000    1.1054083   -7.5613172    122.37031  0.024164753   0.02463728            2 
  423000    1.0743228   -7.5578761    122.35475   0.02410456  0.024617466            2 
  424000    1.1148526   -7.5337794    122.37626  0.024051937  0.024598228            2 
  425000    1.0667135   -7.5487106    122.48219  0.024016116  0.024578413            3 
  426000     1.078216   -7.5121178    123.05077  0.024070965  0.024558699            3 
  427000    1.0974304   -7.5634085    122.58576  0.023923841  0.024538791            4 
  428000    1.0655587   -7.5734968    122.89865  0.023928864  0.024518702            3 
  429000     1.079244   -7.5278291    123.57347   0.02400417  0.024499316           11 
  430000    1.1059428   -7.5416329    123.87633   0.02400704    0.0244798            2 
  431000    1.0940493   -7.5770356    123.63686  0.023905039   0.02446056            2 
  432000    1.0809277    -7.568745    123.95979  0.023911997  0.024440729            2 
  433000    1.0842701   -7.5702235    124.66581  0.023992649  0.024421624            2 
  434000    1.0755212   -7.5570842    124.45629  0.023897137  0.024402643            1 
  435000      1.08832   -7.5486366    124.79504  0.023907096  0.024383794            4 
  436000    1.0853002   -7.5244524    124.44122  0.023784637  0.024364181            2 
  437000    1.0867276   -7.5825184    125.16865  0.023868926  0.024344871            6 
  438000      1.07804   -7.5541381     125.3227   0.02384374  0.024325778            2 
  439000    1.0753628   -7.5801277    125.40632  0.023805299  0.024306223            2 
  440000    1.0757952   -7.5597095     125.7759  0.023821194  0.024286376            4 
  441000    1.0751743   -7.5586378    125.79363  0.023770527  0.024266806            9 
  442000    1.0658226   -7.6244279    126.05418   0.02376587  0.024248137            2 
  443000    1.1051781   -7.5598713    126.30219  0.023758876  0.024228975            3 
  444000     1.083033   -7.6091926    126.49775  0.023742071  0.024209701            3 
  445000    1.0888067   -7.5850604    126.51808  0.023692524   0.02418996            2 
  446000    1.0679839   -7.5686381    126.86797  0.023704778  0.024170467            1 
  447000    1.0730384   -7.5444543     127.5751  0.023783576   0.02415167            8 
  448000     1.055421   -7.5294426    127.36793  0.023691951  0.024133128            2 
  449000     1.070825   -7.5181643     127.7948  0.023718411   0.02411507            1 
  450000    1.0974697   -7.5588548    127.58577  0.023626995  0.024096048            3 
  451000    1.0728391   -7.5587915    127.49899  0.023558571  0.024076497            7 
  452000    1.0869784   -7.5539177    127.56762  0.023519104  0.024056645            3 
  453000    1.0676721   -7.5747663    128.02365  0.023551076  0.024037405            4 
  454000    1.0576404   -7.5730476    127.69546   0.02343896  0.024018369            3 
  455000    1.0695436   -7.6030266      128.334  0.023504395   0.02399861            5 
  456000      1.05645   -7.5931551    128.21788  0.023431631  0.023978598            2 
  457000    1.0506123   -7.6020569    128.74164  0.023475865  0.023959014            2 
  458000    1.0651151   -7.5995132    128.91107  0.023455436  0.023938917            1 
  459000    1.0670517   -7.5854427    128.99933  0.023420358  0.023919362            3 
  460000    1.0432349   -7.5741593    129.07064  0.023382362  0.023899606            2 
  461000    1.0833762   -7.5819001    129.53584  0.023415735  0.023880493            4 
  462000     1.066756   -7.6202483    129.75501  0.023404583  0.023861086            4 
  463000    1.0671502   -7.6035287    130.02868  0.023403289  0.023842055            2 
  464000    1.0530037   -7.5803309    130.58034  0.023451929  0.023823356            1 
  465000    1.0919227    -7.604944    130.70076  0.023423076  0.023804285            3 
  466000    1.0850049   -7.5949439    130.30996  0.023302926  0.023785836            2 
  467000    1.0701591   -7.5911908    130.69885  0.023322422  0.023767367            1 
  468000    1.0721204   -7.6454174    130.33718  0.023208187   0.02374828            3 
  469000    1.0574821   -7.6073044    130.86865  0.023253137  0.023729222            4 
  470000    1.0829704   -7.5428301    131.17785  0.023258484  0.023710386            7 
  471000    1.0551615   -7.6209595    131.57245   0.02327892  0.023691585            2 
  472000    1.0637945   -7.6036933     131.7451  0.023260081  0.023673079            2 
  473000    1.0767031   -7.5546732    132.02693  0.023260558   0.02365506            3 
  474000    1.0830318   -7.6119218    132.35865  0.023269804  0.023637043            1 
  475000    1.0494028   -7.6212828    132.08682  0.023173126  0.023617995            2 
  476000    1.0551413   -7.6345529    132.73026  0.023237089  0.023599489            2 
  477000    1.0599393    -7.582306     132.8251  0.023204943  0.023581314            2 
  478000    1.0854552   -7.6001587    132.97293   0.02318217  0.023562926            2 
  479000    1.0611238   -7.5836208    132.93122  0.023126518  0.023544375            1 
  480000     1.078544   -7.5923566    133.33341  0.023148161  0.023525669            3 
  481000    1.0618407   -7.5965422    133.54554  0.023136788  0.023507165            1 
  482000     1.057684   -7.6180951    134.20862  0.023203427  0.023489833            3 
  483000    1.0667108   -7.5541417    134.82398  0.023261557  0.023473018            3 
  484000     1.081412   -7.6231848    134.10764  0.023090159  0.023455752            2 
  485000    1.0630919    -7.649915    134.25112  0.023067202    0.0234377            2 
  486000    1.0574762   -7.6127088     134.4917  0.023060992  0.023419938            3 
  487000    1.0632014    -7.610338    135.01364  0.023102949  0.023402263            3 
  488000    1.0505791   -7.6078484    135.14664   0.02307832  0.023384964            4 
  489000    1.0474055   -7.6565784     135.1133  0.023025443  0.023367568            3 
  490000    1.0645901   -7.6463796    135.70971  0.023079883   0.02335029            4 
  491000    1.0633902   -7.5877269    136.09111  0.023097609   0.02333302            5 
  492000    1.0330932   -7.5956932    136.24372   0.02307651  0.023315938            2 
  493000    1.0568751   -7.6326381    135.84193  0.022961787  0.023299046            1 
  494000    1.0747493   -7.6400847    136.56905  0.023037963  0.023281969            3 
  495000    1.0473646   -7.6438353    136.53485  0.022985665  0.023265206            3 
  496000    1.0492286   -7.6392183    137.19293  0.023049888   0.02324878            4 
  497000    1.0869212   -7.5929323    137.82486  0.023109466  0.023232526            3 
  498000    1.0508859   -7.6102896    137.45537  0.023001233  0.023215884            5 
  499000    1.0525024   -7.5930941    137.69165  0.022994597  0.023199636            4 
  500000    1.0481729   -7.6291017    137.94299  0.022990499  0.023183418            3 
  501000    1.0449145   -7.6095196    138.49003    0.0230356  0.023167527            4 
  502000    1.0630789   -7.6066221     138.9943  0.023073423   0.02315165            3 
  503000    1.0429015    -7.627569    138.99649  0.023027915  0.023136111            4 
  504000     1.053315   -7.6598989    138.84999  0.022958001  0.023120917            4 
  505000    1.0569032   -7.6681923    139.19124  0.022968851  0.023105038            4 
  506000    1.0452483    -7.665072    138.96579  0.022886329  0.023089029            4 
  507000    1.0242062   -7.6274774    139.80618  0.022979319  0.023073627            4 
  508000    1.0533356   -7.6468643    139.94658  0.022957116   0.02305864            3 
  509000    1.0639556   -7.6197492    140.80923  0.023053247  0.023044246            2 
  510000    1.0688304   -7.6123966    141.07622   0.02305167  0.023029943            3 
  511000    1.0671745   -7.6535564    140.68691   0.02294307  0.023015246            2 
  512000    1.0440105   -7.6222574    141.21623  0.022984412  0.023000763            2 
  513000    1.0515643   -7.6379854    140.85899  0.022881577  0.022986262            6 
  514000    1.0407872   -7.6582974     141.1487  0.022884031  0.022971167            1 
  515000    1.0611003   -7.6718573    141.20047  0.022847972  0.022955952            3 
  516000    1.0227055   -7.6924923    140.96747  0.022766065  0.022940786            3 
  517000    1.0487104   -7.6646306    141.58627  0.022821772  0.022925622            2 
  518000    1.0678379     -7.64124    142.02392  0.022848121  0.022910896            3 
  519000    1.0552877   -7.6369746    141.82738  0.022772541  0.022896019            3 
  520000    1.0372707   -7.6437969    142.23522  0.022794106  0.022880887            2 
  521000    1.0157676   -7.6770518    142.63936  0.022814997  0.022866023            2 
  522000    1.0485186   -7.6851081    142.21115   0.02270293   0.02285089            2 
  523000    1.0251135   -7.6587655    142.74585  0.022744717  0.022835701            6 
  524000    1.0616311   -7.6621302    143.27649  0.022785701  0.022820855            2 
  525000    1.0426145   -7.6861933     142.8217  0.022670111  0.022805639            2 
  526000    1.0629868   -7.6384626    143.49703  0.022734003  0.022790277            6 
  527000    1.0805602   -7.6268244     143.1528  0.022636432   0.02277474            3 
  528000    1.0347677   -7.6030458    143.50326  0.022648873  0.022759378            5 
  529000    1.0580383   -7.6059031    143.59663  0.022620766  0.022744218            4 
  530000    1.0514774   -7.6451415    143.61603  0.022581137  0.022728428            4 
  531000    1.0152601    -7.650278    143.50261  0.022520811  0.022712391            6 
  532000    1.0358827   -7.6570822    143.72511  0.022513331  0.022696515            6 
  533000    1.0619647   -7.6700016    143.87084  0.022493877  0.022680709            5 
  534000    1.0491493   -7.6344701    143.69835  0.022424835  0.022664632            5 
  535000    1.0421377   -7.6502406    144.43411  0.022497525  0.022648702            1 
  536000     1.031625   -7.6640011    144.64017  0.022487589  0.022632586            2 
  537000    1.0283126   -7.6046429    144.77065   0.02246596  0.022616432            2 
  538000     1.037277   -7.6946153    144.43587  0.022372347   0.02260013            1 
  539000      1.03933   -7.6443962    145.53843  0.022501303  0.022583916            4 
  540000    1.0222589   -7.6644053    144.72297  0.022333791  0.022567441            4 
  541000    1.0461711   -7.7124926    145.15229   0.02235864   0.02255088            4 
  542000    1.0301909    -7.666338    145.77414  0.022412998  0.022534486            6 
  543000    1.0198526   -7.6856979    145.76448  0.022370239  0.022518123            4 
  544000    1.0418505    -7.649159    145.77177  0.022330235  0.022501956            6 
  545000    1.0826024   -7.6996886    145.95066  0.022316615  0.022485464            5 
  546000    1.0104513   -7.7057571    145.87697  0.022264495  0.022468987            4 
  547000    1.0338231   -7.6572232    146.55572  0.022327197  0.022452641            4 
  548000    1.0500703   -7.6832913    146.21498  0.022234639  0.022436306            4 
  549000    1.0182883   -7.6623561    146.85904  0.022291901  0.022420324            2 
  550000    1.0318732   -7.7080189    146.83444  0.022247642  0.022404451            1 
  551000    1.0216624    -7.704189    146.98335  0.022229786  0.022388346            4 
  552000    1.0257006   -7.6874572    147.25432  0.022230423  0.022372028            3 
  553000    1.0351459   -7.6783626    147.41123  0.022213869  0.022355726            4 
  554000     1.058289   -7.6825211    147.46233  0.022181458  0.022339682            2 
  555000    1.0341823   -7.6474732    148.06449  0.022231905  0.022323641            2 
  556000    1.0425699   -7.6735469    147.79243  0.022151144  0.022307591            1 
  557000    1.0265613   -7.6942386     147.9313  0.022132151  0.022291265            2 
  558000    1.0428759   -7.7031396    148.39348  0.022161512  0.022275251            4 
  559000    1.0194057   -7.7110506    148.64096   0.02215876  0.022259568            3 
  560000    1.0427443   -7.6931782    148.63899  0.022118897  0.022243462            2 
  561000    1.0346294   -7.7099763    149.16619  0.022157782  0.022228023            6 
  562000    1.0324305   -7.7200181    149.36286  0.022147517  0.022212561            2 
  563000    1.0386666   -7.6796673    149.15741   0.02207777  0.022197289            6 
  564000    1.0158588   -7.6896498    149.66467  0.022113574  0.022181596            3 
  565000    1.0237963    -7.714078     149.5233  0.022053585  0.022166285            5 
  566000    1.0236192   -7.7905518    149.64241  0.022032158  0.022150584            3 
  567000    1.0357938   -7.6648575    150.02899  0.022050115  0.022134891            3 
  568000    1.0135064   -7.6823283    150.17018   0.02203201  0.022119218            4 
  569000    1.0220787   -7.6798687    150.63076  0.022060744  0.022103743            2 
  570000    1.0340136   -7.6923267    150.52627  0.022006765  0.022088119            2 
  571000    1.0227856   -7.6593405    151.19057  0.022065173  0.022072789            2 
  572000    1.0436247   -7.6811515    151.29714  0.022042124  0.022057651           15 
  573000     1.012533   -7.6933339    150.78672  0.021929424  0.022042152            3 
  574000     1.003979   -7.7108793    150.86981  0.021903282  0.022026499            4 
  575000    1.0260915   -7.7516557    151.17514   0.02190944  0.022010462            1 
  576000    1.0367761   -7.7298408    151.28081  0.021886692  0.021994428           15 
  577000      1.04371   -7.7178616    150.98709  0.021806339  0.021978254            2 
  578000    1.0175338   -7.7361473    151.07452  0.021781217  0.021961824            5 
  579000    1.0191214   -7.7243361    151.46747  0.021800154  0.021945655            9 
  580000    1.0111133   -7.6828747    152.24165    0.0218738  0.021929794            7 
  581000    1.0289465   -7.7076297    152.00715  0.021802518  0.021914447            4 
  582000    1.0172512   -7.7223857    152.73243  0.021868905  0.021898768            3 
  583000    1.0259838   -7.6987704    152.32421  0.021773043  0.021883354            1 
  584000    1.0098767   -7.7197462    152.65396  0.021782814  0.021867716            5 
  585000    1.0213448   -7.7273248    152.72053  0.021755061  0.021851962            2 
  586000    1.0307656   -7.7280651     153.0115  0.021759314  0.021836409            3 
  587000     1.027538   -7.7276031    153.32191  0.021766313  0.021820813            2 
  588000     1.013468   -7.7203058    153.25655  0.021720033  0.021805125            2 
  589000    1.0262343   -7.7037608    153.62601  0.021735429  0.021789582            3 
  590000    1.0333532   -7.7008834    153.96598  0.021746607  0.021774292            4 
  591000     1.018823   -7.7189671    153.90624  0.021701387  0.021759109            2 
  592000    1.0375389   -7.7108023    153.90896  0.021665112  0.021744107            2 
  593000    1.0162038   -7.7217332    154.13022  0.021659672  0.021728883            1 
  594000    1.0138432   -7.7446988    154.49444  0.021674305  0.021713479            3 
  595000     1.023035   -7.7275078    154.54018  0.021644283  0.021698077            3 
  596000    1.0168993   -7.7556819    154.29313  0.021573425  0.021682659            2 
  597000    1.0247766   -7.7080443    154.88081   0.02161932  0.021667272            3 
  598000    1.0228374   -7.7346474    154.98898  0.021598242  0.021651869            3 
  599000    1.0311085   -7.7433203    155.02656  0.021567413  0.021636618            5 
  600000    1.0164562   -7.7393495    155.34777  0.021576079   0.02162145            2 
  601000    1.0124014   -7.7228711    155.59435  0.021574369  0.021606336            3 
  602000    1.0240578   -7.7452752    156.16361  0.021617332  0.021591447            4 
  603000   0.99370508   -7.7390337    156.41066  0.021615625  0.021576461            8 
  604000    1.0056826   -7.6895434    156.64762   0.02161253    0.0215618            4 
  605000    1.0227011   -7.7354676    156.44198  0.021548482  0.021547124            2 
  606000    1.0118955   -7.7384951    157.14755  0.021609949  0.021532338            5 
  607000    1.0306989   -7.7458505    157.05416  0.021561527  0.021517762            2 
  608000    1.0124043    -7.749025    157.15044  0.021539259  0.021503307            1 
  609000     1.032998    -7.727415    157.25887  0.021518729  0.021488774            2 
  610000    1.0091859   -7.7670773    157.19221  0.021474345  0.021474242            4 
  611000    1.0310712    -7.755927    157.81742  0.021524471  0.021460101            4 
  612000    1.0145258   -7.7956205    157.83219  0.021491311  0.021446148            4 
  613000    1.0101463   -7.7503739    158.02635  0.021482646   0.02143218            4 
  614000   0.99287885   -7.7377373    158.78028  0.021549984   0.02141851            4 
  615000     1.011833    -7.738698    158.93756  0.021536255  0.021404497            2 
  616000    1.0226896   -7.7443978    158.88173   0.02149374  0.021390872            4 
  617000    1.0170792   -7.6947112    159.48466  0.021540337  0.021377297            2 
  618000    1.0038126   -7.7591817    159.18173  0.021464635   0.02136379            3 
  619000    1.0022541   -7.7718876    159.42724   0.02146301  0.021350013            1 
  620000    1.0175729   -7.7668581    159.48527  0.021436192  0.021336422            2 
  621000    1.0037924   -7.7209379    160.22241  0.021500591  0.021322808            3 
  622000   0.99261322   -7.7250938     160.6368  0.021521544  0.021309456            4 
  623000   0.99587832   -7.7356037    160.47369   0.02146518  0.021296006            3 
  624000    1.0142906   -7.7701721    159.50751   0.02130175  0.021282308            4 
  625000    1.0160962   -7.7160541    160.26383   0.02136851  0.021268341            1 
  626000     1.002965   -7.7642797    160.57894  0.021376323  0.021254503            4 
  627000    1.0019852   -7.7661424    160.13799  0.021283624  0.021240463            5 
  628000    1.0110483   -7.7625852    160.23205  0.021262215  0.021226485            6 
  629000     1.020087   -7.7561865    160.39492   0.02124999  0.021212402            3 
  630000   0.99717772   -7.7841894    160.85071  0.021276549  0.021198345            3 
  631000    1.0138229   -7.7822553     161.3934  0.021314501  0.021184418            3 
  632000   0.99861388   -7.7590781    161.11275   0.02124377  0.021170611            2 
  633000    1.0134907   -7.7884781    161.37658  0.021244941  0.021156642            6 
  634000     1.002569   -7.8066177    161.26221    0.0211964  0.021142704            2 
  635000   0.99844276   -7.7839987    161.95757  0.021254274   0.02112912            4 
  636000    1.0134572   -7.7592744    162.24932  0.021259083  0.021115392            3 
  637000     1.014749   -7.7463744    162.55824  0.021266123  0.021101988           14 
  638000    1.0241211   -7.7805951    162.62726  0.021241805  0.021088551            2 
  639000    1.0003823   -7.8228924    162.27777  0.021162985  0.021074932            5 
  640000     1.023551   -7.7763288    162.67768  0.021181989  0.021061288            2 
  641000    1.0013752   -7.7853357    162.76649  0.021160489   0.02104747            2 
  642000   0.98317472   -7.8023259    162.84628  0.021137887  0.021033576            3 
  643000   0.99120653   -7.8223681    162.99006  0.021123646  0.021019723            9 
  644000    1.0039578   -7.8325683     162.5473  0.021033553  0.021005822            1 
  645000    1.0098611   -7.7553506    163.11613  0.021074436   0.02099197            1 
  646000    1.0227452    -7.798405     163.3455    0.0210714  0.020978389            2 
  647000    1.0023886   -7.7842578     164.0423  0.021128581  0.020964643            3 
  648000   0.99025382   -7.8074934    163.44533  0.021019204  0.020950907            3 
  649000   0.98002193   -7.7858253    163.93767  0.021050034  0.020937184            4 
  650000   0.98092772   -7.7854469    164.26439  0.021059538  0.020923768            2 
  651000   0.97432773   -7.8212822     164.3861  0.021042768  0.020910253            3 
  652000    0.9928272   -7.8375588    164.68318  0.021048463  0.020896582            4 
  653000   0.98145839   -7.8218438    164.49825   0.02099263  0.020883129            5 
  654000    0.9958681   -7.7985248    164.74096  0.020991457  0.020869734            4 
  655000   0.98583799   -7.7888242     165.0925  0.021004135  0.020856636            5 
  656000   0.99018228   -7.7909092    165.29059   0.02099728  0.020843543            2 
  657000   0.98380756   -7.7906917    165.55538  0.020998907  0.020830294            1 
  658000    1.0107551   -7.7813774    166.07236  0.021032467  0.020817247            3 
  659000    0.9937299   -7.8396047    165.61501  0.020942717  0.020803766            3 
  660000   0.97472199   -7.8146816    165.57011  0.020905317  0.020790231            2 
  661000   0.98714988   -7.8134758     165.4532   0.02085895  0.020776395            6 
  662000   0.99958293   -7.7748873    165.89399   0.02088293  0.020762877            4 
  663000   0.97284142   -7.8206793    165.60519  0.020815132  0.020749051            5 
  664000   0.97935847   -7.8328159    166.01613  0.020835358  0.020734988            3 
  665000    1.0015231   -7.8239166    166.16352  0.020822497  0.020721031            4 
  666000    1.0052925   -7.8047894    165.76945  0.020741923  0.020706973            3 
  667000   0.99146706   -7.8394445    166.11145  0.020753554  0.020693094            6 
  668000   0.98172888   -7.8097489    166.61397  0.020785175  0.020679032            1 
  669000   0.97971566   -7.8070821    166.93865  0.020794551   0.02066514            5 
  670000   0.99725192   -7.7920111    166.98478  0.020769251   0.02065143            3 
  671000   0.97755532   -7.7545323    167.36066  0.020784981  0.020637725            3 
  672000   0.98931608   -7.8057681    167.49904   0.02077121  0.020624178            5 
  673000   0.98111189   -7.8299164    167.35624  0.020722665  0.020610582            2 
  674000   0.98425462     -7.82139    167.52098  0.020712288  0.020596957            6 
  675000   0.98052111   -7.7974758    167.98678  0.020739109   0.02058329            2 
  676000   0.98793435   -7.8034455    167.71384  0.020674783   0.02056952            8 
  677000   0.97683514    -7.824998    167.71008  0.020643782  0.020555804            3 
  678000   0.97782782   -7.8225385    168.32803  0.020689286  0.020541855            3 
  679000   0.99887784   -7.8103978    167.73875  0.020586494  0.020527646            5 
  680000   0.97586802   -7.7909502     168.2286   0.02061625  0.020513518            2 
  681000   0.96910131   -7.7966159    167.93281  0.020549781  0.020499146            1 
  682000   0.99046363   -7.7858961    168.33766  0.020569118  0.020485137            1 
  683000    1.0090844   -7.8038238    168.69415  0.020582498  0.020471191            4 
  684000   0.97096455   -7.7969598    168.58181  0.020538719  0.020457255            4 
  685000   0.99083952   -7.7559889    169.05292  0.020566049  0.020443508            4 
  686000   0.96341838   -7.8258198    168.57957  0.020478568  0.020429465            3 
  687000   0.96957944   -7.8304289    168.66833  0.020459526  0.020415243            2 
  688000    0.9747474   -7.8031314    168.83187  0.020449597  0.020401053            5 
  689000    0.9725744   -7.8301356    168.93936  0.020432918  0.020386833            7 
  690000   0.97920558   -7.8132879    168.87077  0.020395021   0.02037239            3 
  691000   0.97856934   -7.7964219    169.14419  0.020398479  0.020357957            3 
  692000   0.94691687   -7.8010327    169.44456  0.020405173  0.020343475            4 
  693000   0.97085099   -7.8597954    168.88547  0.020308498  0.020328992            4 
  694000   0.98641985   -7.8227351    169.47265  0.020349742  0.020314528            2 
  695000   0.97961238   -7.8060869    169.41816  0.020313928  0.020300082            8 
  696000    0.9789379   -7.8222168    169.89434  0.020341755  0.020285664            1 
  697000   0.97693261   -7.8346362    169.84315   0.02030645  0.020271238            4 
  698000   0.97364875   -7.8495408    169.75324  0.020266624  0.020256619            8 
  699000   0.95636736   -7.8465199    170.24132  0.020295818  0.020242009            6 
  700000   0.95766095   -7.8557176    169.85517  0.020220853  0.020227338            2 
  701000   0.96572267   -7.8244888    170.68721  0.020290919  0.020212877            4 
  702000    0.9904606   -7.8759574    170.15921  0.020199336  0.020198471            8 
  703000   0.98306708   -7.8391929    170.39703  0.020198795  0.020183938            5 
  704000    0.9732514   -7.8482749    170.71103  0.020207271  0.020169795            3 
  705000   0.96591387   -7.8639394    171.10866   0.02022561  0.020155429            3 
  706000   0.96219635   -7.8555811    171.57611  0.020252137  0.020141277            5 
  707000   0.97831943   -7.8400312    171.43505  0.020206866   0.02012703            4 
  708000   0.96561555   -7.8673335    171.40049  0.020174257  0.020112808            4 
  709000    0.9531997   -7.8554579    171.09049  0.020109367  0.020098739            4 
  710000   0.98259212   -7.8646958    171.43457  0.020121428   0.02008456            5 
  711000   0.98773287   -7.8640042    172.04768  0.020164989   0.02007023            4 
  712000   0.97808781   -7.8911914    171.44838  0.020066524  0.020055656            4 
  713000   0.97835091   -7.8904308    171.81753  0.020081525  0.020040852            4 
  714000   0.97303009   -7.8845182    172.16133  0.020093526  0.020026143            5 
  715000   0.98756141   -7.8946672    171.08177    0.0199396  0.020011291            4 
  716000    0.9708909   -7.8992748     172.0728  0.020027095  0.019996611            5 
  717000   0.94879981   -7.9064351    171.61843  0.019946354  0.019981919            2 
  718000   0.98550013   -7.8777723    172.43759  0.020013648  0.019967051            2 
  719000    0.9971219   -7.8630112    171.92112  0.019925953  0.019952294            5 
  720000   0.95118917   -7.8547876    172.27153  0.019938835  0.019937683            6 
  721000    0.9524151    -7.846763    172.62498  0.019952032  0.019923056            2 
  722000   0.98125876   -7.8536301    172.36898   0.01989485  0.019908378            3 
  723000    0.9650939   -7.8649045    172.57486  0.019891063   0.01989366            8 
  724000   0.96121292   -7.8570606    172.64105  0.019871207  0.019878818            3 
  725000   0.97923119    -7.890313    172.41064  0.019817314  0.019863942            2 
  726000   0.97337222   -7.8735318    172.85846  0.019841421  0.019849005            3 
  727000   0.96461704   -7.8570786    173.18796  0.019851898  0.019834071            2 
  728000   0.95668041   -7.8827811    172.65407  0.019763515  0.019819087            5 
  729000   0.94778593   -7.8358753    173.00984  0.019777074  0.019804096            8 
  730000   0.97328521    -7.865767    173.09548  0.019759758  0.019789151            4 
  731000   0.95603252    -7.908273     173.0753  0.019730426  0.019773908            9 
  732000   0.96569957   -7.9181242    172.50416  0.019638452   0.01975843            7 
  733000   0.97527785   -7.9087343    173.14154  0.019684123  0.019742948            6 
  734000   0.95667702   -7.8962523    173.39005  0.019685519  0.019727508            7 
  735000   0.97501239   -7.8532823    173.31401  0.019650115  0.019712071            3 
  736000   0.94847753   -7.8593152    173.50636  0.019645195  0.019696871            9 
  737000   0.97936598   -7.8865632    173.50671  0.019618579  0.019681715            4 
  738000   0.96899347   -7.8829926    173.15916  0.019552751  0.019666245            5 
  739000   0.94606339   -7.9196303    173.26205  0.019537895  0.019650659            4 
  740000   0.96528316   -7.8694646    173.79323   0.01957131   0.01963507            3 
  741000   0.96122385   -7.9034052    173.78346  0.019543799  0.019619537            1 
  742000   0.94497465   -7.9314314    173.90528  0.019531141  0.019604081            2 
  743000   0.94790406     -7.88786    174.42119  0.019562718  0.019588516            2 
  744000     0.961506   -7.8825585      174.306  0.019523522  0.019573155            2 
  745000   0.96315561   -7.8958595    174.22794  0.019488583   0.01955767            2 
  746000   0.94115257   -7.9232818    174.11819    0.0194502   0.01954204            3 
  747000   0.94849546   -7.8918307    174.27376  0.019441517  0.019526445            4 
  748000   0.96990405   -7.8517334    174.95067  0.019490939  0.019510907            3 
  749000   0.96997768    -7.861412    174.41474  0.019405289  0.019495421            6 
  750000   0.94539909   -7.9117741    174.55974  0.019395526   0.01947986            3 
  751000   0.97030147      -7.8736    174.87424  0.019404598  0.019464389            4 
  752000   0.92362156   -7.8879582    174.84655  0.019375726  0.019448994            3 
  753000    0.9490187   -7.8871677    175.01979  0.019369167  0.019433647            3 
  754000   0.94155029   -7.9277749    174.83301  0.019322835   0.01941821            4 
  755000   0.94769493     -7.86848    175.69045  0.019391882  0.019402852            2 
  756000   0.94644199   -7.9279668    175.78539  0.019376697   0.01938765            5 
  757000   0.94757195   -7.9343016    175.26324  0.019293619  0.019372467            4 
  758000   0.95920797   -7.9300718    175.71701  0.019318053  0.019357061            3 
  759000   0.96856952   -7.9016044    175.34121   0.01925134  0.019341863            2 
  760000   0.93983678    -7.917381     175.2941  0.019220845  0.019326487            5 
  761000   0.92917417    -7.899185    175.76477  0.019247128  0.019310947            2 
  762000   0.94704087   -7.9211826    175.82726  0.019228703    0.0192954            3 
  763000   0.94498438   -7.9601398    175.58394  0.019176927  0.019279793            4 
  764000   0.95600183   -7.9183139    175.97413  0.019194386  0.019264266            3 
  765000   0.93165717   -7.9030559    175.62553  0.019131321  0.019248668            4 
  766000   0.94922186   -7.8957413    176.22105  0.019171133  0.019233036            2 
  767000   0.95558149   -7.9152503    175.78108  0.019098335  0.019217273            5 
  768000   0.94172164   -7.9466879    175.86025  0.019082058  0.019201426           11 
  769000    0.9706336   -7.9119158    176.21807  0.019096019  0.019185789            3 
  770000      0.94529    -7.938947    176.04599  0.019052596  0.019170131            4 
  771000   0.94521872   -7.9509509    176.03201  0.019026374  0.019154401            4 
  772000   0.93804936   -7.9326128    176.52018  0.019054424   0.01913853            2 
  773000   0.94533845   -7.9265533    176.79558  0.019059463  0.019122865            2 
  774000   0.93678175   -7.9036517    176.73655  0.019028483  0.019107255            7 
  775000   0.93659654   -7.9262049    176.89751  0.019021238  0.019091465            6 
  776000   0.93009125   -7.9390429    176.75254  0.018981158  0.019075708            4 
  777000   0.94001384   -7.9522769    176.61303  0.018941766  0.019059919            6 
  778000   0.93703083   -7.9430814    177.13714  0.018973558  0.019044244            3 
  779000   0.95618989   -7.9358171    177.18402  0.018954217  0.019028699            3 
  780000   0.92993572   -7.9602376    177.17735  0.018929204   0.01901314            4 
  781000   0.92876265   -7.9523733     177.1037  0.018897108   0.01899739            3 
  782000    0.9228139   -7.8976638    177.39313  0.018903787   0.01898176            4 
  783000   0.95176286   -7.9149353    177.47731  0.018888602  0.018966334           10 
  784000   0.94949266   -7.8905567    177.41872  0.018858282  0.018950898            3 
  785000   0.93886292   -7.9200434    178.13152  0.018909927  0.018935474            7 
  786000   0.94993841   -7.9157888    177.62993   0.01883269  0.018920113            3 
  787000   0.94888461   -7.9635669    177.84779  0.018831829  0.018904536            4 
  788000   0.94689192   -7.9533156    178.11085  0.018835749  0.018889035            3 
  789000   0.94720475   -7.9311104    178.53885  0.018857082  0.018873904            3 
  790000   0.94025469   -7.9495201     177.9215   0.01876809  0.018858575            6 
  791000    0.9391314   -7.9233466    178.59825   0.01881566  0.018843231            5 
  792000   0.93289032   -7.9348601    178.18931  0.018748875  0.018827724            4 
  793000    0.9568647   -7.9515576    179.04481  0.018815133  0.018812278            3 
  794000    0.9596577   -7.9451412    178.55757  0.018740299  0.018796733            7 
  795000   0.93192693   -7.9362935    178.24544  0.018684009  0.018781174            9 
  796000   0.94426315   -7.9374961    178.07595  0.018642792  0.018765537            4 
  797000   0.93950633   -7.9876333    177.96845  0.018608161  0.018749796            4 
  798000   0.93495148   -7.9756693    178.63461  0.018654408  0.018734098            3 
  799000   0.94062211   -8.0161552    178.40002  0.018606593  0.018718289            5 
  800000   0.94292325   -7.9843472     178.5412  0.018598042  0.018702353            5 
  801000   0.92954968   -7.9568853    178.80211  0.018601968   0.01868666            6 
  802000   0.94344039   -7.9534233    179.27928  0.018628354  0.018670795            4 
  803000   0.92035054   -7.9571101    178.99053   0.01857519  0.018655166            4 
  804000   0.90895145   -7.9708599    179.03162  0.018556345  0.018639448            6 
  805000   0.93196228   -7.9936656    179.50105  0.018581889  0.018623829            4 
  806000   0.93792867    -7.994354    178.72043  0.018478125  0.018608077            3 
  807000    0.9387848   -7.9855138    179.19641  0.018504379  0.018592219            4 
  808000   0.93527505   -7.9293696    179.69119  0.018532507  0.018576564            5 
  809000   0.91983683   -7.9808632    179.48762   0.01848863  0.018560946            5 
  810000    0.9322232   -7.9386391    179.70708  0.018488383  0.018545205            2 
  811000   0.93189643   -7.9682485    179.92191   0.01848766  0.018529671            2 
  812000   0.93177117   -7.9783737    179.89307  0.018461932  0.018514069            4 
  813000    0.9431457   -7.9877147    179.78613  0.018428262  0.018498406            3 
  814000   0.93446945   -7.9900313    179.69796  0.018396597  0.018482815            4 
  815000    0.9300194   -7.9682691    180.47545  0.018453522  0.018467297            4 
  816000   0.93335859   -7.9697557    180.02361  0.018384764  0.018451768            5 
  817000   0.93453829   -7.9315632    181.00313  0.018462172  0.018436347            4 
  818000   0.90933555   -7.9686091    180.60394  0.018398934  0.018420979            3 
  819000   0.92327722     -7.97057    181.02315  0.018419124  0.018405363            4 
  820000   0.90829926   -8.0036338    179.79411   0.01827176  0.018389788            4 
  821000   0.91785263   -7.9652676    180.41671  0.018312698  0.018374257            2 
  822000   0.92563262   -7.9716966    180.70022  0.018319163  0.018358717            5 
  823000   0.92731034   -8.0018536    180.83272   0.01831032  0.018343268           11 
  824000   0.92194664   -8.0081475    180.38397  0.018242715  0.018327693            4 
  825000   0.92861365   -8.0409488    180.40669  0.018222898  0.018312013            6 
  826000   0.91371841   -7.9804285    180.64646  0.018225027  0.018296408            1 
  827000   0.92572289   -7.9794772    181.02683  0.018241317  0.018280936            5 
  828000    0.9187843   -8.0450437    180.95374   0.01821193  0.018265527           15 
  829000    0.9259457   -8.0054988    180.91508  0.018186075  0.018250214            4 
  830000   0.94573889   -7.9911718    181.07206  0.018179926  0.018234758            4 
  831000   0.92901978   -8.0404563    180.97033  0.018147847  0.018219349            4 
  832000   0.91421031   -8.0303376    180.99386  0.018128392  0.018204017            6 
  833000   0.92143448   -8.0262374    181.55427  0.018162692  0.018188597            5 
  834000   0.93367013    -8.044245    181.32929  0.018118434  0.018173118            4 
  835000   0.93982661   -8.0322014    181.48092  0.018111868  0.018157841            6 
  836000   0.93158571   -8.0270252    181.88594  0.018130576  0.018142539            9 
  837000   0.92487336   -8.0062064    181.58179  0.018078633  0.018127238            3 
  838000   0.93145911   -8.0444159    181.88724  0.018087435   0.01811203            5 
  839000   0.92439334   -8.0335523    182.59272  0.018135948  0.018096966            6 
  840000   0.90961506   -8.0073231    182.19658  0.018075057  0.018081947            6 
  841000   0.91610414   -8.0014353    182.15524  0.018049469    0.0180669            5 
  842000   0.91459481   -8.0440573    182.54028   0.01806614  0.018051863            6 
  843000   0.91375954   -8.0383025    182.57194  0.018047839  0.018036744           11 
  844000   0.89665476   -8.0309721    182.76955  0.018045967  0.018021724           17 
  845000   0.92275753    -7.995818    183.37926  0.018084739  0.018006592            6 
  846000   0.91328597   -8.0301082    182.78278  0.018004607  0.017991666            3 
  847000    0.9132133   -8.0445849    183.45443  0.018049432  0.017976745            8 
  848000   0.92600115   -8.0035931    183.07529   0.01799089  0.017961855            4 
  849000    0.9033705   -8.0326094    182.83639   0.01794625  0.017946791            4 
  850000   0.93540261   -8.0453741    183.02029  0.017943166  0.017931584            5 
  851000   0.91559544   -8.0206674    182.91353  0.017911626  0.017916377            4 
  852000   0.92561911   -7.9920874    183.06375  0.017905297  0.017901187            2 
  853000   0.93059208   -7.9913058    183.65608  0.017942173  0.017886131            2 
  854000   0.87597527   -7.9975422    183.32674  0.017889026  0.017871155            3 
  855000   0.91221847    -8.042044    183.04629  0.017840769  0.017855943            3 
  856000   0.91993735   -8.0505967    183.64671  0.017878379  0.017840963            4 
  857000   0.92988852   -8.0335012    183.21094  0.017815144   0.01782581            4 
  858000   0.91090122   -8.0347334    183.80155  0.017851744  0.017810758            4 
  859000   0.91481532   -8.0326672     183.5493   0.01780649  0.017795683            4 
  860000   0.90875473   -8.0405892    183.21778  0.017753661  0.017780551            9 
  861000   0.89889649   -8.0257669    184.00627  0.017809356   0.01776546            4 
  862000   0.92461869   -8.0557081    183.73565  0.017762534  0.017750291            4 
  863000   0.89838773   -8.0346744    183.28219  0.017698165  0.017734998            5 
  864000   0.90832926    -8.080104    183.56636  0.017705089  0.017719801            8 
  865000   0.90605164   -7.9983846    184.00856  0.017727222  0.017704679            4 
  866000    0.9122405   -8.0232297    183.74172  0.017681074  0.017689597            8 
  867000    0.9065775   -8.0457752    183.38741  0.017626625  0.017674441            7 
  868000   0.90512662   -8.0360774    183.97824  0.017663042  0.017659346           17 
  869000   0.92447178   -8.0336238    184.06918  0.017651436  0.017644118            8 
  870000   0.91715283   -8.0251159    184.05075  0.017629382  0.017629104           14 
  871000   0.90019892   -8.0186514    184.73429   0.01767454  0.017614028            6 
  872000   0.89952108   -8.0417794    184.04096  0.017588012  0.017598833           15 
  873000   0.90888802   -8.0479828    184.35638  0.017597974  0.017583736            5 
  874000   0.89357059   -8.0681766    184.31738  0.017574121  0.017568621            8 
  875000   0.91546412   -8.0801084    183.80266  0.017505015  0.017553521            2 
  876000   0.89442375    -8.066327    184.23752    0.0175264  0.017538324            4 
  877000   0.91717301   -8.0622115    184.62858  0.017543575  0.017523186            1 
  878000   0.91817591   -8.0759098      184.375  0.017499525  0.017508059            9 
  879000   0.88725677   -8.0729337    184.58581  0.017499602  0.017492831            3 
  880000   0.90455947   -8.0845941    184.47489  0.017469213  0.017477551            2 
  881000   0.88710593   -8.0605452    184.67133  0.017467966  0.017462322            5 
  882000    0.8969074   -8.0683627    185.03323  0.017482354  0.017447082            6 
  883000   0.89536839   -8.0498363    184.42338     0.017405   0.01743195            3 
  884000   0.88631059    -8.010637    185.66213  0.017502086  0.017416881            3 
  885000   0.89351415   -8.0510691    185.32243  0.017450323  0.017401886            3 
  886000   0.91296317   -8.0224246    185.46051  0.017443615  0.017387037            5 
  887000   0.91629414   -8.0555923    185.15969  0.017395687  0.017372059            4 
  888000    0.8902627   -8.0364647     185.4157  0.017400122  0.017357067            2 
  889000   0.91369653   -8.0645082    185.34348   0.01737378  0.017342196            5 
  890000   0.89762236   -8.0601755    185.38186  0.017357852  0.017327229            3 
  891000   0.91157426   -8.0707565    185.44717  0.017344479  0.017312275            6 
  892000   0.91640988   -8.0657114     185.7954  0.017357568  0.017297344            2 
  893000   0.87194882   -8.0610027    185.68902  0.017328203  0.017282514            5 
  894000   0.89937507   -8.1079754    185.79924  0.017319094  0.017267618            6 
  895000   0.88237729   -8.0519934    185.65208  0.017286041  0.017252735            3 
  896000   0.89025341   -8.0422027    186.68127   0.01736247  0.017237969            3 
  897000   0.88555841   -8.0255192    186.41014  0.017317924  0.017223239            3 
  898000   0.88357781   -8.0873393    186.07556  0.017267591  0.017208396            8 
  899000    0.8885547    -8.077461    186.20547  0.017260425  0.017193608            5 
  900000   0.88686343   -8.0801125     186.1112  0.017232519  0.017178771            6 
  901000   0.89357522   -8.0746074    186.76987  0.017274313  0.017163955            9 
  902000   0.89614502   -8.1000584    185.99923  0.017183964  0.017149127            3 
  903000   0.90156646   -8.0620695    186.18354  0.017181944  0.017134236            9 
  904000   0.89539522   -8.0841755    186.14424  0.017159314  0.017119306            5 
  905000   0.89208618   -8.0430715    186.33543  0.017157959  0.017104443            6 
  906000   0.89026213   -8.0668516    186.85576   0.01718688  0.017089688            3 
  907000   0.88110099   -8.0970738    186.98211  0.017179539  0.017075031            6 
  908000   0.87968545    -8.083641    187.25417  0.017185588  0.017060413            4 
  909000   0.88203383   -8.0670023    187.11608  0.017154023  0.017045772            6 
  910000   0.90830522   -8.1003434    186.85206  0.017110995  0.017031115            9 
  911000   0.89631116    -8.044025    187.37801  0.017140323  0.017016494            4 
  912000   0.88454069    -8.095376    186.95171  0.017082576  0.017001777            4 
  913000   0.87048858   -8.0734503    186.85683  0.017055206  0.016986918            3 
  914000   0.89135679   -8.1050464    186.81838   0.01703304  0.016972111            2 
  915000   0.89930908   -8.0845236    187.17566  0.017046963  0.016957504            7 
  916000   0.87411024   -8.0534447    187.22378  0.017032731  0.016942988            6 
  917000   0.91281826   -8.0796251     187.7734  0.017064104  0.016928434            8 
  918000   0.89871124    -8.095514    187.02879  0.016977922  0.016913856           11 
  919000   0.90034812   -8.1030634    187.48738  0.017001032  0.016899263            5 
  920000   0.86573028    -8.074301    187.18356  0.016955032  0.016884559            4 
  921000   0.88797239   -8.0658728    187.94254  0.017005297  0.016869787            7 
  922000   0.88879664   -8.1042375    186.99119  0.016900867  0.016855083            5 
  923000   0.87998771   -8.0799905    187.55082  0.016933082  0.016840316            8 
  924000   0.88813609   -8.1008303    187.36684  0.016898164  0.016825582           17 
  925000   0.88823385   -8.0990548    187.94381  0.016931875   0.01681086            8 
  926000   0.87808405   -8.1085579    187.33657  0.016858943  0.016796087            7 
  927000    0.8834489   -8.0688416    188.08591  0.016908119  0.016781382            6 
  928000   0.87084317   -8.1056612    187.87179  0.016870671  0.016766833            5 
  929000   0.88382473   -8.0933703    187.65614  0.016833166  0.016752223            3 
  930000   0.87816967   -8.1092552    187.50259  0.016801308  0.016737524            4 
  931000   0.87207787   -8.1094905    188.22072   0.01684754  0.016722891            6 
  932000   0.88025384   -8.1158508    187.64228  0.016777743  0.016708277            4 
  933000   0.85778031   -8.0942163    187.98533  0.016790401  0.016693529            4 
  934000   0.86536654   -8.1303707    187.48172  0.016727491  0.016678815            3 
  935000   0.86381774   -8.1094821    187.66329  0.016725783    0.0166641           12 
  936000   0.87451034   -8.1096319    188.12751  0.016749244  0.016649397            9 
  937000   0.87700359   -8.1087828    188.15084  0.016733443  0.016634725            3 
  938000    0.8572822    -8.133851    188.21006  0.016720865  0.016620029            2 
  939000   0.86409062   -8.1374666    187.87339   0.01667318  0.016605332            5 
  940000   0.88258206   -8.1060757    188.53619  0.016714201  0.016590642           10 
  941000   0.88595327   -8.1111319    187.84559   0.01663528  0.016575868            7 
  942000   0.89150645   -8.0995444    188.71653  0.016694668  0.016561303            4 
  943000   0.88798982   -8.1116784    188.13236  0.016625341  0.016546814           11 
  944000    0.8616354   -8.1231677    188.16233  0.016610375  0.016532149           18 
  945000   0.87142566   -8.1248577     188.6118  0.016632434  0.016517455           10 
  946000   0.87376878   -8.1055571    188.45949  0.016601435  0.016502847           11 
  947000   0.88769942   -8.1159327    188.05652  0.016548444  0.016488288            3 
  948000   0.84927886   -8.1317456    188.18241  0.016542055  0.016473688            7 
  949000    0.8613059   -8.1351489    188.45531  0.016548587  0.016459146            9 
  950000   0.87378039   -8.1264166     188.9287  0.016572693  0.016444591            6 
  951000   0.86471206    -8.158317    188.37428  0.016506684  0.016429955            5 
  952000   0.87049344   -8.1495921    188.82869  0.016529122  0.016415355            4 
  953000   0.86669994   -8.1289815    189.00215  0.016526945  0.016400813            4 
  954000   0.86726007   -8.1242508    189.05728  0.016514437  0.016386272            6 
  955000   0.88101826   -8.1755862    188.07944  0.016411818  0.016371698            3 
  956000   0.89732557   -8.1627648    188.61494  0.016441331  0.016357086            5 
  957000    0.8520867   -8.1298048    188.76802   0.01643748  0.016342563            7 
  958000   0.86973779   -8.1721806    189.19737   0.01645767  0.016328013            8 
  959000   0.88826862    -8.183794    189.33763  0.016452696  0.016313405           10 
  960000   0.87543245   -8.1088632    188.88857  0.016396577   0.01629882            4 
  961000   0.86014946   -8.1419856    189.21839  0.016408115  0.016284378            4 
  962000   0.89100381   -8.1480964    189.44166    0.0164104   0.01626992            2 
  963000   0.86114052   -8.1576809    189.45363  0.016394395  0.016255568            5 
  964000   0.87941462   -8.1670304    189.59621  0.016389713  0.016241225            5 
  965000   0.85667236   -8.1565944    189.74229  0.016385344   0.01622688            5 
  966000   0.86651613   -8.1449952    189.44081  0.016342375  0.016212582            5 
  967000   0.86068827   -8.1253237    189.13784  0.016299365  0.016198167            5 
  968000   0.87409256   -8.1519847    189.39043  0.016304273  0.016183618           15 
  969000   0.87038065   -8.1182806    190.05063  0.016344223  0.016169175            5 
  970000   0.86846751   -8.1726908    189.34144  0.016266446  0.016154654            3 
  971000   0.85530471    -8.186965    189.28349  0.016244721  0.016140073            8 
  972000   0.87338101   -8.1552291    189.36569  0.016235055  0.016125512           10 
  973000   0.86913063   -8.1795554    189.53363  0.016232754  0.016110921           10 
  974000   0.87874276    -8.189254    189.37107  0.016202179  0.016096353            4 
  975000    0.8669851    -8.193022    189.54967  0.016200827  0.016081926            6 
  976000   0.84836069   -8.1710435    189.39995  0.016171443  0.016067451            3 
  977000    0.8697185   -8.1567594    189.54527  0.016167287  0.016052905            4 
  978000   0.86827575   -8.1891061     189.2283  0.016123747  0.016038375            5 
  979000   0.86575769   -8.1729412    189.78545  0.016154703  0.016023849            5 
  980000   0.85323712   -8.1486013    189.63023   0.01612502  0.016009266            7 
  981000   0.87498737   -8.1801436    190.00341  0.016140283  0.015994739            5 
  982000   0.84739726   -8.1661684    189.65337  0.016094142  0.015980197            8 
  983000   0.87497181   -8.1545234    190.03502  0.016110124  0.015965695           10 
  984000   0.86477868   -8.1804347    189.60243  0.016057116  0.015951218           21 
  985000   0.85901827   -8.1931167    189.82381  0.016059544  0.015936755           11 
  986000   0.86320115   -8.1768003    190.02646  0.016060383  0.015922309            5 
  987000   0.85133812   -8.1948594    189.92669  0.016035688  0.015907837            3 
  988000    0.8512894   -8.1774867     189.6975  0.016000126  0.015893372            9 
  989000   0.86861294    -8.187652    190.12948  0.016020347   0.01587895            3 
  990000   0.84329066   -8.2019135    189.50786   0.01595184  0.015864456            3 
  991000   0.86642058    -8.198713    190.05134  0.015981445   0.01584995            3 
  992000   0.85469971     -8.23065     189.9115  0.015953587  0.015835504           16 
  993000   0.87057205   -8.2169576    189.73591  0.015922786   0.01582099            4 
  994000   0.87230744   -8.2031336    189.99216  0.015928249  0.015806424            6 
  995000     0.864163   -8.1947051    189.75533  0.015892406    0.0157919           15 
  996000   0.84612153   -8.2411333    189.51896  0.015856673  0.015777409            6 
  997000   0.83892127   -8.1602255    190.96927  0.015961992  0.015762937            4 
  998000   0.86496561   -8.1923264    190.28246  0.015888649  0.015748535            7 
  999000   0.84768545   -8.1998746     190.1545  0.015862071  0.015734136            5 
 1000000   0.84953176   -8.1984743    190.19021  0.015849184    0.0157198            9 
 1001000   0.83080678   -8.2422923    190.11575  0.015827152  0.015705406           19 
 1002000   0.84109954   -8.2008317    189.91463   0.01579463  0.015691083            5 
 1003000   0.83820016   -8.1970494     190.4461   0.01582304  0.015676746            7 
 1004000   0.86215898   -8.2058907    190.70096  0.015828433  0.015662532            5 
 1005000   0.85703536   -8.2310616     190.6161  0.015805647  0.015648229            4 
 1006000   0.83432709   -8.2212002     190.6434  0.015792197  0.015633878            5 
 1007000   0.86507641   -8.2208087    190.52522  0.015766735  0.015619552            6 
 1008000   0.85309462   -8.2043177     191.0192  0.015791931  0.015605367           13 
 1009000   0.85710897    -8.176547    190.58003  0.015740009  0.015591152           11 
 1010000    0.8574777   -8.2082201    190.91374  0.015751959  0.015576929            8 
 1011000   0.81892862   -8.2088879    190.59637  0.015710218   0.01556279           15 
 1012000   0.86053325   -8.1792931     190.8647   0.01571679  0.015548672           10 
 1013000   0.83211327   -8.2089687    191.09333  0.015720083  0.015534514            7 
 1014000   0.85311998   -8.1837231    190.88662  0.015687592  0.015520442            9 
 1015000   0.83152007   -8.1980391    191.03312  0.015684164  0.015506331            4 
 1016000   0.84161008   -8.2096504    191.08179  0.015672719  0.015492235            8 
 1017000   0.85761123   -8.1890355    191.10182  0.015658949  0.015478202            4 
 1018000   0.85923727   -8.2121982    191.46505  0.015673302   0.01546415            8 
 1019000   0.83624356   -8.2094115    191.40163  0.015652734   0.01545013            5 
 1020000   0.83567518   -8.2018864    191.19219  0.015620277  0.015436123            5 
 1021000   0.85125961   -8.2119062     191.1859  0.015604465  0.015422078            4 
 1022000   0.85531111   -8.2466049    191.25039  0.015594455  0.015407907           10 
 1023000   0.85235393   -8.2330115    191.07854  0.015565212  0.015393759            4 
 1024000   0.82372326   -8.2290437    191.00013   0.01554363  0.015379656            7 
 1025000   0.83326443   -8.2115367    191.19606  0.015544396   0.01536555            3 
 1026000   0.85042336    -8.245709    190.99202  0.015512672  0.015351399            2 
 1027000    0.8660455   -8.2331902    191.08967  0.015505491   0.01533726            7 
 1028000   0.83168596   -8.2409205    190.92533  0.015477086  0.015323176            8 
 1029000   0.83520613   -8.2478367    190.83513   0.01545474  0.015309086            6 
 1030000   0.84024342   -8.2334198    191.32701  0.015479532  0.015294962            4 
 1031000   0.83725294   -8.2782589    191.37823  0.015468658  0.015280789            4 
 1032000   0.82863384   -8.2744366    191.22745  0.015441493   0.01526668            7 
 1033000   0.84314869   -8.2307499    191.64803  0.015460473  0.015252623            5 
 1034000   0.83109112   -8.2269984     191.5669  0.015438983   0.01523857           12 
 1035000   0.82613989   -8.2482016    191.10817  0.015387132   0.01522456            9 
 1036000   0.82773266   -8.2537327    191.35543  0.015392168  0.015210488            8 
 1037000   0.85258466   -8.2889756    191.07281  0.015354614  0.015196372            4 
 1038000    0.8442222   -8.2649562    191.39361  0.015365575  0.015182302            5 
 1039000   0.82380612   -8.2442772    191.51345  0.015360398   0.01516835            9 
 1040000   0.84531684   -8.2375507    191.69275  0.015359996  0.015154376           10 
 1041000   0.83561469   -8.2456633    192.20775  0.015386467  0.015140488           10 
 1042000    0.8499046   -8.2277734    191.78799  0.015338131  0.015126583           11 
 1043000    0.8512994   -8.2347799    191.39876  0.015292327  0.015112698           18 
 1044000    0.8313543   -8.2536678    192.12257  0.015335454  0.015098749           14 
 1045000   0.82957415   -8.2200499    191.98947  0.015310165   0.01508482            5 
 1046000   0.83321871   -8.2790846    191.85542  0.015284848  0.015070915            8 
 1047000   0.82636348   -8.2546346    191.90078   0.01527386  0.015056978            5 
 1048000   0.83235767   -8.2691224    191.36439  0.015216634  0.015043027           11 
 1049000   0.83584789   -8.2660491    192.37513  0.015282422  0.015029179            9 
 1050000   0.83098923   -8.2585966    192.35712  0.015266438  0.015015425            8 
 1051000   0.82807233   -8.2376625    191.99926  0.015223538  0.015001647           13 
 1052000   0.83079012   -8.2281641    192.18976  0.015224157  0.014987878            9 
 1053000   0.81961512   -8.2144411    192.51893  0.015235749  0.014974243           13 
 1054000   0.83582728   -8.2227166    192.67821  0.015233888  0.014960645           25 
 1055000   0.81894398    -8.253098    192.71828  0.015222613  0.014947047            9 
 1056000   0.83529344   -8.2647064    192.75957  0.015211456    0.0149334            8 
 1057000   0.83630104   -8.2437889     192.9257  0.015210162    0.0149198            7 
 1058000    0.8608589   -8.2545178    192.55258  0.015166397  0.014906134           19 
 1059000   0.83951908   -8.2829584    192.45565  0.015144448  0.014892468           12 
 1060000   0.80977155   -8.2729326    192.37192  0.015123579  0.014878741           13 
 1061000   0.82005683   -8.2805698    192.34724  0.015107386  0.014865023            9 
 1062000   0.83236996    -8.238069    192.66719  0.015118267  0.014851333            7 
 1063000     0.831644   -8.2758721    192.59007  0.015097998  0.014837669           12 
 1064000    0.8243048   -8.2480967    193.17869   0.01512991  0.014824083            5 
 1065000   0.83323973   -8.2602406    192.76016  0.015082955  0.014810574            8 
 1066000    0.8356616   -8.2799093    192.47353  0.015046398  0.014797012            5 
 1067000   0.80174354   -8.2752858    192.55043  0.015038303  0.014783339            6 
 1068000   0.82716063   -8.2863151    192.44222  0.015015779  0.014769653            3 
 1069000   0.82538919   -8.2520507    192.98261  0.015043858  0.014756032           13 
 1070000   0.82685431   -8.2667381    192.70469  0.015008154  0.014742454            7 
 1071000   0.82788625   -8.2659094    192.40725  0.014970997  0.014728928           14 
 1072000   0.83593914   -8.2744671    193.30475    0.0150268  0.014715423            9 
 1073000    0.8231427   -8.3007125     192.7488  0.014969618  0.014701939            7 
 1074000   0.82669987    -8.282916     192.8983  0.014967279  0.014688444            5 
 1075000   0.84830051   -8.2782399    192.96281  0.014958357  0.014674999            3 
 1076000   0.82194796   -8.2895191    192.70227  0.014924277  0.014661521           10 
 1077000   0.80365005   -8.3148139    192.46389  0.014891975  0.014647933           11 
 1078000    0.8132517   -8.2763136    192.80935  0.014904866  0.014634413            4 
 1079000   0.81512448   -8.3068066    192.96186  0.014902831  0.014620922            6 
 1080000   0.83789818   -8.2918741    193.16217  0.014904489  0.014607447            5 
 1081000   0.82235783   -8.2788066    193.06209  0.014882986  0.014594006            8 
 1082000   0.82737476   -8.3100678    192.82256  0.014850783  0.014580529            6 
 1083000   0.82025095   -8.2761543    193.53418  0.014891827  0.014567058            9 
 1084000   0.83087123   -8.3099224    193.25219   0.01485641  0.014553654           13 
 1085000   0.82286495   -8.2815877    193.22107  0.014840328  0.014540258           12 
 1086000   0.82935221    -8.295877    193.57978  0.014854188  0.014526858           14 
 1087000   0.82779107   -8.2865892    193.37321  0.014824686  0.014513433            8 
 1088000   0.83534678   -8.3140603    193.06555  0.014787496  0.014499981           15 
 1089000   0.81752192   -8.3360233    192.84884  0.014757334  0.014486549           23 
 1090000   0.81404778   -8.3048405    193.76533  0.014813863  0.014473142           11 
 1091000   0.82151481   -8.3218115    193.28092  0.014763284  0.014459711           13 
 1092000   0.80591879    -8.297371     192.9831  0.014727037  0.014446229           19 
 1093000   0.82017653   -8.3272122    192.94419  0.014710597  0.014432824           13 
 1094000   0.82700574   -8.3254892    193.00789  0.014702003  0.014419384           30 
 1095000   0.83668872   -8.3120123    193.45191  0.014722368  0.014405987           34 
 1096000   0.78760366   -8.3248012    193.54573  0.014716069  0.014392623           40 
 1097000   0.82609943   -8.3240243    193.14267  0.014672035  0.014379221           41 
 1098000   0.81396276   -8.3353496    193.07413  0.014653471  0.014365808           32 
 1099000   0.78913966   -8.3501288    192.59107  0.014603509  0.014352378           15 
 1100000   0.80668144   -8.3199994    193.04175  0.014624375  0.014338864           53 
 1101000    0.7997319   -8.3422252    193.20752  0.014623639  0.014325417           42 
 1102000   0.81726705   -8.3273247    192.98889  0.014593836  0.014311892           11 
 1103000   0.81828956   -8.3195453    192.65767  0.014555581  0.014298429           41 
 1104000   0.79609953    -8.325058    192.86859  0.014558318  0.014284918           50 
 1105000   0.81235165   -8.3370496    192.98717  0.014554085  0.014271422           39 
 1106000   0.80518401    -8.366228    192.82102  0.014528407   0.01425797           44 
 1107000   0.79571731   -8.3267023     192.9115  0.014522094  0.014244457           44 
 1108000   0.80744309   -8.3269511    193.08286  0.014521876   0.01423096           45 
 1109000   0.82276034    -8.373124    192.66122  0.014477098  0.014217449           46 
 1110000   0.80863329   -8.3130375    193.30866  0.014512662  0.014204039           35 
 1111000    0.8015959   -8.3149069    193.49376  0.014513483  0.014190651           42 
 1112000   0.80665073    -8.328112    193.70319  0.014516126  0.014177313           40 
 1113000   0.81164659   -8.3566652    192.81211  0.014436366   0.01416396           29 
 1114000   0.82021524   -8.3328435    193.24085   0.01445548  0.014150605           32 
 1115000   0.81122377   -8.3113964    192.72901  0.014404261  0.014137303           16 
 1116000   0.80556441   -8.3327652    193.05043  0.014415355  0.014124012           24 
 1117000   0.80760158    -8.333621    193.48905  0.014435173  0.014110706           22 
 1118000   0.79807605   -8.3746355     193.0974  0.014393068   0.01409737           23 
 1119000   0.82456523   -8.3288755    193.97029  0.014445211  0.014084049           40 
 1120000   0.79894831   -8.3340307    193.46236  0.014394521  0.014070804           28 
 1121000   0.82354399   -8.3238062    193.85391  0.014410787  0.014057589           43 
 1122000   0.82463507   -8.3698882    193.24682  0.014352853  0.014044364           33 
 1123000   0.80559718   -8.3435366    193.84562  0.014384507  0.014031102           38 
 1124000   0.82268637   -8.3305046    193.68136  0.014359532  0.014017836           21 
 1125000   0.80770046    -8.377475     193.4471  0.014329415  0.014004585           41 
 1126000   0.81030037   -8.3654697    193.28117  0.014304409  0.013991346           57 
 1127000   0.80428839   -8.3402337    193.71171  0.014323551  0.013978102           44 
 1128000   0.81447866   -8.3696014    193.77197  0.014315305  0.013964942           22 
 1129000   0.79021651   -8.3744203    193.79092  0.014304025  0.013951808           16 
 1130000   0.78996724   -8.3818775    193.54471  0.014273209  0.013938603           31 
 1131000   0.79829079   -8.4056402    193.68069  0.014270608  0.013925408           48 
 1132000   0.80915729   -8.3699745    193.43222   0.01423971  0.013912189           35 
 1133000   0.81762918   -8.3566783    193.66387   0.01424418  0.013899062           44 
 1134000    0.7877436   -8.3487828    194.01942  0.014257747  0.013886015           20 
 1135000    0.7828495   -8.3829284      193.647  0.014217842  0.013872965           36 
 1136000   0.82074785   -8.3546223    193.91415  0.014224923  0.013859895           41 
 1137000   0.79086599   -8.3728146    193.49891  0.014181978  0.013846817           36 
 1138000   0.80534957   -8.3539613     194.3999  0.014235494  0.013833793           54 
 1139000   0.79971874    -8.394217    193.94067  0.014189397  0.013820815           43 
 1140000    0.8056032   -8.3826393    194.32545  0.014205077  0.013807818           38 
 1141000   0.80247059    -8.370656     193.6983  0.014146823  0.013794837           28 
 1142000   0.80247352   -8.3718801    193.80721  0.014142382  0.013781829           23 
 1143000   0.79650057   -8.3880186    193.79731  0.014129287  0.013768828           47 
 1144000   0.79421768   -8.3686019     194.2718  0.014151501  0.013755872           46 
 1145000   0.79542059     -8.37489    194.29867  0.014141097  0.013742983           40 
 1146000   0.80578776   -8.3906776    194.62102  0.014152198  0.013730129           27 
 1147000   0.79994844   -8.3799141    194.27013  0.014114366  0.013717302           12 
 1148000   0.79516308   -8.3524234     194.4894  0.014117988  0.013704452           12 
 1149000   0.79846274   -8.3636806    194.00752  0.014070752  0.013691607            9 
 1150000   0.77961355   -8.3838577    193.74147  0.014039237  0.013678795           10 
 1151000    0.7872183   -8.3782128    194.44797  0.014078191  0.013666018            5 
 1152000   0.78441566    -8.370245    194.46317   0.01406707  0.013653244            7 
 1153000   0.78405917   -8.3965918     194.4819  0.014056223  0.013640501            8 
 1154000   0.79752791   -8.3882542    194.54122  0.014048326  0.013627759           11 
 1155000   0.78750048   -8.3862388    194.31749  0.014020021  0.013614981           16 
 1156000   0.77266681   -8.3901149    194.46849  0.014018778  0.013602184            8 
 1157000   0.79183938   -8.3816186    194.56592  0.014013679  0.013589457           15 
 1158000   0.80611903   -8.3827528    194.55925  0.014001097  0.013576764           23 
 1159000   0.77956184   -8.4239333    194.11557  0.013957116  0.013564023           18 
 1160000   0.79137328   -8.3599197    194.54426  0.013975881  0.013551275           14 
 1161000   0.80092669   -8.3896081    194.07819   0.01393039  0.013538536           15 
 1162000   0.80671082   -8.4126509    194.22964  0.013929263  0.013525773           15 
 1163000   0.80957684   -8.3999638    194.08183  0.013906694  0.013513043           24 
 1164000    0.7793812   -8.3960393    194.08351  0.013894867  0.013500309           27 
 1165000   0.80660966   -8.3761901    194.27554  0.013896677  0.013487578           33 
 1166000   0.77903683    -8.398704    193.92049  0.013859383  0.013474823           25 
 1167000   0.78234551   -8.4056563    194.16368  0.013864873  0.013462064           28 
 1168000   0.78437645    -8.415856    193.93235  0.013836498  0.013449325           34 
 1169000   0.78622906   -8.4163565    193.86116  0.013819587  0.013436593           38 
 1170000   0.77928818    -8.420677    193.78969  0.013802684  0.013423818           43 
 1171000   0.79335603   -8.4452609    193.64856  0.013780854   0.01341104           41 
 1172000   0.78795013   -8.4275668    193.52979  0.013760651  0.013398239           41 
 1173000   0.78124368    -8.433031    194.52866  0.013819882  0.013385477           52 
 1174000   0.79053224   -8.4363416    194.05738  0.013774658  0.013372763           48 
 1175000   0.78965482   -8.4558368    193.91368  0.013752743  0.013360063           40 
 1176000   0.78954973   -8.4434627    194.44766  0.013778888  0.013347333           36 
 1177000   0.76687431    -8.428343     194.3392  0.013759501  0.013334635           94 
 1178000   0.76659192    -8.428088    194.13971  0.013733709  0.013321982           60 
 1179000   0.79878307   -8.4345312    194.42972  0.013742559  0.013309318           59 
 1180000   0.78046977   -8.4167822    194.38271  0.013727593  0.013296675           70 
 1181000    0.7697833   -8.4556024    194.60031  0.013731323  0.013284027           61 
 1182000   0.78266925   -8.4602016     194.1826  0.013690257  0.013271355           74 
 1183000   0.77794485   -8.4228259    194.38711   0.01369309  0.013258699          115 
 1184000   0.76565519   -8.4482263    194.10299  0.013661528  0.013246078           61 
 1185000   0.76945823   -8.3964854    194.63766  0.013687599  0.013233587           80 
 1186000   0.78325776   -8.4143019    194.81829   0.01368875  0.013221091          138 
 1187000   0.78681607   -8.4226415    194.22492   0.01363556  0.013208556           90 
 1188000   0.77788945   -8.4489987    194.55305  0.013647099  0.013196015           90 
 1189000   0.79386002   -8.4731817    194.23085  0.013613039  0.013183443          119 
 1190000   0.78378209   -8.4559553    194.17652  0.013597796  0.013170863          128 
 1191000   0.77309729   -8.4296722    194.51156  0.013609821  0.013158335          109 
 1192000   0.76519074    -8.438652     194.2661  0.013581243  0.013145802          106 
 1193000   0.77341823   -8.4334533    194.09787  0.013558108   0.01313323          110 
 1194000   0.77829871   -8.4459469    194.08193   0.01354564   0.01312066           93 
 1195000   0.78967011   -8.4266863    194.39216  0.013555939    0.0131081           95 
 1196000   0.78789766   -8.4802112    193.99308  0.013516797  0.013095525          124 
 1197000   0.77422598   -8.4762868    194.13884  0.013515653  0.013082922          119 
 1198000   0.77785928   -8.4588318    194.20573  0.013509024  0.013070331          120 
 1199000     0.781524   -8.4528739    194.14273  0.013493379  0.013057714          102 
 1200000   0.75712153   -8.4649004    194.10503  0.013479516  0.013045138          184 
 1201000   0.78542677   -8.4602772    194.00415  0.013461293  0.013032542          171 
 1202000   0.78076174    -8.507175     193.6771   0.01342742   0.01301993          157 
 1203000   0.78397619   -8.4847046    193.67848  0.013416353  0.013007311          190 
 1204000   0.77526892   -8.4747952    193.88985   0.01341984  0.012994697          183 
 1205000   0.77043502   -8.4997676     194.2288  0.013432144   0.01298211          142 
 1206000   0.77341254   -8.4604619    194.42904  0.013434843  0.012969527          144 
 1207000   0.76948104   -8.4568754    193.80295  0.013380486  0.012956945          160 
 1208000   0.77673964    -8.466502    194.02633  0.013384818   0.01294438          159 
 1209000    0.7677692   -8.4934823    193.67962  0.013349849  0.012931799          165 
 1210000   0.76825395   -8.4816751    193.61184  0.013334148  0.012919242          175 
 1211000   0.77363542   -8.5126052    194.30243   0.01337066  0.012906685          158 
 1212000   0.77259641   -8.5056125     193.9006     0.013332  0.012894169          176 
 1213000   0.76720905   -8.4609993     194.4249  0.013357028   0.01288168          171 
 1214000   0.76680969   -8.4953419    194.14391  0.013326737  0.012869182          192 
 1215000   0.77463144    -8.476585    193.84011  0.013294932  0.012856705          233 
 1216000   0.77157229   -8.5005832    193.96186  0.013292343  0.012844217          198 
 1217000   0.77117218   -8.4928298    193.93393  0.013279508  0.012831716          237 
 1218000   0.76076405   -8.4893751    193.93094    0.0132684  0.012819204          219 
 1219000   0.77825456   -8.4832184    194.04688  0.013265442  0.012806729          241 
 1220000   0.76002007   -8.5032104    193.53032  0.013219284  0.012794262          220 
 1221000   0.76885393   -8.4754369    193.83199  0.013229046  0.012781846          247 
 1222000   0.76856897   -8.5141908    193.87251  0.013220984  0.012769387          259 
 1223000   0.75542629   -8.4889069    193.60702  0.013192084  0.012756895          240 
 1224000   0.75771421   -8.5018965    194.19918  0.013221622  0.012744425          255 
 1225000   0.75897979   -8.5292167    193.69714  0.013176676  0.012731966          288 
 1226000   0.77824164   -8.4821582    194.27819  0.013205423  0.012719531          285 
 1227000   0.77319073   -8.4850404    193.91899  0.013170266  0.012707088          299 
 1228000   0.78688971   -8.5109356    193.98042   0.01316371  0.012694683          305 
 1229000   0.75917295   -8.5239503    193.72311  0.013135551  0.012682242          306 
 1230000   0.76223806   -8.5496238    193.79509  0.013129748  0.012669769          345 
 1231000   0.75262567   -8.5066721    193.56876  0.013103761  0.012657347          351 
 1232000   0.74767082   -8.5226186    193.53148  0.013090604  0.012644953          379 
 1233000   0.75551901   -8.5017801     193.5191  0.013079149  0.012632535          354 
 1234000   0.76328483   -8.5410203    193.62446  0.013075666  0.012620129          378 
 1235000   0.75108341   -8.5003542    193.74321  0.013073091  0.012607732          391 
 1236000   0.74040622   -8.5422125    193.41314   0.01304026  0.012595345          407 
 1237000   0.75313246   -8.5445939    193.41202  0.013029643  0.012582961          345 
 1238000   0.75453054   -8.5532324    193.12386  0.012999721  0.012570576          328 
 1239000   0.76334628   -8.5344008    193.71775  0.013029174  0.012558186          318 
 1240000   0.74212119   -8.5331423    193.36908  0.012995234  0.012545778          391 
 1241000   0.75700878   -8.5417109    193.45809   0.01299074  0.012533378          406 
 1242000   0.76079571   -8.5238767    193.70096  0.012996575  0.012521014          408 
 1243000   0.76485594   -8.5715619    193.16044  0.012949882   0.01250864          422 
 1244000   0.77404066    -8.574622    193.39589  0.012955245  0.012496246          408 
 1245000   0.75276994   -8.5620737    193.35817  0.012942314  0.012483889          355 
 1246000   0.76497618   -8.5610869    193.45128  0.012938154  0.012471522          436 
 1247000   0.74818136   -8.5616189    193.46167  0.012928473  0.012459174          337 
 1248000   0.75904629   -8.5564272    193.15926  0.012897921  0.012446829          363 
 1249000   0.75380298   -8.5555012    193.25732  0.012894137  0.012434548          348 
 1250000   0.73917623   -8.5583954    193.78379  0.012918919  0.012422299          352 
 1251000   0.75532391   -8.5801037    193.42903  0.012884961  0.012410015          407 
 1252000   0.73448375   -8.5681821    193.10285  0.012852959  0.012397719          420 
 1253000   0.74497504   -8.5883141    193.41288   0.01286332  0.012385457          367 
 1254000   0.75551807   -8.5534053    193.68371   0.01287106  0.012373217          384 
 1255000   0.75186286   -8.5527593    193.44554  0.012844989  0.012361011          404 
 1256000    0.7503818    -8.571636     193.5786  0.012843591  0.012348791          370 
 1257000    0.7580974   -8.5806832    193.36222  0.012819028  0.012336546          487 
 1258000   0.75145522   -8.5776137    193.43332  0.012813548  0.012324344          512 
 1259000   0.74505482   -8.5666187    193.33217  0.012796676  0.012312135          517 
 1260000   0.73811773   -8.6010184    193.39231  0.012790497  0.012299935          536 
 1261000   0.75366668   -8.5631981    193.92217   0.01281537  0.012287779          414 
 1262000   0.75362513   -8.5939655    193.12674   0.01275269  0.012275638          495 
 1263000   0.76404856   -8.5812996    193.40431  0.012760907  0.012263507          406 
 1264000   0.75322865   -8.5844548    193.11332  0.012731627  0.012251366          533 
 1265000   0.74921493   -8.5840829    193.16283  0.012724824  0.012239219          552 
 1266000   0.74921652   -8.5864787    193.47075  0.012735042  0.012227091          560 
 1267000   0.73858934     -8.60259    193.51542  0.012727928  0.012214937          565 
 1268000    0.7468745   -8.6118376    193.43116  0.012712353  0.012202801          573 
 1269000   0.75664235   -8.5813401    193.30629  0.012694135  0.012190653          477 
 1270000   0.72962919   -8.6186165    193.20695  0.012677622  0.012178524          644 
 1271000   0.74333952   -8.6254139    193.38273  0.012679172  0.012166408          606 
 1272000   0.74314446   -8.6166616     193.5537  0.012680405  0.012154313          645 
 1273000   0.75064157   -8.6046283    193.76874  0.012684521   0.01214228          661 
 1274000   0.74775076   -8.6038161    193.60925  0.012664132  0.012130242          649 
 1275000   0.73579297   -8.6253754    193.33868  0.012636515  0.012118201          642 
 1276000   0.74991413   -8.6150995    193.76737  0.012654609  0.012106164          646 
 1277000   0.75326024   -8.6160436    193.31804  0.012615377   0.01209411          647 
 1278000   0.75142664   -8.6292338    193.53703  0.012619785  0.012082113          602 
 1279000   0.75537508   -8.5937255    193.46984  0.012605541  0.012070121          629 
 1280000   0.75064815   -8.6311438    193.36046  0.012588572  0.012058167          658 
 1281000   0.74054128   -8.6253974    193.47938  0.012586481  0.012046211          672 
 1282000   0.74998339   -8.6262726     193.4522  0.012574896  0.012034222          641 
 1283000   0.72916769   -8.6335443    193.47971  0.012566882  0.012022276          692 
 1284000   0.74410741   -8.6291333    193.64469  0.012567802   0.01201033          606 
 1285000   0.74628709   -8.6621581    193.26996   0.01253372  0.011998404          677 
 1286000   0.73705259   -8.6251449    193.71641  0.012552904  0.011986495          661 
 1287000   0.71938516   -8.6409397    193.05355   0.01250023  0.011974581          648 
 1288000   0.73239922   -8.6419031    193.42424  0.012514508  0.011962701          696 
 1289000   0.75093418   -8.6582622    193.51922   0.01251094  0.011950818          702 
 1290000   0.73510469   -8.6560354    193.04502  0.012470609  0.011938926          710 
 1291000   0.72688439   -8.6467706    193.50011  0.012490325  0.011927015          677 
 1292000   0.72600998   -8.6503142     193.4548  0.012477735  0.011915117          753 
 1293000   0.74500634   -8.6671034    193.09741  0.012445051  0.011903243          695 
 1294000   0.72560704   -8.6397841    193.06638  0.012433435  0.011891405          657 
 1295000   0.72774754   -8.6247704    193.25632  0.012436056  0.011879603          704 
 1296000   0.73986608   -8.6515882    192.88395  0.012402517  0.011867808          710 
 1297000   0.73699128   -8.6418802    193.07843   0.01240545  0.011856023          717 
 1298000   0.73243086   -8.6852845    193.11153  0.012398018  0.011844192          774 
 1299000   0.72667245   -8.6571933    193.10477   0.01238804  0.011832395          736 
 1300000   0.73649771   -8.6432458    193.43923  0.012399951  0.011820619          683 
 1301000   0.73394118   -8.6627854    193.44284  0.012390651  0.011808845          765 
 1302000   0.73222073   -8.6548154    192.78378  0.012338951   0.01179708          809 
 1303000    0.7325433   -8.6657022    193.49609  0.012375038  0.011785316          769 
 1304000   0.73186041    -8.655709    192.89681   0.01232725  0.011773547          793 
 1305000    0.7398824   -8.6790474    193.21002  0.012337805   0.01176179          772 
 1306000   0.72541995   -8.6841656    193.19916  0.012327665  0.011750012          802 
 1307000   0.74605595   -8.6881581    193.35252  0.012328011  0.011738243          840 
 1308000   0.73335969   -8.6940171    192.60796   0.01227115  0.011726466          771 
 1309000   0.74317419   -8.6878881    193.34243  0.012308533  0.011714709          763 
 1310000   0.72088986   -8.6911986    193.18568  0.012289165  0.011702987          831 
 1311000   0.72446778   -8.6967477    192.88504  0.012260681  0.011691262          810 
 1312000   0.74151389   -8.6778187     193.2974  0.012277528  0.011679585          822 
 1313000   0.74488004   -8.7095449    193.02075  0.012250619  0.011667947          847 
 1314000   0.71649195    -8.701613    192.96826  0.012237967  0.011656277          853 
 1315000   0.73238407   -8.6767274    192.80549  0.012218346  0.011644631          848 
 1316000   0.70847416   -8.6916462    192.70845  0.012202916  0.011632987          858 
 1317000   0.74074769   -8.6704221    193.39061  0.012236814  0.011621369          827 
 1318000   0.73192883   -8.6828346    192.96422   0.01220057  0.011609748          870 
 1319000   0.75805057   -8.6968757     193.2321  0.012208245  0.011598136          861 
 1320000   0.71536569    -8.705304     192.9391  0.012180499   0.01158653          888 
 1321000   0.73346558   -8.7210651    193.18371  0.012186709  0.011574908          868 
 1322000   0.73280507   -8.7098032    193.01896  0.012167105  0.011563298          880 
 1323000   0.72689667   -8.7290206    192.72589  0.012139449  0.011551712          917 
 1324000   0.71647773   -8.7223672    192.78736  0.012134149  0.011540122          850 
 1325000    0.7411004   -8.7287035    192.84391  0.012128548  0.011528532          884 
 1326000   0.71725034   -8.7415716    192.59783  0.012103936  0.011516968          923 
 1327000   0.74881719   -8.7337872    192.50341  0.012088885  0.011505407          961 
 1328000   0.73099419   -8.7239721    192.39818  0.012073179   0.01149383          939 
 1329000   0.72162115   -8.7456393    192.31001  0.012058566  0.011482264          997 
 1330000   0.71448846   -8.7291187    192.94743  0.012089438  0.011470699          931 
 1331000   0.74094416   -8.7518623    192.36015  0.012043586  0.011459166          952 
 1332000   0.71646303   -8.7247762    192.99547  0.012074291  0.011447676          927 
 1333000   0.73991266   -8.7472397    192.77142  0.012051227  0.011436164          956 
 1334000   0.71450181   -8.7252183    192.37416  0.012017377  0.011424667          964 
 1335000    0.7238751   -8.7302919    192.95945  0.012044909  0.011413217          951 
 1336000   0.70932236   -8.7079636    193.20047  0.012050928  0.011401785          970 
 1337000    0.7285002   -8.7141367     192.9058  0.012023548  0.011390379          996 
 1338000   0.71199401   -8.7335171    192.67557  0.012000223  0.011378949         1013 
 1339000   0.71725111   -8.7436805    193.04831  0.012014458  0.011367546          969 
 1340000   0.72144877   -8.7088404    192.98864  0.012001781  0.011356151          987 
 1341000    0.7041768   -8.7404821    192.91448  0.011988223  0.011344755         1018 
 1342000   0.73186695   -8.7626839    192.58099  0.011958581  0.011333341          985 
 1343000    0.7141362   -8.7373519    192.67487  0.011955502   0.01132197          965 
 1344000   0.70917179   -8.7355246    192.96428  0.011964551   0.01131059         1018 
 1345000   0.72171645   -8.7236841    192.92447  0.011953189  0.011299221         1000 
 1346000    0.7244454   -8.7500423    192.68994  0.011929788  0.011287853          984 
 1347000   0.71714968   -8.7581875    192.72745  0.011923252  0.011276496         1035 
 1348000   0.69729666   -8.7369629    192.74891  0.011915734  0.011265151         1034 
 1349000   0.69894376   -8.7302243    192.73276  0.011905903  0.011253818         1076 
 1350000   0.71691557   -8.7550921    192.54013  0.011885193  0.011242494         1091 
 1351000   0.70395146   -8.7474446    192.88774  0.011897837  0.011231182         1076 
 1352000   0.70874522   -8.7488701    192.79154  0.011883108  0.011219923         1064 
 1353000   0.71714271   -8.7483824    192.94845  0.011883989  0.011208647         1071 
 1354000   0.72117073   -8.7478512    192.91683  0.011873266  0.011197374         1084 
 1355000   0.71359497   -8.7606854    192.52297  0.011840281  0.011186138         1105 
 1356000   0.71894547   -8.7832586    192.43526  0.011826159  0.011174877         1177 
 1357000   0.72160601   -8.7631294    192.98576  0.011851251  0.011163672         1133 
 1358000   0.72566348   -8.7745718     192.9165  0.011838273  0.011152477         1215 
 1359000   0.70786528   -8.7759315     192.6312  0.011812068  0.011141266         1230 
 1360000   0.71651191   -8.7658895    192.68882  0.011806913  0.011130045         1197 
 1361000   0.70690316   -8.7647009     192.4849  0.011785752  0.011118838         1236 
 1362000   0.71768007   -8.7642181    192.49343  0.011777621  0.011107644         1204 
 1363000   0.70935113   -8.7944633    192.46848  0.011767454  0.011096466         1233 
 1364000    0.7008088   -8.7899991    192.81005  0.011779695  0.011085274         1239 
 1365000   0.70109917   -8.7678533    192.45839  0.011749596  0.011074095         1251 
 1366000    0.7107214   -8.8051317    192.31621  0.011732321  0.011062927         1278 
 1367000   0.70745353   -8.7694806    192.80705  0.011753661   0.01105179         1249 
 1368000   0.71737519   -8.8116543    192.37486  0.011718741  0.011040659         1391 
 1369000   0.69600126   -8.8226652    192.30567   0.01170597  0.011029521         1337 
 1370000   0.69486004    -8.805154    192.79221   0.01172702  0.011018407         1399 
 1371000   0.70140791   -8.7984357      192.305  0.011688853  0.011007304         1356 
 1372000   0.68991336   -8.8053223    192.05968  0.011665432  0.010996176         1405 
 1373000   0.70821084   -8.8192009    192.64859   0.01169268  0.010985076         1384 
 1374000   0.71053009   -8.8173869    192.72887  0.011689039  0.010974012         1405 
 1375000   0.69935276   -8.8213734    192.65975  0.011676349  0.010962938         1440 
 1376000   0.71758924   -8.8302527     192.4271  0.011653773   0.01095188         1455 
 1377000   0.70809925    -8.799659    192.51492  0.011650625  0.010940817         1463 
 1378000   0.70291646   -8.8410529    192.38129  0.011634089  0.010929779         1462 
 1379000   0.71248229   -8.8389623      192.411  0.011627447  0.010918735         1519 
 1380000   0.70940361   -8.8537158    192.63987  0.011632842  0.010907675         1486 
 1381000   0.70766298   -8.8275586    192.32407  0.011605362  0.010896622         1548 
 1382000   0.69787688   -8.8626962    192.28696  0.011594728  0.010885572         1534 
 1383000   0.69925107   -8.8377642    191.98439  0.011568112  0.010874542         1593 
 1384000   0.71272118   -8.8335772    192.34951  0.011581738  0.010863512         1560 
 1385000   0.68798452   -8.8297953    192.38229  0.011575348  0.010852535         1583 
 1386000   0.71113807   -8.8527619    191.92565  0.011539541  0.010841519         1672 
 1387000   0.68977272   -8.8501354    191.96667  0.011533686  0.010830506         1619 
 1388000   0.71242114   -8.8461989    191.90253  0.011521525  0.010819518         1664 
 1389000   0.70945714   -8.8492313    192.32895  0.011538814  0.010808557         1621 
 1390000   0.69819521   -8.8529365     192.1742  0.011521235  0.010797622         1660 
 1391000   0.68959474   -8.8578007    192.14008  0.011510908  0.010786681         1587 
 1392000   0.71014077   -8.8631261    191.85238  0.011485415  0.010775757         1663 
 1393000   0.69927291   -8.8798746    192.10418  0.011492234  0.010764855         1645 
 1394000   0.69634874   -8.8565585    192.30664  0.011496093  0.010753934         1638 
 1395000   0.70393319   -8.8752531    192.20263  0.011481638  0.010743044         1717 
 1396000   0.69688344   -8.8744137    191.74715  0.011446224  0.010732132         1686 
 1397000   0.69610324   -8.8809169    191.50794  0.011423762  0.010721221         1728 
 1398000   0.69003107   -8.8886584    191.63639  0.011423247  0.010710323         1768 
 1399000   0.69142075   -8.8979173    191.54145  0.011409426  0.010699404         1712 
 1400000    0.6812342   -8.8705313    191.78291  0.011415649  0.010688493         1784 
 1401000    0.6982379   -8.8808899    191.65097  0.011399653    0.0106776         1802 
 1402000   0.68509314    -8.892647    191.55255  0.011385672  0.010666725         1791 
 1403000   0.70157778   -8.9012422    191.07273  0.011349057   0.01065583         1856 
 1404000   0.67755749   -8.9102856    191.28006   0.01135328  0.010644942         1892 
 1405000   0.68038455   -8.9179242    191.60275  0.011364339  0.010634065         1838 
 1406000   0.69042287   -8.9301179    191.57519  0.011354622   0.01062321         1952 
 1407000    0.6798007   -8.9240193     191.9416  0.011368254  0.010612349         1886 
 1408000   0.68614101   -8.9106381    191.58167  0.011338877  0.010601486         1974 
 1409000   0.69074528   -8.9249886    191.66009  0.011335468   0.01059064         1986 
 1410000   0.69216452   -8.9469521    191.18917  0.011299597  0.010579787         1961 
 1411000   0.67896026   -8.9184573    191.02317  0.011281784  0.010568953         1952 
 1412000   0.67837965   -8.9428582    191.25642   0.01128756  0.010558129         2002 
 1413000   0.68742157   -8.9351422     191.9317  0.011319397   0.01054731         1976 
 1414000   0.70104275   -8.9164179    191.34526   0.01127683  0.010536522         1960 
 1415000   0.68715269   -8.9164138    191.69237  0.011289303  0.010525734         1930 
 1416000   0.69269985   -8.9407435     191.4094  0.011264677  0.010514951         1930 
 1417000   0.69722026   -8.9385323    191.17869   0.01124316  0.010504188         2007 
 1418000   0.68962678   -8.9268274    191.41081  0.011248872  0.010493409         1977 
 1419000   0.67320308    -8.964703    190.92137  0.011212202  0.010482664         1996 
 1420000    0.6946796    -8.948261    191.26653  0.011224561  0.010471934         1976 
 1421000   0.68089886   -8.9596437    191.13718  0.011209077  0.010461187         1991 
 1422000   0.68847855   -8.9233305    191.35856  0.011214168  0.010450434         1963 
 1423000   0.66775115   -8.9899659     190.9886  0.011184622  0.010439713         2011 
 1424000   0.67103524   -8.9775005    191.33442  0.011197005  0.010428997         1909 
 1425000   0.68599016   -8.9613086    191.22359  0.011182666  0.010418309         1981 
 1426000   0.67809398   -8.9626577    191.16776  0.011171562  0.010407623         1965 
 1427000   0.68287523   -8.9520966    191.19935  0.011165578  0.010396957         1993 
 1428000   0.67544155   -8.9599543    191.07857   0.01115071   0.01038632         1999 
 1429000   0.68729893   -8.9422117    191.01671  0.011139299  0.010375679         2041 
 1430000   0.67523351    -8.958163    191.17814  0.011140917  0.010365038         2053 
 1431000   0.68495088   -8.9568949    191.39876   0.01114598  0.010354441         2035 
 1432000   0.68340562   -8.9559066    191.11163  0.011121487  0.010343835         2032 
 1433000   0.67732165   -8.9756388    191.02652  0.011108777  0.010333236         2056 
 1434000   0.68057851   -9.0038635    190.95731  0.011097008  0.010322633         2092 
 1435000    0.6775307   -8.9629762    191.20677  0.011103761  0.010312033         2090 
 1436000   0.66863424    -8.977814    191.04637  0.011086721  0.010301455         2101 
 1437000   0.68089723   -8.9677747    190.70686  0.011059317  0.010290883         2094 
 1438000   0.66934636   -8.9762998     190.8792  0.011061614  0.010280317         2100 
 1439000   0.67564392   -8.9741747    191.45705   0.01108739  0.010269778         2039 
 1440000   0.68505165   -8.9682826    191.08726   0.01105829  0.010259251         2066 
 1441000   0.69274338    -8.983412    190.82435  0.011035413  0.010248742         2063 
 1442000   0.67226543   -8.9769168    191.19886  0.011049402  0.010238259         2128 
 1443000   0.68058738   -8.9963481    190.79166  0.011018229   0.01022775         2093 
 1444000   0.68920703   -9.0120806     191.0036   0.01102283  0.010217244         2064 
 1445000   0.68060928   -8.9892581    190.82767  0.011005056  0.010206755         2127 
 1446000   0.66972877   -8.9946233    190.68836  0.010989417  0.010196284         2111 
 1447000    0.6782515   -8.9648273    190.94682  0.010996707   0.01018585         2081 
 1448000   0.65558851   -8.9999496    191.13731  0.011000076   0.01017541         2147 
 1449000    0.6670845   -8.9955934    190.93992  0.010981132  0.010164985         2110 
 1450000   0.67543722   -9.0040883    190.86972  0.010969524  0.010154566         2132 
 1451000   0.65993105   -9.0028774    190.62043  0.010947647  0.010144155         2165 
 1452000   0.67239909   -8.9870581    190.93121  0.010957944  0.010133749         2154 
 1453000   0.66610201   -8.9861958    191.08942  0.010959476  0.010123372         2101 
 1454000   0.68113924   -8.9943745    191.07543  0.010951136   0.01011301         2142 
 1455000   0.68092456   -8.9908794    190.71898  0.010923194  0.010102663         2108 
 1456000   0.67290135   -9.0131139    190.59125  0.010908382  0.010092329         2099 
 1457000   0.66416072   -9.0131988    190.93862  0.010920763  0.010081993         2100 
 1458000   0.67853015   -9.0001183    191.04741  0.010919491  0.010071682         2117 
 1459000   0.66677695   -9.0102843     190.6801  0.010891027  0.010061354         2139 
 1460000   0.67824704   -9.0211342     190.5645  0.010876969  0.010051045         2164 
 1461000   0.67351528   -9.0162073    190.66068   0.01087501  0.010040755         2079 
 1462000   0.66054342   -9.0019976    190.83163  0.010877316  0.010030482         2090 
 1463000    0.6723319      -9.0119    190.87042   0.01087209  0.010020209         2154 
 1464000   0.67422756   -9.0210717    190.50795  0.010844032  0.010009954         2117 
 1465000   0.67236594   -9.0089622    190.94826  0.010861676  0.009999706         2135 
 1466000   0.65992749   -9.0309948    190.74776   0.01084287 0.0099894612         2179 
 1467000   0.65775391   -9.0202988    190.62406  0.010828452 0.0099792258         2198 
 1468000   0.64845225     -9.02073    190.53206  0.010815853 0.0099689979         2201 
 1469000    0.6760487    -9.048758    190.95479  0.010832471 0.0099587774         2217 
 1470000   0.67054786   -9.0182455    190.75835  0.010813966 0.0099485799         2185 
 1471000   0.66191515   -9.0468698    190.53925  0.010794202  0.009938393         2139 
 1472000   0.64175452    -9.026502    190.71817  0.010796998 0.0099282221         2198 
 1473000   0.66136062   -9.0351075    190.60994  0.010783545 0.0099180474         2215 
 1474000   0.65860771   -9.0248789     190.5332  0.010771891 0.0099079028         2222 
 1475000   0.66724536   -9.0252328    191.05569  0.010794107 0.0098977543         2163 
 1476000   0.65997131   -9.0230839    190.76178    0.0107702 0.0098876311         2190 
 1477000    0.6567384   -9.0340259    190.77014   0.01076338 0.0098775154         2198 
 1478000   0.66523508   -9.0657553    190.17414  0.010722493 0.0098674088         2210 
 1479000   0.65621748   -9.0352565    190.52524  0.010735026 0.0098573186         2225 
 1480000   0.66623919   -9.0283692    190.32195  0.010716326 0.0098472437         2250 
 1481000   0.64284921   -9.0247215     190.7684  0.010734211 0.0098371714         2185 
 1482000   0.66070284   -9.0666386     190.5056   0.01071219 0.0098271089         2341 
 1483000   0.66499468   -9.0470331    190.64441  0.010712768 0.0098170708         2254 
 1484000   0.64647575   -9.0558383    190.37638  0.010690498  0.009807032         2307 
 1485000   0.65918437   -9.0414247     190.4719  0.010688659 0.0097970124         2296 
 1486000   0.65548828   -9.0441271    190.49791  0.010682924  0.009786983         2296 
 1487000   0.65630906   -9.0624538    190.17514  0.010657652 0.0097769842         2294 
 1488000   0.67585819   -9.0593089    190.37381  0.010661616 0.0097669785         2279 
 1489000   0.67011222   -9.0391365    190.81094   0.01067892  0.009756977         2286 
 1490000   0.65117174   -9.0442133    190.19807  0.010637476  0.009747014         2296 
 1491000   0.66067041   -9.0463479    190.49453  0.010646911 0.0097370691         2294 
 1492000   0.66257927   -9.0679395    190.59017  0.010645117 0.0097271181         2322 
 1493000   0.64485256   -9.0738689    190.49752  0.010632815 0.0097171724         2321 
 1494000   0.65578388   -9.0579733    190.37873  0.010619072 0.0097072425         2304 
 1495000   0.65144949   -9.0714475    190.58339  0.010623378 0.0096973258         2340 
 1496000   0.66201158   -9.0633406    190.41526  0.010606911 0.0096874248         2367 
 1497000     0.651084   -9.0817111    190.17442  0.010586419 0.0096775457         2394 
 1498000    0.6368113   -9.0688623     190.3733  0.010590415 0.0096676672         2399 
 1499000   0.65826392   -9.0936209     190.1551   0.01057122 0.0096577853         2363 
 1500000   0.64303438   -9.0838232    190.24304  0.010569058 0.0096479142         2392 
 1501000   0.63636871     -9.04829    190.30136  0.010565254 0.0096380645         2344 
 1502000    0.6628238   -9.0749249    190.34028   0.01056038 0.0096282248         2385 
 1503000   0.65695031   -9.0760381    190.52817  0.010563771 0.0096183952         2394 
 1504000   0.65463991   -9.0796914    190.19496  0.010538284 0.0096085707         2434 
 1505000    0.6562786   -9.0878254    189.99284  0.010520091 0.0095987688         2321 
 1506000    0.6551888   -9.0790587    190.11983  0.010520132 0.0095889658         2396 
 1507000    0.6405163   -9.0878259    190.42527  0.010530041 0.0095791639         2340 
 1508000   0.64919632   -9.0951234    190.49328  0.010526817 0.0095693814         2330 
 1509000   0.64452681   -9.0958855    190.06782  0.010496345 0.0095595973         2410 
 1510000   0.64812079   -9.0871581    189.93584   0.01048211 0.0095498396         2403 
 1511000   0.64898156   -9.0929483    190.17941  0.010488606 0.0095400807         2382 
 1512000   0.64995654   -9.0747319    189.96967   0.01047011 0.0095303331         2340 
 1513000   0.64702028   -9.1059363    189.89727  0.010459202 0.0095205896         2428 
 1514000   0.66019341   -9.0850448    190.18229  0.010467982 0.0095108624         2403 
 1515000   0.63333603   -9.1218245    190.05694  0.010454177 0.0095011444         2426 
 1516000   0.65591389   -9.0978042    189.99921  0.010444108 0.0094914363         2421 
 1517000   0.66014628   -9.1224543    189.95394  0.010434736 0.0094817344         2440 
 1518000   0.64000594   -9.1050055    189.93644  0.010426901 0.0094720491         2432 
 1519000   0.62876142    -9.111456     190.0579  0.010426701 0.0094623887         2462 
 1520000   0.63412035   -9.1190417    189.88124  0.010410156 0.0094527306         2459 
 1521000   0.64783223   -9.1076576    190.31921  0.010427307  0.009443089         2448 
 1522000   0.66432157   -9.1378067    189.88789   0.01039684 0.0094334626         2449 
 1523000   0.65124993   -9.1317977    189.77034  0.010383582 0.0094238476         2480 
 1524000    0.6421517   -9.1240305    189.78793   0.01037773 0.0094142172         2432 
 1525000   0.63992114    -9.128119    189.70646  0.010366473 0.0094046012         2441 
 1526000   0.64302148   -9.1197447    190.20704  0.010387016 0.0093950025         2465 
 1527000   0.63405391   -9.1489493    189.63065  0.010348758 0.0093854109         2506 
 1528000   0.63999549   -9.1177288    189.93598  0.010358638 0.0093758394         2482 
 1529000   0.64399694   -9.1355394    190.04066  0.010357568  0.009366264         2477 
 1530000   0.64549653    -9.141325    189.66229   0.01033019 0.0093567052         2546 
 1531000   0.63561464   -9.1165213     189.8818  0.010335391 0.0093471444         2500 
 1532000   0.63390165   -9.1219519    189.89294   0.01032925 0.0093376071         2547 
 1533000   0.65166106    -9.140907    189.61983  0.010307667 0.0093280773         2534 
 1534000    0.6328997   -9.1263576    190.01627  0.010322483 0.0093185531         2524 
 1535000   0.63615641   -9.1436648    189.83558  0.010305949 0.0093090451         2521 
 1536000   0.66554777   -9.1307778    190.20722  0.010319402 0.0092995417         2554 
 1537000   0.63264014   -9.1312928    189.73648  0.010287165 0.0092900526         2567 
 1538000   0.63987582   -9.1343507    189.62186  0.010274267 0.0092805768         2558 
 1539000   0.62048667   -9.1440479    189.45383  0.010258492 0.0092711182         2584 
 1540000   0.63599888   -9.1594099    189.32209  0.010244702  0.009261658         2551 
 1541000   0.64610952   -9.1694578    189.66611  0.010256658 0.0092522011         2520 
 1542000   0.63748054   -9.1350782    189.53877  0.010243124 0.0092427562         2550 
 1543000   0.62126156   -9.1327175    189.38271  0.010228057 0.0092333351         2586 
 1544000   0.62539001   -9.1225986    189.79132  0.010243487 0.0092239253         2589 
 1545000   0.63300987   -9.1259673     189.7324  0.010233679 0.0092145295         2522 
 1546000   0.66113816   -9.1730185    189.61275   0.01022061 0.0092051321         2592 
 1547000   0.63470906    -9.149899      190.026  0.010236264 0.0091957645         2506 
 1548000   0.63602796   -9.1663122    189.59656  0.010206533 0.0091863996         2542 
 1549000   0.64283353   -9.1562756    189.16348  0.010176645 0.0091770332         2565 
 1550000   0.63701646   -9.1729436    189.60384  0.010193755 0.0091676873         2586 
 1551000   0.62568704   -9.1600457    189.52872  0.010183146 0.0091583504         2550 
 1552000   0.62914509   -9.1470723    189.86938  0.010194876 0.0091490221         2613 
 1553000    0.6423718   -9.1731495    189.44734  0.010165665 0.0091397028         2634 
 1554000   0.62634594   -9.1786755    189.73021  0.010174293 0.0091303937         2615 
 1555000   0.63881888   -9.1615176      189.499  0.010155359 0.0091210842         2646 
 1556000   0.62844259   -9.1552483    189.58424  0.010153398  0.009111799         2628 
 1557000   0.63146502    -9.182446    189.38699  0.010136319  0.009102515         2597 
 1558000   0.64189255   -9.1811136      189.502  0.010135965  0.009093245         2617 
 1559000    0.6344825   -9.1881494    189.51462  0.010130138 0.0090839911         2637 
 1560000   0.61397641   -9.1926627    189.53446  0.010124704 0.0090747409         2637 
 1561000    0.6215375   -9.1817286    189.60147  0.010121795 0.0090655001         2633 
 1562000    0.6295219   -9.1678506    189.72657  0.010121989   0.00905627         2618 
 1563000   0.63335183   -9.1974036    189.25508  0.010090375 0.0090470454         2647 
 1564000   0.63365564   -9.1748011     189.3931  0.010091278 0.0090378346         2652 
 1565000   0.62869091   -9.2014821      189.358  0.010082961  0.009028637         2643 
 1566000   0.62764792   -9.1834741    189.15158  0.010065537 0.0090194519         2625 
 1567000   0.63040757   -9.1867073    189.67286  0.010086836 0.0090102794         2621 
 1568000   0.62906272     -9.16207    189.10015  0.010049965 0.0090011186         2606 
 1569000   0.61554607   -9.1918052    189.14449  0.010045915 0.0089919574         2671 
 1570000   0.61284355   -9.1852083    189.23073  0.010044094 0.0089828173         2639 
 1571000   0.62766301   -9.1983419    189.32761  0.010042839 0.0089736891         2657 
 1572000   0.63410499   -9.1830418    189.36637  0.010038506 0.0089645544         2643 
 1573000   0.62070069   -9.1882892    189.42234  0.010035089 0.0089554383         2626 
 1574000   0.63171051   -9.1836147    189.61608  0.010038971 0.0089463325         2696 
 1575000    0.6322832   -9.1969211    189.32001  0.010016932 0.0089372375         2620 
 1576000   0.64051807   -9.1861945    189.50092  0.010020142 0.0089281568         2645 
 1577000    0.6286646   -9.1749553    189.27053  0.010001613 0.0089191001         2634 
 1578000   0.62745552   -9.2085135    189.14429 0.0099886084  0.008910046         2645 
 1579000     0.615961    -9.183611    189.07934  0.009978855 0.0089010042         2585 
 1580000   0.62900344   -9.2118514    189.08242 0.0099727014 0.0088919802         2642 
 1581000   0.63332764   -9.1976278    189.64251 0.0099959157 0.0088829753         2672 
 1582000    0.6364465   -9.1908188    189.52277 0.0099832897 0.0088739775         2605 
 1583000   0.62479104   -9.1959038    189.63205 0.0099827359 0.0088649854         2680 
 1584000   0.62043452   -9.2188279    189.48594 0.0099687471 0.0088559897         2616 
 1585000   0.61068034     -9.19605    189.33513 0.0099545284 0.0088470008         2653 
 1586000   0.61864928   -9.2031243    189.09675 0.0099357265 0.0088380387         2656 
 1587000   0.61404791   -9.2037878    189.33368 0.0099419072 0.0088290876         2668 
 1588000   0.62799397   -9.2113871    189.10148 0.0099234614 0.0088201304         2629 
 1589000   0.61957476   -9.2068028    189.08773 0.0099164953 0.0088111974         2629 
 1590000    0.6249195    -9.197759    189.38932 0.0099260652 0.0088022763         2629 
 1591000   0.61971924   -9.2193266    189.02515 0.0099007516 0.0087933669         2627 
 1592000   0.60905192   -9.2157282    189.10961 0.0098989534 0.0087844678         2641 
 1593000   0.61599011   -9.2118219    189.07124 0.0098907324 0.0087755744         2699 
 1594000   0.61624966   -9.2083889    189.11548 0.0098868402 0.0087667016         2648 
 1595000   0.61776033   -9.2235184    188.93281 0.0098710977 0.0087578302         2647 
 1596000   0.61499206   -9.1863797     189.1682 0.0098772033 0.0087489727         2655 
 1597000   0.61405405   -9.1990306    189.05901 0.0098653207 0.0087401276         2673 
 1598000   0.61732076   -9.2211116    189.04317 0.0098583213 0.0087312931         2676 
 1599000    0.6175931   -9.2109714    189.09753 0.0098549888 0.0087224567         2670 
 1600000   0.62627745   -9.2150065    188.97588 0.0098424939 0.0087136453         2659 
 1601000   0.62428255   -9.2363514    189.16474 0.0098461765   0.00870484         2687 
 1602000   0.61337586   -9.2222255    188.78078 0.0098200574  0.008696054         2718 
 1603000   0.61044996   -9.2076978    188.89445 0.0098198405 0.0086872693         2664 
 1604000   0.61647936   -9.2202449    188.62663 0.0097998043 0.0086784999         2681 
 1605000   0.61409808   -9.2242616    189.17134 0.0098219801 0.0086697431         2687 
 1606000   0.59644435   -9.2531839    188.87583 0.0098005307  0.008660982         2773 
 1607000   0.62426778   -9.2047498    189.15116 0.0098087097 0.0086522364         2701 
 1608000    0.6106007    -9.208773     189.1576 0.0098029438  0.008643509         2673 
 1609000   0.60841667   -9.2172535    189.01507  0.009789469 0.0086347862         2662 
 1610000   0.59777539    -9.207181    189.16223 0.0097910059 0.0086260828         2681 
 1611000   0.60482152   -9.2138954     188.9557 0.0097742446  0.008617393         2675 
 1612000   0.61185998   -9.2124612    189.31093 0.0097865454 0.0086087094         2701 
 1613000   0.62589006   -9.2331163    188.88143 0.0097582885  0.008600036         2710 
 1614000   0.59496848   -9.2394129    188.88377 0.0097523634  0.008591374         2714 
 1615000   0.61245037   -9.2298581    188.79465 0.0097417259  0.008582731         2690 
 1616000   0.61165309   -9.2190422    189.13017 0.0097529995 0.0085741035         2754 
 1617000   0.60503909   -9.2360968    188.72952 0.0097263203 0.0085654878         2682 
 1618000    0.6121648    -9.226352    189.25505 0.0097473758 0.0085568914         2667 
 1619000    0.6028928   -9.2310515     188.8583 0.0097209338 0.0085482971         2703 
 1620000   0.60698407   -9.2366187    189.06083 0.0097253511 0.0085397139         2670 
 1621000   0.61176183   -9.2422899    188.79025 0.0097054414 0.0085311532         2673 
 1622000   0.61053098   -9.2271361    189.15779 0.0097183409 0.0085225932         2709 
 1623000   0.59648352    -9.240391    188.93679 0.0097010057 0.0085140328         2652 
 1624000   0.61049784   -9.2350724    188.67317 0.0096815053 0.0085054809         2718 
 1625000   0.60109882    -9.249654    188.56278 0.0096698863  0.008496934         2682 
 1626000   0.59885665   -9.2482688    188.83188 0.0096777307 0.0084884041         2742 
 1627000   0.58928813   -9.2452942    188.99994 0.0096803905 0.0084798926         2660 
 1628000   0.60332127    -9.252815    188.73942 0.0096611088  0.008471385         2746 
 1629000   0.60641777   -9.2421323    188.61351 0.0096487368 0.0084628883         2727 
 1630000    0.6081146   -9.2297051    188.93499  0.009659253 0.0084544047         2670 
 1631000   0.60854287   -9.2412737    188.99177 0.0096562317 0.0084459378         2692 
 1632000   0.60777942   -9.2611436    188.78504 0.0096397588  0.008437482         2663 
 1633000   0.60277904   -9.2472041    188.82869 0.0096360835 0.0084290384         2713 
 1634000   0.60074449   -9.2528493    188.70575 0.0096239165 0.0084206075         2756 
 1635000   0.59264992   -9.2421263    188.98458 0.0096322415 0.0084121782         2748 
 1636000   0.60079355   -9.2450076     188.9972 0.0096269967 0.0084037583         2736 
 1637000   0.60254135   -9.2429343    188.75981 0.0096090315 0.0083953465         2722 
 1638000   0.60222235   -9.2614393    188.56649 0.0095933297 0.0083869526         2758 
 1639000    0.5960653   -9.2297514    188.96658 0.0096078189 0.0083785625         2752 
 1640000   0.59308409   -9.2213267     189.2017 0.0096139075 0.0083701897         2702 
 1641000   0.60241506   -9.2493851    188.87352 0.0095913834 0.0083618287         2732 
 1642000   0.58031371   -9.2727938    188.63942 0.0095736612 0.0083534642         2729 
 1643000   0.59759551   -9.2429723     188.5893 0.0095652924 0.0083451215         2685 
 1644000   0.58517352   -9.2529005    189.21574 0.0095912279 0.0083367847         2716 
 1645000   0.59255419   -9.2413561    188.78489 0.0095635707 0.0083284526         2698 
 1646000   0.61689777   -9.2449259    188.78057 0.0095575422 0.0083201387         2770 
 1647000   0.60067763    -9.272247    188.83035 0.0095542576 0.0083118365         2750 
 1648000   0.58855856   -9.2546493    188.79785 0.0095468169 0.0083035411         2736 
 1649000   0.60543244   -9.2477891    188.79445 0.0095408553 0.0082952599         2739 
 1650000    0.5945161   -9.2678648    188.48119 0.0095192521 0.0082869894         2771 
 1651000   0.60122992     -9.26044    188.20107 0.0094993472 0.0082787181         2760 
 1652000   0.59647321   -9.2795819     188.5222 0.0095097964 0.0082704495         2814 
 1653000   0.58534377   -9.2772114    188.32127 0.0094939135 0.0082621936         2802 
 1654000   0.60233639   -9.2626688    188.94737 0.0095197186 0.0082539425         2772 
 1655000   0.58671719   -9.2755666    188.57026 0.0094949776 0.0082456988         2835 
 1656000   0.57986566   -9.2602396    188.93027 0.0095073608 0.0082374772         2849 
 1657000   0.59010784   -9.2983351    188.29578 0.0094697131 0.0082292496         2827 
 1658000   0.59459735   -9.2837405    188.56705 0.0094776361 0.0082210432         2868 
 1659000   0.59346866   -9.2709978    188.58484 0.0094728171 0.0082128481         2779 
 1660000   0.57633591   -9.2786833    188.55269 0.0094654967 0.0082046614         2826 
 1661000   0.59957784   -9.2941031    188.14736 0.0094394622 0.0081964761         2791 
 1662000   0.60366761   -9.2764004    188.39218  0.009446058 0.0081883049         2838 
 1663000   0.59651777   -9.2642879    188.48275 0.0094449165 0.0081801472         2863 
 1664000   0.58682279   -9.2893453    188.53002 0.0094416078 0.0081719969         2887 
 1665000    0.5705538   -9.2829901    188.67727 0.0094433066 0.0081638539         2837 
 1666000   0.59154106   -9.2921801    188.30025 0.0094187801 0.0081557153         2794 
 1667000   0.59511128   -9.2915332    188.18067 0.0094071523 0.0081475996         2815 
 1668000   0.58991634   -9.2983298    188.37873 0.0094114074 0.0081394888         2861 
 1669000   0.57028773   -9.3092868    188.49195 0.0094114215 0.0081313892         2834 
 1670000   0.58930204   -9.2926188    188.61736 0.0094120438 0.0081232994         2828 
 1671000   0.56812126   -9.2830562    188.57857 0.0094044769  0.008115216         2872 
 1672000   0.58962824   -9.3135245    188.59221 0.0093995319 0.0081071403         2854 
 1673000   0.59065228   -9.3041574    188.70379 0.0093994713 0.0080990687         2916 
 1674000   0.58117028   -9.3026785    188.40362 0.0093789139 0.0080910027         2897 
 1675000   0.58358417   -9.3046463    188.58191 0.0093821845 0.0080829475         2892 
 1676000   0.58359736   -9.3084921    188.31238 0.0093631849 0.0080749033         2894 
 1677000   0.58611573   -9.3028421    188.27842 0.0093559142  0.008066864         2892 
 1678000   0.59319306   -9.3124765    188.36745 0.0093547601 0.0080588422         2913 
 1679000   0.58475305   -9.3100074    188.41096 0.0093513482 0.0080508231         2892 
 1680000   0.58530712   -9.3222229    188.13959 0.0093323209 0.0080428213         2918 
 1681000   0.58005428   -9.3342728    188.15764 0.0093276641  0.008034835         2935 
 1682000   0.58014755   -9.3250882    188.43889 0.0093360529 0.0080268547         2906 
 1683000   0.58769814   -9.3287994    187.93798 0.0093057033  0.008018886         2885 
 1684000   0.57422664   -9.2997993    188.12514 0.0093094386 0.0080109307         2919 
 1685000   0.58224286   -9.3163268     188.5364 0.0093242534 0.0080029898         2933 
 1686000   0.57445036   -9.3444657    188.22183 0.0093031748 0.0079950495         2953 
 1687000   0.57042934   -9.3252986    188.57839 0.0093152732 0.0079871255         2856 
 1688000   0.57681591   -9.3302117    188.53464 0.0093075947 0.0079792103         2892 
 1689000   0.56550676   -9.3105995    188.28278 0.0092896574 0.0079713072         2910 
 1690000   0.58067098   -9.3320141    188.23534 0.0092818215 0.0079634067         2912 
 1691000   0.58506593   -9.3168831    188.13989 0.0092716286 0.0079555177         2897 
 1692000   0.57835492   -9.3229605    188.31609 0.0092748273 0.0079476429         2891 
 1693000   0.57122013    -9.337492    188.31126 0.0092691109 0.0079397779         2903 
 1694000   0.57890425   -9.3428372    187.91759 0.0092442732  0.007931914         2882 
 1695000   0.57094856   -9.3343081    188.13923 0.0092497163 0.0079240535         2910 
 1696000    0.5734162   -9.3436576    187.97495 0.0092361904 0.0079162033         2979 
 1697000   0.57814398   -9.3333971    188.16066 0.0092398674 0.0079083674         2948 
 1698000   0.57820336   -9.3410544     188.2227 0.0092374703 0.0079005346         2953 
 1699000   0.58089033   -9.3480509    188.24133 0.0092329475 0.0078927102         2934 
 1700000   0.56671257   -9.3453075    187.84128  0.009207906 0.0078848855         2937 
 1701000   0.56817334   -9.3594717    187.69662 0.0091954058 0.0078770769         2974 
 1702000     0.585225   -9.3423638    188.17227 0.0092132916 0.0078692784         2976 
 1703000    0.5704595   -9.3580036    187.88363 0.0091937576 0.0078614889         2947 
 1704000   0.56352059   -9.3646717     187.9335 0.0091908012 0.0078537022         2995 
 1705000   0.57649488   -9.3458987    188.20097 0.0091984836 0.0078459233         2930 
 1706000   0.57743475    -9.344539    188.37338 0.0092015132  0.007838156         2969 
 1707000   0.56357994   -9.3601391    187.72456 0.0091644486 0.0078303914         2985 
 1708000   0.57597847   -9.3853171    187.55679 0.0091508973 0.0078226356         2977 
 1709000    0.5624511   -9.3804841     187.5647 0.0091459282 0.0078148879         3000 
 1710000   0.57401025   -9.3616613    187.94949 0.0091593321  0.007807154         2952 
 1711000   0.57466581    -9.370257    188.08226 0.0091604452 0.0077994349         2976 
 1712000   0.56981622   -9.3710894    187.98161 0.0091501951 0.0077917227         2998 
 1713000   0.56782236    -9.357974     187.6348 0.0091279823 0.0077840184         2973 
 1714000   0.55523509   -9.3817827    187.70433 0.0091260372 0.0077763252         2955 
 1715000   0.56387642   -9.3573964    187.93273  0.009131814 0.0077686449         2964 
 1716000   0.56701985   -9.3723815    187.71633 0.0091159835 0.0077609718         2997 
 1717000   0.56102435   -9.3594402    188.27183  0.009137635 0.0077533064         2980 
 1718000   0.57159345   -9.3525155    187.88022 0.0091133209 0.0077456572         2957 
 1719000   0.57017394   -9.3316583    188.06563 0.0091170073  0.007738019         2960 
 1720000   0.56830329   -9.3536729    187.68389 0.0090932116 0.0077303931         3012 
 1721000   0.56609797   -9.3672134    187.80416 0.0090937517 0.0077227696         2942 
 1722000   0.56629491   -9.3511927    188.08996 0.0091023014 0.0077151658         2933 
 1723000   0.57062708    -9.361558    187.79577   0.00908279 0.0077075636         2978 
 1724000   0.57051687   -9.3728039    187.52894 0.0090646238 0.0076999659         2984 
 1725000    0.5787783   -9.3768532    188.03979 0.0090840477 0.0076923783         3000 
 1726000    0.5747388   -9.3811606    187.75567  0.009065067 0.0076847982         2994 
 1727000   0.54208512    -9.384025    188.04746 0.0090738978 0.0076772322         2999 
 1728000   0.55782232   -9.3725955    187.83619 0.0090584583 0.0076696743         2979 
 1729000    0.5648424   -9.3816925    188.21169 0.0090713174 0.0076621253         2980 
 1730000   0.55321794   -9.3849656    187.85677 0.0090489775 0.0076545794         3027 
 1731000   0.56679905   -9.3809158    187.53241 0.0090281346 0.0076470518         3011 
 1732000   0.56660188   -9.3889917    187.80395  0.009035987 0.0076395381         2968 
 1733000   0.56817034   -9.3730111    187.65768 0.0090237393 0.0076320328         2972 
 1734000    0.5546935   -9.3752071    187.70557 0.0090208365 0.0076245353         2998 
 1735000   0.56721114   -9.3915423    187.80588 0.0090204552  0.007617045         3003 
 1736000   0.54748531   -9.3843646    187.84197 0.0090169914 0.0076095601         2981 
 1737000   0.56192884   -9.3724226    187.36853 0.0089890869 0.0076020892         2992 
 1738000   0.56502912   -9.3882464    187.98374  0.009013413 0.0075946238         2969 
 1739000   0.56188146   -9.3914247    187.87154 0.0090028533 0.0075871592         3016 
 1740000   0.55184294   -9.3694135    187.83158 0.0089957656 0.0075797042         2983 
 1741000   0.57482884   -9.3887189    187.76134 0.0089872361 0.0075722683         3002 
 1742000    0.5544054   -9.3959175    187.61089 0.0089748798 0.0075648402         3005 
 1743000   0.55529451   -9.3953945     187.5273 0.0089657343 0.0075574259         2997 
 1744000   0.56651075   -9.3913404    187.66793  0.008967313 0.0075500201         2985 
 1745000   0.55369665   -9.3916415    187.71018 0.0089641922 0.0075426169         3017 
 1746000   0.55854628   -9.3963993    187.74253 0.0089606019 0.0075352316         2953 
 1747000   0.56748863   -9.3902147    187.31473 0.0089350663 0.0075278502         3032 
 1748000   0.54997137   -9.4008127     187.6373 0.0089453327 0.0075204836         2987 
 1749000   0.55334097   -9.4063601    187.55165 0.0089361372 0.0075131312         2986 
 1750000   0.55671778   -9.4163092    187.65533 0.0089359681 0.0075057823         3038 
 1751000   0.55819525   -9.3848853    187.94735 0.0089447624 0.0074984449         3014 
 1752000   0.56521717   -9.4002852    187.68856 0.0089273477  0.007491114         3022 
 1753000   0.56650394   -9.4078823    187.40227 0.0089086454 0.0074837949         3006 
 1754000   0.55690082   -9.4177868    187.52625 0.0089094567 0.0074764803         3008 
 1755000   0.55183473   -9.3865093    187.54484 0.0089052629 0.0074691706         3026 
 1756000   0.55381739   -9.3927991    187.72952 0.0089089561 0.0074618841         3060 
 1757000   0.54827781   -9.3993629    187.68355 0.0089017049 0.0074545991         2991 
 1758000   0.54384992   -9.4039603    187.71645 0.0088982009 0.0074473212         3004 
 1759000   0.55067911   -9.4052035    187.61331 0.0088882563 0.0074400618         3020 
 1760000   0.55522642   -9.3990827    187.56735   0.00888103 0.0074327993         3055 
 1761000   0.54406283   -9.4026282    187.81954 0.0088879205 0.0074255464         3012 
 1762000   0.54714085   -9.4174084    187.36493 0.0088613757 0.0074183069         3034 
 1763000   0.55753286   -9.4137515    187.70834 0.0088725816 0.0074110788         3003 
 1764000   0.55725222    -9.417672    187.56038 0.0088605622 0.0074038524         3005 
 1765000   0.53774579   -9.4085158    187.58547 0.0088567266 0.0073966306         3037 
 1766000   0.54512503   -9.4255896    187.31121 0.0088387697 0.0073894232         3007 
 1767000   0.54518205   -9.4116467    187.34858 0.0088355299  0.007382227         3011 
 1768000   0.53782239   -9.4015671    187.64089 0.0088443105 0.0073750369         3020 
 1769000   0.54022269   -9.4172241    187.60459  0.008837601 0.0073678529         3010 
 1770000   0.54852622   -9.4092964    187.65539 0.0088349993 0.0073606864         3010 
 1771000   0.54992121   -9.4280707     187.5428 0.0088247129 0.0073535247         3000 
 1772000   0.54121422   -9.4398802    187.18145 0.0088027394 0.0073463763         3007 
 1773000   0.53861105   -9.4132394    187.58497 0.0088167406 0.0073392377         3001 
 1774000   0.53888541   -9.4062011    187.63376 0.0088140625 0.0073321111         3011 
 1775000   0.53406532   -9.4306215    187.45001 0.0088004701 0.0073249881         3007 
 1776000   0.54193908   -9.4021295     187.2432 0.0087858106 0.0073178699         3034 
 1777000    0.5390509   -9.4268005    187.36992 0.0087868094 0.0073107621         3045 
 1778000   0.54074113   -9.4309826     187.5925 0.0087922996 0.0073036647         3021 
 1779000   0.54596702   -9.4438158    187.44357 0.0087803811 0.0072965856         3049 
 1780000   0.52702762   -9.4163368    187.35797 0.0087714406  0.007289504         3038 
 1781000   0.54405797     -9.43614    187.37011 0.0087670834  0.007282438         3047 
 1782000   0.53632416   -9.4244627    187.14319 0.0087515521 0.0072753761         3070 
 1783000   0.54295354   -9.4092488    187.69814 0.0087725808 0.0072683294         3024 
 1784000   0.54321993   -9.4073544    187.22587 0.0087456029 0.0072612917         3034 
 1785000   0.54787521   -9.4218251    187.39075 0.0087484012 0.0072542589         3045 
 1786000   0.53434625   -9.4158117    187.51713 0.0087493994 0.0072472369         3010 
 1787000   0.53204752   -9.4109589    187.43524 0.0087406846 0.0072402199         3016 
 1788000   0.53453218   -9.4052928    187.43977 0.0087360072 0.0072332158         3024 
 1789000   0.53912378   -9.4263165    187.21031 0.0087204354 0.0072262258         3037 
 1790000   0.53132785   -9.4092166    187.37405 0.0087231865 0.0072192414         3041 
 1791000   0.52353188   -9.4227136    187.53994 0.0087260348 0.0072122673         2983 
 1792000   0.54466963   -9.4246701    187.24446 0.0087074246 0.0072052976         3033 
 1793000   0.54602672    -9.418574    187.32245 0.0087061929 0.0071983388         3051 
 1794000   0.53935412   -9.4319356    187.02172 0.0086873708 0.0071913885         3033 
 1795000   0.53981662    -9.430107    187.22047 0.0086917583 0.0071844483         3040 
 1796000   0.53453619   -9.4465323    187.51217 0.0087004533 0.0071775153         3015 
 1797000    0.5213017   -9.4437152    187.22465 0.0086822783 0.0071705892         3052 
 1798000   0.53569016   -9.4234726    187.35741 0.0086836027 0.0071636736         3075 
 1799000   0.54015615    -9.437189     187.5935 0.0086897119 0.0071567678         3026 
 1800000   0.53478349   -9.4294002    187.41711 0.0086767179 0.0071498687         3066 
 1801000   0.54212445   -9.4343908    187.33845 0.0086682605 0.0071429802         3032 
 1802000   0.52503085    -9.430717    187.14286 0.0086544053 0.0071361002         3032 
 1803000   0.52662042   -9.4493017    187.51919 0.0086669988 0.0071292251         3013 
 1804000   0.52941108   -9.4309759    187.24003 0.0086492991 0.0071223673         3033 
 1805000   0.53577412   -9.4467983     187.2322 0.0086441459 0.0071155146         3058 
 1806000   0.52458263   -9.4471732     187.2872 0.0086418976 0.0071086691         3024 
 1807000   0.53434605   -9.4345899    187.24042 0.0086349576  0.007101834         3042 
 1808000   0.52719231   -9.4469958    187.53143 0.0086435945 0.0070950088         3053 
 1809000   0.52648322   -9.4535498    187.00148 0.0086144038 0.0070881875         3066 
 1810000   0.54151273   -9.4446382    187.42269 0.0086290374 0.0070813735         3054 
 1811000   0.52391638   -9.4314092    187.02028 0.0086057557 0.0070745708         3071 
 1812000   0.51884632   -9.4492369    186.99978 0.0086000634 0.0070677717         3078 
 1813000   0.52728144   -9.4467271    187.09425 0.0085996622 0.0070609868         3082 
 1814000   0.51766302   -9.4409432     187.1763 0.0085986907 0.0070542147         3054 
 1815000   0.52430378   -9.4392538    187.13229 0.0085919323 0.0070474475         3023 
 1816000   0.54757085   -9.4471731    187.12274  0.008586763 0.0070406934         3028 
 1817000   0.52721489   -9.4448225    187.12544 0.0085821612 0.0070339475         3039 
 1818000   0.51702634   -9.4499348    187.08554 0.0085756117 0.0070272039         3051 
 1819000   0.52387082   -9.4517185    186.81253 0.0085583895 0.0070204684         3061 
 1820000    0.5182137   -9.4296465    187.37356 0.0085793752 0.0070137393         3016 
 1821000   0.52360377   -9.4590641    186.90086 0.0085530324 0.0070070225         3087 
 1822000   0.52816703   -9.4703777    187.14591 0.0085595459 0.0070003124         3093 
 1823000   0.51142733   -9.4485187    186.96503 0.0085465821 0.0069936086         3062 
 1824000   0.51968003   -9.4424585    186.98586 0.0085428483 0.0069869159         3104 
 1825000   0.52175353   -9.4592307     187.2865  0.008551895 0.0069802321         3052 
 1826000   0.52751953   -9.4651157    186.98638 0.0085335152 0.0069735574         3096 
 1827000   0.51426837   -9.4590048    187.09666 0.0085338742 0.0069668862         3109 
 1828000   0.52127635   -9.4382346    187.09399 0.0085290841 0.0069602217         3033 
 1829000   0.51671347   -9.4406574    187.07272 0.0085234516 0.0069535637         3070 
 1830000   0.52325509   -9.4483611    187.30814 0.0085295145 0.0069469171         3079 
 1831000   0.52288599   -9.4569987    187.16921 0.0085185332 0.0069402753         3057 
 1832000   0.52556622   -9.4603253    187.22201 0.0085162849 0.0069336427         3077 
 1833000   0.51391781    -9.471222    187.00215 0.0085016434 0.0069270216         3050 
 1834000   0.52111083   -9.4610832    187.06739 0.0084999724 0.0069204102         3024 
 1835000   0.52174431   -9.4660454    186.91977 0.0084886361 0.0069138124         3079 
 1836000   0.52413709   -9.4666923    187.01413 0.0084882957 0.0069072214         3045 
 1837000   0.51773166    -9.462801     187.1924 0.0084917618 0.0069006318         3069 
 1838000   0.51566773   -9.4445977    187.05294 0.0084808186 0.0068940484         3083 
 1839000   0.52408922   -9.4749192     187.3728 0.0084907013 0.0068874746         3069 
 1840000   0.51564281   -9.4663132    186.89097 0.0084642651 0.0068809087         3039 
 1841000   0.52805276   -9.4645489    186.96666 0.0084630935 0.0068743533         3038 
 1842000   0.51220646    -9.465543    187.21217 0.0084696061 0.0068678077         3034 
 1843000   0.50247825   -9.4841578    187.35711 0.0084715639 0.0068612642         3082 
 1844000   0.52397418   -9.4658235    186.94345 0.0084482758 0.0068547291         3048 
 1845000   0.51850718   -9.4560061     187.2354 0.0084568834 0.0068482038         3103 
 1846000   0.52840605   -9.4592157    187.09866 0.0084461295 0.0068416903         3040 
 1847000   0.51642215   -9.4608999    187.03125  0.008438515 0.0068351817         3088 
 1848000   0.51301757   -9.4693809    187.28457 0.0084453719 0.0068286809         3021 
 1849000   0.51381248   -9.4655824    186.98683 0.0084273856 0.0068221926         3039 
 1850000    0.5127252    -9.449424    186.76103 0.0084126588 0.0068157114         3060 
 1851000    0.5103889   -9.4860006    186.66843 0.0084039453 0.0068092417         3078 
 1852000   0.51463351   -9.4854281    186.87586 0.0084087412 0.0068027752         3079 
 1853000   0.51823572   -9.4767704    186.95011 0.0084075423 0.0067963126         3062 
 1854000   0.51381456   -9.4714054    186.91274 0.0084013278 0.0067898678         3077 
 1855000   0.51177773   -9.4721443    186.97009 0.0083993753 0.0067834246         3053 
 1856000   0.51109565   -9.4780008    186.67875 0.0083817685 0.0067769886         3059 
 1857000   0.51491606   -9.4581228    186.74581 0.0083802643 0.0067705673         3053 
 1858000   0.51298157   -9.4711192    186.96595 0.0083856273 0.0067641493         3005 
 1859000   0.50216532   -9.4649428     187.1398   0.00838891 0.0067577402         3034 
 1860000   0.50657083   -9.4686189    187.00462  0.008378343 0.0067513403         3072 
 1861000   0.51423844   -9.4756575    186.95347 0.0083715508 0.0067449469         3074 
 1862000   0.51428833   -9.4680814    186.92779 0.0083659056 0.0067385645         3037 
 1863000   0.50881185    -9.474762    187.03494 0.0083662077 0.0067321835         3036 
 1864000   0.50541469   -9.4814551    186.93189 0.0083571125 0.0067258116         3075 
 1865000   0.52006122    -9.495155    186.92071 0.0083521317 0.0067194507         3042 
 1866000   0.50397513   -9.4778714    186.67522 0.0083366924 0.0067130967         3081 
 1867000   0.51292115   -9.4895957    186.94592 0.0083443097 0.0067067527         3053 
 1868000   0.50271234   -9.4786433    187.03757 0.0083439316 0.0067004226         3066 
 1869000   0.50567209   -9.4864063    186.96363 0.0083361706 0.0066940936         3056 
 1870000   0.50609905   -9.4835626    186.72825 0.0083212232 0.0066877759         3050 
 1871000   0.50022839   -9.4908264    187.08236 0.0083325476   0.00668146         3029 
 1872000   0.50577515    -9.515194    186.78571 0.0083148909 0.0066751562         3058 
 1873000   0.49076073   -9.4872527    186.70465 0.0083068451 0.0066688564         3063 
 1874000   0.50304094   -9.4871658    186.57015 0.0082964312 0.0066625618         3076 
 1875000   0.50409089   -9.4985033    186.88047 0.0083057985 0.0066562827         3080 
 1876000   0.49659416   -9.4871302    186.74749  0.008295464 0.0066500106         3065 
 1877000   0.50439807   -9.4987555    186.75439 0.0082913508 0.0066437441         3078 
 1878000   0.49917298   -9.4883805    186.89676 0.0082932536 0.0066374873         3112 
 1879000   0.49496987   -9.4766094    186.82025 0.0082854466  0.006631231         3133 
 1880000   0.50419124   -9.4720404    186.79751 0.0082800315 0.0066249852         3095 
 1881000   0.49266447     -9.48842    186.89339 0.0082798772 0.0066187458         3088 
 1882000   0.51084392   -9.5004987    186.88394 0.0082750593 0.0066125215         3092 
 1883000   0.50144958   -9.4968366    186.86097 0.0082696481 0.0066063001         3103 
 1884000   0.48509905   -9.4800167    186.61295 0.0082542883  0.006600083         3068 
 1885000   0.48705781   -9.4827185    186.90373 0.0082627642 0.0065938783         3107 
 1886000   0.50335352   -9.4974877    186.95431 0.0082606183 0.0065876827         3099 
 1887000   0.49934719   -9.4956525      186.768 0.0082480126  0.006581489         3093 
 1888000   0.50404106   -9.4861575    186.92595 0.0082506157 0.0065753058         3052 
 1889000   0.49554955   -9.4986356    186.54156 0.0082292906 0.0065691302         3100 
 1890000   0.50158748   -9.4957001    186.91256 0.0082412947 0.0065629678         3102 
 1891000   0.48893384   -9.5015687    187.00648 0.0082410754 0.0065568101         3083 
 1892000   0.49792532   -9.4938568    186.90557  0.008232275 0.0065506599         3088 
 1893000   0.49914179   -9.4845547    186.47492 0.0082089682 0.0065445145         3064 
 1894000   0.49947219   -9.5097255    186.49322  0.008205439 0.0065383811         3093 
 1895000   0.49620688   -9.4937697    186.72359 0.0082112398 0.0065322482         3070 
 1896000   0.50240117   -9.4944916    186.71629 0.0082065882 0.0065261264         3083 
 1897000   0.50070772   -9.5059572    186.59809 0.0081970694  0.006520014         3062 
 1898000   0.50148966   -9.5092128    186.82717 0.0082028087 0.0065139158         3083 
 1899000    0.5016601   -9.4924687    186.55314 0.0081864637 0.0065078234         3102 
 1900000   0.48146346   -9.5055014    186.94072 0.0081991542 0.0065017333         3081 
 1901000   0.49767519   -9.5044656    186.41544 0.0081718147 0.0064956504         3091 
 1902000   0.49768539   -9.5161516    186.49046 0.0081708051 0.0064895737         3091 
 1903000   0.49147485   -9.5217076    186.77538 0.0081789885 0.0064835022         3138 
 1904000   0.49122178   -9.5119851     186.4466 0.0081603028 0.0064774411         3113 
 1905000   0.49394294   -9.5013305    186.84881 0.0081736138 0.0064713827         3127 
 1906000   0.49052283   -9.5031521    186.67167 0.0081615805 0.0064653316         3133 
 1907000   0.48868382   -9.5093907    186.52081 0.0081507081 0.0064592951         3122 
 1908000   0.49216549   -9.5245299    186.71103 0.0081547444 0.0064532668         3131 
 1909000   0.49167378   -9.5155591    186.33938 0.0081342492  0.006447241         3100 
 1910000   0.49952985   -9.5082856     186.7993 0.0081500568 0.0064412285         3101 
 1911000    0.4918365   -9.4999277     186.4474 0.0081304465 0.0064352204         3102 
 1912000   0.48019961   -9.5088174    186.72783 0.0081384164 0.0064292214         3103 
 1913000   0.49092732   -9.5039709    186.73208 0.0081343474 0.0064232274         3124 
 1914000   0.49253931    -9.511841    186.54682 0.0081220316 0.0064172413         3116 
 1915000   0.48084529   -9.5153026    186.51248  0.008116296 0.0064112666         3105 
 1916000   0.48389528   -9.5171814    186.66422 0.0081186594 0.0064053014         3094 
 1917000    0.4849287   -9.5216008    186.69412 0.0081157243 0.0063993392         3091 
 1918000   0.48449722   -9.5258106    186.56219 0.0081057608 0.0063933828         3109 
 1919000   0.49341313   -9.5053044    186.37274   0.00809331 0.0063874358         3125 
 1920000   0.49247551   -9.5081105    186.37215 0.0080890689 0.0063814973         3120 
 1921000    0.4816287   -9.5201086    186.68709 0.0080985201 0.0063755673         3119 
 1922000    0.4910662    -9.507132    186.58537 0.0080898962 0.0063696411         3123 
 1923000   0.48054919   -9.5330811     186.7559 0.0080930793 0.0063637247         3116 
 1924000   0.49048568   -9.5180885    186.48241 0.0080770275 0.0063578083         3132 
 1925000   0.48247575   -9.5064708    186.30121 0.0080649876 0.0063519039         3121 
 1926000   0.47843485   -9.5079258    186.77992 0.0080815125 0.0063460108         3168 
 1927000    0.4890786   -9.5343528    186.31233 0.0080570979 0.0063401187         3106 
 1928000   0.48766077   -9.5168762    186.47252 0.0080598426 0.0063342354         3104 
 1929000   0.47822704    -9.538785    186.30427 0.0080483958 0.0063283585         3119 
 1930000   0.48393319    -9.506473    186.30186 0.0080441216  0.006322489         3103 
 1931000    0.4761811   -9.5323882    186.51935  0.008049342 0.0063166271         3105 
 1932000   0.48241419   -9.5245824    186.68324 0.0080522447  0.006310783         3103 
 1933000   0.48687299   -9.5170079    186.52679 0.0080413344 0.0063049411         3126 
 1934000   0.48259963   -9.5342637    186.47326 0.0080348699 0.0062991077         3108 
 1935000   0.47066268   -9.5239854     186.3178 0.0080240226 0.0062932775         3128 
 1936000   0.47767125   -9.5270363    186.56533 0.0080305324 0.0062874577         3108 
 1937000   0.46692661   -9.5321701    186.57835 0.0080269466 0.0062816395         3112 
 1938000   0.48591084   -9.5316094     186.3294    0.0080121 0.0062758271         3134 
 1939000   0.48884342   -9.5346433    186.37073 0.0080097445 0.0062700241         3092 
 1940000   0.48486042   -9.5442364    186.76458 0.0080225334  0.006264229         3085 
 1941000   0.47594557   -9.5358987    186.39524 0.0080025434 0.0062584401         3086 
 1942000   0.47092469   -9.5208891    186.25325 0.0079923297 0.0062526588         3100 
 1943000   0.47520059   -9.5354462    186.72893 0.0080086178 0.0062468851         3097 
 1944000   0.48344781   -9.5361019    186.53755 0.0079962941  0.006241114         3081 
 1945000   0.48294221   -9.5274675    186.51918 0.0079913958 0.0062353517         3065 
 1946000   0.47959878   -9.5018441    186.49399 0.0079862105 0.0062295993         3084 
 1947000   0.47867771   -9.5293832    186.49436 0.0079821246 0.0062238548         3077 
 1948000   0.47317513   -9.5357361    186.48446 0.0079776035 0.0062181189         3118 
 1949000   0.47413554    -9.535468    186.32526 0.0079667035  0.006212392         3067 
 1950000   0.46850861   -9.5252753     186.7159 0.0079793119 0.0062066657         3077 
 1951000   0.47513262   -9.5479116    186.26813 0.0079560965 0.0062009525         3088 
 1952000    0.4698034   -9.5476043    186.25809 0.0079515918 0.0061952468         3082 
 1953000   0.47515316   -9.5404493    186.29742 0.0079491988  0.006189542         3087 
 1954000   0.47813789   -9.5324458    186.56993 0.0079567526 0.0061838482         3100 
 1955000   0.47108605   -9.5484561    186.17431 0.0079358187 0.0061781595         3079 
 1956000   0.47271897   -9.5237485    186.30963 0.0079375269 0.0061724764         3127 
 1957000   0.46127681   -9.5394285     186.2619 0.0079314385 0.0061668029         3088 
 1958000   0.47821586   -9.5517657    186.43913 0.0079349305 0.0061611345         3088 
 1959000   0.47331429   -9.5427524    186.39902  0.007929174 0.0061554752         3090 
 1960000   0.47397509   -9.5565966    186.19818 0.0079165891   0.00614982         3100 
 1961000   0.47577526    -9.526361    186.14126 0.0079101336 0.0061441759         3108 
 1962000   0.47388019   -9.5378232    186.13679  0.007905912 0.0061385392         3091 
 1963000   0.46310848   -9.5454431    186.45862 0.0079155467 0.0061329085         3117 
 1964000   0.46826685   -9.5421789    186.10658 0.0078965792 0.0061272819         3102 
 1965000   0.46644866   -9.5387482    186.20574  0.007896766 0.0061216603         3135 
 1966000   0.46450337   -9.5495277     186.2619 0.0078951298 0.0061160459         3115 
 1967000   0.47012295   -9.5440227    186.21615 0.0078891776 0.0061104387         3127 
 1968000   0.46913471   -9.5419913    186.09555 0.0078800622 0.0061048359         3123 
 1969000   0.45922622   -9.5462959    186.30364 0.0078848669 0.0060992442         3097 
 1970000   0.45669601   -9.5496034    186.14819 0.0078742888 0.0060936581         3140 
 1971000   0.46267878   -9.5516402    186.22177 0.0078734049 0.0060880804         3113 
 1972000   0.46451077   -9.5510757    186.02076  0.007860918 0.0060825046         3118 
 1973000   0.45621155   -9.5711599    186.07149 0.0078590763 0.0060769373         3117 
 1974000   0.46201948   -9.5530269    186.20337 0.0078606623  0.006071374         3108 
 1975000   0.45424068   -9.5685781    186.22674 0.0078576684 0.0060658237         3092 
 1976000   0.45920995   -9.5611435    186.20455 0.0078527562 0.0060602777         3120 
 1977000   0.46836374   -9.5480839    186.23256 0.0078499648 0.0060547379         3138 
 1978000   0.47056404   -9.5304726    186.42381 0.0078540532 0.0060492097         3121 
 1979000   0.45541736   -9.5619784    186.20387 0.0078408232 0.0060436865         3110 
 1980000   0.47136985     -9.54218    186.42444 0.0078461463 0.0060381698         3140 
 1981000   0.46380725    -9.554114    186.44594 0.0078430902 0.0060326607         3123 
 1982000   0.46774943   -9.5595008    186.21847 0.0078295689 0.0060271602         3151 
 1983000   0.46230904   -9.5532954    186.18899 0.0078243818 0.0060216613         3120 
 1984000   0.46956918   -9.5656724    186.15764 0.0078191215 0.0060161733         3114 
 1985000   0.46445996   -9.5565144    186.22654 0.0078180747  0.006010695         3133 
 1986000    0.4624887   -9.5484745    186.09801 0.0078087448  0.006005221         3146 
 1987000   0.46005354   -9.5531583     186.2938 0.0078130264 0.0059997565         3148 
 1988000   0.45700766   -9.5486764      186.242  0.007806925 0.0059942982         3098 
 1989000   0.45606673   -9.5544533    186.23189 0.0078025761 0.0059888452         3100 
 1990000   0.47077711   -9.5687265    186.26335 0.0077999729 0.0059833961         3127 
 1991000   0.45826722   -9.5721459    186.08265 0.0077884919 0.0059779553         3118 
 1992000   0.45614174   -9.5675066    186.02422 0.0077821376 0.0059725228         3140 
 1993000   0.46411241   -9.5719819    186.18843 0.0077850991 0.0059670927         3100 
 1994000   0.45494744   -9.5692255    186.06514 0.0077760423 0.0059616722         3115 
 1995000   0.45826875   -9.5629185    186.09429 0.0077733623  0.005956259         3121 
 1996000    0.4606609    -9.553978    186.00706 0.0077658257 0.0059508489         3149 
 1997000   0.44940076   -9.5738156    186.40607 0.0077785876 0.0059454473         3127 
 1998000   0.46161653   -9.5547922    186.07466 0.0077608717 0.0059400503         3111 
 1999000   0.44999594   -9.5647255    185.94567 0.0077516121  0.005934659         3113 
 2000000   0.45503333   -9.5597998    186.19869 0.0077582789 0.0059292726         3133 
 2001000   0.44934287    -9.560969    186.09921 0.0077502586 0.0059238989         3132 
 2002000    0.4570565   -9.5587524    185.93229 0.0077394394 0.0059185278         3143 
 2003000    0.4512237   -9.5681702     186.0335  0.007739786 0.0059131655         3126 
 2004000    0.4549411   -9.5584761    185.93999 0.0077320355 0.0059078069         3148 
 2005000   0.44692818   -9.5707339     186.0622 0.0077332584 0.0059024617         3113 
 2006000   0.45937574   -9.5653791    186.14794 0.0077329652 0.0058971209         3114 
 2007000   0.44382957   -9.5836787    186.22869 0.0077324651 0.0058917811         3135 
 2008000   0.46290902   -9.5606281    186.07803 0.0077223618 0.0058864481         3148 
 2009000   0.45006558   -9.5767661    186.15565 0.0077217376 0.0058811234         3136 
 2010000   0.45385308   -9.5879577    186.11005 0.0077160056 0.0058758115         3132 
 2011000   0.45004023    -9.561504    185.98276 0.0077068937 0.0058705006         3130 
 2012000    0.4579782   -9.5693498    186.13841   0.00770951 0.0058651961         3128 
Loop time of 5120.19 on 48 procs for 2000000 steps with 4000 atoms

Performance: 67497.456 tau/day, 390.610 timesteps/s
99.4% CPU use with 48 MPI tasks x no OpenMP threads

MPI task timing breakdown:
Section |  min time  |  avg time  |  max time  |%varavg| %total
---------------------------------------------------------------
Pair    | 346.56     | 378.47     | 403.14     |  71.6 |  7.39
Neigh   | 33.726     | 35.676     | 37.509     |  15.9 |  0.70
Comm    | 324.57     | 354.93     | 388.73     |  86.4 |  6.93
Output  | 5.5131     | 5.5153     | 5.5646     |   0.3 |  0.11
Modify  | 4273.1     | 4296.6     | 4317.1     |  13.8 | 83.91
Other   |            | 48.99      |            |       |  0.96

Nlocal:        83.3333 ave          91 max          76 min
Histogram: 1 3 6 5 11 4 8 6 2 2
Nghost:        2349.67 ave        2374 max        2334 min
Histogram: 4 6 6 7 12 4 2 5 1 1
Neighs:        16074.5 ave       18496 max       13959 min
Histogram: 3 3 5 10 6 9 3 5 2 2
FullNghs:      32149.6 ave       36326 max       28591 min
Histogram: 3 3 6 7 8 8 3 8 1 1

Total # of neighbors = 1543183
Ave neighs/atom = 385.79575
Neighbor list builds = 106480
Dangerous builds = 0

#clear
#
#next RN
#
#jump SELF
Total wall time: 1:25:23
