
units lj                  # Use reduced LJ style units
atom_style atomic         # Uncharged point particles
atom_modify map hash      # Needed for indexing of clusters etc
                          # Used to be able to find where atoms are in relation to each other.

lattice fcc 1.0 spacing 1 1 1
Lattice spacing in x,y,z = 1.5874011 1.5874011 1.5874011
region box block 0 10 0 10 0 10 units lattice
create_box 2 box
Created orthogonal box = (0.0000000 0.0000000 0.0000000) to (15.874011 15.874011 15.874011)
  3 by 4 by 4 MPI processor grid
create_atoms 1 box
Created 4000 atoms
  using lattice units in orthogonal box = (0.0000000 0.0000000 0.0000000) to (15.874011 15.874011 15.874011)
  create_atoms CPU = 0.002 seconds
set type 1 type/fraction 2 0.67 78393
Setting atom values ...
  2693 settings made for type/fraction
mass 1 1.0
mass 2 1.0
pair_style lj/cut  3.5
pair_modify tail  yes
pair_coeff 1  1  1.0  1.0   # Intearaction between 1 and 1 set with epsilon = 1 and sigma = 1
pair_coeff 1  2  1.5  0.8
pair_coeff 2  2  0.5  0.88

write_data data.0
System init for write_data ...
Neighbor list info ...
  update every 1 steps, delay 10 steps, check yes
  max neighbors/atom: 2000, page size: 100000
  master list distance cutoff = 3.8
  ghost atom cutoff = 3.8
  binsize = 1.9, bins = 9 9 9
  1 neighbor lists, perpetual/occasional/extra = 1 0 0
  (1) pair lj/cut, perpetual
      attributes: half, newton on
      pair build: half/bin/atomonly/newton
      stencil: half/bin/3d
      bin: standard
WARNING: Not all mixed pair coeffs generated from mixing. Use write_data with 'pair ij' option to store all pair coeffs. (../write_data.cpp:312)


#############################
#   M E L T   S Y S T E M   #
#############################

velocity all create 2.4 2750902 mom yes dist gaussian # Assign velocities
                                                    # Temperature 2.4, random number seed, zero linear momentum
                                                                                # Gaussian distribution

timestep 0.002   # simulation timestep
thermo 1000       # output thermodynamic data every 1000 steps bf 100

# Define a fix  in this case with index 1 applied to all
# particles in the simulation. This fix is for simulations
# in the anisotropic NPT ensemble. Note that we use the MTK
# correction.
fix 1 all npt temp 2.4 2.4 0.1 iso 5.68 5.68 0.5 mtk yes tchain 5 pchain 5 # Use NPT ensemble
                                                                         # Set temperature and pressure and damping
                                                                         # Numbers of thermostats in chain and in barostat
run 10000          # run for 10000 steps
Per MPI rank memory allocation (min/avg/max) = 3.642 | 3.644 | 3.648 Mbytes
Step Temp E_pair E_mol TotEng Press Volume 
       0          2.4   -4.3445498            0  -0.74544977   -3.8717164         4000 
    1000    2.4212592   -4.0428751            0  -0.41189426    5.5404114    3635.1385 
    2000    2.4397005   -4.0576487            0  -0.39901275    5.8002257    3614.1291 
    3000    2.3822194   -4.0032039            0  -0.43076811    6.0123327    3606.4759 
    4000    2.4053212   -4.0131662            0  -0.40608646    5.6529294    3638.6781 
    5000    2.3459341   -3.9816851            0  -0.46366364    5.6701313    3649.8183 
    6000    2.4330133   -3.9715919            0  -0.32298433    5.8727532    3639.8637 
    7000    2.4173872   -4.0918775            0  -0.46670312    5.8095972    3584.1399 
    8000    2.4563234   -4.0624813            0  -0.37891733    5.7641948    3607.5698 
    9000    2.4031805   -4.0419518            0  -0.43808225    5.5831412    3640.9165 
   10000    2.3393088   -4.0423238            0   -0.5342378     5.707975    3617.3875 
Loop time of 2.62342 on 48 procs for 10000 steps with 4000 atoms

Performance: 658682.826 tau/day, 3811.822 timesteps/s
99.6% CPU use with 48 MPI tasks x no OpenMP threads

MPI task timing breakdown:
Section |  min time  |  avg time  |  max time  |%varavg| %total
---------------------------------------------------------------
Pair    | 1.1813     | 1.2699     | 1.3272     |   2.4 | 48.41
Neigh   | 0.2187     | 0.22401    | 0.23498    |   0.6 |  8.54
Comm    | 0.81979    | 0.8739     | 0.96426    |   3.3 | 33.31
Output  | 0.00025118 | 0.00025797 | 0.00034109 |   0.0 |  0.01
Modify  | 0.21841    | 0.23925    | 0.25351    |   2.1 |  9.12
Other   |            | 0.01605    |            |       |  0.61

Nlocal:        83.3333 ave          92 max          76 min
Histogram: 3 4 7 8 3 6 12 0 3 2
Nghost:        1759.33 ave        1788 max        1724 min
Histogram: 2 0 3 7 6 8 11 5 4 2
Neighs:        10549.4 ave       12160 max        9428 min
Histogram: 2 9 2 9 14 6 1 3 1 1

Total # of neighbors = 506373
Ave neighs/atom = 126.59325
Neighbor list builds = 908
Dangerous builds = 204

# Equilibrate just above the melting temperature to avoid step fn in T

fix 1 all npt temp 1.25 1.25 0.1 iso 5.68 5.68 0.5 mtk yes tchain 5 pchain 5
run 2000
Per MPI rank memory allocation (min/avg/max) = 3.644 | 3.646 | 3.650 Mbytes
Step Temp E_pair E_mol TotEng Press Volume 
   10000    2.3393088   -4.0423238            0   -0.5342378     5.707975    3617.3875 
   11000    1.2322389   -5.8684335            0   -4.0205372    5.9235412    2778.1232 
   12000    1.2494242    -5.961143            0   -4.0874752    5.2989611    2774.7006 
Loop time of 0.656031 on 48 procs for 2000 steps with 4000 atoms

Performance: 526804.206 tau/day, 3048.635 timesteps/s
99.6% CPU use with 48 MPI tasks x no OpenMP threads

MPI task timing breakdown:
Section |  min time  |  avg time  |  max time  |%varavg| %total
---------------------------------------------------------------
Pair    | 0.30516    | 0.32614    | 0.34597    |   1.5 | 49.71
Neigh   | 0.042883   | 0.044598   | 0.046348   |   0.4 |  6.80
Comm    | 0.21164    | 0.23486    | 0.25803    |   2.0 | 35.80
Output  | 5.2163e-05 | 5.4751e-05 | 6.9902e-05 |   0.0 |  0.01
Modify  | 0.04091    | 0.045475   | 0.050184   |   1.3 |  6.93
Other   |            | 0.004902   |            |       |  0.75

Nlocal:        83.3333 ave          90 max          77 min
Histogram: 1 3 6 8 4 8 13 2 1 2
Nghost:        2103.04 ave        2126 max        2081 min
Histogram: 4 3 3 6 8 5 10 5 3 1
Neighs:        13764.3 ave       15219 max       12391 min
Histogram: 3 3 4 7 10 6 7 5 1 2

Total # of neighbors = 660687
Ave neighs/atom = 165.17175
Neighbor list builds = 145
Dangerous builds = 12

#############################
# L I N E A R  Q U E N C H  #
#############################

# Define solid atoms. This closely follows ten Wolde  Ruiz-Montero and Frenkel  Faraday Discuss  1996  104  93-110
# Compute components of the per-atom q6 vector
compute q6 all orientorder/atom degrees 1 6 components 6 nnn NULL cutoff 1.3 # compute the Q6 parameter.
                                                                             # Use all neighbours within 1.3 unit cell.

# get number of connections
compute coord_number all coord/atom orientorder q6 0.5

# An atom is solid if it has 8 or more connections (of a possible 14)
variable is_solid atom c_coord_number>=8
group solid dynamic all var is_solid    # Must be dynamic to update
dynamic group solid defined

# do clustering
compute cluster solid cluster/atom 1.3 # Create a cluster where all atoms within are solid and max 1.3 units from another member

# define chunks one chunk per cluster
compute clus_chunks solid chunk/atom c_cluster nchunk every compress yes  # Says which atoms are in which chunk

# count the size of each chunk
compute size_chunks solid property/chunk clus_chunks count


# Find the maximum entry in the vector of chunk sizes
variable max_n equal max(c_size_chunks)


# Thermo style which includes this variable
# thermo_style custom step temp pe vol v_max_n

thermo ${N}  # Print the thermo information every 100 steps
thermo 1000  

# Reset the npt fix at a lower temperature (below freezing)
fix 1  all npt temp  ${temp} ${temp}  0.1  iso  5.68  5.68  0.5  mtk yes tchain  5  pchain  5
fix 1  all npt temp  0.45 ${temp}  0.1  iso  5.68  5.68  0.5  mtk yes tchain  5  pchain  5
fix 1  all npt temp  0.45 0.45  0.1  iso  5.68  5.68  0.5  mtk yes tchain  5  pchain  5

dump dmp2 all dcd ${N} traj.dcd
dump dmp2 all dcd 1000 traj.dcd


compute msd all msd com yes
variable twopoint equal c_msd[4]/6/(step*dt+1.0e-6)
fix 9 all vector 10 c_msd[4]
variable fit equal slope(f_9)/6/(10*dt)
thermo_style custom step temp pe c_msd[4] v_twopoint v_fit v_max_n

fix 1 all npt temp 1.25 ${temp} 0.1 iso 5.68 5.68 0.5 mtk yes tchain 5 pchain 5
fix 1 all npt temp 1.25 0.45 0.1 iso 5.68 5.68 0.5 mtk yes tchain 5 pchain 5
run 2000000 # 5000000  # Run for this many steps
Neighbor list info ...
  update every 1 steps, delay 10 steps, check yes
  max neighbors/atom: 2000, page size: 100000
  master list distance cutoff = 3.8
  ghost atom cutoff = 3.8
  binsize = 1.9, bins = 8 8 8
  4 neighbor lists, perpetual/occasional/extra = 1 3 0
  (1) pair lj/cut, perpetual
      attributes: half, newton on
      pair build: half/bin/atomonly/newton
      stencil: half/bin/3d
      bin: standard
  (2) compute orientorder/atom, occasional
      attributes: full, newton on
      pair build: full/bin/atomonly
      stencil: full/bin/3d
      bin: standard
  (3) compute coord/atom, occasional
      attributes: full, newton on
      pair build: full/bin/atomonly
      stencil: full/bin/3d
      bin: standard
  (4) compute cluster/atom, occasional
      attributes: full, newton on
      pair build: full/bin/atomonly
      stencil: full/bin/3d
      bin: standard
Per MPI rank memory allocation (min/avg/max) = 9.844 | 9.851 | 9.856 Mbytes
Step Temp PotEng c_msd[4] v_twopoint v_fit v_max_n 
   12000    1.2494242    -5.961143 1.8039277e-30 1.2527275e-32 8.3333333e+20            1 
   13000    1.1986648   -5.9798652   0.54724495 0.0035079803  0.044835334            2 
   14000    1.2562258   -5.9590057    1.0946845 0.0065159788  0.044775271            2 
   15000    1.2323481   -5.9545349    1.6261387 0.0090341037  0.044919522            1 
   16000     1.259585   -5.9808526    2.1467781  0.011181136  0.044576396            3 
   17000    1.2525558   -5.9701151    2.6491043  0.012985805  0.043901941            1 
   18000    1.2550366   -5.9915185     3.128976     0.014486  0.043339084            4 
   19000    1.2566443   -5.9883815    3.7188876   0.01631091  0.043228893            2 
   20000    1.2365946   -5.9638403    4.3594304  0.018164293  0.043959225            2 
   21000    1.2535936   -6.0135328    4.8152779  0.019108245  0.044296298            2 
   22000    1.2180182   -5.9748822    5.3501533  0.020265732  0.044380594            2 
   23000    1.2287122   -6.0451495    5.8934117  0.021352941   0.04452063            2 
   24000    1.2342408   -6.0172705    6.5162876  0.022625998  0.044712763            2 
   25000    1.2362172   -6.0317201    6.9994467  0.023331488  0.044948958            4 
   26000    1.2518434    -6.024658    7.5438991  0.024179163  0.044946772            1 
   27000    1.2348101   -5.9930393    8.1369703  0.025114106  0.044953657            4 
   28000    1.2552391   -6.0102791    8.8112794  0.026224045  0.045203752            3 
   29000    1.2665574   -6.0117347    9.3524291  0.026874796  0.045474558            2 
   30000    1.2598636   -5.9331415    9.9358153  0.027599487  0.045640569            2 
   31000    1.2474278   -5.9673646    10.405403  0.027971514  0.045781965            1 
   32000    1.2336116   -6.0234269    10.949039  0.028513122  0.045845241            6 
   33000    1.2341507   -6.0160419    11.455196  0.028927261  0.045902761            1 
   34000    1.2528741   -6.0442704    11.922108  0.029220852  0.045864626            2 
   35000    1.2554355    -6.005365    12.541063  0.029859673  0.045815099            2 
   36000    1.2230862   -5.9943715    13.202378  0.030561059  0.045817265            4 
   37000    1.2448845   -6.0169825    13.838354  0.031167464  0.045934172            2 
   38000    1.2459351   -6.0145674    14.435326  0.031656416  0.046056372            2 
   39000    1.2167643   -6.0498384    14.910967  0.031861041  0.046125586            1 
   40000    1.2341569   -6.0318789    15.278586  0.031830387  0.046132833            3 
   41000    1.2216877   -6.0042337       15.787  0.032087399  0.046056938            3 
   42000     1.253555    -6.011914    16.466393  0.032671414  0.046023529            1 
   43000    1.2288484   -6.0030374     17.13812   0.03321341  0.046064302            1 
   44000    1.2466002   -6.0214608    17.663298  0.033453216  0.046128066            3 
   45000    1.2675692   -5.9860136    18.290505  0.033871305  0.046169178            2 
   46000    1.2424102   -6.0202752    18.843697  0.034137133  0.046208361            2 
   47000    1.2369925   -5.9956701    19.320309  0.034255867  0.046224991            1 
   48000    1.2419121   -6.0304516    20.037871   0.03478797   0.04625302            2 
   49000    1.2467906   -6.0493589    20.468711  0.034810733  0.046297039            3 
   50000    1.2030178   -6.0375239    21.179018  0.035298363  0.046346005            3 
   51000    1.2273686   -6.0258763    21.762258  0.035559246  0.046422084            4 
   52000    1.2500645   -5.9840856    22.205238  0.035585316  0.046472491            3 
   53000    1.2328433   -6.0114384    22.754174  0.035777003  0.046486449            1 
   54000    1.2026349   -5.9981224    23.176424  0.035766087  0.046492524            1 
   55000    1.2082989    -6.028555    23.660955  0.035849932  0.046485883            1 
   56000    1.2605826   -6.0378972    24.195147  0.036004683  0.046460316            4 
   57000    1.2159383   -5.9939582    24.817913  0.036283498  0.046427892            3 
   58000    1.2049197    -6.048095    25.190414  0.036193123  0.046378467            2 
   59000    1.2197094   -6.0494537    25.754162  0.036375935  0.046320614            2 
   60000    1.2249649   -6.0120203    26.274242  0.036492002  0.046263148            2 
   61000    1.2255077   -5.9886713    26.880158  0.036721527  0.046202428            3 
   62000    1.2308144   -6.0303936    27.284905   0.03667326  0.046156724            1 
   63000      1.22664   -5.9972635    27.833329  0.036816572  0.046080194            1 
   64000    1.2334313   -6.0546157    28.416172  0.037000224  0.046026651            3 
   65000    1.2154138   -6.0261502    29.070206  0.037269494  0.045985969            2 
   66000     1.229381   -6.0249203    29.741404  0.037552277   0.04598224            2 
   67000    1.2389487   -6.0551988    30.162462    0.0375155  0.045969756            4 
   68000    1.2280539   -6.0620719    30.461878  0.037330733  0.045928191            2 
   69000    1.2231824   -6.0732671    31.189516  0.037668497  0.045887635            5 
   70000    1.2208758   -5.9885137    31.717348  0.037758748  0.045853927            2 
   71000    1.2397493   -6.0362279    32.302403  0.037913618  0.045812301            5 
   72000    1.1978355   -6.0013998    32.932246  0.038116025  0.045795088            1 
   73000    1.2436104   -6.0643458     33.12263  0.037811221  0.045762734            2 
   74000    1.2217812   -6.0546532    33.616959  0.037856936  0.045722376            2 
   75000    1.2148984   -6.0449555    34.250751  0.038056389  0.045684195            2 
   76000    1.2108971   -6.0550351    35.002772  0.038380232  0.045657289            1 
   77000    1.2315363   -6.0512233     35.73159  0.038670551  0.045650144            2 
   78000    1.2349268   -6.1135004    35.971198  0.038430767  0.045652587            4 
   79000    1.2150811   -6.1044525    36.450011  0.038449379  0.045624967            2 
   80000     1.242626   -6.0488213    37.135194  0.038682493  0.045602521            6 
   81000    1.2429974   -6.0530265    37.697125   0.03878305   0.04559874            3 
   82000    1.2178688   -6.0127948    38.445385  0.039070513  0.045598154            3 
   83000     1.206802   -6.0732804    38.738915  0.038894493  0.045586513            1 
   84000    1.2268439   -6.0683904    39.231703   0.03892034  0.045583648           15 
   85000    1.2158335   -6.0552491    40.081723  0.039295807  0.045579119            2 
   86000    1.2327807   -6.0451903    40.628831  0.039369022  0.045582921            4 
   87000    1.2234008   -6.0340458    41.070962  0.039340002  0.045589368            3 
   88000    1.2323535   -6.0795323    41.528631  0.039326355   0.04558441            3 
   89000    1.2062486   -6.0719071    42.174844  0.039489554   0.04557907            1 
   90000    1.2010271   -6.0651907    42.569062  0.039415798  0.045582774            3 
   91000    1.1922773   -6.0678389    43.160558   0.03952432   0.04556927            6 
   92000    1.2375552   -6.0446647    43.627885  0.039518011  0.045553589            2 
   93000    1.2238464   -6.0144231    44.016014  0.039440873  0.045524099            2 
   94000    1.2284628   -6.0891453    44.132098    0.0391242   0.04548482            4 
   95000     1.222119   -6.0482709    44.697681  0.039208492  0.045437268            1 
   96000    1.1985479   -6.0739805    45.056434  0.039111487  0.045385379            2 
   97000    1.2005372   -6.0539901    45.427524  0.039027082  0.045326992            3 
   98000    1.2237694   -6.0183394    46.116868  0.039215024  0.045271315            5 
   99000    1.2047195   -6.0232221    47.094879  0.039642154  0.045235735            2 
  100000    1.2178254   -6.0540314    47.452112  0.039543426  0.045212513            2 
  101000    1.1953032   -6.1020966    48.113467   0.03969758  0.045195793            4 
  102000    1.2341027   -6.1160215    48.876096  0.039931451  0.045186077            3 
  103000    1.2140185   -6.0157187     49.65029  0.040170137  0.045189061            4 
  104000    1.2318052   -6.1242973    49.641696     0.039777  0.045188334            2 
  105000    1.1983567   -6.0366719    50.566494  0.040132138  0.045175407            2 
  106000    1.2120874   -6.0713684    50.971575  0.040071993  0.045176086            2 
  107000    1.2058897   -6.0806232     51.63673  0.040215522  0.045171779            2 
  108000    1.1988935   -6.0359779    51.992929  0.040118001  0.045164757            2 
  109000    1.2241079   -6.0416403    52.523196  0.040155348  0.045150619            4 
  110000    1.1766897   -6.1042266    53.061699  0.040198256  0.045136551            3 
  111000    1.2293884   -6.0618384    53.521285  0.040181144   0.04512052            4 
  112000     1.221841   -6.0688333    53.831941  0.040053527  0.045098078            2 
  113000    1.2070059    -6.051467    54.397253  0.040115968  0.045076305            2 
  114000    1.1781834   -6.1396586    54.684446   0.03997401  0.045052739            1 
  115000    1.1949395   -6.1136681    54.969287  0.039832817  0.045014715            2 
  116000      1.19335   -6.1220088    55.636477  0.039968733   0.04498215            3 
  117000     1.200926   -6.1244957    56.182067  0.040015717  0.044950294            4 
  118000    1.2271672   -6.1143871     56.34929  0.039794696  0.044912613            4 
  119000    1.2073809   -6.0927976    56.975313  0.039898678  0.044870775            2 
  120000    1.2372443   -6.0571261    57.690785  0.040063045  0.044828039            4 
  121000     1.208524   -6.0904147    58.111706  0.040021836  0.044792867            3 
  122000    1.2197023   -6.0869643    58.328371  0.039841783  0.044747972            2 
  123000    1.1865999   -6.0964486    59.020504  0.039986791  0.044706901            2 
  124000    1.2301966   -6.1266571    59.593097  0.040049124  0.044672759            2 
  125000    1.1858676   -6.0580901     60.16901  0.040112673  0.044645472            2 
  126000    1.1962008   -6.0967834    60.654565  0.040115453  0.044622725            2 
  127000    1.2107736   -6.0946938      61.1938  0.040153412  0.044596485            6 
  128000     1.239585   -6.0990472    61.652221  0.040138165  0.044572274            3 
  129000     1.177436   -6.1194093    62.250992  0.040213819  0.044549649            4 
  130000    1.1885178   -6.0772684    63.075897  0.040433267  0.044524119            1 
  131000    1.2101802   -6.0778025    63.395267  0.040327778  0.044498565            2 
  132000    1.1889706   -6.0882027    63.749571  0.040245941  0.044470779            2 
  133000    1.1772362   -6.0643686    64.003261  0.040102294  0.044441631            3 
  134000    1.1882063    -6.085632    64.524534  0.040127198  0.044405085            2 
  135000    1.1791439   -6.0634787    64.667978  0.039918505  0.044362907            2 
  136000    1.1998819   -6.0868347    65.106099  0.039893443  0.044317718            3 
  137000    1.2061682   -6.0672865    65.614785  0.039911669  0.044268547            4 
  138000    1.1968742   -6.1066749    65.859544  0.039770256  0.044216918            2 
  139000    1.1815583   -6.0787515    66.102263  0.039629654   0.04416092            2 
  140000    1.1903063    -6.117659    66.789173   0.03975546  0.044109777            5 
  141000    1.2409857   -6.1618927    66.854946  0.039512379  0.044057674            1 
  142000    1.2229323    -6.101884    67.599501  0.039671068  0.044002676            2 
  143000     1.210019   -6.1046027    68.313892   0.03980996  0.043954515            3 
  144000    1.2021165   -6.1356178    68.784917  0.039806086   0.04390536            2 
  145000    1.1695524   -6.1069381     68.98938  0.039649069  0.043859687            2 
  146000    1.1728292   -6.0937551    69.436085  0.039632469   0.04380932            3 
  147000    1.2130105   -6.1594179    69.694895  0.039509577   0.04375323            3 
  148000    1.1851727   -6.1544769     69.87221   0.03934246  0.043695426            2 
  149000    1.1986186   -6.1139106    70.535054  0.039449135  0.043639326            2 
  150000    1.1623315   -6.0933526    70.832644  0.039351469  0.043579827            1 
  151000    1.1847885   -6.0986644     70.90276  0.039129559   0.04351475            2 
  152000    1.1742047   -6.1294257    71.574699  0.039240515  0.043454169            1 
  153000    1.1841626   -6.1041738    71.964969  0.039196606  0.043393028            2 
  154000    1.1987342   -6.0989545    72.237689  0.039089658  0.043328853            2 
  155000     1.210959   -6.1168605    72.691824  0.039081626  0.043262748            4 
  156000    1.2139472   -6.0924518    72.864735   0.03892347  0.043198872            4 
  157000    1.2129549   -6.1371132    73.639441  0.039086752  0.043134231            6 
  158000    1.2009879   -6.1366862    73.982785  0.039020456  0.043070397            1 
  159000    1.1953324   -6.1351738    74.272776  0.038927031  0.043004722            4 
  160000    1.2077653   -6.0893458      75.1069  0.039118177   0.04294139            1 
  161000    1.1738102   -6.1420626    74.931606  0.038784475  0.042878604            2 
  162000    1.1840117   -6.1512687    75.286548  0.038727648  0.042812112            5 
  163000    1.1756904   -6.1133355    75.873425  0.038790095  0.042744901            7 
  164000    1.1944658   -6.1583503    76.177151  0.038707902  0.042682423            2 
  165000    1.1871726   -6.1428208    76.533548  0.038653307  0.042617433            4 
  166000    1.2000567   -6.1272234     76.92468  0.038616807  0.042550271            2 
  167000    1.1979087   -6.1466846    77.138998  0.038492514  0.042479711            1 
  168000    1.1947598    -6.087752    78.209511    0.0387944  0.042412148            1 
  169000    1.2011718   -6.1055864    78.408507  0.038662972  0.042347719            6 
  170000     1.189894   -6.1523166    78.584209  0.038521671  0.042284383            2 
  171000    1.2008991   -6.1012255    79.493093  0.038739324  0.042223368            3 
  172000    1.1835992   -6.1693221    79.612662  0.038572026  0.042167768            3 
  173000    1.2031503   -6.1375409     80.24077  0.038651623  0.042109314            2 
  174000    1.1829097   -6.0930626    80.766611  0.038681327  0.042053606            6 
  175000    1.1983525   -6.1462209    81.279343  0.038704449  0.042002299            2 
  176000    1.1823584   -6.1388413    81.987349  0.038819767   0.04195231            5 
  177000     1.157967   -6.1035593    82.556884  0.038868589  0.041905437            5 
  178000    1.2076245   -6.1659488    82.671272  0.038703779  0.041859781            3 
  179000    1.1950044   -6.1481307    82.847136   0.03856943  0.041809917            4 
  180000    1.1897311     -6.13668    83.202158  0.038519517  0.041756326            6 
  181000    1.1739257   -6.1331463    83.798563   0.03858129  0.041706593            4 
  182000     1.170417   -6.0817549    84.240836  0.038571811   0.04165653            5 
  183000     1.183109   -6.1427563    84.706863  0.038573253  0.041604336            1 
  184000    1.2168971   -6.1571358    84.911452  0.038456273  0.041552067            2 
  185000    1.1899633   -6.1843554    84.542234  0.038082087  0.041498694            3 
  186000    1.2079486   -6.1370843    85.475398  0.038295429  0.041444338            3 
  187000    1.1804226   -6.1596704    85.775963  0.038224582  0.041391246            2 
  188000      1.19315   -6.1368799    86.425796  0.038309306  0.041340591            7 
  189000    1.1791743   -6.1440655    86.625182  0.038194524  0.041286849            4 
  190000    1.1834852   -6.1206148    87.406396  0.038336139  0.041235257            4 
  191000    1.1678025   -6.1206696    87.968038   0.03838047  0.041185732            4 
  192000    1.1747601   -6.1379253    88.392353  0.038364737  0.041137173            5 
  193000    1.1822929   -6.1651989    88.668224  0.038285071  0.041091362            4 
  194000    1.1644504   -6.1610663    89.396176  0.038400419  0.041045107            2 
  195000    1.1755719   -6.1781404    89.278093  0.038153031  0.040999421            6 
  196000    1.1737005    -6.138391    90.238988  0.038366917  0.040956125            3 
  197000    1.1944306   -6.1809395    90.581044  0.038316854  0.040914097            4 
  198000    1.1518747   -6.1666286    91.014522  0.038305775  0.040873588            3 
  199000    1.1891694   -6.1485483    91.584335  0.038351899  0.040832101            6 
  200000    1.1872281   -6.2107348    91.576237  0.038156765  0.040787761            6 
  201000    1.1961696   -6.1510068    92.566135  0.038377336  0.040744682            5 
  202000    1.1583376   -6.1671246    92.897317  0.038323975   0.04070492            4 
  203000    1.1978811   -6.1850649    93.039034  0.038193364   0.04066484            3 
  204000    1.1670328   -6.1444371    93.576503  0.038225695  0.040624124            2 
  205000    1.1886797   -6.1759261     94.01785  0.038218638   0.04058225            2 
  206000    1.1756822    -6.173567    94.334284  0.038161118  0.040541576            4 
  207000    1.1722339   -6.1389777    94.908474   0.03820792  0.040502167            2 
  208000     1.175634   -6.1885068    94.621724  0.037909345  0.040461447            2 
  209000    1.1667441   -6.1635306    95.694358  0.038155645  0.040420684            3 
  210000    1.1651446   -6.1518413    95.900587  0.038055788  0.040379459            2 
  211000    1.1735656   -6.1756341    96.196476  0.037992289  0.040340079            3 
  212000    1.1688544   -6.2150472    96.832284  0.038063005  0.040301934            5 
  213000    1.1787906   -6.1711468    97.110043  0.037992975  0.040263858            2 
  214000    1.1664897   -6.1958777    97.716726  0.038051684  0.040227281           10 
  215000    1.1815747   -6.2098922    97.889794  0.037941781  0.040191739            5 
  216000     1.171842   -6.1477444     98.77609  0.038108059  0.040155808            4 
  217000    1.1763948   -6.1412487    99.155708  0.038078229   0.04011877            2 
  218000    1.1789245   -6.1885021    98.615787  0.037697166  0.040082764            7 
  219000    1.1935982   -6.1548813    99.639559  0.037914596  0.040046634            2 
  220000    1.1460691   -6.1920042    99.857401  0.037824773  0.040009198            2 
  221000    1.1623014   -6.1996671    100.05378  0.037727671  0.039969214            2 
  222000    1.1546279   -6.1814521     100.7811  0.037830741  0.039929438            3 
  223000    1.1665087   -6.1862494    100.87804  0.037697325  0.039889281            2 
  224000    1.1697835   -6.1758493    101.65865  0.037819439  0.039848399            2 
  225000    1.1720449   -6.1610239    101.91701   0.03774704  0.039807591            1 
  226000    1.1651638   -6.2044502    101.96676  0.037598363  0.039768333            2 
  227000    1.1616909   -6.1988428    102.39271    0.0375891  0.039728205            2 
  228000    1.1713836   -6.2446445    102.23526  0.037366689  0.039689814            2 
  229000    1.1586915   -6.2164222    103.42257   0.03763558  0.039652403            2 
  230000    1.1568105   -6.1558188    103.48904  0.037496029  0.039616109            3 
  231000    1.1650864   -6.2086862    103.82823   0.03745607   0.03957981            5 
  232000    1.1870408   -6.2102518    104.38952  0.037496236  0.039542004            2 
  233000    1.1649935   -6.2203091    105.02446  0.037562398  0.039505506            1 
  234000    1.1632398   -6.1880342    105.77267  0.037668328  0.039469627            1 
  235000    1.1540249   -6.2213294    105.55153  0.037429619  0.039432854            3 
  236000    1.1766771   -6.1910034    106.48786  0.037601645  0.039398205            2 
  237000    1.1549058    -6.223344    106.42685  0.037421537  0.039362981            2 
  238000    1.1434328   -6.1923456    107.34423  0.037585515  0.039330406            8 
  239000    1.1499927   -6.1796252    107.71172  0.037556388  0.039298358            2 
  240000    1.1805625   -6.1782581    107.75254  0.037414077  0.039263787            9 
  241000    1.1751796   -6.2496317    107.85106  0.037292896  0.039229123            5 
  242000    1.1466833   -6.1007725     109.0342  0.037546211  0.039195658            3 
  243000    1.1582398   -6.1864484    109.28715  0.037478448   0.03916428            5 
  244000    1.1660214   -6.1963574    110.20055  0.037636798  0.039134253            3 
  245000    1.1433295   -6.2009511    110.76614  0.037675559  0.039106052            3 
  246000     1.139785   -6.1856962     111.2728  0.037694038  0.039080158            8 
  247000    1.1669894   -6.2027001    111.46973   0.03760787  0.039053634            3 
  248000    1.1482885   -6.1875927    112.02491  0.037642778  0.039027514            4 
  249000    1.1416867   -6.1958987     112.2981  0.037583034  0.039000551            2 
  250000    1.1576197   -6.2194093        112.6  0.037533334  0.038974086            3 
  251000    1.1772032   -6.1943738     113.2852  0.037611287  0.038948334            3 
  252000     1.149778   -6.2549497    113.16457  0.037422145  0.038922712            3 
  253000    1.1568176   -6.2084851    114.05734  0.037568293  0.038897771            2 
  254000     1.151868   -6.2292931    114.38152  0.037526746  0.038874745            2 
  255000     1.123199   -6.2121004    114.94812  0.037564746   0.03885202            2 
  256000    1.1550347   -6.1815511    115.54872  0.037613515  0.038828642            6 
  257000    1.1240898   -6.2412265    115.89637  0.037579885  0.038807432            2 
  258000    1.1471117   -6.2186912    116.19913   0.03753202  0.038786776            8 
  259000    1.1352704   -6.2886443    116.22896  0.037396706  0.038765904            2 
  260000    1.1316887   -6.2009475    116.98241  0.037494361  0.038743567            3 
  261000    1.1522176   -6.2651825    117.12961  0.037397704   0.03872107            2 
  262000    1.1755588   -6.2004224    118.42067  0.037665606  0.038698644            1 
  263000    1.1376759   -6.2033422     118.5364  0.037559061  0.038680054            2 
  264000    1.1175768   -6.2021255    118.48093  0.037399284  0.038658546            4 
  265000    1.1535846   -6.2757534    118.67121  0.037317991  0.038635864            3 
  266000    1.1493104   -6.1770322    119.65678   0.03748646  0.038615055            8 
  267000    1.1451342   -6.2197341    120.71187  0.037675365  0.038595365            3 
  268000    1.1473678   -6.2502567    121.11279   0.03765945  0.038577131            2 
  269000    1.1441959   -6.2496364    121.31823  0.037583093  0.038559324            2 
  270000    1.1563927   -6.2328018     121.6436  0.037544322  0.038541971            1 
  271000    1.1403683   -6.2216891    121.82214  0.037460684  0.038522605            3 
  272000    1.1612153   -6.2212953    122.56327  0.037550023  0.038503732            7 
  273000    1.1633399   -6.2518882    122.10322  0.037272045  0.038483084            3 
  274000    1.1363399   -6.2211147    122.74132  0.037330086  0.038461507            3 
  275000    1.1416543   -6.2090674    123.30257  0.037364414  0.038440855            3 
  276000     1.133654   -6.2055916    123.80142  0.037379654  0.038422724            2 
  277000    1.1565824   -6.1869311    124.52478  0.037462327  0.038403327            2 
  278000    1.1621563   -6.2359622    124.97719  0.037463188   0.03838498            4 
  279000    1.1606822   -6.2197791    125.23839  0.037406928  0.038367378            2 
  280000    1.1511039   -6.2633719     125.4572  0.037338452  0.038348734            2 
  281000    1.1238446   -6.2356052    125.86739  0.037327221  0.038330297            2 
  282000    1.1209001    -6.274156    126.05032  0.037248914  0.038309971            2 
  283000    1.1569679   -6.2466402    126.65289  0.037294727  0.038288803            3 
  284000    1.1595456   -6.2419376    126.74284  0.037189801  0.038267992            6 
  285000    1.1235046   -6.2336083    127.35845  0.037239313  0.038245732            2 
  286000    1.1328189   -6.2502069    127.33393   0.03710196  0.038223033            3 
  287000    1.1390762     -6.22838    127.87262  0.037129099  0.038199644            2 
  288000    1.1450336   -6.2408118    127.76542  0.036969162  0.038174121            2 
  289000    1.1722419   -6.2450835    127.82023  0.036857046  0.038147786            3 
  290000     1.171426   -6.2047546    128.50947  0.036928008  0.038122155            3 
  291000    1.1558408   -6.2696024    129.14023  0.036981739  0.038097483            3 
  292000    1.1627043   -6.2739274    128.96192  0.036804201   0.03807171            4 
  293000     1.127606   -6.1915672    129.36129  0.036792175  0.038046437            3 
  294000    1.1214025   -6.2220606    129.72064  0.036768888  0.038020835            4 
  295000     1.150704   -6.2336707    130.22925  0.036787923  0.037996441            1 
  296000    1.1305669   -6.2842433    130.57483  0.036760933  0.037971232            2 
  297000    1.1320416   -6.3007157    130.71066  0.036675269  0.037945833            2 
  298000    1.1093543    -6.278637    131.69317   0.03682695  0.037921455            4 
  299000     1.134778   -6.2728735    131.74579  0.036718449  0.037895476            2 
  300000    1.1093118   -6.2785963     131.8929  0.036636918  0.037870618            4 
  301000    1.1328029   -6.2886029    132.45427  0.036670617  0.037844322            3 
  302000     1.153377   -6.2938562    132.67482   0.03661005  0.037819792            2 
  303000    1.1269586   -6.2629009    133.55374  0.036730952  0.037795846            3 
  304000    1.1254063   -6.2483627     134.2471  0.036800192  0.037771862            2 
  305000    1.1208158   -6.2601396    133.96946  0.036603677   0.03774749            2 
  306000    1.1260742   -6.2842045    134.35261  0.036588401  0.037723355            5 
  307000    1.1295174   -6.2907726    134.58906  0.036533404  0.037698544            4 
  308000    1.1201691    -6.249456    135.48445  0.036657048  0.037674005            6 
  309000    1.1261388   -6.2917334    135.92419   0.03665701  0.037651936            2 
  310000    1.1283246   -6.2524952    136.39976  0.036666601  0.037628636            5 
  311000    1.1368887   -6.3068358    136.53814  0.036585783    0.0376063            2 
  312000    1.1333049   -6.2178132    137.29552  0.036670811  0.037583465            4 
  313000    1.1427189   -6.2511534    137.59459  0.036633276  0.037561234            5 
  314000     1.150242   -6.2913349    138.08646   0.03664715  0.037537841            2 
  315000    1.1342863   -6.2370225    138.07995  0.036529087  0.037515123            7 
  316000    1.1279583   -6.2922076    137.52969  0.036268379  0.037492663            3 
  317000    1.1504977    -6.301489     138.1232   0.03630999   0.03746673            5 
  318000     1.121326   -6.2675153    139.11259  0.036455082  0.037443295            3 
  319000    1.1420632   -6.2895722    139.14219  0.036348534  0.037419399            3 
  320000    1.1416613   -6.2405692    139.55428  0.036342261   0.03739485            4 
  321000     1.138477   -6.2648276    139.77412  0.036286116  0.037369505            3 
  322000    1.1299509   -6.2825349    140.36918  0.036327427  0.037344025            2 
  323000    1.1276818   -6.3002608    140.88635  0.036348387  0.037319515            3 
  324000    1.1372847   -6.2647808    141.34208  0.036353416  0.037296662            4 
  325000    1.1573059   -6.2667567    142.37238  0.036505739  0.037274488            2 
  326000    1.1251305   -6.2844992    142.10265  0.036324808  0.037251883            6 
  327000    1.1091333   -6.3016547    142.60098   0.03634072  0.037228933            5 
  328000    1.1166775   -6.2748636    143.05149  0.036344383  0.037205503            4 
  329000    1.1142011   -6.2547208    143.32263  0.036302592  0.037183758            5 
  330000    1.1398498   -6.2864014    143.59894  0.036262358  0.037161668            2 
  331000    1.1356702   -6.2675352     144.6668  0.036421651  0.037141378            4 
  332000    1.1044534   -6.2931024    144.69928    0.0363201  0.037121392            3 
  333000    1.1423276   -6.3316607    143.99334  0.036034369   0.03709906            4 
  334000    1.1058176   -6.2806191     145.2176  0.036231935   0.03707634            2 
  335000    1.1125566   -6.3350479    144.68044   0.03599016   0.03705196            5 
  336000    1.1488638   -6.3441283    145.95491  0.036199134  0.037027705            2 
  337000    1.1519312   -6.2656893    146.51293  0.036229706  0.037005594            4 
  338000    1.1199432   -6.3366915    146.68991  0.036166152  0.036984756            3 
  339000    1.1289084   -6.2796946    146.79805  0.036086051  0.036963165            2 
  340000    1.1134877   -6.3013902    147.18698  0.036075241  0.036941497            3 
  341000    1.1115049   -6.2669868    148.33287   0.03624948  0.036921214            3 
  342000    1.1472604   -6.3142925    148.16134  0.036101692   0.03690055            5 
  343000    1.1156043   -6.3272715    148.31339  0.036033379  0.036880354            3 
  344000    1.1267433   -6.2938475    149.09294  0.036117476  0.036859154            3 
  345000    1.1213781   -6.3142389    149.97046  0.036224748  0.036838319            3 
  346000    1.1157377   -6.2984338    150.50124   0.03624789  0.036818652            4 
  347000    1.1113383   -6.2984789    150.61885  0.036171673  0.036800537            4 
  348000    1.1116673   -6.3054591    150.99925  0.036158824  0.036781484            5 
  349000     1.112929   -6.2738016    151.31677  0.036131034  0.036762156            2 
  350000    1.1063898   -6.3285222    151.04828  0.035963876  0.036742358            4 
  351000     1.118216   -6.3338254    151.67189  0.036009471   0.03672199            4 
  352000    1.1197681     -6.32542    152.38418  0.036075799  0.036700955            1 
  353000    1.0889981   -6.3145008    152.89824  0.036094957  0.036681596            3 
  354000    1.1114696   -6.3020949    153.00386  0.036017857  0.036661606            2 
  355000    1.0992803   -6.3056642    152.91837   0.03589633  0.036640745            3 
  356000    1.1195561   -6.3231368    152.44651  0.035685044  0.036619492            6 
  357000    1.1142213    -6.308066    153.28435  0.035780661  0.036599035            5 
  358000    1.0898039   -6.3177661    153.82579  0.035806748  0.036577387           10 
  359000    1.1277175   -6.3222316    154.02907  0.035754195  0.036555783            4 
  360000    1.1093651    -6.300258    154.69698  0.035809485  0.036534429            3 
  361000    1.1060229   -6.2962236    155.49055  0.035893478  0.036513506            2 
  362000    1.1268798   -6.3157438    155.64624  0.035830165  0.036493121            8 
  363000    1.1169535   -6.3053672    156.42557  0.035910369  0.036473277            5 
  364000    1.0918488   -6.3114437    156.15408  0.035749559  0.036453561            3 
  365000    1.1255199   -6.3354551    156.56516  0.035745471  0.036432659            4 
  366000    1.1163368   -6.2994029    156.59709  0.035655075  0.036410727            3 
  367000    1.1016483   -6.4005616     157.2788  0.035712716  0.036389187            2 
  368000    1.0900018   -6.3281521    157.21533  0.035601297  0.036367569            2 
  369000    1.1180962   -6.3564735    157.03296  0.035463631  0.036346283            2 
  370000    1.1096913   -6.3374172     158.2843  0.035649616  0.036324522            2 
  371000    1.1128415   -6.3373719    158.28595  0.035553897  0.036304124            5 
  372000    1.1023895    -6.337845    158.77857  0.035568675  0.036283755            3 
  373000    1.1118757   -6.3338251    159.13403  0.035552732  0.036262234            6 
  374000    1.0977248   -6.2964564    159.76729  0.035598772  0.036241629            2 
  375000    1.0879088   -6.2998684    159.99423  0.035554273  0.036220696            5 
  376000    1.0868064   -6.3001835    160.56397  0.035585986  0.036200085            1 
  377000    1.1017824   -6.3787287    160.04138   0.03537608  0.036178304            4 
  378000    1.1300918   -6.3673589    160.42374  0.035366786  0.036156692            2 
  379000    1.0902811   -6.3469906    160.37949  0.035263739    0.0361336            3 
  380000    1.1018418   -6.3750391    160.96983  0.035300401  0.036110939            3 
  381000    1.1083925   -6.3022142    161.40863  0.035303724  0.036088102            5 
  382000    1.0931968   -6.3272066    161.23269  0.035172925   0.03606403            3 
  383000    1.0890913   -6.3562041    161.20271  0.035074567  0.036038434            2 
  384000    1.1127856   -6.3271818    161.48682  0.035044883  0.036012527            2 
  385000    1.1143073   -6.3355188    161.78465  0.035018323  0.035987339            4 
  386000    1.0883893   -6.3652421    162.32473  0.035044199  0.035961777            4 
  387000    1.0998646   -6.3465261    162.34584   0.03495819  0.035935173            2 
  388000    1.1043418   -6.3058815    162.95646   0.03499924  0.035908985            4 
  389000    1.1170994   -6.3272059     163.0773  0.034935155  0.035883656            5 
  390000    1.1001268   -6.3150408     163.7672  0.034992992  0.035858591            5 
  391000    1.1161473   -6.3301742     163.5972  0.034867263  0.035833417            2 
  392000    1.1143648   -6.4040165    163.43844  0.034744566   0.03580832            7 
  393000    1.1152423   -6.3456398    164.89593   0.03496521  0.035783212            7 
  394000    1.0745834   -6.3339435    164.43013  0.034777947  0.035757897            5 
  395000     1.100933   -6.3525136    164.26402  0.034654857  0.035731694            2 
  396000    1.1049647   -6.3702067    165.03852  0.034730328  0.035704663            5 
  397000    1.0796079   -6.3823382    164.99301  0.034633292  0.035677371            4 
  398000    1.0959515   -6.3674941    165.08525  0.034565589   0.03565058            7 
  399000    1.0977064   -6.3675632    165.59918  0.034586295  0.035623233            6 
  400000    1.1062493   -6.3537646     166.2918  0.034644125  0.035596598            5 
  401000    1.1204662   -6.3627037    166.47382  0.034595557  0.035569837            4 
  402000    1.0771254   -6.3665406    166.21142  0.034455104  0.035542463            3 
  403000    1.0649302   -6.3005455    167.54638  0.034645653  0.035515805            3 
  404000    1.0806197   -6.3340568    168.01904  0.034657393  0.035489506            3 
  405000    1.1002591    -6.327998    167.77041   0.03452066   0.03546315            5 
  406000    1.1078732   -6.3430084    168.22748  0.034529449  0.035436613            2 
  407000    1.1011081   -6.3285683    168.95494  0.034593559  0.035410535            3 
  408000    1.0903191   -6.3408717    169.55713  0.034631767  0.035385653            4 
  409000    1.0926831   -6.3407504    168.90746  0.034414724  0.035360337            2 
  410000    1.0883851   -6.3574903    169.85374  0.034523117  0.035334325            3 
  411000     1.095737   -6.3346242    170.12328  0.034493772  0.035308472            4 
  412000    1.0940568   -6.3186769    170.53051  0.034492416  0.035283216            3 
  413000    1.1017478     -6.31872    170.91875  0.034487238  0.035258345            2 
  414000    1.0750545   -6.3791222    170.54551  0.034328806  0.035233258            2 
  415000    1.0839033   -6.4188011    170.51916  0.034240796  0.035207385            7 
  416000    1.0915182   -6.3236955    171.75102  0.034405252  0.035181497            3 
  417000    1.0843018   -6.3696311    171.83218  0.034338965   0.03515534            2 
  418000    1.0857113   -6.3713701    171.50069  0.034190728  0.035128849            5 
  419000    1.0876595   -6.3358146    172.75107  0.034357811  0.035103291            5 
  420000    1.0964988   -6.3664923    172.77159  0.034280077  0.035078072            4 
  421000     1.098819   -6.3889024    172.31332  0.034107941  0.035051909            5 
  422000    1.0785279   -6.3475629    173.01737  0.034166147  0.035026365            1 
  423000    1.0955521   -6.3940248    173.55399  0.034191094  0.035000453            7 
  424000    1.0702625   -6.4005242    173.26732  0.034054112  0.034974485            7 
  425000    1.1104369   -6.3732743    174.48573  0.034212889  0.034949117            4 
  426000    1.1016695   -6.3869349    174.08353  0.034053899  0.034923527            3 
  427000    1.1002594   -6.4003024    174.19966  0.033996811  0.034898599            4 
  428000    1.0837286   -6.3563951    175.35564  0.034142454   0.03487337            2 
  429000    1.0600788   -6.3750815    175.16842    0.0340265  0.034848269            2 
  430000    1.0768128   -6.4390307    175.03159  0.033920851  0.034821823            2 
  431000    1.0794846   -6.3751429    175.89087  0.034008288  0.034795526            3 
  432000     1.109277   -6.4012462    175.81179  0.033914311  0.034769382            5 
  433000    1.0745864   -6.3568085    176.33492  0.033936667  0.034743631            4 
  434000    1.0529716    -6.387902    176.76792  0.033941614  0.034717937            2 
  435000    1.0747774   -6.3770083    176.97878   0.03390398  0.034691734            2 
  436000    1.0864795   -6.3844738    176.80116   0.03379227  0.034665057            2 
  437000    1.0990731   -6.4365181    177.29651  0.033809403  0.034638259            4 
  438000    1.0763891   -6.4283832    177.69051  0.033807174  0.034612323            3 
  439000    1.0739867   -6.4080089    178.07773   0.03380367  0.034586222            5 
  440000    1.0837579   -6.3983524    178.86777  0.033876471  0.034561549            2 
  441000    1.0824736   -6.3947138     179.2061  0.033863586  0.034537961            5 
  442000     1.087354   -6.3701798    180.07098  0.033950035  0.034513988            3 
  443000    1.0727079   -6.4083255    179.56927   0.03377902  0.034489392            3 
  444000    1.0967142   -6.4194877    179.74029  0.033735039  0.034464782            2 
  445000    1.0923383   -6.4202314    180.33379  0.033770372  0.034440793            3 
  446000    1.0969551   -6.3861274    181.55627  0.033923069  0.034417149            1 
  447000    1.0767322   -6.3699457    181.11372  0.033764676  0.034392968            7 
  448000    1.0936637   -6.4044601    181.04874  0.033677221  0.034368324            3 
  449000    1.0956007   -6.4335308    181.35688  0.033659405  0.034343605            2 
  450000    1.0969881   -6.3925656    182.39436  0.033776732  0.034321165            5 
  451000    1.0809034    -6.408199    182.64161  0.033747526  0.034298509            3 
  452000    1.0733828   -6.3992288    183.14008  0.033764764  0.034275806            3 
  453000    1.0748847   -6.3655348    183.76204  0.033804643   0.03425302            5 
  454000    1.0854993   -6.4135399    184.00461  0.033774709  0.034231583            6 
  455000    1.0828823   -6.3448572    184.95965  0.033875393   0.03420927            3 
  456000    1.1049687   -6.4183555     183.3759  0.033511678   0.03418713            3 
  457000      1.08407   -6.4197629    184.46904  0.033637681  0.034164782            3 
  458000    1.0694094   -6.4045607    184.75375  0.033616039  0.034142807            2 
  459000    1.0720677   -6.4070106    185.41709  0.033663233  0.034121163            3 
  460000    1.0734393   -6.3928938    185.92432  0.033681942  0.034099452            4 
  461000    1.0452866   -6.4188299     186.1658  0.033652531   0.03407757            4 
  462000    1.0573814   -6.4220269    185.81945  0.033517217  0.034055329            4 
  463000    1.0890522   -6.4113739     186.6318  0.033591036   0.03403427            3 
  464000     1.098868   -6.3994648    187.58947  0.033690637  0.034013639            8 
  465000    1.0984052    -6.420522    187.71922  0.033641438   0.03399328            7 
  466000      1.08477    -6.420144    188.18677  0.033652856  0.033973335            2 
  467000    1.0702297   -6.4260292    188.05008  0.033556402  0.033953612            3 
  468000    1.0492458   -6.4442141    188.48775  0.033562634  0.033933537            3 
  469000    1.0667868   -6.4308418    188.76294  0.033539968  0.033913516            5 
  470000     1.085059   -6.4411958    188.86341  0.033486419  0.033892356            2 
  471000    1.0581512   -6.4348455    189.09998   0.03345718  0.033871238            3 
  472000    1.0888176   -6.4069474    190.13899  0.033569737  0.033850694            4 
  473000    1.0734911   -6.4403985    189.79808  0.033438704  0.033830333            3 
  474000    1.0551688   -6.3894623    190.09646  0.033420615  0.033809624           11 
  475000    1.0382787   -6.4224839    190.42675  0.033408202  0.033789387            5 
  476000    1.0716409   -6.4341213     190.6816  0.033382633  0.033768635            5 
  477000    1.0543225   -6.4197938    191.20463  0.033404023  0.033748043            3 
  478000    1.0885597   -6.4051179    192.03745  0.033479332  0.033727867            2 
  479000    1.0888915   -6.4508001    191.77534  0.033363837  0.033707584            3 
  480000    1.0528302   -6.3981636    192.68896  0.033452944  0.033687647            6 
  481000    1.0729891   -6.3973131     192.8015  0.033402893  0.033668132            2 
  482000    1.0608346   -6.4128727    193.08589  0.033382762  0.033647867            2 
  483000    1.0610037   -6.4648405    192.72173  0.033250816  0.033627568            6 
  484000    1.0595772   -6.4400007    193.63679  0.033339668   0.03360668            3 
  485000    1.0682251   -6.4158833    193.70955  0.033283428  0.033586273            4 
  486000    1.0739119   -6.4025078     193.7468  0.033221331  0.033565709            2 
  487000    1.0613409   -6.4556594    193.67832  0.033141396  0.033544985            3 
  488000    1.0581938   -6.4272596    194.55867  0.033223817  0.033524254            3 
  489000     1.039963   -6.4536173    194.25115  0.033103468  0.033503723            3 
  490000    1.0706858   -6.4602206    194.98283  0.033160344  0.033483156            4 
  491000      1.07377   -6.4233955    195.87327  0.033243936  0.033463187            2 
  492000    1.0476363   -6.4603752    194.98675  0.033026212  0.033442779            3 
  493000    1.0439241   -6.3817939    196.31754  0.033184169  0.033421865            4 
  494000    1.0721647   -6.4135516    195.85829  0.033039523  0.033401527            3 
  495000    1.0406326    -6.432985    196.47943  0.033077345  0.033380661            1 
  496000    1.0610696   -6.3863176    196.95075  0.033089844  0.033360287            5 
  497000     1.065645   -6.4375847    196.86186   0.03300836  0.033339653            5 
  498000      1.02945    -6.465257     196.4585  0.032874581   0.03331823            4 
  499000    1.0695601   -6.4433322    196.81611  0.032868421  0.033296545            2 
  500000    1.0475612    -6.469069    196.93161  0.032821935  0.033275141            2 
  501000    1.0312413   -6.5074591    196.75604  0.032727218   0.03325379            6 
  502000    1.0636798   -6.4492132    197.45597  0.032778215  0.033232562            3 
  503000    1.0379548   -6.4555379    198.42638   0.03287382   0.03321174            2 
  504000    1.0522347    -6.479938     198.6532  0.032846099  0.033190538            4 
  505000    1.0531719   -6.4344447    198.36977  0.032734286  0.033169259            3 
  506000    1.0670723   -6.4695388    198.24277  0.032648678   0.03314748            7 
  507000    1.0650733   -6.4741799    198.71761  0.032662329  0.033125811            4 
  508000      1.06269   -6.4904951    199.02307  0.032648141  0.033104226            6 
  509000    1.0479431   -6.4781854    199.93672  0.032733582  0.033083149            3 
  510000     1.052325   -6.4713634    200.48327  0.032758704   0.03306206            5 
  511000    1.0808298   -6.4831589    200.39146  0.032679624    0.0330408            3 
  512000    1.0443052   -6.4003937    201.75002  0.032836918  0.033020208            2 
  513000    1.0296579   -6.4648022    201.75843  0.032774274  0.032999844            2 
  514000    1.0309365   -6.4604376    201.59238   0.03268359   0.03297897            3 
  515000     1.047311   -6.4867977    200.83801  0.032498059  0.032958091            9 
  516000    1.0502191   -6.5029522    201.34066  0.032516257   0.03293614            4 
  517000    1.0657977   -6.4649382     201.7761  0.032523549  0.032914998            4 
  518000    1.0500951   -6.4494834    202.48543  0.032574876  0.032893876            4 
  519000     1.033746   -6.4509464    202.56959  0.032525625  0.032873023            3 
  520000     1.034035   -6.4834021    202.86568  0.032510526  0.032851933            3 
  521000    1.0499963   -6.4376211    203.14704  0.032493129  0.032830513            5 
  522000    1.0315307   -6.4728397    203.56026  0.032496848  0.032809827            8 
  523000    1.0322221   -6.4607694    204.06528  0.032515181  0.032789177            8 
  524000    1.0502674   -6.4588725     204.6467  0.032545595  0.032768499            2 
  525000    1.0391879   -6.5190205    203.78589  0.032346966  0.032747688            3 
  526000     1.061703   -6.4881198    204.17603  0.032347279  0.032726703            2 
  527000    1.0296126   -6.4719296    204.54923  0.032344913  0.032705205            4 
  528000    1.0643373    -6.459631    205.22603  0.032390472   0.03268442            2 
  529000    1.0491163   -6.4279804    206.57657  0.032541993  0.032663995            2 
  530000    1.0425128   -6.4831121    205.89647  0.032373659  0.032643945            6 
  531000    1.0368662   -6.4998433    205.68237  0.032279092  0.032623301            4 
  532000    1.0412467   -6.4990178    206.46627  0.032341207  0.032602771            4 
  533000    1.0465125   -6.4844929    206.25863  0.032248065  0.032582559            4 
  534000    1.0293315   -6.5090009    206.61559  0.032243382  0.032562311            8 
  535000    1.0415584   -6.5028595    207.06895  0.032253731  0.032542648            4 
  536000    1.0470309   -6.5063496    207.99594  0.032337678  0.032523023            5 
  537000    1.0186757    -6.445759    207.93056  0.032267312  0.032503532            4 
  538000    1.0494055   -6.4349927    208.78134  0.032339118  0.032484768            3 
  539000    1.0353983   -6.4955737     208.3432  0.032211379  0.032465736            3 
  540000    1.0520768   -6.4785376     208.9069  0.032238719  0.032446091            3 
  541000     1.036137   -6.4994969    209.43057  0.032259792  0.032426001            2 
  542000    1.0004573   -6.5506067    208.60253   0.03207296  0.032405759            4 
  543000    1.0457214   -6.4649463    209.14135  0.032096585  0.032385805            4 
  544000    1.0093614   -6.4988412    209.91179  0.032155605  0.032365702            4 
  545000    1.0538923   -6.4901486    209.81602  0.032081961  0.032345295            4 
  546000    1.0395244   -6.4662265    210.33535  0.032102464   0.03232473            3 
  547000    1.0380099   -6.4879417    210.51292  0.032070828  0.032304849            5 
  548000    1.0540548   -6.5350322    210.60265  0.032025951  0.032284267            4 
  549000    1.0249173   -6.4782723    210.92896  0.032017147  0.032263608            3 
  550000    1.0074928   -6.4871527    211.15521  0.031993213  0.032243373            5 
  551000    1.0426306   -6.4917973    211.68817  0.032015754  0.032223163            3 
  552000    1.0404062    -6.517896    211.86824  0.031984939  0.032203198            3 
  553000     1.040798   -6.5321825    211.79317  0.031915788   0.03218357            9 
  554000    1.0318553   -6.5263565    212.20085  0.031919502  0.032163842            3 
  555000    1.0339604   -6.5493479    212.15195  0.031854647  0.032143839            5 
  556000    1.0557093    -6.530299    212.37313  0.031830505  0.032123832            3 
  557000    1.0277329   -6.5254652    213.05312  0.031875093  0.032104447            3 
  558000    1.0258816   -6.4790876    214.06893  0.031969673  0.032084732            5 
  559000    1.0390127   -6.5586184     213.7436  0.031863983  0.032065403            3 
  560000    1.0277728   -6.5224157    214.87518  0.031975473  0.032046565            2 
  561000     1.028458    -6.521483    214.86167  0.031916469  0.032028024            5 
  562000    1.0305988    -6.524166    215.81171   0.03200055  0.032009851            5 
  563000    1.0367011   -6.5148499    215.51991   0.03190052  0.031991104            7 
  564000    1.0436095   -6.5237893    215.26215  0.031805873  0.031972368            5 
  565000    1.0298114   -6.5320353    215.94297  0.031849995  0.031953359            5 
  566000    1.0283502   -6.4972417    216.73149  0.031909819  0.031935111            2 
  567000    1.0240318   -6.5181549    216.87003  0.031873902  0.031916304            4 
  568000    1.0306703   -6.4881267    217.35795  0.031889371  0.031897613            3 
  569000    1.0234834   -6.5339588    217.27566  0.031821274  0.031879055            3 
  570000     1.001599   -6.5067177    216.70179  0.031681548  0.031860268            3 
  571000    1.0293898   -6.5115457    217.47072  0.031738284  0.031842057            3 
  572000    1.0332345   -6.5355228    217.65815  0.031710104   0.03182324            8 
  573000    1.0314284   -6.5429131     217.5572  0.031640081  0.031803987            8 
  574000    1.0275442   -6.5597865     218.4068  0.031708305   0.03178572            3 
  575000    1.0355596   -6.5116407    218.90484  0.031725339  0.031767453            5 
  576000    1.0266324   -6.5173136     218.8581  0.031663498  0.031749723            3 
  577000    1.0380513   -6.5619878    219.16012  0.031652241  0.031732058            5 
  578000    1.0365751   -6.5135186     219.5819  0.031658289   0.03171393            3 
  579000    1.0560483   -6.4982144    220.21046  0.031694078  0.031696261            3 
  580000    1.0247889   -6.5510333     219.8976  0.031594483  0.031678208            4 
  581000    1.0193776   -6.5367871    220.28676   0.03159592   0.03166002            3 
  582000      1.01579    -6.558829    220.73905  0.031606393  0.031641252            4 
  583000    1.0526034   -6.5592844    220.66447  0.031541519  0.031622617            3 
  584000    1.0149858   -6.5585147    221.09346  0.031548724  0.031604085            2 
  585000    1.0140682   -6.5485252    221.55555   0.03156062  0.031585591            4 
  586000    1.0098459   -6.5561347    221.61008  0.031514517  0.031567703            2 
  587000    1.0127787    -6.581926     220.7033  0.031332099  0.031548874            4 
  588000    1.0252267   -6.5136997     222.3015  0.031505314  0.031530042            6 
  589000    1.0194841   -6.5284808     222.4486  0.031472638  0.031511598            3 
  590000    1.0058392    -6.538954    222.33536  0.031403299  0.031493158            3 
  591000    1.0214605   -6.5517836    222.24707  0.031337714  0.031474567            3 
  592000    1.0134333   -6.5801824     222.1754   0.03127469  0.031455548            4 
  593000    1.0378322   -6.5801356    222.19999  0.031225407  0.031436485            5 
  594000     1.042128   -6.5713075    223.38994  0.031339779  0.031417839            3 
  595000    1.0071402   -6.5207524    224.08565  0.031384545   0.03139942            3 
  596000   0.99902299   -6.5571874    223.85007  0.031298948  0.031381289            2 
  597000   0.99177685   -6.5463172    224.82467  0.031382562  0.031363046           10 
  598000     1.030742     -6.56815    224.79964  0.031326594  0.031345023            3 
  599000   0.99185009   -6.5609683    224.34299  0.031210767   0.03132679            5 
  600000    1.0226193   -6.5606196    225.35806  0.031299731  0.031308726            5 
  601000    1.0244672   -6.5747825    224.73004  0.031160571  0.031290563            4 
  602000    1.0150147   -6.5683948    225.20333  0.031174326  0.031272606            4 
  603000    1.0331385   -6.6040832    225.83477  0.031209891   0.03125431            2 
  604000    1.0090474   -6.5660651    226.21996  0.031211362  0.031235982            7 
  605000   0.99975148   -6.5425864    227.07995   0.03127823  0.031218139            6 
  606000    1.0150891    -6.558781    226.51274  0.031148617  0.031200572            4 
  607000   0.99406325   -6.5480469    227.35792  0.031213333  0.031182203            2 
  608000    1.0108587   -6.5953928    226.43669  0.031035731   0.03116387            5 
  609000   0.98753404   -6.5477739    227.30386  0.031103429  0.031145701            3 
  610000    1.0170065   -6.5324935    227.97279  0.031143823  0.031127475            2 
  611000     1.019162   -6.5690765    227.95983  0.031091085  0.031109628            4 
  612000    1.0188218   -6.6101631    227.48235  0.030975265  0.031091245            6 
  613000   0.99098427   -6.5383668    228.25105  0.031029235  0.031072424            6 
  614000    1.0203254   -6.5929884    227.70685  0.030904839  0.031053445            6 
  615000    0.9902652   -6.6003465    228.52486  0.030965428  0.031034595            8 
  616000    0.9942901   -6.5799499    228.21877  0.030873751  0.031015741            8 
  617000    1.0064523   -6.5914371    228.60089  0.030875322   0.03099658            3 
  618000    1.0213255   -6.5687219    229.18421  0.030904019  0.030977503            4 
  619000   0.98493399   -6.6141772    228.48287  0.030759675  0.030958158            4 
  620000    1.0118564   -6.6017103    229.56082  0.030854949  0.030938755            2 
  621000   0.99057622   -6.5969163    228.56664  0.030671851  0.030919525            4 
  622000    1.0189114   -6.5334298    229.99475  0.030813874  0.030900183            5 
  623000    1.0165892   -6.6304642    229.07745  0.030641714  0.030880854            3 
  624000    1.0258827   -6.5881363    230.17544  0.030739241  0.030861272            7 
  625000    1.0242826   -6.6036629    229.77872  0.030637162  0.030841992            2 
  626000   0.98228625    -6.603217    230.07346  0.030627458  0.030822379            6 
  627000    1.0139369   -6.6055195    230.74762  0.030668211  0.030803029            5 
  628000   0.98631873   -6.5509363    231.21267  0.030681087  0.030783731            3 
  629000    1.0083759   -6.5874765    231.76148  0.030705018  0.030764836            3 
  630000    1.0440994   -6.5862235    232.21488  0.030716254  0.030745856            5 
  631000    1.0124192   -6.5669279    231.71874  0.030602052   0.03072708            3 
  632000    1.0203465   -6.6187348    231.34656  0.030504556  0.030707673           10 
  633000    1.0031507   -6.5617393    231.95113  0.030535958  0.030688646            2 
  634000   0.98539145   -6.5574461    232.78166  0.030596958  0.030669344            2 
  635000   0.98653559   -6.5565051    232.55743  0.030519348  0.030649851            3 
  636000    1.0094475   -6.5996358    232.91132  0.030517731  0.030630525            6 
  637000    1.0098862   -6.5815391    233.04517  0.030487332  0.030610937            9 
  638000    1.0123982   -6.6164336     232.3041  0.030342751  0.030590859            2 
  639000    1.0073019   -6.6113475    232.46942  0.030316825  0.030571078            3 
  640000   0.97701932   -6.6156157    232.95901  0.030333205  0.030551164            3 
  641000    1.0000659   -6.6216519    233.57279  0.030365677  0.030531324            7 
  642000     1.016091   -6.6163073    233.43861  0.030300962   0.03051143            7 
  643000   0.98652524   -6.5607994    234.28153  0.030363081  0.030491757            7 
  644000   0.99122309   -6.6024443    233.94517  0.030272408  0.030471854            7 
  645000   0.96345059   -6.6103159    233.70723  0.030194733   0.03045139            3 
  646000   0.99696949   -6.6268927      234.548   0.03025645  0.030431385            5 
  647000   0.98794032   -6.5868254    234.74332  0.030234843   0.03041166            4 
  648000   0.99066154   -6.6125111    235.02625  0.030224569  0.030392057            4 
  649000    1.0230249   -6.6272736    234.88033  0.030159261  0.030372245            4 
  650000    1.0051761   -6.6076417    235.56217  0.030200278  0.030352756            2 
  651000   0.99140361    -6.641011    234.72942  0.030047289  0.030332934            6 
  652000   0.99596337   -6.6291177    235.42614  0.030090253  0.030312771            6 
  653000   0.99063741   -6.6197325    235.86079  0.030099641  0.030292212            5 
  654000    1.0013647   -6.6237602    235.84392  0.030051468  0.030271865            5 
  655000   0.97967532   -6.6069883    236.40889  0.030077467  0.030251495            6 
  656000   0.99177892    -6.649021    235.32795  0.029894303  0.030231317            4 
  657000   0.98994975   -6.6363385    235.97485  0.029930854  0.030210654            3 
  658000    1.0061402   -6.6079357    236.28025  0.029924043  0.030190233            2 
  659000    1.0011179   -6.6227264    236.35109  0.029887593  0.030169564            5 
  660000   0.98931984    -6.601747    237.11698  0.029939012  0.030149072            8 
  661000   0.97518442   -6.6490335    236.09072  0.029764337  0.030128372            7 
  662000   0.99860675   -6.6085569    237.23578  0.029863517  0.030107453            7 
  663000    1.0012116   -6.6325122    237.52515  0.029854845  0.030086549            4 
  664000    1.0005746   -6.6636434    236.24449  0.029649157   0.03006535            7 
  665000    0.9846665   -6.6058716    237.24828  0.029730361  0.030043912            3 
  666000   0.97459931   -6.6254007     237.3114  0.029693619  0.030022912            3 
  667000   0.98084813   -6.6132213    238.19295  0.029759239  0.030002254            4 
  668000   0.97970855   -6.6494737    237.26759   0.02959925  0.029981492            4 
  669000   0.98674029    -6.643622    237.92002  0.029636276  0.029960017            4 
  670000   0.98931929   -6.6512197    237.82757  0.029580543  0.029938763            6 
  671000   0.96183447   -6.6729184    238.07385  0.029567045  0.029917051            6 
  672000   0.97840967   -6.6111861    238.67223  0.029597251  0.029895668            9 
  673000   0.98616511   -6.6036838    238.26209  0.029502487    0.0298743            5 
  674000   0.96773817   -6.6551892    238.37186  0.029472288  0.029852817            3 
  675000   0.98531927   -6.6353269    238.85795  0.029488635  0.029831187            7 
  676000   0.99424495    -6.626223    238.60943  0.029414377  0.029809733            7 
  677000   0.97974913   -6.6102304    239.68735  0.029503613   0.02978817            4 
  678000   0.96981698   -6.6413882    239.64221  0.029454549  0.029766679            7 
  679000   0.99039092   -6.6379077    239.55832  0.029400874  0.029744754            3 
  680000   0.97486804   -6.6440526    239.66593  0.029370824  0.029722659            4 
  681000   0.97587539   -6.6497073    239.79873  0.029343947  0.029700799            4 
  682000   0.98857666   -6.6369174    239.32941  0.029243574  0.029678862            4 
  683000   0.98216802   -6.6570453    240.19503  0.029306372  0.029656734            5 
  684000   0.98435942    -6.642687    239.47231  0.029175477  0.029634692            3 
  685000   0.97679468   -6.6530358    239.82835  0.029176199   0.02961254            4 
  686000   0.99508538   -6.6413812    240.43296  0.029207113  0.029590341            3 
  687000   0.97224094   -6.6471981    240.51271  0.029174274  0.029567755            2 
  688000   0.98141879   -6.6854607    240.84485  0.029172099  0.029545544            4 
  689000   0.98745305    -6.617679    240.93627  0.029140817  0.029523368            6 
  690000     0.972332   -6.6773549    241.10539  0.029119008  0.029501634            3 
  691000   0.99526099   -6.6606051    241.95592   0.02917944  0.029479748            6 
  692000   0.97110943   -6.6571899    241.69602  0.029105976  0.029457984            7 
  693000   0.95901484   -6.6659652    241.32858  0.029019791  0.029436179            2 
  694000   0.99659723   -6.6884309    241.12558    0.0289536   0.02941397            4 
  695000   0.97428762    -6.675535    241.30456    0.0289334   0.02939205            4 
  696000   0.97465199   -6.6494991    242.34649  0.029016582   0.02937037            3 
  697000   0.96985433   -6.6746035    242.86209  0.029036596  0.029348981            7 
  698000   0.98575463   -6.6582272    242.16763  0.028912085  0.029327566            4 
  699000   0.98316949   -6.6755147    242.31953  0.028888832  0.029305906            5 
  700000   0.98523465   -6.6684817    243.68738  0.029010402  0.029284078            3 
  701000   0.97466217   -6.6514721    243.15164  0.028905331  0.029262801            4 
  702000   0.97885563   -6.6528504    244.28355  0.028998522  0.029241047            5 
  703000   0.96963025   -6.6672214    244.36468   0.02896689  0.029219375            3 
  704000   0.97907991    -6.702681    243.86015  0.028866022  0.029197797            7 
  705000    0.9635484   -6.6560017    244.00631  0.028842353  0.029176282            3 
  706000   0.96812536   -6.6628695    244.94406  0.028912188  0.029154725            4 
  707000   0.99954574   -6.6618372    244.71226  0.028843972  0.029133781            3 
  708000   0.99190143   -6.6251016     246.0746  0.028963583  0.029112771            6 
  709000   0.97236894   -6.7132622    244.72196  0.028763747  0.029091814            3 
  710000   0.97022891   -6.6812707    245.41089  0.028804095  0.029070988            7 
  711000   0.96130292    -6.688108    245.33896  0.028755153  0.029049899            7 
  712000   0.96312726   -6.7065165    245.87431  0.028777424  0.029028567            4 
  713000   0.97550074   -6.7213869    245.30013  0.028669955  0.029007139            8 
  714000   0.97952043   -6.6990533    245.35712  0.028636452  0.028985739            3 
  715000   0.97322751   -6.6697722    245.88263  0.028657649   0.02896419            4 
  716000   0.98067832   -6.6855241    245.93245  0.028623423  0.028943005           10 
  717000   0.96959162    -6.642306    246.67224  0.028669484  0.028921997            4 
  718000     0.987569   -6.6775355    246.63379  0.028625092  0.028900772            2 
  719000   0.96068405   -6.6705366    246.80249  0.028604832  0.028879522            4 
  720000   0.96241644   -6.7118733    246.33695  0.028511221  0.028858268            4 
  721000   0.96971868   -6.6939786    246.32056  0.028469783  0.028836618            8 
  722000   0.96625172   -6.6542844    247.81973  0.028603386  0.028814845            3 
  723000   0.94530484   -6.7046729    247.40547  0.028516075  0.028793299            4 
  724000   0.98222923   -6.6864519    247.36061  0.028471526  0.028772003            7 
  725000   0.96004332   -6.6658613    247.72939  0.028474642  0.028750426            9 
  726000   0.97635512   -6.6613329    247.63646  0.028424754  0.028728886            2 
  727000   0.97358978   -6.7042912    248.28389  0.028459868  0.028707432            6 
  728000   0.96075605    -6.694331    248.43941  0.028438577  0.028685647           10 
  729000   0.96629398   -6.7325117    248.09696  0.028360421  0.028663704            4 
  730000   0.96528877   -6.7124279    248.44004  0.028360735  0.028642088            9 
  731000   0.96706754   -6.6953996    247.85952  0.028255759  0.028620639            7 
  732000   0.94538663   -6.6993253    249.13128   0.02836194   0.02859878            4 
  733000   0.95934217   -6.6912398    248.82741    0.0282887  0.028577004            4 
  734000   0.96279647   -6.7244273    248.61782  0.028226365   0.02855561            6 
  735000   0.94503299   -6.6799129    248.24607  0.028145813  0.028533964            7 
  736000    0.9567694   -6.6961425    249.02467  0.028195728  0.028512556            8 
  737000   0.95071683   -6.7031704    248.68695  0.028119284  0.028490821            3 
  738000   0.95460442   -6.7326131    248.97477  0.028113682  0.028469012            1 
  739000   0.94428815   -6.7088593    249.60626  0.028146849  0.028447308            5 
  740000    0.9637097   -6.7208663    249.96273  0.028148956  0.028425506            5 
  741000   0.96065153   -6.7451739    249.44345  0.028052569  0.028403525            5 
  742000    0.9385396   -6.6942105    250.30176  0.028111159   0.02838166            5 
  743000   0.95506479   -6.6670428    250.59785  0.028106533  0.028360145            4 
  744000   0.93999666    -6.672636    250.76498  0.028087476  0.028339239           11 
  745000   0.93962691    -6.692213    251.45215  0.028126638  0.028318187            9 
  746000   0.95992874   -6.6957906     250.8292  0.028019348  0.028296709            7 
  747000    0.9529128    -6.718888    250.70987  0.027968526    0.0282752            4 
  748000   0.97471339   -6.7272789    251.67327  0.028038466  0.028253829            5 
  749000   0.97246718     -6.71687    251.07539  0.027934511  0.028232635            5 
  750000   0.95998383   -6.7187292    251.21966  0.027913295  0.028211426            6 
  751000   0.95683808   -6.7274834    251.93429  0.027955425  0.028190226            4 
  752000   0.95782494   -6.7136714    252.50903   0.02798194  0.028169051            4 
  753000   0.96275813   -6.7448369    252.13886  0.027903814  0.028147762            7 
  754000   0.95017309   -6.7201023    251.64847  0.027812607  0.028126646            7 
  755000   0.95935966   -6.7257301    252.74377  0.027896663  0.028105687            4 
  756000   0.95032278   -6.7273201    253.20887  0.027911031  0.028084511            5 
  757000   0.94510945   -6.6992695    253.33842  0.027888422  0.028063348            7 
  758000   0.94664716   -6.7462921     252.6907  0.027780419  0.028042386            6 
  759000   0.93176076    -6.749379    253.13883   0.02779302  0.028021289            8 
  760000   0.95718668   -6.7176663    252.85572  0.027725407  0.028000309            3 
  761000   0.95580238   -6.7566492    253.02822  0.027707865   0.02797924            6 
  762000   0.94149536   -6.7237423    253.53866  0.027727325  0.027958115            5 
  763000   0.96839494   -6.7228831    254.35735  0.027780401  0.027937467            8 
  764000   0.96738581   -6.7664706    254.51732  0.027761488  0.027916475            9 
  765000   0.94988298   -6.7376068    254.39927  0.027712339  0.027895944            3 
  766000   0.96316864   -6.7357487    254.94758  0.027735812  0.027875455            3 
  767000   0.94964728   -6.7356488    254.95669   0.02770064  0.027854767            4 
  768000   0.94286992   -6.7170446    254.45579   0.02761022  0.027833796            7 
  769000    0.9541782   -6.7156984    255.36294   0.02767262  0.027812966            4 
  770000   0.94461069   -6.7321902    254.97617  0.027594823  0.027791995            2 
  771000   0.95995472   -6.7433646    254.93812   0.02755492  0.027770892            9 
  772000   0.95595195   -6.7825067     254.7641  0.027500443  0.027749989            4 
  773000   0.92899994   -6.7229099    256.08266  0.027607014  0.027729209            4 
  774000   0.95747852   -6.7914675    255.07391  0.027462738  0.027708299            2 
  775000   0.95593798   -6.7368338    256.84792  0.027618056  0.027687525            3 
  776000   0.94732279   -6.7503071    255.53941  0.027441946  0.027667196            3 
  777000    0.9441507   -6.7712286    255.61536  0.027414774  0.027646567            8 
  778000   0.96070315   -6.7499142    256.65719   0.02749113   0.02762593            2 
  779000   0.94347411   -6.7363371    257.72677  0.027570258  0.027605301            2 
  780000   0.93579633   -6.7612456    255.77481  0.027326368  0.027584763            3 
  781000   0.94956287   -6.7415326     257.2838   0.02745239  0.027564028            4 
  782000   0.94425408   -6.7298393    257.37507  0.027427011  0.027543056            6 
  783000    0.9450173   -6.7609209    256.98564  0.027350536  0.027522003            5 
  784000   0.96456498   -6.7325315    257.00397  0.027317599  0.027501133            6 
  785000   0.93582561   -6.7509013    257.05455  0.027288169  0.027480292            6 
  786000   0.92730743    -6.799924    256.49595  0.027194228   0.02745914           10 
  787000   0.95715355   -6.7513427    256.63676  0.027174583  0.027438145            7 
  788000   0.93099589   -6.7834109    256.64679  0.027141158  0.027416833            8 
  789000   0.95616478   -6.7846661    257.04016  0.027148306  0.027395624            4 
  790000   0.94779509   -6.7346427    257.97921  0.027212997   0.02737449            4 
  791000   0.94436539   -6.7359014    257.57662   0.02713618   0.02735345            7 
  792000   0.94705479   -6.7533831    258.08795  0.027155719  0.027332496            4 
  793000    0.9454159   -6.7710912    257.31514  0.027040263  0.027311201            8 
  794000   0.92152521   -6.7369728    258.16667  0.027095578  0.027290419            7 
  795000   0.96089059   -6.7596036    258.83856  0.027131924  0.027269478            7 
  796000   0.93949286   -6.7830771    258.38999  0.027050878  0.027248577            9 
  797000    0.9450975   -6.7592481    258.90874  0.027071177  0.027227571            5 
  798000    0.9151472   -6.7880213    258.02076  0.026944524  0.027206547            4 
  799000   0.95085755   -6.7735729    258.17042   0.02692641  0.027185355            6 
  800000   0.93510106    -6.773427    258.69055  0.026946933  0.027163926            3 
  801000   0.94804608   -6.7802467    258.65802  0.026909907  0.027142731            4 
  802000   0.93352151   -6.7804422    258.54878  0.026865002  0.027121334            4 
  803000   0.93352157   -6.7860527    258.66611  0.026843723  0.027099812            3 
  804000   0.94244214   -6.7770058    259.33699  0.026879871   0.02707841           10 
  805000   0.93846546   -6.7785069    258.84301  0.026795343  0.027057091            5 
  806000   0.93631019    -6.775279    258.50741  0.026727399  0.027035571            6 
  807000   0.93533999   -6.7546169    259.77226  0.026824893  0.027014101            5 
  808000   0.92418166   -6.7726853     259.1654  0.026729105  0.026992935            5 
  809000   0.91409184   -6.7430656    260.41748   0.02682504  0.026971722            4 
  810000   0.93881157    -6.779754     260.2802  0.026777798  0.026950553            6 
  811000   0.93799841   -6.7955137    259.79562  0.026694987  0.026929087            5 
  812000   0.94082155   -6.8202429    259.46446  0.026628126  0.026907465            4 
  813000   0.92182018   -6.7898377    259.65719  0.026615128  0.026885887            5 
  814000   0.93028887   -6.8096159    259.93917  0.026611299  0.026864269            6 
  815000   0.94988575   -6.7943349    260.32136  0.026617726  0.026842813            8 
  816000   0.92965921   -6.7555275    260.57472   0.02661098  0.026821377            7 
  817000   0.92896674   -6.8134092    260.67977  0.026589124   0.02679991            4 
  818000   0.93640455   -6.7858319    261.58013  0.026648342  0.026778542            6 
  819000   0.93051984   -6.8223633    260.85653  0.026542178  0.026756956            6 
  820000   0.91118036   -6.8396391      259.993  0.026422053  0.026735382            5 
  821000   0.92738624    -6.778109    261.19078  0.026511447   0.02671389            8 
  822000   0.90699368   -6.7922614    261.63392   0.02652412  0.026692868            5 
  823000   0.93499286   -6.8301145    260.64083  0.026391336   0.02667152            6 
  824000   0.93343864   -6.7875947    262.11523  0.026508418   0.02665031            6 
  825000   0.92618159   -6.8360128    260.97007  0.026360613  0.026629142            7 
  826000    0.8970146   -6.7865688    261.81133  0.026413573  0.026608215            5 
  827000   0.92405368   -6.8119561    262.53843    0.0264549  0.026587312            2 
  828000   0.95161339    -6.808784    261.80479  0.026349113  0.026566298            4 
  829000   0.91477634   -6.8608963    262.36552  0.026373695  0.026545287           12 
  830000   0.91314093   -6.8264572    262.59222  0.026364681  0.026524193            7 
  831000   0.87396193   -6.8094202     263.2945   0.02640338  0.026503197            6 
  832000   0.88601022   -6.8102984     263.1496  0.026357131  0.026482662            3 
  833000   0.93894511    -6.787547    263.74377  0.026384931  0.026461976            9 
  834000   0.90986828   -6.8172561    264.01141  0.026380037  0.026441273            6 
  835000   0.91577405   -6.8372778     263.7546  0.026322815  0.026420678            4 
  836000    0.9253674   -6.7691672    263.33624  0.026249625  0.026400067            6 
  837000    0.9263346   -6.7851266    264.54798  0.026338906  0.026379947            4 
  838000   0.90691468   -6.8161268    264.28768  0.026281591  0.026359247           10 
  839000    0.9218981   -6.8255157    263.78265  0.026200104  0.026338672            8 
  840000   0.91246691   -6.8505952    264.18017  0.026208351  0.026318145           10 
  841000   0.90638411   -6.8138782    265.08922  0.026267263  0.026297912            5 
  842000   0.91706277   -6.8299119    264.75972  0.026203456  0.026277489            5 
  843000   0.91029493   -6.8077748    265.21758  0.026217633  0.026257318            4 
  844000    0.9126688   -6.8030951    265.99531   0.02626336  0.026237406            2 
  845000   0.90782956   -6.7781307    266.27476  0.026259838  0.026217835            5 
  846000   0.93624446   -6.7983083    265.19533  0.026122471  0.026197882            4 
  847000   0.92006767   -6.7918426    266.75793  0.026245369   0.02617805            5 
  848000   0.92651807   -6.7962027    266.53913  0.026192918  0.026158307            5 
  849000   0.90217125   -6.7985319    266.93571  0.026200992  0.026137989            6 
  850000   0.90718479   -6.8078842    266.23685  0.026101652  0.026117903            9 
  851000   0.91273639   -6.8265501    266.17064  0.026064497   0.02609812            4 
  852000   0.93064467   -6.8279799    266.18787   0.02603559  0.026078422            3 
  853000   0.89291409   -6.8511933    266.00918   0.02598761  0.026058495            4 
  854000    0.8994395   -6.8146607    267.38817  0.026091741  0.026038613            6 
  855000   0.90465344    -6.814652    267.30243  0.026052869  0.026019107            4 
  856000     0.922195   -6.8729736    266.74206   0.02596788  0.025999459            3 
  857000   0.90813473   -6.8674443    266.70254  0.025933736  0.025979658            7 
  858000   0.90029384    -6.843321    267.45634  0.025976723  0.025959994            5 
  859000   0.91665844   -6.8594135    268.02561  0.026001709  0.025940241            3 
  860000   0.90607483   -6.7841285    268.23225  0.025991497  0.025920663            4 
  861000   0.92092464   -6.8733117    267.32914    0.0258739  0.025901137            9 
  862000   0.91170001    -6.856095    268.23304  0.025931268  0.025881596            6 
  863000   0.89466973   -6.8252513    267.99997  0.025878714     0.025862            9 
  864000   0.90824438   -6.8473236    268.46272  0.025893395  0.025842683            5 
  865000   0.88371352   -6.8491085    268.78924  0.025894917  0.025823349            6 
  866000   0.90208457   -6.8248399    269.05318  0.025890414  0.025804082           14 
  867000   0.90775042   -6.8052396    269.08978  0.025864069  0.025784863           11 
  868000   0.92517817   -6.8577911    269.39281  0.025863365  0.025765474            4 
  869000   0.92333375   -6.8604219    269.36902  0.025831321  0.025746054            6 
  870000   0.92088831   -6.8653477    268.78639  0.025745823  0.025726673           16 
  871000   0.90462479   -6.8678854    269.07505  0.025743882  0.025707352           10 
  872000   0.89773926   -6.8836614    268.97359  0.025704663  0.025688009            6 
  873000   0.90152097   -6.8631308     268.9749  0.025675344  0.025668565            5 
  874000   0.90677868   -6.8921992    268.80544   0.02562981  0.025649079            3 
  875000   0.90173386   -6.8800876    270.11574  0.025725308  0.025629691           11 
  876000   0.90681654   -6.8753707    269.55706  0.025642795  0.025610214            5 
  877000   0.90154359   -6.8516612     270.7511  0.025727014  0.025590617            6 
  878000   0.88108376   -6.8659406    270.07922  0.025633943  0.025571043            3 
  879000   0.91263705   -6.8876454    269.96442  0.025593896  0.025551416            3 
  880000   0.90074753   -6.8421067     271.3061  0.025691865   0.02553206            5 
  881000   0.90296609   -6.8536239    270.32332  0.025569743  0.025512795            4 
  882000   0.91877115   -6.8528264    271.17971  0.025621666  0.025493598            9 
  883000   0.90058774    -6.841958      272.259  0.025694507   0.02547456           13 
  884000   0.90073572   -6.8605224    270.82309   0.02553008  0.025455521           11 
  885000   0.90327546   -6.8585188     271.0445  0.025522081  0.025436365           10 
  886000   0.88431222    -6.892924    271.44871  0.025531293     0.025417            4 
  887000   0.90185964   -6.8696047    271.78701  0.025534293  0.025397751            7 
  888000   0.89636272   -6.8460682    271.49658  0.025478283  0.025378524            5 
  889000    0.8886833   -6.8476751    271.31711    0.0254328   0.02535944            4 
  890000   0.89978206   -6.8458721    271.78085  0.025447645  0.025340316            6 
  891000   0.88956344   -6.8794284    271.83491  0.025424141   0.02532105            4 
  892000   0.89861193   -6.8734774    271.96033  0.025407355  0.025301574           11 
  893000   0.90709151   -6.8860946    271.85034   0.02536864  0.025282367           12 
  894000   0.92018004   -6.9127653    272.79715  0.025428519  0.025263388            6 
  895000   0.88798914   -6.8738283    273.15473  0.025433401  0.025244668            3 
  896000    0.8873234   -6.8570381    273.37604  0.025425599  0.025225756            8 
  897000   0.89459732   -6.9081487    272.06846  0.025275777  0.025206885            5 
  898000   0.91159833   -6.8970311    273.29676  0.025361615  0.025187979            7 
  899000   0.88554477   -6.8553647    272.87271  0.025294097  0.025169144            7 
  900000   0.89662761   -6.9151737    272.48718  0.025230294  0.025150277            4 
  901000   0.87785426   -6.9309586    273.68035  0.025312648  0.025131234            5 
  902000   0.90124951   -6.8930752    273.51227  0.025269057  0.025112195            9 
  903000    0.8893994   -6.8771321    273.73897  0.025261994  0.025093438            4 
  904000   0.89001376   -6.8568357    274.03195  0.025261057  0.025074678            4 
  905000   0.89464237   -6.8841889    273.45275  0.025179811  0.025055786            9 
  906000   0.89038088   -6.9259689    273.22245  0.025130836  0.025036965            4 
  907000   0.88422118   -6.9035235    273.72272  0.025149092  0.025018026            5 
  908000   0.88512962   -6.9396286    273.91679  0.025139206  0.024999127            7 
  909000   0.88921827   -6.8714271    274.20029   0.02513754  0.024980518            6 
  910000   0.87881085   -6.8922445     275.0197  0.025184954  0.024961702           11 
  911000   0.88320523    -6.927685    273.30123  0.025000112  0.024942725            8 
  912000   0.90831139   -6.8859734    274.85848  0.025114992  0.024923844           10 
  913000    0.8920479   -6.9371482    274.35162  0.025041221  0.024905276            6 
  914000   0.88033463   -6.9115888    274.38014  0.025016424  0.024886556            4 
  915000    0.8591556   -6.9318264    274.31464  0.024983119  0.024867901            8 
  916000    0.8969474   -6.9346798    274.61819   0.02498346  0.024849288            6 
  917000   0.89923311   -6.8651803    276.27896   0.02510714  0.024830681            5 
  918000   0.87552283   -6.9092452    275.57339   0.02501574  0.024812093            7 
  919000    0.8681563   -6.8795652     275.4462  0.024976985  0.024793646            6 
  920000   0.89061911   -6.8813809    275.13135  0.024921318  0.024775076            5 
  921000   0.88452557   -6.8835455    276.26907  0.024997202   0.02475684            7 
  922000    0.8947417   -6.8963995    276.02199  0.024947758   0.02473841           10 
  923000   0.87193626   -6.8978619    276.60377  0.024973255  0.024719933            5 
  924000   0.87121148   -6.8865733    276.64157  0.024949637  0.024701557            9 
  925000   0.88289026   -6.9151694    275.59309  0.024828206  0.024683169            4 
  926000   0.86998204    -6.888005    276.12798   0.02484953  0.024664757            3 
  927000   0.86544737   -6.9401754    275.88936  0.024801273  0.024646424            9 
  928000   0.90311334   -6.9298886    276.54522  0.024833442  0.024627865            5 
  929000   0.86755883    -6.902555    276.29457  0.024784228  0.024609437            8 
  930000   0.87313819   -6.9063021    277.50065  0.024865649  0.024591297            6 
  931000   0.88196822   -6.9444127    276.94384  0.024789101  0.024573095           12 
  932000   0.88457343   -6.9239472    277.42661  0.024805669  0.024554871           11 
  933000   0.88422425    -6.904381    278.43893  0.024869501   0.02453678            5 
  934000   0.88143166   -6.9232328    278.46221  0.024844951  0.024518895            3 
  935000   0.87961307    -6.897825    279.18725  0.024882999  0.024501084           11 
  936000    0.8962225    -6.889242    278.43124  0.024789106  0.024483295            4 
  937000   0.89053337   -6.9368017    277.89236  0.024714725  0.024465352           10 
  938000    0.8944319    -6.941833    277.78194  0.024678566  0.024447246           11 
  939000   0.86306049   -6.9078647    278.43675  0.024710397  0.024429021            3 
  940000    0.8848723    -6.934365    279.01374  0.024735261  0.024410796           11 
  941000   0.88412012   -6.9496392    277.75574  0.024597568  0.024392561            7 
  942000   0.86652236   -6.8940412    279.03422  0.024684556  0.024374437            7 
  943000   0.87968287   -6.9306137    278.03836  0.024570375  0.024356149            5 
  944000   0.89769749   -6.9428209    277.98588  0.024539714  0.024338018            5 
  945000   0.88347025   -6.9100815    279.06787   0.02460916  0.024319786            4 
  946000   0.89083067   -6.9779129     278.5586  0.024538284   0.02430163            9 
  947000    0.8944403   -6.9332179    279.13437  0.024563038  0.024283417            9 
  948000   0.86128795   -6.9372418    278.57943  0.024488346  0.024265147            7 
  949000   0.87491089   -6.9546488    278.01043  0.024412578   0.02424681            8 
  950000   0.91315972     -6.98949    277.79502  0.024367984  0.024228275            6 
  951000   0.87697926    -6.944221    278.81146  0.024431428  0.024209814            6 
  952000   0.86370781   -6.9225449    278.78616   0.02440355  0.024191478            4 
  953000   0.88932392   -6.9476458    278.09151  0.024317201  0.024173162            7 
  954000   0.86436619   -6.9756591    278.68258  0.024343342  0.024154878            4 
  955000   0.88341338   -6.9519372    279.23967  0.024366463  0.024136648            3 
  956000   0.85955647   -6.9973922    279.44439  0.024358821  0.024118395            7 
  957000    0.8772988   -6.9439197    279.86931  0.024370369  0.024100077            5 
  958000   0.88512515   -6.9330236    280.03473  0.024359319  0.024081749            8 
  959000   0.85499415   -6.9522134    279.61495  0.024297441  0.024063495            7 
  960000    0.8493824   -6.9714526    279.44963   0.02425778  0.024045131            5 
  961000   0.87714659   -6.9838418    279.80038  0.024262953  0.024026842            9 
  962000   0.86976702   -7.0095292    279.04516  0.024172311  0.024008671            9 
  963000   0.86851086   -6.9385786    280.88515  0.024306434  0.023990483            5 
  964000   0.85852221   -6.9635031    279.92892  0.024198558   0.02397217           10 
  965000   0.84997773   -6.9561025    280.12102  0.024190071  0.023953941            7 
  966000   0.86052828   -6.9332629    280.22866  0.024174315  0.023935737           17 
  967000   0.88644491   -6.9307438    281.03207  0.024218551  0.023917415            3 
  968000   0.86630385   -6.9530598    279.93383  0.024098987  0.023899195           10 
  969000   0.84745316   -6.9459674    280.11544  0.024089735  0.023880895            8 
  970000   0.87277622   -6.9421146    280.63203  0.024109281  0.023862622            2 
  971000   0.85636716   -6.9669905    280.30458  0.024056349  0.023844343            8 
  972000   0.85435105   -6.9426499    280.94822  0.024086781  0.023826046            3 
  973000    0.8818188   -6.9976286     281.3964  0.024100411  0.023807827            7 
  974000    0.8853765   -6.9673745    280.80917  0.024025425  0.023789618            8 
  975000   0.86945215   -6.9610245    280.77157   0.02399757  0.023771529            4 
  976000   0.86835087   -6.9484764    281.76927  0.024058168  0.023753414            5 
  977000   0.87018269   -6.9680398    281.06877  0.023973795  0.023735409            5 
  978000   0.86629229   -6.9749949     282.1421  0.024040738   0.02371742            8 
  979000   0.89364731   -6.9476369    282.40766  0.024038786  0.023699396            6 
  980000   0.86064605    -6.970565    281.95834  0.023976049  0.023681396           10 
  981000   0.85393446   -7.0101066    281.66389  0.023926596  0.023663438            5 
  982000    0.8759311   -6.9724792    282.07829  0.023937397  0.023645449            4 
  983000   0.86224731     -6.95024    283.10458  0.024000049   0.02362771            4 
  984000   0.86902847   -6.9763031    282.40812  0.023916677  0.023610042            6 
  985000   0.86847311   -6.9852448    282.19097  0.023874024  0.023592195           15 
  986000   0.86690539   -6.9817079    282.22159  0.023852399  0.023574298            4 
  987000   0.88195913   -6.9934249    282.34606  0.023838742   0.02355653            4 
  988000   0.84697421   -6.9637194    282.29156  0.023810017  0.023538595            4 
  989000   0.87072697   -6.9575822    283.08228  0.023852568   0.02352081           11 
  990000   0.86758363   -6.9791028    282.35598  0.023767338  0.023503039           12 
  991000   0.84910813   -6.9910127    282.96013  0.023794158  0.023485097           16 
  992000   0.85491909   -6.9924535    283.05269  0.023777947  0.023467128            5 
  993000   0.85590339   -6.9811717    282.61971  0.023717666   0.02344913           10 
  994000   0.85877289   -6.9872461    282.95515  0.023721927  0.023431187            9 
  995000   0.86664112   -6.9924726    283.30086   0.02372704  0.023413252           11 
  996000   0.83029428   -6.9985609    283.82267  0.023746876  0.023395555            8 
  997000   0.87812463    -6.966392    283.94426  0.023733222  0.023377731           10 
  998000   0.86162448   -7.0085836    283.02513  0.023632693  0.023359905            5 
  999000   0.84620984   -7.0000449    283.65407  0.023661501  0.023342175            8 
 1000000   0.86073438   -6.9942828    283.36194  0.023613495  0.023324398            8 
 1001000   0.85058564   -7.0280518     283.5007  0.023601457  0.023306357            9 
 1002000   0.86080556   -7.0140553    283.45851  0.023574394  0.023288499            6 
 1003000   0.86376112   -7.0132889    284.13963   0.02360748  0.023270704           16 
 1004000   0.84429248   -6.9804501    283.63718  0.023542263  0.023252847           17 
 1005000    0.8477882   -7.0148092     283.3259  0.023493026  0.023234954            6 
 1006000    0.8500064   -7.0201387    284.60129  0.023575322  0.023216983            8 
 1007000   0.84590392   -7.0022447    283.52692  0.023463002  0.023199009            9 
 1008000   0.85466401   -7.0014834    283.83175  0.023464927  0.023181102            7 
 1009000   0.85153057    -7.002984    283.41189  0.023406994  0.023163181            6 
 1010000   0.85597786   -7.0269608     283.3076  0.023375214  0.023145202           11 
 1011000   0.85017737   -7.0400581     283.3319  0.023354097  0.023127139            7 
 1012000    0.8490747   -7.0074331    284.83998  0.023455203  0.023109018            6 
 1013000    0.8486497   -7.0301631    284.18254  0.023377965   0.02309091            5 
 1014000   0.82878011   -7.0165578    284.11759  0.023349572   0.02307275           11 
 1015000   0.84173723   -7.0081269    284.82816  0.023384907   0.02305459            4 
 1016000   0.86136857    -7.018241     284.2598  0.023315272  0.023036493            6 
 1017000   0.83478801   -7.0060999    284.15584  0.023283829  0.023018362            4 
 1018000   0.83622808   -7.0217887    284.09168  0.023255704  0.023000229           12 
 1019000   0.85725361   -7.0325039    283.83207  0.023211651  0.022982211           11 
 1020000    0.8540607   -7.0258752    285.08365  0.023291148   0.02296416           10 
 1021000   0.85224884   -7.0265458    284.56436  0.023225952  0.022946199            7 
 1022000   0.83705801   -7.0464199    283.99375  0.023156698  0.022928228           10 
 1023000   0.86160825   -7.0058876    284.91663   0.02320924  0.022910335            3 
 1024000   0.86120426   -7.0300373    284.21443   0.02312943   0.02289247           13 
 1025000   0.84302944   -7.0677977    284.89366  0.023162086  0.022874501           14 
 1026000   0.84297682    -7.012554    285.01069  0.023149017  0.022856688           19 
 1027000   0.82690542   -7.0473631    284.95458  0.023121923  0.022838842            9 
 1028000   0.84256598   -7.0241795    285.95515  0.023180541  0.022820999            7 
 1029000   0.84118693   -7.0281057    285.86603  0.023150796  0.022803249           12 
 1030000   0.83324332   -7.0448081    285.25732  0.023079071  0.022785504            6 
 1031000    0.8368359   -7.0414937    285.35429  0.023064524  0.022767619            9 
 1032000   0.85097208   -7.0742114    284.85272  0.023001673  0.022749733            8 
 1033000   0.84558173   -7.0356321    285.87167  0.023061607  0.022731868            6 
 1034000   0.83405279   -7.0128689    287.09242  0.023137687  0.022714027           15 
 1035000   0.83905539   -7.0429291    285.15324  0.022959198  0.022696262            7 
 1036000   0.84402322   -7.0141367    286.51964  0.023046947  0.022678533           14 
 1037000   0.82784493    -7.028079    286.34175  0.023010426   0.02266097           10 
 1038000   0.82783286   -7.0412747    286.55756  0.023005585  0.022643228            8 
 1039000   0.84773437   -7.0243739    286.90731  0.023011494  0.022625608           14 
 1040000   0.84807051   -7.0559975    285.64148  0.022887939  0.022607956           22 
 1041000   0.81291859   -7.0427472    286.29767  0.022918481  0.022590385           15 
 1042000   0.82928718   -7.0283831    287.33341  0.022979319  0.022573032           14 
 1043000   0.81290662   -7.0451966    286.97672  0.022928788  0.022555563            9 
 1044000   0.85697207   -7.0737356    286.28093  0.022851287  0.022538108            7 
 1045000   0.82519643   -7.0451355    286.74842    0.0228667  0.022520532            7 
 1046000   0.82974695   -7.0385612     286.7963  0.022848654  0.022503031            5 
 1047000   0.83184874   -7.0457107    287.12737  0.022853182  0.022485404           10 
 1048000   0.83195845   -7.0277782    287.02027  0.022822859  0.022467828            3 
 1049000   0.82600798   -7.0532181     286.7895  0.022782769  0.022450073           15 
 1050000    0.8171517   -7.0615338    286.41478  0.022731331  0.022432253            8 
 1051000   0.83243922   -7.0621419    287.16825  0.022769446  0.022414704            7 
 1052000    0.8295245    -7.081728    287.00266  0.022734685  0.022397177            8 
 1053000   0.82917645   -7.0672483    287.57865  0.022758677  0.022379669            6 
 1054000   0.83044966   -7.0729706    287.77553  0.022752651  0.022362306            3 
 1055000   0.83698809   -7.0484663     287.8112  0.022733902  0.022344845           13 
 1056000   0.83881471   -7.1060309    287.63981  0.022698848  0.022327373            4 
 1057000   0.84890681   -7.0686959    287.88113  0.022696399   0.02230995           11 
 1058000   0.84282832   -7.0623568     287.5157  0.022646164  0.022292587            8 
 1059000   0.83159539   -7.0108689    288.95127  0.022737745  0.022275394            9 
 1060000   0.83917112   -7.0538102    287.99109  0.022640809  0.022258053           11 
 1061000   0.84868996   -7.0485547    288.35856  0.022648332  0.022240582           19 
 1062000   0.83307876   -7.0537922    288.13932  0.022609802  0.022223191            8 
 1063000   0.84474225   -7.0900537    287.20733  0.022515469  0.022205759            9 
 1064000   0.84159443   -7.0862409    288.01514  0.022557576  0.022188283            8 
 1065000   0.80825848   -7.0989684    287.97517  0.022533268  0.022170893           10 
 1066000   0.82684061   -7.0786814    288.51921   0.02255466  0.022153418            7 
 1067000   0.82737993   -7.0671311     288.1599  0.022505459  0.022135832           21 
 1068000    0.8155895   -7.1097905     287.3766  0.022423268  0.022118228            7 
 1069000    0.8221408    -7.081849    287.26887  0.022393894  0.022100598            6 
 1070000   0.79849787   -7.0832463    287.59793  0.022398593  0.022082879           11 
 1071000    0.8375749   -7.1142178      287.679  0.022383987  0.022065201            9 
 1072000   0.81720199   -7.0868062    287.31083  0.022334486   0.02204744           10 
 1073000   0.82455629   -7.0881916    288.29401  0.022390028  0.022029687            6 
 1074000   0.82864734   -7.0864018    287.61727  0.022316672   0.02201187           11 
 1075000   0.80843557   -7.0853909    288.03413  0.022328227  0.021994132           11 
 1076000   0.80885136   -7.0991612    287.77461  0.022287377   0.02197636           10 
 1077000   0.84015117   -7.0854703    287.80909  0.022269351  0.021958738           17 
 1078000   0.83549593   -7.0605466    287.95823  0.022260222  0.021941189           12 
 1079000   0.82426711   -7.0758163    288.30457   0.02226634   0.02192354            9 
 1080000   0.81230424   -7.0552411    289.08987  0.022306317  0.021906256            4 
 1081000   0.82777862   -7.1182921    287.82871   0.02218846  0.021888935           16 
 1082000   0.83206965   -7.1051525    288.47683   0.02221787  0.021871473            4 
 1083000   0.82207606   -7.0595644    289.23335  0.022255567  0.021854115            8 
 1084000   0.81920927   -7.1028785    288.62792  0.022188493  0.021836764           11 
 1085000   0.82978031   -7.1121839    288.08804  0.022126577  0.021819234           16 
 1086000   0.81263266   -7.0937819    289.32835  0.022201377   0.02180179            9 
 1087000    0.8154142   -7.0938132    288.71836  0.022134189  0.021784314           10 
 1088000   0.85775874   -7.0996733    289.49221  0.022173117  0.021766893            6 
 1089000   0.82404404   -7.1044802     288.9732  0.022113039  0.021749428            8 
 1090000   0.81900325   -7.1240781    288.18653  0.022032609  0.021731967            5 
 1091000   0.80261113   -7.1137244    288.32705  0.022023148  0.021714456           12 
 1092000   0.84488557   -7.0729222    289.26879  0.022074846  0.021696916           12 
 1093000   0.82062742   -7.1106242    288.54435  0.021999417  0.021679428            5 
 1094000   0.81377853   -7.1034372    289.02722  0.022016089  0.021661921            3 
 1095000   0.82044492   -7.0958109    289.23813  0.022012035  0.021644469            8 
 1096000   0.81192624   -7.1081751    289.64574  0.022022943  0.021627099           11 
 1097000   0.81201623   -7.1317961    288.86992  0.021943932  0.021609677            8 
 1098000   0.80217281   -7.0968022    289.22304  0.021950747  0.021592348           13 
 1099000   0.80686203   -7.0743144    289.77032  0.021972272  0.021574911           16 
 1100000   0.82591443   -7.0844833    289.40538   0.02192465  0.021557449            9 
 1101000   0.81093552   -7.0979741    289.92166  0.021943813  0.021540159            6 
 1102000   0.80314351   -7.0671584    289.76774  0.021912261  0.021522819           24 
 1103000   0.81975379   -7.0920409    289.32652   0.02185906  0.021505435           13 
 1104000   0.81896564   -7.1208119    289.45929  0.021849282    0.0214879            6 
 1105000   0.81040956   -7.1145146    290.02828  0.021872419  0.021470386            7 
 1106000   0.81445135   -7.1026344    289.47831  0.021811205  0.021452954            3 
 1107000   0.82433344    -7.128467    289.89943  0.021823203  0.021435576            5 
 1108000   0.81641451   -7.1367492    290.12657   0.02182059  0.021418149            9 
 1109000    0.8074836   -7.1229993    289.92278  0.021785601  0.021400815            6 
 1110000   0.81627924   -7.1390352    289.68133  0.021747848  0.021383333           11 
 1111000   0.80340418   -7.1558272    289.78248  0.021735859  0.021365888           10 
 1112000    0.8218649   -7.1309633    290.54064  0.021773129  0.021348486            6 
 1113000   0.81311347   -7.1301969    289.99977  0.021713071  0.021331103            8 
 1114000   0.82761943    -7.127447    289.55427  0.021660254  0.021313636           18 
 1115000   0.81075596    -7.107454    289.94718  0.021670193  0.021296193           17 
 1116000    0.8160973   -7.1191811    290.24842  0.021673269  0.021278734            8 
 1117000   0.79431098   -7.1434945    289.89993  0.021627867  0.021261347            4 
 1118000   0.81525571   -7.1358358    289.93632  0.021611234   0.02124399            8 
 1119000   0.79197948   -7.1336434    290.03308  0.021599127  0.021226515           20 
 1120000   0.81696983    -7.142388    290.49501  0.021614212  0.021209208            9 
 1121000   0.80782935   -7.1329513    290.60158  0.021602853  0.021191911            9 
 1122000   0.81483198   -7.1310266     290.1001  0.021546353  0.021174563            7 
 1123000    0.8222171   -7.1400342    290.38127  0.021548031  0.021157278           13 
 1124000   0.80636674   -7.1364815    290.06058  0.021505084  0.021140062           26 
 1125000   0.80376857   -7.1434254    290.86002  0.021545186  0.021122936           13 
 1126000   0.80260155   -7.1374894     290.6944  0.021513795  0.021105825            7 
 1127000   0.82136715   -7.1364895    291.04054    0.0215203   0.02108873            8 
 1128000   0.81086486   -7.1342589    291.47556   0.02153336  0.021071547            7 
 1129000   0.82415736   -7.1263078    291.67833  0.021529254  0.021054618           14 
 1130000   0.80088789   -7.1630442    290.48827  0.021422439   0.02103754           13 
 1131000   0.79966695   -7.1447416    291.10404  0.021448868  0.021020347           10 
 1132000   0.81115895   -7.1426775    291.04728  0.021425742  0.021003062           10 
 1133000   0.79947831   -7.1578486    291.18426  0.021416906  0.020985889           14 
 1134000   0.80056107   -7.1278832    290.70002  0.021362435  0.020968757           10 
 1135000   0.79784848   -7.1800606    290.59105  0.021335613  0.020951589           15 
 1136000   0.81121376   -7.1956874    290.39203  0.021302233  0.020934354            9 
 1137000   0.80111497   -7.1814008    291.01699  0.021329302  0.020917044           23 
 1138000   0.78283528   -7.1884754    290.19343  0.021250251   0.02089976            9 
 1139000   0.78463572   -7.2230289    290.45962   0.02125107  0.020882402           12 
 1140000   0.79087466   -7.2000471    289.97851   0.02119726  0.020864953            6 
 1141000   0.79958048   -7.1874446    290.91401  0.021247006  0.020847716           14 
 1142000   0.77665725   -7.1734105    291.08596  0.021240949  0.020830434           19 
 1143000   0.80328093   -7.1645932     290.7987  0.021201421  0.020813167           19 
 1144000   0.81284327   -7.1659246    291.48637  0.021232981  0.020795947           19 
 1145000   0.80299617   -7.1822569    290.72417  0.021158964   0.02077876           23 
 1146000   0.80033636   -7.1474255    291.12211  0.021169438   0.02076157           15 
 1147000   0.79383575   -7.1737084    290.15673  0.021080844  0.020744437            6 
 1148000   0.79161329   -7.1451715     291.6885  0.021173671  0.020727336            6 
 1149000   0.79228122   -7.1378535    291.41926  0.021135716  0.020710281           14 
 1150000   0.78434633   -7.1325659    292.02261  0.021161059  0.020693286           13 
 1151000   0.78752408   -7.1535022    291.14613  0.021079216  0.020676209           17 
 1152000   0.79261465   -7.1838599    290.41893  0.021008314  0.020659081            9 
 1153000   0.80099009   -7.1665499    290.76564  0.021015151  0.020641861           16 
 1154000   0.77601582   -7.1652235    290.90468  0.021006981  0.020624577            3 
 1155000   0.80175475   -7.1661574    291.54907  0.021035286  0.020607368            6 
 1156000   0.78294935   -7.1723061    291.76616   0.02103274  0.020590271           11 
 1157000   0.79208345   -7.1647345    291.58561  0.021001556  0.020573368           14 
 1158000   0.78413436   -7.1381623    291.22302  0.020957327  0.020556482            6 
 1159000   0.78664757   -7.1782428    291.62694  0.020968287  0.020539557           25 
 1160000   0.80812643   -7.1799719    291.86102  0.020967028  0.020522572           11 
 1161000   0.78429973   -7.1910947    291.67573  0.020935668   0.02050564           13 
 1162000   0.78730928   -7.1668064     291.8837  0.020932566  0.020488765           15 
 1163000   0.81156129   -7.1769056    292.29704  0.020944184   0.02047177            9 
 1164000   0.81197375   -7.1837841    291.94865   0.02090125  0.020454802            8 
 1165000   0.79021642   -7.1961327    291.49384  0.020850776  0.020437915           13 
 1166000   0.78762368   -7.2215224    291.88185  0.020860624  0.020420833            9 
 1167000   0.78758009   -7.1872865    291.88459  0.020842944  0.020403858           13 
 1168000   0.78257341   -7.2004039    292.44085  0.020864787   0.02038694           14 
 1169000   0.79386611   -7.2012989    291.85548   0.02080521  0.020370005           13 
 1170000   0.78548402   -7.2009814    292.59284  0.020839946  0.020353122           11 
 1171000   0.78764212   -7.2250193    291.83046  0.020767895  0.020336227            6 
 1172000    0.7901155   -7.1735209    292.60192  0.020805028  0.020319512            7 
 1173000   0.79321589   -7.2107185    292.30117  0.020765926  0.020302803            9 
 1174000   0.77041006   -7.1993214    292.00136  0.020726956  0.020285943           15 
 1175000   0.79182985   -7.1656414    293.14407   0.02079036  0.020269226            8 
 1176000   0.79236136   -7.2043014    291.83526  0.020679936  0.020252511           21 
 1177000   0.77592251   -7.1908272     292.9633  0.020742233  0.020235863            5 
 1178000   0.78651279   -7.1798873    292.42201  0.020686334  0.020219282           21 
 1179000   0.78675878   -7.1983863    292.58967  0.020680638  0.020202712           16 
 1180000    0.7884317   -7.1890222    292.92601  0.020686865  0.020186049           11 
 1181000   0.76722169   -7.2158194    292.77878   0.02065896  0.020169438            6 
 1182000   0.76784486    -7.214801    293.21304  0.020672098  0.020152831            8 
 1183000   0.78704742   -7.2089205    293.34709  0.020664067   0.02013616           13 
 1184000   0.76175795   -7.2248724    292.65683  0.020598031  0.020119574            8 
 1185000   0.77272849   -7.2352381    292.99718  0.020604584  0.020103001           18 
 1186000   0.77472267   -7.2188525      293.233   0.02060378  0.020086446           38 
 1187000   0.79374674   -7.2458186    293.14328  0.020580124  0.020069893           17 
 1188000   0.77224638   -7.2694038    293.10583  0.020560173  0.020053207           11 
 1189000   0.76872332   -7.2568874    292.28973  0.020485683  0.020036472           19 
 1190000   0.76766773   -7.2425757    293.67033  0.020565149  0.020019794           13 
 1191000   0.76988092   -7.2458001    292.90629  0.020494423  0.020003107           18 
 1192000   0.75233335   -7.2118556     292.2092  0.020428496   0.01998643           17 
 1193000   0.77061035    -7.213734    293.18387  0.020479454  0.019969816           14 
 1194000   0.77720343   -7.2350012    293.08888  0.020455673  0.019953235           19 
 1195000    0.7716759    -7.266337    292.63848  0.020407146  0.019936596           12 
 1196000    0.7782125   -7.2352796     293.8449  0.020474143  0.019920075           12 
 1197000   0.77039112   -7.2414466    293.71517  0.020448007  0.019903561            9 
 1198000   0.78668748   -7.2432474    293.39817  0.020408888  0.019887065           14 
 1199000   0.78219053   -7.2238462    293.01623  0.020365321  0.019870531           22 
 1200000   0.76284451    -7.239498    293.06309  0.020351603  0.019853995           17 
 1201000   0.76797353   -7.2301253    293.12409  0.020338891   0.01983739           19 
 1202000   0.77529902   -7.2552829    293.93489  0.020378182   0.01982089           17 
 1203000   0.76650738   -7.2446584    294.00443  0.020366059    0.0198045           11 
 1204000   0.75990669   -7.2477954    292.94555  0.020275855  0.019788051            7 
 1205000   0.77801003   -7.2282143    294.16981  0.020343694   0.01977155            6 
 1206000   0.78350431   -7.2358129    293.33772  0.020269328  0.019755135           18 
 1207000   0.75414949    -7.249759    292.51744  0.020195901  0.019738672            6 
 1208000   0.75983673   -7.2261026    293.32517  0.020234904  0.019722352            5 
 1209000   0.75473381   -7.2458052    293.89158  0.020257208  0.019705961            9 
 1210000    0.7694054    -7.252351    294.09297  0.020254337  0.019689586            4 
 1211000   0.78305843   -7.2480571    294.26808  0.020249662  0.019673294           10 
 1212000   0.74935005   -7.2911199    293.67893  0.020192446  0.019656875           11 
 1213000   0.75702508   -7.2304216    294.06939  0.020202624   0.01964056           10 
 1214000   0.76687962   -7.2506743    293.57345  0.020151939  0.019624225           14 
 1215000   0.76900805     -7.25184     293.9935  0.020164163  0.019607879           12 
 1216000   0.77722353   -7.2494626    293.41256  0.020107768  0.019591642           23 
 1217000   0.77231578   -7.2667157    294.03606   0.02013394  0.019575361            7 
 1218000   0.76151346   -7.2533979    293.53012  0.020082794  0.019559031           17 
 1219000   0.76290906   -7.2829908    293.65552  0.020074892  0.019542818           19 
 1220000   0.76225812   -7.2595375     293.3858  0.020040013  0.019526515            9 
 1221000    0.7709587   -7.3014669    293.70208  0.020045187  0.019510276           20 
 1222000   0.76357565   -7.2706146    293.36309  0.020005667   0.01949404           15 
 1223000   0.78954974   -7.2880562    294.13334  0.020041792  0.019477765           14 
 1224000   0.76638242   -7.2969214    294.35705  0.020040649  0.019461553           10 
 1225000   0.77682067   -7.2713716     292.9761  0.019930347  0.019445316           14 
 1226000   0.74071311   -7.2712764    293.73342  0.019965567  0.019429081           20 
 1227000   0.74751929   -7.2740674    294.29215  0.019987242  0.019412867           13 
 1228000    0.7654552   -7.2828444    294.58213  0.019990644  0.019396611           29 
 1229000   0.75246283   -7.2457425    294.76174  0.019986557  0.019380329           10 
 1230000   0.76465209   -7.2926743    294.13008  0.019927512  0.019364117           19 
 1231000    0.7540501   -7.2683242    294.02264  0.019904051  0.019347957           10 
 1232000   0.75570553   -7.2841701    294.29488   0.01990631  0.019331742           23 
 1233000    0.7506889   -7.2629744    294.96652  0.019935558   0.01931558           13 
 1234000   0.75894148   -7.2670219    294.51629  0.019888999  0.019299484           10 
 1235000   0.76172601   -7.2575856    295.12163   0.01991374  0.019283327           39 
 1236000   0.75178609   -7.2839873    294.58043   0.01986114  0.019267234           24 
 1237000    0.7552099   -7.2920935    294.41454  0.019833909  0.019251134           29 
 1238000   0.75064887   -7.2877725    293.92449  0.019784901  0.019235043           17 
 1239000   0.75699438   -7.2683991    294.12399  0.019782351  0.019218991           10 
 1240000   0.76429226   -7.2729308    294.46387  0.019789238  0.019203079           14 
 1241000   0.76977924   -7.2644696    294.71485  0.019790146  0.019187091           13 
 1242000   0.74723302   -7.2917049     294.3508  0.019749785  0.019171035            8 
 1243000   0.75381776   -7.2918455    295.06076  0.019781494   0.01915499           13 
 1244000   0.76098988   -7.2633156    295.04259  0.019764375  0.019139013           12 
 1245000   0.74288553   -7.2736184    295.24242  0.019761875  0.019123121           13 
 1246000   0.75618137   -7.2882659    294.68564  0.019708777  0.019107184           13 
 1247000   0.76684996   -7.2962827    294.64351  0.019690157   0.01909112           14 
 1248000   0.75266105   -7.3010039    293.49036   0.01959738    0.0190751           14 
 1249000    0.7500926    -7.300678    294.57815  0.019654267  0.019059088           13 
 1250000   0.75800284   -7.3256709    295.30505  0.019687003  0.019043129            8 
 1251000   0.75012317    -7.290401    294.81537  0.019638647  0.019027173           23 
 1252000   0.76214648   -7.2895144    294.60906  0.019609229  0.019011155           14 
 1253000   0.75482485   -7.2757422    295.01263  0.019620419  0.018995122           15 
 1254000   0.75560747   -7.3112652    294.47189  0.019568839  0.018979025           32 
 1255000   0.72900843   -7.3137925    294.59139  0.019561181  0.018963013            8 
 1256000   0.76498116   -7.3156661    294.71695  0.019553937  0.018947016           12 
 1257000   0.77427571   -7.3144908    295.32895  0.019578955  0.018931092           11 
 1258000    0.7659104   -7.3132461    295.16999  0.019552861  0.018915149           29 
 1259000   0.75602843   -7.3030054    294.58229  0.019498431  0.018899178           31 
 1260000   0.75759611   -7.2995021    294.91979  0.019505277  0.018883317           13 
 1261000   0.77062457   -7.3266929    294.70717  0.019475758   0.01886737           21 
 1262000   0.74600179   -7.2947388    294.69218  0.019459335  0.018851541           18 
 1263000   0.75032763   -7.3437503    294.95704  0.019461404  0.018835673           10 
 1264000   0.76067077   -7.3477283    294.25484  0.019399713  0.018819678           11 
 1265000     0.756572   -7.3281905     295.0513  0.019436845  0.018803723           20 
 1266000    0.7588409   -7.3133838    294.70138  0.019398458  0.018787809           15 
 1267000   0.74784287   -7.3268189    294.53533  0.019372226  0.018771958            8 
 1268000    0.7589845   -7.3033007    295.01861   0.01938871  0.018756076           11 
 1269000   0.74690937   -7.3320017    295.24429  0.019388251  0.018740161           10 
 1270000   0.75485604   -7.3509465    294.63296  0.019332871  0.018724275           15 
 1271000   0.74932366    -7.343183    294.97608  0.019340157  0.018708381           12 
 1272000    0.7402354   -7.3448344    294.51966  0.019295051  0.018692555           46 
 1273000   0.74162119   -7.3463985    294.85896  0.019302106  0.018676739           29 
 1274000   0.75146326   -7.3681227    295.03713  0.019298609  0.018660927           24 
 1275000   0.73502039   -7.3305876    295.42094  0.019308558  0.018645118           11 
 1276000   0.73325233   -7.3481885    295.24475  0.019281919  0.018629318           22 
 1277000   0.74025567   -7.3741558    294.79492  0.019237465  0.018613588           16 
 1278000   0.73711159   -7.3472958    295.06799  0.019240218  0.018597832           15 
 1279000   0.73352605   -7.3371876     295.7212  0.019267735  0.018582073           11 
 1280000   0.74925979   -7.3233621    295.57457  0.019243136  0.018566378           18 
 1281000   0.73543738   -7.3719416    295.54778  0.019226371  0.018550682           17 
 1282000   0.74830439   -7.3688003    294.73725  0.019158688  0.018535022           17 
 1283000   0.73699017   -7.3662018    295.17012  0.019171871  0.018519396           39 
 1284000   0.73581828   -7.3542519    295.30205  0.019165501  0.018503716           30 
 1285000   0.75079197   -7.3421399    295.42586  0.019158616   0.01848809           22 
 1286000   0.74354428   -7.3576904    295.67113  0.019159612  0.018472437           18 
 1287000   0.73967639   -7.3432602    295.80315  0.019153273  0.018456839           21 
 1288000   0.72587974   -7.3806325    295.45111  0.019115625  0.018441181           54 
 1289000   0.73007275   -7.3561203    294.69042  0.019051618  0.018425581           24 
 1290000   0.73234346   -7.3389101     295.7084   0.01910261  0.018409972           43 
 1291000   0.74246042   -7.3614314    295.85277  0.019097132  0.018394348           35 
 1292000   0.73842598   -7.3456651    296.15387  0.019101772  0.018378803           26 
 1293000   0.73992671   -7.3706819    295.86723  0.019068525  0.018363282           33 
 1294000    0.7461647   -7.3821633    295.59595  0.019036318  0.018347739           54 
 1295000   0.72922135   -7.3676847    295.90535  0.019041528  0.018332164           16 
 1296000   0.72756107   -7.3487827    295.46252  0.018998361  0.018316561           22 
 1297000   0.72778216   -7.3669487    295.03745  0.018956403   0.01830105           13 
 1298000   0.73606359   -7.3808525     295.7259  0.018985998  0.018285531           28 
 1299000    0.7184606   -7.3612315     295.8464  0.018979112  0.018269972           16 
 1300000   0.74955959   -7.3519156     295.9559  0.018971532  0.018254461           23 
 1301000   0.74396876   -7.3476156    295.64917  0.018937303  0.018238965           40 
 1302000   0.73950285   -7.3627988    296.24143  0.018960665  0.018223498           32 
 1303000   0.73132777   -7.3654288    294.86585  0.018858138  0.018208021           31 
 1304000   0.72963917   -7.3815495    295.34104  0.018874044  0.018192544           49 
 1305000   0.72768272   -7.3919395    295.43113  0.018865334  0.018177103           20 
 1306000   0.73542017   -7.3897342    295.94263  0.018883526  0.018161575           63 
 1307000   0.72814721   -7.3802247    294.95475  0.018806092  0.018146041           30 
 1308000   0.70814428   -7.3907963    295.24788   0.01881039  0.018130606           20 
 1309000   0.73479767   -7.3684396    295.37473  0.018804095  0.018115131           19 
 1310000   0.71930161   -7.3730362    295.56151  0.018801623  0.018099645           38 
 1311000   0.73207823   -7.3966208    295.44181  0.018779673   0.01808411           43 
 1312000   0.72679078    -7.393063    295.24027  0.018752558  0.018068585           25 
 1313000   0.73522707   -7.3950864    295.77823  0.018772419  0.018053054           30 
 1314000   0.71740128   -7.3839643    295.37521  0.018732573  0.018037539           72 
 1315000    0.7337646   -7.3871731    295.72915  0.018740757  0.018022033           45 
 1316000   0.73371816   -7.4039189    295.36926  0.018703727  0.018006568           79 
 1317000   0.73120585   -7.4002949    294.69489  0.018646854  0.017991133           45 
 1318000   0.71725572   -7.4067398    295.25077  0.018667853  0.017975687           33 
 1319000   0.71235964   -7.4032109    294.93526  0.018633767  0.017960273           54 
 1320000    0.7231741   -7.4002348    295.12764  0.018631795  0.017944836           49 
 1321000    0.7242668   -7.4097546    295.79576  0.018659838  0.017929371           60 
 1322000   0.72585637   -7.4269855    294.88802  0.018588503  0.017913934           30 
 1323000   0.71364517   -7.3927182    295.14183   0.01859044  0.017898506           51 
 1324000   0.70915166   -7.4145884    295.48017  0.018597695  0.017883072          100 
 1325000   0.71620148   -7.4416898    294.71625  0.018535613  0.017867666           68 
 1326000    0.7175522   -7.4180384    295.24414   0.01855481   0.01785232           52 
 1327000   0.73045358   -7.4130258    295.48262  0.018555804  0.017836945           52 
 1328000    0.7305371   -7.4335496    295.13819  0.018520218  0.017821576           52 
 1329000    0.7247017   -7.3993911    295.99909  0.018560264  0.017806264           21 
 1330000   0.74596426   -7.3989195    295.63391  0.018523428  0.017790943           24 
 1331000   0.71171962   -7.4345476    295.84933  0.018522998  0.017775663           38 
 1332000   0.71842268   -7.4209154    295.28133  0.018473556  0.017760416           53 
 1333000   0.74673692   -7.4396251    295.79986  0.018492114  0.017745148           20 
 1334000   0.73191783   -7.4032305    295.87196  0.018482756   0.01772994           32 
 1335000   0.71210397   -7.4185647    295.62626  0.018453574  0.017714716           25 
 1336000   0.72448163   -7.4022743    295.04245  0.018403346  0.017699545           17 
 1337000    0.7341216   -7.4411317    295.27884  0.018404316  0.017684311           66 
 1338000   0.71821567    -7.438208    295.15182  0.018382649  0.017669062           11 
 1339000   0.69684015   -7.4171347    295.72769   0.01840476  0.017653869           33 
 1340000   0.72406652    -7.430635    295.08591  0.018351114  0.017638721           14 
 1341000   0.70627599   -7.4440979    295.36356  0.018354683  0.017623492           38 
 1342000   0.71935664   -7.4255065    295.19582   0.01833059  0.017608234           60 
 1343000   0.70125321   -7.4466595    295.47602  0.018334327   0.01759301           29 
 1344000   0.71797436   -7.4084205    294.86082  0.018282541  0.017577764           91 
 1345000   0.73933598   -7.4181659    295.23447  0.018292099  0.017562599           23 
 1346000   0.69500135   -7.4368392    295.27482  0.018281007  0.017547463           37 
 1347000   0.71536987   -7.4198703    295.11194  0.018257358  0.017532351           44 
 1348000   0.71812994   -7.4261067    295.05798  0.018240478  0.017517213           38 
 1349000   0.71233025   -7.4618212    295.24489  0.018238503  0.017502067           53 
 1350000   0.72071395   -7.4370529    295.01699  0.018210925  0.017486918           23 
 1351000   0.71164857   -7.4664587    294.65864  0.018175342  0.017471746           67 
 1352000   0.71421642   -7.4322952    295.50799   0.01821425  0.017456536           40 
 1353000   0.71882412   -7.4489267    294.97921  0.018168219  0.017441397           57 
 1354000   0.70728384   -7.4481571     294.8967  0.018149723  0.017426232           55 
 1355000   0.71246023   -7.4325158    295.33552  0.018163316  0.017411111           67 
 1356000   0.73340672   -7.4315943    295.83166  0.018180412  0.017395984          104 
 1357000   0.71235298   -7.4547161    294.48498  0.018084315  0.017380837           84 
 1358000   0.70206727   -7.4349773    294.75286  0.018087436  0.017365683           62 
 1359000    0.6981837   -7.4520009    295.48369  0.018118941  0.017350568           75 
 1360000    0.7138999   -7.4421578    294.35155  0.018036247  0.017335412           54 
 1361000   0.70148599   -7.4158521    295.63391  0.018101513  0.017320244           63 
 1362000   0.71087628   -7.4273397    295.12486  0.018057076  0.017305108          132 
 1363000   0.69746921   -7.4266876    295.12679  0.018043947  0.017290034          117 
 1364000   0.69551648   -7.4217209    295.46654  0.018051475  0.017275011           92 
 1365000   0.73264519   -7.4324119    294.59337  0.017984943  0.017259993          103 
 1366000   0.72134037   -7.4357625    294.57213  0.017970481  0.017244952          143 
 1367000   0.70345404   -7.4505911    294.85995  0.017974881  0.017229883           70 
 1368000   0.70716096   -7.4550034    295.10756  0.017976825  0.017214775           93 
 1369000   0.69798548   -7.4569526    294.70637  0.017939272   0.01719972           86 
 1370000   0.69941163   -7.4804446    294.70515  0.017926104  0.017184648           99 
 1371000   0.70487741   -7.4694101    294.47843  0.017899248  0.017169568           82 
 1372000   0.70541729   -7.4793633    295.01063  0.017918527  0.017154486           92 
 1373000   0.71257641   -7.4781912    295.43018  0.017930941  0.017139429           76 
 1374000   0.70444043   -7.4880399    295.60958  0.017928771  0.017124408          146 
 1375000   0.69453997   -7.4688521     295.3121  0.017897703  0.017109435          137 
 1376000    0.7024742   -7.4626365    294.81115  0.017854357   0.01709439          109 
 1377000    0.6999462   -7.4986042    295.10216  0.017859003  0.017079383          122 
 1378000   0.70532174   -7.4793068    294.62882  0.017817418  0.017064379          127 
 1379000   0.69206386   -7.4892128    295.03572  0.017829086  0.017049388           86 
 1380000   0.69842486   -7.4794037    295.14699  0.017822886   0.01703442          145 
 1381000   0.70333115    -7.478353    295.12219  0.017808483  0.017019417           94 
 1382000   0.69220313   -7.4843986    294.43415   0.01775411  0.017004418           82 
 1383000   0.70373816   -7.4985181     294.8171  0.017764347   0.01698943          155 
 1384000   0.70848178   -7.4645569    295.12254  0.017769902  0.016974443          119 
 1385000   0.68643612   -7.5097637    294.71403  0.017732493  0.016959491          174 
 1386000   0.71549044   -7.5004535    294.86012  0.017728482  0.016944559          117 
 1387000   0.69565753   -7.5004724    294.94483   0.01772079  0.016929653          186 
 1388000   0.69637671   -7.5042173    294.92232  0.017706671  0.016914823          195 
 1389000   0.69943255   -7.4811262    294.78746  0.017685833  0.016899996          143 
 1390000   0.69532026   -7.4861729    294.91958   0.01768103  0.016885179          142 
 1391000    0.6832657   -7.4984449    294.80072  0.017661198  0.016870325          152 
 1392000   0.69545798   -7.4949871    294.75035  0.017645495  0.016855533          199 
 1393000   0.70617508   -7.5118047     295.3033  0.017665907  0.016840701          138 
 1394000   0.69850201   -7.4952193    294.49278  0.017604781  0.016825874          357 
 1395000   0.70419788   -7.5072488     294.5311  0.017594451  0.016811037          169 
 1396000   0.68868217   -7.4861383     295.0957   0.01761555  0.016796227          227 
 1397000   0.67449833   -7.4932983     295.0843  0.017602261  0.016781449          204 
 1398000    0.6954376   -7.4772587    294.83973  0.017575091   0.01676668          125 
 1399000   0.68537368   -7.4903309    295.30367  0.017590164  0.016751946          179 
 1400000   0.69032601   -7.4996541    295.81191  0.017607852  0.016737231          260 
 1401000   0.70235069   -7.5067742    294.56428  0.017521073  0.016722511          242 
 1402000   0.68495203   -7.4983096    295.50001  0.017564195  0.016707807          129 
 1403000   0.68636834   -7.5094165    294.83897  0.017512412  0.016693101          141 
 1404000   0.69278629     -7.52694    295.41002  0.017533833  0.016678406          229 
 1405000   0.68964942   -7.5560526    294.41365  0.017462257  0.016663699          342 
 1406000   0.69488875   -7.5126516    294.83389  0.017474745  0.016649014          343 
 1407000   0.69546762   -7.5350183    294.47654   0.01744116  0.016634317          237 
 1408000   0.67068659   -7.5205867    294.37023  0.017422481  0.016619631          288 
 1409000   0.69709908   -7.5371319    294.54466  0.017420432  0.016604967          263 
 1410000   0.68467557   -7.5362308     294.7411  0.017419687  0.016590272          332 
 1411000   0.69379132   -7.5431813    294.40167  0.017387294  0.016575629          363 
 1412000   0.68539251   -7.5175363    295.23618  0.017424231  0.016560981          166 
 1413000   0.67679956   -7.5229275    294.65182  0.017377437  0.016546379          211 
 1414000   0.69030618   -7.5471456    294.61182   0.01736279  0.016531763          247 
 1415000   0.69108234   -7.5231535    294.80751  0.017362044  0.016517161          270 
 1416000   0.69403131   -7.5322601    294.94845  0.017358078  0.016502628          266 
 1417000   0.69232303   -7.5158811    295.32154  0.017367769  0.016488109          257 
 1418000   0.67274276   -7.5078466    295.04896  0.017339502  0.016473566          240 
 1419000   0.69824211   -7.5211694    294.75923  0.017310267  0.016459042          255 
 1420000   0.69083231   -7.5294001    294.53075  0.017284669  0.016444567          298 
 1421000   0.67817801   -7.5218234    295.40851   0.01732398  0.016430054          285 
 1422000   0.68176578   -7.5502236    294.83854  0.017278396  0.016415586          245 
 1423000   0.69160807   -7.5340757    294.93334  0.017271805  0.016401094          244 
 1424000   0.67539883   -7.5753153    294.67644  0.017244642  0.016386631          282 
 1425000   0.68465086   -7.5458099    294.73662   0.01723606  0.016372146          369 
 1426000   0.69154013   -7.5666472     294.0698  0.017185004  0.016357648          437 
 1427000   0.69877838   -7.5498423    294.24243  0.017183043  0.016343194          188 
 1428000   0.68117982   -7.5576236    294.66842  0.017195869  0.016328716          430 
 1429000   0.69055291   -7.5738621    294.54454  0.017176612  0.016314252          298 
 1430000   0.67630759    -7.562771    294.09586  0.017138453  0.016299823          192 
 1431000   0.68351158    -7.515101     295.8672   0.01722963  0.016285432          303 
 1432000   0.66781368   -7.5559858    295.14808   0.01717575  0.016271042          352 
 1433000   0.69082144   -7.5671961    294.33354  0.017116396  0.016256595          423 
 1434000   0.68331535   -7.5495645    294.35523   0.01710572  0.016242124          390 
 1435000   0.67787723   -7.5608646    295.46384  0.017158179  0.016227701          423 
 1436000   0.67538215   -7.5652101    294.28172   0.01707763  0.016213312          530 
 1437000   0.69321744   -7.5522459    294.32629   0.01706833  0.016198946          407 
 1438000   0.67405326   -7.5522059    294.62033  0.017073501  0.016184593          262 
 1439000   0.66850034   -7.5385353    295.06017  0.017087107  0.016170204          352 
 1440000   0.66532652   -7.5699846    294.46133  0.017040586  0.016155847          319 
 1441000   0.69095636   -7.5646911    294.82687    0.0170499   0.01614149          409 
 1442000   0.67366474   -7.5770363    294.66016  0.017028442  0.016127155          414 
 1443000   0.67166745   -7.5502957    294.74676  0.017021642  0.016112825          499 
 1444000   0.66750227     -7.56455    293.71122  0.016950094  0.016098491          468 
 1445000   0.67480011    -7.543393    294.81002  0.017001731  0.016084181          402 
 1446000   0.67349516   -7.5695241    294.01928  0.016944403  0.016069878          416 
 1447000   0.67741898   -7.5817133    294.45655  0.016957875  0.016055592          467 
 1448000   0.67727536   -7.5797316     294.0186   0.01692096  0.016041347          539 
 1449000   0.66700093   -7.5752806    294.90244  0.016960112  0.016027113          398 
 1450000   0.66355957   -7.5685108    295.17313  0.016963973  0.016012865          475 
 1451000   0.68710551   -7.5763334    293.99972  0.016884891  0.015998603          424 
 1452000   0.67116435   -7.5997185    293.97038  0.016871578  0.015984404          463 
 1453000   0.66898394   -7.5769293    293.91184  0.016856609  0.015970223          439 
 1454000   0.65844084   -7.5861687    294.99049  0.016906837  0.015956093          366 
 1455000    0.6603191   -7.5638038    294.60174  0.016872952  0.015941956          502 
 1456000   0.65445516   -7.5584801    294.47798   0.01685428  0.015927855          412 
 1457000   0.66999808   -7.5856801    294.93772  0.016869007  0.015913768          533 
 1458000   0.67872656   -7.5898524    294.14078  0.016811887  0.015899665          451 
 1459000    0.6670885   -7.6038241    294.29773  0.016809329  0.015885565          549 
 1460000   0.66560624   -7.5986894     295.2449  0.016851878  0.015871463          409 
 1461000   0.69476781   -7.5757167    294.97074  0.016824706  0.015857432          459 
 1462000   0.66757717   -7.6020775    294.48402  0.016785455  0.015843392          473 
 1463000   0.66465141   -7.6107264    293.91021  0.016741297  0.015829308          471 
 1464000   0.65409395   -7.6074233    294.45647  0.016760956  0.015815225          578 
 1465000   0.67649781   -7.6010468    294.29925  0.016740572  0.015801124          535 
 1466000   0.66507215   -7.6057465    294.21292  0.016724245  0.015787055          488 
 1467000    0.6611738   -7.6163666    294.87573  0.016750496  0.015773014          466 
 1468000   0.67517229   -7.5828263    294.59978  0.016723421  0.015758985          522 
 1469000    0.6718329   -7.6242337    294.54218  0.016708769   0.01574496          612 
 1470000   0.66676109   -7.6182746    294.28102  0.016682597  0.015730898          621 
 1471000   0.67244144   -7.6172708    294.03486  0.016657311  0.015716847          597 
 1472000   0.65757114   -7.6255007    293.50342  0.016615909  0.015702825          572 
 1473000   0.68315439   -7.6495668    294.48378  0.016660092  0.015688833          568 
 1474000   0.66754915   -7.6501517    294.35081  0.016641272  0.015674803          506 
 1475000   0.66665346   -7.6275526    294.35511  0.016630232  0.015660818          580 
 1476000   0.67358613   -7.6427788    294.16325  0.016608133  0.015646828          583 
 1477000   0.66990807   -7.6050949    294.27836  0.016603383  0.015632882          663 
 1478000   0.70174293   -7.6357386    294.49383  0.016604298  0.015618962          605 
 1479000   0.65839149   -7.6201283    294.46567  0.016591484  0.015605078          542 
 1480000    0.6598817   -7.6278027    294.42004  0.016577705  0.015591163          592 
 1481000   0.65378532   -7.6638034    293.66236  0.016523878  0.015577271          535 
 1482000   0.65971918   -7.6136105    294.81653  0.016577628  0.015563398          488 
 1483000   0.64652262   -7.6232757    294.44703  0.016545686   0.01554953          593 
 1484000   0.66669887   -7.6251853     294.3015  0.016526364  0.015535685          478 
 1485000   0.65206279    -7.651401    293.99529  0.016498052  0.015521814          501 
 1486000   0.66404163   -7.6576694    293.32245  0.016449218  0.015507966          542 
 1487000   0.66193444   -7.6306841    293.81936  0.016466003  0.015494103          630 
 1488000   0.66102211   -7.6299546    294.09334  0.016470281  0.015480211          690 
 1489000   0.64285164   -7.6405334    293.60838  0.016432078  0.015466351          589 
 1490000   0.65243298   -7.6327992    293.54092  0.016417278  0.015452499          645 
 1491000   0.66602117    -7.655471    293.63557  0.016411556  0.015438678          671 
 1492000   0.65402216   -7.6513454    293.09212  0.016370203   0.01542483          632 
 1493000   0.65142876    -7.643763    293.95339  0.016407311  0.015411035          510 
 1494000   0.65698263   -7.6490468    293.46086  0.016368857  0.015397267          636 
 1495000   0.64873374   -7.6463506    294.13702  0.016395598    0.0153835          582 
 1496000   0.66230395   -7.6365856    294.21055  0.016388734  0.015369752          592 
 1497000   0.65111271   -7.6396078    293.28621  0.016326331  0.015356013          625 
 1498000   0.64245126   -7.6270224     294.3134  0.016372575  0.015342315          611 
 1499000   0.65641066   -7.6533596    293.90789  0.016339109  0.015328624          619 
 1500000   0.64028426   -7.6554728     293.6449  0.016313606  0.015314906          610 
 1501000   0.63921845   -7.6686348    293.53143  0.016296437  0.015301176          701 
 1502000   0.63868521   -7.6346139    294.11333  0.016317873  0.015287488          613 
 1503000   0.67804837   -7.6719656    294.22218  0.016313051  0.015273808          630 
 1504000    0.6490697   -7.6614387    293.94546  0.016286872  0.015260139          655 
 1505000   0.66767946   -7.6435265    293.36105   0.01624369  0.015246487          683 
 1506000   0.63758014   -7.6623661    293.98093  0.016267205  0.015232855          676 
 1507000   0.65132542   -7.6520651    293.66969    0.0162392  0.015219219          678 
 1508000   0.64781651   -7.6561715    293.93601  0.016243148  0.015205597          731 
 1509000   0.65725427    -7.667715    293.68698  0.016218631  0.015191962          713 
 1510000   0.65126888    -7.692057    293.84581  0.016216656  0.015178335          775 
 1511000   0.64942667   -7.6657308    293.33888  0.016177966  0.015164708          675 
 1512000   0.64224555   -7.6615458     293.8129  0.016193392    0.0151511          738 
 1513000   0.63229635   -7.6326746    293.74969  0.016179207  0.015137498          754 
 1514000   0.63974927   -7.6784861    293.31626  0.016144664  0.015123874          827 
 1515000   0.65156072   -7.6575674    293.75692  0.016158246  0.015110298          736 
 1516000   0.64128825   -7.6595993    293.59638  0.016138763  0.015096693          684 
 1517000   0.65297092   -7.6863978    294.21012  0.016161839  0.015083132          649 
 1518000   0.64899775     -7.67568    293.33497  0.016103149  0.015069586          748 
 1519000   0.64291783    -7.650886    293.92099  0.016124698  0.015056052          799 
 1520000     0.632789   -7.6630171    293.81432  0.016108241  0.015042579          927 
 1521000   0.65512188   -7.6573927    293.36186  0.016072861  0.015029071          733 
 1522000   0.64718496   -7.6856975    293.08286  0.016047025  0.015015564          827 
 1523000   0.64942275     -7.70054    292.48138  0.016003577  0.015002045          775 
 1524000   0.66094939   -7.6753318    293.80182  0.016065279  0.014988545          775 
 1525000   0.65072799   -7.7010714    293.26908  0.016025633  0.014975076          925 
 1526000   0.64235158   -7.6826504    293.46402  0.016025777  0.014961613          880 
 1527000   0.63556355   -7.6822999    293.35766  0.016009477  0.014948149          935 
 1528000   0.65747808   -7.7111851     293.3436  0.015998233  0.014934653          860 
 1529000   0.64140263   -7.6830066    292.76728  0.015956359  0.014921179          729 
 1530000   0.64167108   -7.6976546     293.1124  0.015964728  0.014907694          920 
 1531000   0.63976479    -7.700101    292.71274  0.015932546  0.014894197          912 
 1532000   0.64085681   -7.6895901    292.64677  0.015918558  0.014880735          945 
 1533000   0.64838345   -7.6947631    293.64572  0.015962477  0.014867284          943 
 1534000   0.63849833   -7.7018815    293.04994  0.015919705  0.014853829          818 
 1535000   0.64316005   -7.7046021    292.44735  0.015876621  0.014840413          962 
 1536000   0.64302685   -7.6732841    293.61446  0.015929604  0.014826988          894 
 1537000   0.63326241    -7.703677    292.71887  0.015870683  0.014813576         1025 
 1538000   0.63167319   -7.6995913    292.59246  0.015853514  0.014800167          936 
 1539000   0.63467338   -7.6857163    293.36661  0.015885131  0.014786789          980 
 1540000   0.63413061   -7.6940483    293.12994   0.01586201  0.014773409          842 
 1541000   0.64842165   -7.7071744    293.50535  0.015872017  0.014760032          915 
 1542000   0.63370504   -7.6986681    292.47136  0.015805845   0.01474665          910 
 1543000   0.63810045   -7.7110023    292.60058  0.015802581  0.014733296         1006 
 1544000   0.63452075   -7.7063944    292.06785  0.015763593  0.014719926          921 
 1545000   0.64100764   -7.7243037    292.86229   0.01579624  0.014706552          897 
 1546000   0.62544381   -7.7243007    292.30484  0.015755974  0.014693227          936 
 1547000   0.62667538   -7.6998112    292.32354  0.015746797  0.014679933         1004 
 1548000   0.64875997   -7.7111028    292.51536  0.015746951  0.014666625          951 
 1549000   0.62014844   -7.7116709    292.68649  0.015745991  0.014653351          961 
 1550000   0.63408781   -7.7112931    291.82967  0.015689767  0.014640059         1115 
 1551000   0.63268679   -7.7001525    292.12782   0.01569567  0.014626777         1061 
 1552000     0.647759   -7.7157655    292.61658  0.015711801  0.014613533         1021 
 1553000   0.63090561   -7.7078271     292.4548  0.015693003   0.01460031         1069 
 1554000   0.64210024   -7.7137654    292.56772  0.015688959    0.0145871         1086 
 1555000   0.63569036   -7.7158196    292.86385   0.01569474  0.014573906         1059 
 1556000   0.63147172   -7.7251646    292.37199  0.015658311  0.014560698         1083 
 1557000   0.63170886   -7.7157553    292.37528  0.015648431  0.014547508         1129 
 1558000   0.63524879    -7.724288     293.0116  0.015672422  0.014534343          914 
 1559000   0.62993331   -7.7121081    292.66321  0.015643747  0.014521192          964 
 1560000   0.62928896   -7.7094613    292.72428  0.015636981  0.014508042          945 
 1561000   0.63138832   -7.7276243    292.19047  0.015598466  0.014494926         1024 
 1562000   0.62836089   -7.7601494    291.45429  0.015549205  0.014481802         1018 
 1563000   0.63053035   -7.7345134    291.98696  0.015567656  0.014468664         1109 
 1564000   0.63825574   -7.7350306     292.7083  0.015596137  0.014455558         1082 
 1565000   0.61969854   -7.7240746    292.60527  0.015580685  0.014442452         1071 
 1566000   0.62644361   -7.7550524     292.0591  0.015541672  0.014429368         1138 
 1567000   0.62530558   -7.7413383    292.18557   0.01553848  0.014416288         1031 
 1568000   0.62935408   -7.7291063    292.52584  0.015546654  0.014403242         1056 
 1569000   0.62874296    -7.712417    292.19164  0.015518995   0.01439022         1069 
 1570000   0.63657275   -7.7398099    292.44131  0.015522362  0.014377201         1096 
 1571000   0.63122615   -7.7369841     292.8233  0.015532745  0.014364186         1083 
 1572000   0.62943182   -7.7308506    291.86931  0.015472292  0.014351191         1104 
 1573000   0.62314972   -7.7305814    292.53526  0.015497736  0.014338203         1105 
 1574000   0.62890846   -7.7572266    292.68366  0.015495746  0.014325214         1085 
 1575000   0.63580128   -7.7683108    291.99311  0.015449371  0.014312256         1153 
 1576000   0.63385992   -7.7239548     292.4852  0.015465588  0.014299311         1123 
 1577000   0.60993769   -7.7450116    292.37945  0.015450193  0.014286378         1107 
 1578000   0.65012672   -7.7275792    292.75993  0.015460495  0.014273459         1137 
 1579000   0.61918301   -7.7399705    292.10946  0.015416374  0.014260562         1171 
 1580000   0.61849127   -7.7560311    292.52273  0.015428414  0.014247687         1080 
 1581000   0.61263002   -7.7325944    292.56163  0.015420706   0.01423478         1093 
 1582000   0.62513653   -7.7314895    291.97796  0.015380213  0.014221904         1144 
 1583000   0.62070712   -7.7570423    291.81858  0.015362107   0.01420903         1196 
 1584000   0.61494337   -7.7328832    292.66986  0.015397194  0.014196167         1131 
 1585000   0.61467897   -7.7557349    292.24674  0.015365234   0.01418333         1070 
 1586000   0.61632335    -7.759557    292.38083  0.015362591  0.014170482         1169 
 1587000   0.61399053   -7.7537576    292.24406  0.015345729  0.014157643         1225 
 1588000   0.60911479   -7.7599312    292.70204  0.015360098  0.014144822         1190 
 1589000   0.62386586   -7.7642244    292.15567  0.015321778  0.014132005         1077 
 1590000   0.62480883   -7.7470838    292.00893  0.015304451  0.014119175         1176 
 1591000   0.62382561   -7.7662599    291.86798  0.015287449  0.014106399         1159 
 1592000   0.62941205   -7.7488382    292.14054  0.015292113  0.014093634         1299 
 1593000   0.62056444   -7.7502737    292.31082  0.015291422  0.014080863         1237 
 1594000   0.60661968   -7.7550368    291.31261  0.015229643  0.014068112         1235 
 1595000   0.63170614   -7.7661385    292.00259  0.015256144  0.014055374         1140 
 1596000    0.6209062   -7.7967212    291.92887  0.015242736  0.014042642         1171 
 1597000   0.61980096   -7.7463815    292.11563  0.015242936  0.014029912         1183 
 1598000   0.60973773   -7.7574805    292.02234  0.015228532  0.014017197         1200 
 1599000   0.61894072   -7.7739415    291.65248  0.015199733  0.014004498         1216 
 1600000   0.60102891   -7.7786161    292.11088  0.015214108  0.013991794         1104 
 1601000   0.61145127   -7.7431692    291.64364  0.015180285  0.013979135         1192 
 1602000   0.61416272   -7.7486155    292.33208  0.015206621  0.013966497         1122 
 1603000   0.61902813   -7.7389233    292.22923  0.015191788  0.013953867         1158 
 1604000   0.61267906   -7.7777666    292.49011   0.01519587   0.01394125         1338 
 1605000   0.62658496   -7.7618343    292.45573  0.015184618  0.013928651         1263 
 1606000   0.60863418   -7.7567111      291.825  0.015142435  0.013916061         1274 
 1607000   0.60356772    -7.807496     291.4702  0.015114613  0.013903476         1216 
 1608000   0.60437885   -7.7627339    291.58521  0.015111174    0.0138909         1241 
 1609000   0.62506143   -7.7605936    292.01441  0.015124011  0.013878333         1278 
 1610000   0.60434511   -7.7755968    291.56283  0.015091244  0.013865781         1270 
 1611000   0.62175745   -7.7658516    291.53373  0.015080371  0.013853226         1267 
 1612000   0.61626204   -7.7691496    291.73582  0.015081463  0.013840701         1199 
 1613000      0.60623   -7.7813216    292.11628  0.015091769  0.013828172         1203 
 1614000   0.61077406   -7.7947081    292.03823  0.015078389  0.013815657         1261 
 1615000   0.61514928   -7.7783577    291.62147  0.015047548  0.013803154         1212 
 1616000   0.61753924   -7.7679343    292.05748   0.01506072  0.013790688         1211 
 1617000   0.60990131   -7.7877652    291.92183  0.015044415  0.013778217         1326 
 1618000   0.61199394    -7.782612    291.99274  0.015038769  0.013765754         1250 
 1619000   0.59729514   -7.7780855    291.47978  0.015003077    0.0137533         1242 
 1620000   0.59773368    -7.790015    292.01507  0.015021351  0.013740851         1270 
 1621000    0.6019065   -7.8105713    291.48225  0.014984693  0.013728399         1334 
 1622000     0.604068   -7.7909156    291.17085  0.014959456  0.013715971         1324 
 1623000   0.61816117   -7.8239634     291.2961   0.01495667  0.013703557         1413 
 1624000   0.60471675   -7.8016077    291.20499  0.014942785   0.01369116         1362 
 1625000   0.60051399   -7.7935991    291.61429  0.014954579  0.013678767         1442 
 1626000   0.60974492   -7.8157199    291.44438  0.014936674  0.013666366         1371 
 1627000   0.59877638   -7.7991517    291.44053  0.014927296  0.013653991         1356 
 1628000   0.60755047   -7.7915177    291.93123  0.014943245  0.013641635         1378 
 1629000   0.60697286   -7.8016496     291.2656  0.014900021  0.013629282         1361 
 1630000    0.6072371   -7.8136344    291.07211  0.014880987  0.013616953         1530 
 1631000   0.60001477   -7.7852065    291.85282  0.014911752  0.013604638         1448 
 1632000   0.60587991    -7.793931    291.41359  0.014880187   0.01359233         1408 
 1633000   0.60186998   -7.8022051    292.01817  0.014901928  0.013580058         1345 
 1634000   0.61004251   -7.7741711    291.72123  0.014877664  0.013567806         1341 
 1635000   0.60218695    -7.785552    291.63349  0.014864092  0.013555562         1290 
 1636000   0.60999467   -7.8100015    291.41219  0.014843734  0.013543311         1318 
 1637000   0.59895568   -7.8076766    291.47576  0.014837903   0.01353107         1439 
 1638000   0.61590437   -7.8088792     291.3782  0.014823881  0.013518846         1428 
 1639000   0.59408234   -7.8174159    291.79504   0.01483603  0.013506629         1440 
 1640000    0.5882765   -7.8148136    291.06723  0.014790002   0.01349441         1396 
 1641000   0.60347167   -7.8135624    291.28454  0.014792024  0.013482207         1389 
 1642000   0.58446353   -7.8199037    291.20164  0.014778808  0.013470022         1394 
 1643000   0.59168814   -7.8265175    290.96593  0.014757858  0.013457843         1442 
 1644000   0.59181397   -7.8193211    291.67574  0.014784861  0.013445676         1389 
 1645000    0.5988068    -7.811145    291.31508  0.014757603  0.013433515         1408 
 1646000   0.60394212   -7.8361878    290.73866  0.014719454  0.013421376         1434 
 1647000   0.59323664   -7.8296018    291.07075   0.01472732  0.013409239         1416 
 1648000   0.58551531    -7.823647    291.26607   0.01472826  0.013397124         1362 
 1649000   0.60973233    -7.809158    291.71483  0.014742007  0.013385013         1402 
 1650000    0.6021274    -7.833321    291.47589  0.014721005  0.013372925         1470 
 1651000   0.58323421   -7.8361951    291.16732  0.014696513  0.013360841         1420 
 1652000    0.6052997   -7.8110552     291.4473  0.014701741  0.013348768         1366 
 1653000   0.57878121   -7.8208451    291.33303  0.014687086  0.013336735         1328 
 1654000   0.58626278   -7.8220333    291.19194  0.014671097  0.013324702         1390 
 1655000   0.60710753   -7.8222069     291.4873  0.014677105  0.013312683         1376 
 1656000   0.57725558   -7.8108598    291.05862  0.014646669   0.01330068         1444 
 1657000   0.58702412   -7.8276841    290.72718  0.014621162  0.013288671         1434 
 1658000   0.58917642   -7.8293002    290.90365  0.014621213  0.013276686         1419 
 1659000   0.59322515   -7.8317092    291.14906  0.014624727  0.013264696         1378 
 1660000   0.59070423   -7.8322697    290.78092  0.014597436  0.013252713         1419 
 1661000    0.5947428   -7.8191988    291.02302  0.014600794  0.013240753         1472 
 1662000    0.5913162   -7.8308638    291.03165  0.014592441  0.013228824         1414 
 1663000   0.59067156   -7.8279136    291.18018  0.014591109  0.013216893         1394 
 1664000   0.59307543   -7.8253482    290.93123  0.014569873  0.013204966         1453 
 1665000   0.58969303    -7.818873    291.27517  0.014578337  0.013193076         1419 
 1666000   0.58410914   -7.8460854    290.76359  0.014543997  0.013181181         1452 
 1667000    0.5894996   -7.8316386    290.43539  0.014518866  0.013169292         1474 
 1668000   0.58559392   -7.8230059    291.34732  0.014555722  0.013157428         1408 
 1669000   0.59084032   -7.8456494    291.65982  0.014562603  0.013145556         1440 
 1670000   0.58622461   -7.8137754     290.9156  0.014516746  0.013133694         1410 
 1671000   0.57916568   -7.8423798    290.88225  0.014506396  0.013121855         1478 
 1672000   0.57968526   -7.8236819    291.23108  0.014515106  0.013110032         1352 
 1673000   0.58740795    -7.829858    290.75867  0.014482899  0.013098197         1493 
 1674000   0.58146724   -7.8349937    290.93472  0.014483011  0.013086379         1465 
 1675000   0.58305905   -7.8484196    290.79837   0.01446758  0.013074567         1386 
 1676000   0.58943051   -7.8456277    291.02326   0.01447013   0.01306275         1411 
 1677000   0.57819616   -7.8393242    291.01095   0.01446089  0.013050957         1446 
 1678000    0.5842427   -7.8520304    290.65421  0.014434555  0.013039172         1486 
 1679000   0.58674747   -7.8410586    290.66785  0.014426635  0.013027413         1384 
 1680000   0.57875869   -7.8245058     290.4411    0.0144068  0.013015667         1492 
 1681000   0.59560482    -7.835544      291.205    0.0144361  0.013003945         1377 
 1682000   0.58609994   -7.8318369    290.51105  0.014393136  0.012992214         1466 
 1683000   0.57832316   -7.8596663    290.34448  0.014376336  0.012980507         1522 
 1684000   0.58246634   -7.8379713    290.70818  0.014385796  0.012968814         1498 
 1685000   0.57365287   -7.8568226    291.03078  0.014393214  0.012957137         1444 
 1686000   0.57312004   -7.8709366    290.51732  0.014359298   0.01294546         1440 
 1687000   0.58591525   -7.8717955    290.85132  0.014367285  0.012933797         1535 
 1688000   0.57890256   -7.8476331    290.96226  0.014364251  0.012922173         1582 
 1689000   0.58404564   -7.8495903    290.65017  0.014340348  0.012910535         1563 
 1690000   0.57706933   -7.8595584    290.64552  0.014331633  0.012898903         1489 
 1691000   0.59500426   -7.8438127    290.51969  0.014316957   0.01288728         1503 
 1692000   0.58064352   -7.8592835    290.95176  0.014329776  0.012875682         1595 
 1693000   0.58048137    -7.868997    290.54483  0.014301281  0.012864082         1491 
 1694000   0.58443623   -7.8568736    290.43724  0.014287546  0.012852489         1462 
 1695000   0.56783375   -7.8598804    290.37425   0.01427602  0.012840912         1525 
 1696000   0.57404863   -7.8451927     290.7969   0.01428837  0.012829345         1463 
 1697000   0.56737206   -7.8507645     290.6512  0.014272795  0.012817782         1451 
 1698000   0.57511093   -7.8639371    290.46332  0.014255169  0.012806265         1529 
 1699000   0.57506506   -7.8601895    290.58872  0.014252929  0.012794728         1470 
 1700000   0.57433066   -7.8413377     290.7617  0.014253024   0.01278322         1555 
 1701000   0.57899572   -7.8766089    290.28379  0.014221232  0.012771717         1476 
 1702000   0.57744383    -7.857613    290.57347   0.01422706  0.012760227         1521 
 1703000    0.5701215   -7.8656945    290.25089  0.014202921  0.012748753         1514 
 1704000   0.58099831   -7.8627589    290.55869  0.014209639  0.012737298         1494 
 1705000   0.57101764   -7.8530643    290.48446  0.014197676  0.012725861         1511 
 1706000   0.58059395   -7.8710361    290.09189  0.014170178  0.012714438         1455 
 1707000    0.5728774   -7.8619109    290.01641  0.014158192  0.012703023         1523 
 1708000   0.55620556   -7.8601186    290.80933   0.01418859  0.012691621         1578 
 1709000   0.56898023   -7.8527191    290.51556  0.014165962  0.012680221         1557 
 1710000   0.57906748   -7.8774543    290.64779  0.014164122  0.012668843         1459 
 1711000   0.56520053   -7.8632366    290.30413  0.014139106  0.012657473         1549 
 1712000   0.57543139   -7.8674552    291.19907  0.014174409  0.012646109         1508 
 1713000    0.5749233   -7.8419987    290.23789  0.014119376  0.012634778         1466 
 1714000   0.56528498   -7.8429003     290.5642  0.014127003  0.012623448         1482 
 1715000   0.57964794   -7.8634344    290.83444  0.014131897  0.012612133         1466 
 1716000   0.57100357   -7.8588325    291.03809  0.014133551  0.012600833         1517 
 1717000   0.55681881   -7.8766044    290.83233  0.014115333  0.012589538         1569 
 1718000   0.56102263   -7.8678591     290.6075  0.014096212  0.012578244         1551 
 1719000   0.57382131   -7.8723964    290.62342  0.014088783  0.012566972         1640 
 1720000   0.56928373   -7.8826836    290.02678  0.014051685   0.01255569         1549 
 1721000   0.56521227    -7.871392    290.15081  0.014049526  0.012544427         1514 
 1722000   0.56231366   -7.8799785    290.80429  0.014072991  0.012533186         1603 
 1723000   0.55654322   -7.8892799    290.44838   0.01404761  0.012521956         1594 
 1724000   0.56779206   -7.8752329    289.70865  0.014003705  0.012510728         1476 
 1725000   0.55520386   -7.8551155    290.49049  0.014033357  0.012499522         1517 
 1726000   0.56747553   -7.8892816    290.33403  0.014017672   0.01248832         1584 
 1727000   0.57226624   -7.8911917    289.81202  0.013984367  0.012477128         1551 
 1728000   0.56820132   -7.8990201    290.06688  0.013988565   0.01246595         1576 
 1729000   0.57265021   -7.8869843    290.23299   0.01398848  0.012454792         1587 
 1730000   0.56185722   -7.8759214    289.93406  0.013965995  0.012443643         1559 
 1731000   0.56363414   -7.8864469    290.36601  0.013978722  0.012432517         1452 
 1732000   0.57192037   -7.8877514    290.21574  0.013963421  0.012421383         1542 
 1733000   0.56047681    -7.896904    289.92051  0.013941167  0.012410258         1562 
 1734000   0.56534613   -7.8846704    290.20929  0.013947005  0.012399155         1560 
 1735000   0.56060656   -7.8866391    290.14518  0.013935888  0.012388056         1519 
 1736000   0.55624184   -7.8803008    289.77502  0.013910091  0.012376963         1606 
 1737000   0.54803587   -7.8874915     290.0007   0.01391291  0.012365896         1561 
 1738000   0.55528713     -7.89408    290.46962  0.013927389  0.012354849         1562 
 1739000    0.5551148   -7.8946492    289.81034  0.013887787  0.012343808         1609 
 1740000   0.55401183   -7.8777643     290.0326   0.01389045  0.012332766         1557 
 1741000   0.55651134   -7.8765087    290.51568  0.013905594  0.012321738         1521 
 1742000    0.5448191   -7.8858309    289.56746  0.013852251  0.012310739         1613 
 1743000   0.56413542   -7.9008524    289.66276   0.01384886  0.012299736         1616 
 1744000   0.55873071   -7.8983501    290.24059  0.013868529  0.012288738         1520 
 1745000    0.5490863   -7.8835397    290.49349  0.013872659  0.012277783         1555 
 1746000   0.56241779   -7.9101829    290.00155  0.013841235  0.012266823         1477 
 1747000   0.55255584   -7.9053281    290.22225   0.01384384  0.012255874         1525 
 1748000   0.57077169   -7.9001516     290.3622  0.013842591  0.012244936         1616 
 1749000   0.56058377   -7.8889365    290.37782  0.013835421   0.01223402         1567 
 1750000   0.54454099   -7.8867509    290.35478  0.013826418  0.012223117         1570 
 1751000   0.54787935   -7.8923786    290.09131  0.013805983  0.012212201         1531 
 1752000   0.53759241   -7.9113088    290.31458  0.013808722  0.012201309         1630 
 1753000    0.5515873   -7.8838376    289.83702  0.013778143  0.012190425         1613 
 1754000   0.54897642   -7.9049965    289.91171  0.013773836  0.012179566         1617 
 1755000   0.55248118   -7.9093123    289.81444  0.013761369  0.012168703         1585 
 1756000     0.550762    -7.901901    289.65065   0.01374576  0.012157864         1550 
 1757000   0.54795876   -7.9074315    289.28307  0.013720502  0.012147029         1597 
 1758000   0.55633692   -7.8904978     290.1562  0.013754086  0.012136201         1526 
 1759000   0.54400582    -7.911305    289.68384  0.013723889  0.012125386         1549 
 1760000   0.55540023   -7.8978235    290.02035  0.013732024  0.012114587         1533 
 1761000   0.54864805   -7.9067407    290.52802   0.01374825  0.012103796         1534 
 1762000   0.54440268   -7.9052546    289.70561  0.013701552  0.012093011         1557 
 1763000   0.54743314    -7.918146    289.74941   0.01369585  0.012082241         1588 
 1764000   0.54583242    -7.904667    290.44031  0.013720725  0.012071476         1606 
 1765000   0.55419473   -7.9053388    289.48716  0.013667949  0.012060724         1619 
 1766000   0.54617641    -7.908367     289.6588  0.013668309  0.012049976         1597 
 1767000   0.55450712   -7.9078042    289.65726  0.013660501  0.012039248         1541 
 1768000   0.54794682   -7.8926077    290.13651  0.013675363  0.012028538         1590 
 1769000   0.54483917   -7.9054415    289.46208  0.013635862  0.012017835         1643 
 1770000   0.55531541   -7.9140037    289.88517  0.013648077  0.012007149         1622 
 1771000   0.53546571   -7.9211463    289.48625    0.0136216  0.011996464         1519 
 1772000   0.54372968   -7.9122056    289.61934  0.013620172  0.011985801         1589 
 1773000   0.55755548   -7.9323863    289.34306  0.013599505  0.011975148         1489 
 1774000   0.54088008   -7.9413468     289.9223  0.013619048  0.011964498         1567 
 1775000   0.54323465   -7.9133958    289.44832  0.013589123  0.011953856         1572 
 1776000   0.55011349   -7.9107346     289.6809  0.013592384  0.011943242         1597 
 1777000   0.55201032   -7.9309279     289.7724  0.013589026  0.011932645         1537 
 1778000   0.54209039   -7.9284994    289.58627   0.01357266  0.011922047         1628 
 1779000   0.54080532   -7.9168919    289.52081  0.013561964  0.011911479         1523 
 1780000   0.55814949   -7.9229014    289.81346  0.013568046  0.011900903         1598 
 1781000   0.54598918   -7.9133681    289.11173  0.013527594  0.011890343         1617 
 1782000   0.54636424   -7.9196332     289.8218  0.013553208  0.011879797         1644 
 1783000   0.54375244   -7.9284514    289.41777  0.013526723  0.011869261         1555 
 1784000   0.54691419   -7.9178536    290.05591   0.01354895   0.01185874         1609 
 1785000   0.53863465   -7.9069167    289.79846   0.01352934  0.011848232         1579 
 1786000   0.54115142   -7.9216432    289.73328  0.013518723  0.011837728         1554 
 1787000   0.53942734   -7.9291996    289.82608  0.013515486  0.011827231         1610 
 1788000   0.53964427   -7.9373936    289.39417  0.013487797  0.011816759         1534 
 1789000   0.53309075   -7.9305219    289.48502   0.01348449  0.011806292         1558 
 1790000   0.54553876   -7.9056414    289.00258  0.013454496  0.011795841         1514 
 1791000    0.5465622   -7.9279599    289.83698  0.013485808  0.011785393         1470 
 1792000   0.52918405   -7.9231823    289.79528  0.013476343  0.011774938         1580 
 1793000   0.53684148   -7.9294303    289.49502  0.013454872  0.011764516         1580 
 1794000   0.54030489   -7.9199697    289.25955  0.013436434  0.011754104         1646 
 1795000   0.53134756   -7.9168785    289.59455  0.013444501  0.011743706         1643 
 1796000   0.53842917   -7.9392304    289.45879  0.013430716  0.011733307         1583 
 1797000   0.52894502   -7.9243199    289.17623  0.013410139   0.01172292         1615 
 1798000   0.54100867   -7.9066638     289.1804  0.013402873  0.011712546         1630 
 1799000   0.53836314   -7.9245145    289.44703  0.013407774  0.011702185         1545 
 1800000   0.53580854   -7.9180665    289.31689  0.013394301  0.011691832         1631 
 1801000   0.52784653   -7.9437544    289.03951  0.013374029   0.01168149         1608 
 1802000   0.53697859   -7.9084515    289.84095   0.01340367  0.011671175         1609 
 1803000   0.52575384   -7.9189011    289.28812  0.013370684  0.011660872         1563 
 1804000   0.54139988   -7.9292244    289.16247  0.013357468  0.011650572         1589 
 1805000   0.52285391   -7.9110469    289.26707  0.013354897  0.011640298         1553 
 1806000   0.52359707   -7.9389983    289.64163  0.013364785  0.011630025         1628 
 1807000   0.52545554   -7.9423187    289.41016  0.013346714   0.01161976         1620 
 1808000   0.53827682    -7.927868    289.11157   0.01332557  0.011609512         1559 
 1809000   0.51767648    -7.940341    289.56387   0.01333904  0.011599279         1577 
 1810000   0.52428318   -7.9264024    289.46795  0.013327254  0.011589047         1584 
 1811000   0.53063654   -7.9303594    289.13309  0.013304486  0.011578835         1607 
 1812000   0.51427959    -7.943872    289.51268  0.013314601  0.011568626         1625 
 1813000   0.54289976   -7.9569542    289.26663  0.013295947  0.011558422         1694 
 1814000   0.53720132   -7.9149212    289.50784  0.013299699  0.011548237         1585 
 1815000   0.52470938   -7.9417458    289.20568  0.013278498  0.011538061         1664 
 1816000   0.52552612     -7.92736    289.28009    0.0132746  0.011527902         1589 
 1817000   0.51156907   -7.9211145    289.59901  0.013281921  0.011517769         1589 
 1818000   0.51725414   -7.9431831    289.03513  0.013248768  0.011507631         1694 
 1819000   0.52414261   -7.9551693    288.75011  0.013228427  0.011497494         1644 
 1820000   0.51701572    -7.943445    289.62352   0.01326115  0.011487376         1647 
 1821000   0.53264797   -7.9615222    288.65692  0.013209634  0.011477254         1692 
 1822000   0.52911753   -7.9481861    289.74961  0.013252361  0.011467141         1723 
 1823000   0.53100614   -7.9449532    289.82609  0.013248587  0.011457047         1702 
 1824000   0.52596278   -7.9557768    288.75822  0.013192536  0.011446963         1659 
 1825000   0.52081256   -7.9415053    289.53589  0.013220817  0.011436889         1729 
 1826000   0.52172026   -7.9381401    289.26929   0.01320141  0.011426833         1581 
 1827000   0.52686542    -7.947823    289.36321  0.013198468  0.011416776         1624 
 1828000   0.51510029    -7.952684    288.96964  0.013173306  0.011406721         1700 
 1829000   0.51657612   -7.9305176     289.3177  0.013181962  0.011396687         1630 
 1830000    0.5233321   -7.9459078    289.25465  0.013171888  0.011386668         1658 
 1831000   0.53053395   -7.9445222    289.46778  0.013174394  0.011376665         1616 
 1832000   0.51679479   -7.9501382    288.78704  0.013136237   0.01136666         1660 
 1833000   0.51663481   -7.9367192     289.1232  0.013144354  0.011356659         1749 
 1834000   0.53362323   -7.9643188    288.77437  0.013121336  0.011346684         1724 
 1835000   0.53040878   -7.9665359    288.57387   0.01310508  0.011336706         1704 
 1836000   0.52342219    -7.953544     289.0983  0.013121746   0.01132677         1642 
 1837000   0.52030247    -7.949833    289.09653  0.013114522  0.011316819         1724 
 1838000    0.5178742   -7.9643919    289.52104  0.013126634   0.01130688         1578 
 1839000   0.51856529   -7.9569022    289.32473    0.0131106  0.011296964         1682 
 1840000   0.51754801   -7.9711559    289.30486  0.013102575  0.011287053         1668 
 1841000   0.50893838    -7.966946     288.9249  0.013078259  0.011277144         1656 
 1842000   0.52009951    -7.959665    288.82037   0.01306643  0.011267256         1667 
 1843000   0.51538555   -7.9550135    289.05328  0.013069871  0.011257371         1658 
 1844000   0.51259328   -7.9816305    288.83227  0.013052796  0.011247498         1613 
 1845000   0.53286299   -7.9628131    288.75167  0.013042081  0.011237623         1621 
 1846000   0.53090966   -7.9572068    289.56676  0.013071811  0.011227774         1667 
 1847000   0.52304654   -7.9726318    288.99651  0.013039005  0.011217948         1707 
 1848000   0.50358498    -7.957892    289.04692  0.013034223   0.01120812         1750 
 1849000   0.50607185   -7.9651791    289.46111  0.013045841  0.011198299         1701 
 1850000   0.51536867   -7.9553408    289.04832  0.013020195  0.011188492         1658 
 1851000   0.50403958   -7.9833723    289.09657  0.013015333  0.011178691         1747 
 1852000   0.50089976   -7.9495323    288.96094  0.013002202  0.011168902         1659 
 1853000   0.51759685   -7.9565489    289.00597   0.01299721  0.011159137         1716 
 1854000   0.50723989   -7.9626069    289.02629  0.012991113  0.011149374         1730 
 1855000    0.5080184   -7.9752198    289.05609  0.012985449  0.011139626         1680 
 1856000   0.50278479   -7.9739517     289.0932  0.012980118  0.011129878         1689 
 1857000    0.5131493   -7.9883813    288.45622  0.012944544  0.011120154         1787 
 1858000   0.51028963   -7.9580383    289.13815  0.012968163  0.011110429         1700 
 1859000   0.50219081   -7.9808863     289.1541  0.012961902   0.01110071         1668 
 1860000   0.50510108   -7.9682543    289.07401  0.012951345  0.011091006         1731 
 1861000   0.51309073   -7.9712444    288.76269  0.012930444  0.011081296         1732 
 1862000   0.51580991   -7.9777287    289.03711  0.012935782  0.011071601         1716 
 1863000   0.49991224   -7.9685599    288.72447  0.012914854  0.011061919         1771 
 1864000   0.49739122   -7.9801847     289.0362  0.012921862  0.011052257         1764 
 1865000   0.50684793   -7.9712177    288.57242   0.01289421  0.011042599         1684 
 1866000   0.52745464   -7.9884834    288.66314  0.012891352  0.011032963         1710 
 1867000   0.51098061   -8.0064338    288.85729  0.012893112  0.011023321         1791 
 1868000   0.51962029   -7.9765636    288.56849  0.012873327  0.011013687         1827 
 1869000   0.50898787   -7.9641334    288.69474  0.012872068  0.011004071         1715 
 1870000   0.50024939   -7.9890013     288.6076  0.012861301  0.010994462         1748 
 1871000   0.50717358   -7.9850557    288.79588  0.012862813  0.010984861         1794 
 1872000   0.51366905    -7.987954    288.54933  0.012844967  0.010975272         1732 
 1873000   0.50530643   -7.9874307    288.54307   0.01283783  0.010965705         1684 
 1874000    0.5114922   -7.9887195    288.59361  0.012833227  0.010956139         1787 
 1875000   0.51112024    -7.981503    288.42709  0.012818982  0.010946587         1737 
 1876000   0.50525903   -7.9912547    288.80584  0.012828973  0.010937047         1762 
 1877000    0.5122097   -8.0024219    288.22304  0.012796264  0.010927516         1786 
 1878000   0.49856253   -7.9944594    288.67153  0.012809351  0.010917992         1739 
 1879000   0.49176256   -7.9940084    288.25651  0.012784127  0.010908485         1777 
 1880000   0.50780186   -7.9913324      288.641   0.01279437   0.01089898         1696 
 1881000   0.51198114   -8.0039845    288.94552   0.01280106  0.010889485         1688 
 1882000   0.49688264   -7.9822639    288.43799  0.012771785  0.010880005         1722 
 1883000   0.50487726   -7.9987018    288.84784  0.012783141   0.01087053         1654 
 1884000   0.50305097   -7.9825187    288.16658  0.012746222  0.010861059         1649 
 1885000   0.50425566   -7.9812519    288.50909  0.012754601  0.010851614         1691 
 1886000   0.49556752   -7.9959997    288.67034  0.012754964  0.010842182         1740 
 1887000   0.49038016   -8.0021416    288.66882  0.012748137  0.010832745         1776 
 1888000   0.49826911   -8.0090327    288.43443  0.012731039  0.010823328         1715 
 1889000   0.48942737   -8.0055077    287.98584   0.01270451  0.010813919         1717 
 1890000   0.49686891   -7.9916522    288.74357  0.012731198  0.010804519         1740 
 1891000   0.48894019   -7.9992105    288.27266  0.012703713   0.01079512         1763 
 1892000   0.49319236   -8.0129157    288.58751  0.012710866  0.010785729         1693 
 1893000   0.49369118   -7.9883221    288.49967  0.012700285   0.01077636         1665 
 1894000   0.49934831   -7.9977759      288.645  0.012699974  0.010767006         1703 
 1895000   0.49669621   -8.0051426    288.52958  0.012688196  0.010757651         1750 
 1896000   0.49893183   -7.9943674    288.90547  0.012698025  0.010748316         1813 
 1897000   0.49052712   -8.0015393    288.34124  0.012666545  0.010738984         1726 
 1898000   0.49812476   -8.0037733    288.14526  0.012651267  0.010729658         1734 
 1899000   0.49046566    -8.002913    288.45014  0.012657984  0.010720341         1776 
 1900000   0.49530913    -8.007041    288.62423  0.012658958  0.010711035         1707 
 1901000   0.49242771   -8.0093062    288.49185  0.012646495  0.010701734         1711 
 1902000   0.49352365   -8.0144105    288.13486  0.012624205  0.010692452         1731 
 1903000   0.50483688   -7.9943514    288.54525  0.012635542  0.010683176         1708 
 1904000   0.48779362   -8.0023734    288.05657  0.012607518  0.010673909         1740 
 1905000   0.48910775   -8.0060837    288.20007  0.012607177  0.010664654         1748 
 1906000   0.50247216    -8.010039    288.10082  0.012596224  0.010655408         1685 
 1907000    0.4835815   -8.0179637    288.21988  0.012594821  0.010646174         1729 
 1908000   0.49505242   -7.9993964    288.61689   0.01260556  0.010636958         1690 
 1909000    0.4854688   -8.0110925    288.23007  0.012582071  0.010627746         1676 
 1910000   0.48864679   -8.0282606     288.5414  0.012589066  0.010618533         1707 
 1911000   0.49630647   -8.0191763    287.95932  0.012557096  0.010609335         1725 
 1912000   0.49540116   -8.0168091    288.02197  0.012553259  0.010600144         1746 
 1913000   0.49448395   -8.0262264    288.29477   0.01255858  0.010590964         1752 
 1914000    0.4770947   -8.0115586    288.37992  0.012555726  0.010581793         1714 
 1915000   0.48459154    -8.021285    288.14562  0.012538974  0.010572641         1661 
 1916000    0.4842867   -8.0126095    287.86917  0.012520406  0.010563499         1771 
 1917000   0.48651392    -8.012819    288.06331  0.012522314  0.010554349         1851 
 1918000   0.48600041   -8.0288611    287.82788  0.012505556  0.010545216         1799 
 1919000   0.47623448   -8.0189451    288.16953  0.012513876  0.010536089         1778 
 1920000   0.48221917    -8.005181    288.33711  0.012514631  0.010526971         1741 
 1921000   0.49030282   -8.0257261    287.93807  0.012490806  0.010517865         1778 
 1922000   0.47814295    -8.010264    288.05924  0.012489561  0.010508776         1710 
 1923000   0.48978262   -8.0140028    287.90277  0.012476286  0.010499684         1783 
 1924000   0.47869705    -8.010578    288.01489  0.012474657  0.010490605         1709 
 1925000   0.48813609   -8.0186492    288.29737  0.012480406  0.010481543         1713 
 1926000   0.48102258   -8.0468891    288.04857  0.012463161  0.010472493         1706 
 1927000   0.48487021   -8.0395153     288.2247   0.01246431  0.010463452         1717 
 1928000   0.47893032    -8.017774    288.11264  0.012453001  0.010454427         1701 
 1929000   0.48123403   -8.0251822    288.20958  0.012450734  0.010445407         1784 
 1930000   0.47414575   -8.0185741      287.987  0.012434672  0.010436388         1761 
 1931000   0.47854131   -8.0166667    287.59082  0.012411135  0.010427379         1728 
 1932000   0.47957879   -8.0141479     287.8217   0.01241467  0.010418388         1717 
 1933000   0.48416472   -8.0246076    287.76707  0.012405892  0.010409398         1782 
 1934000   0.47989372   -8.0134275    287.44347  0.012385534  0.010400431         1762 
 1935000    0.4862709   -8.0256985    287.99012  0.012402675  0.010391461         1769 
 1936000   0.48882958   -8.0260123    288.19543  0.012405106  0.010382508         1801 
 1937000   0.47974049   -8.0334729    288.06172   0.01239295  0.010373564         1813 
 1938000   0.49129404   -8.0381537    287.85144  0.012377513   0.01036463         1690 
 1939000   0.47275774   -8.0262774    288.02813  0.012378723  0.010355703         1694 
 1940000   0.48134713   -8.0302396    288.06282  0.012373832  0.010346784         1685 
 1941000   0.47836569   -8.0274636    287.94621  0.012362451  0.010337876         1771 
 1942000   0.47725487    -8.022122    287.81641  0.012350515  0.010328982         1766 
 1943000   0.47482581   -8.0370553    288.10051  0.012356344  0.010320098         1733 
 1944000   0.47312023   -8.0348084    287.84942  0.012339224  0.010311219         1813 
 1945000   0.47506655   -8.0151355    287.38444  0.012312958  0.010302347         1796 
 1946000   0.46102069   -8.0483993    287.39491  0.012307079   0.01029349         1781 
 1947000    0.4759458   -8.0307825    287.86054  0.012320687  0.010284633         1726 
 1948000   0.47474075   -8.0374476    287.99576  0.012320147  0.010275778         1783 
 1949000     0.475747   -8.0392948    287.64598   0.01229887  0.010266948         1698 
 1950000   0.47329617   -8.0451857    287.27096  0.012276537  0.010258122         1725 
 1951000   0.47563798    -8.043961    287.84803  0.012294893  0.010249319         1709 
 1952000   0.46996249   -8.0372453    288.29334  0.012307605  0.010240524         1775 
 1953000   0.47409108   -8.0292853    288.19432  0.012297078  0.010231746         1765 
 1954000   0.47268348   -8.0428279    288.06887  0.012285434  0.010222964         1723 
 1955000   0.46393482   -8.0389983    287.99995  0.012276213  0.010214193         1838 
 1956000   0.46651512   -8.0424583    288.45647  0.012289386  0.010205436         1784 
 1957000   0.46108431   -8.0290019    287.34296  0.012235691  0.010196679         1756 
 1958000   0.48278353   -8.0391573    288.33698  0.012271748  0.010187942         1779 
 1959000   0.46450353   -8.0390573    287.80403  0.012242812  0.010179219         1721 
 1960000   0.47184017   -8.0573614    287.58746  0.012227358  0.010170493         1832 
 1961000   0.47180445   -8.0276559    287.54177  0.012219181  0.010161779         1741 
 1962000      0.46863   -8.0355114    287.73545   0.01222118  0.010153071         1782 
 1963000   0.47249189   -8.0608944    287.03037  0.012185021  0.010144372         1845 
 1964000   0.47432345   -8.0449774    287.39303  0.012194205  0.010135682         1770 
 1965000    0.4676649   -8.0483508    287.54521  0.012194453  0.010127006         1814 
 1966000   0.46510891   -8.0583311    287.88881  0.012202815  0.010118335         1818 
 1967000   0.47402199   -8.0482041    288.18428  0.012209129  0.010109688         1750 
 1968000   0.47095522   -8.0490417    287.63987  0.012179873  0.010101042         1774 
 1969000   0.47904957   -8.0639359    287.78921  0.012180007  0.010092397         1888 
 1970000   0.45995925   -8.0724936    287.72773  0.012171224  0.010083764         1841 
 1971000   0.47532201   -8.0559459      287.206   0.01214299  0.010075139         1795 
 1972000   0.46518804   -8.0435221    287.75293  0.012159945  0.010066528         1825 
 1973000   0.46975344   -8.0649382    287.70346  0.012151692  0.010057922         1832 
 1974000   0.46306761   -8.0596986    287.41958  0.012133552  0.010049331         1770 
 1975000   0.47131438   -8.0513857    287.23201  0.012119494  0.010040744         1866 
 1976000   0.46898129   -8.0596152    287.57603  0.012127869  0.010032173         1799 
 1977000   0.46553228   -8.0576994    287.58469    0.0121221  0.010023603         1811 
 1978000   0.45789121    -8.066935    287.77267  0.012123891  0.010015051         1849 
 1979000   0.46363815   -8.0660621    287.64763  0.012112499  0.010006504         1847 
 1980000   0.45402742   -8.0627074    286.90491  0.012075123 0.0099979703         1840 
 1981000   0.46434689   -8.0595701    287.50879   0.01209443 0.0099894431         1775 
 1982000     0.471332   -8.0596715     287.5387  0.012089585 0.0099809175         1777 
 1983000   0.46974256   -8.0484371     287.0425  0.012062637 0.0099724124         1867 
 1984000   0.46448139   -8.0562828    287.30777  0.012067699 0.0099639147         1814 
 1985000    0.4523465   -8.0654654    287.27841  0.012060387 0.0099554268         1821 
 1986000   0.45682778   -8.0587926    287.03784   0.01204422 0.0099469514         1759 
 1987000   0.46501112   -8.0634451    287.48191  0.012056782 0.0099384785         1772 
 1988000    0.4605656    -8.074789    287.42312  0.012048253 0.0099300115         1784 
 1989000   0.46259267   -8.0640618    287.50261  0.012045526 0.0099215608         1756 
 1990000   0.46620889   -8.0577126    287.32698  0.012032118 0.0099131173         1685 
 1991000   0.45674673   -8.0609366     287.1728  0.012019622  0.009904683         1769 
 1992000      0.46383   -8.0740711    287.10543  0.012010769 0.0098962647         1823 
 1993000   0.45276681   -8.0531064    287.10323  0.012004651 0.0098878582         1814 
 1994000    0.4580335   -8.0713938    287.08109  0.011997705  0.009879453         1742 
 1995000   0.45558096   -8.0835781      287.674  0.012016458 0.0098710532         1817 
 1996000   0.45542529    -8.072512    287.04396  0.011984133 0.0098626632         1848 
 1997000   0.45287966   -8.0664279    287.19244  0.011984328 0.0098542832         1824 
 1998000   0.44438119   -8.0817414    287.41168  0.011987474 0.0098459057         1854 
 1999000   0.46101851   -8.0833788    286.73191   0.01195314 0.0098375503         1768 
 2000000   0.46051023   -8.0693378    287.30492  0.011971038 0.0098291921         1801 
 2001000   0.46799883   -8.0678644    286.91437  0.011948791 0.0098208511         1839 
 2002000   0.45498364   -8.0627166    287.13533   0.01195202 0.0098125199         1722 
 2003000   0.45385836   -8.0791372    286.79997  0.011932101 0.0098041953         1817 
 2004000   0.44466154   -8.0665655    287.09757  0.011938522 0.0097958825         1785 
 2005000   0.45093583   -8.0664644    287.18698  0.011936284 0.0097875785         1802 
 2006000   0.44400744   -8.0797283    287.14049  0.011928402 0.0097792873         1772 
 2007000   0.45190547   -8.0710601    287.21108   0.01192539  0.009770997         1766 
 2008000   0.44283651   -8.0749669    286.90263   0.01190665   0.00976272         1849 
 2009000   0.45181321   -8.0740706    287.58291  0.011928941 0.0097544574         1825 
 2010000   0.44739277   -8.0768706    286.99223  0.011898517  0.009746196         1855 
 2011000   0.46408943    -8.075695    287.50883  0.011914008 0.0097379406         1800 
 2012000   0.45850378   -8.0749116    286.75605  0.011876907 0.0097297006         1848 
Loop time of 5197.07 on 48 procs for 2000000 steps with 4000 atoms

Performance: 66499.033 tau/day, 384.832 timesteps/s
99.4% CPU use with 48 MPI tasks x no OpenMP threads

MPI task timing breakdown:
Section |  min time  |  avg time  |  max time  |%varavg| %total
---------------------------------------------------------------
Pair    | 372.38     | 401.77     | 432.12     |  68.7 |  7.73
Neigh   | 36.693     | 38.149     | 39.982     |  12.9 |  0.73
Comm    | 327.62     | 361.83     | 392.16     |  77.1 |  6.96
Output  | 5.4662     | 5.4686     | 5.5263     |   0.4 |  0.11
Modify  | 4324.5     | 4340.4     | 4348.7     |   9.9 | 83.52
Other   |            | 49.49      |            |       |  0.95

Nlocal:        83.3333 ave          89 max          78 min
Histogram: 2 4 5 6 11 4 7 5 2 2
Nghost:        2431.12 ave        2450 max        2420 min
Histogram: 3 9 8 6 9 6 2 2 1 2
Neighs:        16946.4 ave       19999 max       15348 min
Histogram: 8 9 8 4 6 5 5 2 0 1
FullNghs:      33891.7 ave       36301 max       31651 min
Histogram: 3 2 3 10 10 6 5 6 1 2

Total # of neighbors = 1626802
Ave neighs/atom = 406.70050
Neighbor list builds = 106741
Dangerous builds = 1

#clear
#
#next RN
#
#jump SELF
Total wall time: 1:26:40
