
units lj                  # Use reduced LJ style units
atom_style atomic         # Uncharged point particles
atom_modify map hash      # Needed for indexing of clusters etc
                          # Used to be able to find where atoms are in relation to each other.

lattice fcc 1.0 spacing 1 1 1
Lattice spacing in x,y,z = 1.5874011 1.5874011 1.5874011
region box block 0 10 0 10 0 10 units lattice
create_box 2 box
Created orthogonal box = (0.0000000 0.0000000 0.0000000) to (15.874011 15.874011 15.874011)
  3 by 4 by 4 MPI processor grid
create_atoms 1 box
Created 4000 atoms
  using lattice units in orthogonal box = (0.0000000 0.0000000 0.0000000) to (15.874011 15.874011 15.874011)
  create_atoms CPU = 0.002 seconds
set type 1 type/fraction 2 0.29 78393
Setting atom values ...
  1200 settings made for type/fraction
mass 1 1.0
mass 2 1.0
pair_style lj/cut  3.5
pair_modify tail  yes
pair_coeff 1  1  1.0  1.0   # Intearaction between 1 and 1 set with epsilon = 1 and sigma = 1
pair_coeff 1  2  1.5  0.8
pair_coeff 2  2  0.5  0.88

write_data data.0
System init for write_data ...
Neighbor list info ...
  update every 1 steps, delay 10 steps, check yes
  max neighbors/atom: 2000, page size: 100000
  master list distance cutoff = 3.8
  ghost atom cutoff = 3.8
  binsize = 1.9, bins = 9 9 9
  1 neighbor lists, perpetual/occasional/extra = 1 0 0
  (1) pair lj/cut, perpetual
      attributes: half, newton on
      pair build: half/bin/atomonly/newton
      stencil: half/bin/3d
      bin: standard
WARNING: Not all mixed pair coeffs generated from mixing. Use write_data with 'pair ij' option to store all pair coeffs. (../write_data.cpp:312)


#############################
#   M E L T   S Y S T E M   #
#############################

velocity all create 2.4 9580093 mom yes dist gaussian # Assign velocities
                                                    # Temperature 2.4, random number seed, zero linear momentum
                                                                                # Gaussian distribution

timestep 0.002   # simulation timestep
thermo 1000       # output thermodynamic data every 1000 steps bf 100

# Define a fix  in this case with index 1 applied to all
# particles in the simulation. This fix is for simulations
# in the anisotropic NPT ensemble. Note that we use the MTK
# correction.
fix 1 all npt temp 2.4 2.4 0.1 iso 5.68 5.68 0.5 mtk yes tchain 5 pchain 5 # Use NPT ensemble
                                                                         # Set temperature and pressure and damping
                                                                         # Numbers of thermostats in chain and in barostat
run 10000          # run for 10000 steps
Per MPI rank memory allocation (min/avg/max) = 3.642 | 3.644 | 3.648 Mbytes
Step Temp E_pair E_mol TotEng Press Volume 
       0          2.4   -6.4756105            0   -2.8765105   -3.9602485         4000 
    1000    2.4167653   -4.9434618            0   -1.3192202    5.6795021    4196.8537 
    2000    2.4277949   -4.9918908            0   -1.3511089    5.5448853    4178.0157 
    3000    2.3573604   -4.9615862            0   -1.4264297     5.789085    4159.9645 
    4000    2.4550923   -4.9286529            0   -1.2469352    5.9723662    4186.0512 
    5000    2.3337286   -4.9306522            0   -1.4309344    5.9128217    4170.9509 
    6000     2.402208   -4.9847957            0   -1.3823845    5.4970357    4184.0549 
    7000    2.4369945   -4.9851259            0    -1.330548    5.9597881    4147.5397 
    8000    2.3929084   -4.9564379            0   -1.3679726    5.5343176    4204.1642 
    9000    2.4245907   -4.9983547            0   -1.3623779    6.0812732    4134.4987 
   10000    2.4492395   -4.9435753            0   -1.2706345    5.8858313    4181.3659 
Loop time of 2.409 on 48 procs for 10000 steps with 4000 atoms

Performance: 717309.400 tau/day, 4151.096 timesteps/s
99.6% CPU use with 48 MPI tasks x no OpenMP threads

MPI task timing breakdown:
Section |  min time  |  avg time  |  max time  |%varavg| %total
---------------------------------------------------------------
Pair    | 1.0176     | 1.1124     | 1.1652     |   2.8 | 46.18
Neigh   | 0.19697    | 0.21027    | 0.21824    |   0.9 |  8.73
Comm    | 0.76493    | 0.81933    | 0.93374    |   3.5 | 34.01
Output  | 0.00024006 | 0.0002449  | 0.00031063 |   0.0 |  0.01
Modify  | 0.22724    | 0.25183    | 0.27288    |   2.6 | 10.45
Other   |            | 0.01487    |            |       |  0.62

Nlocal:        83.3333 ave          92 max          74 min
Histogram: 1 2 3 9 7 7 8 8 2 1
Nghost:        1599.85 ave        1638 max        1552 min
Histogram: 1 1 1 5 6 15 11 5 2 1
Neighs:        9140.94 ave       10259 max        8006 min
Histogram: 2 2 5 7 9 5 9 5 3 1

Total # of neighbors = 438765
Ave neighs/atom = 109.69125
Neighbor list builds = 906
Dangerous builds = 217

# Equilibrate just above the melting temperature to avoid step fn in T

fix 1 all npt temp 1.25 1.25 0.1 iso 5.68 5.68 0.5 mtk yes tchain 5 pchain 5
run 2000
Per MPI rank memory allocation (min/avg/max) = 3.643 | 3.645 | 3.649 Mbytes
Step Temp E_pair E_mol TotEng Press Volume 
   10000    2.4492395   -4.9435753            0   -1.2706345    5.8858313    4181.3659 
   11000    1.2545886   -6.8445908            0   -4.9631783    5.3425131    3374.3828 
   12000    1.2695684   -6.8285436            0   -4.9246671     6.151032    3347.8764 
Loop time of 0.575803 on 48 procs for 2000 steps with 4000 atoms

Performance: 600205.269 tau/day, 3473.410 timesteps/s
99.7% CPU use with 48 MPI tasks x no OpenMP threads

MPI task timing breakdown:
Section |  min time  |  avg time  |  max time  |%varavg| %total
---------------------------------------------------------------
Pair    | 0.24002    | 0.27183    | 0.32249    |   2.8 | 47.21
Neigh   | 0.036136   | 0.039831   | 0.046695   |   0.9 |  6.92
Comm    | 0.16057    | 0.21522    | 0.24988    |   3.6 | 37.38
Output  | 5.0574e-05 | 5.2075e-05 | 6.527e-05  |   0.0 |  0.01
Modify  | 0.038176   | 0.044261   | 0.051136   |   1.7 |  7.69
Other   |            | 0.00461    |            |       |  0.80

Nlocal:        83.3333 ave          91 max          77 min
Histogram: 4 2 9 6 3 12 3 6 1 2
Nghost:        1846.65 ave        1879 max        1827 min
Histogram: 5 6 10 7 7 5 2 4 1 1
Neighs:        11413.6 ave       12831 max        9864 min
Histogram: 3 2 4 7 4 11 4 5 4 4

Total # of neighbors = 547854
Ave neighs/atom = 136.96350
Neighbor list builds = 144
Dangerous builds = 9

#############################
# L I N E A R  Q U E N C H  #
#############################

# Define solid atoms. This closely follows ten Wolde  Ruiz-Montero and Frenkel  Faraday Discuss  1996  104  93-110
# Compute components of the per-atom q6 vector
compute q6 all orientorder/atom degrees 1 6 components 6 nnn NULL cutoff 1.3 # compute the Q6 parameter.
                                                                             # Use all neighbours within 1.3 unit cell.

# get number of connections
compute coord_number all coord/atom orientorder q6 0.5

# An atom is solid if it has 8 or more connections (of a possible 14)
variable is_solid atom c_coord_number>=8
group solid dynamic all var is_solid    # Must be dynamic to update
dynamic group solid defined

# do clustering
compute cluster solid cluster/atom 1.3 # Create a cluster where all atoms within are solid and max 1.3 units from another member

# define chunks one chunk per cluster
compute clus_chunks solid chunk/atom c_cluster nchunk every compress yes  # Says which atoms are in which chunk

# count the size of each chunk
compute size_chunks solid property/chunk clus_chunks count


# Find the maximum entry in the vector of chunk sizes
variable max_n equal max(c_size_chunks)


# Thermo style which includes this variable
# thermo_style custom step temp pe vol v_max_n

thermo ${N}  # Print the thermo information every 100 steps
thermo 1000  

# Reset the npt fix at a lower temperature (below freezing)
fix 1  all npt temp  ${temp} ${temp}  0.1  iso  5.68  5.68  0.5  mtk yes tchain  5  pchain  5
fix 1  all npt temp  0.45 ${temp}  0.1  iso  5.68  5.68  0.5  mtk yes tchain  5  pchain  5
fix 1  all npt temp  0.45 0.45  0.1  iso  5.68  5.68  0.5  mtk yes tchain  5  pchain  5

dump dmp2 all dcd ${N} traj.dcd
dump dmp2 all dcd 1000 traj.dcd


compute msd all msd com yes
variable twopoint equal c_msd[4]/6/(step*dt+1.0e-6)
fix 9 all vector 10 c_msd[4]
variable fit equal slope(f_9)/6/(10*dt)
thermo_style custom step temp pe c_msd[4] v_twopoint v_fit v_max_n

fix 1 all npt temp 1.25 ${temp} 0.1 iso 5.68 5.68 0.5 mtk yes tchain 5 pchain 5
fix 1 all npt temp 1.25 0.45 0.1 iso 5.68 5.68 0.5 mtk yes tchain 5 pchain 5
run 500000 # 5000000  # Run for this many steps
Neighbor list info ...
  update every 1 steps, delay 10 steps, check yes
  max neighbors/atom: 2000, page size: 100000
  master list distance cutoff = 3.8
  ghost atom cutoff = 3.8
  binsize = 1.9, bins = 8 8 8
  4 neighbor lists, perpetual/occasional/extra = 1 3 0
  (1) pair lj/cut, perpetual
      attributes: half, newton on
      pair build: half/bin/atomonly/newton
      stencil: half/bin/3d
      bin: standard
  (2) compute orientorder/atom, occasional
      attributes: full, newton on
      pair build: full/bin/atomonly
      stencil: full/bin/3d
      bin: standard
  (3) compute coord/atom, occasional
      attributes: full, newton on
      pair build: full/bin/atomonly
      stencil: full/bin/3d
      bin: standard
  (4) compute cluster/atom, occasional
      attributes: full, newton on
      pair build: full/bin/atomonly
      stencil: full/bin/3d
      bin: standard
Per MPI rank memory allocation (min/avg/max) = 9.808 | 9.814 | 9.817 Mbytes
Step Temp PotEng c_msd[4] v_twopoint v_fit v_max_n 
   12000    1.2695684   -6.8285436 3.9443045e-34 2.7391003e-36 8.3333333e+20            1 
   13000    1.2656554   -6.8596207   0.50757075 0.0032536586  0.041801603            1 
   14000    1.2431111   -6.9082184   0.95043539 0.0056573533  0.038936439            2 
   15000    1.2288766   -6.8561471    1.4087275 0.0078262638  0.038084712            1 
   16000     1.256088   -6.8456881    1.8650024 0.0097135537  0.037983998            1 
   17000    1.2391869   -6.8651768    2.3080909  0.011314171  0.037969084            2 
   18000    1.2542546   -6.8917656    2.7927959   0.01292961    0.0381503            1 
   19000    1.2457702   -6.8714796    3.2665398  0.014326928  0.038285624            3 
   20000    1.2348675   -6.9366425     3.703345  0.015430604  0.038438914            2 
   21000    1.2570041   -6.9176725    4.2083061  0.016699627  0.038507616            3 
   22000    1.1997091    -6.926097     4.673954  0.017704371  0.038621074            2 
   23000    1.2224455   -6.8859969    5.1439257  0.018637412  0.038681437            1 
   24000    1.2320481   -6.9126603    5.5122186  0.019139648  0.038553976            1 
   25000     1.252563   -6.9080162    5.9337959  0.019779319  0.038397298            1 
   26000    1.2239965   -6.9316007    6.4589181   0.02070166   0.03828161            3 
   27000    1.2244666   -6.9194015    6.9421417  0.021426363  0.038239329            1 
   28000    1.2252372   -6.8954613    7.4064553  0.022043021  0.038310837            7 
   29000    1.2319303   -6.8863762     7.827417  0.022492577  0.038323002            1 
   30000    1.2143493   -6.9197916    8.2312658  0.022864627  0.038227217            1 
   31000    1.2263927    -6.907012    8.6646922  0.023292183  0.038130261            1 
   32000    1.2228876   -6.9343788    9.1232795   0.02375854  0.038005855            2 
   33000    1.2391239   -6.9091781    9.5125512  0.024021594  0.037896831            1 
   34000    1.2044827   -6.9624754    9.8561256   0.02415717   0.03771849            4 
   35000    1.2031975   -6.9528355    10.250266  0.024405395  0.037518513            1 
   36000    1.2289153   -6.9450284    10.702373  0.024774012  0.037334069            2 
   37000    1.2029493   -6.9454028    11.222457  0.025275805  0.037219944            2 
   38000    1.2053476   -6.9330812    11.574359  0.025382367  0.037143881            1 
   39000    1.2118374   -6.9678597    12.111776  0.025879863   0.03707386            2 
   40000    1.1695159   -6.9364489     12.57857  0.026205354  0.037078746            1 
   41000    1.1968028   -6.9308066    13.151096  0.026729869  0.037067753            1 
   42000    1.2099396   -6.9073794     13.45074  0.026687975  0.037058462       -1e+20 
   43000    1.2045617   -6.9432255    13.789837   0.02672449  0.037003577            2 
   44000    1.2083988   -6.9591011     14.10795  0.026719601  0.036894367            3 
   45000     1.160974   -6.9388239    14.513964   0.02687771  0.036794884            1 
   46000    1.1941344   -6.9515647    14.874242  0.026946089  0.036674694            1 
   47000    1.2019345   -6.9536215    15.218348  0.026982886  0.036541032            1 
   48000    1.1947532   -6.9802001    15.482091   0.02687863  0.036375703            2 
   49000    1.2051521   -6.9916755    15.860544  0.026973714  0.036193872            1 
   50000    1.2030529   -6.9739384    16.229618  0.027049363  0.036019816            3 
   51000    1.1760244   -6.9882777    16.649069  0.027204361  0.035876266            2 
   52000    1.1833974   -7.0080878    17.025421  0.027284328  0.035733719            2 
   53000    1.1833086   -6.9782569    17.326662  0.027243179  0.035577409            2 
   54000    1.1951368   -7.0050222    17.643985  0.027228371  0.035419426            4 
   55000    1.1815415   -7.0025935    18.137837  0.027481571  0.035271841            1 
   56000    1.1972363   -7.0106623     18.55686  0.027614374  0.035156317            1 
   57000    1.1922785   -6.9961582     18.81224  0.027503275  0.035028793            1 
   58000    1.1662653   -7.0553565    19.232729  0.027633231  0.034906469            1 
   59000    1.1502387    -7.017402    19.635101  0.027733193  0.034794173            1 
   60000    1.1874984   -6.9723584    19.967877  0.027733163  0.034673474            1 
   61000    1.1835836   -7.0210655    20.111901  0.027475274  0.034535286            3 
   62000    1.1850947   -7.0237426    20.413605  0.027437642  0.034380011            1 
   63000    1.1717369   -7.0044122    20.748232  0.027444752  0.034218455       -1e+20 
   64000     1.162273   -7.0165943    21.161821  0.027554454  0.034071183            2 
   65000    1.1497219    -7.052863    21.478108  0.027536036  0.033930275            3 
   66000    1.1694932   -7.0069247    21.886065  0.027633921   0.03379868            2 
   67000    1.1498983   -7.0623668    22.330237  0.027773926  0.033676323            1 
   68000    1.1797372   -7.0553176    22.709745  0.027830569  0.033569334            2 
   69000    1.1727469   -7.0255591    23.069625  0.027861866  0.033474227            1 
   70000    1.1758002   -7.0638543    23.616295  0.028114636  0.033398138            2 
   71000    1.1213182   -7.0253911    24.100319   0.02828676  0.033335511            1 
   72000     1.161595   -7.0616349    24.470598  0.028322451  0.033281727            1 
   73000    1.1183787   -7.0887028    24.916375  0.028443351  0.033245168            2 
   74000    1.1643835   -7.0295145    25.199062  0.028377322  0.033210758            5 
   75000    1.1558114   -7.1211622    25.597575   0.02844175  0.033166985            1 
   76000    1.1380708   -7.0666446    26.013445  0.028523514  0.033135984            3 
   77000    1.1364151    -7.030572    26.518813  0.028700014  0.033111033            1 
   78000    1.1582666   -7.0523238    26.675616   0.02849959  0.033076237            1 
   79000    1.1527018   -7.0608287    27.004159    0.0284854  0.033033692            3 
   80000    1.1492541   -7.0849535    27.261317  0.028397205  0.032979647            1 
   81000    1.1426406   -7.1007815    27.667092  0.028464087  0.032927438            2 
   82000    1.1581582   -7.1338664    28.111107  0.028568197  0.032879853            1 
   83000    1.1411607   -7.1184026    28.322139  0.028435882  0.032832724            3 
   84000    1.1295914     -7.08384    28.655799  0.028428372   0.03277066            3 
   85000    1.1284324   -7.0594587    29.026958  0.028457802   0.03270945            2 
   86000    1.1426638   -7.1022777    29.396163  0.028484654  0.032650182            2 
   87000    1.1575023   -7.1138329    29.706832   0.02845482  0.032590677            2 
   88000    1.1308188   -7.1431719      29.9841  0.028394034  0.032533145            1 
   89000    1.1437537   -7.1080122    30.577482  0.028630601   0.03248589            2 
   90000    1.1191804   -7.1268281    30.863915  0.028577699   0.03244818            2 
   91000    1.0959118   -7.1313973     30.94773  0.028340412  0.032394011            1 
   92000    1.0920437   -7.1607518    31.363391  0.028408869  0.032334539            2 
   93000    1.1110974   -7.1465231     31.71656  0.028419856    0.0322813            1 
   94000     1.098708   -7.1359645    32.268523  0.028606846   0.03223462            2 
   95000    1.1282993   -7.0940308    32.803197  0.028774734  0.032196055            2 
   96000      1.15274   -7.1389074    32.940403    0.0285941  0.032163203            1 
   97000    1.1231941   -7.1233075    33.366882  0.028665706  0.032125246            2 
   98000    1.1019657   -7.1350146    33.572397  0.028547957  0.032081746            2 
   99000     1.116829   -7.1776919    33.817225  0.028465677   0.03203942            1 
  100000    1.1074353   -7.1480499    34.173319  0.028477766  0.031991327            1 
  101000    1.1020838   -7.1495188    34.499569  0.028464991  0.031937184            1 
  102000    1.1108909   -7.1402964    34.746223  0.028387437   0.03188337            1 
  103000    1.1049172   -7.1634153    35.056446  0.028362821  0.031825427            1 
  104000    1.1007596   -7.2140716    35.202336     0.028207  0.031765696            3 
  105000    1.0876501    -7.201234    35.604333  0.028257407  0.031705302            1 
  106000    1.0960002   -7.1823071    36.019483  0.028317203  0.031644517            2 
  107000    1.0988856   -7.1904118    36.252383  0.028233943  0.031585779            3 
  108000    1.1158852   -7.1933595    36.527066  0.028184464  0.031524611            1 
  109000    1.0944076   -7.2060557    36.889466  0.028202955  0.031463859            2 
  110000    1.0825317   -7.1925023    37.128538   0.02812768  0.031403709            2 
  111000    1.1003142   -7.2084646    37.476908  0.028135817  0.031344775            3 
  112000    1.0902985   -7.1904099    37.712923   0.02806021  0.031281163            4 
  113000    1.0892293   -7.2493439    37.828968  0.027897469  0.031211529            2 
  114000    1.0985603   -7.2085077    38.147297  0.027885451  0.031140056            4 
  115000    1.1023201   -7.2268354     38.52224  0.027914667   0.03107034            2 
  116000    1.1085299   -7.2054145     38.74005  0.027830496  0.030999804            3 
  117000    1.0724496   -7.2105529    39.015479  0.027788803  0.030931032            2 
  118000    1.0979058   -7.2041522    39.270835  0.027733641  0.030860323            1 
  119000    1.0690263   -7.2045717    39.548265  0.027694863  0.030786038            2 
  120000    1.0895945   -7.2500677    39.809537  0.027645512  0.030714072            1 
  121000    1.0897728   -7.2451088    40.196345  0.027683433  0.030646792            1 
  122000    1.0653782   -7.2199892    40.487264  0.027655235  0.030578574            1 
  123000    1.0527607   -7.2505843    40.709422  0.027580909  0.030506786            3 
  124000    1.0824917   -7.2169439    40.983946  0.027542974  0.030437527            2 
  125000    1.0855365   -7.2667364    41.276677  0.027517785  0.030368866            1 
  126000    1.0798873   -7.2202587    41.588575  0.027505671   0.03029942            1 
  127000    1.0593819   -7.2466326    41.560839  0.027270892  0.030226232            4 
  128000    1.0731239   -7.2224232    41.957417  0.027316027   0.03015066            2 
  129000    1.0602998   -7.2796487    42.271191  0.027306971  0.030079107            2 
  130000    1.0306437   -7.2791387    42.666808  0.027350518  0.030007252            2 
  131000    1.0659374   -7.2467823    42.753379  0.027196806  0.029934268            2 
  132000    1.0616054   -7.2540418    43.005866  0.027150168  0.029861409            2 
  133000    1.0480891   -7.2399157    43.323358  0.027144961     0.029787            2 
  134000     1.064628   -7.3069144    43.383688  0.026979906  0.029711228            4 
  135000    1.0564856   -7.2604783    43.625374  0.026929243  0.029635053            1 
  136000    1.0754459    -7.262402    43.973671  0.026944651  0.029560641            1 
  137000     1.033554   -7.2648926    44.272911  0.026929994   0.02948564            1 
  138000    1.0551318   -7.2917195    44.457676  0.026846422  0.029413653            4 
  139000    1.0740877   -7.2913837    44.792327  0.026853913  0.029341415            1 
  140000    1.0470073    -7.280981    44.884257   0.02671682  0.029270481            3 
  141000    1.0320677    -7.340321    45.230246  0.026731824  0.029198589            2 
  142000    1.0420397   -7.2714162    45.673832  0.026803892  0.029130828            4 
  143000    1.0628327   -7.2900723    45.788596  0.026683331  0.029060573            2 
  144000    1.0299774   -7.3539186    45.927953  0.026578676  0.028990206            3 
  145000    1.0479542   -7.3144248    46.052213  0.026466789  0.028919795            3 
  146000    1.0200992   -7.3118797    46.563954  0.026577599  0.028848839            2 
  147000     1.009219    -7.286408    46.545342  0.026386248  0.028775942            2 
  148000    1.0227627   -7.3383267    46.954113  0.026438126  0.028704042            2 
  149000    1.0351818   -7.3054595    47.248023  0.026425069  0.028635541            1 
  150000    1.0064831   -7.3297516    47.252418  0.026251343  0.028565808            3 
  151000    1.0345858   -7.3416301     47.46952  0.026197307  0.028494279            3 
  152000      1.01199   -7.3476304    47.730947  0.026168282   0.02842133            3 
  153000    1.0232286   -7.3436132    47.892394  0.026085182  0.028349461            1 
  154000    1.0321736   -7.3598464    48.102625  0.026029559  0.028274474            1 
  155000    1.0162595   -7.3156298     48.54077  0.026097188  0.028200526            2 
  156000   0.98153439   -7.3599546    48.572305  0.025946744   0.02812794            3 
  157000   0.99564835   -7.3668509    48.893404  0.025951913  0.028056049            2 
  158000    1.0114518   -7.3563699    48.960964  0.025823293  0.027983316            1 
  159000    1.0189808   -7.3246156    49.288257   0.02583242  0.027910617            1 
  160000    1.0086273   -7.3598365    49.379644  0.025718565   0.02783899            4 
  161000    1.0162542   -7.3776665    49.613712  0.025679975  0.027763963            1 
  162000    1.0322875   -7.3950633    49.681106  0.025556124  0.027690871            3 
  163000    1.0076641   -7.3561111    49.984878  0.025554641  0.027616615            1 
  164000   0.98050233   -7.4006405     49.99396  0.025403435  0.027541833            1 
  165000    1.0162558   -7.4298226    50.174963   0.02534089   0.02746426            2 
  166000    1.0058372     -7.40697     50.40499   0.02530371  0.027388561            2 
  167000    1.0235561   -7.4031512    50.623864  0.025261409    0.0273131            2 
  168000    1.0032531   -7.4067025    50.949599  0.025272618  0.027237933            1 
  169000   0.99771505   -7.4201558     50.93769  0.025117204  0.027165581            1 
  170000    1.0084603   -7.4040438     51.31139  0.025152642  0.027091169            5 
  171000   0.97696304   -7.4113639    51.526645  0.025110451  0.027017416            2 
  172000    1.0088106    -7.366243    51.643167  0.025020914  0.026943225            2 
  173000   0.99686198   -7.4123181    51.693024  0.024900301  0.026869495            1 
  174000   0.97044811   -7.3909532    52.196511  0.024998329  0.026795922            1 
  175000   0.99485959   -7.4212419    52.328469  0.024918319  0.026724036            2 
  176000   0.98214495   -7.4218477    52.559037  0.024885908  0.026652929            2 
  177000   0.98919706   -7.4545079      52.9629  0.024935452  0.026585166            3 
  178000   0.96245606   -7.4849666    53.044277  0.024833463  0.026517962            2 
  179000   0.99285879   -7.4420001    53.348983  0.024836584  0.026450281            2 
  180000   0.96411045   -7.4516665    53.415956  0.024729609  0.026382299            3 
  181000   0.97109918   -7.4374775    53.713146  0.024729809  0.026314234            2 
  182000    0.9809241   -7.4566443    53.754794  0.024613001    0.0262453            3 
  183000   0.97745852   -7.4987969    53.847259   0.02452061  0.026175739            2 
  184000   0.96757281   -7.4594941    54.193477  0.024544147  0.026106869            2 
  185000   0.97129024   -7.4567444    54.472778  0.024537287  0.026039794            1 
  186000   0.97411033     -7.43751    54.791777  0.024548287  0.025973913            2 
  187000   0.96696059   -7.4603553    54.863223  0.024448851  0.025909358            5 
  188000   0.97461022   -7.4526354    55.111871  0.024429021  0.025845433            2 
  189000   0.92776105   -7.4330136    55.334934  0.024398119  0.025781954            2 
  190000   0.95348766   -7.4447347    55.429508  0.024311188  0.025717853            1 
  191000   0.96743802   -7.4691789     55.55185  0.024237282  0.025653744            5 
  192000   0.94102515   -7.4900746    56.056976  0.024330285  0.025591268            2 
  193000   0.94373198   -7.4662743    56.177884  0.024256427   0.02552874            4 
  194000   0.96500588   -7.4603603    56.242457  0.024159131  0.025467687            1 
  195000    0.9698448   -7.4884077    56.304072  0.024061569  0.025406341            1 
  196000    0.9454128   -7.4973587    56.524541  0.024032543  0.025344903            2 
  197000   0.96551494   -7.4857281    56.823426  0.024036982  0.025282673            1 
  198000   0.93587838     -7.49837    57.015729  0.023996519  0.025220964            2 
  199000   0.96333159    -7.501297    57.041188  0.023886595  0.025158036            1 
  200000   0.93871739   -7.5155302    57.269841  0.023862434  0.025095248            5 
  201000   0.94509653   -7.5126217    57.138423   0.02368923   0.02503197            3 
  202000   0.94263275   -7.5069104     57.38161  0.023672281   0.02496768            3 
  203000    0.9407684   -7.5005771    57.740352  0.023702936  0.024904318            2 
  204000   0.94063355   -7.4812785    57.848987  0.023631122   0.02484106            1 
  205000   0.93930245    -7.497948    57.928746  0.023548271  0.024777666            3 
  206000   0.93661276   -7.5534903    58.136732  0.023518095  0.024716332            4 
  207000   0.92450924   -7.5581469    58.405944   0.02351286  0.024654573            1 
  208000    0.9506398    -7.570154    58.561566  0.023462166  0.024594217            3 
  209000   0.94616802   -7.5458082    58.792244  0.023441884  0.024532577            2 
  210000   0.93030747   -7.5841363    58.798077   0.02333257  0.024470621            2 
  211000    0.9448137   -7.5922266    58.858801  0.023245972  0.024409813            1 
  212000    0.9295024   -7.5775977    59.085849   0.02322557  0.024348299            1 
  213000   0.92191425   -7.5863776    59.309803  0.023204148  0.024286129            2 
  214000   0.92418715   -7.5310897    59.440251  0.023146515  0.024224485            6 
  215000   0.91029274   -7.5708871    59.704153  0.023141145    0.0241632            1 
  216000   0.92466024   -7.5423472    59.949805  0.023128783  0.024104167            3 
  217000    0.9269531   -7.5660304    60.028561  0.023052443   0.02404543            1 
  218000   0.90905145   -7.5602895    60.277139   0.02304172  0.023987001            3 
  219000    0.9505468   -7.5833725    60.392334   0.02298034  0.023928376            4 
  220000   0.91085154   -7.5726131    60.745985  0.023009843  0.023871134            1 
  221000   0.89837208   -7.5983437    60.990556  0.022997947  0.023815366            1 
  222000   0.91452713   -7.6027053    60.943154  0.022876559  0.023758355            3 
  223000   0.90233284   -7.5973006    60.982359  0.022788624  0.023700711            2 
  224000   0.88341983    -7.608495    60.890142  0.022652582  0.023641704            3 
  225000   0.92080199   -7.6070462    61.023005  0.022601113  0.023582897            2 
  226000   0.91258049   -7.6164974    60.983899  0.022486688  0.023523185            3 
  227000   0.90632588   -7.6113821    61.217622  0.022473429  0.023462229            3 
  228000    0.8973765   -7.6075565    61.200027  0.022368431  0.023400176            2 
  229000   0.89208733   -7.6288275    61.222228  0.022278831  0.023338683            2 
  230000   0.88772977   -7.5920066    61.526141   0.02229208  0.023276852            1 
  231000   0.91483406   -7.6053695    61.718182  0.022264856  0.023215158            2 
  232000   0.91080372   -7.6289627    61.695997  0.022160918   0.02315349            3 
  233000   0.89756965   -7.6531484    62.033974  0.022186686  0.023092272            2 
  234000   0.89652731    -7.676081    62.084788  0.022109967  0.023031845            1 
  235000   0.88792091   -7.6387937    62.229499  0.022067198  0.022972023            2 
  236000   0.90540891   -7.6429525    62.467071  0.022057582  0.022912072            3 
  237000   0.86728629   -7.6571287    62.273799  0.021896554  0.022851968            2 
  238000   0.90042988   -7.6864993    62.541649  0.021898336  0.022791325            1 
  239000   0.89504351   -7.6526271    62.801401  0.021897281  0.022730708            2 
  240000   0.90902747   -7.6414834     62.89924  0.021840014  0.022670957            2 
  241000   0.88713418   -7.6599273     62.91959  0.021756428  0.022610981            2 
  242000   0.87480066   -7.6659072    63.066759  0.021717204  0.022550476            1 
  243000   0.87924443   -7.6693851    63.215428  0.021678816  0.022490631            2 
  244000   0.87476097   -7.6456928    63.235056  0.021596672  0.022431537            2 
  245000   0.88493132    -7.674694    63.416489  0.021570234   0.02237295            1 
  246000   0.90006006   -7.6949016    63.618652  0.021551034  0.022314684            4 
  247000   0.88815358   -7.6783758    63.883576  0.021553163   0.02225693            2 
  248000   0.87387747   -7.7140923    63.878628  0.021464593  0.022199152            2 
  249000   0.86687032   -7.7300762    63.899507  0.021385377  0.022141197            4 
  250000   0.86909853   -7.6817586    64.047438  0.021349146   0.02208343            1 
  251000   0.86246782   -7.7172697    64.112665  0.021285745  0.022025386            3 
  252000   0.84502433    -7.709255    64.340703  0.021276687  0.021967796            2 
  253000    0.8755792   -7.7213757    64.247058  0.021161745  0.021908876            2 
  254000   0.86478608   -7.7180709     64.53147  0.021171742  0.021849984            2 
  255000    0.8800588   -7.7195844    64.419372  0.021052082  0.021791948            2 
  256000   0.85590955   -7.7573443     64.38086  0.020957311  0.021732818            4 
  257000   0.86315648   -7.7467534    64.610738  0.020950304   0.02167332            4 
  258000   0.85439941   -7.7603749    64.582099  0.020859851   0.02161386            2 
  259000   0.83567792   -7.7406832    64.707411   0.02081963  0.021553642            3 
  260000   0.85400879   -7.7551832    64.818147  0.020775047  0.021493944            2 
  261000   0.84838936   -7.7727622    64.584535   0.02062086  0.021433787            2 
  262000   0.84245653   -7.7589371    64.677093  0.020571594  0.021372646            1 
  263000   0.85776508   -7.7634649    64.874406  0.020555895  0.021311922            2 
  264000   0.86343313   -7.7900786    64.902934  0.020487037  0.021251191            2 
  265000   0.85316819   -7.7793727    65.062719  0.020459975  0.021190805            1 
  266000    0.8224738   -7.7574249    65.175509  0.020418392  0.021130682            1 
  267000   0.84397426   -7.7460668    65.145297   0.02033249  0.021069914            1 
  268000   0.84522484   -7.7716186    65.329475  0.020313891  0.021008758            5 
  269000   0.84583529   -7.7803102    65.064895  0.020156411  0.020947418            2 
  270000   0.83674401   -7.8007326    65.296669  0.020153293  0.020885712            4 
  271000   0.82457945   -7.7981175    65.225797  0.020057133  0.020824038            2 
  272000   0.83355742   -7.8007182    65.223273   0.01998262  0.020762247            5 
  273000   0.83582639   -7.7940737    65.281419  0.019927173  0.020699807            1 
  274000   0.84259416   -7.8176219    65.433712  0.019900764  0.020637297            4 
  275000   0.82022446   -7.7964945    65.525142  0.019856103  0.020575277            4 
  276000   0.82470693   -7.7930161    65.599375  0.019806575  0.020513189            3 
  277000   0.82222239   -7.8042987    65.389023  0.019671788  0.020450922            1 
  278000   0.79207843   -7.8148865    65.619128  0.019670002  0.020389307            1 
  279000    0.8329161   -7.8319143    65.603136  0.019594724  0.020327393            2 
  280000   0.81430995   -7.8294352    65.597948  0.019523199  0.020265351            2 
  281000   0.83742586   -7.8066338     65.89366  0.019541418  0.020203706            1 
  282000   0.81284123   -7.8662373    65.804595  0.019445802  0.020142526            1 
  283000   0.82041151   -7.8212504    66.217639  0.019498716  0.020081697            1 
  284000   0.79779474   -7.8479982    66.182764  0.019419825  0.020021057            3 
  285000    0.8133589   -7.8359924    66.034906  0.019308452  0.019959978            1 
  286000   0.81787439   -7.8704616    66.053418  0.019246334  0.019899368            2 
  287000   0.77725008    -7.846469    66.106999  0.019194831  0.019838347            2 
  288000   0.81392266   -7.8412852    66.318498   0.01918938  0.019777359            4 
  289000   0.80836135   -7.8350359    66.225913  0.019096284  0.019717051            2 
  290000   0.80970021   -7.8623384    66.604043  0.019139093  0.019656821            1 
  291000   0.81439374   -7.8998431     66.34717  0.018999762   0.01959691            5 
  292000   0.80123471   -7.8793229    66.435401  0.018959875  0.019536957            3 
  293000   0.81859999   -7.8705322    66.742336  0.018982462  0.019477398            1 
  294000   0.80272451   -7.8825427     66.68536  0.018901746  0.019418318            2 
  295000   0.80794601   -7.8637256    66.830162  0.018878577  0.019359559            1 
  296000     0.808041   -7.8769866    66.716885  0.018782907  0.019300913            1 
  297000   0.78580519   -7.8701925    66.914761  0.018775185  0.019242583            3 
  298000   0.78958294   -7.8700259    66.694438   0.01865057  0.019184428            3 
  299000   0.80187354   -7.8879266    67.092103  0.018699025  0.019126725            3 
  300000   0.78704597   -7.8912945    67.282591  0.018689609  0.019069363            5 
  301000   0.78707177    -7.891453    67.193404  0.018602825  0.019012362            4 
  302000   0.78333878   -7.9260555    67.217988   0.01854801  0.018955293            3 
  303000   0.76266334   -7.9149934    67.323082  0.018515699  0.018898385            2 
  304000   0.78438084   -7.9314338     67.12401  0.018400222  0.018841186            3 
  305000   0.78176329   -7.9065778    67.420342  0.018420859   0.01878448            1 
  306000   0.78126939   -7.9548741    67.334822   0.01833737  0.018727665            2 
  307000   0.76676665   -7.9296236    67.513544  0.018326152  0.018670959            1 
  308000   0.77464989   -7.9497694    67.586413  0.018286367  0.018615047            1 
  309000    0.7728279   -7.9574283    67.364536  0.018167351  0.018558432            1 
  310000    0.7957155   -7.9697621    67.500357  0.018145257  0.018502245            6 
  311000   0.77650787    -7.938492    67.662255  0.018130293  0.018446244            1 
  312000   0.76356146   -7.9339313    67.586667  0.018051994  0.018390152            3 
  313000   0.76600332   -7.9616927     67.78267  0.018046504  0.018334511            3 
  314000   0.77810922   -7.9740439    67.626952  0.017947705  0.018278672            4 
  315000   0.76241305     -7.95127    67.742118  0.017921195  0.018223206            3 
  316000   0.77566146   -7.9412401    67.856681  0.017894694  0.018167919            3 
  317000   0.76904323    -7.965658    67.717205  0.017801579   0.01811261            2 
  318000     0.778082   -7.9630673    68.045625  0.017831663  0.018057073            2 
  319000   0.76139981     -7.96562    68.055918  0.017778453  0.018001784            4 
  320000   0.74900031   -8.0088341    67.797958  0.017655718  0.017946651            1 
  321000   0.73242718   -7.9942268    67.858448   0.01761642  0.017891475            2 
  322000   0.75871299   -8.0205875    68.099724  0.017624152  0.017836583            5 
  323000   0.75000958   -7.9738709    68.090944  0.017567323  0.017781992            2 
  324000   0.76335343    -7.980054    68.067284  0.017507017  0.017727486            2 
  325000   0.74156381   -8.0004866    68.322278  0.017518533  0.017673275            1 
  326000    0.7453493    -7.994757    68.266352  0.017450499  0.017619359            1 
  327000   0.73645877   -8.0088373    68.222696  0.017386008  0.017565327            4 
  328000   0.73500399   -8.0116965    68.248113   0.01733946  0.017511608            6 
  329000   0.74708673   -8.0304869    68.360637  0.017315258  0.017457616            1 
  330000   0.76468615   -8.0271696    68.213629  0.017225664  0.017403413            2 
  331000   0.73828116   -8.0308145    68.120199  0.017150101   0.01734896            3 
  332000   0.74435349   -8.0321779    68.133206  0.017101708   0.01729468            2 
  333000   0.72425145   -8.0528093    68.081057  0.017037301  0.017240152            2 
  334000   0.73935881   -8.0695762    68.013238  0.016969371  0.017185185            2 
  335000   0.73961304   -8.0693814    68.174492  0.016958829  0.017130793            2 
  336000   0.73410815    -8.075897    67.985505  0.016861484  0.017076156            3 
  337000   0.73271545   -8.0654999    68.214268  0.016868019  0.017021923            3 
  338000   0.73802371    -8.066357    68.218741  0.016819216  0.016968091            3 
  339000   0.73065873   -8.1056073     68.18414  0.016761096  0.016914229            2 
  340000   0.71198423     -8.09456     68.46466  0.016780554  0.016860688            2 
  341000   0.73397092   -8.0680837    68.299724  0.016691037  0.016807205            2 
  342000   0.71903707   -8.0598627    68.382756  0.016662465  0.016753945            2 
  343000   0.72487407   -8.0646631    68.307879  0.016595695  0.016700923            1 
  344000   0.73797959   -8.0978772    68.145674  0.016508158   0.01664777            3 
  345000   0.70637793   -8.0808188    68.453415  0.016534641  0.016594857            2 
  346000   0.69764491   -8.0914227     68.44462  0.016484735  0.016542304            2 
  347000   0.72320045     -8.09467    68.266072   0.01639435  0.016489628            2 
  348000   0.72549751   -8.0975983    68.537412  0.016412216  0.016436873            5 
  349000    0.7066584   -8.0996829    68.463634  0.016347572  0.016384252            2 
  350000   0.71481118   -8.0740201    68.414418  0.016289147   0.01633147            3 
  351000   0.71363539   -8.0753614    68.312058  0.016218437  0.016278896            2 
  352000   0.71901041   -8.0687952    68.285154  0.016165993    0.0162263            3 
  353000   0.69763601   -8.1074586    68.448688  0.016158803  0.016174012            1 
  354000   0.69322008   -8.1105038    68.418035   0.01610594  0.016121586            3 
  355000   0.70180215   -8.1190789    68.388167   0.01605356  0.016069546            3 
  356000   0.70572656   -8.1357834    68.525308  0.016040568  0.016017619            4 
  357000   0.68079059   -8.1384551    68.392904   0.01596473  0.015965858            3 
  358000    0.6883759    -8.138099    68.550863  0.015956905  0.015914306            1 
  359000   0.68884716   -8.1312062    68.560585  0.015914713  0.015862883            2 
  360000   0.70247135   -8.1511134    68.435886   0.01584164  0.015811488            2 
  361000   0.68793721   -8.1569368    68.577196  0.015830378  0.015760392            3 
  362000   0.69204572   -8.1363565    68.613173  0.015794929  0.015709493            3 
  363000   0.69099026   -8.1369451    68.682495  0.015767331  0.015658753            1 
  364000   0.69298709   -8.1207024     68.65562  0.015717862  0.015608133            3 
  365000   0.69261231   -8.1369402    68.650355  0.015673597  0.015557865            4 
  366000   0.68433792   -8.1229505     68.65221  0.015631195  0.015507776            3 
  367000   0.68615857   -8.1489223    68.622855  0.015581938  0.015457823            1 
  368000   0.67631033   -8.1726904     68.60068  0.015534574   0.01540778            3 
  369000   0.68239159   -8.1751775    68.577267  0.015487188  0.015357809            4 
  370000   0.67379583   -8.1874214    68.538407  0.015436578  0.015307987            3 
  371000   0.68963275   -8.1714567    68.741892  0.015440676  0.015258509            2 
  372000    0.6627224   -8.1939946    68.529058  0.015351491  0.015208974            2 
  373000   0.67247139    -8.185742    68.505487  0.015305069  0.015159431            4 
  374000   0.68192377   -8.1937955    68.587343  0.015282385  0.015110121            2 
  375000   0.66806031   -8.1911362    68.745808  0.015276846  0.015060864            2 
  376000   0.67542478   -8.2152228    68.631556  0.015210894  0.015011863            3 
  377000   0.67312481   -8.2093699    68.705971  0.015186996  0.014962888            2 
  378000   0.66455601   -8.2011342    68.606103  0.015124802   0.01491398            5 
  379000   0.66768436     -8.21953    68.557428  0.015074193  0.014865414            2 
  380000   0.67833813   -8.2440509    68.563659   0.01503589  0.014816616            2 
  381000    0.6584169   -8.2297436    68.660822  0.015017678  0.014767979            2 
  382000   0.66706402   -8.2483896    68.511154  0.014945714  0.014719676            2 
  383000   0.65742048   -8.2548515    68.540366  0.014913048  0.014671257            2 
  384000   0.65039692   -8.2502867    68.505653  0.014866678  0.014622884            4 
  385000   0.65445872   -8.2470818    68.481773  0.014822895  0.014574847            3 
  386000   0.67422712   -8.2538535    68.542563  0.014797617  0.014526924            2 
  387000   0.65436323   -8.2460131    68.575014  0.014766368  0.014479185            3 
  388000    0.6613177   -8.2513734    68.562002  0.014725516  0.014431599            3 
  389000   0.64309875   -8.2480908     68.46999   0.01466795  0.014384081            5 
  390000   0.65186519    -8.246232    68.449465  0.014625954  0.014336715            6 
  391000   0.64322128   -8.2574166     68.57698  0.014615725  0.014289433            2 
  392000   0.64662098   -8.2500803    68.461842  0.014553963  0.014242419            3 
  393000   0.63862996   -8.2715859     68.43878   0.01451204  0.014195518            2 
  394000   0.64354976   -8.2989755    68.598391  0.014508966  0.014148796            1 
  395000    0.6361418     -8.25714    68.620651  0.014476931  0.014102406            2 
  396000   0.63510694   -8.2636906     68.53599  0.014422557  0.014055964            3 
  397000   0.63885926   -8.2475992    68.735866  0.014428183  0.014009631            5 
  398000   0.63949553   -8.2874622    68.577501  0.014358773  0.013963414            5 
  399000   0.63348955   -8.2829439    68.480511  0.014302529  0.013917418            1 
  400000   0.64185177   -8.2857202    68.599586   0.01429158  0.013871849            3 
  401000   0.62088795   -8.2823921    68.659339  0.014268358  0.013826187            2 
  402000   0.61089387   -8.3038492    68.501547  0.014200155  0.013780771            3 
  403000    0.6197743   -8.3024546    68.610855  0.014187522  0.013735527            3 
  404000   0.62417255   -8.2637267    68.698549  0.014170493  0.013690408            3 
  405000   0.62713057   -8.3126615    68.565435  0.014108114  0.013645498            2 
  406000   0.61070389   -8.3134272    68.566484   0.01407358  0.013600667            3 
  407000   0.60511332   -8.3093199    68.414391  0.014007861  0.013555894            2 
  408000   0.61820981   -8.3255255    68.498034  0.013990612  0.013511134            1 
  409000   0.61098097   -8.2926579    68.570603   0.01397119  0.013466562            3 
  410000   0.61041723   -8.3136208    68.369335  0.013896206  0.013422107            2 
  411000   0.61736214   -8.3275278    68.345209  0.013857504  0.013377807            2 
  412000   0.61528824   -8.3304017    68.515138   0.01385824  0.013333783            3 
  413000   0.60478154   -8.3299526    68.519706  0.013825607  0.013289857            1 
  414000   0.60231283   -8.3474127     68.40626  0.013769376  0.013246079            3 
  415000   0.59772008   -8.3359947    68.469079  0.013748811  0.013202423            2 
  416000   0.61172126   -8.3492568    68.625025     0.013747  0.013158973            3 
  417000    0.6007866    -8.342993    68.413089  0.013671681  0.013115639            3 
  418000   0.58903975   -8.3431853    68.282638  0.013612966  0.013072345            4 
  419000     0.590375   -8.3547213    68.433643   0.01361051  0.013029248            2 
  420000    0.5982808   -8.3615836     68.41863  0.013575125  0.012986322            2 
  421000   0.59468304   -8.3348512     68.41931  0.013543015  0.012943548            2 
  422000   0.60358122   -8.3685533    68.483111  0.013523521  0.012900835            4 
  423000   0.59120917   -8.3653735    68.510879  0.013497021  0.012858385            3 
  424000   0.59641341    -8.365889    68.474946  0.013458126  0.012816034            1 
  425000   0.58363367   -8.3651053    68.454698   0.01342249  0.012773827            2 
  426000    0.5827929   -8.3764908    68.378242  0.013376025  0.012731675            3 
  427000   0.57759233   -8.3739069    68.438706    0.0133565  0.012689694            2 
  428000   0.58999953   -8.3934931     68.30332  0.013298933   0.01264784            1 
  429000   0.57319073   -8.3990451    68.327923  0.013272712  0.012606103            2 
  430000   0.56718282   -8.3755984    68.309839  0.013238341  0.012564476            1 
  431000   0.58108617   -8.3980535     68.18884   0.01318423  0.012523037            1 
  432000   0.57003983    -8.384418    68.291005  0.013173419  0.012481629            3 
  433000   0.57597788   -8.4080961    68.206441  0.013126721  0.012440305            2 
  434000   0.59189763   -8.3830017    68.326302   0.01311949  0.012399173            3 
  435000   0.57461279   -8.4080216    68.246259  0.013073996  0.012358261            2 
  436000   0.57916169   -8.4036096    68.287418  0.013051877  0.012317361            2 
  437000   0.57060712   -8.4172105    68.260725  0.013016919  0.012276688            3 
  438000   0.57333657   -8.4198497    68.255523  0.012986211  0.012236198            7 
  439000   0.56169088   -8.4214438      68.2392  0.012953531  0.012195734            2 
  440000   0.57009531   -8.4354617    68.339637  0.012943113  0.012155448            2 
  441000   0.55227146   -8.4196886    68.251883  0.012897181  0.012115349            2 
  442000   0.57243733   -8.4323007     68.26016  0.012869563  0.012075442            2 
  443000   0.57202719   -8.4240406    68.255031  0.012839547   0.01203556            2 
  444000    0.5529607   -8.4098083    68.266597    0.0128128  0.011995857            2 
  445000   0.55082026   -8.4442177    68.278459  0.012786228  0.011956251            1 
  446000   0.54784279   -8.4551841    68.269512  0.012755888  0.011916906            2 
  447000   0.54979062   -8.4381817     68.28167  0.012729618  0.011877624            1 
  448000   0.55552239    -8.447774    68.211454  0.012688143  0.011838569            3 
  449000   0.55449485   -8.4560364       68.277  0.012672049  0.011799623            2 
  450000   0.54890983   -8.4453583    68.215756  0.012632547  0.011760849            2 
  451000   0.53105483   -8.4448865    68.137671  0.012590109  0.011722214            3 
  452000   0.53876648   -8.4521948     68.22185  0.012577775  0.011683743            2 
  453000   0.54716339    -8.454487    68.185898  0.012543396  0.011645437            1 
  454000   0.54154495    -8.464988    68.260946  0.012529542  0.011607262            2 
  455000   0.53972555   -8.4411346     68.18988  0.012488989  0.011569161            2 
  456000   0.54417291   -8.4686576    68.140595  0.012452594  0.011531254            2 
  457000   0.54152727   -8.4608479    68.067801  0.012412072  0.011493524            2 
  458000   0.54069947   -8.4766446     68.15558  0.012400943   0.01145592            1 
  459000   0.53168917   -8.4659063    68.075132  0.012359319  0.011418414            4 
  460000   0.54271177   -8.4856899    68.163745  0.012348504  0.011381043            3 
  461000    0.5339852   -8.4629243    68.049518   0.01230107  0.011343733            2 
  462000   0.53081613   -8.4808781    67.993019  0.012264253  0.011306559            3 
  463000   0.53795394   -8.4707411    68.134557  0.012263239  0.011269542            4 
  464000   0.53169735    -8.477526    68.087133  0.012228293  0.011232696            4 
  465000   0.53167066   -8.4965345    67.990978  0.012184763  0.011195985            5 
  466000   0.50256458   -8.5080797    67.959547  0.012152995  0.011159339            4 
  467000   0.51593703   -8.5090789    68.036822  0.012140761  0.011122905            3 
  468000   0.52084155   -8.5058539    67.963574  0.012101776  0.011086568            3 
  469000   0.52227496   -8.5012622    67.991293  0.012080898  0.011050362            5 
  470000   0.51164266    -8.498977    67.904781  0.012039855  0.011014327            3 
  471000   0.51123408   -8.5230066    67.892969  0.012012202  0.010978324            5 
  472000   0.50806291   -8.5007964    67.984054  0.012002834  0.010942505            4 
  473000   0.51639057   -8.5151241    67.943165  0.011970255  0.010906765            5 
  474000   0.50975724    -8.510961    68.041896  0.011962359  0.010871219            4 
  475000   0.50599844    -8.520721    67.898329  0.011911988   0.01083581            4 
  476000   0.51466199   -8.5165877    67.866348  0.011881363  0.010800542            2 
  477000   0.50535759   -8.5342823    67.895677  0.011861579  0.010765407            5 
  478000   0.50348568   -8.5102335    67.883034   0.01183456  0.010730414            2 
  479000   0.51227608   -8.5107554     67.86728  0.011807112  0.010695526            1 
  480000   0.49471077   -8.5369728    67.883058  0.011785253  0.010660846            4 
  481000   0.49536735   -8.5311007    68.019315  0.011784358  0.010626258            2 
  482000   0.48951757   -8.5412099    67.819216  0.011725314  0.010591766            2 
  483000   0.50366829   -8.5448735    67.852131  0.011706717  0.010557423            2 
  484000   0.51501272   -8.5236303    67.816793  0.011676445  0.010523197            6 
  485000    0.4923601   -8.5467076    67.901631  0.011666947  0.010489166            3 
  486000   0.48141917   -8.5325843    67.817119   0.01162845  0.010455209            3 
  487000   0.49765283   -8.5597551    67.929505  0.011623803   0.01042144            3 
  488000   0.48355384   -8.5492653    67.890174  0.011593267  0.010387784            3 
  489000   0.49210877   -8.5528795    67.862872  0.011564907  0.010354236            3 
  490000   0.48031781    -8.564689    67.856406  0.011540205  0.010320858            2 
  491000   0.48002346   -8.5497337    67.799687  0.011507075  0.010287586            3 
  492000   0.48531829   -8.5684739    67.809587  0.011485364  0.010254372            4 
  493000   0.48189215   -8.5687649    67.727891  0.011448257  0.010221325            3 
  494000   0.47879991   -8.5773246    67.911353  0.011456031  0.010188427            2 
  495000   0.47434772   -8.5819269     67.76288  0.011407892  0.010155705            3 
  496000   0.47812066   -8.5769911    67.752038  0.011383071  0.010123074            4 
  497000   0.47918888   -8.5897607    67.854045  0.011377271  0.010090589            3 
  498000    0.4780942   -8.5809828     67.71436  0.011331051  0.010058207            4 
  499000   0.47227778   -8.5690203    67.748526  0.011314049  0.010025977            4 
  500000   0.47459693   -8.5757189    67.657151  0.011276192 0.0099938872            4 
  501000   0.47087839    -8.593289    67.741079  0.011267645 0.0099619608            2 
  502000   0.45697954   -8.5875181    67.739927  0.011245008 0.0099301278            2 
  503000   0.46717132   -8.5985339    67.667343  0.011210627  0.009898451            2 
  504000    0.4596591   -8.5935456    67.742912  0.011200878 0.0098668701            3 
  505000   0.46771694   -8.5983233      67.6449  0.011162525 0.0098354455            3 
  506000   0.45163393   -8.5933856    67.658319  0.011142674 0.0098041336            5 
  507000   0.45850782   -8.6002332    67.715027  0.011130018  0.009772928            3 
  508000   0.46228379   -8.6007589    67.652983   0.01109793 0.0097418919            3 
  509000   0.44348075   -8.6077661    67.778285  0.011096641 0.0097109691            3 
  510000   0.45340225   -8.6084607    67.733514  0.011067568 0.0096802006            3 
  511000   0.45303826   -8.6162858    67.693518  0.011039387  0.009649553            2 
  512000    0.4477172   -8.6020103     67.64741  0.011010321  0.009618989            2 
Loop time of 1200.64 on 48 procs for 500000 steps with 4000 atoms

Performance: 71961.911 tau/day, 416.446 timesteps/s
99.4% CPU use with 48 MPI tasks x no OpenMP threads

MPI task timing breakdown:
Section |  min time  |  avg time  |  max time  |%varavg| %total
---------------------------------------------------------------
Pair    | 72.934     | 79.892     | 86.574     |  33.9 |  6.65
Neigh   | 7.7502     | 8.1612     | 8.7126     |   6.6 |  0.68
Comm    | 75.43      | 82.802     | 91.144     |  37.9 |  6.90
Output  | 0.82896    | 0.82952    | 0.84138    |   0.2 |  0.07
Modify  | 1014.8     | 1017.7     | 1020.7     |   4.5 | 84.76
Other   |            | 11.26      |            |       |  0.94

Nlocal:        83.3333 ave          91 max          78 min
Histogram: 7 3 8 9 4 4 6 4 1 2
Nghost:        2052.02 ave        2069 max        2035 min
Histogram: 6 4 3 3 3 10 6 8 2 3
Neighs:        13284.5 ave       14901 max       11565 min
Histogram: 1 2 4 9 8 8 5 7 1 3
FullNghs:      26568.1 ave       29140 max       24641 min
Histogram: 5 3 10 7 7 3 1 8 2 2

Total # of neighbors = 1275270
Ave neighs/atom = 318.81750
Neighbor list builds = 26794
Dangerous builds = 0

#clear
#
#next RN
#
#jump SELF
Total wall time: 0:20:03
