
units lj                  # Use reduced LJ style units
atom_style atomic         # Uncharged point particles
atom_modify map hash      # Needed for indexing of clusters etc
                          # Used to be able to find where atoms are in relation to each other.

lattice fcc 1.0 spacing 1 1 1
Lattice spacing in x,y,z = 1.5874011 1.5874011 1.5874011
region box block 0 10 0 10 0 10 units lattice
create_box 2 box
Created orthogonal box = (0.0000000 0.0000000 0.0000000) to (15.874011 15.874011 15.874011)
  3 by 4 by 4 MPI processor grid
create_atoms 1 box
Created 4000 atoms
  using lattice units in orthogonal box = (0.0000000 0.0000000 0.0000000) to (15.874011 15.874011 15.874011)
  create_atoms CPU = 0.016 seconds
set type 1 type/fraction 2 0.28 78393
Setting atom values ...
  1153 settings made for type/fraction
mass 1 1.0
mass 2 1.0
pair_style lj/cut  3.5
pair_modify tail  yes
pair_coeff 1  1  1.0  1.0   # Intearaction between 1 and 1 set with epsilon = 1 and sigma = 1
pair_coeff 1  2  1.5  0.8
pair_coeff 2  2  0.5  0.88

write_data data.0
System init for write_data ...
Neighbor list info ...
  update every 1 steps, delay 10 steps, check yes
  max neighbors/atom: 2000, page size: 100000
  master list distance cutoff = 3.8
  ghost atom cutoff = 3.8
  binsize = 1.9, bins = 9 9 9
  1 neighbor lists, perpetual/occasional/extra = 1 0 0
  (1) pair lj/cut, perpetual
      attributes: half, newton on
      pair build: half/bin/atomonly/newton
      stencil: half/bin/3d
      bin: standard
WARNING: Not all mixed pair coeffs generated from mixing. Use write_data with 'pair ij' option to store all pair coeffs. (../write_data.cpp:312)


#############################
#   M E L T   S Y S T E M   #
#############################

velocity all create 2.4 6229865 mom yes dist gaussian # Assign velocities
                                                    # Temperature 2.4, random number seed, zero linear momentum
                                                                                # Gaussian distribution

timestep 0.002   # simulation timestep
thermo 1000       # output thermodynamic data every 1000 steps bf 100

# Define a fix  in this case with index 1 applied to all
# particles in the simulation. This fix is for simulations
# in the anisotropic NPT ensemble. Note that we use the MTK
# correction.
fix 1 all npt temp 2.4 2.4 0.1 iso 5.68 5.68 0.5 mtk yes tchain 5 pchain 5 # Use NPT ensemble
                                                                         # Set temperature and pressure and damping
                                                                         # Numbers of thermostats in chain and in barostat
run 10000          # run for 10000 steps
Per MPI rank memory allocation (min/avg/max) = 3.642 | 3.644 | 3.648 Mbytes
Step Temp E_pair E_mol TotEng Press Volume 
       0          2.4   -6.5468678            0   -2.9477678   -3.9245899         4000 
    1000    2.4151398   -4.9234316            0   -1.3016275     5.505978    4243.0568 
    2000     2.428277   -4.9294767            0   -1.2879719    5.4162709    4256.0481 
    3000    2.4196198     -4.96196            0   -1.3334377    5.5676288    4224.8531 
    4000    2.3617259   -4.9981541            0    -1.456451     5.557734    4201.7485 
    5000    2.4117117   -4.9911272            0    -1.374464    5.6289191     4213.016 
    6000    2.4056229   -4.8987658            0   -1.2912336    5.6163457    4245.7907 
    7000    2.4273593   -4.9975339            0   -1.3574052    5.7649664    4188.4938 
    8000    2.3788139   -4.9729605            0   -1.4056318     5.816309    4199.6439 
    9000    2.4204788   -5.0184769            0   -1.3886663    5.6989445    4187.6828 
   10000    2.3959653   -4.9506655            0    -1.357616    5.5853997    4227.2231 
Loop time of 2.36587 on 48 procs for 10000 steps with 4000 atoms

Performance: 730386.008 tau/day, 4226.771 timesteps/s
99.6% CPU use with 48 MPI tasks x no OpenMP threads

MPI task timing breakdown:
Section |  min time  |  avg time  |  max time  |%varavg| %total
---------------------------------------------------------------
Pair    | 0.99638    | 1.0956     | 1.1805     |   3.5 | 46.31
Neigh   | 0.19521    | 0.20945    | 0.22324    |   1.2 |  8.85
Comm    | 0.73184    | 0.81277    | 0.8991     |   4.5 | 34.35
Output  | 0.00024281 | 0.00024689 | 0.00031569 |   0.0 |  0.01
Modify  | 0.20051    | 0.23284    | 0.26258    |   3.4 |  9.84
Other   |            | 0.01496    |            |       |  0.63

Nlocal:        83.3333 ave          94 max          74 min
Histogram: 2 0 7 6 14 6 4 5 2 2
Nghost:        1584.94 ave        1614 max        1548 min
Histogram: 3 0 2 5 7 14 3 6 3 5
Neighs:        9018.44 ave       10733 max        7670 min
Histogram: 2 2 8 9 9 10 3 3 0 2

Total # of neighbors = 432885
Ave neighs/atom = 108.22125
Neighbor list builds = 905
Dangerous builds = 200

# Equilibrate just above the melting temperature to avoid step fn in T

fix 1 all npt temp 1.25 1.25 0.1 iso 5.68 5.68 0.5 mtk yes tchain 5 pchain 5
run 2000
Per MPI rank memory allocation (min/avg/max) = 3.643 | 3.645 | 3.649 Mbytes
Step Temp E_pair E_mol TotEng Press Volume 
   10000    2.3959653   -4.9506655            0    -1.357616    5.5853997    4227.2231 
   11000    1.2370975   -6.7730762            0   -4.9178939     5.802893    3402.3695 
   12000    1.2573037   -6.7913695            0   -4.9058854    5.8341942    3396.0777 
Loop time of 0.553372 on 48 procs for 2000 steps with 4000 atoms

Performance: 624534.374 tau/day, 3614.204 timesteps/s
99.6% CPU use with 48 MPI tasks x no OpenMP threads

MPI task timing breakdown:
Section |  min time  |  avg time  |  max time  |%varavg| %total
---------------------------------------------------------------
Pair    | 0.2333     | 0.26546    | 0.28933    |   2.5 | 47.97
Neigh   | 0.034522   | 0.038455   | 0.040529   |   0.7 |  6.95
Comm    | 0.17253    | 0.20124    | 0.23751    |   3.1 | 36.37
Output  | 5.1198e-05 | 5.2412e-05 | 6.7106e-05 |   0.0 |  0.01
Modify  | 0.039864   | 0.043478   | 0.047453   |   1.0 |  7.86
Other   |            | 0.004684   |            |       |  0.85

Nlocal:        83.3333 ave          92 max          74 min
Histogram: 1 2 4 7 5 15 4 3 3 4
Nghost:        1835.62 ave        1859 max        1812 min
Histogram: 3 5 4 6 5 5 6 8 4 2
Neighs:        11271.1 ave       13075 max        9076 min
Histogram: 2 0 3 4 9 11 9 4 4 2

Total # of neighbors = 541015
Ave neighs/atom = 135.25375
Neighbor list builds = 141
Dangerous builds = 12

#############################
# L I N E A R  Q U E N C H  #
#############################

# Define solid atoms. This closely follows ten Wolde  Ruiz-Montero and Frenkel  Faraday Discuss  1996  104  93-110
# Compute components of the per-atom q6 vector
compute q6 all orientorder/atom degrees 1 6 components 6 nnn NULL cutoff 1.3 # compute the Q6 parameter.
                                                                             # Use all neighbours within 1.3 unit cell.

# get number of connections
compute coord_number all coord/atom orientorder q6 0.5

# An atom is solid if it has 8 or more connections (of a possible 14)
variable is_solid atom c_coord_number>=8
group solid dynamic all var is_solid    # Must be dynamic to update
dynamic group solid defined

# do clustering
compute cluster solid cluster/atom 1.3 # Create a cluster where all atoms within are solid and max 1.3 units from another member

# define chunks one chunk per cluster
compute clus_chunks solid chunk/atom c_cluster nchunk every compress yes  # Says which atoms are in which chunk

# count the size of each chunk
compute size_chunks solid property/chunk clus_chunks count


# Find the maximum entry in the vector of chunk sizes
variable max_n equal max(c_size_chunks)


# Thermo style which includes this variable
# thermo_style custom step temp pe vol v_max_n

thermo ${N}  # Print the thermo information every 100 steps
thermo 1000  

# Reset the npt fix at a lower temperature (below freezing)
fix 1  all npt temp  ${temp} ${temp}  0.1  iso  5.68  5.68  0.5  mtk yes tchain  5  pchain  5
fix 1  all npt temp  0.45 ${temp}  0.1  iso  5.68  5.68  0.5  mtk yes tchain  5  pchain  5
fix 1  all npt temp  0.45 0.45  0.1  iso  5.68  5.68  0.5  mtk yes tchain  5  pchain  5

dump dmp2 all dcd ${N} traj.dcd
dump dmp2 all dcd 1000 traj.dcd


compute msd all msd com yes
variable twopoint equal c_msd[4]/6/(step*dt+1.0e-6)
fix 9 all vector 10 c_msd[4]
variable fit equal slope(f_9)/6/(10*dt)
thermo_style custom step temp pe c_msd[4] v_twopoint v_fit v_max_n

fix 1 all npt temp 1.25 ${temp} 0.1 iso 5.68 5.68 0.5 mtk yes tchain 5 pchain 5
fix 1 all npt temp 1.25 0.45 0.1 iso 5.68 5.68 0.5 mtk yes tchain 5 pchain 5
run 2000000 # 5000000  # Run for this many steps
Neighbor list info ...
  update every 1 steps, delay 10 steps, check yes
  max neighbors/atom: 2000, page size: 100000
  master list distance cutoff = 3.8
  ghost atom cutoff = 3.8
  binsize = 1.9, bins = 8 8 8
  4 neighbor lists, perpetual/occasional/extra = 1 3 0
  (1) pair lj/cut, perpetual
      attributes: half, newton on
      pair build: half/bin/atomonly/newton
      stencil: half/bin/3d
      bin: standard
  (2) compute orientorder/atom, occasional
      attributes: full, newton on
      pair build: full/bin/atomonly
      stencil: full/bin/3d
      bin: standard
  (3) compute coord/atom, occasional
      attributes: full, newton on
      pair build: full/bin/atomonly
      stencil: full/bin/3d
      bin: standard
  (4) compute cluster/atom, occasional
      attributes: full, newton on
      pair build: full/bin/atomonly
      stencil: full/bin/3d
      bin: standard
Per MPI rank memory allocation (min/avg/max) = 9.805 | 9.812 | 9.817 Mbytes
Step Temp PotEng c_msd[4] v_twopoint v_fit v_max_n 
   12000    1.2573037   -6.7913695            0            0 8.3333333e+20            1 
   13000    1.2511716   -6.7972349   0.53498974 0.0034294213  0.044277362            1 
   14000    1.2437502   -6.8407457    1.0445586 0.0062176103  0.043830351            1 
   15000    1.2720477   -6.8483169    1.5101158 0.0083895319  0.041514838            2 
   16000    1.2349293   -6.7852744    2.0134509  0.010486723  0.041414685            1 
   17000    1.2374829   -6.8520077    2.4611266  0.012064346  0.040879088            1 
   18000    1.2351136    -6.837738    2.9497327  0.013656169   0.04038824            2 
   19000    1.2728467   -6.8345188     3.489602  0.015305272  0.040406457            3 
   20000    1.2327193   -6.8501824    4.0321786  0.016800744  0.040901942            1 
   21000    1.2447921   -6.8179071    4.4271857  0.017568197  0.041053964            1 
   22000    1.2504003   -6.8564405    4.8423674    0.0183423  0.040639539            3 
   23000      1.27383   -6.8132429    5.3500554  0.019384258  0.040420831            2 
   24000    1.2364689   -6.8405864    5.7438181  0.019943812  0.040142881            1 
   25000    1.2442336   -6.8182412     6.252314  0.020841046  0.039904592            1 
   26000    1.2129216   -6.8614933    6.7110959  0.021509922  0.039750252            2 
   27000    1.2264145   -6.8132411    7.1128963  0.021953383   0.03954598            1 
   28000     1.251826   -6.8327743    7.6151689  0.022664193  0.039340104            5 
   29000    1.2128435   -6.8391199    8.0816616  0.023223165  0.039220426            2 
   30000    1.2369985   -6.8511267     8.592662  0.023868505  0.039207702            3 
   31000    1.2486386   -6.8410815    8.9425669  0.024039158  0.039087892            2 
   32000    1.2325817   -6.7926099    9.3827253   0.02443418  0.038936885            1 
   33000    1.2278174   -6.8729138    9.9134003  0.025033839  0.038840358            3 
   34000    1.2451942   -6.8275472    10.412257  0.025520238  0.038831745            1 
   35000    1.2653388    -6.813443    10.907425   0.02597006  0.038847044            2 
   36000    1.2435676   -6.8081657    11.482111  0.026578961  0.038886117            1 
   37000     1.297233   -6.8518499    11.903808  0.026810379  0.038993483            1 
   38000    1.2257875   -6.8199948    12.228248  0.026816332  0.038987916            2 
   39000    1.2104928   -6.8067007    12.762301  0.027269874  0.038953597            2 
   40000    1.2500455   -6.7989693    13.352242   0.02781717  0.038974742            2 
   41000    1.2282233   -6.8312377      13.9705  0.028395325  0.039092487            2 
   42000    1.2373407   -6.8816759    14.405962  0.028583258  0.039236127            3 
   43000      1.24019   -6.8674897    14.828493   0.02873739  0.039318877            1 
   44000    1.2263908   -6.8347428    15.200046  0.028787965  0.039325398            2 
   45000    1.2401744   -6.8833264     15.48262  0.028671518  0.039289465            1 
   46000     1.252766   -6.8403819    15.962473  0.028917523  0.039216267            2 
   47000    1.2544518   -6.8494458    16.397738  0.029074004  0.039166496            1 
   48000    1.2255924   -6.8419725    16.799765  0.029166259  0.039099082            3 
   49000    1.2399988   -6.8455459    17.469214  0.029709547  0.039045845            1 
   50000    1.2378906   -6.8203267    17.906025  0.029843375  0.039042286            2 
   51000    1.2305979   -6.8496122     18.27615   0.02986299  0.039016476            1 
   52000    1.2537554   -6.8519876    18.650463  0.029888563  0.038959675            2 
   53000    1.2691023   -6.8156426    18.855363  0.029646797  0.038845569            1 
   54000     1.239165    -6.857414    19.158516  0.029565611   0.03869278            1 
   55000    1.2308668   -6.8939806     19.49951  0.029544711  0.038534893            2 
   56000    1.2415483   -6.8540797     19.99426  0.029753362  0.038404226            2 
   57000    1.2005469   -6.8561321    20.549689  0.030043405  0.038303928            2 
   58000    1.2432733   -6.8092182    21.130796  0.030360338  0.038232158            5 
   59000    1.2118886   -6.8454239    21.559258  0.030450929  0.038173922            2 
   60000    1.2377546    -6.859594      21.9318  0.030460833  0.038112576            1 
   61000    1.2177686   -6.8204767    22.285696   0.03044494  0.038033755            1 
   62000    1.2264724   -6.8908728    22.629269  0.030415684  0.037958357            4 
   63000    1.2441664   -6.8840937    23.163597  0.030639679  0.037876763            1 
   64000    1.2354982   -6.8341239    23.693724  0.030851203  0.037811959            3 
   65000    1.2303053   -6.8907093    23.986691  0.030752168   0.03774571            2 
   66000    1.2138181   -6.8539746    24.439218  0.030857598  0.037686797            1 
   67000     1.251854   -6.8768632     24.92403  0.031000037  0.037633765            2 
   68000    1.2216425   -6.8569875    25.373008  0.031094373  0.037592706            2 
   69000    1.2161743   -6.8587972    25.904266  0.031285345  0.037560055            2 
   70000    1.2243352    -6.899501    26.253596  0.031254281  0.037528894            1 
   71000    1.2278552   -6.9199837    26.538293  0.031148231  0.037482026            1 
   72000    1.2040417   -6.8335535    26.985449  0.031233158  0.037427748            1 
   73000    1.2114688   -6.8528561     27.42323  0.031305057  0.037372723            2 
   74000    1.2352101   -6.8470723    27.856363  0.031369778  0.037323067            1 
   75000    1.2279528   -6.8797103     28.18335  0.031314833   0.03726734            3 
   76000    1.2168587    -6.850324    28.623041  0.031384913  0.037212557            3 
   77000     1.234242   -6.8985575     29.07363  0.031464967   0.03715857            3 
   78000    1.2045673   -6.8450758    29.567652  0.031589372  0.037110374            1 
   79000    1.2092647    -6.885053    30.008354  0.031654381  0.037071938            1 
   80000    1.2177338    -6.867227    30.507239  0.031778373  0.037037692            1 
   81000    1.2139784   -6.8546936    30.946485  0.031837948  0.037009773            1 
   82000     1.223964   -6.9145527    31.358276  0.031868166  0.036984696            1 
   83000    1.2264209   -6.8996306    31.948242  0.032076548  0.036971149            2 
   84000    1.2028136   -6.8883482    32.351772  0.032095011  0.036959782            2 
   85000    1.2512249   -6.8616258    32.920731  0.032275226  0.036952728            1 
   86000     1.200012   -6.8751356    33.272668  0.032240957  0.036940727            1 
   87000    1.2193345   -6.9169594    33.699695  0.032279402   0.03693794            2 
   88000    1.2376276   -6.8882911    34.205768  0.032391826  0.036929748            1 
   89000    1.2136748   -6.8971058    34.582845  0.032380941  0.036929017            4 
   90000    1.2187391   -6.8707454    35.086166  0.032487191  0.036928157            1 
   91000    1.2094392    -6.878943    35.549321  0.032554323  0.036925916            1 
   92000    1.2419177   -6.8644682    36.008555  0.032616444   0.03692186            1 
   93000    1.2210922    -6.906261    36.410539  0.032625931  0.036918032            1 
   94000    1.1944791   -6.8786147    36.882964  0.032697663   0.03691359            1 
   95000     1.206787   -6.8766784    37.296097  0.032715875  0.036913679            1 
   96000    1.2274344   -6.9141577    37.533904  0.032581513  0.036904531            4 
   97000    1.2046616   -6.8927838    38.163949  0.032786898  0.036891942            2 
   98000    1.2169218   -6.8983589    38.756073  0.032955844  0.036885692            2 
   99000    1.2148517   -6.8907667    38.956955   0.03279205   0.03688187            3 
  100000    1.2281151   -6.8686654    39.489176  0.032907646  0.036878104            1 
  101000    1.2384735   -6.9368439    40.026196  0.033024914  0.036879875            3 
  102000    1.1955929   -6.8823161    40.500914  0.033088982  0.036883189            1 
  103000    1.2030684   -6.8973807    40.945474  0.033127406  0.036887431            2 
  104000    1.2066409    -6.892812    41.249628  0.033052586  0.036882823            2 
  105000    1.2011505   -6.8904235    41.819874  0.033190376  0.036880442            2 
  106000    1.2228423   -6.8903362    42.225176  0.033195893   0.03688029            5 
  107000    1.2010536   -6.9158596    42.785065  0.033321701  0.036882074            1 
  108000    1.2033161     -6.92944    43.041151  0.033210764  0.036887675            2 
  109000    1.2333656   -6.9082946    43.621266  0.033349591   0.03689493            2 
  110000    1.2007035    -6.874709    44.018593  0.033347419  0.036901975            1 
  111000    1.2184405   -6.9128663    44.612647  0.033492978  0.036909156            1 
  112000     1.213865   -6.8870738    45.194015  0.033626499  0.036920582            2 
  113000    1.2153717   -6.9129582    45.545805  0.033588352   0.03693509            2 
  114000    1.2054459   -6.8963359    46.008939  0.033632265  0.036948948            2 
  115000    1.1889618   -6.9268076    46.415704  0.033634568  0.036962643            2 
  116000    1.1854016    -6.911019    46.958205  0.033734342  0.036977223            1 
  117000    1.2075232   -6.9215502    47.259742  0.033660784  0.036988199            2 
  118000     1.183387   -6.8767016    47.970135  0.033877214  0.036995696            1 
  119000    1.2194789    -6.905929    48.214961  0.033763978  0.037004657            1 
  120000     1.204277   -6.8925646    48.489233  0.033673079  0.037006511            1 
  121000    1.2418463   -6.9064565    48.950796   0.03371267  0.037008253            1 
  122000    1.2057785     -6.88258    49.534748   0.03383521  0.037007419            2 
  123000    1.2242877   -6.9357023    49.882964  0.033796046  0.037009104            1 
  124000    1.2084589   -6.9255536    50.449718   0.03390438  0.037010546            1 
  125000    1.1954856   -6.9021665     51.16865  0.034112433  0.037021613            3 
  126000    1.2190046   -6.9007812    51.339024  0.033954381  0.037031149            1 
  127000    1.1619042   -6.9487611    51.739396  0.033949735  0.037035896            2 
  128000    1.2004256   -6.9426231     52.07385  0.033902246  0.037038652            1 
  129000     1.216858    -6.902682    52.578754  0.033965603  0.037041607            2 
  130000    1.1906779   -6.9567913    52.618149  0.033729583  0.037036918            3 
  131000     1.211374   -6.9544246    53.122405  0.033792878  0.037027259       -1e+20 
  132000    1.2281198    -6.890175    53.693726  0.033897554  0.037019533            3 
  133000    1.2203031   -6.9302902    54.267159  0.034001979  0.037014933            1 
  134000    1.2067517   -6.9018903    54.427973  0.033848242  0.037011221            1 
  135000    1.2204345   -6.8954217      55.1023  0.034013765  0.037009297            2 
  136000    1.2110502   -6.8686403    55.667891  0.034110227  0.037006701            1 
  137000    1.1957462   -6.8930577    56.031093  0.034082173   0.03700533            2 
  138000    1.2227701    -6.954629    56.198418  0.033936243  0.036997647            1 
  139000    1.2009959   -6.9094488    56.514282  0.033881464  0.036986484            2 
  140000     1.207806   -6.9216076    56.897464  0.033867538   0.03697317            1 
  141000    1.1700186   -6.9278303    57.152709  0.033778196  0.036953853            2 
  142000    1.1776133   -6.9238797     57.33253  0.033645851  0.036932954            2 
  143000    1.2070179   -6.9197405    57.936662  0.033762623  0.036910189            1 
  144000    1.1508578   -6.9432398    58.332554  0.033757265  0.036891008            1 
  145000    1.1959807   -6.9515607    58.643255   0.03370302  0.036868484            1 
  146000    1.1961274   -6.9426384      58.9695   0.03365839  0.036846287            1 
  147000    1.1851875   -6.9463165     59.52006  0.033741531  0.036824781            1 
  148000    1.1734456   -6.9233351    60.019534  0.033794783  0.036801312            3 
  149000    1.1953455   -6.9307555    60.399606   0.03378054   0.03678331            1 
  150000    1.2073347   -6.9144944     60.89605  0.033831139  0.036766318            1 
  151000     1.193306   -6.9342825    61.427408  0.033900336  0.036751159            2 
  152000    1.1818098   -6.9473239     61.94426  0.033960669  0.036738291            1 
  153000    1.1807965   -6.9203783    62.559341  0.034073715   0.03672745            2 
  154000    1.1757131    -6.958434    62.698927  0.033927991  0.036714296            1 
  155000    1.1927859   -6.9417792    62.989731  0.033865447  0.036701894            1 
  156000    1.2039886   -6.9615449    63.768107   0.03406416  0.036691331            2 
  157000    1.1814918   -6.9375434    63.976489  0.033957797  0.036681624            6 
  158000    1.2061249   -6.9508249     64.64382  0.034094842   0.03666953            4 
  159000    1.2167748   -6.9746317    64.812573  0.033968854   0.03665757            1 
  160000    1.1809833   -6.9539383     65.12926  0.033921489  0.036643482            2 
  161000    1.1828804    -6.938778    65.457208  0.033880543   0.03662924            2 
  162000    1.2039714   -6.9244416    66.177386  0.034041865  0.036614612            2 
  163000    1.1865181   -6.9279023    66.711143  0.034105901  0.036601769            2 
  164000    1.1925406   -6.9757171    66.690039  0.033887215  0.036590416            1 
  165000    1.1709893   -6.9642251    67.281951  0.033980783   0.03657652            2 
  166000    1.1940853   -6.9195795    67.941664  0.034107261  0.036564094            1 
  167000    1.1711007   -6.9336514    68.048593  0.033956384  0.036552066            4 
  168000    1.2142422   -6.9459552    68.370868  0.033914121  0.036536258            1 
  169000    1.1730536   -6.9326824    68.742454  0.033896673  0.036520151            3 
  170000    1.1754833   -6.9337997    69.402949  0.034021054  0.036506987            2 
  171000    1.1825917   -6.9359704    70.102543  0.034163033  0.036496265            2 
  172000    1.2038112   -6.9613364    70.275097  0.034048012  0.036485664            1 
  173000    1.2136784   -6.9588725    70.481352  0.033950555  0.036474806            2 
  174000    1.2063567   -6.8837038    71.277306  0.034136641  0.036462636            2 
  175000    1.1652982    -6.987511    71.050028  0.033833347  0.036447902            2 
  176000    1.1579049   -6.9563177    71.763609  0.033978981  0.036431759            3 
  177000    1.1839353   -6.9243848    72.429898  0.034100705  0.036418705            1 
  178000    1.1913685   -6.9463129    72.970323  0.034162136  0.036407983            1 
  179000    1.1682294   -6.9712885    73.336474  0.034141747  0.036397879            1 
  180000    1.1940978   -6.9703325    73.404935  0.033983766  0.036387736            1 
  181000    1.1857437   -6.9779408    74.050114  0.034093054  0.036376803            2 
  182000    1.1776451   -6.9805095    74.484168  0.034104472  0.036365477            2 
  183000    1.1901751   -6.9510389    74.733356  0.034031583  0.036352904            2 
  184000     1.185824   -6.9613098    75.152814    0.0340366  0.036340152       -1e+20 
  185000    1.1875314   -6.9606939    75.509694  0.034013375  0.036325468            3 
  186000    1.2008185   -6.9652836    76.200739  0.034140116  0.036314997            1 
  187000    1.1949083   -6.9697529    76.593377  0.034132521  0.036304699            2 
  188000    1.1884267   -6.9509043    76.943107  0.034105987  0.036295434            1 
  189000    1.1846685   -6.9851061    77.351134  0.034105438  0.036286005            2 
  190000    1.1754322   -6.9883665    77.740332  0.034096637  0.036276864            2 
  191000    1.1712914   -6.9753289    78.564161  0.034277557  0.036269632            2 
  192000    1.1767378   -6.9529127    78.555337  0.034095198  0.036260206            3 
  193000    1.1753969    -6.978691    79.312312  0.034245385  0.036250488            3 
  194000    1.1520159   -6.9665116    79.810256  0.034282756  0.036243224            1 
  195000    1.1713887    -6.983195    79.928619  0.034157529  0.036233893            1 
  196000    1.1737716   -6.9512313    80.458109  0.034208379  0.036225472            1 
  197000    1.1774437   -6.9438006     80.92118  0.034230617  0.036218064            1 
  198000    1.1679283   -6.9593752    81.520819  0.034310109  0.036211949            1 
  199000    1.1722306   -6.9772402    81.749059  0.034233274  0.036208425            3 
  200000    1.1921624   -6.9744205    82.300348  0.034291811  0.036202356            3 
  201000    1.1775108   -6.9880031     82.50013  0.034204034  0.036195129            2 
  202000    1.1583913   -7.0162703       82.876  0.034189769  0.036186583            2 
  203000    1.1544214   -6.9576139    83.436269  0.034251342  0.036178796            1 
  204000    1.1856625   -6.9941098    83.340628  0.034044374   0.03617007            2 
  205000    1.1444603   -6.9567747    83.983275  0.034139543  0.036159589            2 
  206000    1.1675545   -6.9512292    84.841519  0.034321003  0.036150576            1 
  207000    1.1740018   -6.9591509    85.248288  0.034318956  0.036143988            2 
  208000    1.1626329   -6.9668092    85.368758  0.034202227   0.03613555            3 
  209000    1.1612346   -7.0075193    85.916303  0.034256899  0.036125527            2 
  210000    1.1908462   -7.0216869    86.172898  0.034195594  0.036114917            1 
  211000    1.1645051   -6.9970023    86.435187   0.03413712  0.036105735            1 
  212000    1.1768476   -6.9644946    87.365044  0.034341605  0.036100253            1 
  213000    1.1647618   -7.0206946    87.622153  0.034280967  0.036093219            1 
  214000    1.1479719   -6.9925141    87.604356  0.034113846  0.036085343            2 
  215000    1.1480014   -6.9619814    88.138559  0.034162232  0.036074791            1 
  216000    1.1820302   -6.9492922    88.789081  0.034255047  0.036064199            1 
  217000    1.1726157   -6.9619786    88.900284  0.034139894  0.036053625            3 
  218000    1.1890001   -7.0282597    89.118905   0.03406686  0.036041697            1 
  219000    1.1779192   -6.9876468    89.588229  0.034089889  0.036028578            1 
  220000    1.1540904   -7.0029076     89.93837  0.034067564  0.036015423            1 
  221000    1.1746831   -7.0174724    90.202117  0.034012865   0.03600163            4 
  222000     1.180739   -7.0049326    90.732482   0.03405874  0.035989298            2 
  223000    1.1612324   -7.0018899    91.750996   0.03428662  0.035978244            1 
  224000    1.1716794   -6.9809875    91.980279  0.034218854  0.035969862            4 
  225000    1.1526482    -6.988386    92.229226  0.034158973  0.035961953            4 
  226000     1.162305   -7.0215224    92.680955  0.034174393  0.035952234            2 
  227000    1.1819367   -7.0092346    93.210404   0.03421821  0.035944254            1 
  228000    1.1578607   -7.0672753    92.918793  0.033961547  0.035932556            1 
  229000    1.2011954   -7.0101722    93.782943  0.034127708   0.03592225            1 
  230000    1.1520637   -7.0058224    94.389815  0.034199208  0.035913359            4 
  231000    1.1770754   -7.0032284    94.926946   0.03424493  0.035904888            3 
  232000    1.1396631   -7.0004138    94.910188  0.034091303  0.035894094            2 
  233000    1.1590124   -6.9932541    95.269826  0.034073614  0.035882673            1 
  234000    1.1679086   -7.0445615    95.312697  0.033943268  0.035869329            3 
  235000    1.1712202    -7.016882    95.969416  0.034031708  0.035854502            2 
  236000    1.1603557   -6.9818299    96.319298  0.034011052   0.03584183            2 
  237000    1.1695815   -6.9942271    96.439504  0.033909811  0.035827199            1 
  238000    1.1772481   -6.9840162    97.099535  0.033998437  0.035812176            2 
  239000    1.1616798   -7.0005745    97.256262   0.03391083  0.035797511            1 
  240000    1.1592115   -6.9871747     97.54671  0.033870385  0.035781112            2 
  241000    1.1547458   -7.0058726     97.76709  0.033806048  0.035765059            1 
  242000    1.1404546   -6.9967025    98.228483  0.033825235   0.03574728            2 
  243000    1.1406388   -6.9930621    98.540479  0.033793031  0.035728263            2 
  244000    1.1215681   -7.0569568     98.21867  0.033544628  0.035707076            1 
  245000    1.1740391   -7.0323804     99.06305  0.033694915  0.035685772            3 
  246000    1.1428631   -6.9609024    99.555428  0.033724738  0.035665673            3 
  247000    1.1707732   -7.0029102    100.06319  0.033759512  0.035646144            2 
  248000    1.1395922   -7.0333275    100.15531  0.033654336  0.035625611            1 
  249000    1.1617602   -7.0304466    100.43871  0.033614027  0.035603071            1 
  250000    1.1497215    -7.038727    100.12182   0.03337394  0.035580224            1 
  251000    1.1513021   -7.0133367    100.94422  0.033514018  0.035556746            1 
  252000    1.1377644   -6.9880895    101.52237  0.033572213  0.035534438            2 
  253000    1.1479375   -7.0312587    102.09853   0.03362929  0.035513907            1 
  254000    1.1637054    -7.036767    102.09606  0.033496083  0.035493728            1 
  255000    1.1476901    -6.986663    103.25475  0.033743381  0.035474651            3 
  256000    1.1579609   -6.9995676    103.42979  0.033668551  0.035457005            1 
  257000    1.1427969   -7.0722937    103.39632  0.033526693  0.035439105            3 
  258000    1.1446077   -7.0161758    104.39817   0.03372034  0.035420769            2 
  259000    1.1619785   -7.0331923    104.17106  0.033517071  0.035402516            2 
  260000    1.1206712   -6.9909905    105.06458  0.033674544  0.035383157            2 
  261000    1.1520437   -7.0392938    104.87263  0.033484237  0.035362534            1 
  262000    1.1572122   -7.0210317    105.50456  0.033557428  0.035342009            1 
  263000    1.1595218   -7.0876025    105.20837  0.033335986  0.035321098            1 
  264000    1.1603212   -7.0586161     105.8386  0.033408648  0.035300651            1 
  265000    1.1749296   -7.0197926    106.46036  0.033478101  0.035280599            4 
  266000    1.1412505   -6.9875962    107.11622  0.033557712  0.035262444            3 
  267000    1.1391123   -7.0513646    107.02574  0.033403789  0.035243386            1 
  268000    1.1602198   -7.0495728    107.60702  0.033459893  0.035224851            4 
  269000    1.1605255   -7.0406465    107.90024  0.033426343  0.035205103            2 
  270000    1.1445732   -7.0389736     108.3121  0.033429661  0.035184394            1 
  271000    1.1353111   -7.0159536    108.85748   0.03347401  0.035165339            1 
  272000    1.1357137   -7.0271882     108.8514   0.03334908  0.035145381            2 
  273000    1.1394717   -7.0113057    109.27642  0.033356659  0.035124301            1 
  274000    1.1585217   -7.0358553    109.33611  0.033253075  0.035102464            2 
  275000    1.1159827   -7.0341366    109.57602  0.033204856  0.035079571            1 
  276000    1.1365282   -7.0593619    109.86989  0.033173277  0.035055605            6 
  277000    1.1399635   -7.0368597    110.34156  0.033195415  0.035031601            1 
  278000    1.1637856   -7.0600136    110.92586  0.033251156  0.035009873            3 
  279000    1.1427482   -7.0657999    111.06171  0.033172555  0.034987744            2 
  280000     1.119221   -7.0517242    111.84724   0.03328787  0.034967304            2 
  281000    1.1514777   -7.0487601    111.81674  0.033160363  0.034945705            2 
  282000    1.1075328   -7.0095311    112.56431  0.033263684  0.034924095            2 
  283000       1.1467   -7.0894171    112.22326  0.033045718  0.034902598            2 
  284000    1.1066798   -7.0696582    112.82259  0.033105219  0.034880872            2 
  285000    1.1134024   -6.9735606     113.8461  0.033288333  0.034860379            1 
  286000    1.1642092   -6.9838754    114.20816  0.033277436  0.034842385            2 
  287000    1.1209041   -7.0279671    114.63309   0.03328487  0.034824047            1 
  288000    1.1431223   -7.0465649    114.30766  0.033075134  0.034803607            1 
  289000    1.0998798   -7.0659032    115.02953  0.033168838  0.034784342            1 
  290000    1.1387536   -7.0947378    115.14141  0.033086611  0.034763178            2 
  291000     1.128835   -7.0723305     115.1133  0.032964861  0.034741842            3 
  292000    1.1680259   -7.0185523    116.05613  0.033121043  0.034721576            3 
  293000    1.1176182    -7.071603    116.40824  0.033108146  0.034702288            2 
  294000     1.130077    -7.045252    116.48301  0.033016727  0.034680137            2 
  295000     1.138295   -7.0379576    116.94722  0.033035939   0.03465898            2 
  296000    1.1520177   -7.0494537    116.80898   0.03288541  0.034636943            2 
  297000    1.1123261   -7.0493242    117.42707  0.032948112  0.034614621            2 
  298000     1.155843   -7.0478855    118.11937  0.033031143  0.034593489            2 
  299000    1.1212116   -7.0520042    118.40986  0.033001633  0.034572322            1 
  300000    1.1435278   -7.0619877    118.90494  0.033029151   0.03455143            2 
  301000    1.1429452   -7.0622551    118.92576  0.032925183  0.034530001            1 
  302000    1.1541747   -7.0309835    119.28804  0.032916125  0.034508502            2 
  303000    1.1487969   -7.0344657    119.55848   0.03288187  0.034487032            1 
  304000    1.1394719   -7.0530567    120.18649  0.032945858  0.034466042            1 
  305000    1.1280732   -7.0573996    120.48514  0.032919437  0.034445473            1 
  306000    1.1630137   -7.0331716    120.67561  0.032863727  0.034425543            2 
  307000    1.1449297   -7.0751363    121.34653  0.032938799  0.034405257            1 
  308000    1.1578343   -7.0656543    121.23662  0.032802115  0.034385224            4 
  309000    1.1018346   -7.0617002    121.45623  0.032755186    0.0343649            1 
  310000    1.1380154   -7.0884689    121.76905  0.032733615    0.0343435            2 
  311000    1.1077508   -7.0707081    122.15282  0.032731194  0.034322491            2 
  312000    1.1161315   -7.1047349    122.52919  0.032726815  0.034301346            1 
  313000    1.1488812   -7.0517086    122.98939  0.032744778  0.034280362            3 
  314000    1.1000622   -7.0762622    123.51911   0.03278108  0.034259514            2 
  315000    1.1214331   -7.0560429    123.76217  0.032741314  0.034238704            2 
  316000    1.1452413   -7.0635734    124.07645  0.032720583  0.034218365            1 
  317000    1.1292937   -7.1207013    124.06224  0.032613627  0.034195505            1 
  318000    1.1195951   -7.0875512    124.19268  0.032545253  0.034172894            1 
  319000    1.1494531   -7.0730852    124.81028  0.032604567  0.034150047            1 
  320000     1.112272   -7.0691746    125.20912  0.032606543  0.034126851            2 
  321000    1.1410266   -7.1045241    124.88164  0.032419947   0.03410306            2 
  322000    1.1375414   -7.1018361    125.71574   0.03253513  0.034079324            2 
  323000    1.1129371   -7.0769128    126.49156   0.03263456  0.034057505            2 
  324000    1.0954726   -7.0994855    126.21014  0.032461455  0.034035051            1 
  325000    1.1340856   -7.1021947    126.87578  0.032532252  0.034013466            2 
  326000    1.1356977    -7.075834    127.27039  0.032533331  0.033992714            2 
  327000    1.1137906    -7.126261    127.46856  0.032484341  0.033971319            2 
  328000    1.1196137   -7.0605117    127.59789  0.032418162  0.033950727            1 
  329000    1.1219725   -7.0954166    127.88412  0.032392128   0.03393027            2 
  330000    1.1638446   -7.0681914    128.92842  0.032557681  0.033909595            3 
  331000    1.1262491   -7.0685098    129.07168  0.032495389  0.033889139            3 
  332000    1.1192421   -7.0736834    129.08112   0.03239988  0.033868114            1 
  333000     1.130754   -7.0464305    129.40237  0.032382976  0.033846524            4 
  334000     1.110688   -7.1034629    129.55988  0.032325318  0.033824946            2 
  335000    1.1013411   -7.1062066    130.58738  0.032484424  0.033804107            1 
  336000    1.1289802   -7.1050043    130.39521  0.032340081  0.033783415            1 
  337000    1.1106952   -7.0740912    130.56916  0.032287132  0.033761619            1 
  338000    1.1229923   -7.1121283    131.57964   0.03244074  0.033740622            3 
  339000    1.1480494   -7.0970151    131.70682  0.032376307  0.033719915            1 
  340000    1.1189595   -7.1125625    131.79907  0.032303695  0.033699536            2 
  341000    1.1136175   -7.0648101    132.82596  0.032459911  0.033679868            3 
  342000    1.0925123   -7.0734473    132.56327  0.032300993  0.033660957            2 
  343000     1.101595   -7.0961393    133.54811   0.03244609  0.033641351            3 
  344000     1.106102   -7.0576416    133.91354  0.032440295  0.033622929            1 
  345000    1.1114408   -7.0677999    134.36242  0.032454691  0.033603686            1 
  346000    1.1015276   -7.0554644    134.58279  0.032413966  0.033584662            1 
  347000    1.0959976   -7.0598375    135.08173  0.032440377  0.033566827            1 
  348000     1.128259   -7.1128818    134.78478  0.032276048  0.033547836            1 
  349000    1.1166845   -7.1235489    134.68818  0.032160503  0.033528708            1 
  350000    1.1323345   -7.1199413    134.90104  0.032119295  0.033508165            1 
  351000    1.0993276   -7.1359105    135.16856  0.032091301  0.033487955            1 
  352000    1.1109962   -7.1077102    135.83801   0.03215862  0.033466799            2 
  353000    1.1012667   -7.1001171    136.22367  0.032158562  0.033446112            2 
  354000    1.0924793   -7.0881666    136.56246  0.032147471  0.033424752            2 
  355000    1.1224059   -7.1175217    136.71639  0.032093049  0.033404396            2 
  356000    1.1038336   -7.1059372    137.30089   0.03213972  0.033384247            2 
  357000    1.1028793   -7.0995627    137.50476  0.032097282  0.033363879            1 
  358000    1.1263124    -7.142209    137.64128  0.032039404  0.033344011            1 
  359000    1.1045423   -7.0751467    138.72417  0.032201525  0.033324884            1 
  360000    1.0924542   -7.1405554    138.82849  0.032136225  0.033306226            1 
  361000    1.0951976    -7.089057    139.09341  0.032108358  0.033286889            1 
  362000    1.0969397   -7.1134042    139.60748  0.032138001  0.033268412            1 
  363000    1.1001255     -7.07795    140.05913  0.032153153  0.033250804            3 
  364000    1.1091703   -7.1280893    140.27385  0.032113977  0.033233463            2 
  365000    1.1087773    -7.133875    140.91012  0.032171261  0.033216802            2 
  366000    1.1306164    -7.111743    141.09567  0.032125607  0.033199291            3 
  367000    1.1076885   -7.1444117    141.00675  0.032017882  0.033181963            5 
  368000    1.0971717   -7.1094629     141.9248  0.032138769  0.033164997            3 
  369000    1.0947581   -7.0968327    142.49165  0.032179686   0.03314867            1 
  370000    1.1055793   -7.1329276    142.29653  0.032048769  0.033132534            1 
  371000    1.0888329   -7.1119144    143.31258  0.032190607  0.033116356            1 
  372000    1.1019053   -7.1362808    143.48479  0.032142651  0.033100552            1 
  373000    1.0992061   -7.1279707    143.88428  0.032145729  0.033084773            2 
  374000    1.1055119    -7.110369    144.22505  0.032135705  0.033069658            2 
  375000    1.1231092   -7.0976608     144.3705  0.032082333  0.033053669            2 
  376000    1.0783353   -7.0684961    144.82063  0.032096771  0.033037083            3 
  377000    1.1123463   -7.1261945    144.25665   0.03188697  0.033019696            1 
  378000    1.0971283   -7.1227732    144.69126  0.031898426  0.033002164            1 
  379000    1.0981819   -7.1508585    145.08744  0.031901372  0.032984591            4 
  380000      1.09197   -7.1609921    145.50577  0.031909161  0.032967165            1 
  381000    1.0835369   -7.1256663    145.86345  0.031903642    0.0329499            2 
  382000    1.1054814   -7.1324659    146.31523   0.03191868  0.032932148            5 
  383000    1.1055887     -7.14406    146.53218  0.031882546  0.032914581            2 
  384000    1.0957792   -7.1482746    146.68468  0.031832612  0.032896445            1 
  385000     1.090006    -7.090699    147.22311  0.031866474  0.032879059            1 
  386000    1.1026019   -7.1124671    147.79889  0.031908224  0.032861756            1 
  387000    1.1031501   -7.1735588    147.37798  0.031735139  0.032845137            3 
  388000    1.0971132   -7.1472966    148.22159  0.031834534  0.032827597            1 
  389000    1.1155729   -7.1404004     148.8356  0.031884233  0.032810703            2 
  390000    1.0885572   -7.1240022    149.14911  0.031869468  0.032794634            1 
  391000    1.0765558   -7.1479083    149.65527  0.031895837  0.032778778            3 
  392000    1.1055707   -7.1683842    149.90622  0.031867818  0.032763338            2 
  393000    1.1139291    -7.160845    150.19428  0.031847812  0.032747754            1 
  394000    1.1179991   -7.1991026    149.99941  0.031725763  0.032731918            2 
  395000    1.1051483   -7.1495478    150.76898  0.031807801  0.032716196            1 
  396000    1.0836367   -7.1336479    150.99442   0.03177492  0.032700935            3 
  397000    1.0953545   -7.1164889    151.31885  0.031762982  0.032685247            4 
  398000    1.0685268   -7.1404013    151.72406  0.031768019  0.032668983            2 
  399000    1.0735423   -7.1038748    152.48386  0.031847088  0.032653115            2 
  400000     1.087051   -7.1675227    152.05609  0.031678352  0.032637003            2 
  401000    1.0905369   -7.1564417     152.5251  0.031696821  0.032620049            1 
  402000    1.0841455   -7.1660168    152.34378  0.031580386  0.032602917            4 
  403000    1.1026768   -7.1773972    152.70625  0.031576975  0.032585652            2 
  404000    1.1034055   -7.1816173    152.65498  0.031488239   0.03256778            3 
  405000    1.0803353   -7.1593131    153.23555  0.031529949  0.032550508            1 
  406000    1.0530624   -7.1462716    153.98297  0.031605701  0.032533309            2 
  407000    1.0693842   -7.1635988    153.97649  0.031526717  0.032515835            1 
  408000    1.0754927   -7.1755166     154.3975  0.031535438  0.032498615            2 
  409000    1.1047257   -7.1794585    154.82318  0.031545065   0.03248139            1 
  410000    1.1001828   -7.1760809    155.22998  0.031550809  0.032463822            3 
  411000    1.0759678   -7.1415912    154.84631  0.031396251  0.032446014            3 
  412000     1.085359   -7.1329727    155.47947  0.031448112  0.032427815            1 
  413000    1.0879428   -7.1487546    155.74294  0.031425129  0.032409998            1 
  414000    1.0744173   -7.1285203    156.57005  0.031515711  0.032392263            1 
  415000    1.0903672   -7.1778011    156.05389  0.031336123  0.032374575            1 
  416000    1.0756558    -7.165309    156.51672  0.031353509  0.032357198            1 
  417000    1.1063927   -7.2119795    156.35768  0.031246539   0.03233896            1 
  418000    1.0994976   -7.1444559    157.15807  0.031331354  0.032319897            3 
  419000    1.0903618   -7.1773783    157.32487  0.031289752  0.032301562            1 
  420000    1.0864249    -7.202663    157.62568  0.031274937  0.032282475            2 
  421000    1.1020931   -7.1636907    157.64916  0.031205297  0.032263198            1 
  422000    1.0934725   -7.1591317    157.99188  0.031199028  0.032244115            2 
  423000    1.0894088   -7.1482203    158.63728  0.031252419  0.032224462            2 
  424000     1.066235   -7.1863822    158.68898  0.031188873  0.032204936            4 
  425000     1.101922   -7.1872672    158.56379  0.031090939  0.032185291            3 
  426000    1.0802704   -7.1586421    158.72695  0.031049873  0.032165676            3 
  427000    1.0569893   -7.1990432    158.54236  0.030941131  0.032146095            2 
  428000    1.0955041   -7.1499084    159.81116   0.03111588  0.032126794            1 
  429000    1.1073459   -7.1536714    159.68983   0.03101978  0.032106993            2 
  430000    1.0899838   -7.1788018    160.08572  0.031024364   0.03208728            2 
  431000    1.0756972   -7.1436698    160.34729  0.031002955  0.032067912            3 
  432000    1.0863278   -7.1495913    161.28917   0.03111288  0.032048605            2 
  433000    1.1259979   -7.1967195    160.90095   0.03096631  0.032028715            5 
  434000      1.09108   -7.1486804    161.18631  0.030949752  0.032009158            1 
  435000    1.0925559   -7.1791923     161.5373  0.030945843  0.031989673            2 
  436000    1.0618075   -7.2066664    161.80064  0.030925199  0.031969848            2 
  437000    1.1033225   -7.1773294    162.13988  0.030919123  0.031949888            2 
  438000    1.0544849   -7.1787194    162.76581   0.03096762  0.031930792            3 
  439000    1.0757831   -7.1872578     162.5917  0.030864028  0.031910844            1 
  440000    1.0600752   -7.1859573    162.62559    0.0308003  0.031890993            2 
  441000    1.0722436     -7.18352    163.47256  0.030890507  0.031871264            1 
  442000    1.0979913   -7.1773578    163.53713  0.030832793  0.031851853            2 
  443000    1.0903007    -7.194387    164.02182  0.030854368  0.031832102            3 
  444000    1.0730226   -7.2065763    163.46481  0.030680332  0.031811649            1 
  445000    1.0770999   -7.1529739    163.90183  0.030693226  0.031791024            4 
  446000    1.0824173    -7.193881    163.88174  0.030620654  0.031770224            2 
  447000    1.0708271   -7.1749917    164.41105  0.030650829  0.031748944            1 
  448000    1.0980873   -7.1998998     164.7634  0.030647954  0.031727516            2 
  449000    1.0799559    -7.190016    164.60237  0.030549809  0.031706439            2 
  450000    1.1130294   -7.2144945    164.90407  0.030537791  0.031684629            2 
  451000    1.0880979   -7.1596698    165.71442  0.030619811  0.031663518            3 
  452000    1.0561709   -7.1844375     166.0777  0.030619045  0.031642487            1 
  453000    1.0767611   -7.1923645    166.53981  0.030636463  0.031622587            2 
  454000    1.0790918   -7.1934161    166.07507  0.030483677  0.031602308            3 
  455000    1.0609038   -7.1756086    167.28677  0.030638603  0.031582407            1 
  456000    1.0841527   -7.2206673     167.4781  0.030606379  0.031562501            3 
  457000    1.0711604   -7.2244286    167.21327  0.030491113  0.031542114            3 
  458000    1.0695697   -7.2126678    168.50065  0.030658779  0.031522425            2 
  459000    1.0711307   -7.1812485    169.14326  0.030708652  0.031503242            2 
  460000    1.0585065   -7.1989708    169.02345  0.030620191   0.03148438            1 
  461000    1.0787994   -7.2317473    168.55075   0.03046832  0.031465534            3 
  462000    1.0713174   -7.2017688    169.72772  0.030614668   0.03144662            2 
  463000    1.0671955   -7.2003726    169.85247     0.030571  0.031428817            2 
  464000    1.0633396   -7.1728532    170.58223  0.030636176  0.031411678            2 
  465000    1.0656299   -7.2075806    170.41045  0.030539507  0.031395125            2 
  466000    1.0591818   -7.2623477    170.37942  0.030468423  0.031377432            3 
  467000    1.0542618   -7.1513843    171.40539  0.030586259  0.031359879            4 
  468000    1.0794354   -7.2343411    171.42659  0.030524677   0.03134263            4 
  469000     1.095675   -7.2355923    171.90254  0.030544162  0.031325347            2 
  470000    1.0669792   -7.2160862    171.97214  0.030491515  0.031307836            3 
  471000    1.0728021    -7.171807    172.39123  0.030500926  0.031289652            1 
  472000    1.0884018   -7.2319073    171.93252  0.030355317  0.031271583            3 
  473000    1.0779371   -7.2000873    172.57486   0.03040431  0.031253705            1 
  474000    1.0580664   -7.2363247     173.4086  0.030486744  0.031236418            4 
  475000    1.0628341   -7.2163198    173.78145  0.030487973  0.031219583            2 
  476000    1.0666525   -7.2513902    173.86324  0.030438242  0.031202226            2 
  477000    1.0386342   -7.2019498    174.18815  0.030431193  0.031184827            1 
  478000    1.0555493   -7.1936407    174.40189  0.030404793  0.031168065            1 
  479000    1.0458727   -7.2588179    175.08983     0.030461  0.031151403            3 
  480000    1.0665826   -7.2047727    175.47156  0.030463813  0.031134998            1 
  481000    1.0787995   -7.2174953    175.22693  0.030358096  0.031118458            1 
  482000    1.0909427    -7.193934    176.11289  0.030448286  0.031102234            3 
  483000    1.0673868   -7.2195333    176.26148  0.030410883  0.031085969            1 
  484000    1.0402186    -7.219286    176.17479  0.030333125  0.031069259            2 
  485000    1.0406737   -7.2123144    176.88202  0.030392099  0.031052618            1 
  486000    1.0677223   -7.2747259    177.20888  0.030385611  0.031035698            2 
  487000     1.035866   -7.2326005    177.25498  0.030331105  0.031019178            3 
  488000    1.0571153   -7.2157548    177.79973  0.030361976  0.031002478            2 
  489000    1.0418047   -7.2425131    178.17783  0.030364321  0.030985588            2 
  490000    1.0551972   -7.2932371      177.627  0.030208673  0.030968711            5 
  491000    1.0403474   -7.2663794    178.30645  0.030262466  0.030951889            3 
  492000    1.0395074   -7.2331851    178.50707  0.030234937  0.030935137            5 
  493000    1.0692321   -7.2568111    178.78084  0.030219884  0.030917886            2 
  494000    1.0435915   -7.2498038    179.28331  0.030243474  0.030901668            2 
  495000    1.0445189   -7.2067796    179.73409  0.030258264  0.030885048            4 
  496000    1.0646834   -7.2325734    180.07884  0.030255181  0.030868801            2 
  497000    1.0507632   -7.2363031    180.84314  0.030322459  0.030852571            1 
  498000     1.039729   -7.2483546    180.47911  0.030200655  0.030836615            2 
  499000    1.0410588   -7.2333797    181.04279  0.030234267  0.030820574            1 
  500000    1.0642507   -7.2253804    181.64623  0.030274371  0.030804885            2 
  501000    1.0356092   -7.2438371    181.67522  0.030218766  0.030788832            1 
  502000    1.0337854   -7.2456791     181.3944  0.030111953  0.030772539            2 
  503000    1.0302844   -7.2352621    182.24469  0.030192958  0.030756221            2 
  504000    1.0540653   -7.2347429    182.18781  0.030123647  0.030739856            2 
  505000    1.0038153   -7.2295493    182.57861  0.030128484  0.030723282            3 
  506000    1.0379798   -7.1978431    182.76137  0.030099039  0.030706553            2 
  507000    1.0592576   -7.2398738    182.96681   0.03007344  0.030689957            1 
  508000    1.0370766   -7.2258331    183.14642  0.030043703  0.030672929            1 
  509000    1.0475503   -7.2341918    183.02341   0.02996454  0.030656423            2 
  510000    1.0554491   -7.2423713    183.06549  0.029912662  0.030639057            2 
  511000    1.0542645   -7.2469404     183.3944  0.029907762   0.03062158            3 
  512000    1.0682844   -7.2409591    183.95786  0.029941057  0.030603381            2 
  513000    1.0458585   -7.2354835    183.92338  0.029877092  0.030585739            2 
  514000    1.0594738    -7.265972    183.74835  0.029790588  0.030568169            2 
  515000    1.0550275   -7.2738827    184.46213  0.029848241  0.030550261            3 
  516000    1.0513016   -7.2680926    184.41827  0.029783313  0.030532138            2 
  517000    1.0574071   -7.2372473    184.99896  0.029819303  0.030514551            1 
  518000    1.0523084   -7.2585932    185.29113  0.029808741  0.030496772            3 
  519000    1.0568989   -7.2285375    185.26382  0.029746921  0.030478814            2 
  520000    1.0312321   -7.2389907     185.5633  0.029737709  0.030460892            3 
  521000    1.0325773   -7.2239423    185.99949  0.029750398  0.030442574            2 
  522000     1.051579   -7.2362036    185.60649  0.029630666  0.030424597            1 
  523000    1.0444936   -7.2683384    186.02929  0.029641379  0.030406348            2 
  524000    1.0629541   -7.2507652    186.60074  0.029675691  0.030388065            2 
  525000    1.0324985   -7.2311545      186.854  0.029659365  0.030369548            2 
  526000    1.0354876   -7.2661934    187.08509   0.02963959  0.030350921            3 
  527000    1.0201986   -7.2378116    187.16966  0.029596721  0.030332766            1 
  528000    1.0577884    -7.248891    188.14086  0.029693949   0.03031486            1 
  529000    1.0380507   -7.2743435    187.86959  0.029595083  0.030296968            1 
  530000    1.0351424   -7.2392253    187.86647  0.029538753  0.030278631            1 
  531000    1.0703455   -7.2639386    188.55226  0.029590749  0.030260828            1 
  532000    1.0492042   -7.2529809    188.87365  0.029585472  0.030242672            2 
  533000     1.043879    -7.260232    188.95991   0.02954345  0.030224361            3 
  534000    1.0116091   -7.2704493    188.81071  0.029464843  0.030206026            2 
  535000    1.0235655   -7.2475396    189.26269  0.029480169  0.030188021            2 
  536000    1.0243472   -7.2708887    188.67452  0.029333726  0.030169817            1 
  537000     1.041547   -7.1914926    189.90276  0.029469702  0.030151649            1 
  538000    1.0408181   -7.2573156    189.77998  0.029395908  0.030133252            1 
  539000    1.0591391   -7.2686332    189.22619   0.02925575  0.030114411            2 
  540000    1.0289733   -7.2742079    190.21972  0.029354895  0.030095191            1 
  541000    1.0408253   -7.2746835    190.55635  0.029352488  0.030076199            2 
  542000    1.0487016   -7.3003802    190.27178  0.029254578   0.03005694            2 
  543000    1.0552729   -7.2479766    190.39635  0.029219821  0.030037822            2 
  544000    1.0452204   -7.2649736    191.19439  0.029288356  0.030019119            2 
  545000    1.0464895    -7.288667    191.54814  0.029288706  0.030000397            2 
  546000    1.0476988   -7.2216021    192.18477  0.029332229  0.029982361            1 
  547000    1.0294264   -7.2878273    192.46041  0.029320599  0.029964645            2 
  548000     1.056679   -7.2434677    192.68787  0.029301683   0.02994694            2 
  549000    1.0262008   -7.2529496    193.06705  0.029305867  0.029929598            3 
  550000    1.0448737   -7.2540406    193.48765  0.029316311  0.029912339            2 
  551000    1.0316329   -7.2993854    193.58637  0.029278035  0.029895405            1 
  552000    1.0432857   -7.2944292    193.48688  0.029209976  0.029878147            2 
  553000    1.0308317   -7.3225318    194.31185  0.029281472  0.029861141            1 
  554000     1.052562   -7.2452219    194.69959  0.029286941  0.029844628            2 
  555000    1.0462481   -7.2768866    195.48899  0.029352701   0.02982801            3 
  556000    1.0351666   -7.2833865    195.03245  0.029231483  0.029811085            1 
  557000    1.0280849   -7.2736154    195.86815  0.029304032   0.02979484            5 
  558000    1.0150274     -7.30143    195.76287  0.029235792   0.02977844            4 
  559000     1.032778   -7.2490048    195.98609  0.029216769  0.029761822            3 
  560000    1.0138487   -7.2920556    195.79028  0.029135458  0.029744888            2 
  561000    1.0348163   -7.3040006    196.53832   0.02919464  0.029728189            2 
  562000    1.0325801   -7.2556677    196.96695  0.029206249  0.029711189            2 
  563000     1.027877   -7.2753452    197.75086  0.029270406  0.029694957            2 
  564000     1.021718   -7.2843185    197.99132  0.029254036  0.029678768            1 
  565000    1.0236624   -7.2678312    197.72447  0.029162901  0.029662725       -1e+20 
  566000    1.0376622   -7.2763036    198.49436  0.029224728  0.029647208            2 
  567000    1.0279723   -7.2777924    198.66381   0.02919809  0.029631673            2 
  568000    1.0282866   -7.2558545    199.10532  0.029211461  0.029616097            2 
  569000    1.0396486    -7.290406    198.89667  0.029129565  0.029599998            3 
  570000    1.0170813   -7.2956033    198.90706  0.029079979  0.029583585            6 
  571000    1.0231065   -7.3040137    198.72543  0.029002543  0.029567223            1 
  572000    1.0259711   -7.3185169    198.82355  0.028966135  0.029550115            2 
  573000     1.036458    -7.276535    199.74492  0.029049581  0.029533047            1 
  574000    1.0150129   -7.2933671    199.81393  0.029008991  0.029515986            2 
  575000    1.0195017    -7.322695     199.7733  0.028952653  0.029498733            4 
  576000     1.055554   -7.3023004    199.83294  0.028911016  0.029481635            5 
  577000    1.0377762   -7.3045831    200.62268  0.028974969  0.029464939            2 
  578000    1.0480348   -7.2757636     200.8459  0.028957021  0.029448251            3 
  579000     1.023562   -7.2952586    201.06317   0.02893828  0.029431604            2 
  580000    1.0199489   -7.3235418    200.91597  0.028867237  0.029415195            1 
  581000    1.0172875   -7.2840002    200.96213  0.028824172  0.029398573            1 
  582000    1.0220133   -7.3531528    201.32248  0.028826243  0.029381963            1 
  583000    1.0175015   -7.2809838    201.71245   0.02883254  0.029365086            3 
  584000    1.0181857   -7.3105996    201.69258  0.028780333  0.029348173            2 
  585000    1.0168936   -7.2624852    202.76305  0.028883625  0.029331806            1 
  586000     1.005618   -7.3218208    202.33335  0.028773229  0.029315086            2 
  587000    1.0123476   -7.3278344    202.20759  0.028706358  0.029298093            2 
  588000    1.0327942   -7.2969292    203.27582  0.028808931  0.029281358            2 
  589000    1.0046849   -7.3206692    202.76835  0.028688222  0.029264662            3 
  590000    1.0108842    -7.310418    203.52661  0.028746696  0.029247617            3 
  591000    1.0042913   -7.3171078    203.66658  0.028717792   0.02923078            1 
  592000    1.0155716   -7.3201982    204.12371   0.02873363  0.029213929            1 
  593000    1.0199757   -7.2673068    204.68105  0.028763498  0.029197341            2 
  594000    1.0301863   -7.3255447    205.34739  0.028808556   0.02918101            1 
  595000    1.0143576   -7.3025052    205.20779  0.028740586  0.029164903            2 
  596000     1.003996   -7.3240678    205.24305  0.028697295  0.029148942            4 
  597000    1.0004977   -7.2803259    205.95879  0.028749133   0.02913285            1 
  598000    1.0083081   -7.3436296    205.06711  0.028576799   0.02911638            3 
  599000    1.0293884   -7.3284655    205.77469   0.02862753  0.029099561            2 
  600000    1.0128393   -7.3364415    205.80667  0.028584259  0.029083113            2 
  601000   0.99792054   -7.3253818    206.35183  0.028612289  0.029067009            1 
  602000    1.0333781   -7.3147131    206.78027  0.028624068  0.029050767            3 
  603000     1.008065   -7.3273623    206.77862  0.028576371  0.029034342            4 
  604000    1.0383736   -7.3201679    207.11146  0.028574981  0.029018058            2 
  605000    0.9986226   -7.2980636    207.74435  0.028614924   0.02900225            2 
  606000   0.99894149   -7.3230208    207.90473  0.028589759  0.028986487            2 
  607000    1.0211875   -7.3252884    207.82195  0.028531295  0.028970346            1 
  608000   0.98925953   -7.3094113     207.8302    0.0284855  0.028954144            3 
  609000    1.0237602   -7.3192382    208.29254  0.028501989  0.028937476            1 
  610000    1.0215735   -7.3141665    208.09632  0.028428459  0.028920775            3 
  611000    1.0174716   -7.3405755    208.25358  0.028403379   0.02890428            2 
  612000    1.0302691   -7.3178625    208.73474  0.028422487  0.028887341            3 
  613000    1.0136037   -7.3229095    207.72715  0.028239145  0.028870349            2 
  614000    1.0253788   -7.3123058    208.68876  0.028323665  0.028852996            3 
  615000    1.0251422   -7.3778677     208.6673  0.028274701  0.028835514            4 
  616000    1.0369442   -7.3606627     208.5343   0.02821081  0.028818059            2 
  617000   0.98924618   -7.3517734     209.0774  0.028238439  0.028800881            3 
  618000    0.9958043   -7.3469164    209.22912  0.028213204  0.028783697            2 
  619000   0.99573508   -7.3595062    210.01376  0.028273258  0.028766779            1 
  620000    1.0111344   -7.3083368    210.38873  0.028278055  0.028749689            1 
  621000    1.0063014   -7.3557181    209.22493  0.028076346  0.028732305            1 
  622000    1.0126486   -7.3411431    210.86977  0.028251577  0.028715587            2 
  623000      1.02111   -7.3268729    210.50783  0.028157816  0.028698979            1 
  624000    1.0113783   -7.3151472    211.51324   0.02824696  0.028682137            2 
  625000    1.0057322   -7.3320193    211.57411  0.028209882  0.028665472            1 
  626000   0.98709365   -7.3431418    211.98975  0.028220148  0.028648979            2 
  627000    1.0238827   -7.3489795    211.71323  0.028138388  0.028632662            2 
  628000   0.99087919   -7.3674708    211.63492   0.02808319  0.028615818            3 
  629000    1.0046433   -7.3558907    212.86344  0.028201303   0.02859923            3 
  630000    1.0047216   -7.3329498    213.03214  0.028178855  0.028582607            1 
  631000    1.0136499   -7.3127318    213.39007  0.028181467  0.028566365            1 
  632000    1.0086702   -7.3669296    213.14461  0.028104511  0.028549717            1 
  633000   0.99506199   -7.3442865    213.35567  0.028087897  0.028533298            1 
  634000    1.0039283   -7.3645727    213.93481  0.028119717  0.028517384            3 
  635000   0.98622643   -7.3492289    214.44584  0.028142499  0.028501162            3 
  636000    1.0007224   -7.3800718    213.51575  0.027976383  0.028484708            1 
  637000   0.99629144   -7.3480447    214.04647  0.028001894  0.028468357            2 
  638000   0.99811704   -7.3477097    215.29576  0.028121181  0.028452358            1 
  639000    1.0059431   -7.3531693    215.38671  0.028089033  0.028436388            2 
  640000    1.0051893   -7.3874605    215.14999  0.028014321  0.028420476            1 
  641000   0.99317533   -7.3244725    216.10753  0.028095102  0.028404797            5 
  642000    1.0141575   -7.3915219    215.51428  0.027974336  0.028388954            1 
  643000    1.0045739   -7.3686847    216.07942  0.028004073  0.028373268            2 
  644000    1.0076184   -7.3391032    215.64427  0.027904279  0.028357025            2 
  645000   0.98683065   -7.3498503    216.73687  0.028002179  0.028340884            1 
  646000   0.98821929   -7.3639863    216.11692  0.027878859  0.028324649            3 
  647000   0.98601553   -7.3893298    216.29644  0.027858892  0.028308494            2 
  648000    0.9917259   -7.3576397    216.87959  0.027890894  0.028292239            4 
  649000   0.97401658   -7.3627299    217.07482  0.027872987  0.028275979            2 
  650000   0.99497941   -7.3799098    216.85873  0.027802402  0.028259767            1 
  651000    1.0089162    -7.345451    217.96677  0.027901532  0.028243644            1 
  652000   0.99246228   -7.3931545    217.64548  0.027817674  0.028227535            1 
  653000   0.99512657   -7.3776547    218.19973  0.027845805  0.028211609            2 
  654000     1.008797   -7.3610295    217.82824  0.027755892  0.028195608            1 
  655000   0.99154557   -7.3886196    217.83369   0.02771421  0.028179749            3 
  656000    1.0016141    -7.398785    218.88479  0.027805487  0.028163479            2 
  657000    1.0011659   -7.3691467    218.03074  0.027654838  0.028146954            2 
  658000   0.99914724   -7.3162097    219.93253  0.027853664   0.02813075            1 
  659000    1.0104811   -7.3829021    219.09067  0.027704941  0.028114864            4 
  660000    0.9843472   -7.3701277    219.75574  0.027746937  0.028098532            3 
  661000    1.0214589   -7.4101319    219.22465  0.027638005  0.028081879            3 
  662000   0.98488586   -7.3894218     218.9961  0.027567484   0.02806517            2 
  663000   0.99225312   -7.3798436    220.12341  0.027667599  0.028048519            1 
  664000   0.99902542   -7.4090521    220.03991   0.02761545  0.028032104            2 
  665000    0.9728022   -7.3559085    220.31742  0.027608699  0.028015422            2 
  666000   0.99866964   -7.3734102    221.42963  0.027706411  0.027999265            2 
  667000    0.9827983    -7.394031    220.22629   0.02751453  0.027982777            3 
  668000   0.98407536    -7.351692    221.35809  0.027614533  0.027966538            1 
  669000    0.9695783   -7.3593045    221.30975  0.027567234  0.027950253            1 
  670000   0.99153804   -7.3496788    221.23532  0.027516831  0.027934076            3 
  671000   0.97118373   -7.3571958    221.44756   0.02750218   0.02791784            2 
  672000    0.9867225   -7.3698037     221.6199  0.027482626  0.027901271            2 
  673000    1.0008542   -7.3852918    221.73283  0.027455774  0.027884876            2 
  674000   0.98863313   -7.3771689    222.15012  0.027466632  0.027868389            3 
  675000   0.98368163   -7.4022578    221.76478  0.027378368  0.027851588            2 
  676000   0.98969572   -7.3714945    222.17478   0.02738841  0.027834726            2 
  677000   0.99082174   -7.3875444     222.1042  0.027339267  0.027817838            1 
  678000   0.98041054   -7.3835045    221.90129  0.027274004  0.027800911            2 
  679000   0.98935899   -7.4001768    221.91625  0.027235671  0.027783756            2 
  680000   0.97537766   -7.4151412    222.48451  0.027265259  0.027766421            2 
  681000   0.97159826   -7.3849741    223.33545   0.02732935  0.027749435            1 
  682000   0.99658914   -7.3809244    222.69079  0.027210507  0.027732369            1 
  683000   0.97713855   -7.3691272    223.76964  0.027302298  0.027715121            3 
  684000   0.97125861   -7.4280184    223.15166  0.027187093  0.027698082            2 
  685000   0.98044477    -7.360738    224.18883  0.027273581  0.027680973            1 
  686000    0.9850027   -7.3950712    224.37257  0.027256143  0.027663908            1 
  687000   0.98902167   -7.3671435    224.37159   0.02721635  0.027646931            2 
  688000   0.98628017   -7.4266027     224.5749  0.027201418  0.027630099            2 
  689000   0.97945466   -7.4219014    225.04755  0.027219104  0.027612988            5 
  690000   0.99063112   -7.3991874    225.10146  0.027186166  0.027595933            1 
  691000   0.99630067   -7.4098299    225.02685  0.027137826  0.027579203            2 
  692000   0.98996451   -7.4187657    225.54038   0.02716045   0.02756249            3 
  693000   0.97344245   -7.4148661    225.61697  0.027130468  0.027545869            4 
  694000   0.97162409   -7.4197262     226.0927  0.027148499  0.027529285            3 
  695000   0.96917932   -7.3934719    225.72637  0.027065512  0.027512504            2 
  696000   0.97188794   -7.4217772    226.05319  0.027065755  0.027495802            2 
  697000   0.97732677   -7.3992819    226.64594  0.027097793  0.027479073            2 
  698000   0.96704698   -7.3996545    226.52172   0.02704414  0.027462371            2 
  699000   0.97910046   -7.3776003    226.91367  0.027052178  0.027445535            5 
  700000   0.98594305   -7.4415869    227.06905   0.02703203  0.027428439            2 
  701000    0.9969853   -7.4060899    226.43545  0.026918146  0.027411306            3 
  702000   0.98208955   -7.4394595    226.18675  0.026850279  0.027394215            2 
  703000   0.98495452   -7.4190644    227.38947  0.026954656  0.027377238            1 
  704000   0.97717632   -7.4193009    227.84852  0.026970705  0.027360056            1 
  705000    0.9884177   -7.3568147    228.11397  0.026963826  0.027343142            1 
  706000    0.9741045   -7.4215959    227.37982  0.026838978  0.027326019            2 
  707000    0.9863666   -7.4076071    227.43919  0.026808014  0.027308665            6 
  708000   0.97393372   -7.4486774     227.7378  0.026805297  0.027291314            7 
  709000   0.98104209   -7.4321313    228.05426  0.026804685  0.027274014            2 
  710000   0.98869176   -7.4193664    228.61445  0.026832682  0.027256791            2 
  711000   0.97508688   -7.4251853    228.96391  0.026835901  0.027239821            4 
  712000   0.98862794    -7.425265    229.16217  0.026821415  0.027223043            4 
  713000    0.9636916   -7.4046698    229.33461  0.026803951   0.02720633            2 
  714000   0.95517128   -7.4088343    229.74523  0.026814336  0.027189654            3 
  715000   0.96339459   -7.4353782    229.55428  0.026754578   0.02717287            2 
  716000    0.9696023   -7.4110697    230.05419  0.026775394   0.02715607            4 
  717000   0.97394136   -7.3674974    230.14169  0.026748221  0.027139626            4 
  718000   0.96558436    -7.399474    230.54735  0.026758049  0.027122969            5 
  719000   0.96690439   -7.4517165    230.13985  0.026673604  0.027106237            2 
  720000   0.96303695   -7.4407954    231.40788   0.02678332  0.027089482            1 
  721000   0.95117876   -7.4352461    230.50004  0.026641243  0.027072491            2 
  722000   0.96094314   -7.4134918    230.90878  0.026651522  0.027055472            3 
  723000   0.96282262   -7.4505972    231.27001  0.026656294  0.027038401            1 
  724000   0.96305739   -7.4249804    230.92291  0.026579524  0.027021398            2 
  725000   0.95562836   -7.5014665    230.90783   0.02654113  0.027004274            7 
  726000   0.96149429   -7.4371062    230.99448  0.026514517  0.026987208            1 
  727000   0.97242286   -7.4495836    231.54203   0.02654081  0.026969903            2 
  728000   0.97699479   -7.4086279    231.66418  0.026518336  0.026952582            3 
  729000   0.96396184   -7.4141953    232.71132   0.02660166  0.026935425            2 
  730000   0.98195443   -7.4724435    231.78422  0.026459385  0.026918428            2 
  731000   0.96871371   -7.4514735     232.0391  0.026452245  0.026901292            2 
  732000    0.9726045   -7.4636956    232.20764  0.026435296  0.026883879            2 
  733000   0.96293461   -7.4645179    232.28418  0.026407933  0.026866558            3 
  734000   0.95655413   -7.4343597    232.94904  0.026447438  0.026849272            3 
  735000   0.95273179    -7.467886    232.73993  0.026387747  0.026831711            1 
  736000   0.94608231    -7.466428    232.94214   0.02637479    0.0268142            3 
  737000   0.95147397   -7.4465339     232.8683  0.026330654  0.026796744            2 
  738000   0.95258377   -7.4535774    232.76328  0.026283117  0.026779258            6 
  739000   0.96771576   -7.4342434    233.46679  0.026326882  0.026761696            1 
  740000   0.95162482   -7.4861575    233.28819  0.026271193  0.026744044            3 
  741000   0.95011223   -7.4359789    233.67858  0.026279642  0.026726497            2 
  742000   0.95166841   -7.4579979    233.62794  0.026238537  0.026708972            1 
  743000   0.95202829   -7.4103989    234.35621  0.026284905  0.026691632            2 
  744000   0.95266712   -7.4526328    234.54001  0.026270163   0.02667442            3 
  745000   0.95953512   -7.4734849    234.38269  0.026217303  0.026657121            4 
  746000   0.97366287   -7.4718114    234.54687  0.026200499  0.026639818            2 
  747000   0.96441293   -7.4413298    235.65714  0.026289284  0.026622837            1 
  748000   0.96824626   -7.4492073    235.51017  0.026237764   0.02660616            2 
  749000   0.96270437   -7.4337168    235.89933  0.026246032  0.026589375            4 
  750000   0.95333888   -7.4511205    236.25742  0.026250825  0.026573021            2 
  751000   0.95396183   -7.4360715    235.81605  0.026166895   0.02655603            1 
  752000    0.9573323    -7.418129    235.87271  0.026138377  0.026538908            2 
  753000   0.95485649      -7.4533    235.96327  0.026113687  0.026521871            4 
  754000   0.95597171   -7.4404999    236.27814  0.026113853  0.026504962            3 
  755000   0.93579236   -7.4722772    236.49519  0.026103222  0.026488112            1 
  756000   0.94135955   -7.4471748    236.45715  0.026064501  0.026471122            2 
  757000     0.954105   -7.4440603    237.11358  0.026102331  0.026454386            7 
  758000   0.95206025   -7.5052245    236.75343  0.026028302  0.026437424            2 
  759000   0.96699655   -7.4505825    237.10726  0.026032857  0.026420339            2 
  760000   0.96605014    -7.424174    238.26514  0.026125563  0.026403626            2 
  761000   0.94402663   -7.4945403     237.3101  0.025986652  0.026386818            3 
  762000   0.94237855   -7.4786956    237.57871  0.025981924   0.02636988            1 
  763000   0.94409074   -7.4880993    237.76702  0.025968438  0.026352812            2 
  764000    0.9482124   -7.4866192    237.63306  0.025919836  0.026335684            1 
  765000    0.9488793   -7.4677399    238.12181  0.025939194  0.026318625            1 
  766000   0.94947994   -7.5083962     237.5449   0.02584257  0.026301608            2 
  767000   0.93893637   -7.4669615    238.34266  0.025895552  0.026284238            1 
  768000    0.9496848   -7.4507569    238.52722   0.02588186  0.026267198            5 
  769000   0.95184463   -7.4706545    238.91944  0.025890707   0.02625029            1 
  770000   0.93708877   -7.4727103    239.27111  0.025895142  0.026233663            1 
  771000   0.96097225   -7.4785136    239.84276  0.025923342  0.026217013            2 
  772000   0.93089285    -7.477176    239.62551  0.025866312  0.026200179            2 
  773000   0.94864061   -7.4929478    240.07674  0.025881494  0.026183604            2 
  774000   0.97320427   -7.5005688    239.93737   0.02583305  0.026166926            2 
  775000   0.92735366   -7.4592279    240.73372  0.025885346  0.026150555            2 
  776000   0.97215017   -7.4989731    240.47291  0.025823981  0.026134059            2 
  777000    0.9491637   -7.5239935    240.82486  0.025828492  0.026117569            2 
  778000   0.95226222    -7.471485     241.1654  0.025831769  0.026100869            3 
  779000   0.95596025   -7.4807669      240.548  0.025732563  0.026084231            2 
  780000   0.94953245   -7.4979023    240.75177  0.025721343  0.026067343            1 
  781000   0.95689232   -7.4910309    240.56453   0.02566843  0.026050655            2 
  782000   0.94170499   -7.5005311    240.18243  0.025594888  0.026033733            1 
  783000    0.9518302   -7.5040695    240.69918  0.025617197  0.026016791            2 
  784000   0.94870827   -7.4833065    241.17897   0.02563552  0.026000053            3 
  785000     0.935411   -7.5064814    240.54707  0.025535782  0.025983291            3 
  786000   0.94856504   -7.5063819     241.8144  0.025637659  0.025966318            2 
  787000   0.92306042    -7.545391    241.07833  0.025527142  0.025949295            2 
  788000   0.95051528   -7.5294182    242.20967   0.02561439  0.025932554            3 
  789000   0.95849101   -7.5143585    242.21302  0.025582279  0.025915952            2 
  790000   0.94686585   -7.4840995    243.22379  0.025656517    0.0258994            1 
  791000   0.96086538    -7.488636    243.17355  0.025618789  0.025882842            2 
  792000   0.93497075    -7.549191    242.53173  0.025518911  0.025866262            2 
  793000   0.92894092   -7.5103812    242.27661  0.025459921  0.025849559            2 
  794000    0.9478114   -7.5090053    243.21282  0.025526115  0.025832876            3 
  795000   0.94436522   -7.4808158    243.13405  0.025485749  0.025816111            2 
  796000   0.95337669   -7.4828628    243.58982  0.025501447  0.025799561            2 
  797000   0.91148712   -7.5455863    242.77469  0.025384221  0.025782701            2 
  798000   0.94064328   -7.5244562     242.7235  0.025347065  0.025765524            1 
  799000   0.93406194   -7.5297762    243.02852  0.025347155  0.025748257            2 
  800000   0.93046529    -7.512822    243.22432  0.025335867  0.025730991            2 
  801000   0.93001371   -7.4996302     243.2196  0.025303745  0.025713862            2 
  802000   0.91260452    -7.509712    244.03059  0.025356462  0.025696777            3 
  803000   0.94565558   -7.5280517    243.89428  0.025310739  0.025679529            2 
  804000   0.94939139   -7.5289347    244.69171  0.025361911  0.025662468            3 
  805000   0.93410869   -7.4826262    244.44962  0.025305344  0.025645603            1 
  806000   0.92384396   -7.5691375    244.24001  0.025252275  0.025628658            2 
  807000    0.9099128   -7.5223805    244.42684  0.025240277  0.025611539            4 
  808000   0.90225465   -7.5303194    244.96881  0.025264935  0.025594473            2 
  809000   0.94703643   -7.4929685    244.94298  0.025231044  0.025577376            2 
  810000   0.93256437   -7.5250794    245.28595   0.02523518  0.025560477            5 
  811000   0.92868105   -7.4983937    245.32897  0.025208485  0.025543604            1 
  812000   0.92406799   -7.5159318    245.93696  0.025239835  0.025526938            1 
  813000   0.91675796   -7.5004228    245.64196  0.025178552  0.025510178            3 
  814000   0.94317906   -7.4804864    246.53306  0.025238847  0.025493546            2 
  815000   0.93753363   -7.4750807    246.46013  0.025200422  0.025476857            1 
  816000   0.91807572   -7.5567238    245.77265  0.025099331   0.02546005            3 
  817000   0.93842959   -7.5514718    246.04124  0.025096006  0.025443079            2 
  818000   0.91899007   -7.5383248    246.76688   0.02513925  0.025426273            2 
  819000   0.92826208   -7.5083116    246.67038  0.025098737  0.025409327            3 
  820000   0.93143513   -7.5276414    247.11069  0.025112875  0.025392405            2 
  821000   0.92113711   -7.5122959    246.52402  0.025022738  0.025375728            1 
  822000   0.93664679   -7.5461794    247.25914  0.025066823  0.025359147            2 
  823000   0.93856224   -7.5227663    248.45633  0.025157587  0.025342671            2 
  824000   0.94366101   -7.5004144    248.61412  0.025143014  0.025326321            1 
  825000   0.91531175   -7.5347404    248.07054   0.02505763  0.025309949            1 
  826000   0.91948383   -7.5354311    247.69573   0.02498948  0.025293598            2 
  827000   0.92040265   -7.5469136    248.25302  0.025015419   0.02527709            2 
  828000   0.92877498   -7.5669523    248.25143  0.024985047  0.025260667            1 
  829000   0.93900676   -7.4787878    248.83976  0.025014049  0.025244366            1 
  830000   0.91722353    -7.519553     249.0122  0.025001225  0.025228233            2 
  831000   0.93389526   -7.5143886    248.32569  0.024902296  0.025211922            2 
  832000   0.92372768   -7.4987974    249.63532  0.025003537  0.025195749            2 
  833000   0.92515991   -7.5310303     250.2124  0.025031253  0.025179571            3 
  834000    0.9198058   -7.5261156    249.35508  0.024915576  0.025163514            3 
  835000   0.91786278   -7.5270734    249.33201  0.024883435  0.025147255            3 
  836000    0.9286252   -7.5533256    249.21124  0.024841631  0.025130856            2 
  837000   0.91417262    -7.555137    249.08932  0.024799813  0.025114236            5 
  838000   0.91743139    -7.527078    250.06791  0.024867533  0.025097854            2 
  839000   0.92159531   -7.5797977      249.287   0.02476033  0.025081295            4 
  840000   0.92041573   -7.5447733     249.5965  0.024761558  0.025064854            2 
  841000   0.93280402   -7.5644481    250.13424  0.024785399    0.0250484            4 
  842000   0.91816829   -7.5717147    250.63624  0.024805645  0.025031927            3 
  843000   0.91163483   -7.5852325    250.36202  0.024749112  0.025015444            2 
  844000   0.94798554   -7.5438697    251.15542  0.024798126  0.024999134            1 
  845000   0.93428308   -7.5369684    251.17901  0.024771106  0.024983114            5 
  846000   0.91675002   -7.5161537     251.2454  0.024748365  0.024967078            1 
  847000   0.92488856   -7.5785472    251.17601  0.024712319  0.024951152            3 
  848000   0.92759205   -7.5678511    251.65349    0.0247301  0.024935183            2 
  849000   0.92909997   -7.5453311    252.31849  0.024766244   0.02491925            2 
  850000   0.90729075   -7.5607344    251.91993  0.024698032  0.024903309            1 
  851000   0.90385736   -7.5154582    252.34731   0.02471086  0.024887667            1 
  852000   0.89845373    -7.536473    253.20677  0.024765921  0.024872023            4 
  853000   0.92182581   -7.5497356     253.2024  0.024736459   0.02485634            3 
  854000   0.89778372   -7.5600257     253.2826   0.02471532  0.024840656            2 
  855000   0.90015159   -7.5289666    252.99024  0.024657918  0.024824906            3 
  856000   0.90609286    -7.531239    253.25034  0.024654433  0.024809114            7 
  857000   0.90792861   -7.5357739    253.27301  0.024627869  0.024793248            3 
  858000   0.89627473   -7.5729522    253.27984  0.024599829  0.024777391            1 
  859000   0.91910532   -7.5608152    253.71408  0.024613318   0.02476158            1 
  860000   0.90086625   -7.5113034    254.24579   0.02463622   0.02474575            2 
  861000   0.89314832    -7.554901    252.90929  0.024478252  0.024729926            3 
  862000   0.92254529   -7.5787274    253.45839  0.024502937    0.0247142            3 
  863000   0.92375894   -7.5312333    253.94351   0.02452139  0.024698315            3 
  864000   0.90588879   -7.5871917    254.14668  0.024512604   0.02468227            2 
  865000   0.89736275   -7.5689776    253.97319  0.024467552  0.024666251            6 
  866000   0.90133792   -7.5920109    254.05464  0.024447136  0.024650181            2 
  867000   0.91562097   -7.5631784    254.89798  0.024499998   0.02463434            2 
  868000   0.89750082   -7.5722273    254.58585  0.024441806   0.02461837            1 
  869000   0.91509973   -7.5685184    254.71515  0.024426079    0.0246024            3 
  870000   0.88571468   -7.5593031    254.61312   0.02438823   0.02458638            3 
  871000   0.91497264   -7.5742019    254.50052  0.024349456  0.024570203            3 
  872000   0.91417517   -7.5568523    254.79832  0.024349992  0.024554229            1 
  873000   0.89803845   -7.5958416    254.62908  0.024305945  0.024538198            6 
  874000   0.87867712   -7.6012239    254.71529  0.024286354    0.0245221            3 
  875000    0.8971008   -7.6123011    254.67599  0.024254856  0.024505805            4 
  876000   0.93330666   -7.6227802    254.98037  0.024256123   0.02448956            2 
  877000   0.90139789   -7.5531128    255.80525  0.024306846  0.024473196            7 
  878000   0.90635658   -7.5975392    255.25158  0.024226611  0.024456888            5 
  879000    0.9145214   -7.5844446    255.08767   0.02418351   0.02444063            3 
  880000   0.90602835   -7.6151888     255.3721  0.024182964  0.024424335            4 
  881000   0.90427528   -7.5727121    255.93838  0.024209079  0.024408104            1 
  882000   0.89242453   -7.5710558    255.94873  0.024182608  0.024391866            3 
  883000   0.90078983   -7.5630855    256.57621  0.024214441  0.024375768            3 
  884000   0.89034883   -7.6034842    255.92519  0.024125678  0.024359566            2 
  885000   0.89939967   -7.5742911     256.1516  0.024119736  0.024343317            3 
  886000   0.91515292   -7.5712458    256.49864  0.024125154  0.024327062            1 
  887000   0.89622976   -7.5878625    256.05941   0.02405669  0.024310976            3 
  888000    0.8913204   -7.6309901    256.09204  0.024032661  0.024294521            2 
  889000   0.89454643   -7.6193056    256.71995  0.024064487  0.024278091            3 
  890000   0.87898967   -7.6018387    256.30856  0.023998929  0.024261516            1 
  891000   0.89379459   -7.5906769    256.40066  0.023980608  0.024245134            2 
  892000    0.8954334   -7.5508979    257.56282  0.024062296  0.024228863            2 
  893000   0.89054204   -7.5639896    257.26887   0.02400792  0.024212521            4 
  894000   0.92044482   -7.5965698    256.58026  0.023916877  0.024196083            2 
  895000   0.88568226   -7.6283858    256.32493  0.023866381  0.024179489            2 
  896000   0.88604449   -7.6115241    257.19273  0.023920455  0.024162974            2 
  897000   0.89490205   -7.6039669    257.56382  0.023928263   0.02414633            1 
  898000   0.87995229   -7.5863787    257.32121  0.023879103  0.024129733            2 
  899000   0.89934139   -7.6314346    257.66748  0.023884638  0.024113171            1 
  900000   0.90310634   -7.6334475    256.91986  0.023788876  0.024096754            1 
  901000   0.88737337   -7.6128493    257.96486  0.023859125  0.024080432            2 
  902000   0.88524921   -7.6171844    258.34147  0.023867467   0.02406412            2 
  903000   0.88629829   -7.6055789    258.63704  0.023868313  0.024047879            3 
  904000   0.88470362   -7.6179829     258.4219  0.023822078  0.024031402            2 
  905000      0.89797   -7.6251836    257.98518  0.023755542  0.024014932            4 
  906000   0.89846505   -7.6018705    258.43476  0.023770673  0.023998417            2 
  907000   0.90538367   -7.6340371     257.7671  0.023683122  0.023981896            3 
  908000    0.9013699   -7.5833967     259.1659  0.023785416  0.023965421            2 
  909000   0.88961013   -7.5865121    258.95129  0.023739575  0.023949176            2 
  910000    0.8862063   -7.5955157    259.42743  0.023757091   0.02393308            2 
  911000   0.90565389   -7.5965196    259.60615  0.023747361  0.023917094            3 
  912000   0.89479429   -7.6102851    259.85136  0.023743728  0.023900891            3 
  913000   0.90654954    -7.621816    259.12414  0.023651346  0.023884558            3 
  914000   0.88758424   -7.5946999    259.94067  0.023699915  0.023868357            4 
  915000   0.89464146   -7.5956594    260.10834  0.023689284  0.023852128            2 
  916000    0.8851288   -7.6510832    259.84336  0.023639316  0.023835891            2 
  917000   0.88359481   -7.6276844    260.16172  0.023642468  0.023819627            5 
  918000   0.88911752   -7.6298998    259.67501  0.023572532  0.023803297            2 
  919000   0.88656556   -7.6320175    260.65394  0.023635649  0.023786805            2 
  920000   0.86941458   -7.6459527    259.31641  0.023488805   0.02377022            1 
  921000   0.88024066   -7.6321117    259.14971  0.023448218  0.023753534            3 
  922000   0.88419998   -7.6139489    259.87591  0.023488423  0.023736917            2 
  923000   0.89663926   -7.6050735    260.05887  0.023479494  0.023720345            2 
  924000   0.88094348   -7.6170851    260.12027   0.02345962  0.023703723            2 
  925000   0.90529111   -7.6291513    259.47771  0.023376371  0.023687125            2 
  926000   0.89408061   -7.6694557    260.02129  0.023400044  0.023670418            2 
  927000   0.89532627   -7.6523104    259.84871  0.023359287  0.023653565            2 
  928000   0.87837983   -7.6470005    260.79383  0.023418986  0.023636718            2 
  929000   0.88710258   -7.6189803    260.79356  0.023393753  0.023620128            4 
  930000    0.8874627   -7.6577563     261.2581  0.023410224  0.023603613            2 
  931000   0.90210963    -7.631111    260.54464  0.023321217  0.023587139            3 
  932000     0.882455    -7.631033    260.32065  0.023276167   0.02357051            3 
  933000    0.8865876   -7.6308446    261.03788  0.023315281  0.023553871            4 
  934000   0.87204595   -7.6498841    260.85203  0.023273736  0.023537182            2 
  935000    0.8815172    -7.648738     261.3205  0.023290597  0.023520555            3 
  936000   0.86442713   -7.6571174    261.55776  0.023286837  0.023503976            2 
  937000   0.87863727   -7.6462303    261.12053    0.0232231   0.02348745            3 
  938000   0.88255981   -7.6329669     261.5136  0.023233262  0.023470859            2 
  939000   0.89087394   -7.6552032    261.74054   0.02322866  0.023454379            2 
  940000   0.86160402   -7.6390124     262.4138  0.023263635  0.023437908            2 
  941000    0.8666932    -7.673294     261.3743  0.023146856  0.023421419            3 
  942000   0.86966027   -7.6061593    261.79645  0.023159629    0.0234049            3 
  943000     0.877533   -7.6552098    262.10992  0.023162771  0.023388426            1 
  944000   0.88388091    -7.652628    261.86862  0.023116933  0.023371809            2 
  945000   0.85904239   -7.6392541    261.86618  0.023092255   0.02335526            3 
  946000   0.87161469   -7.6179379    262.72308   0.02314333   0.02333874            1 
  947000   0.90375362   -7.6345452    262.71753  0.023118403  0.023322187            3 
  948000   0.88289241   -7.6355146    262.42093  0.023067944  0.023305595            3 
  949000   0.88549164   -7.6266369    262.58631  0.023058159  0.023289133            3 
  950000   0.89542904   -7.6550045    262.83645  0.023055829  0.023272623            4 
  951000   0.88529302   -7.6653686    262.31067  0.022985513  0.023256152            2 
  952000   0.88335702    -7.652211    263.30522  0.023048426   0.02323965            2 
  953000   0.88310514   -7.6233925    263.54623  0.023045315   0.02322315            2 
  954000   0.88380928   -7.6711234    263.68367  0.023033165  0.023206746            1 
  955000   0.86227873   -7.6761284     263.6502  0.023006126  0.023190318            2 
  956000   0.85093147   -7.6700626    263.39715  0.022960002  0.023173846            2 
  957000   0.85975134   -7.6644473    264.05712   0.02299348  0.023157322            2 
  958000   0.88238509   -7.6593857    264.66837  0.023022649  0.023140945            2 
  959000   0.87383113   -7.6514138    264.31237  0.022967707  0.023124564            2 
  960000   0.88049183   -7.6729341    264.27818  0.022940814    0.0231083            1 
  961000    0.8929558   -7.6528576     264.4728  0.022933819  0.023091905            4 
  962000   0.88167705    -7.630281    263.68585   0.02284181  0.023075527            3 
  963000   0.88014336   -7.6797498    264.17742  0.022860629  0.023059099            4 
  964000   0.87141039   -7.6979206    264.48094  0.022863152  0.023042667            2 
  965000   0.85128197   -7.6598342    264.26067  0.022820438  0.023026309            1 
  966000    0.8562131   -7.6470353    264.68049  0.022833031  0.023009865            2 
  967000   0.86185814   -7.6900886    263.96444  0.022747711  0.022993425            4 
  968000   0.86820563   -7.6462678    264.12295  0.022737858  0.022977074            2 
  969000    0.8863675   -7.6339872    265.32322  0.022817614  0.022960708            3 
  970000   0.87111305   -7.6693453    264.29681  0.022705911  0.022944294            2 
  971000   0.85459778   -7.6753104    264.78284  0.022724239  0.022927873            2 
  972000   0.88233341    -7.684183    264.73265  0.022696558  0.022911383            6 
  973000   0.85347898   -7.6751992     265.1135   0.02270585  0.022894927            2 
  974000   0.85035065   -7.6798175    264.41775   0.02262301  0.022878223            1 
  975000   0.86910527   -7.7059761    265.04086  0.022653065  0.022861547            2 
  976000   0.86108336   -7.6805471    264.13356  0.022552387  0.022844857            1 
  977000   0.85502178   -7.7031877    265.07537  0.022609635  0.022828293            1 
  978000   0.85902954   -7.6777463    265.47604  0.022620658  0.022811766            1 
  979000    0.8462146     -7.67921    265.54993  0.022603841   0.02279525            2 
  980000   0.88124657   -7.6821896    265.63452  0.022587969  0.022778803            4 
  981000   0.86692631    -7.666939    265.62221  0.022563899  0.022762391            2 
  982000   0.86591476   -7.6840554    266.45223  0.022611357  0.022745969            8 
  983000   0.88089746   -7.6740328    266.27607  0.022573421  0.022729617            1 
  984000    0.8586779   -7.6743714    266.16084  0.022540722  0.022713144            2 
  985000   0.84583065   -7.6969524    265.53275    0.0224647  0.022696671            3 
  986000   0.85290115   -7.6780582    266.63975  0.022535476  0.022680297            1 
  987000   0.87110351   -7.6812315    266.00508  0.022459058  0.022664024            1 
  988000   0.84614172   -7.6639613    266.53721  0.022481209   0.02264779            4 
  989000   0.85491546   -7.6802339    266.13122  0.022424269  0.022631546            3 
  990000   0.86222017   -7.6967228    266.24498  0.022411194  0.022615142       -1e+20 
  991000   0.87527094   -7.7034671    266.48386  0.022408667  0.022598702            2 
  992000   0.85577282   -7.7022039     267.2376  0.022449395  0.022582313            2 
  993000    0.8771256   -7.6678045     267.2172  0.022425076  0.022566091            2 
  994000   0.83401266    -7.670498    267.00894  0.022385055  0.022549872            4 
  995000   0.86489252   -7.6671784    266.44469    0.0223153   0.02253363            3 
  996000   0.86232102   -7.6947474    266.80653  0.022323171  0.022517175            1 
  997000   0.83783758   -7.6983822    266.68891  0.022290949  0.022500707            3 
  998000   0.87152757   -7.6675654     267.1626  0.022308166  0.022484344            3 
  999000   0.84984497   -7.6693906    267.51568  0.022315288  0.022468038            1 
 1000000   0.86063656   -7.6668736    267.04051  0.022253376  0.022451755            6 
 1001000   0.85380462   -7.6955714     267.3759  0.022259066  0.022435408            1 
 1002000   0.84950888   -7.7118192    267.69163   0.02226311  0.022419072            2 
 1003000   0.82926737   -7.6889794     267.0016  0.022183583  0.022402707            2 
 1004000   0.84069719   -7.6786783    267.40785  0.022195206  0.022386406            3 
 1005000   0.85585077   -7.6932915    267.67067  0.022194915  0.022370044            2 
 1006000   0.87088926    -7.734338     267.3583  0.022146976  0.022353659            4 
 1007000   0.84606696   -7.7307285    267.73196  0.022155906  0.022337254            6 
 1008000   0.86310558   -7.7093319    268.15886  0.022169218  0.022321021            3 
 1009000    0.8602208   -7.7178523    268.35771   0.02216367   0.02230491            2 
 1010000   0.85204171   -7.6726525    269.05063  0.022198897  0.022288809            3 
 1011000   0.86803875   -7.6983361    268.37677  0.022121396  0.022272634            1 
 1012000   0.85048899   -7.7329254    268.22916  0.022087381  0.022256479            3 
 1013000   0.82470555   -7.7181358    269.12417  0.022139205  0.022240352            3 
 1014000   0.84999156   -7.7199988     268.6905  0.022081731  0.022224289            3 
 1015000    0.8477498   -7.7110117    268.86289  0.022074129  0.022208087            2 
 1016000   0.85257627   -7.7368306    268.55091  0.022026813  0.022191946            2 
 1017000   0.85308626   -7.6948454    268.73875  0.022020547  0.022175983            3 
 1018000   0.84484425   -7.7347414    269.24892  0.022040678  0.022160042            4 
 1019000   0.84722677   -7.7337299    269.13438  0.022009681  0.022144053            3 
 1020000   0.84979517    -7.667298    269.77379  0.022040342  0.022128236            3 
 1021000   0.85109163   -7.6794672    268.99622  0.021955291  0.022112355            3 
 1022000   0.83302878   -7.6914032    270.09754  0.022023609  0.022096518            2 
 1023000   0.84580982     -7.75336    269.55565  0.021957939  0.022080649            3 
 1024000    0.8543645   -7.7215712    269.57512  0.021938079  0.022064551            3 
 1025000   0.85213317   -7.7389768    269.19101  0.021885448  0.022048443            2 
 1026000   0.83699894   -7.7215454    269.40276  0.021881315  0.022032376            2 
 1027000   0.83887111   -7.7329692    269.77323   0.02189007   0.02201631            1 
 1028000   0.85007085   -7.7270729    270.44384  0.021923139  0.022000193            4 
 1029000   0.82387128   -7.7224954    269.97987  0.021864259  0.021984089            5 
 1030000    0.8414621   -7.6908144    270.13525  0.021855603  0.021968084            2 
 1031000   0.84844006   -7.6819181    270.18993  0.021838824  0.021952227            1 
 1032000   0.83657066   -7.7282111    269.67248  0.021775878  0.021936221            1 
 1033000   0.85396442   -7.7166622    270.57233   0.02182739  0.021920235            2 
 1034000   0.83544271   -7.6940385    269.87629  0.021750185  0.021904299            1 
 1035000   0.83671775   -7.7632568    269.66909  0.021712487  0.021888177            2 
 1036000   0.83024471   -7.7086529     270.6766  0.021772571   0.02187218            4 
 1037000   0.83346465   -7.7254949    270.32416  0.021723253  0.021856094            2 
 1038000    0.8395705   -7.7640047     270.6462  0.021728179  0.021840071            2 
 1039000   0.86087838   -7.7405311    270.17037  0.021669103  0.021823965            1 
 1040000   0.83449576   -7.7453089    270.06353  0.021639706  0.021807793            2 
 1041000    0.8260623   -7.7160102    270.56869  0.021659357  0.021791689            2 
 1042000   0.83682049   -7.7192566    270.76037    0.0216539  0.021775658            2 
 1043000   0.84589661   -7.7182609    270.71071  0.021629171  0.021759433            3 
 1044000   0.83499538   -7.7483223    270.35379  0.021579964  0.021743196            3 
 1045000   0.84457148   -7.7594274    270.08274  0.021537699  0.021726846            4 
 1046000   0.84076709   -7.7758074    270.34438  0.021537953   0.02171055            4 
 1047000   0.81771077   -7.7447247    271.18409  0.021584216   0.02169438            2 
 1048000   0.83857918   -7.7504014    270.59964  0.021517147   0.02167815            2 
 1049000   0.84439643   -7.7214022    271.36708  0.021557601  0.021662026            1 
 1050000   0.84707131   -7.7382698    271.24213  0.021527153  0.021645922            7 
 1051000   0.84453756   -7.7548785    271.58484  0.021533844  0.021629779            2 
 1052000   0.82136997   -7.7554914    271.23273  0.021485483  0.021613611            5 
 1053000   0.84894793   -7.7533744    271.32952  0.021472738  0.021597377            3 
 1054000   0.84239964   -7.7654455     271.3771  0.021456127   0.02158113            1 
 1055000    0.8307113   -7.7591125    271.00214  0.021406172  0.021565084            3 
 1056000   0.85832363   -7.7592066    270.90196  0.021377996  0.021549044            2 
 1057000   0.83383771   -7.7747127    271.63048  0.021415206  0.021532872            2 
 1058000    0.8148528   -7.7600093    270.97679  0.021343478  0.021516797            2 
 1059000   0.82983856   -7.7279727    272.78151  0.021465337  0.021500824            1 
 1060000   0.82186993   -7.7548953    271.91345  0.021376843  0.021484838            2 
 1061000   0.82519746   -7.7360881    272.92523  0.021436163  0.021469067            2 
 1062000   0.83309217   -7.7369646    272.08935  0.021350389  0.021453292            3 
 1063000   0.85780638   -7.7196463    272.70728  0.021378746  0.021437478            2 
 1064000   0.83750598   -7.7741093    271.86503  0.021292687  0.021421629            3 
 1065000   0.82232462    -7.734825    273.37805  0.021391083  0.021405725            2 
 1066000   0.82469447   -7.7591646     272.5888  0.021309319  0.021389892            2 
 1067000    0.8157832   -7.7399047     272.5868  0.021289191  0.021374049            5 
 1068000   0.82551068   -7.7729927    272.59996  0.021270284  0.021358249            6 
 1069000   0.84255321   -7.7645484    273.42431  0.021314648   0.02134251            5 
 1070000    0.8277873   -7.7535253    272.84159  0.021249345  0.021326776            2 
 1071000   0.82962296   -7.7607835    273.87174  0.021309659  0.021311103            2 
 1072000   0.82642242   -7.7784232     273.3089  0.021246028   0.02129534            2 
 1073000   0.82637252   -7.7735733     273.4008  0.021233364  0.021279615            2 
 1074000   0.82968485   -7.7758538    273.59058  0.021228319  0.021263916            1 
 1075000   0.82210573   -7.7732501    273.00646  0.021163292  0.021248291            3 
 1076000   0.83082332   -7.7956172    272.61683  0.021113447  0.021232543            4 
 1077000   0.80804088   -7.7498547    273.42121  0.021156082  0.021216724            2 
 1078000   0.81034874   -7.7755732    273.93828  0.021176428  0.021200865            2 
 1079000   0.81464601   -7.7823085    272.66892  0.021058768  0.021184953            1 
 1080000   0.80156774   -7.8023819    272.98101  0.021063349  0.021168953            2 
 1081000   0.82230151   -7.7833504    272.75739  0.021026625  0.021153013            2 
 1082000   0.81034502   -7.7782889    273.35329  0.021053088  0.021137046            2 
 1083000   0.82103966   -7.7746334    272.95283  0.021002834  0.021120992            3 
 1084000   0.82360848   -7.7936239    274.04019   0.02106705  0.021104857            1 
 1085000   0.81988738   -7.8098547    272.99435  0.020967308  0.021088768            2 
 1086000   0.80928968   -7.7848333    272.95556  0.020945025  0.021072718            3 
 1087000   0.84056221   -7.7932225    273.13979  0.020939879  0.021056647            2 
 1088000   0.82036102   -7.7906752    273.20621  0.020925721  0.021040531            4 
 1089000   0.82196273   -7.7839137    273.50358   0.02092926  0.021024479            2 
 1090000   0.81476752   -7.7964234    272.98167  0.020870158  0.021008379            2 
 1091000   0.81936823   -7.7839497    272.66099  0.020826534  0.020992207            1 
 1092000   0.80529903   -7.8195677    273.27446  0.020854278  0.020976092            2 
 1093000   0.82837592   -7.7961741    273.09662  0.020821639  0.020960041            2 
 1094000   0.83485031   -7.8060515    273.62177  0.020842609  0.020943902            2 
 1095000   0.81872179   -7.8104054    273.58043  0.020820428  0.020927763            2 
 1096000   0.81702811   -7.8264534    273.86613  0.020823155  0.020911625            5 
 1097000   0.82485092   -7.8104142    272.86426  0.020728066  0.020895498            4 
 1098000   0.78043177   -7.7896391    273.75709   0.02077695  0.020879377            2 
 1099000   0.82740535    -7.789068    273.75739  0.020758067  0.020863426            2 
 1100000   0.80865393     -7.79254    274.21002  0.020773487  0.020847598            3 
 1101000   0.80502478   -7.8004209    273.97632   0.02073693  0.020831666            2 
 1102000   0.79422582   -7.7627086    273.88778  0.020711417  0.020815704            2 
 1103000   0.82017751   -7.7780874    274.18934  0.020715423   0.02079974            5 
 1104000    0.8106956   -7.7614832    274.97211  0.020755745  0.020783813            2 
 1105000   0.82268504   -7.8219957    274.48513  0.020700236  0.020768054            1 
 1106000   0.80408172   -7.7778065    274.94416  0.020716106  0.020752228            3 
 1107000   0.81620301   -7.8266862     275.1762   0.02071486  0.020736379            1 
 1108000   0.80805835   -7.8077902    274.47417  0.020643364  0.020720471            4 
 1109000   0.82552432   -7.8245056    274.26171  0.020608785  0.020704627            6 
 1110000   0.79513321   -7.7898618    274.20995  0.020586333  0.020688707            4 
 1111000   0.82447998   -7.8080649    274.43993  0.020585053  0.020672811            2 
 1112000   0.82978503    -7.807043    274.41026  0.020564318   0.02065693            1 
 1113000   0.82028744   -7.8176604    275.16772  0.020602554  0.020641027            3 
 1114000   0.80092905   -7.7978188    274.90511  0.020564416  0.020625133            3 
 1115000   0.84204784   -7.8025369    275.69392  0.020604927  0.020609384            3 
 1116000   0.81376099    -7.815349    274.88186  0.020525826  0.020593611            3 
 1117000   0.81585227   -7.8333048    275.08924  0.020522922  0.020577709            2 
 1118000   0.80355114     -7.80587    275.17049  0.020510621  0.020561892            2 
 1119000   0.80190564   -7.8122488    275.33648  0.020504653  0.020546061            2 
 1120000   0.80229967   -7.8078404    274.58921  0.020430745  0.020530155            4 
 1121000   0.80106406   -7.8472083    274.96194  0.020440228  0.020514201            2 
 1122000   0.80573416   -7.8577278    275.29986  0.020447108  0.020498294            1 
 1123000   0.81670547   -7.8188769    275.19161  0.020420867  0.020482403            2 
 1124000   0.83489416   -7.8117946     275.1942  0.020402892  0.020466588            3 
 1125000   0.80661133   -7.8051491    275.78815  0.020428752  0.020450893            2 
 1126000   0.81248803   -7.8126927    275.13881  0.020362553  0.020435049            5 
 1127000   0.80883373   -7.8343275    275.32706  0.020358405  0.020419158            1 
 1128000   0.78831734   -7.8434018    274.61862  0.020288018  0.020403056            2 
 1129000   0.81732474    -7.843309     275.1409  0.020308599  0.020387038            4 
 1130000   0.79146124   -7.8138044    275.64453  0.020327768  0.020371072            1 
 1131000   0.80205862   -7.7987837    275.30632  0.020284875  0.020355205            4 
 1132000   0.79049487   -7.8227603    275.24342  0.020262325  0.020339457            2 
 1133000   0.82114505   -7.8248883    275.64374  0.020273885  0.020323674            2 
 1134000   0.78414594   -7.8065973    274.75295  0.020190546  0.020307835            3 
 1135000   0.80235622   -7.8145381     275.4903  0.020226894  0.020291942            1 
 1136000   0.79734884   -7.8121409    275.74888  0.020228058  0.020276034            2 
 1137000   0.80297503   -7.8212862    275.48394  0.020190849  0.020260143            2 
 1138000   0.80484805   -7.8224453    276.21578  0.020226698  0.020244216            4 
 1139000   0.81920523   -7.8205936    275.66443  0.020168601  0.020228303            5 
 1140000   0.79672605    -7.848517    275.46092  0.020136032  0.020212252            2 
 1141000   0.81844496   -7.8568895    275.76406  0.020140524  0.020196223            3 
 1142000   0.78562867   -7.8302469    276.01124  0.020140925  0.020180249            1 
 1143000   0.81515382   -7.8089966    275.40852  0.020079362   0.02016428            2 
 1144000   0.80180286   -7.8214297    276.13452  0.020114694  0.020148417            3 
 1145000   0.79045845   -7.8394271    275.06746  0.020019465  0.020132466            4 
 1146000   0.79453402   -7.8464274    275.73252  0.020050358   0.02011665            2 
 1147000   0.82185683   -7.8431305    275.46286  0.020013286    0.0201008            2 
 1148000   0.78783769   -7.8226498    275.60591  0.020006236  0.020084981            9 
 1149000   0.79254903   -7.8543861    275.55558  0.019985174  0.020069225            2 
 1150000    0.7988907    -7.824191    276.18917  0.020013708  0.020053431            2 
 1151000    0.7968427   -7.8484398    275.79732   0.01996795  0.020037622            1 
 1152000    0.7800182   -7.8410503    276.78172  0.020021826  0.020021833            3 
 1153000   0.78440527   -7.8440026    276.35732  0.019973787  0.020006136            2 
 1154000    0.7960719   -7.8487268    276.55977  0.019971098  0.019990401            4 
 1155000   0.78674147   -7.8578274    276.35969  0.019939371  0.019974702            2 
 1156000   0.79002046   -7.8326039    276.69042  0.019945964  0.019959098            1 
 1157000   0.80437594   -7.8442719    276.81928  0.019938006  0.019943567            1 
 1158000   0.79559808   -7.8361189    276.55239  0.019901582   0.01992802            2 
 1159000   0.78360763   -7.8237732    276.88644   0.01990843  0.019912511            3 
 1160000   0.78556785    -7.841042    276.93493  0.019894751  0.019897008            3 
 1161000   0.79515008   -7.8326041    277.59554  0.019925032  0.019881532            3 
 1162000    0.7814751   -7.8683571    277.48777  0.019900156   0.01986606            1 
 1163000   0.79147214   -7.8505561    276.92792  0.019842929  0.019850527            4 
 1164000   0.77337303   -7.8216078    277.98723   0.01990172  0.019834938            2 
 1165000   0.77808626   -7.8649597    275.77362  0.019726296  0.019819351            3 
 1166000   0.79329746   -7.9042249    276.70113  0.019775667  0.019803767            4 
 1167000   0.79896073   -7.8753266    277.13665  0.019789821  0.019788201            2 
 1168000   0.79717732   -7.8972144    277.22042  0.019778854   0.01977271            3 
 1169000   0.79151462   -7.8531471    277.47678   0.01978021  0.019757201            2 
 1170000   0.79733948   -7.8715524    277.02847  0.019731373  0.019741708            2 
 1171000    0.7810713   -7.8562825    277.06249  0.019716944  0.019726285            2 
 1172000   0.78389865   -7.8538553    277.80486  0.019752906  0.019710939            3 
 1173000   0.79241207   -7.8815197    277.79672  0.019735487  0.019695573            2 
 1174000   0.75797289   -7.8687847     277.5355  0.019700135  0.019680176            2 
 1175000   0.77537534   -7.8741121    277.49166   0.01968026  0.019664754            1 
 1176000   0.77247745   -7.8655385    277.76428  0.019682843  0.019649309            4 
 1177000   0.78569182    -7.872366    278.00098  0.019682879  0.019633948            5 
 1178000   0.77540563   -7.8979921    277.06917  0.019600253  0.019618494            2 
 1179000    0.7811405   -7.8437222    278.55843  0.019688891  0.019603118            2 
 1180000   0.76967902   -7.9027499    278.20444  0.019647206  0.019587741            3 
 1181000   0.80385268   -7.8757386    277.36312  0.019571205  0.019572415            3 
 1182000   0.78323954   -7.8782636    277.85418  0.019589268  0.019557061            1 
 1183000   0.76796703   -7.8837795    278.34241  0.019607101  0.019541786            2 
 1184000   0.77837531   -7.8821917    278.32791   0.01958952  0.019526494            3 
 1185000   0.76924285    -7.902363    278.00074  0.019549981  0.019511148            2 
 1186000   0.79868232   -7.9088601    277.98392  0.019532316  0.019495768            4 
 1187000   0.76789161   -7.8631209    277.79695  0.019502734  0.019480447            3 
 1188000   0.79056295   -7.8706929    278.19156  0.019513998  0.019465145            2 
 1189000   0.78874949   -7.8720117    278.34314   0.01950821  0.019449869            2 
 1190000   0.79111884   -7.8881379    279.05646  0.019541769  0.019434558            3 
 1191000   0.77137445   -7.8927848    278.00317  0.019451663  0.019419242            4 
 1192000   0.77735368   -7.8834952    278.77569  0.019489352   0.01940403            3 
 1193000   0.78197608   -7.8746509    279.14146  0.019498565   0.01938882            3 
 1194000   0.77045636   -7.8792028    278.39734    0.0194303  0.019373603            2 
 1195000   0.77107856   -7.9071819    278.24416  0.019403359  0.019358338            1 
 1196000   0.77791882    -7.890251     278.2874  0.019390148  0.019343083            2 
 1197000     0.776286    -7.886314    278.62862  0.019397704  0.019327836            3 
 1198000   0.78845478   -7.8829374    278.72674  0.019388337  0.019312611            3 
 1199000   0.76956118   -7.8820487    279.08889  0.019397337  0.019297474            4 
 1200000   0.77814579   -7.8772497    277.94865   0.01930199  0.019282344            2 
 1201000   0.78637272   -7.8926136    279.32848   0.01938166  0.019267156            4 
 1202000   0.77844754   -7.8904693      279.218  0.019357876  0.019252033            3 
 1203000   0.77343812   -7.8858782    278.65869   0.01930304  0.019236901            2 
 1204000   0.76896622   -7.8738834    279.20885  0.019325086  0.019221742            2 
 1205000   0.77342672   -7.8910163    279.12771  0.019303438  0.019206568            2 
 1206000   0.77229971   -7.8998398     278.7778  0.019263253  0.019191392            2 
 1207000   0.78060079   -7.8906664    278.84191   0.01925172  0.019176143            2 
 1208000   0.76630045   -7.9103714    278.77415  0.019231108  0.019160865            1 
 1209000   0.77357159   -7.9140548    278.83619  0.019219478  0.019145563            1 
 1210000   0.77130364   -7.9305406    278.37153  0.019171593  0.019130249            1 
 1211000   0.75875565   -7.8972511    278.11087  0.019137825  0.019114922            3 
 1212000   0.76086496   -7.9269193    278.46037  0.019146065  0.019099586            3 
 1213000   0.78288339   -7.9084727    278.72986  0.019148795  0.019084225            3 
 1214000   0.76643809   -7.9264312    278.44285   0.01911332  0.019068891            3 
 1215000   0.77784359   -7.9185988    278.17243  0.019079042  0.019053567            2 
 1216000   0.75386855   -7.9245741    278.36822  0.019076769  0.019038231            3 
 1217000   0.77419099   -7.8973792    279.12361  0.019112819  0.019022887            2 
 1218000   0.78063146   -7.8920283    278.79316  0.019074518  0.019007626            2 
 1219000   0.78445381   -7.9043482     278.8588  0.019063358    0.0189924            2 
 1220000   0.77912802   -7.9243523    279.11192  0.019065022  0.018977133            2 
 1221000   0.75598979   -7.8831505    279.12516  0.019050311  0.018961971            2 
 1222000   0.75654071    -7.940907    278.58144  0.018997643   0.01894682            4 
 1223000   0.76362407   -7.8914625     278.9402  0.019006555    0.0189317            3 
 1224000   0.76825501   -7.9090287    278.93187   0.01899046  0.018916535            2 
 1225000    0.7701751   -7.9366612    278.78095   0.01896469  0.018901382            1 
 1226000   0.75696337   -7.9312174    279.13998  0.018973626  0.018886244            3 
 1227000   0.74946489   -7.8966751    279.44401  0.018978811  0.018871172            4 
 1228000   0.76775328   -7.8953172    279.19852  0.018946696  0.018856192            1 
 1229000   0.76696903   -7.9032307    279.31915   0.01893946  0.018841136            2 
 1230000   0.75994326   -7.9198736    279.89664  0.018963187  0.018826121            3 
 1231000   0.75547769   -7.8929757    280.49451  0.018988256  0.018811104            2 
 1232000   0.75608185    -7.927545    279.55623  0.018909377  0.018796133            2 
 1233000   0.76714847   -7.9464114    279.51862  0.018891499  0.018781203            2 
 1234000   0.77426138   -7.9189108    279.89931  0.018901899  0.018766168            2 
 1235000   0.77090227   -7.9283962      280.158  0.018904048  0.018751174            2 
 1236000     0.756824   -7.9207229    279.63011  0.018853163  0.018736203            3 
 1237000   0.76903337   -7.9381999    279.97655  0.018861261  0.018721231            1 
 1238000   0.75107985   -7.9227766    279.43178  0.018809355  0.018706236            2 
 1239000   0.76602234   -7.9100938    279.19863  0.018778493  0.018691209            2 
 1240000   0.76121738     -7.93896    279.26321  0.018767689  0.018676269            3 
 1241000   0.74532976   -7.9605936    279.89375  0.018794907  0.018661311            5 
 1242000   0.76288684   -7.9502957    280.03086  0.018788973   0.01864635            6 
 1243000   0.75957614    -7.926343    279.71483   0.01875267  0.018631392            3 
 1244000   0.76316489    -7.907798    279.88505  0.018748999  0.018616462            5 
 1245000   0.76263834   -7.9383171    279.60674  0.018715311  0.018601516            3 
 1246000   0.76101163   -7.9411331    279.81846   0.01871445  0.018586577            1 
 1247000   0.77779193   -7.9628358    279.80729  0.018698696  0.018571639            2 
 1248000   0.76665788   -7.9375284    280.32014  0.018717958   0.01855677            2 
 1249000    0.7756766   -7.9564488    280.76175  0.018732436  0.018541894            2 
 1250000    0.7487206   -7.9378363    280.50784  0.018700522  0.018527016            4 
 1251000   0.76323076   -7.9379959    280.55403  0.018688651  0.018512153            2 
 1252000   0.74278226   -7.9464927    280.31604  0.018657884   0.01849726            4 
 1253000    0.7513293   -7.9519586    279.92278  0.018616838  0.018482327            2 
 1254000   0.73632014      -7.9766    279.68027  0.018585876  0.018467356            6 
 1255000    0.7544969   -7.9644767    280.07357  0.018597183  0.018452335            2 
 1256000   0.75519864   -7.9650459    280.00563  0.018577868  0.018437341            2 
 1257000   0.74801132   -7.9782403    279.17542  0.018508049  0.018422364            4 
 1258000   0.75069807   -7.9622475    279.68871  0.018527339  0.018407335            2 
 1259000   0.75959554   -7.9582248     279.8002  0.018520002  0.018392329            2 
 1260000   0.74765045   -7.9582373    278.95684  0.018449526  0.018377299            2 
 1261000   0.77088421   -7.9607868    279.54181  0.018473554  0.018362334            2 
 1262000   0.76506804    -7.947866    280.18031  0.018501077  0.018347393            5 
 1263000   0.74938406   -7.9835832    279.85134  0.018464723  0.018332379            7 
 1264000   0.74265893   -7.9672111    279.50455  0.018427251  0.018317359            3 
 1265000   0.74698359   -7.9505502    280.40419  0.018471949  0.018302394            6 
 1266000    0.7430396   -7.9654242    280.29923   0.01845045  0.018287429            1 
 1267000   0.74740274   -7.9583656    279.73977   0.01839909  0.018272496            2 
 1268000   0.74309083   -8.0045221    279.72142  0.018383374  0.018257541            3 
 1269000   0.74158026   -7.9792379    280.31141  0.018407631  0.018242647            5 
 1270000   0.74612838   -7.9689838    280.32398  0.018393962  0.018227782            4 
 1271000   0.73182775   -7.9836439    279.55032  0.018328765  0.018212847            3 
 1272000   0.74403484   -7.9670578    280.12547  0.018352036  0.018197946            4 
 1273000   0.76278898   -7.9493673    280.48013  0.018360836  0.018183079            4 
 1274000   0.72972308   -7.9410724    280.15153   0.01832493  0.018168271            1 
 1275000   0.73954291   -7.9685654     280.0136  0.018301543  0.018153493            1 
 1276000   0.74635185   -7.9607499    280.27838  0.018304492  0.018138711            4 
 1277000   0.74644876   -7.9803181     280.0963  0.018278276  0.018124003            6 
 1278000   0.75971596   -7.9533401    280.30669  0.018277692  0.018109208            3 
 1279000   0.73672468   -7.9666706    280.94234  0.018304818  0.018094473            4 
 1280000    0.7562579   -7.9736039    280.44636  0.018258227  0.018079717            3 
 1281000   0.72754574   -7.9869122    279.92388  0.018209985  0.018064988            3 
 1282000   0.74323839   -7.9614093    280.90885  0.018259805  0.018050297            2 
 1283000    0.7547059   -7.9927721    280.54448  0.018221907  0.018035577            2 
 1284000   0.74548727   -7.9955477    280.07939  0.018177531  0.018020845            2 
 1285000   0.74880867   -7.9786822    280.14983  0.018167953  0.018006086            3 
 1286000   0.73021205   -7.9702269    280.33967  0.018166127  0.017991355            3 
 1287000   0.72585541   -8.0147274    279.77749   0.01811561  0.017976621            5 
 1288000   0.73601488   -7.9882395    280.64999  0.018157996  0.017961893            3 
 1289000   0.74595702   -7.9971931    280.63852  0.018143168  0.017947167            2 
 1290000   0.73067628   -8.0077854    280.86382  0.018143658  0.017932465            4 
 1291000    0.7317449   -7.9826543    280.52065  0.018107452   0.01791786            3 
 1292000   0.72470186   -8.0149275    280.29939  0.018079166  0.017903299            3 
 1293000   0.73816037   -7.9748869    280.88842  0.018103146  0.017888729            1 
 1294000   0.73926149   -7.9794265    281.03325  0.018098483  0.017874237            3 
 1295000   0.75128995    -7.959973    281.63203  0.018123039  0.017859777            2 
 1296000    0.7345919   -7.9729073    281.67309  0.018111696  0.017845347            4 
 1297000   0.73355773   -7.9703003    281.76182  0.018103432  0.017830907            3 
 1298000   0.73333852   -7.9493517    281.44521  0.018069158  0.017816464            3 
 1299000   0.74230594   -7.9789811    281.07887  0.018031747  0.017802009            4 
 1300000   0.74468546   -7.9825625    281.16494  0.018023394   0.01778759            2 
 1301000   0.72307775    -7.984354    281.76058  0.018047693  0.017773178            5 
 1302000   0.70538816   -7.9724012    281.42418    0.0180123  0.017758801            3 
 1303000   0.72096481   -7.9810455    281.78158  0.018021334  0.017744458            5 
 1304000   0.72243573   -7.9805429    281.51572  0.017990524  0.017730046            2 
 1305000   0.74405394   -8.0008185    281.48285  0.017974639  0.017715693            1 
 1306000   0.72971179    -8.018188    280.69798  0.017910795  0.017701347            3 
 1307000    0.7381704    -8.017736    281.85069  0.017970587   0.01768698            4 
 1308000   0.74913384   -8.0161886    281.75941  0.017951033  0.017672632            1 
 1309000   0.71963258    -8.017545    281.17318  0.017899999  0.017658253            2 
 1310000   0.74754817   -8.0299514    282.04328  0.017941684  0.017643866            3 
 1311000   0.72490425   -8.0271265    281.12629  0.017869711  0.017629493            5 
 1312000   0.72484926   -8.0008143    281.55861   0.01788355  0.017615106            2 
 1313000   0.72928167   -8.0202765    281.66982  0.017876988  0.017600778            2 
 1314000   0.72323328   -8.0136363    280.98833  0.017820163  0.017586446            2 
 1315000   0.72539103   -8.0220093    281.17134  0.017818209  0.017572112            3 
 1316000   0.73497083   -8.0199499    281.47371  0.017823816  0.017557798            4 
 1317000   0.74194799   -8.0374384    280.87283  0.017772262  0.017543487            2 
 1318000   0.71653786   -8.0366383    281.24037  0.017782017  0.017529179            3 
 1319000   0.72944576   -8.0159615    281.64856  0.017794324  0.017514926            1 
 1320000   0.72028214   -8.0272763    281.45459  0.017768598  0.017500658            4 
 1321000   0.71691599   -8.0126921     281.6279   0.01776608  0.017486425            4 
 1322000   0.72114112   -8.0371548    281.33758  0.017734341  0.017472184            3 
 1323000    0.7286343   -8.0398549    282.07085  0.017767123  0.017457951            1 
 1324000   0.73686739   -8.0423973    281.72625  0.017732015  0.017443733            2 
 1325000   0.73947528   -8.0228735    281.29587  0.017691564  0.017429506            2 
 1326000   0.72292074   -8.0287178    282.12407  0.017730271  0.017415275            6 
 1327000   0.75254818   -8.0045517     281.3652  0.017669254  0.017401125            2 
 1328000   0.72835339   -8.0140277    281.19889  0.017645513  0.017387008            8 
 1329000   0.72407476   -8.0205988    281.71726  0.017664739  0.017372828            2 
 1330000   0.72543314   -8.0287841    281.36249  0.017629229  0.017358668            2 
 1331000   0.73718899   -8.0327602    281.81651  0.017644409  0.017344494            4 
 1332000   0.74812054   -8.0517378    281.68503  0.017622937  0.017330365            2 
 1333000   0.71955507   -8.0324581    281.62826  0.017606168  0.017316264            2 
 1334000   0.72035969   -8.0288982    282.31709     0.017636  0.017302146           10 
 1335000   0.72233147   -8.0431605    281.72606  0.017585896  0.017288086            1 
 1336000   0.72512768   -8.0145164    282.17634  0.017600819  0.017274049            4 
 1337000   0.71838821   -8.0190773    281.40953  0.017539861  0.017260022            2 
 1338000   0.70740281   -8.0413982    281.67376  0.017543209  0.017245964            4 
 1339000   0.73398394   -8.0361267    281.71266  0.017532528  0.017231924            2 
 1340000   0.71849592   -8.0188607     282.1447  0.017546312   0.01721792            3 
 1341000   0.72895144    -8.012006    282.50304  0.017555496  0.017203971            8 
 1342000   0.71770467   -8.0104631    281.85761  0.017502335  0.017190016            3 
 1343000   0.72383498   -8.0094814    282.37947  0.017521685  0.017176111            1 
 1344000   0.71065254   -8.0056116    282.68808  0.017527783  0.017162165            2 
 1345000   0.71231167   -8.0113391    282.45608  0.017500377   0.01714822            3 
 1346000    0.7335885   -8.0263589    282.25885  0.017475164  0.017134313            2 
 1347000   0.70424198    -8.034302    282.39695  0.017470735  0.017120428            1 
 1348000   0.71293817   -8.0361967    282.23311  0.017447645  0.017106517            2 
 1349000   0.71716188   -8.0444215    282.16028  0.017430213  0.017092648            3 
 1350000   0.71794519   -8.0299276    282.21981  0.017420976  0.017078721            2 
 1351000   0.72493674   -8.0512507    281.80242  0.017382335  0.017064826            3 
 1352000   0.72612654   -8.0614626    282.31303  0.017400951  0.017050876            4 
 1353000   0.71532383   -8.0702993    282.19635  0.017380903  0.017036945            3 
 1354000    0.6933262   -8.0490597    282.09854  0.017362047  0.017023011            3 
 1355000   0.72683329   -8.0224679    282.39291  0.017367337  0.017009076            3 
 1356000   0.71377785   -8.0336945    282.88968  0.017385059  0.016995207            4 
 1357000   0.71807491   -8.0719268    282.06381  0.017321531  0.016981307            3 
 1358000   0.71369237   -8.0777987    282.11131  0.017311691  0.016967405            2 
 1359000   0.71366553    -8.086458    282.02257  0.017293511  0.016953502            7 
 1360000   0.72908419    -8.066454    281.72168  0.017262358  0.016939562            5 
 1361000   0.71060532   -8.0643255    282.64854  0.017306426  0.016925613            4 
 1362000   0.71590063   -8.0742243    281.98903  0.017253367  0.016911635            6 
 1363000   0.71986608   -8.0583368    282.32417  0.017261199  0.016897662            4 
 1364000   0.72162952   -8.0826993    281.57572  0.017202818  0.016883734            3 
 1365000   0.70327437   -8.0639158     281.5254  0.017187143  0.016869776            4 
 1366000   0.70674461   -8.0732847     281.7315  0.017187134  0.016855742            3 
 1367000   0.72521686   -8.0634028    282.36833  0.017213383  0.016841803            5 
 1368000   0.71171398   -8.0863038    281.86419   0.01717009  0.016827898            4 
 1369000   0.71194844   -8.0824493    282.14598    0.0171747  0.016813962            3 
 1370000   0.71368426   -8.0765287    281.77012  0.017139302       0.0168            8 
 1371000   0.70576672   -8.0679058    282.35339  0.017162253  0.016786116            2 
 1372000   0.72542661   -8.0492301    282.55788  0.017162165  0.016772299            4 
 1373000   0.69838968   -8.0636746    282.59134  0.017151696  0.016758487            5 
 1374000   0.70640617   -8.0494355    282.09023   0.01710882  0.016744679            4 
 1375000   0.71909806   -8.0777563    282.21749   0.01710409  0.016730887            2 
 1376000   0.72433239   -8.0733795    282.21288  0.017091381  0.016717084            2 
 1377000   0.70777193    -8.071407    282.01972  0.017067279  0.016703323            2 
 1378000   0.71616139   -8.0783157    282.11498  0.017060655  0.016689603            3 
 1379000   0.69085793   -8.0818671    282.50905  0.017072097   0.01667591            1 
 1380000   0.70247859   -8.0761749    282.45252  0.017056312  0.016662193            4 
 1381000   0.72025872   -8.1165316    281.95895  0.017014177  0.016648439            2 
 1382000   0.70741534   -8.0697297    281.83457  0.016994366  0.016634692            2 
 1383000   0.69408943   -8.1035091    281.80461  0.016980273  0.016620942            3 
 1384000   0.71165957   -8.0913963    281.78862  0.016967041  0.016607195            5 
 1385000   0.69458928   -8.0887791    282.94395  0.017024305  0.016593456            2 
 1386000   0.70699034   -8.0879764    282.44378  0.016981949  0.016579712            2 
 1387000   0.69276241   -8.0977065     282.0211   0.01694431  0.016566004            3 
 1388000   0.70153763   -8.0966467    282.42791  0.016956527  0.016552316            2 
 1389000   0.69641691   -8.1028114    281.91615  0.016913616  0.016538606            3 
 1390000    0.6877899   -8.0835734    281.78282  0.016893455  0.016524928            2 
 1391000   0.70309513   -8.1069466    282.58376  0.016929293  0.016511266            2 
 1392000   0.68466397   -8.0996568    281.88477  0.016875286  0.016497577            6 
 1393000   0.70157745   -8.1046452    282.13631  0.016878219  0.016483878            3 
 1394000   0.69269847   -8.1211605    281.95868  0.016855492  0.016470212            2 
 1395000    0.6964966   -8.0982819    281.83854  0.016836233  0.016456556            2 
 1396000   0.70871105   -8.0826126    282.21662  0.016846742  0.016442934            7 
 1397000   0.69234809   -8.1058664    281.75506   0.01680715  0.016429321            3 
 1398000   0.69410616    -8.098216    282.24026   0.01682405  0.016415724            2 
 1399000   0.69269709   -8.0897153     281.7913  0.016785281  0.016402105            3 
 1400000   0.69095892   -8.0941089     282.7658  0.016831297  0.016388493            3 
 1401000   0.69246416   -8.0944959    282.64494  0.016812095  0.016374882            3 
 1402000   0.68695061    -8.091825    282.39815  0.016785435   0.01636127            2 
 1403000   0.68864132   -8.1066964    281.90089  0.016743935  0.016347673            3 
 1404000    0.6880994   -8.1022365    282.56022  0.016771143  0.016334076            1 
 1405000   0.70566143   -8.1304792    281.76534   0.01671206  0.016320481            4 
 1406000   0.71051725   -8.0988469    282.20128  0.016726012  0.016306898            3 
 1407000   0.70060885   -8.1087178    281.90077  0.016696326   0.01629333            3 
 1408000   0.68117237   -8.0941576     282.5805  0.016724698  0.016279769            3 
 1409000   0.69283321   -8.1078026    281.84121  0.016669104  0.016266218            2 
 1410000   0.69288051   -8.1070538     282.7493  0.016710951  0.016252684            4 
 1411000   0.67599454   -8.0824434    282.41306   0.01667925  0.016239189            4 
 1412000   0.69583105   -8.1264477    282.23309  0.016656816  0.016225646            2 
 1413000   0.67654068   -8.1109606     282.3221  0.016650277  0.016212144            4 
 1414000     0.690577   -8.1079937     282.6342  0.016656896  0.016198651            2 
 1415000   0.66949129   -8.1104515    282.32692  0.016627027  0.016185158            3 
 1416000   0.69509237   -8.1189181    282.14784  0.016604746  0.016171712            3 
 1417000   0.69720883   -8.1247347    282.20784  0.016596556  0.016158286            4 
 1418000   0.69026901   -8.1187549    282.06707  0.016576579  0.016144814            3 
 1419000   0.71349791   -8.1458257    282.21215  0.016573417  0.016131381            3 
 1420000   0.69646574   -8.1193355    282.53178  0.016580503  0.016117953            4 
 1421000    0.6851019   -8.1290044    282.86632  0.016588454  0.016104513            6 
 1422000   0.68100039   -8.1387225    282.58228  0.016560143  0.016091086            2 
 1423000     0.671045   -8.1358735    282.50073   0.01654373  0.016077697            3 
 1424000   0.69153903   -8.1488346    282.29232  0.016519916  0.016064309            2 
 1425000   0.68905319    -8.093265    282.07504  0.016495616  0.016050953            3 
 1426000   0.68355213   -8.1335328    282.05247   0.01648273  0.016037617            2 
 1427000    0.6853173   -8.1414921    282.07926  0.016472744  0.016024231            2 
 1428000   0.68708476   -8.1283899    282.09739  0.016462266  0.016010865            4 
 1429000   0.70018561   -8.1312862    282.22566  0.016458226  0.015997505            3 
 1430000   0.69174806   -8.1367969    281.99142  0.016433066  0.015984157            4 
 1431000   0.67881801   -8.1328767    282.11728  0.016428912  0.015970765            2 
 1432000   0.67726003   -8.1526453    281.88018  0.016403642  0.015957389            3 
 1433000   0.68165582   -8.1410422    282.13603  0.016407073  0.015944025            4 
 1434000    0.6902668   -8.1519495    281.83723  0.016378267  0.015930651            4 
 1435000   0.68014024   -8.1453363    281.96319  0.016374169  0.015917315            3 
 1436000   0.65811947   -8.1323095    282.44784  0.016390892  0.015903983            4 
 1437000   0.67526762   -8.1315232    281.74768  0.016338882  0.015890675            3 
 1438000   0.67994481   -8.1640289    282.01908  0.016343248  0.015877333            3 
 1439000   0.66787246   -8.1239591    282.38702  0.016353198  0.015864022            3 
 1440000    0.6780227   -8.1501472     281.6838  0.016301146   0.01585076            3 
 1441000   0.68607262   -8.1241453    281.73979  0.016293071  0.015837497            4 
 1442000   0.69211153   -8.1594365    281.75938  0.016282904  0.015824237            3 
 1443000   0.66809436   -8.1518463    282.64333  0.016322669   0.01581099            2 
 1444000   0.67237068   -8.1390804     282.2192  0.016286888  0.015797708            2 
 1445000   0.68398486   -8.1427538    282.63943  0.016299852  0.015784448            2 
 1446000   0.66695612   -8.1655993    282.01336  0.016252499  0.015771189            1 
 1447000    0.6646744   -8.1585386    282.11077  0.016246877  0.015757902            3 
 1448000   0.67425922   -8.1306716    282.08552  0.016234203  0.015744625            2 
 1449000   0.67469702   -8.1501659    281.67268  0.016199257   0.01573135            4 
 1450000   0.66991033   -8.1412998    282.08378  0.016211711  0.015718126            3 
 1451000   0.66957037   -8.1700409    282.14918  0.016204295  0.015704875            3 
 1452000   0.65426658    -8.156185    282.20194  0.016196163  0.015691644            3 
 1453000   0.67218397   -8.1581326    281.83585   0.01616402  0.015678412            2 
 1454000   0.66075373   -8.1484208    281.83667   0.01615295  0.015665175            3 
 1455000    0.6731015   -8.1692635    281.62033  0.016129457  0.015651909            4 
 1456000    0.6894735   -8.1824776    281.89164  0.016133908  0.015638655            3 
 1457000   0.65879589   -8.1826335    281.61532  0.016107031  0.015625424            2 
 1458000   0.65680533   -8.1638195    281.34791  0.016080699  0.015612182            1 
 1459000   0.68325762   -8.1781683    281.48698  0.016077621  0.015598961            2 
 1460000   0.67538593    -8.183953     281.7005  0.016078795  0.015585726            2 
 1461000   0.67051508   -8.1860102    281.69898  0.016067703  0.015572485            3 
 1462000   0.66606325   -8.1793879    281.66055  0.016054523  0.015559259            2 
 1463000   0.66885388   -8.1746818    281.81122  0.016052131  0.015546052            5 
 1464000   0.67835731   -8.2013672    282.07794  0.016056349  0.015532872            2 
 1465000    0.6572554   -8.1661831    282.06221  0.016044494  0.015519706            2 
 1466000   0.65344613   -8.1765234    282.03086  0.016031768  0.015506551            3 
 1467000   0.66622027   -8.1650004    281.56238  0.015994228  0.015493417            3 
 1468000   0.65875525    -8.208869    281.45752   0.01597738  0.015480268            4 
 1469000    0.6715628   -8.1915366    281.50061  0.015968947  0.015467169            2 
 1470000   0.67500722   -8.1740529    281.85166  0.015977985  0.015454062            2 
 1471000   0.67238281   -8.1866666    281.03256   0.01592072  0.015440984            2 
 1472000   0.66831065   -8.2033194    281.65049  0.015944887  0.015427942            4 
 1473000   0.66042747   -8.1753093    282.12537  0.015960929  0.015414892            5 
 1474000   0.65998884   -8.1776815    282.18348  0.015953385  0.015401851            2 
 1475000   0.66770406   -8.1727141    281.68741  0.015914543  0.015388838            5 
 1476000   0.66126672   -8.1896096    281.50424  0.015893419  0.015375838            4 
 1477000   0.67748216   -8.1869361    281.67406   0.01589224  0.015362842            4 
 1478000   0.67247058   -8.2044114    281.76368   0.01588654  0.015349802            6 
 1479000   0.66024539   -8.1933769    281.88865   0.01588284  0.015336787            3 
 1480000   0.65577508   -8.2128581    281.21746  0.015834317  0.015323765            4 
 1481000   0.67019055   -8.1982347    281.68074  0.015849693  0.015310779            4 
 1482000   0.66999116   -8.2056719       281.79  0.015845142  0.015297827            5 
 1483000    0.6582989   -8.1911943    281.58206  0.015822773  0.015284867            6 
 1484000    0.6630477   -8.1999325    281.33651  0.015798321  0.015271889            5 
 1485000   0.66937168   -8.2002227    281.75785  0.015811327  0.015258918            5 
 1486000   0.67445517   -8.1853613     281.8159  0.015803942  0.015245975            3 
 1487000   0.66230574   -8.1802904    282.13033  0.015810936  0.015233094            5 
 1488000   0.66335815   -8.1976053    281.10408  0.015742836  0.015220182            1 
 1489000   0.64703432    -8.220637    281.91125  0.015777437  0.015207277            3 
 1490000   0.64930884   -8.1978415    281.61083  0.015750046  0.015194393            2 
 1491000   0.65694532   -8.1924994    281.63324  0.015740735  0.015181506            6 
 1492000   0.66063913   -8.2061613    281.57758  0.015727077  0.015168635            4 
 1493000   0.64467585   -8.1922311    281.34813  0.015703736  0.015155779            4 
 1494000   0.66056173   -8.1907586    281.42294  0.015697397  0.015142928            5 
 1495000   0.65347551   -8.1967491    281.70461  0.015702598   0.01513007            3 
 1496000     0.659851   -8.1936956    281.75557   0.01569494  0.015117233            2 
 1497000   0.66983752   -8.1834299    282.19677  0.015709017  0.015104419            2 
 1498000   0.65501678   -8.1986439    281.95266   0.01568495  0.015091628            3 
 1499000   0.66315201   -8.1909273     282.1937  0.015687886  0.015078851            2 
 1500000   0.65295931   -8.1999568    281.16454  0.015620252  0.015066101            3 
 1501000   0.66042725   -8.2108501    282.11121  0.015662404  0.015053356            2 
 1502000   0.66035374   -8.1922644    281.86528  0.015638331  0.015040618            5 
 1503000   0.64170179   -8.1952541    282.07313  0.015639451  0.015027916            4 
 1504000   0.64254135   -8.1887483    282.15778  0.015633742  0.015015235            5 
 1505000   0.64007285   -8.1687152     282.1258  0.015621583  0.015002553            2 
 1506000   0.65619685   -8.2069605    282.25035  0.015618102  0.014989877            2 
 1507000   0.65406114   -8.1685354    282.73718  0.015634659  0.014977211            3 
 1508000   0.65283825   -8.1916098    281.97359  0.015582095  0.014964549            3 
 1509000    0.6388653   -8.1972027    282.30991  0.015590342  0.014951926            5 
 1510000   0.65301252   -8.2117732    282.14272   0.01557079  0.014939269            4 
 1511000   0.64315326     -8.21039    281.65828  0.015533768  0.014926641            5 
 1512000   0.65723532   -8.2018701    281.53391   0.01551664   0.01491402            3 
 1513000    0.6549182   -8.1821849    281.83044  0.015522717   0.01490143            2 
 1514000   0.65258522   -8.2050915    282.23745  0.015534867  0.014888844            2 
 1515000   0.65209746   -8.2243862    281.85103  0.015503357  0.014876259            1 
 1516000   0.64692186   -8.2422813    281.36677  0.015466511  0.014863663            2 
 1517000   0.64974289   -8.2048749    281.77041  0.015478489  0.014851082            3 
 1518000   0.65288072   -8.2215312    281.91764  0.015476374  0.014838505            3 
 1519000   0.65723566   -8.2227739    281.42084  0.015438931  0.014825918            3 
 1520000   0.64797163   -8.2200256     281.6901  0.015443536  0.014813327            3 
 1521000   0.65928921   -8.2037733    281.42067  0.015418621  0.014800747            1 
 1522000   0.64556787   -8.2088961     281.3985  0.015407276  0.014788197            2 
 1523000    0.6364246   -8.2170234    281.88015  0.015423514   0.01477564            1 
 1524000   0.64915037   -8.2060741    281.62359  0.015399365  0.014763101            3 
 1525000   0.63772873   -8.2146551    281.97714  0.015408587  0.014750573            2 
 1526000    0.6475243   -8.2288683    281.68959  0.015382787  0.014738056            4 
 1527000   0.64276996   -8.2152608     281.6804  0.015372211  0.014725535            3 
 1528000   0.65539619   -8.2293799    282.01274  0.015380276  0.014713038            3 
 1529000   0.64295748   -8.2111529    281.81921  0.015359669  0.014700538            3 
 1530000   0.63437106   -8.2278391    280.88421  0.015298704  0.014688035            1 
 1531000   0.63030471   -8.2568809    281.33609  0.015313308  0.014675547            3 
 1532000    0.6564204   -8.2317409    281.70943   0.01532362  0.014663072            2 
 1533000   0.65580513   -8.2102763    281.85562  0.015321571  0.014650636            4 
 1534000   0.63751946   -8.2252336    281.23507  0.015277872   0.01463821            1 
 1535000   0.64655605   -8.2434319    281.50573  0.015282613  0.014625782            1 
 1536000   0.62218421   -8.2464657    281.76478  0.015286717   0.01461334            2 
 1537000   0.63923346    -8.236426     281.2908  0.015251074  0.014600897            2 
 1538000   0.63173981   -8.2436508    280.76121  0.015212463  0.014588466            2 
 1539000   0.63890808   -8.2386621    281.63847   0.01525008   0.01457608            2 
 1540000   0.64644887   -8.2441554    281.19574   0.01521622  0.014563678            3 
 1541000   0.63265112   -8.2396017    281.68418  0.015232759  0.014551281            2 
 1542000   0.64632664   -8.2457149    281.95684  0.015237615  0.014538874            4 
 1543000   0.63075731   -8.2538649    281.46831  0.015201356  0.014526485            3 
 1544000   0.63470983   -8.2499191    281.14831   0.01517424  0.014514121            2 
 1545000   0.64452687   -8.2540427    281.64258  0.015191078   0.01450178            1 
 1546000   0.64372817   -8.2604168    281.87673  0.015193873  0.014489431            2 
 1547000   0.63052999   -8.2556081    281.46534  0.015161891   0.01447709            3 
 1548000   0.64204002   -8.2692451    281.37181  0.015147061  0.014464772            2 
 1549000   0.62953783   -8.2580363    281.39538  0.015138551  0.014452459            2 
 1550000     0.646434   -8.2888909    280.67264  0.015089927   0.01444014            2 
 1551000   0.63775586   -8.2622745    281.52067  0.015125761  0.014427817            2 
 1552000    0.6389466   -8.2432297    281.37077  0.015107967  0.014415533            3 
 1553000   0.62216927   -8.2721271    281.46657  0.015103379  0.014403254            3 
 1554000   0.62267369   -8.2407103    281.86436  0.015114992  0.014391012            2 
 1555000   0.63993216   -8.2480815    281.22382  0.015070944  0.014378792            3 
 1556000   0.64321798   -8.2666051    281.66715  0.015085002  0.014366575            5 
 1557000   0.62398301    -8.278616    281.73288  0.015078831  0.014354368            4 
 1558000   0.63385679   -8.2710723    281.80748  0.015073143  0.014342161            3 
 1559000   0.62460538   -8.2712319    281.27268  0.015034888  0.014329973            3 
 1560000   0.63279529   -8.2640445    281.25402  0.015024253  0.014317806            3 
 1561000   0.61569847   -8.2821534    281.39542  0.015022177  0.014305628            3 
 1562000   0.63889505   -8.2849138    281.74668    0.0150313   0.01429347            1 
 1563000   0.62144767    -8.261786    281.75977  0.015022381   0.01428132            2 
 1564000   0.63933084    -8.278858    281.81119  0.015015515  0.014269206            2 
 1565000   0.63104698   -8.2692134     281.6254  0.014996028  0.014257102            4 
 1566000   0.62626531   -8.2849857    281.37457  0.014973104  0.014244977            2 
 1567000    0.6485083   -8.2840633    281.34518  0.014961986  0.014232876            3 
 1568000   0.62775731   -8.2489124    281.42431  0.014956649  0.014220778            3 
 1569000   0.62648097   -8.2775722    281.83058  0.014968695  0.014208718            4 
 1570000   0.62898148    -8.279465    281.14863  0.014922963  0.014196648            1 
 1571000   0.62065267   -8.3076253     281.4683  0.014930421  0.014184587            2 
 1572000   0.62732972   -8.2807728     281.5397  0.014924709  0.014172546            2 
 1573000   0.62590217   -8.2880564    281.79207   0.01492859  0.014160513            2 
 1574000   0.61192049    -8.287653    281.53099  0.014905283  0.014148489            2 
 1575000   0.62395037   -8.2738057    281.40502  0.014889155  0.014136472            3 
 1576000   0.62334692   -8.2952886    281.00045  0.014858315  0.014124462            1 
 1577000   0.62727388   -8.2722306    281.21179  0.014860061  0.014112455            3 
 1578000   0.60704584   -8.2945091    281.10921  0.014845227  0.014100458            2 
 1579000   0.62816047   -8.2965312    281.55464  0.014859333  0.014088473            2 
 1580000   0.61980369   -8.2908578    281.35542  0.014839421  0.014076525            4 
 1581000   0.60818816   -8.2824613    281.65992  0.014846085  0.014064563            3 
 1582000    0.6141886   -8.2695025    281.53655  0.014830202   0.01405261            3 
 1583000    0.6208927   -8.2877106    281.44697  0.014816118   0.01404065            2 
 1584000   0.61973047   -8.3010697    281.37086   0.01480276  0.014028713            2 
 1585000    0.6181942   -8.2704349    281.95951   0.01482437  0.014016797            3 
 1586000   0.63544025   -8.2686893    281.78463  0.014805834    0.0140049            1 
 1587000   0.61783839    -8.308299    281.20046   0.01476583  0.013993004            1 
 1588000   0.62139291   -8.3011041    281.22663  0.014757905  0.013981126            4 
 1589000   0.62058307   -8.2987549    280.92369   0.01473273  0.013969245            4 
 1590000   0.61768348   -8.3056318      281.189  0.014737369  0.013957369            3 
 1591000   0.62279076   -8.3004056    281.33941  0.014735984  0.013945524            3 
 1592000   0.61368352   -8.2795105    281.54835  0.014737665  0.013933676            2 
 1593000   0.61905722   -8.2953579    281.31148  0.014716022  0.013921848            1 
 1594000   0.61296233   -8.2909952    281.76018  0.014730248  0.013910034            3 
 1595000   0.61354336   -8.2784307    281.51871  0.014708396   0.01389823            2 
 1596000   0.61832497   -8.2808439     281.0181  0.014673042  0.013886433            2 
 1597000   0.59765627   -8.3087404    281.23002  0.014674913  0.013874665            3 
 1598000    0.6249541   -8.2864753    281.28585  0.014668641  0.013862896            2 
 1599000   0.60960197   -8.2949889    281.32474  0.014661494  0.013851156            1 
 1600000   0.60191978   -8.3004441    281.81342  0.014677782  0.013839418            3 
 1601000   0.61007019   -8.2746294    281.24516  0.014639036  0.013827676            3 
 1602000   0.62708487   -8.3076696    280.98145   0.01461618  0.013815967            4 
 1603000    0.6054454   -8.2777281    281.45816  0.014631844  0.013804263            2 
 1604000   0.61156348   -8.2814904    281.50343  0.014625074   0.01379257            1 
 1605000   0.60787564   -8.3087349    281.66126  0.014624157  0.013780866            2 
 1606000   0.61097996   -8.2891084    281.47298  0.014605281  0.013769195            3 
 1607000   0.63050972   -8.3115062    281.27435  0.014585892  0.013757511            3 
 1608000   0.60534906   -8.2815655    281.52406  0.014589763  0.013745828            1 
 1609000   0.61359721   -8.3023098    281.59869   0.01458456  0.013734165            4 
 1610000   0.62112152     -8.29929    281.13029  0.014551257  0.013722512            2 
 1611000   0.60052464   -8.2992682     281.1448  0.014542975  0.013710885            5 
 1612000   0.62082649   -8.3037914    280.90969    0.0145218  0.013699223            3 
 1613000   0.60304535   -8.3010551    280.62163  0.014497914  0.013687596            2 
 1614000   0.62008255   -8.3043893    281.52484  0.014535566  0.013675992            5 
 1615000   0.60155811    -8.315432    281.12802   0.01450609  0.013664395            2 
 1616000   0.59940075   -8.3294621     280.5543  0.014467528  0.013652788            3 
 1617000   0.60869938   -8.3242684    281.19403  0.014491549  0.013641178            2 
 1618000   0.61507299   -8.3163475    280.56627  0.014450261  0.013629579            2 
 1619000   0.59854381    -8.327777    280.81358  0.014454065  0.013617971            3 
 1620000   0.60727749    -8.305902    281.13089  0.014461465  0.013606376            2 
 1621000   0.61441076   -8.3160967    281.05073  0.014448423  0.013594777            1 
 1622000   0.61392126   -8.3226558    280.86125  0.014429781  0.013583181            2 
 1623000   0.61385206   -8.3387115    280.52638  0.014403696  0.013571608            2 
 1624000   0.59811595   -8.3213019    280.96871  0.014417524  0.013560065            2 
 1625000   0.61050838   -8.3122084    280.67732  0.014393709  0.013548532            3 
 1626000   0.59870693   -8.3442888    281.30081  0.014416811     0.013537            3 
 1627000   0.60961611   -8.3352518    280.69781  0.014377065  0.013525477            3 
 1628000   0.62337601   -8.3235809    281.05947  0.014386746  0.013513942            2 
 1629000   0.60855326   -8.3414687    281.20753  0.014385489  0.013502416            2 
 1630000   0.60511018   -8.3369849    280.61819  0.014346533  0.013490916            2 
 1631000   0.62212923   -8.3412969    280.78685  0.014346354  0.013479413            4 
 1632000   0.60289313   -8.3336873    280.72545  0.014334429  0.013467926            1 
 1633000   0.60763877   -8.3377257    280.74895   0.01432685  0.013456452            2 
 1634000   0.59591808   -8.3407653    280.79907  0.014320638   0.01344498            2 
 1635000   0.60341118   -8.3340258    281.15828  0.014330188  0.013433529            3 
 1636000   0.60345029   -8.3349842    280.58957   0.01429246  0.013422114            2 
 1637000   0.59593437   -8.3442429    281.43979   0.01432701  0.013410724            3 
 1638000   0.59251937   -8.3254171    280.77414  0.014284398   0.01339934            3 
 1639000   0.60303067   -8.3327574    280.81772  0.014277899  0.013387958            4 
 1640000   0.60602703   -8.3270065    280.45924  0.014250978  0.013376581            2 
 1641000   0.59093643   -8.3232531      280.955  0.014267469   0.01336519            4 
 1642000    0.5985789   -8.3432702    280.94455   0.01425825   0.01335382            3 
 1643000    0.5895205   -8.3382674    281.13867  0.014259417  0.013342462            2 
 1644000   0.59059004   -8.3532804    280.29897   0.01420818  0.013331109            5 
 1645000   0.58974258   -8.3348043    280.54628  0.014212071  0.013319761            2 
 1646000   0.59035411   -8.3475558     280.9029  0.014221492  0.013308428            3 
 1647000   0.59636714     -8.34441    280.54449  0.014194722  0.013297097            2 
 1648000   0.60104165   -8.3515776    280.63757  0.014190815  0.013285764            3 
 1649000   0.59623363   -8.3474167    280.72814  0.014186787  0.013274441            2 
 1650000   0.59868299   -8.3408975    280.70714  0.014177128  0.013263127            2 
 1651000   0.60439222   -8.3383546    280.10153  0.014137973  0.013251837            3 
 1652000    0.5965568   -8.3193125    280.86442  0.014167899   0.01324054            2 
 1653000    0.5997127   -8.3592336    280.31781  0.014131771  0.013229256            2 
 1654000   0.59525166   -8.3520018    281.03824  0.014159524  0.013217988            2 
 1655000   0.58985488   -8.3715879    281.01999   0.01415005   0.01320673            2 
 1656000   0.59849938   -8.3568709    280.40322  0.014110468   0.01319547            3 
 1657000    0.5797905    -8.340911    280.46233  0.014104925  0.013184226            3 
 1658000   0.59320205   -8.3533267    280.54587  0.014100617  0.013172994            3 
 1659000   0.59118724    -8.363022    280.74103   0.01410192  0.013161751            4 
 1660000   0.58542179   -8.3484373    280.69923  0.014091327  0.013150519            2 
 1661000   0.59384615   -8.3704365    280.05557   0.01405055  0.013139314            4 
 1662000   0.59485451   -8.3514808    280.73983  0.014076406  0.013128115            3 
 1663000   0.58672759   -8.3564791    279.90997  0.014026356  0.013116944            4 
 1664000   0.59293801   -8.3660673    280.61897  0.014053434  0.013105766            4 
 1665000   0.58369816   -8.3794726    280.01381  0.014014705  0.013094594            1 
 1666000   0.58916686   -8.3696447    280.15402  0.014013306  0.013083439            2 
 1667000   0.58540753   -8.3797182    279.80755   0.01398758  0.013072274            3 
 1668000    0.5922063   -8.3585509    280.21307  0.013999454  0.013061117            4 
 1669000   0.58701136   -8.3633757    280.36487  0.013998646  0.013049976            4 
 1670000   0.57667401   -8.3591881    280.31789  0.013987919   0.01303885            4 
 1671000   0.58261525   -8.3717008    280.21296  0.013974315   0.01302775            3 
 1672000   0.59197306   -8.3689771    280.27778  0.013969188  0.013016644            3 
 1673000   0.58664103   -8.3666501    280.15519  0.013954731  0.013005549            3 
 1674000   0.58012195   -8.3789668    280.13408  0.013945344  0.012994459            4 
 1675000   0.57905862   -8.3849502    280.57436  0.013958923  0.012983391            3 
 1676000   0.57396308   -8.3739203    280.39348  0.013941601  0.012972331            2 
 1677000   0.58238203    -8.389893    279.83194  0.013905384  0.012961289            4 
 1678000   0.56477464   -8.3649322    280.17308  0.013914038  0.012950256            4 
 1679000   0.58841043   -8.4024265    279.44158  0.013869445  0.012939227            2 
 1680000   0.57971686   -8.3694018      280.541  0.013915724  0.012928219            5 
 1681000   0.58790025   -8.3827812    280.22468  0.013891765  0.012917209            2 
 1682000   0.58425735   -8.3738718    280.29643  0.013887061  0.012906211            7 
 1683000   0.59634494   -8.3861234    280.08059  0.013868122  0.012895236            3 
 1684000   0.58176804   -8.3685172    280.82969  0.013896956  0.012884266            2 
 1685000   0.57615946   -8.3881194    279.82863    0.0138392  0.012873298            3 
 1686000   0.58058546   -8.3782963     280.0885  0.013843837  0.012862331            3 
 1687000   0.57408986   -8.3700642    279.98068  0.013830304  0.012851386            3 
 1688000   0.58075362   -8.3991435    279.91109  0.013818675  0.012840461            3 
 1689000   0.58197233   -8.3985402    280.33027  0.013831176  0.012829546            2 
 1690000   0.57011692   -8.4000722    280.28215  0.013820619  0.012818634            4 
 1691000   0.56678739   -8.3944673    280.77778  0.013836871  0.012807719            3 
 1692000    0.5878261   -8.3785193    280.27391  0.013803876  0.012796808            3 
 1693000   0.57888748   -8.3991495    279.49458  0.013757363  0.012785911            3 
 1694000   0.57799192   -8.3871837     280.2975   0.01378874  0.012775021            3 
 1695000   0.56995281   -8.3935271    280.16543  0.013774112  0.012764154            2 
 1696000   0.58242524   -8.3907926    280.20932  0.013768147  0.012753288            3 
 1697000   0.57720264   -8.3904886    280.54909  0.013776718  0.012742446            3 
 1698000   0.56586736   -8.3883898     279.8725    0.0137354  0.012731608            5 
 1699000   0.57002227   -8.3796734    280.13261  0.013740073  0.012720806            5 
 1700000   0.58277941   -8.4040552    280.10888  0.013730827  0.012709989            3 
 1701000   0.57173387   -8.4060642    279.47862  0.013691878  0.012699186            2 
 1702000   0.58806857   -8.4035578    279.97135  0.013707959   0.01268839            3 
 1703000   0.56037065   -8.4005163    280.26103  0.013714084  0.012677598            6 
 1704000   0.57672594   -8.3952307     279.3428  0.013661131  0.012666813            5 
 1705000   0.56646253   -8.3966913    280.15372  0.013692753  0.012656035            4 
 1706000   0.57648697   -8.4147189    279.62376   0.01365884  0.012645276            3 
 1707000   0.57903156   -8.3890069    279.81399  0.013660124  0.012634514            2 
 1708000   0.57836592   -8.4233075    279.90835   0.01365673  0.012623779            7 
 1709000   0.57681782   -8.4170786    279.84012  0.013645413  0.012613039            3 
 1710000   0.57255279   -8.3907891     280.1835  0.013654167  0.012602313            3 
 1711000    0.5688931   -8.3963574    279.83165   0.01362905  0.012591601            3 
 1712000   0.57311526   -8.3948996    280.00299  0.013629429  0.012580906            2 
 1713000   0.56958691   -8.3926982    279.87021  0.013615013  0.012570201            4 
 1714000   0.57498596   -8.4223334    280.23041  0.013624583  0.012559527            3 
 1715000   0.56510169   -8.4125571    280.11747   0.01361115  0.012548853            3 
 1716000   0.56561791   -8.3973103    279.49121  0.013572805  0.012538203            3 
 1717000   0.56722408   -8.4050654    279.70527   0.01357529  0.012527531            2 
 1718000   0.55186282    -8.410781     279.7898  0.013571488  0.012516879            3 
 1719000    0.5682242   -8.3957379    280.00652  0.013574099  0.012506245            3 
 1720000   0.56705667    -8.407017    279.93861  0.013562917  0.012495614            1 
 1721000   0.55867514   -8.4140727    279.35673  0.013526861  0.012484998            3 
 1722000   0.56617231   -8.4233198    280.27808  0.013563593  0.012474375            5 
 1723000   0.56667799   -8.4110152     279.8469  0.013534867  0.012463769            4 
 1724000   0.56520451   -8.4284636    279.62671  0.013516372  0.012453171            3 
 1725000   0.55088811   -8.4216857    279.39647  0.013497414  0.012442588            4 
 1726000   0.56874185   -8.4257441    279.61652  0.013500218  0.012432001            3 
 1727000   0.56684291   -8.4141051    279.90175  0.013506164  0.012421436            7 
 1728000   0.56800087   -8.4130906    279.73738  0.013490421  0.012410876            3 
 1729000   0.56791328   -8.4182978    279.80807  0.013486026  0.012400333            3 
 1730000   0.56227038   -8.4205017    279.84412  0.013479967    0.0123898            4 
 1731000    0.5662824   -8.4164734    279.50789  0.013455993   0.01237928            5 
 1732000   0.56079265   -8.4015444    279.95612   0.01346979  0.012368778            4 
 1733000   0.55955984   -8.4316588    279.39449  0.013435011  0.012358257            3 
 1734000     0.564262   -8.4248093    279.40977  0.013427997  0.012347759            4 
 1735000    0.5602768   -8.4311081     279.0451  0.013402743  0.012337256            3 
 1736000   0.55419969   -8.4489693      279.234   0.01340409  0.012326771            4 
 1737000   0.54851026   -8.4331709    279.43722  0.013406123  0.012316308            2 
 1738000   0.54571093   -8.4315608    279.70427  0.013411213   0.01230585            4 
 1739000    0.5515654   -8.4271578    279.65721  0.013401246  0.012295402            3 
 1740000   0.55971952     -8.43321    279.28464  0.013375701  0.012284965            4 
 1741000   0.55634961    -8.422711    279.34234   0.01337078  0.012274544            3 
 1742000   0.55343666   -8.4271727    279.43055  0.013367324  0.012264121            4 
 1743000   0.56433385   -8.4364468    279.57561  0.013366591  0.012253716            4 
 1744000   0.54251085   -8.4337845    279.53598  0.013357032  0.012243336            3 
 1745000   0.55369068   -8.4322271    279.36241  0.013341089  0.012232954            3 
 1746000   0.56177479    -8.449471    279.61004  0.013345267  0.012222583            5 
 1747000   0.54598306   -8.4289293    279.44308  0.013329664  0.012212233            2 
 1748000   0.56620022   -8.4294433    279.54483  0.013326889  0.012201891            2 
 1749000   0.54649099    -8.444825    279.59064  0.013321452  0.012191549            2 
 1750000   0.55563789   -8.4302402    279.51191  0.013310091  0.012181211            4 
 1751000   0.54259079   -8.4446302    279.30277  0.013292536  0.012170889            2 
 1752000   0.55209451   -8.4210556    279.10659  0.013275618  0.012160583            2 
 1753000   0.55381206   -8.4371669     279.2048  0.013272713  0.012150284            2 
 1754000   0.54625225   -8.4207108    279.53823  0.013280988  0.012139993            2 
 1755000   0.54981015   -8.4306424    279.64619  0.013278547  0.012129717            2 
 1756000    0.5441124   -8.4260175    279.42344  0.013260414  0.012119443            2 
 1757000    0.5587866   -8.4512865     279.7219  0.013267022   0.01210918            2 
 1758000   0.55082276   -8.4532506    279.25484  0.013237336  0.012098933            2 
 1759000   0.56834308   -8.4405197    279.42948  0.013238084  0.012088691            2 
 1760000   0.55475674   -8.4410151    279.66402  0.013241668  0.012078459            4 
 1761000   0.55050387   -8.4361981    279.36018   0.01321977   0.01206823            2 
 1762000   0.54957889   -8.4486998    279.26448  0.013207741  0.012058017            2 
 1763000   0.54686355   -8.4482027    279.15869  0.013195249  0.012047822            2 
 1764000   0.54147435   -8.4333746    279.01915  0.013181177  0.012037623            2 
 1765000    0.5372852   -8.4469408    278.88194   0.01316723  0.012027432            3 
 1766000   0.54961457   -8.4379896    279.29794  0.013179405  0.012017254            2 
 1767000   0.57055336   -8.4486728     279.2367  0.013169058  0.012007093            2 
 1768000   0.54482663   -8.4463988    278.85793  0.013143756  0.011996947            2 
 1769000   0.55439493   -8.4564647    279.60168  0.013171362  0.011986804            2 
 1770000   0.54710265   -8.4485609     279.4504  0.013156799  0.011976674            4 
 1771000   0.54426318   -8.4504666    279.12165    0.0131339  0.011966551            3 
 1772000   0.54786354   -8.4575195    279.64336  0.013151023  0.011956449            3 
 1773000   0.54620809   -8.4498945    279.39514  0.013131939  0.011946352            3 
 1774000   0.54027456   -8.4673056    279.33301  0.013121618   0.01193626            3 
 1775000   0.54350202   -8.4571778    278.91766  0.013094726  0.011926167            3 
 1776000   0.54531476   -8.4598203    279.17366  0.013099365  0.011916096            2 
 1777000    0.5355152   -8.4621431    278.69192  0.013069401  0.011906028            4 
 1778000   0.53742226     -8.47166    278.96268  0.013074742  0.011895976            3 
 1779000   0.55438992   -8.4160815    279.95232  0.013113749  0.011885945            5 
 1780000   0.53632255   -8.4611972    279.16402  0.013069477  0.011875922            4 
 1781000   0.54694753    -8.455902    279.30805  0.013068877  0.011865907            3 
 1782000   0.54123867    -8.444914    278.97232  0.013045844  0.011855895            3 
 1783000   0.53688727   -8.4570295    278.92697  0.013036407  0.011845887            6 
 1784000   0.54046752   -8.4695698    279.30628  0.013046818  0.011835894            3 
 1785000   0.54058497   -8.4666762    279.18981  0.013034071  0.011825904            7 
 1786000   0.53208521   -8.4494521    279.58416  0.013045173  0.011815939            4 
 1787000   0.55808762    -8.447347     279.4068  0.013029603  0.011805976            3 
 1788000   0.54755395   -8.4674507    279.69955  0.013035959  0.011796022            4 
 1789000    0.5444781   -8.4767942    279.48734  0.013018788  0.011786078            3 
 1790000   0.54225337   -8.4670308    278.87092  0.012982817  0.011776149            4 
 1791000   0.54095759   -8.4725333    279.46915  0.013003403  0.011766225            2 
 1792000   0.53436026   -8.4534836    279.33778  0.012990038  0.011756306            2 
 1793000   0.53158988   -8.4703312    279.27553    0.0129799  0.011746412            3 
 1794000   0.53056311   -8.4659032    278.83644  0.012952269  0.011736507            3 
 1795000   0.53295392   -8.4600762    278.65118  0.012936452  0.011726624            3 
 1796000   0.55283361   -8.4579918    279.04662  0.012947597  0.011716751            4 
 1797000   0.54040231   -8.4660346    279.49662   0.01296126  0.011706884            3 
 1798000   0.52491514   -8.4630036    279.37867  0.012948585  0.011697026            4 
 1799000   0.54046274   -8.4430716    279.22654   0.01293434  0.011687189            5 
 1800000   0.53602317   -8.4651463    279.28901  0.012930047  0.011677355            4 
 1801000   0.53754163    -8.461141    279.06413  0.012912462  0.011667524            7 
 1802000   0.53505933   -8.4630068    278.84864  0.012895331  0.011657702            3 
 1803000   0.52773382   -8.4681299     278.6312  0.012878129  0.011647877            3 
 1804000   0.53320892   -8.4527433    279.17802   0.01289625  0.011638075            4 
 1805000   0.52835985   -8.4704875    278.89079  0.012875845  0.011628283            3 
 1806000   0.53588159   -8.4525538    278.99985  0.012873747  0.011618503            5 
 1807000   0.52063456   -8.4737277    278.94173  0.012863943  0.011608736            3 
 1808000   0.52381654   -8.4702966    279.20852  0.012869124  0.011598968            5 
 1809000   0.53176071   -8.4692438    278.92076  0.012848754  0.011589207            3 
 1810000    0.5359004   -8.4892936    279.05552   0.01284786  0.011579457            4 
 1811000    0.5256225    -8.467236    278.98103  0.012837338  0.011569717            4 
 1812000   0.52735008   -8.4769123    279.13802  0.012837473  0.011559996            5 
 1813000   0.53930407   -8.4780173    278.86989  0.012818068  0.011550285            5 
 1814000   0.52836176   -8.4710771    279.27193  0.012829471  0.011540587            3 
 1815000   0.52527568   -8.4652686    278.95661  0.012807925    0.0115309            3 
 1816000   0.53674797   -8.4924379    279.28262  0.012815833  0.011521229            5 
 1817000   0.52118143   -8.4816563    278.95721  0.012793855  0.011511554            5 
 1818000   0.52456917   -8.4830636     278.4876  0.012765292  0.011501897            9 
 1819000    0.5349002   -8.4767038    278.67298  0.012766767  0.011492255            3 
 1820000   0.52843291    -8.484478    278.72409  0.012762092    0.0114826            5 
 1821000   0.52305176    -8.485169    278.59461  0.012749158   0.01147297            4 
 1822000   0.51952075    -8.485602    278.02276  0.012716006  0.011463335            4 
 1823000   0.53570556   -8.4917021    278.91873  0.012749988  0.011453716            3 
 1824000   0.53065822   -8.4796528    278.87581  0.012741037  0.011444105            5 
 1825000   0.53626395   -8.4849972    278.81551  0.012731302  0.011434508            4 
 1826000   0.53015843   -8.4886197    278.56642  0.012712962  0.011424921            2 
 1827000   0.52194905   -8.4753328    278.62491  0.012708671  0.011415336            3 
 1828000   0.51910714    -8.490818    278.64636  0.012702697  0.011405767            6 
 1829000   0.52476136   -8.4998377    278.90742  0.012707646  0.011396198            3 
 1830000   0.52060157   -8.4959496    278.89488  0.012700131  0.011386658            4 
 1831000   0.52469153   -8.4844841    278.89884  0.012693375  0.011377127            2 
 1832000   0.51096511   -8.4980754    278.45224  0.012666132  0.011367588            6 
 1833000   0.53180745   -8.5072098    278.85427  0.012677499  0.011358047            4 
 1834000   0.51237943   -8.4977171    278.99594  0.012677024  0.011348529            6 
 1835000   0.51482858   -8.4721069     278.6779  0.012655672  0.011339022            5 
 1836000   0.52523654   -8.4861408    278.90638  0.012659149  0.011329527            4 
 1837000   0.51283247   -8.4703432    278.77387  0.012646247  0.011320048            3 
 1838000   0.52584021   -8.4740487    278.45714  0.012625007  0.011310575            7 
 1839000    0.5182033    -8.486396    278.99577  0.012642549  0.011301117            5 
 1840000   0.52613767   -8.4757483    279.02587  0.012637041   0.01129167            4 
 1841000   0.51986649   -8.4997241    278.88607  0.012623849  0.011282222            9 
 1842000    0.5175248   -8.4903307    278.71939  0.012609455  0.011272786            6 
 1843000   0.51006007   -8.4859571     278.6364  0.012598861  0.011263357            4 
 1844000   0.52654582   -8.5024636    278.87571  0.012602843  0.011253938            3 
 1845000   0.51628611   -8.5057642    279.06631  0.012604621  0.011244531            5 
 1846000   0.50629774   -8.4929772    278.22856  0.012559975  0.011235133            3 
 1847000   0.51166663    -8.514077    278.54879  0.012567623  0.011225745            4 
 1848000   0.52342322   -8.4927356    278.25907  0.012547758  0.011216364            5 
 1849000   0.50758506   -8.5070933    278.70418  0.012561032  0.011206994            4 
 1850000   0.50219884   -8.5072231    278.58324  0.012548795  0.011197633            2 
 1851000    0.5162302   -8.4899709    279.20291  0.012569913  0.011188291            7 
 1852000   0.51101941   -8.4789143    278.72949  0.012541824  0.011178953            5 
 1853000   0.50481731   -8.5199141    279.03261  0.012548687  0.011169636            4 
 1854000   0.51663923   -8.4993629    278.92688  0.012537167  0.011160321            3 
 1855000   0.50641574   -8.4950391    278.82104  0.012525653  0.011151012            4 
 1856000   0.51179412   -8.5062618    278.72425  0.012514559  0.011141723            4 
 1857000   0.51002942   -8.4772875    278.97841  0.012519225  0.011132446            5 
 1858000   0.50190464   -8.4971225    278.74094  0.012501836  0.011123155            3 
 1859000   0.50930228   -8.5013643    278.59305  0.012488482  0.011113883            2 
 1860000   0.51155282   -8.5062883    278.50254  0.012477712  0.011104615            3 
 1861000    0.5023239   -8.5048164    278.73182  0.012481275  0.011095361            4 
 1862000    0.5069487   -8.5112243    278.27437  0.012454098   0.01108612            4 
 1863000   0.49596088   -8.5060196    278.40955   0.01245346   0.01107688            3 
 1864000   0.51451319    -8.513455    278.42914  0.012447655  0.011067655            4 
 1865000   0.50629394   -8.5136545     278.5309  0.012445527  0.011058442            3 
 1866000   0.50544527   -8.5211302    278.60819  0.012442309  0.011049235            2 
 1867000    0.4987075   -8.5281367    278.89858  0.012448607  0.011040034            3 
 1868000   0.50473404   -8.5073804    278.76645  0.012436048  0.011030837            2 
 1869000   0.50255409    -8.512322    278.80329  0.012431037  0.011021655            2 
 1870000   0.51076797   -8.5366173    278.46512  0.012409319  0.011012485            2 
 1871000   0.50358629   -8.5121439    278.44142  0.012401631  0.011003322            5 
 1872000   0.50634096   -8.5135585     278.6951  0.012406299  0.010994167            6 
 1873000   0.51046197   -8.4988046    278.38597  0.012385921  0.010985024            3 
 1874000   0.50688689   -8.5211057    278.41467  0.012380588  0.010975893            2 
 1875000   0.50775221   -8.5239604    278.59066  0.012381807  0.010966766            5 
 1876000   0.49760952   -8.5124369    278.16925  0.012356488  0.010957651            2 
 1877000   0.49833468   -8.5056408    277.99935  0.012342362  0.010948546            2 
 1878000   0.49954105   -8.5286101    278.41764   0.01235435  0.010939441            6 
 1879000   0.51042353   -8.5145321    278.36445  0.012345416  0.010930353            2 
 1880000   0.50505119   -8.5022581    278.59171  0.012348923   0.01092127            2 
 1881000     0.508104   -8.5139247    278.61738  0.012343496  0.010912194            3 
 1882000   0.50722079   -8.5329123    278.06629  0.012312535  0.010903124            4 
 1883000   0.50348777   -8.5281286    278.27561   0.01231526  0.010894054            4 
 1884000   0.50099404   -8.5231557     278.6851  0.012326835  0.010884993            1 
 1885000   0.49214714   -8.5244009    278.95111  0.012332056  0.010875942            3 
 1886000   0.52027686   -8.5199654    278.28936  0.012296278  0.010866912            2 
 1887000   0.50944871   -8.5106594    278.21831  0.012286624  0.010857887            3 
 1888000    0.5156554   -8.5125068     278.3743  0.012287001  0.010848878            2 
 1889000   0.50631788   -8.5141176    278.01972  0.012264855  0.010839868            2 
 1890000   0.50265001   -8.5230147    278.30519  0.012270952  0.010830868            2 
 1891000   0.49113365   -8.5097371    277.89049  0.012246188  0.010821875            2 
 1892000    0.5043274   -8.5293321    278.26573  0.012256243  0.010812892            2 
 1893000   0.50249888   -8.5248476    278.25388  0.012249246  0.010803922            3 
 1894000   0.49283034   -8.5358738    278.32485  0.012245901  0.010794962            2 
 1895000   0.48871233   -8.5189753    278.08738  0.012228997  0.010786009            3 
 1896000   0.49148317   -8.5338823    277.86209  0.012212644  0.010777063            2 
 1897000   0.48752879   -8.5472807     278.0644  0.012215094   0.01076812            2 
 1898000    0.4980388   -8.5133749    278.09018   0.01220979  0.010759197            3 
 1899000   0.49272563   -8.5333216    278.37243  0.012215746  0.010750278            3 
 1900000   0.51204696    -8.547176    278.19727  0.012201635  0.010741367            3 
 1901000   0.49814905    -8.536776    277.83885  0.012179504  0.010732469            4 
 1902000   0.49887945   -8.5271946     278.4345  0.012199198  0.010723575            3 
 1903000   0.49598157   -8.5160552    278.60228  0.012200135  0.010714698            3 
 1904000    0.4924051   -8.5187192     277.8952   0.01216278  0.010705826            3 
 1905000   0.49248103   -8.5304028    278.12445  0.012166424   0.01069696            2 
 1906000   0.49095067   -8.5371635    278.22795  0.012164566  0.010688092            3 
 1907000   0.49406997   -8.5374581    278.55524  0.012172489  0.010679236            3 
 1908000   0.48666537   -8.5392092    278.21366  0.012151191  0.010670395            2 
 1909000   0.47621178   -8.5236464    277.82707   0.01212795  0.010661567            3 
 1910000   0.48224234   -8.5203351    278.15331  0.012135834   0.01065275            3 
 1911000   0.48104779   -8.5392205    278.22541  0.012132627  0.010643942            2 
 1912000   0.48567654   -8.5392358    277.96118  0.012114766  0.010635138            2 
 1913000   0.49181974   -8.5515141    277.85548  0.012103828  0.010626349            2 
 1914000   0.49803051   -8.5492873    277.66594  0.012089252  0.010617561            2 
 1915000   0.49592524   -8.5562856    277.76345  0.012087182  0.010608783            3 
 1916000   0.48550383   -8.5384745    277.81806  0.012083249  0.010600008            4 
 1917000   0.48814574   -8.5453639    277.90173  0.012080583  0.010591247            2 
 1918000   0.49659496   -8.5536609    277.77622  0.012068831  0.010582501            3 
 1919000   0.49209179   -8.5509223    278.00913  0.012072656  0.010573767            1 
 1920000   0.47843655    -8.527125    277.88673  0.012061056  0.010565039            4 
 1921000   0.47751362   -8.5509829    277.97795  0.012058735   0.01055632            1 
 1922000    0.4862833   -8.5371909    277.55195   0.01203399  0.010547607            2 
 1923000   0.48835443   -8.5421135    277.89801  0.012042729  0.010538901            2 
 1924000   0.47655828   -8.5442021     277.9841  0.012040198  0.010530205            5 
 1925000   0.48764417   -8.5462276    277.36002  0.012006927  0.010521518            2 
 1926000   0.48635968   -8.5375732     277.9072  0.012024368  0.010512839            3 
 1927000   0.49836251   -8.5376696    278.41371  0.012040032  0.010504169            3 
 1928000   0.48353221   -8.5481134    278.21591  0.012025238  0.010495508            1 
 1929000   0.48521775   -8.5435635    277.59415  0.011992144   0.01048685            3 
 1930000   0.47529932   -8.5508162    277.58962  0.011985735    0.0104782            3 
 1931000   0.48360448   -8.5578715    277.72577  0.011985403  0.010469565            3 
 1932000      0.48818    -8.550434    277.81755  0.011983159  0.010460939            5 
 1933000   0.48567757     -8.56837    277.95267  0.011982784  0.010452324            2 
 1934000   0.48024015   -8.5421324    277.75751   0.01196818  0.010443723            4 
 1935000   0.48466712   -8.5466123    277.60805  0.011955558  0.010435127            3 
 1936000   0.48425801   -8.5398639    277.86685  0.011960522  0.010426538            2 
 1937000   0.48429106   -8.5405146    278.00899  0.011960463  0.010417954            3 
 1938000   0.47713038   -8.5577098    277.86256  0.011947994  0.010409383            3 
 1939000   0.47933294   -8.5575762    278.03505  0.011949246  0.010400815            3 
 1940000   0.47987463    -8.542307    277.93234  0.011938674  0.010392267            2 
 1941000   0.47165131   -8.5597672    277.60579  0.011918504  0.010383725            2 
 1942000   0.46747276   -8.5525864    278.18729  0.011937319  0.010375182            2 
 1943000   0.47717785   -8.5578524    277.68819   0.01190977  0.010366655            1 
 1944000   0.47377168   -8.5588579    277.49073  0.011895179  0.010358136            1 
 1945000   0.47873331   -8.5644956    277.79593  0.011902139  0.010349617            3 
 1946000   0.46539287   -8.5520734    277.99983  0.011904755  0.010341115            4 
 1947000   0.47615611     -8.56329    277.76401  0.011888547  0.010332612            3 
 1948000   0.47211624   -8.5437645    277.35347  0.011864882   0.01032412            2 
 1949000   0.47599901   -8.5633826    277.77668  0.011876889  0.010315642            2 
 1950000   0.48863134   -8.5539494    277.20985  0.011846575  0.010307171            4 
 1951000   0.47512348   -8.5542358    277.38434  0.011847956   0.01029872            2 
 1952000   0.47125066   -8.5585727     277.8455  0.011861574  0.010290266            2 
 1953000   0.46692546   -8.5609761    277.75986  0.011851846  0.010281825            2 
 1954000   0.47304276   -8.5690227    277.87326  0.011850617  0.010273389            2 
 1955000   0.46064971   -8.5705873    277.92992   0.01184697  0.010264967            1 
 1956000   0.46755013   -8.5685268    277.81819  0.011836153  0.010256547            1 
 1957000   0.46257727     -8.55497    277.58959  0.011820371  0.010248127            3 
 1958000   0.47017341   -8.5599892    277.65088  0.011816942  0.010239726            3 
 1959000   0.46502104   -8.5672933     277.9662  0.011824324  0.010231328            2 
 1960000   0.46968361   -8.5538746    277.72818  0.011808171  0.010222943            2 
 1961000   0.47033281   -8.5640298    277.35367  0.011786234  0.010214569            3 
 1962000   0.46998255   -8.5768206    277.43624  0.011783734  0.010206213            3 
 1963000   0.47578836   -8.5678559    277.90815  0.011797765  0.010197865            2 
 1964000   0.46625707   -8.5711033    277.76486  0.011785678  0.010189519            1 
 1965000   0.46365045   -8.5669772    277.58971  0.011772252  0.010181182            4 
 1966000   0.46517005   -8.5595372    277.37616  0.011757212  0.010172852            4 
 1967000   0.47286602   -8.5624081    277.44572  0.011754182  0.010164537            2 
 1968000    0.4745578    -8.564218    277.43922  0.011747934  0.010156229            3 
 1969000   0.45975706   -8.5668207    277.12503  0.011728671  0.010147926            4 
 1970000   0.47659414    -8.538434     277.4233  0.011735334  0.010139637            4 
 1971000   0.46872394   -8.5845731    277.56294  0.011735284  0.010131353            1 
 1972000   0.45593457   -8.5594048    277.28131  0.011717432  0.010123073            5 
 1973000   0.46937127   -8.5661683    277.50049   0.01172075  0.010114807            2 
 1974000    0.4593866    -8.583082    277.53371  0.011716215  0.010106554            5 
 1975000   0.46555862     -8.58692    277.47885  0.011707968  0.010098305            5 
 1976000   0.46189469   -8.5551405    277.55481  0.011705247  0.010090063            4 
 1977000   0.47043776   -8.5777491    277.48189  0.011696252   0.01008183            4 
 1978000   0.46014145   -8.5740261    277.18001  0.011677621  0.010073602            5 
 1979000   0.46129528   -8.5805681    277.76485  0.011696347  0.010065386            3 
 1980000   0.45269632   -8.5743351    277.81128  0.011692394  0.010057183            4 
 1981000   0.46740259   -8.5846171    277.51618  0.011674078  0.010048981            4 
 1982000   0.46467133    -8.570002    277.35845  0.011661556  0.010040783            4 
 1983000   0.46023511   -8.5710333    278.00767  0.011682958  0.010032593            3 
 1984000   0.45784483   -8.5818238    277.17536   0.01164211  0.010024414            3 
 1985000   0.46141599   -8.5911802     277.9115  0.011667149  0.010016249            3 
 1986000   0.46777447    -8.585708    277.57827  0.011647292   0.01000809            3 
 1987000   0.45488073   -8.5744124    277.46862  0.011636832 0.0099999342            5 
 1988000   0.45628391   -8.5673413    277.38362  0.011627415 0.0099917863            4 
 1989000   0.45255066   -8.5903606    277.40199  0.011622339 0.0099836508            5 
 1990000   0.45879358   -8.5799049    277.24888  0.011610087 0.0099755182            3 
 1991000   0.45643666   -8.5707035    277.60641   0.01161922 0.0099673908            7 
 1992000   0.45146479   -8.5822905    277.44237  0.011606525  0.009959276            8 
 1993000   0.47006405   -8.5699771    277.22988  0.011591816 0.0099511714            2 
 1994000   0.45968641   -8.5831115     277.4413  0.011594839 0.0099430696           10 
 1995000   0.45640871   -8.5779642    277.55495  0.011593774 0.0099349837            8 
 1996000   0.45933966   -8.5772537    277.12865  0.011570167 0.0099269011            6 
 1997000   0.45945538   -8.5956056    277.27847  0.011570626 0.0099188259            4 
 1998000   0.44994364   -8.5966423    277.03149  0.011554533 0.0099107644            4 
 1999000   0.45252263   -8.5807872    277.27263  0.011558806 0.0099027039            5 
 2000000   0.46558944   -8.6014148    277.00043  0.011541684 0.0098946503            6 
 2001000   0.44984988   -8.6159746    277.23812  0.011545815 0.0098865975            3 
 2002000   0.44829281   -8.5852418     276.5753  0.011512458 0.0098785571            5 
 2003000   0.45021111   -8.6021202    276.84466  0.011517917 0.0098705267            6 
 2004000   0.45713005   -8.5981894    277.08138  0.011522013 0.0098624992            4 
 2005000    0.4550003   -8.5812504     277.0308  0.011514164 0.0098544914            7 
 2006000   0.45620212   -8.5850218    277.01175  0.011507633 0.0098464882            5 
 2007000    0.4541971   -8.5871975    276.93291  0.011498626 0.0098384868            2 
 2008000   0.45151207   -8.5938357    277.03462  0.011497121 0.0098305047            5 
 2009000   0.45463332   -8.6170678    277.43123  0.011507849 0.0098225244            4 
 2010000   0.43552425   -8.5856359     277.0076  0.011484561 0.0098145485            4 
 2011000   0.45678815   -8.6057712    277.10768  0.011482997 0.0098065858           10 
 2012000   0.44352507   -8.5934121    277.44181  0.011491128 0.0097986347            4 
Loop time of 4710.1 on 48 procs for 2000000 steps with 4000 atoms

Performance: 73374.263 tau/day, 424.620 timesteps/s
99.4% CPU use with 48 MPI tasks x no OpenMP threads

MPI task timing breakdown:
Section |  min time  |  avg time  |  max time  |%varavg| %total
---------------------------------------------------------------
Pair    | 299.45     | 319.91     | 341.1      |  53.2 |  6.79
Neigh   | 30.897     | 32.368     | 34.803     |  14.5 |  0.69
Comm    | 295.79     | 322.6      | 345.82     |  62.8 |  6.85
Output  | 4.4162     | 4.4182     | 4.4538     |   0.2 |  0.09
Modify  | 3980       | 3988.7     | 3996.8     |   5.5 | 84.68
Other   |            | 42.08      |            |       |  0.89

Nlocal:        83.3333 ave          90 max          77 min
Histogram: 3 3 3 11 7 3 8 6 1 3
Nghost:        2039.77 ave        2063 max        2011 min
Histogram: 2 1 2 4 12 7 7 6 3 4
Neighs:        13148.4 ave       14712 max       11835 min
Histogram: 5 5 6 3 8 4 8 5 2 2
FullNghs:      26295.7 ave       28658 max       24176 min
Histogram: 3 3 5 6 11 5 7 3 3 2

Total # of neighbors = 1262195
Ave neighs/atom = 315.54875
Neighbor list builds = 107150
Dangerous builds = 0

#clear
#
#next RN
#
#jump SELF
Total wall time: 1:18:33
