
units lj                  # Use reduced LJ style units
atom_style atomic         # Uncharged point particles
atom_modify map hash      # Needed for indexing of clusters etc
                          # Used to be able to find where atoms are in relation to each other.

lattice fcc 1.0 spacing 1 1 1
Lattice spacing in x,y,z = 1.5874011 1.5874011 1.5874011
region box block 0 10 0 10 0 10 units lattice
create_box 2 box
Created orthogonal box = (0.0000000 0.0000000 0.0000000) to (15.874011 15.874011 15.874011)
  3 by 4 by 4 MPI processor grid
create_atoms 1 box
Created 4000 atoms
  using lattice units in orthogonal box = (0.0000000 0.0000000 0.0000000) to (15.874011 15.874011 15.874011)
  create_atoms CPU = 0.002 seconds
set type 1 type/fraction 2 0.14 78393
Setting atom values ...
  590 settings made for type/fraction
mass 1 1.0
mass 2 1.0
pair_style lj/cut  3.5
pair_modify tail  yes
pair_coeff 1  1  1.0  1.0   # Intearaction between 1 and 1 set with epsilon = 1 and sigma = 1
pair_coeff 1  2  1.5  0.8
pair_coeff 2  2  0.5  0.88

write_data data.0
System init for write_data ...
Neighbor list info ...
  update every 1 steps, delay 10 steps, check yes
  max neighbors/atom: 2000, page size: 100000
  master list distance cutoff = 3.8
  ghost atom cutoff = 3.8
  binsize = 1.9, bins = 9 9 9
  1 neighbor lists, perpetual/occasional/extra = 1 0 0
  (1) pair lj/cut, perpetual
      attributes: half, newton on
      pair build: half/bin/atomonly/newton
      stencil: half/bin/3d
      bin: standard
WARNING: Not all mixed pair coeffs generated from mixing. Use write_data with 'pair ij' option to store all pair coeffs. (../write_data.cpp:312)


#############################
#   M E L T   S Y S T E M   #
#############################

velocity all create 2.4 6583654 mom yes dist gaussian # Assign velocities
                                                    # Temperature 2.4, random number seed, zero linear momentum
                                                                                # Gaussian distribution

timestep 0.002   # simulation timestep
thermo 1000       # output thermodynamic data every 1000 steps bf 100

# Define a fix  in this case with index 1 applied to all
# particles in the simulation. This fix is for simulations
# in the anisotropic NPT ensemble. Note that we use the MTK
# correction.
fix 1 all npt temp 2.4 2.4 0.1 iso 5.68 5.68 0.5 mtk yes tchain 5 pchain 5 # Use NPT ensemble
                                                                         # Set temperature and pressure and damping
                                                                         # Numbers of thermostats in chain and in barostat
run 10000          # run for 10000 steps
Per MPI rank memory allocation (min/avg/max) = 3.642 | 3.644 | 3.648 Mbytes
Step Temp E_pair E_mol TotEng Press Volume 
       0          2.4   -7.4253508            0   -3.8262508   -3.2887046         4000 
    1000    2.3751375   -4.6923427            0   -1.1305272    5.8359161    4669.5908 
    2000    2.3678634   -4.7446151            0    -1.193708    5.8049879    4643.3171 
    3000    2.3923841   -4.6944467            0   -1.1067677    5.6968559    4688.8598 
    4000     2.404275   -4.7070516            0   -1.1015407    5.5935195    4688.4159 
    5000    2.4197333   -4.7012959            0   -1.0726033    5.6720698     4683.926 
    6000    2.3896589    -4.650649            0   -1.0670568    5.8327206    4703.2156 
    7000    2.3486584   -4.6978938            0    -1.175787    5.8186918    4673.5157 
    8000    2.3398336   -4.7504411            0   -1.2415681    5.6801012    4656.8364 
    9000    2.4071061    -4.728583            0   -1.1188264    5.5859597    4695.1647 
   10000    2.4823015   -4.7800706            0   -1.0575492    5.6716401    4661.5301 
Loop time of 2.17207 on 48 procs for 10000 steps with 4000 atoms

Performance: 795555.909 tau/day, 4603.912 timesteps/s
99.6% CPU use with 48 MPI tasks x no OpenMP threads

MPI task timing breakdown:
Section |  min time  |  avg time  |  max time  |%varavg| %total
---------------------------------------------------------------
Pair    | 0.94215    | 0.98439    | 1.0465     |   2.4 | 45.32
Neigh   | 0.19237    | 0.19978    | 0.20737    |   0.8 |  9.20
Comm    | 0.68142    | 0.74712    | 0.80031    |   3.1 | 34.40
Output  | 0.00023263 | 0.00023848 | 0.00029792 |   0.0 |  0.01
Modify  | 0.21062    | 0.22635    | 0.2427     |   1.8 | 10.42
Other   |            | 0.01419    |            |       |  0.65

Nlocal:        83.3333 ave          92 max          75 min
Histogram: 1 5 5 4 9 12 1 7 2 2
Nghost:        1483.58 ave        1514 max        1459 min
Histogram: 5 5 4 7 6 5 9 1 4 2
Neighs:        8176.83 ave        9294 max        7314 min
Histogram: 4 5 5 6 8 9 5 3 1 2

Total # of neighbors = 392488
Ave neighs/atom = 98.122000
Neighbor list builds = 907
Dangerous builds = 206

# Equilibrate just above the melting temperature to avoid step fn in T

fix 1 all npt temp 1.25 1.25 0.1 iso 5.68 5.68 0.5 mtk yes tchain 5 pchain 5
run 2000
Per MPI rank memory allocation (min/avg/max) = 3.642 | 3.644 | 3.648 Mbytes
Step Temp E_pair E_mol TotEng Press Volume 
   10000    2.4823015   -4.7800706            0   -1.0575492    5.6716401    4661.5301 
   11000    1.2407901   -6.3247071            0   -4.4639873    5.7506615    3847.4721 
   12000    1.2590495    -6.330885            0    -4.442783    5.7401255    3848.5051 
Loop time of 0.486831 on 48 procs for 2000 steps with 4000 atoms

Performance: 709897.858 tau/day, 4108.205 timesteps/s
99.6% CPU use with 48 MPI tasks x no OpenMP threads

MPI task timing breakdown:
Section |  min time  |  avg time  |  max time  |%varavg| %total
---------------------------------------------------------------
Pair    | 0.21131    | 0.23177    | 0.26013    |   2.1 | 47.61
Neigh   | 0.031175   | 0.033365   | 0.036743   |   0.6 |  6.85
Comm    | 0.1327     | 0.16682    | 0.19659    |   2.9 | 34.27
Output  | 4.9005e-05 | 5.504e-05  | 6.8819e-05 |   0.0 |  0.01
Modify  | 0.041799   | 0.050298   | 0.063189   |   2.3 | 10.33
Other   |            | 0.004519   |            |       |  0.93

Nlocal:        83.3333 ave          91 max          77 min
Histogram: 4 3 11 3 3 11 3 7 1 2
Nghost:        1681.02 ave        1717 max        1657 min
Histogram: 2 1 13 6 11 11 3 0 0 1
Neighs:        9913.29 ave       10932 max        8845 min
Histogram: 3 4 3 7 4 8 7 5 3 4

Total # of neighbors = 475838
Ave neighs/atom = 118.95950
Neighbor list builds = 141
Dangerous builds = 8

#############################
# L I N E A R  Q U E N C H  #
#############################

# Define solid atoms. This closely follows ten Wolde  Ruiz-Montero and Frenkel  Faraday Discuss  1996  104  93-110
# Compute components of the per-atom q6 vector
compute q6 all orientorder/atom degrees 1 6 components 6 nnn NULL cutoff 1.3 # compute the Q6 parameter.
                                                                             # Use all neighbours within 1.3 unit cell.

# get number of connections
compute coord_number all coord/atom orientorder q6 0.5

# An atom is solid if it has 8 or more connections (of a possible 14)
variable is_solid atom c_coord_number>=8
group solid dynamic all var is_solid    # Must be dynamic to update
dynamic group solid defined

# do clustering
compute cluster solid cluster/atom 1.3 # Create a cluster where all atoms within are solid and max 1.3 units from another member

# define chunks one chunk per cluster
compute clus_chunks solid chunk/atom c_cluster nchunk every compress yes  # Says which atoms are in which chunk

# count the size of each chunk
compute size_chunks solid property/chunk clus_chunks count


# Find the maximum entry in the vector of chunk sizes
variable max_n equal max(c_size_chunks)


# Thermo style which includes this variable
# thermo_style custom step temp pe vol v_max_n

thermo ${N}  # Print the thermo information every 100 steps
thermo 1000  

# Reset the npt fix at a lower temperature (below freezing)
fix 1  all npt temp  ${temp} ${temp}  0.1  iso  5.68  5.68  0.5  mtk yes tchain  5  pchain  5
fix 1  all npt temp  0.45 ${temp}  0.1  iso  5.68  5.68  0.5  mtk yes tchain  5  pchain  5
fix 1  all npt temp  0.45 0.45  0.1  iso  5.68  5.68  0.5  mtk yes tchain  5  pchain  5

dump dmp2 all dcd ${N} traj.dcd
dump dmp2 all dcd 1000 traj.dcd


compute msd all msd com yes
variable twopoint equal c_msd[4]/6/(step*dt+1.0e-6)
fix 9 all vector 10 c_msd[4]
variable fit equal slope(f_9)/6/(10*dt)
thermo_style custom step temp pe c_msd[4] v_twopoint v_fit v_max_n

fix 1 all npt temp 1.25 ${temp} 0.1 iso 5.68 5.68 0.5 mtk yes tchain 5 pchain 5
fix 1 all npt temp 1.25 0.45 0.1 iso 5.68 5.68 0.5 mtk yes tchain 5 pchain 5
run 5000000 # 5000000  # Run for this many steps
Neighbor list info ...
  update every 1 steps, delay 10 steps, check yes
  max neighbors/atom: 2000, page size: 100000
  master list distance cutoff = 3.8
  ghost atom cutoff = 3.8
  binsize = 1.9, bins = 9 9 9
  4 neighbor lists, perpetual/occasional/extra = 1 3 0
  (1) pair lj/cut, perpetual
      attributes: half, newton on
      pair build: half/bin/atomonly/newton
      stencil: half/bin/3d
      bin: standard
  (2) compute orientorder/atom, occasional
      attributes: full, newton on
      pair build: full/bin/atomonly
      stencil: full/bin/3d
      bin: standard
  (3) compute coord/atom, occasional
      attributes: full, newton on
      pair build: full/bin/atomonly
      stencil: full/bin/3d
      bin: standard
  (4) compute cluster/atom, occasional
      attributes: full, newton on
      pair build: full/bin/atomonly
      stencil: full/bin/3d
      bin: standard
Per MPI rank memory allocation (min/avg/max) = 9.759 | 9.764 | 9.771 Mbytes
Step Temp PotEng c_msd[4] v_twopoint v_fit v_max_n 
   12000    1.2590495    -6.330885 2.241351e-30 1.5564937e-32 8.3333333e+20            1 
   13000    1.2710568   -6.3386103   0.53555665 0.0034330553  0.044516268            1 
   14000    1.2453279   -6.3244381     1.059932 0.0063091189  0.043455329            2 
   15000    1.2635456    -6.311256    1.5319544 0.0085108574  0.042321388            1 
   16000     1.235285   -6.3419964    2.0794492  0.010830464  0.042201716            3 
   17000    1.2351322   -6.3598674    2.6118166  0.012803022  0.042802207            1 
   18000     1.261496   -6.3732824    3.1714336  0.014682562  0.043520288            1 
   19000    1.2578789   -6.3447393    3.7263745  0.016343747  0.044046109            1 
   20000    1.2495839   -6.3264394    4.2352378  0.017646824  0.044251976            3 
   21000    1.2404543   -6.3598596    4.7267453  0.018756925  0.044091944            3 
   22000     1.256276   -6.3911271     5.288739  0.020033102   0.04401257            2 
   23000    1.2273643   -6.3442782    5.8917994  0.021347099  0.044247228            3 
   24000    1.2235167   -6.3485698    6.4342205  0.022341043  0.044418171            5 
   25000     1.251421   -6.4010954    6.8569274  0.022856424  0.044398647            1 
   26000    1.2500511   -6.3647097    7.3912123  0.023689783  0.044296404            3 
   27000    1.2876061   -6.3515431    7.9370955  0.024497208  0.044277947            2 
   28000    1.2399364   -6.3429408    8.4313145  0.025093197  0.044222064            2 
   29000    1.2475592   -6.3654037    8.9086516  0.025599573  0.044100482            3 
   30000    1.2195452   -6.3446227    9.4417958   0.02622721  0.043978352            2 
   31000      1.22139    -6.338637    10.077052   0.02708885  0.043908673            3 
   32000    1.2455529   -6.3575487      10.6806  0.027814061  0.044019436            2 
   33000    1.2637639   -6.3737262    11.048802  0.027901016  0.044070183            4 
   34000     1.263916   -6.3467915    11.495376  0.028174942  0.043973869            2 
   35000    1.2736495   -6.3669112    12.023491  0.028627359  0.043871978            1 
   36000    1.2395569   -6.3431147    12.510871   0.02896035  0.043772903            2 
   37000    1.2261236   -6.3219643    13.084223  0.029468971  0.043704802            3 
   38000    1.2465764   -6.3426329    13.579618  0.029779864  0.043651966            2 
   39000    1.2426005    -6.367813    13.912777  0.029728156  0.043552958            2 
   40000    1.2826284    -6.359687    14.353072  0.029902232  0.043391865            3 
   41000    1.2539246   -6.3907408    14.876151  0.030236079  0.043238039            1 
   42000    1.2460238   -6.3840938    15.362018  0.030480195  0.043099135            2 
   43000    1.2340588   -6.3598554    15.900063  0.030814075  0.042981251            2 
   44000    1.2288921   -6.3643001     16.54877  0.031342366  0.042917984            3 
   45000    1.2212234   -6.3732168    17.149277   0.03175792  0.042908377            1 
   46000    1.2328657   -6.3442789    17.638323  0.031953484   0.04290469            6 
   47000    1.2417822   -6.3658402    18.117343  0.032122948  0.042899038            1 
   48000    1.2451174   -6.3614708    18.504292  0.032125507  0.042859108            2 
   49000    1.2204456   -6.3160358    18.916841  0.032171498  0.042789874            2 
   50000    1.2727192   -6.3426138    19.328411  0.032214017  0.042703527            1 
   51000    1.2429469   -6.3791047    19.867671  0.032463514   0.04261255            3 
   52000    1.2193775   -6.4130438     20.34715  0.032607613  0.042540191            6 
   53000    1.2362638   -6.3438472     20.99153   0.03300555  0.042491912            2 
   54000    1.2396005    -6.401306    21.653549  0.033415971  0.042500618            1 
   55000    1.2189958   -6.3786521    22.188468  0.033618891  0.042514249            2 
   56000    1.2452128   -6.3658723     22.73877  0.033837455  0.042536382            2 
   57000    1.2437115   -6.3608947    23.250544  0.033992024   0.04256043            2 
   58000    1.2430392    -6.380251    23.700711  0.034052745  0.042579082            2 
   59000     1.242664   -6.3682117    24.164597  0.034130786  0.042579639            3 
   60000    1.2367405   -6.3538136    24.752896  0.034379022  0.042580775            3 
   61000    1.2170615   -6.4138694    25.334899  0.034610517  0.042607602            1 
   62000    1.2630201    -6.405325    25.922176  0.034841634  0.042641733            3 
   63000     1.267031   -6.4356859    26.434461  0.034966218  0.042676192            2 
   64000    1.2398462   -6.3376188    26.943235  0.035082336  0.042717102            1 
   65000    1.2215737   -6.3659913     27.58251  0.035362192  0.042748106            5 
   66000    1.2487885   -6.4210287    28.102698  0.035483204  0.042793095            1 
   67000    1.2366589   -6.3738683    28.526644  0.035480901  0.042825713            3 
   68000      1.24592   -6.3789349    29.215374  0.035803154  0.042879769            2 
   69000    1.2405007   -6.3506363    29.838206  0.036036481  0.042950505            5 
   70000    1.2153394   -6.3889229    30.383762  0.036171145  0.043018775            3 
   71000    1.2475187   -6.3560504    31.197878  0.036617228  0.043091765            2 
   72000    1.2117155   -6.3472127    31.867489  0.036883668  0.043181819            2 
   73000    1.2309269   -6.3652931     32.27943  0.036848665  0.043266787            1 
   74000    1.2670647   -6.3831556    32.658438  0.036777521  0.043333732            2 
   75000     1.247337   -6.3901906    33.246841  0.036940934  0.043392434            4 
   76000    1.2752405   -6.3772805    33.497526  0.036729744  0.043427247            3 
   77000    1.2332603   -6.3463796    33.935522  0.036726755  0.043441719            2 
   78000    1.2333989   -6.3881389    34.281492  0.036625525  0.043445381            4 
   79000    1.2420386   -6.3871036    34.792581  0.036701035  0.043438252            2 
   80000    1.2431925   -6.3936836    35.298353  0.036769118  0.043433807            1 
   81000    1.2472306   -6.4006235    35.730839  0.036760122  0.043419765            1 
   82000    1.2430059   -6.3902328    36.243587  0.036832913  0.043406446            1 
   83000      1.24576   -6.3754018    36.960732  0.037109168   0.04339911            2 
   84000    1.2555071   -6.3525319    37.461723  0.037164407  0.043398764            2 
   85000    1.2277431    -6.359447    37.991138  0.037246214  0.043397614            1 
   86000    1.2668891   -6.3742072    38.353413   0.03716416  0.043388341            2 
   87000    1.2448168   -6.3518678    39.025325  0.037380579  0.043386526            3 
   88000    1.2183516   -6.3495906    39.708257  0.037602516  0.043401157            2 
   89000    1.2613666   -6.3669951    40.150216  0.037593835  0.043410702            2 
   90000    1.2187272   -6.3549048     40.79161  0.037770009   0.04341873            2 
   91000    1.2725573   -6.3679359    41.349896  0.037866205  0.043427799            2 
   92000    1.2596954   -6.3646859    41.830748   0.03789017  0.043437232            2 
   93000    1.2240235   -6.3812374    42.390453  0.037984277  0.043451818            1 
   94000    1.2673636   -6.3728604    42.937413  0.038065083  0.043463095            1 
   95000    1.2391361   -6.3736824    43.412514  0.038081152  0.043473276            1 
   96000    1.2587777   -6.3705268    43.967477  0.038166212  0.043487954            4 
   97000    1.2385284   -6.3595364    44.565829  0.038286795  0.043504895            2 
   98000    1.2305956   -6.3399393     45.31626  0.038534234  0.043527269            3 
   99000    1.2220585   -6.3879467    45.821095  0.038569945  0.043552343            2 
  100000    1.2333487   -6.3460285    46.223381  0.038519484  0.043574749            2 
  101000    1.2197701   -6.3911071    46.974635  0.038757949  0.043595118            2 
  102000     1.230854   -6.3706377    47.367445  0.038698893  0.043619808            4 
  103000    1.2615092    -6.397139    47.776661  0.038654256  0.043632414            3 
  104000     1.227121    -6.391721    48.279595  0.038685573  0.043648819            2 
  105000    1.2335002   -6.3576354    48.546266  0.038528783  0.043647591            2 
  106000    1.2263285   -6.3672291    48.966633   0.03849578   0.04363995            3 
  107000     1.230937   -6.4415047    49.263392  0.038367127  0.043623962            1 
  108000    1.2549316   -6.3603809    49.676643  0.038330743  0.043602404            3 
  109000    1.2304298   -6.3888796    50.387585  0.038522618  0.043590332            2 
  110000    1.2369289   -6.3969567    51.114775  0.038723315  0.043584185            2 
  111000    1.1944561   -6.4258812    51.608079  0.038744804  0.043583871            2 
  112000    1.2415394    -6.416669    51.894283  0.038611817  0.043574843            1 
  113000    1.2228418   -6.4117345    52.166131  0.038470598  0.043555867            2 
  114000      1.26621   -6.3618942    52.668741  0.038500542  0.043539387            2 
  115000    1.2069172   -6.3839825    53.139224  0.038506684  0.043512671            2 
  116000    1.2407577   -6.3675077    53.679292  0.038562709  0.043488306            3 
  117000    1.2270133   -6.3809786     54.06047  0.038504608  0.043461011            2 
  118000    1.2123731    -6.333375    54.779896  0.038686367  0.043434831            2 
  119000    1.2085993    -6.396748    55.287353  0.038716633  0.043414699            1 
  120000    1.2435727   -6.3425231    55.943817  0.038849873  0.043393001            2 
  121000    1.2175072   -6.3622019     56.56533  0.038956839  0.043378846            2 
  122000    1.2408114   -6.3967777     57.15275  0.039038764  0.043367244            1 
  123000    1.2218192   -6.3752467    57.492727  0.038951712  0.043355781            1 
  124000    1.2436382   -6.4115067    57.812191  0.038852279  0.043336966            3 
  125000    1.2417743   -6.3825878    58.726873  0.039151248  0.043323645            2 
  126000    1.2114601   -6.4011686    59.191134  0.039147575  0.043322098            5 
  127000    1.2212644   -6.3572486    59.565608  0.039085044  0.043312165            2 
  128000    1.2036356   -6.3395172    60.170128   0.03917326  0.043306128            4 
  129000    1.2711042    -6.392565    60.561855  0.039122645  0.043296759            1 
  130000     1.226408   -6.3768673    60.783942  0.038964065   0.04328382            1 
  131000    1.2252405   -6.3890311    61.298518  0.038993968  0.043262685            2 
  132000    1.2290695   -6.3720009    61.979277  0.039128331  0.043245849            4 
  133000    1.2372738   -6.3798286    62.775944  0.039333298  0.043232583            2 
  134000    1.2348895   -6.3930324    63.040274   0.03920415  0.043223524            2 
  135000    1.2176915   -6.4012928    63.525363  0.039213187  0.043213285            2 
  136000    1.1963652   -6.3595006    63.900596  0.039154777  0.043202176            1 
  137000    1.2622191   -6.3627073    64.657057   0.03932911   0.04318704            1 
  138000    1.1961215   -6.4066764    64.644326  0.039036429  0.043173206            1 
  139000    1.2321462   -6.3680639    65.410565  0.039214967  0.043156572            2 
  140000    1.2011313   -6.3888995     66.11271  0.039352803  0.043143742            3 
  141000    1.2409621   -6.4281727     66.56925  0.039343528   0.04312998            1 
  142000     1.215287   -6.3505432    67.529918  0.039630233  0.043120045            2 
  143000    1.2227444   -6.4244157    67.392594  0.039273073   0.04310824            2 
  144000    1.2338298   -6.4172898    67.790277  0.039230484  0.043092191            5 
  145000    1.2270195   -6.4063713     68.30947  0.039258316  0.043077614            1 
  146000    1.2443078   -6.3775584    68.764527  0.039249159  0.043059227            5 
  147000    1.2599864   -6.3942806    68.980216  0.039104431  0.043038763            1 
  148000    1.2388788   -6.3905696    69.585876  0.039181237  0.043015219            3 
  149000    1.2162033   -6.3535733    70.014702  0.039158111  0.042990348            4 
  150000    1.2465589    -6.400462    70.316471  0.039064706  0.042965611            1 
  151000    1.2459538   -6.3894619    70.382392   0.03884238  0.042938704            2 
  152000    1.2489661   -6.4156138    71.054549  0.038955345   0.04290476            3 
  153000    1.2343317   -6.4118001    71.542346  0.038966419  0.042872229            1 
  154000    1.2039871   -6.3994718    71.911918  0.038913376  0.042839109            1 
  155000    1.1994902   -6.3588428    72.669848  0.039069811  0.042808163            1 
  156000    1.1927338   -6.3963467    72.943165  0.038965366  0.042780209            6 
  157000    1.2351521   -6.3802978    73.838198  0.039192249  0.042754268            4 
  158000    1.2173034   -6.4093213    74.060774  0.039061589  0.042734362            1 
  159000    1.2372697    -6.387964    74.495102  0.039043554  0.042709611            1 
  160000    1.2310168   -6.4087409    75.075931  0.039102047  0.042684481            3 
  161000    1.2132934   -6.3657495    75.574627  0.039117302  0.042657366            2 
  162000    1.2274678   -6.3545073    76.515571  0.039359862    0.0426379            2 
  163000     1.203585   -6.4426161    76.823743  0.039275942  0.042620146            3 
  164000    1.2244199   -6.4041733    77.692812  0.039478055  0.042605902            4 
  165000    1.2201326   -6.4243884    77.734574  0.039259886   0.04259029            3 
  166000    1.2048173   -6.4039487    78.244787  0.039279511  0.042572885            3 
  167000    1.2152735   -6.4191203     78.81211    0.0393274  0.042557063            3 
  168000    1.2212096   -6.4081012     79.26026  0.039315605  0.042540534            2 
  169000    1.2087285   -6.3558792    79.736748  0.039317923  0.042521852            1 
  170000    1.2285324   -6.4013536    79.987055   0.03920934  0.042501189            1 
  171000    1.2413667   -6.3771661    80.347858  0.039155876  0.042477949            3 
  172000      1.22026   -6.4012009    80.957438  0.039223565  0.042453927            3 
  173000    1.2070147   -6.3949881    81.354595  0.039188148  0.042430206            1 
  174000    1.2156885   -6.4071592    81.976733  0.039260887  0.042412305            2 
  175000    1.2017176   -6.4008924    82.460113   0.03926672  0.042392123            2 
  176000    1.2207816   -6.4396725    83.035769  0.039316178  0.042370741            4 
  177000    1.2113921   -6.3963407    83.484438  0.039305291  0.042351696            1 
  178000    1.2318859   -6.3811751    84.197072  0.039418105   0.04233525            2 
  179000    1.2504885   -6.3809749    84.419991  0.039301672  0.042316689            2 
  180000     1.221667   -6.4130665    84.781468   0.03925068  0.042297007            1 
  181000    1.2193113   -6.4200291    85.145476  0.039201416   0.04227867            3 
  182000    1.2122573   -6.4154359    85.959373  0.039358687  0.042262161            3 
  183000    1.2272792   -6.3836122    86.286539  0.039292595  0.042245096            5 
  184000    1.2060956   -6.4135917    87.180911  0.039484108  0.042228074            2 
  185000    1.2170364   -6.3908436    87.689856  0.039499935  0.042215619            2 
  186000    1.2372506   -6.4328115    88.523089  0.039660882  0.042207034            4 
  187000    1.2071885    -6.431231    88.717817  0.039535569  0.042200691            2 
  188000    1.1986155   -6.4148181    89.071564  0.039482076  0.042191299            2 
  189000    1.2262604   -6.4092073    89.833513  0.039609133   0.04218129            2 
  190000    1.2122463   -6.4160927    90.299788   0.03960517  0.042171221            3 
  191000    1.2322834   -6.3583134    90.657673  0.039553959  0.042158886            2 
  192000    1.2012065    -6.431961    91.139452  0.039557054  0.042147734            3 
  193000    1.2489515   -6.3815206    91.573702  0.039539595  0.042138593            2 
  194000     1.226481   -6.4210693    92.242952  0.039623261     0.042128            3 
  195000    1.2097429   -6.3589268    92.264673  0.039429347  0.042113911            2 
  196000    1.2176311   -6.3885968      92.6972  0.039412075  0.042098725            3 
  197000    1.2041224   -6.4096822     93.46284  0.039535888  0.042087607            5 
  198000     1.226008   -6.4290066    93.854652  0.039501116  0.042076112            3 
  199000    1.2394044   -6.4354474    94.493875  0.039570299  0.042063393            4 
  200000     1.254508   -6.4039461    94.593714  0.039414047  0.042047461            1 
  201000    1.2253282   -6.4169656    95.019636  0.039394542  0.042031247            2 
  202000    1.2112715   -6.4275969    94.890806  0.039146372  0.042012624            1 
  203000    1.2419482   -6.4324624    95.557716  0.039227305  0.041990956            2 
  204000    1.2330793   -6.4363987     95.93817  0.039190429  0.041969173            1 
  205000    1.2175764    -6.404643    96.404135  0.039188673  0.041948634            3 
  206000    1.1970869    -6.384429    96.774097  0.039148097  0.041925842            3 
  207000     1.233119   -6.4041202     97.41655  0.039217613  0.041904279            2 
  208000    1.2041425   -6.3884345    97.704704  0.039144513  0.041883588            3 
  209000    1.2366415   -6.4225564    97.989526  0.039070784  0.041861793            2 
  210000    1.2203328   -6.4039425     98.56409  0.039112734  0.041839082            3 
  211000     1.202493   -6.4148791    98.893715  0.039057549  0.041813036            2 
  212000    1.2199423   -6.4110891    99.590633  0.039147261  0.041789505            4 
  213000    1.2263422   -6.4069194    99.933261   0.03909752  0.041767983            2 
  214000    1.1891194   -6.3810209    100.56423  0.039160527  0.041742891            5 
  215000    1.1991604   -6.3802695    101.06623  0.039172957  0.041720568            3 
  216000    1.2047297    -6.405788     101.1803   0.03903561  0.041698854            1 
  217000    1.2201237   -6.3861919    101.86281  0.039117824  0.041677776            1 
  218000    1.1944171   -6.3942283    102.53005  0.039193445  0.041657765            3 
  219000    1.2280288   -6.4264094    102.49048   0.03899942  0.041637686            2 
  220000    1.2181112     -6.47665    102.93191  0.038989359  0.041616311            3 
  221000    1.2191472   -6.4249327     103.7406  0.039117873  0.041594078            4 
  222000    1.2255057   -6.3966126    104.05204  0.039058573  0.041572991            2 
  223000    1.2185833   -6.4112862    104.11485  0.038906895  0.041547623            5 
  224000    1.2362131   -6.4367268    104.74938  0.038969265   0.04152265            2 
  225000    1.2022571   -6.4370564    105.17132  0.038952339  0.041497862            1 
  226000    1.2059782   -6.4152419    105.45889  0.038886023   0.04147314            1 
  227000    1.2262272   -6.4369402    106.14117  0.038965187  0.041449384            3 
  228000    1.2258663   -6.4052009    106.50483  0.038927204  0.041425448            2 
  229000    1.2324113   -6.4202881    107.27001  0.039035665  0.041402752            2 
  230000     1.193423   -6.4184118    107.50641  0.038951598  0.041379884            2 
  231000    1.2024039   -6.4016266    108.07787   0.03898913  0.041357642            2 
  232000    1.2245164   -6.4100748    108.26246  0.038887378  0.041334939            2 
  233000    1.2195889   -6.3827257    108.78862  0.038908661  0.041311628            2 
  234000    1.2284284   -6.4341755    109.00569   0.03881969  0.041288669            2 
  235000    1.2056874   -6.4331908    110.32768  0.039123292   0.04126837            2 
  236000    1.1880676   -6.4118592    110.24805  0.038929395  0.041250008            3 
  237000    1.2509758   -6.4173884    111.32115  0.039142457   0.04123148            5 
  238000    1.2118423   -6.4454219    111.43022  0.039016182  0.041214557            2 
  239000    1.2103184   -6.4199913    111.83786   0.03899507  0.041198219            2 
  240000    1.2072122   -6.4072942    112.58389   0.03909163   0.04118217            3 
  241000    1.2087539   -6.4070667    113.10915  0.039111046  0.041168203            2 
  242000    1.2443383    -6.436568    113.40253  0.039050458  0.041153563            3 
  243000    1.2166891    -6.467057    113.91894  0.039066852  0.041140691            3 
  244000    1.2294369   -6.3947245    114.72071  0.039180569   0.04112813            2 
  245000    1.1942895   -6.4107924    114.81028  0.039051116  0.041113104            2 
  246000    1.2326319   -6.4353587    115.28253  0.039052346  0.041099575            2 
  247000    1.2068454   -6.4356299    116.15247  0.039187741   0.04108774            4 
  248000    1.2216898   -6.4312405     116.5904  0.039176881   0.04107435            2 
  249000    1.1611434   -6.4316314    116.84484  0.039104699   0.04106209            2 
  250000    1.2312022   -6.4017837    117.54482  0.039181606   0.04105054            1 
  251000    1.2221579   -6.4521084    118.32838  0.039285651  0.041040894            3 
  252000    1.2142629   -6.4415334    118.84857  0.039301777   0.04103206            4 
  253000    1.2092349   -6.4349847    118.85756  0.039149395  0.041022765            2 
  254000     1.208784   -6.4017252    119.76524  0.039293056  0.041012766            2 
  255000    1.2057835   -6.4107232     120.0484  0.039231504  0.041002294            2 
  256000      1.21671   -6.3844298    120.26632  0.039149193  0.040993482            1 
  257000    1.1853008   -6.4207075    120.94187   0.03921591  0.040983191            4 
  258000    1.2260882   -6.4054278    122.13551  0.039449453  0.040974665            1 
  259000    1.2070205   -6.4390426     121.8425  0.039202863  0.040966381            2 
  260000    1.2234349   -6.4237567    122.47216  0.039253897  0.040959834            5 
  261000    1.2162999   -6.3653282    123.16713  0.039325394  0.040954088            2 
  262000    1.2021358   -6.3962982    123.09393  0.039152015  0.040944766            2 
  263000    1.2219285   -6.4134851    123.99493  0.039288633  0.040933839            1 
  264000    1.2149999   -6.4310282    124.27786  0.039229123  0.040925106            3 
  265000    1.2258974    -6.402145    125.09846   0.03933914  0.040917241            3 
  266000    1.2062273   -6.4204517    125.49741  0.039316232  0.040909562            4 
  267000    1.1995233   -6.4593937    125.61424  0.039205444  0.040901189            1 
  268000    1.2130266   -6.4376074    126.15071  0.039225968  0.040892471            2 
  269000    1.1994031   -6.4256846    127.02973  0.039352456  0.040884037            4 
  270000    1.1752525   -6.4658015    127.45583  0.039338218  0.040875809            3 
  271000    1.1965176   -6.4307626    128.21455  0.039426369  0.040868206            2 
  272000    1.2172661   -6.4273645    128.38116  0.039332463  0.040863603            3 
  273000    1.1931311   -6.4308578    128.97381  0.039369296  0.040857394            1 
  274000    1.2070592   -6.4424087    129.62244  0.039422883  0.040849002            2 
  275000    1.1809752   -6.4120707    129.90468  0.039365054   0.04084094            1 
  276000    1.2067966   -6.4305536    130.26365  0.039330811  0.040834385            2 
  277000    1.1899777   -6.4203991    130.61149  0.039293468  0.040826205            4 
  278000    1.2083671   -6.4139077    131.45873  0.039406095  0.040818996            2 
  279000    1.2288524   -6.4165897    131.42836  0.039255783  0.040809368            2 
  280000     1.206471   -6.4054379    131.42118  0.039113446  0.040801219            4 
  281000    1.2108795   -6.4051006    132.61556  0.039328459   0.04079371            2 
  282000    1.1812456   -6.3927589    133.37831  0.039414394  0.040784833            3 
  283000    1.2090205   -6.4028747    134.16888  0.039507915  0.040778111            2 
  284000      1.18954   -6.4126328    134.55381  0.039481751  0.040772441            2 
  285000    1.1889265   -6.4254132    134.61735  0.039361799  0.040766434            3 
  286000    1.2071749   -6.4249568    135.55216  0.039496549  0.040760386            2 
  287000    1.1972552    -6.445821     135.3017  0.039286209  0.040754384            2 
  288000    1.1927147   -6.3877226    136.18732  0.039406053  0.040747788            1 
  289000    1.1938866   -6.4111104    136.59655  0.039387703  0.040741888            1 
  290000    1.1879353    -6.405049    137.32157  0.039460222  0.040736889            2 
  291000     1.204531    -6.409949    137.17818  0.039283555  0.040731725            4 
  292000    1.1924264   -6.4385437    138.32595  0.039476584  0.040726646            2 
  293000    1.2236729   -6.4307459    138.40404   0.03936406  0.040721942            5 
  294000     1.175751   -6.4189547    139.01579  0.039403569  0.040716854            2 
  295000    1.2034145   -6.4767668    139.22647  0.039329512  0.040711352            3 
  296000    1.1620617   -6.4670903    139.25495  0.039204659  0.040705157            2 
  297000    1.1990757    -6.397376     139.9239  0.039260354  0.040698101            2 
  298000    1.2034288   -6.4263928    140.52265  0.039296044  0.040689605            4 
  299000    1.2213415   -6.4609795    140.62629  0.039193503  0.040680342            4 
  300000    1.1963744   -6.4214339     141.5674  0.039324277  0.040672049            1 
  301000    1.2040539    -6.420198    141.57937  0.039196947  0.040663221            2 
  302000    1.2073268   -6.4464895    142.59011  0.039346058  0.040656937            2 
  303000    1.1815964   -6.4347692    143.24334  0.039395858  0.040650961            2 
  304000    1.2013292   -6.4747688    143.21396  0.039258212  0.040643762            3 
  305000    1.2023214   -6.3905225    144.08426  0.039367283  0.040635869            3 
  306000    1.1820271   -6.4407272    143.96743  0.039206816  0.040628061            3 
  307000    1.1913254    -6.424415    143.91095  0.039063777   0.04061898            3 
  308000    1.2126664   -6.4175394    144.91955  0.039209836  0.040609823            1 
  309000    1.1935837   -6.4018421    145.40753  0.039214543  0.040603399            5 
  310000    1.2021621   -6.4599703    146.18234  0.039296329  0.040596026            2 
  311000    1.1893653   -6.4464871    146.49861   0.03925472   0.04059055            1 
  312000    1.2053198   -6.4276343     147.6327   0.03943181  0.040586471            1 
  313000    1.2058429   -6.4636182    148.20089  0.039457105  0.040582218            1 
  314000     1.193563   -6.4695188    148.24279  0.039342565  0.040578226            3 
  315000    1.2014138   -6.4569184    148.99076  0.039415546  0.040573348            1 
  316000    1.1924151    -6.426028    149.40671  0.039400504  0.040569263            2 
  317000    1.1624597    -6.441465    150.24111  0.039495561  0.040564586            1 
  318000     1.207307   -6.4238712    150.63193  0.039473777  0.040560708            4 
  319000     1.186418    -6.448558    151.06068  0.039462039  0.040558384            1 
  320000     1.203131   -6.4221965    151.46781  0.039444741  0.040556794            1 
  321000     1.183984   -6.4474416    152.09757  0.039485351  0.040553824            2 
  322000    1.1938331   -6.4301545    152.52505  0.039473357  0.040551408            5 
  323000    1.1932969   -6.4571058     153.7992  0.039679876  0.040549193            2 
  324000    1.2041764   -6.4357704    153.43292  0.039463198   0.04054894            3 
  325000    1.1946871   -6.4605134    154.06984  0.039505086  0.040548725            4 
  326000    1.1757511    -6.439066    155.03817  0.039631435  0.040546555            3 
  327000    1.2113571   -6.3983455    154.91904  0.039479877  0.040544372            2 
  328000    1.2240751   -6.4286171    155.57747  0.039526797  0.040543476            2 
  329000    1.2111287   -6.4435698    156.76014  0.039706215  0.040544267            2 
  330000    1.2191448   -6.4365284    156.76302  0.039586622  0.040544674            3 
  331000    1.2440863   -6.4568187    157.46263  0.039643159  0.040543863            2 
  332000    1.1795095   -6.4202983    157.64578  0.039569723  0.040544362            8 
  333000    1.2293122   -6.4319544    157.85728  0.039503824  0.040543434            2 
  334000    1.1855384   -6.4498969    159.05273  0.039683816  0.040542807            3 
  335000    1.1910878   -6.4462184     159.2986  0.039626518    0.0405418            4 
  336000    1.2032007   -6.4273394    159.18183   0.03947962  0.040541053            5 
  337000    1.1758084   -6.4455665    159.49945  0.039441011  0.040538419            2 
  338000    1.1827688    -6.461897    160.03793  0.039457082  0.040535884            4 
  339000     1.201876   -6.4041358    160.78536  0.039524426  0.040532565            2 
  340000    1.2013125   -6.4621071    161.05887  0.039475213  0.040528944            2 
  341000    1.1984693   -6.4023048    161.51851  0.039471776  0.040526448            2 
  342000     1.179596   -6.4427605    162.37486  0.039565025  0.040524534            2 
  343000    1.1765749   -6.4328795    162.70846  0.039530725  0.040522359            4 
  344000    1.2029565   -6.4620397    162.84339  0.039448496  0.040520044            2 
  345000     1.199273   -6.4651443    163.41621  0.039472514  0.040518444            2 
  346000    1.2103088   -6.4660483    163.91742  0.039479147  0.040516323            2 
  347000    1.1576427   -6.4406653    164.75655  0.039566894  0.040514203            2 
  348000    1.1845373   -6.4570637    165.05104  0.039523717  0.040513231            4 
  349000     1.213739   -6.4464555    165.48908  0.039515062  0.040512201            2 
  350000    1.1815332   -6.4655575    166.76582  0.039706147  0.040510742            2 
  351000    1.1760904   -6.4390639    166.20025  0.039458748   0.04050896            2 
  352000     1.231614   -6.4380869    167.62422  0.039683763  0.040508588            1 
  353000    1.1945652    -6.473115    168.05207  0.039672349  0.040508091            2 
  354000    1.1858867    -6.459712    168.17137  0.039588363   0.04050823            2 
  355000     1.205823   -6.4718172    168.48009  0.039549318  0.040507913            2 
  356000    1.2107539    -6.472421    168.86175  0.039527564  0.040505652            5 
  357000    1.1983775   -6.4642403    169.66147  0.039603517  0.040503326            2 
  358000    1.2165542   -6.4716287     170.0247  0.039577445  0.040499865            2 
  359000     1.169542   -6.4276442     170.1971   0.03950722  0.040496497            3 
  360000    1.1605132   -6.4738073    170.27478  0.039415458  0.040493644            2 
  361000    1.1962713   -6.4433714    170.73015  0.039411392  0.040490383            8 
  362000    1.1909902   -6.4256799    171.64237  0.039512516  0.040487906            4 
  363000    1.2231099   -6.4310971    172.35364   0.03956695  0.040484466            3 
  364000     1.194812   -6.4606825    172.52323  0.039497075  0.040480863            2 
  365000    1.2224115   -6.4787031    173.03305  0.039505262  0.040476738            2 
  366000    1.1939977   -6.4615595    172.77247  0.039337993  0.040472325            3 
  367000    1.2092335   -6.4491892    172.90833  0.039261655  0.040467282            2 
  368000    1.2100827    -6.455802    173.68493  0.039330826  0.040461082            2 
  369000    1.1936641    -6.457012    173.81589  0.039253815  0.040453938            2 
  370000    1.2061253   -6.4896976    173.72829  0.039127992   0.04044656            2 
  371000    1.1847621    -6.421013    175.46128  0.039411789  0.040438886            3 
  372000    1.1852011   -6.4471458    175.45619  0.039304701  0.040431136            2 
  373000    1.1991087    -6.447949    176.26212  0.039379383    0.0404248            2 
  374000    1.2089128   -6.4885459    176.22036  0.039264785  0.040418746            1 
  375000    1.1908991   -6.4700527    176.81915  0.039293144  0.040412226            3 
  376000    1.1780854   -6.4310198    178.17537  0.039489223  0.040407888            3 
  377000    1.2086977   -6.4484137    178.26098    0.0394034  0.040404178            2 
  378000    1.1953701   -6.4848994    178.15906  0.039276689   0.04039901            2 
  379000    1.1899863   -6.4665346    178.70808  0.039293773  0.040393845            4 
  380000    1.1653134   -6.4311057    179.06225  0.039268037  0.040388038            2 
  381000    1.1803741   -6.4418289    180.09812  0.039391539  0.040382993            2 
  382000    1.1873998   -6.4800365    180.99101  0.039483205  0.040379273            2 
  383000    1.1990473   -6.4557994    181.24088  0.039434482   0.04037557            3 
  384000    1.1828237   -6.4646736    180.98585  0.039276443  0.040371734            3 
  385000    1.1944446   -6.4731911    181.45985  0.039277025  0.040367076            2 
  386000    1.1966982   -6.4422628     182.4882  0.039397279  0.040362531            2 
  387000    1.2105376   -6.4862189     183.1759  0.039443561  0.040359938            2 
  388000    1.1855875   -6.4236081    184.63842  0.039656018  0.040358324            1 
  389000    1.1820393   -6.5026853    184.15052  0.039449554  0.040356206            3 
  390000    1.1650435   -6.4849788    184.84627  0.039497066  0.040353623            3 
  391000    1.1628315   -6.4537921    185.37984   0.03950977  0.040350776            5 
  392000    1.1950812   -6.4553798    185.48013  0.039430299   0.04034862            2 
  393000     1.168829   -6.4427124    186.14417  0.039470775  0.040346277            3 
  394000    1.1648439   -6.5021843    186.20534  0.039383531  0.040343711            2 
  395000    1.1805816   -6.4571998    187.32342   0.03951971  0.040342067            3 
  396000    1.2053222   -6.4492031    187.58999  0.039476009  0.040339595            2 
  397000    1.1862453   -6.4886855    188.00275  0.039463215  0.040337233            2 
  398000    1.1913711   -6.5018171    188.13715    0.0393922  0.040335066            2 
  399000    1.1849317   -6.4421389    189.84627  0.039650433  0.040332945            3 
  400000    1.1917644   -6.4999836    190.40103  0.039666881  0.040332424            2 
  401000    1.1975524   -6.4673533    190.09509  0.039504382  0.040330722            4 
  402000    1.1763444   -6.4705493    190.91886  0.039576878  0.040329599            1 
  403000    1.1871427   -6.4844761     191.8153   0.03966404  0.040328918            2 
  404000    1.2026195   -6.5069941    191.42715  0.039485798   0.04032779            2 
  405000     1.173981   -6.4890098    192.63408  0.039636641  0.040326427            2 
  406000    1.1486955   -6.4881929    192.86274  0.039585947  0.040325367            2 
  407000    1.1645126   -6.4752978      193.302  0.039578624  0.040324256            3 
  408000    1.1538895   -6.5082055    193.26897  0.039474871  0.040323736            3 
  409000    1.1906067    -6.480143    194.71885  0.039673767  0.040322274            3 
  410000    1.1877743   -6.4579891    195.24621  0.039684189   0.04032192            2 
  411000    1.1854958   -6.4377248    196.04656  0.039749911  0.040322371            2 
  412000    1.1812165   -6.4827564    195.43427  0.039529586  0.040322606            1 
  413000    1.1809835   -6.4862296    196.17884  0.039584107  0.040321652            3 
  414000    1.1878205   -6.4807428    196.30881  0.039514655  0.040320269            2 
  415000    1.1461973   -6.4996727    196.67517  0.039493006  0.040318551            2 
  416000    1.1790508   -6.4491161     197.8084  0.039625079  0.040317765            2 
  417000    1.1689417   -6.4811556    198.04183  0.039576705  0.040316638            2 
  418000    1.2087142   -6.5241067    198.46513  0.039566414  0.040315766            2 
  419000     1.182519   -6.4434946    198.59752  0.039498313  0.040314638            1 
  420000    1.1805716   -6.4992862     199.1486  0.039513611  0.040312766            3 
  421000    1.1828267   -6.4504148    200.47571  0.039682444  0.040311151            3 
  422000    1.1773518   -6.4546807    201.21954  0.039735296  0.040311168            2 
  423000    1.1711898    -6.445073    201.81771  0.039759202  0.040311649            2 
  424000     1.188124   -6.4660712    201.33657  0.039570867  0.040311616            3 
  425000     1.175864   -6.4679692    201.43679   0.03949741  0.040310077            5 
  426000    1.1772503   -6.4301963    203.01925  0.039714251   0.04030953            3 
  427000    1.2005493   -6.4317278    203.32813  0.039681524  0.040308983            3 
  428000    1.1884054   -6.4655231    203.26664  0.039576837  0.040308768            2 
  429000    1.1948647   -6.5024737    204.28706  0.039682801  0.040309136            2 
  430000    1.1974204   -6.5149129    205.16355  0.039760378  0.040308881            2 
  431000    1.2035164   -6.4428623    206.01401  0.039832562  0.040308713            2 
  432000    1.1974451   -6.4376938    205.51393   0.03964389  0.040308041            3 
  433000    1.1799262   -6.4830929    205.48541  0.039546845  0.040307261            2 
  434000    1.1755427   -6.4874854    205.95403  0.039545705  0.040305732            3 
  435000    1.2247933   -6.4766473    206.60854   0.03958018  0.040304962            4 
  436000     1.192301   -6.4442254    207.25031  0.039612062   0.04030429            2 
  437000     1.188344   -6.4249049    208.49216  0.039758231  0.040303477            3 
  438000    1.1938359   -6.5111625     208.5064  0.039670168  0.040303341            4 
  439000    1.1986845   -6.4821604    210.02542   0.03986815  0.040303384            4 
  440000     1.189923    -6.495196     208.5606  0.039500114  0.040303257            2 
  441000    1.1872982   -6.4888493    209.96128  0.039675223  0.040303951            4 
  442000    1.1800746   -6.4705607    211.06814  0.039794145  0.040303994            2 
  443000    1.1807642   -6.4888641    211.11025  0.039712236  0.040304357            2 
  444000    1.1558546   -6.4868006    211.25578  0.039650108  0.040304979            5 
  445000    1.1824856   -6.5010639    213.08888  0.039904284  0.040306823            3 
  446000    1.1732841   -6.4750623    213.65586  0.039920752  0.040308653            2 
  447000    1.1625046   -6.4651805    214.59859  0.040007194  0.040311034            3 
  448000    1.2107448   -6.4902067    214.70475   0.03993764  0.040314032            1 
  449000    1.2096797   -6.5077818    214.81547   0.03986924  0.040317955            4 
  450000    1.1763076    -6.473337     216.1504  0.040027852  0.040320819            2 
  451000    1.1959006   -6.4648402    215.89267  0.039891476  0.040323238            5 
  452000    1.1936094   -6.5097489    216.49503  0.039914275  0.040325802            6 
  453000    1.1976943   -6.4472025    217.32542  0.039978923   0.04032834            4 
  454000    1.1968845   -6.4528179    217.07379  0.039844675  0.040330713            3 
  455000    1.1697167   -6.4982807    217.83326  0.039896201  0.040332872            3 
  456000     1.181876   -6.5022012    218.24862  0.039884616  0.040334571            4 
  457000    1.1628061   -6.4995668    219.70477  0.040062867  0.040337462            2 
  458000    1.1586114   -6.4995952    218.92084  0.039832758  0.040339787            2 
  459000    1.1676641   -6.4675748    219.63985  0.039876515  0.040341904            2 
  460000     1.175764   -6.4631123     219.2725  0.039723279  0.040343266            4 
  461000    1.1579139   -6.4705634    220.22501  0.039809292  0.040343675            2 
  462000    1.1812417   -6.4760157    220.58549  0.039788147  0.040344523            2 
  463000    1.2128413   -6.4539577    220.93764  0.039765593  0.040344606            2 
  464000    1.1897315     -6.48076    221.37964  0.039759275  0.040345389            2 
  465000    1.1640164   -6.4657077    221.36273   0.03967074  0.040344818            2 
  466000     1.161813   -6.5072092    221.65565  0.039637992  0.040344069            3 
  467000    1.1466499   -6.4690972     222.9728  0.039788151   0.04034361            3 
  468000    1.1932103   -6.4917762    222.40677  0.039602346  0.040342022            2 
  469000    1.1878808   -6.4516385    223.26329  0.039670094  0.040340852            2 
  470000    1.1954916   -6.4887965    224.43596  0.039793609  0.040339925            2 
  471000    1.1996361   -6.5051655    223.51277  0.039545784  0.040338618            2 
  472000     1.184547   -6.4623991    224.64377  0.039661683  0.040336809            1 
  473000    1.1628233   -6.5109462    224.61842  0.039573364  0.040335354            1 
  474000    1.1465044   -6.5122867    224.98237  0.039553862  0.040333019            3 
  475000    1.1525601   -6.4954998    225.95826  0.039641799  0.040331115            2 
  476000    1.1586628   -6.4565753    226.42935  0.039640993   0.04032929            2 
  477000     1.162731   -6.4942463    226.37287  0.039548021  0.040327726            2 
  478000    1.1631858   -6.5015063    227.51589  0.039664556  0.040325962            2 
  479000    1.1766548   -6.4723485    227.61474  0.039598945  0.040324597            2 
  480000    1.1933104   -6.4912012    228.39148  0.039651298  0.040323265            2 
  481000    1.1520435   -6.4822983     228.4551  0.039579885  0.040321956            3 
  482000    1.1557792   -6.4922562    229.30068  0.039643962  0.040320996            3 
  483000    1.1673735   -6.5372722    229.67421   0.03962633  0.040319044            2 
  484000    1.1813281   -6.5056321    230.39451  0.039668475  0.040316877           10 
  485000    1.1695526   -6.4778392    230.83573  0.039662496  0.040315257            2 
  486000    1.1520153   -6.4400864    231.58072  0.039708628  0.040314331            2 
  487000    1.1968233   -6.5263732    231.45257  0.039605162  0.040312835            1 
  488000     1.182102   -6.5038502    232.00615  0.039618536  0.040311858            3 
  489000    1.1945689   -6.4590512    233.19118  0.039739465  0.040310952            1 
  490000     1.178701   -6.5230736    233.75861  0.039754865  0.040309077            3 
  491000    1.1777002   -6.4844695    233.48741   0.03962787  0.040307052            3 
  492000    1.1858916   -6.4827273    234.15151  0.039659809  0.040304827            4 
  493000    1.1622755   -6.5243531    234.05634  0.039563276  0.040303183            1 
  494000    1.1778335   -6.4543923    235.31514  0.039695536  0.040301408            2 
  495000    1.2093263   -6.4894848    236.27636  0.039777164  0.040300511            5 
  496000    1.1647023   -6.4641817    236.75588  0.039777534  0.040299209            2 
  497000    1.1812629   -6.5297232    236.49925  0.039654469  0.040298156            3 
  498000    1.1828247   -6.4918599     237.7649   0.03978663  0.040296559            1 
  499000    1.1593542   -6.5071727    237.15452  0.039604964  0.040295272            2 
  500000    1.1690803   -6.4915363    237.86961  0.039644935  0.040293989            3 
  501000    1.1740548   -6.4977126    237.55456    0.0395134  0.040292631            2 
  502000     1.209838   -6.5067996    238.40897  0.039576522  0.040291467            6 
  503000    1.1655924     -6.49352    239.01248  0.039597827  0.040290121            3 
  504000    1.1590336   -6.5372501    238.99396  0.039516198  0.040288578            2 
  505000    1.1473289   -6.5158726    240.22705  0.039641427  0.040287057            4 
  506000    1.1584868   -6.4901071     240.6933  0.039639872  0.040285676            1 
  507000    1.1764718   -6.4901076    240.67218  0.039558214  0.040283705            4 
  508000    1.1386079   -6.5003165    241.54557  0.039623618  0.040281332            1 
  509000    1.1874867   -6.5008177    241.77616  0.039583523  0.040278979            2 
  510000    1.1730016   -6.5357062    242.32165   0.03959504  0.040276146            2 
  511000     1.176438   -6.4563175    242.19986  0.039497694  0.040273705            2 
  512000    1.1717474   -6.4874896    242.39041  0.039451564  0.040270943            2 
  513000    1.1662081   -6.5177616    242.90088  0.039457583  0.040267777            4 
  514000    1.1994857   -6.4936608    243.98418  0.039556449  0.040265206            3 
  515000    1.1773725   -6.5096935    244.04558  0.039489576  0.040262873            3 
  516000    1.1722391   -6.4828897    244.66323  0.039512796  0.040259705            2 
  517000    1.1473841   -6.4432551    245.54506  0.039578508  0.040256838            3 
  518000    1.1689262   -6.4688901    245.29191  0.039461376  0.040254259            4 
  519000    1.1819976   -6.5127643     245.7088   0.03945228   0.04025092            4 
  520000    1.1830796   -6.5100635    246.18453  0.039452649  0.040247082            1 
  521000    1.1335516    -6.505116    247.01336  0.039509495  0.040244038            3 
  522000    1.1793736   -6.4865484    247.25174  0.039471861   0.04024024            1 
  523000    1.1385557   -6.4990842    248.01561  0.039518103   0.04023689            2 
  524000    1.1639161   -6.5075866    248.24675  0.039479445  0.040233062            3 
  525000     1.188648   -6.5117091    248.43625  0.039434326  0.040229644            2 
  526000    1.1644517   -6.5048159    249.56191  0.039537692  0.040225827            2 
  527000    1.1658001    -6.547087    249.31399  0.039423464  0.040223034            2 
  528000    1.1647189   -6.4877008    250.84601  0.039590596  0.040220667            1 
  529000    1.1651301   -6.5298022    250.83694  0.039514325  0.040217957            2 
  530000    1.1657609   -6.5045896    251.81018  0.039592795  0.040215495            1 
  531000    1.1799996   -6.5295029    251.84897  0.039524321   0.04021325            3 
  532000    1.1702062    -6.504015     252.3646  0.039530796  0.040211799            2 
  533000    1.1483284   -6.5037996     253.1972  0.039586804  0.040209822            3 
  534000    1.1823893   -6.5162461    252.94276  0.039472966  0.040207426            2 
  535000    1.1720299   -6.5764965    253.26754  0.039449773  0.040204911            4 
  536000    1.1554801   -6.5065687    254.16191  0.039515222  0.040202504            3 
  537000    1.1733194   -6.4732973    254.91659  0.039558751  0.040200237            2 
  538000    1.1661128   -6.5111298    254.41404  0.039407379  0.040197991            3 
  539000    1.1833861   -6.5463126    254.85336   0.03940219  0.040194869            3 
  540000    1.1655369   -6.4999815    254.83071  0.039325726  0.040191131            3 
  541000    1.1707693   -6.5039603    256.51869  0.039513046  0.040187943            3 
  542000    1.1741641   -6.4884348    256.53836  0.039443167   0.04018424            3 
  543000    1.1657499   -6.4992603    257.33624  0.039492977  0.040180934            4 
  544000    1.1750635   -6.5337567    257.64172  0.039467175  0.040177576            1 
  545000    1.1816699    -6.494269    257.40282   0.03935823  0.040174061            2 
  546000    1.1443411   -6.4623953    259.33185  0.039580562  0.040171399            1 
  547000    1.1475829   -6.4848584    259.90142  0.039594976  0.040168377            1 
  548000    1.1753972   -6.5658343     259.3859  0.039444328  0.040166218            3 
  549000    1.1683613     -6.52673    260.82651  0.039591152  0.040164048            2 
  550000    1.1665206   -6.4986254    262.09266  0.039711009  0.040161309            2 
  551000    1.1904429   -6.5187063     261.1864  0.039501876  0.040158649            2 
  552000    1.1454419   -6.4875312    261.39085   0.03946118  0.040155875            1 
  553000    1.1661634   -6.4988877    261.17217  0.039356866  0.040152799            2 
  554000    1.1511589   -6.4993408    261.89845  0.039395074  0.040149247            4 
  555000    1.1648082    -6.489447    261.85422  0.039317451  0.040144918            4 
  556000    1.1421588    -6.548644    261.29018  0.039162197  0.040140468            2 
  557000    1.1539951   -6.4877949    263.16442  0.039372294  0.040136046            3 
  558000    1.1619972   -6.4879005    262.53183  0.039207262  0.040130742            2 
  559000    1.1675366   -6.5432785    262.79957  0.039177038  0.040125341            1 
  560000    1.1462146   -6.5575113    262.73091  0.039096862  0.040119625            2 
  561000    1.1716292   -6.5303752    263.99975  0.039215649   0.04011424            2 
  562000    1.1638365   -6.5289307    264.46018  0.039214142  0.040108913            2 
  563000    1.1559637   -6.4762079    265.61797  0.039315864  0.040103975            2 
  564000    1.1721368   -6.4755139    265.56086  0.039237715  0.040098581            3 
  565000    1.1548638   -6.5047895    265.51262  0.039161154  0.040093002            2 
  566000    1.1485182   -6.4942661    266.79288   0.03928046  0.040087782            1 
  567000    1.1487376   -6.5059419    266.33433  0.039143788  0.040082566            2 
  568000    1.1531934   -6.5350312    266.78574  0.039141101  0.040077245            2 
  569000    1.1385173   -6.5302505    267.39547  0.039161609  0.040071766            1 
  570000    1.1585366   -6.5060787    268.33047  0.039229601  0.040066509            2 
  571000    1.1691823   -6.5095615    269.65271  0.039353868    0.0400614            2 
  572000    1.1884062   -6.5076932    269.91262  0.039322934  0.040057373            2 
  573000    1.1844258   -6.5073563    270.34703  0.039317486  0.040053568            2 
  574000    1.1373618   -6.5094733    270.01568  0.039200883   0.04004904            3 
  575000    1.1681092    -6.560502    269.96708  0.039125664  0.040044387            4 
  576000    1.1225328   -6.5219894    270.24505  0.039097952  0.040039469            2 
  577000    1.1250589   -6.5357465    271.27798  0.039179374  0.040034548            4 
  578000    1.1839971   -6.4842649    272.71424  0.039318661  0.040030083            3 
  579000    1.1624608   -6.5462168    272.85995  0.039271726   0.04002565            4 
  580000    1.1522763   -6.5288368    273.42092  0.039284615  0.040021225            3 
  581000    1.1281025   -6.5226988    273.62306  0.039245993  0.040017408            3 
  582000    1.2037054    -6.495372    275.94215  0.039510618  0.040014274            2 
  583000    1.1403875   -6.5203104    276.25344  0.039487341  0.040011475            2 
  584000    1.1599289    -6.518181    276.18722  0.039410277  0.040008296            3 
  585000    1.1451905   -6.4972668    275.96465  0.039311204  0.040005977            1 
  586000    1.1910203   -6.5006043    276.97306  0.039387522  0.040003528            4 
  587000    1.1743815   -6.5677506    276.53975  0.039258908  0.040000473            3 
  588000    1.1915027    -6.498767    277.98089  0.039396384  0.039997768            3 
  589000    1.1609455   -6.5384604    278.72581  0.039434892  0.039995091            2 
  590000    1.1883703   -6.4778108    279.90394  0.039534455  0.039992536            2 
  591000     1.149052   -6.5441007    279.33595  0.039387472   0.03999004            2 
  592000     1.166564   -6.5090649     279.9226  0.039403519  0.039987504            2 
  593000     1.155671   -6.5365777    281.13901  0.039508011  0.039985368            4 
  594000    1.1483639   -6.5528938    280.78571  0.039391935   0.03998308            3 
  595000    1.1622663   -6.5348715    281.20069  0.039383851  0.039980607            2 
  596000    1.1552857   -6.5201593    281.49571  0.039359019    0.0399782            2 
  597000    1.1357538   -6.5490153    281.58375  0.039305381  0.039975817            3 
  598000    1.1490758   -6.4964665    282.71769  0.039397671  0.039973328            1 
  599000    1.1914994   -6.5383444    283.44177  0.039432634  0.039970732            4 
  600000    1.1504574   -6.5149122    283.16635   0.03932866  0.039967735            1 
  601000     1.141782   -6.5186005    283.62994  0.039327501  0.039964384            3 
  602000    1.1877757   -6.5197078    283.30154  0.039216714   0.03996101            4 
  603000    1.1434768   -6.5604661     284.0919  0.039260904  0.039957141            2 
  604000    1.1529553   -6.5226129    284.11726  0.039199402  0.039953632            5 
  605000    1.1598274   -6.5392418    285.28327  0.039295216  0.039949993            6 
  606000    1.1726748   -6.5269048    285.26922   0.03922844  0.039946437            3 
  607000    1.1556627   -6.5190144     286.0678  0.039273449  0.039943056            2 
  608000      1.16912   -6.5496875    286.32393   0.03924396  0.039939244            2 
  609000    1.1586544   -6.5704653    286.79591  0.039244104  0.039934964            2 
  610000    1.1627425   -6.5531467    286.60319  0.039153442  0.039931111            2 
  611000    1.1420691    -6.542667    288.13625  0.039298452  0.039927809            3 
  612000    1.1816574   -6.5661108    288.54048  0.039289281  0.039924724            2 
  613000    1.1632318   -6.5229827    288.70599  0.039247687  0.039921592            2 
  614000    1.1572646   -6.5190176     289.4766  0.039288354  0.039918989            4 
  615000    1.1405277   -6.5380228    289.59519  0.039240541  0.039915464            2 
  616000    1.1637402   -6.5318771    289.35604  0.039144486  0.039911713            2 
  617000    1.1667534   -6.5227835    290.65374  0.039256313  0.039908558            4 
  618000    1.1780064   -6.4945318     290.5357  0.039176875  0.039905443            4 
  619000    1.1171117   -6.5110413    291.54401  0.039249329  0.039902005            1 
  620000    1.1407901   -6.5222608    291.99278  0.039246341  0.039898441            1 
  621000     1.187342   -6.5156336    291.87931  0.039167917  0.039894321            5 
  622000    1.1520814   -6.5820248    292.10718  0.039135474  0.039890071            2 
  623000    1.1389864   -6.5044608    293.22846  0.039222641  0.039885467            3 
  624000    1.1636308   -6.4835527    293.08881  0.039141133  0.039881086            2 
  625000    1.1330231   -6.5020474    293.41995  0.039122661  0.039876445            3 
  626000     1.145374   -6.5295965    292.97637  0.039001114  0.039871474            3 
  627000    1.1443324   -6.5501653    293.78701  0.039046652  0.039865915            2 
  628000    1.1509283   -6.5239996    294.28794  0.039050947  0.039859923            4 
  629000     1.162743   -6.5707532    293.82804  0.038927933  0.039854467            1 
  630000    1.1592501   -6.5498483    294.00658  0.038889759  0.039848516            2 
  631000    1.1478725   -6.5110077    296.59721   0.03917026  0.039842114            1 
  632000     1.162012     -6.52355    294.36142  0.038813478  0.039835593            2 
  633000    1.1424789   -6.5637318    295.28914  0.038874294  0.039828184            3 
  634000    1.1486079   -6.5091422    295.36185  0.038822535  0.039820806            5 
  635000    1.1684609   -6.5363564    295.90723   0.03883297  0.039813692            1 
  636000    1.1298288   -6.5419859    296.21217  0.038811867  0.039806558            2 
  637000    1.1742718   -6.5389447     296.8804  0.038838356  0.039798804            3 
  638000    1.1620501   -6.5276871    296.45646  0.038722108  0.039791568            5 
  639000    1.1555402   -6.5427661    297.38449  0.038782537  0.039784074            2 
  640000    1.1506198   -6.5245001    297.19244  0.038696932  0.039776666            1 
  641000     1.141225   -6.5087092    297.09141  0.038623428  0.039768785            3 
  642000    1.1497424    -6.502732    297.64797   0.03863551  0.039760826            2 
  643000    1.1408761   -6.5352731    297.79709   0.03859475  0.039752866            1 
  644000    1.1380237   -6.5479245    298.27474  0.038596628  0.039745144            2 
  645000     1.145883   -6.5473002    299.59405  0.038707242  0.039737111            5 
  646000    1.1530134   -6.5500612    298.95816  0.038565294  0.039728929            6 
  647000    1.1558703    -6.552739    301.11523  0.038783518   0.03972158            3 
  648000    1.1631872   -6.5293179     300.6013  0.038657574  0.039714185            1 
  649000     1.126566   -6.5605709    301.08388  0.038659974  0.039706836            2 
  650000    1.1242037   -6.5482534    301.72571  0.038682783  0.039699199            3 
  651000    1.1507057   -6.5317856     301.7527  0.038626818  0.039691613            2 
  652000    1.1637383    -6.534551    302.16349  0.038620078  0.039683416            4 
  653000    1.1407956   -6.5719973    303.48083   0.03872905  0.039675543            2 
  654000    1.1636481   -6.5368323    303.88298  0.038721072  0.039668288            1 
  655000    1.1622419   -6.5697806    303.73859  0.038643587  0.039661212            4 
  656000    1.1426189   -6.5105781    305.29823  0.038782804  0.039654477            1 
  657000     1.176483   -6.5720938     304.1161  0.038573833  0.039646809            5 
  658000    1.1711224   -6.5148397    305.17161  0.038648886  0.039638951            3 
  659000    1.1516908   -6.5477614    304.88997  0.038554624  0.039631271            3 
  660000    1.1468989   -6.5767765    306.20765  0.038662582  0.039623715            2 
  661000    1.1339177   -6.5206076    307.20122  0.038729352  0.039616797            2 
  662000    1.1253465   -6.5461555    306.41278  0.038571598  0.039608995            4 
  663000    1.1446196   -6.5542595    307.11347  0.038601492  0.039601055            2 
  664000    1.1310528   -6.5824128    307.42574  0.038582547  0.039593062            2 
  665000    1.1479754   -6.5281982    308.06854  0.038605081  0.039585289            2 
  666000    1.1487717   -6.5550191    308.39585  0.038588069  0.039577741            2 
  667000    1.1570226   -6.5189982    307.98522  0.038478912  0.039569751            2 
  668000    1.1507102    -6.524904    309.10004  0.038560384  0.039562486            1 
  669000    1.1278142   -6.5493633    309.60663  0.038565849  0.039554779            3 
  670000    1.1336306   -6.5514519    310.27896   0.03859191  0.039546928            1 
  671000    1.1587255    -6.518813    310.90779  0.038612492  0.039539367            2 
  672000    1.1417401    -6.580083    311.74897  0.038659347  0.039532173            3 
  673000    1.1267325   -6.5317891    312.95523  0.038751267   0.03952481            3 
  674000    1.1504271   -6.5249707    311.97854  0.038573014   0.03951775            4 
  675000    1.1555446   -6.5338447    312.18917  0.038541873  0.039510411            3 
  676000    1.1836387   -6.5875977     311.9515  0.038455559   0.03950277            2 
  677000    1.1483037   -6.5411779    312.55198  0.038472671  0.039495839            2 
  678000     1.140469   -6.5897397    313.21607   0.03849755  0.039488535            4 
  679000    1.1294349   -6.5745228    313.57576  0.038484997  0.039480896            2 
  680000    1.1307853   -6.5433607    315.44636  0.038657642  0.039473899            3 
  681000    1.1562213   -6.5669934     315.2357  0.038575098  0.039466793            2 
  682000    1.1515678   -6.5477272      316.116    0.0386261  0.039459948            3 
  683000    1.1189831   -6.5497721    316.90765  0.038666136  0.039453389            2 
  684000    1.1297626   -6.5656447    316.19929  0.038523305   0.03944622            4 
  685000    1.1532955   -6.5523059    317.79853  0.038661621  0.039439466            3 
  686000    1.1497779   -6.5565879    317.12386  0.038523307  0.039432591            2 
  687000    1.1433618   -6.5780124    316.82798  0.038431342  0.039425841            4 
  688000    1.1511272   -6.5683522    318.78784  0.038612868  0.039418934            1 
  689000    1.1374422    -6.608334    316.35108  0.038262104  0.039411234            2 
  690000    1.1328052   -6.5502349    318.87281  0.038511208  0.039402827            2 
  691000    1.1528271   -6.6107982    317.44774  0.038283615  0.039394975            6 
  692000    1.1376048   -6.5660126    319.48618  0.038473769  0.039386881            3 
  693000    1.1492513   -6.5801085    318.94843  0.038353586  0.039379117            5 
  694000    1.1582049   -6.5421567    318.86569  0.038288388  0.039371187            7 
  695000    1.1385067   -6.5171122    320.90345  0.038477632  0.039363397            1 
  696000    1.1489139   -6.5330364     321.5343  0.038497881  0.039355652            2 
  697000    1.1311825   -6.5910559    319.86004  0.038242473  0.039347437            1 
  698000    1.1503609   -6.5919867    320.30312  0.038240582  0.039338921            1 
  699000    1.1332504      -6.5405    320.11288  0.038163195   0.03933016            1 
  700000    1.1344813   -6.5410616    320.97083  0.038210813  0.039321071            1 
  701000    1.1413279   -6.5876345    321.08021  0.038169307  0.039311816            3 
  702000    1.1403266   -6.5510268    321.10211  0.038117534  0.039302172            3 
  703000    1.1306689   -6.5698194    321.50144   0.03811065  0.039292543            1 
  704000    1.1488554   -6.5830508    321.63945  0.038072852  0.039282917            4 
  705000    1.1738951   -6.5328758    323.42939  0.038230424  0.039273535            3 
  706000     1.131004   -6.5691113    322.52416  0.038069424  0.039264097            2 
  707000    1.1347401   -6.5540707    322.70678  0.038037103  0.039254298            4 
  708000    1.1421933   -6.5494537    323.76889  0.038108391  0.039244524            5 
  709000    1.1180062    -6.569443    324.12939  0.038097014  0.039234674            2 
  710000    1.1216701   -6.5148636    323.26508  0.037941911  0.039224504            1 
  711000    1.1523925   -6.6067298    323.43624  0.037908607  0.039213821            3 
  712000    1.1442869   -6.5470645    324.38615  0.037966543  0.039203128            4 
  713000    1.1333742   -6.5625178    324.76087  0.037957091  0.039192234            2 
  714000    1.1262889   -6.5766341    324.52068  0.037875897  0.039181341            2 
  715000    1.1326943   -6.5892029    324.65086  0.037838095  0.039170964            2 
  716000    1.1446012   -6.5711562    325.27125  0.037857455  0.039160852            2 
  717000    1.1328133   -6.5552358     326.4847  0.037945687  0.039150759            2 
  718000    1.1384887   -6.5892988     327.1999  0.037975847   0.03914014            1 
  719000    1.1424262    -6.574776    326.73093  0.037868675  0.039129933            2 
  720000    1.1181778    -6.547155    328.45742  0.038015905  0.039119994            2 
  721000    1.1184935   -6.5937835    328.73744  0.037995544  0.039110191            1 
  722000    1.1355146    -6.578582    327.81084  0.037835969  0.039100207            3 
  723000     1.141194   -6.5586359    328.61178  0.037875954  0.039090294            5 
  724000    1.1143984   -6.5781592    330.96322  0.038094293  0.039080625            2 
  725000    1.1273336   -6.5732496    330.16182  0.037949635  0.039071118            2 
  726000    1.0990968   -6.5421639    332.40218   0.03815452  0.039061935            2 
  727000    1.1370176   -6.5817292    330.74214  0.037911754  0.039052326            1 
  728000    1.1130883   -6.5659485    331.35982  0.037930382  0.039043469            2 
  729000    1.1187312   -6.5536421    332.95226  0.038060386  0.039034924            2 
  730000     1.126328   -6.5430424     332.4038  0.037945639  0.039026228            3 
  731000    1.1358398   -6.5846023    332.82955  0.037942265  0.039017456            2 
  732000    1.1465695   -6.5394728    334.54951  0.038086238  0.039008436            2 
  733000    1.1208806   -6.5655594    333.91176  0.037961774  0.038999453            3 
  734000    1.1242099   -6.5984419    334.57042  0.037984834   0.03899011            6 
  735000    1.1383038    -6.572811    334.54384  0.037930141   0.03898077            3 
  736000    1.1617727   -6.5695614    334.43318  0.037866076   0.03897156            2 
  737000    1.1151518   -6.6007791    334.05852  0.037772334   0.03896258            1 
  738000    1.1262033   -6.5556812      335.945  0.037934169  0.038953475            2 
  739000    1.1241052   -6.5669407    335.93931  0.037882195  0.038944516            2 
  740000    1.1177789    -6.536576    337.05398   0.03795653  0.038935318            2 
  741000    1.1371888     -6.56578    337.09364  0.037909766  0.038926112            2 
  742000    1.1388643   -6.5997251    337.30062   0.03788192  0.038917114            2 
  743000    1.1302457   -6.5704371    337.73728   0.03787991  0.038908402            1 
  744000    1.1272844    -6.550336     339.0918  0.037980713  0.038899483            8 
  745000    1.1334113   -6.5583648    337.83646  0.037789313  0.038890602            2 
  746000     1.133395   -6.5715301     337.9321  0.037749341  0.038881203            4 
  747000    1.1442477   -6.5775663    338.25758  0.037735117  0.038872021            2 
  748000    1.1262173   -6.5690209    339.54251   0.03782782   0.03886265            2 
  749000    1.1104825   -6.5953406    339.52629  0.037775511  0.038853308            2 
  750000    1.1146917   -6.5927548    339.27953  0.037697726  0.038844028            3 
  751000    1.1270893    -6.566885    340.46981  0.037779606  0.038834546            3 
  752000    1.1161799   -6.5923555    340.14457  0.037693325  0.038825189            4 
  753000    1.1178497   -6.5606841    341.20467  0.037760587  0.038815438            7 
  754000    1.1310389   -6.6049328    341.48111   0.03774106  0.038805828            2 
  755000    1.1554246   -6.5263758    342.46986  0.037800205  0.038796316            3 
  756000    1.1437853   -6.5866815    342.37679  0.037739946  0.038787029            2 
  757000    1.1237824   -6.5763046    342.50258  0.037703938  0.038777137            3 
  758000    1.1464705   -6.5896724    342.34115   0.03763645  0.038767036            2 
  759000    1.1423475   -6.5974635     342.5348  0.037608125  0.038756841            2 
  760000    1.1626851   -6.5460055    343.74243  0.037691056  0.038746872            2 
  761000     1.115544   -6.5676124     343.6498  0.037631384   0.03873728            4 
  762000    1.1433666   -6.5782332    343.78045  0.037596287  0.038727755            5 
  763000    1.1448037   -6.6071018    343.95421  0.037565991  0.038717832            4 
  764000    1.1145846   -6.5737114    344.63901  0.037591515  0.038707454            1 
  765000    1.1205071   -6.5799598    344.50755  0.037528056  0.038697302            7 
  766000    1.1334514   -6.6216462    344.29176  0.037455587  0.038687261            4 
  767000    1.1318259   -6.5890054    345.33863  0.037520494  0.038676979            2 
  768000    1.1307569   -6.5646672      346.685   0.03761773  0.038667136            4 
  769000    1.1267523    -6.587243    346.72976  0.037573663  0.038657396            3 
  770000    1.1182015   -6.5942471    346.68449  0.037519967   0.03864743            1 
  771000    1.1285731   -6.5801105    347.80885  0.037592828  0.038637638            3 
  772000     1.120558   -6.5828483    349.09617  0.037683093  0.038628012            3 
  773000    1.1183965   -6.5567656    348.76239   0.03759836   0.03861835            3 
  774000    1.1278101    -6.576424    348.16413  0.037485372  0.038608623            3 
  775000    1.1284611   -6.5807397    348.55985  0.037479554   0.03859865            2 
  776000    1.1323516   -6.5819463    350.02704  0.037588814  0.038588911            2 
  777000    1.1089265    -6.590336    349.88175  0.037524855  0.038579206            2 
  778000    1.1102916   -6.6052198    349.69199  0.037456297  0.038569434            2 
  779000    1.1252142   -6.5611076    350.55266  0.037500284  0.038559779            2 
  780000    1.1170891   -6.6460274    349.50732  0.037340526  0.038549849            3 
  781000    1.1408224   -6.5634064    351.80926  0.037538334  0.038539782            2 
  782000    1.1167117   -6.6311428    350.67196  0.037369135  0.038529898            2 
  783000    1.1193457   -6.6203488    351.56879  0.037416857  0.038519974            2 
  784000    1.1143366   -6.6062278    352.36272  0.037453521  0.038510063            1 
  785000     1.121128   -6.5704056    352.50757  0.037421186  0.038499725            3 
  786000     1.116115   -6.5502782    353.37654  0.037465706  0.038490083            2 
  787000     1.141512   -6.6011117    352.38054  0.037312637  0.038480094            3 
  788000    1.1320822   -6.5623079    353.62941  0.037397357  0.038470185            3 
  789000    1.1467479   -6.5889514    353.04617  0.037288357  0.038460057            4 
  790000     1.132281   -6.6061118    353.35731  0.037273977  0.038449706            3 
  791000    1.1422483   -6.5698947    354.81492  0.037380417  0.038439272            7 
  792000    1.1263165   -6.6117888    353.70948  0.037216906  0.038428483            2 
  793000    1.1325758   -6.6037287    354.07262  0.037208135  0.038417789            3 
  794000    1.0944604   -6.6129792    355.14015  0.037273315   0.03840696            1 
  795000    1.1099747   -6.5197255    356.72524  0.037392583  0.038396662            1 
  796000    1.1583229   -6.6318911    356.31364  0.037302517  0.038386408            2 
  797000    1.0920651   -6.5885949    357.04106  0.037331771  0.038376265            2 
  798000    1.1482422   -6.6083699    356.28157  0.037205677  0.038366273            5 
  799000    1.1053302   -6.6365492    357.94225  0.037332316  0.038356117            3 
  800000    1.1051515   -6.5442332    357.61762  0.037251836  0.038345832            1 
  801000    1.1378462   -6.5516373    358.67854  0.037315703  0.038336224            2 
  802000    1.1224726   -6.5481458    360.31091  0.037438789  0.038326751            3 
  803000    1.1113708   -6.5508708    360.69339  0.037431858  0.038317454            5 
  804000     1.106369   -6.5872213    360.06164  0.037319822  0.038307781            3 
  805000    1.1290251   -6.5833964    361.28179  0.037399771  0.038298697            2 
  806000    1.1288903   -6.5666559    360.90693  0.037314612  0.038289909            4 
  807000    1.1075779   -6.5660165    361.64176  0.037344254  0.038281081            3 
  808000    1.1183788   -6.5867167    362.11076  0.037346407  0.038271976            3 
  809000    1.1138217   -6.5666466    363.43411  0.037436559   0.03826269            2 
  810000    1.1167138    -6.548073    364.37668  0.037487313  0.038254024            4 
  811000     1.141476   -6.6178116    364.30848  0.037434081  0.038245428            2 
  812000    1.1048859   -6.6055225    363.70735  0.037326288  0.038236386            3 
  813000    1.1127716    -6.592148     363.3238  0.037241061  0.038227636            2 
  814000    1.1291716   -6.6091927    363.81052  0.037245139  0.038218911            4 
  815000    1.1255664   -6.5801987    365.29478  0.037351204  0.038210008            3 
  816000    1.1244801   -6.5964421     365.3213  0.037308139  0.038200871            2 
  817000    1.1101056   -6.5836337    365.13082  0.037243045  0.038191842            1 
  818000    1.1072664    -6.647733    365.37494  0.037222386  0.038182615            2 
  819000    1.1357329   -6.5957711    366.40626  0.037281874  0.038173382            3 
  820000    1.1105342   -6.6106719    365.32995  0.037127027  0.038164091            2 
  821000    1.1311805    -6.609041    366.81066  0.037232101  0.038154956            2 
  822000    1.1191565   -6.6058873    366.79166  0.037184881   0.03814565            6 
  823000     1.116871   -6.5879963    367.47315  0.037208703  0.038136587            3 
  824000    1.1411329    -6.564345    367.59921  0.037176296  0.038127548            2 
  825000    1.1081759   -6.6318281    369.31447  0.037304492  0.038119156            3 
  826000    1.1065909   -6.5495894    369.83678  0.037312024  0.038110384            3 
  827000    1.1346228   -6.6146334    369.27553  0.037210351  0.038101838            2 
  828000    1.1229643   -6.6122204    369.35122  0.037173029  0.038093245            2 
  829000    1.1228025   -6.5976864    370.38856  0.037232464  0.038084709            4 
  830000    1.1116354   -6.5892054    371.18628  0.037267699   0.03807643            3 
  831000    1.1165962   -6.5909569    371.18367   0.03722259  0.038068356            2 
  832000    1.1266702   -6.6139063    371.16125  0.037175606   0.03806006            4 
  833000    1.1131023   -6.5900995    373.17627   0.03733256  0.038051292            3 
  834000    1.0800714   -6.5989022    372.67398  0.037237608   0.03804252            2 
  835000    1.1048356   -6.6344715    372.40562  0.037166229  0.038033491            1 
  836000    1.1082789   -6.6125039     373.0539  0.037186393  0.038024826            5 
  837000    1.1179092   -6.6122183    372.49137  0.037085959  0.038015776            2 
  838000    1.1367662   -6.5844186    373.39515  0.037131578  0.038006603            2 
  839000     1.129087   -6.5670741    373.80585  0.037128114  0.037997191            3 
  840000    1.1250855   -6.5963114    373.45464  0.037049071  0.037988134            1 
  841000     1.126692   -6.6094916    374.07503  0.037066492   0.03797887            2 
  842000    1.1079124   -6.5777531    375.34304  0.037147966  0.037969293            5 
  843000     1.129367   -6.5685717    374.89876   0.03705998  0.037959948            1 
  844000    1.1188068   -6.5886433    375.34584  0.037060213   0.03795055            2 
  845000    1.0932664   -6.5750979    376.76581  0.037156392  0.037941192            8 
  846000    1.1205449   -6.5945012    377.15062  0.037150376  0.037931742            3 
  847000    1.1274611   -6.6144465    376.05859  0.036999075  0.037922455            3 
  848000    1.1218329   -6.6097066    376.74757  0.037023149  0.037913165            4 
  849000    1.1091268   -6.6114007    376.90856  0.036995344  0.037904006            3 
  850000    1.1153121   -6.6242094    377.86604   0.03704569  0.037894781            4 
  851000    1.1314675   -6.6074337     378.3196  0.037046572  0.037885486            1 
  852000    1.1033362   -6.6189979     377.7654  0.036948885  0.037876293            4 
  853000    1.0894732   -6.5979261    378.52299  0.036979581  0.037867119            2 
  854000    1.1325538   -6.5812768    379.27461  0.037009622  0.037858296            2 
  855000    1.0962064   -6.5888878    380.36632  0.037072741  0.037849624            2 
  856000    1.1152856    -6.606646    380.34902  0.037027747  0.037840279            3 
  857000    1.1168309   -6.6056167    378.85106  0.036838882  0.037831198            2 
  858000    1.1024324   -6.5882298    380.33849  0.036940413  0.037822064            3 
  859000    1.1347732   -6.5848706    380.70571  0.036933034  0.037812913            2 
  860000    1.1185803   -6.6063403    380.27692  0.036848538   0.03780363            2 
  861000    1.1049432   -6.6135583    381.38417  0.036912908  0.037794545            2 
  862000     1.114427   -6.6321385    381.34854  0.036866641   0.03778529            2 
  863000    1.1345925   -6.6140718     379.8173  0.036676062  0.037775821            1 
  864000    1.1050805   -6.5882233    382.19167  0.036862622  0.037766282            4 
  865000    1.1190802   -6.5948462    382.67452  0.036866524  0.037756751            3 
  866000    1.1499729   -6.6074887    381.86093  0.036745663  0.037747312            2 
  867000    1.1261061   -6.6131429    382.42732   0.03675772  0.037737557            5 
  868000    1.1301011   -6.6135997    382.08765  0.036682762  0.037727647            3 
  869000     1.099953    -6.626357    381.92286  0.036624747  0.037717482            7 
  870000    1.1059061   -6.6007341    383.04461  0.036690096  0.037707446            2 
  871000    1.0942084   -6.6109318      383.083  0.036651646  0.037697225            3 
  872000    1.1083856   -6.5997566    385.09536  0.036801927   0.03768749            1 
  873000    1.1256125   -6.5565707    386.36556   0.03688102  0.037677987            3 
  874000    1.1269431   -6.6040251      385.315  0.036738654  0.037668541            2 
  875000    1.1007508   -6.5984894    386.34539  0.036794799  0.037659145            4 
  876000    1.1112194   -6.5819074      387.207   0.03683476  0.037649565            3 
  877000    1.0905103   -6.6568206    386.67214  0.036741937  0.037640052            6 
  878000    1.0951411   -6.5911157    386.88617  0.036720403  0.037630342            2 
  879000    1.1343452   -6.5977595    388.24436  0.036807391  0.037621195            2 
  880000    1.0927048   -6.6422485    388.53685  0.036793262  0.037612059            1 
  881000    1.1313384   -6.6398427     387.5074  0.036654124  0.037602505            2 
  882000    1.1375814   -6.6055669    387.76325  0.036636739  0.037593341            2 
  883000     1.138861   -6.6136741    389.28961  0.036739299  0.037584068            6 
  884000    1.0914413   -6.5889291    389.38284  0.036706527  0.037574969            4 
  885000    1.1012653   -6.6105747      389.938  0.036717326  0.037565609            5 
  886000    1.0868839   -6.6213874    389.96379   0.03667831  0.037556199            3 
  887000    1.1159097   -6.5903163     389.1215  0.036557826  0.037546786            4 
  888000    1.1139602   -6.6116527    391.15162  0.036707172  0.037537623            3 
  889000    1.1076793    -6.619061    390.63989  0.036617912  0.037528137            3 
  890000    1.1258393   -6.6147638    393.00355  0.036798085  0.037518946            2 
  891000    1.1144266   -6.6481878    391.15584  0.036583973  0.037509689            2 
  892000    1.1365378   -6.5919898    393.38541  0.036751252  0.037500568            4 
  893000    1.1287847   -6.6119711    392.06226  0.036586624  0.037491374            9 
  894000    1.1208308   -6.6249439    393.52415  0.036681968  0.037482022            2 
  895000    1.0999093   -6.6166938    394.24298  0.036707912   0.03747278            2 
  896000      1.10948   -6.6292365    394.16065  0.036659287  0.037463672            3 
  897000    1.1120609   -6.6025195     395.6903  0.036760526  0.037454913            2 
  898000    1.1120542   -6.5933637    396.62713  0.036806527  0.037446244            1 
  899000    1.1073542   -6.6239793    396.40161   0.03674468  0.037437888            3 
  900000    1.1179607   -6.6109208    396.00096  0.036666756    0.0374297            3 
  901000    1.0976042   -6.5876438    397.71753  0.036784825  0.037421287            5 
  902000     1.111911   -6.6080371    398.15788  0.036784727   0.03741306            3 
  903000    1.1139275   -6.6063533    398.22224   0.03674993   0.03740502            3 
  904000    1.0908926   -6.6205701     398.1898  0.036706287  0.037397302            3 
  905000     1.092667   -6.6057879    398.77504  0.036719617  0.037389314            3 
  906000    1.1181772   -6.6063962    399.54883   0.03675026  0.037381293            4 
  907000    1.1176148   -6.6212339    400.71363  0.036816761  0.037373274            2 
  908000    1.1225057   -6.6660599    399.08199  0.036626468  0.037365122            1 
  909000    1.1000971   -6.6048715    399.90927  0.036662016  0.037356805            3 
  910000    1.0914292   -6.6769461    399.20894  0.036557595  0.037348711            4 
  911000    1.1045192   -6.6126997    400.27469  0.036614955  0.037340354            2 
  912000    1.1047134   -6.6362772    400.64458  0.036608606  0.037331956            4 
  913000    1.0940765   -6.6341639    402.10667  0.036701959  0.037323753            4 
  914000    1.1073011   -6.5927821    403.33169  0.036773495  0.037315607            5 
  915000    1.0819042   -6.6088429    403.21343  0.036722534   0.03730756            2 
  916000    1.1042613   -6.6315693    401.51673  0.036528087  0.037299525            2 
  917000    1.1281379   -6.6527266     402.6518  0.036591403  0.037291763            2 
  918000    1.1133072   -6.6225127    405.54762  0.036814417  0.037284047            2 
  919000    1.0922529   -6.6098233    404.59438   0.03668792  0.037276328            2 
  920000    1.1135901   -6.6442846    404.18939  0.036611357  0.037268794            2 
  921000    1.0636856   -6.6264434    405.10914  0.036654827  0.037261159            2 
  922000    1.1042378   -6.6288137    404.05461  0.036519759  0.037253562            5 
  923000    1.0916663   -6.6316086    406.56315  0.036706677  0.037245883            2 
  924000    1.0879565   -6.6484048    406.19083  0.036633372  0.037238331            2 
  925000    1.1212197   -6.6335198     405.5816  0.036538882  0.037230679            3 
  926000    1.1250716   -6.5985512    407.91351  0.036709279  0.037223089            5 
  927000    1.1228847   -6.6015106    407.57714  0.036639441  0.037215479            4 
  928000    1.1174534   -6.6620156    407.01166   0.03654918  0.037207608            2 
  929000    1.1619984   -6.5998724    409.79956  0.036759918  0.037199826            2 
  930000    1.1009716   -6.6324442    407.81507  0.036542569  0.037192162            3 
  931000    1.1006534   -6.6433329    409.47228  0.036651654  0.037184312            3 
  932000    1.1053384   -6.6164384    408.78685  0.036551041  0.037176326            2 
  933000    1.1095291    -6.615405    409.10332  0.036540132  0.037168633            4 
  934000    1.1189384   -6.5978655    409.76855  0.036560363  0.037160991            1 
  935000    1.0978527   -6.6523017    410.02644  0.036544246  0.037153384            2 
  936000     1.114939   -6.6330178    410.28493  0.036528217  0.037145911            3 
  937000    1.0886682   -6.6429841    411.14863  0.036566047  0.037138673            3 
  938000    1.1134638   -6.6414921    411.64885  0.036571504  0.037131297            2 
  939000    1.1007911   -6.6014612    413.04256  0.036656244  0.037123964            3 
  940000    1.0939967   -6.6078749    412.87687   0.03660256  0.037116924            3 
  941000    1.1068338   -6.6326994    412.95889  0.036570926  0.037109886            2 
  942000    1.1347788   -6.6350523    414.15592  0.036637997  0.037103092            2 
  943000     1.126036   -6.6322222    414.18679  0.036601872  0.037096316            2 
  944000    1.0896109   -6.6255709    415.26499  0.036658279  0.037089352            3 
  945000    1.0996273   -6.6113422    414.61294  0.036561988  0.037082527            2 
  946000    1.0965164   -6.6378249    415.91329  0.036637886  0.037075548            1 
  947000    1.1139612   -6.6213092    415.71832  0.036582041  0.037068386            2 
  948000    1.0949846   -6.6278317    416.83946  0.036642006  0.037061223            3 
  949000    1.1039353   -6.6304999    416.06635  0.036535507  0.037054107            6 
  950000    1.1135092   -6.6088474    417.25551  0.036601361  0.037046803            3 
  951000    1.0966722   -6.6187229    418.03636  0.036631297  0.037039357            4 
  952000    1.0884161   -6.5936947    418.65838  0.036647268  0.037032117            2 
  953000    1.0952881   -6.6040728    417.85773  0.036538801   0.03702464            2 
  954000    1.1227076   -6.6417561    416.35062  0.036368852  0.037016855            4 
  955000    1.0950277   -6.6312637    417.11665  0.036397613  0.037008959            2 
  956000    1.0974801   -6.6354484    417.43327   0.03638714  0.037001114            3 
  957000    1.1035844   -6.6645331    416.77346  0.036291663  0.036993241            3 
  958000     1.099287   -6.6277004    417.67593  0.036332283  0.036985245            3 
  959000    1.0832404   -6.6272332    419.99905  0.036496267  0.036977688            3 
  960000    1.0887625   -6.6290174    419.83784  0.036444257  0.036970142            3 
  961000    1.1142821   -6.6298558    419.53576  0.036380139  0.036962468            4 
  962000    1.0919419   -6.6312744    421.42178  0.036505698  0.036954827            2 
  963000     1.095896   -6.6359686    421.26214  0.036453975  0.036947433            2 
  964000    1.1019268   -6.6112687    421.70817  0.036454717  0.036940228            7 
  965000    1.0874041   -6.6639698    420.67804  0.036327983  0.036932733            4 
  966000    1.0977605    -6.623431    421.69347  0.036377974  0.036925398            3 
  967000    1.0754106   -6.6189136    421.59081  0.036331507  0.036917814            3 
  968000    1.0866979   -6.6298719    422.63397  0.036383779  0.036910328            6 
  969000    1.0676442   -6.6113805    425.02853  0.036552161   0.03690304            2 
  970000    1.1079707   -6.6166505    423.42742  0.036376926   0.03689586            3 
  971000    1.0908036   -6.6290158    424.34552  0.036418256  0.036888771            2 
  972000    1.1225558   -6.6290224    424.21461  0.036369565  0.036881814            2 
  973000    1.0800754   -6.6718543    424.82049  0.036384077  0.036874326            5 
  974000    1.1039618   -6.6120179    424.83199  0.036347706  0.036866996            4 
  975000    1.0911913   -6.6401398    426.80584  0.036479131  0.036859393            2 
  976000    1.0665909   -6.6296669     425.3871   0.03632062  0.036851898            3 
  977000    1.0721793   -6.5892053    426.37845  0.036368002  0.036844264            2 
  978000    1.1040166   -6.6335418    426.15639  0.036311894  0.036836767            5 
  979000     1.106051   -6.6464339    425.85955  0.036249536  0.036828997            4 
  980000    1.0689729   -6.6510074    426.55273  0.036271491  0.036821145            2 
  981000    1.0925117    -6.659192    426.56659  0.036235694  0.036813029            2 
  982000    1.1049904    -6.619917     427.8774  0.036310031  0.036805069            5 
  983000    1.0925134   -6.6533604     426.0945  0.036121948  0.036797274            4 
  984000    1.1036352   -6.6622058    427.96036  0.036243256  0.036789048            7 
  985000    1.0748715   -6.6534198    427.33372  0.036153445  0.036781234            3 
  986000    1.0811785   -6.6590996     429.2967  0.036282683  0.036773352            5 
  987000    1.0899889   -6.6544506    427.24935  0.036073062  0.036765772            3 
  988000    1.0822956    -6.644124    430.14963  0.036281177   0.03675803            3 
  989000    1.0650043   -6.6327189    429.99776  0.036231696  0.036750618            2 
  990000    1.0897063   -6.6329572    429.65186  0.036165982  0.036743007            2 
  991000     1.092962   -6.5961512    430.97154  0.036240459   0.03673578            2 
  992000    1.0997928   -6.6442864    430.83935  0.036192822    0.0367284            2 
  993000    1.0818066    -6.616631    431.60359  0.036220509   0.03672085            2 
  994000    1.0996064   -6.6553624    430.41422  0.036084357  0.036713328            3 
  995000    1.0804296   -6.6130921     431.3322  0.036124975  0.036705637            2 
  996000    1.1065178   -6.6859527    430.37191  0.036008359  0.036697598            3 
  997000     1.074806   -6.6428265    430.19578  0.035957521   0.03668939            3 
  998000    1.0894642   -6.5780576    431.57795  0.036036903  0.036680956            2 
  999000     1.073304   -6.6458139    430.91686  0.035945684  0.036672571            5 
 1000000    1.0885688   -6.6392644    433.37459   0.03611455  0.036664244            2 
 1001000    1.0713469   -6.6693194     432.0555  0.035968657  0.036655835            2 
 1002000    1.0685319   -6.6502245    432.54777    0.0359737  0.036647421            3 
 1003000    1.1049893   -6.6723124    432.87061  0.035964656  0.036639185            2 
 1004000    1.0797861   -6.6624555    434.41967  0.036057409   0.03663114            5 
 1005000     1.090019   -6.6222487    435.60799  0.036120066  0.036623466            2 
 1006000    1.0667651   -6.6315242    434.60297  0.036000909  0.036615874            2 
 1007000    1.1115448   -6.6781639    437.03012  0.036166014  0.036608303            2 
 1008000    1.0846197   -6.6492182    436.98328  0.036126263  0.036600828            4 
 1009000     1.127901   -6.6733798     436.9285  0.036085935  0.036593558            3 
 1010000    1.1012187   -6.6434543    438.91931  0.036214465  0.036586478            2 
 1011000    1.0949744   -6.6709262    438.04836  0.036106855  0.036579346            3 
 1012000    1.0946686   -6.6536365     437.7658  0.036047908  0.036572383            4 
 1013000    1.1213703   -6.6376038    440.48693  0.036236174  0.036565343            7 
 1014000    1.0950982   -6.6684115    440.34887  0.036189092  0.036558157            2 
 1015000    1.1074849   -6.6288068     439.5562  0.036088358  0.036550851            4 
 1016000    1.0996597   -6.6965658    439.20252  0.036023829  0.036543478           10 
 1017000    1.0723049   -6.6392426    439.72937  0.036031578  0.036535857            5 
 1018000    1.0931407   -6.5779419     439.5102  0.035978241  0.036528096            2 
 1019000    1.1027535   -6.6428831    440.25594   0.03600392  0.036520352            4 
 1020000    1.0954939   -6.6259004    440.17695  0.035962169  0.036512663            3 
 1021000    1.0839147   -6.6259056    440.13243  0.035923313  0.036504949            4 
 1022000     1.064716    -6.634324    441.46546  0.035996858   0.03649737            2 
 1023000    1.0620402   -6.6692445    442.40465  0.036038176  0.036489817            3 
 1024000    1.0857324   -6.6485972    441.98762  0.035969044  0.036482524            3 
 1025000    1.0857359   -6.6553681     443.2562   0.03603709  0.036475082            2 
 1026000    1.1153337   -6.6412632    443.83015  0.036048583  0.036467658            7 
 1027000    1.1025397   -6.6316812    442.97508  0.035944099  0.036460331            5 
 1028000    1.0836748   -6.6669535    442.69397  0.035886347  0.036452679            2 
 1029000    1.1099743   -6.6637546    442.94851  0.035872086  0.036444949            2 
 1030000     1.066353   -6.6533865    442.91233  0.035834331   0.03643686            4 
 1031000    1.0978314   -6.6364178    444.01329  0.035888562   0.03642898            2 
 1032000    1.0648716   -6.6948929    444.14653  0.035864545  0.036420967            6 
 1033000    1.0842185   -6.6400794    445.19666  0.035914542   0.03641291            3 
 1034000    1.1066382   -6.6811218    445.66411  0.035917482  0.036404751            3 
 1035000    1.0824694   -6.6295211    446.43475  0.035944827  0.036396609            5 
 1036000    1.0805123   -6.7070068    444.64161  0.035765896  0.036388407            4 
 1037000    1.0829906   -6.6551684    445.09293  0.035767674   0.03638035            2 
 1038000    1.0900845   -6.6607468    445.75312  0.035786217  0.036372166            3 
 1039000    1.0776671   -6.6817575    444.23924  0.035630353  0.036363857            6 
 1040000    1.0938697   -6.7018674    444.40284  0.035609202  0.036355347            4 
 1041000    1.0920908   -6.6503949    445.04424   0.03562634  0.036346682            2 
 1042000     1.076937   -6.6543205    446.14791  0.035680415   0.03633792            5 
 1043000     1.084146    -6.654168    447.05598  0.035718758  0.036329264            2 
 1044000     1.074344   -6.6830885    446.07945  0.035606597  0.036320664            3 
 1045000    1.0939252   -6.6549295    447.44224    0.0356812  0.036311997            2 
 1046000    1.0771628   -6.7071279    446.69752  0.035587757  0.036303175            5 
 1047000     1.073536   -6.6557308    448.23449  0.035676097  0.036294375            5 
 1048000    1.1010273   -6.6876341    447.32972  0.035570111   0.03628556            3 
 1049000    1.0797038   -6.6915829    447.58412  0.035556413  0.036277159           15 
 1050000    1.0723288   -6.6403096    449.38313  0.035665328  0.036268793            2 
 1051000    1.0765672   -6.6968587    450.48364  0.035718652   0.03626052            4 
 1052000    1.0827761   -6.6589702    450.14217   0.03565765  0.036251877            3 
 1053000    1.0937241   -6.6758176    449.65747  0.035585428  0.036243429            2 
 1054000    1.0997545   -6.6757173    450.23121  0.035597028  0.036234548            3 
 1055000    1.0706687   -6.6917656    449.74795  0.035525114  0.036225632            5 
 1056000    1.0660803   -6.6904877    450.72058  0.035568228  0.036216916            4 
 1057000     1.082039   -6.6726844    450.45322  0.035513499  0.036208522            3 
 1058000    1.0842022   -6.6943824    450.84888  0.035511097  0.036199844            4 
 1059000     1.078982   -6.6708154    452.81411  0.035632209  0.036191119            5 
 1060000    1.0774502   -6.6233218    451.79797  0.035518708  0.036182246            3 
 1061000    1.0820645   -6.6748275    451.54596  0.035465438  0.036173639            2 
 1062000     1.069575   -6.6704794    451.90518  0.035460231  0.036164961            4 
 1063000    1.0979644   -6.6374495    453.81632  0.035576695  0.036156191            7 
 1064000    1.0855867   -6.6743383     453.2921  0.035502201  0.036147661            3 
 1065000    1.0718886   -6.6961579    452.72502  0.035424493  0.036138766            3 
 1066000    1.0673775   -6.6584832    454.09861   0.03549864  0.036129949            4 
 1067000    1.0803649   -6.6501843    455.20677  0.035551919  0.036121216            4 
 1068000    1.0639645   -6.6725026    452.34658  0.035295457  0.036112445            3 
 1069000    1.0897164   -6.6607355    454.25852  0.035411484  0.036103548            3 
 1070000    1.0736887   -6.6810097    453.77802  0.035340967  0.036094648            4 
 1071000    1.0778891   -6.6865651    454.18787  0.035339859  0.036085837            2 
 1072000    1.0920914   -6.6419363    455.09995  0.035377795  0.036077088            4 
 1073000    1.0844927   -6.6938961    455.79848  0.035399074  0.036068172            4 
 1074000    1.0805626   -6.6516518    456.23614  0.035400073  0.036059016            3 
 1075000    1.0915758    -6.671641    454.99974  0.035271297  0.036050058            3 
 1076000    1.0896392   -6.6975873    456.22537  0.035333439  0.036041042            3 
 1077000    1.0769975   -6.6833415    456.79582  0.035344771  0.036031862            3 
 1078000    1.1061602   -6.6538477    455.88691  0.035241721  0.036022801            1 
 1079000    1.0789964   -6.6275184    457.06581  0.035300109  0.036013825            2 
 1080000    1.0742326   -6.6627865    457.25032  0.035281661  0.036004485            3 
 1081000    1.0583138   -6.6473577    457.49351   0.03526777  0.035995078            2 
 1082000    1.0658573   -6.6440963    459.34189  0.035377533  0.035985865            3 
 1083000    1.0884064   -6.6733015    456.88649  0.035155932   0.03597634            1 
 1084000    1.0687101   -6.6602526    458.35125  0.035236105  0.035966934            3 
 1085000    1.0816418   -6.6372926    458.17643  0.035190202  0.035957541            2 
 1086000    1.0797176   -6.7022362    457.13619  0.035077976  0.035947991            3 
 1087000    1.0866527   -6.6558415    459.18047  0.035202428  0.035938442            4 
 1088000     1.067348   -6.6374278    459.96688  0.035230306  0.035929208            2 
 1089000    1.0580042   -6.6567163    459.37465  0.035152636  0.035920048            5 
 1090000    1.0588075   -6.6696989    459.92762  0.035162662  0.035910472            7 
 1091000    1.0861895   -6.6829141    460.36307  0.035163693  0.035900971            4 
 1092000    1.0682631    -6.693773    459.71384  0.035081948  0.035891262            4 
 1093000    1.0542145   -6.6561378    461.61416  0.035194736  0.035881708            5 
 1094000    1.0783177   -6.6500359    460.75807  0.035097354  0.035872295            2 
 1095000    1.0661404   -6.6854559    460.09097  0.035014533  0.035862481            3 
 1096000    1.0859239   -6.6712308    462.10165  0.035135466   0.03585296            3 
 1097000    1.0840378   -6.6449717    462.04088  0.035098821  0.035843364            3 
 1098000    1.0834406    -6.685533    462.59657  0.035109029  0.035834107            4 
 1099000    1.0816012   -6.6713937    461.89177   0.03502364  0.035824498            3 
 1100000    1.0782506   -6.6847622    462.33032  0.035025024  0.035814977            4 
 1101000    1.0934166    -6.668955    462.44456  0.035001859  0.035805451            3 
 1102000    1.0612215   -6.6785836     463.4825  0.035048586  0.035796173            3 
 1103000    1.0663466   -6.6615988    463.83773  0.035043649  0.035786749            4 
 1104000    1.0588489   -6.6745281    463.34104  0.034974414  0.035777114            2 
 1105000    1.0932352    -6.679655     462.6993  0.034894366  0.035767482           11 
 1106000    1.0785876   -6.6798319    465.02466  0.035038024  0.035757884            2 
 1107000    1.0659657   -6.6918534    463.53856  0.034894502  0.035748143            4 
 1108000    1.0793525   -6.6631129    466.21173  0.035064059  0.035738425            3 
 1109000    1.0797495   -6.6624026    465.21324  0.034957412  0.035728681            3 
 1110000    1.0672888   -6.6886219    464.56163  0.034876999   0.03571881            4 
 1111000    1.0816733    -6.677334    464.81623  0.034864704  0.035708924            6 
 1112000    1.0664682   -6.6999152    465.07501  0.034852743  0.035699227            2 
 1113000    1.0930402   -6.6765364    465.42915  0.034847945  0.035689351            5 
 1114000    1.0683373    -6.643673    465.61729  0.034830737  0.035679383            2 
 1115000     1.083549   -6.6570204    465.76436   0.03481049  0.035669444            2 
 1116000    1.0536643   -6.7196557    466.11487  0.034805471   0.03565952            2 
 1117000    1.0887387   -6.6660771    465.55614  0.034732628  0.035649581            3 
 1118000    1.0718805   -6.6839064    467.34496  0.034834895   0.03563942            1 
 1119000    1.0665301   -6.6861916    467.90723  0.034845638  0.035629484            4 
 1120000    1.0565967   -6.6794482    467.08873  0.034753626  0.035619437            3 
 1121000    1.0754322   -6.6920566    468.73422  0.034844946   0.03560947            2 
 1122000    1.0554504   -6.6722488     468.4376   0.03479186  0.035599837            2 
 1123000    1.0816678   -6.6719321    470.21437  0.034892725   0.03559022            2 
 1124000    1.0441081   -6.7082291    468.47154  0.034732469  0.035580236            3 
 1125000    1.0785992   -6.6923985    468.88939  0.034732547  0.035570422            2 
 1126000    1.0898715   -6.6861053    469.71458  0.034762772  0.035560557            4 
 1127000    1.0572658    -6.671648    472.23563   0.03491834  0.035550867            3 
 1128000    1.0832807   -6.6803026    470.67762  0.034772283  0.035541397            2 
 1129000    1.0817561   -6.7004195    469.26597  0.034637287  0.035531632            3 
 1130000    1.0837783   -6.6814569    470.59243  0.034704457  0.035521842            3 
 1131000      1.08016   -6.6970044    471.79162  0.034762129  0.035512048            2 
 1132000    1.0676394   -6.6850967    471.56299   0.03471459  0.035502239            2 
 1133000    1.0592939   -6.6678243    471.75885  0.034698356  0.035492724            6 
 1134000    1.0536548   -6.7164134    472.96686   0.03475653  0.035483249            4 
 1135000    1.0856466   -6.6681813    473.66476  0.034777148  0.035473885            4 
 1136000     1.052697   -6.6315714    474.45493  0.034804499  0.035464408            2 
 1137000     1.047742    -6.671168    473.70798  0.034719143  0.035454982            2 
 1138000    1.0607964   -6.6938966    472.80591  0.034622577  0.035445439            3 
 1139000    1.0922359   -6.6915426    473.05457  0.034610373  0.035435823            2 
 1140000    1.1049666   -6.7046335    473.57996  0.034618418  0.035426063            3 
 1141000    1.0754521   -6.7230471    472.77852  0.034529544  0.035416272            3 
 1142000    1.0414224   -6.7345263    473.68505  0.034565459  0.035406304            3 
 1143000    1.0689203    -6.702232    474.41063  0.034588118  0.035396399            4 
 1144000    1.0638361    -6.686021    475.96999  0.034671474  0.035386576            2 
 1145000     1.069461   -6.6805052    475.43591  0.034602323  0.035376859            6 
 1146000    1.0839571   -6.6979101    475.54724  0.034580224  0.035367126            1 
 1147000     1.064824   -6.7067226    475.98551  0.034581917  0.035357342            4 
 1148000    1.0592443   -6.6884402    476.64021  0.034599319  0.035347854            3 
 1149000    1.0712781   -6.7025873    476.73659  0.034576196    0.0353381            3 
 1150000    1.0559616   -6.6855759     476.5167  0.034530196  0.035328481            3 
 1151000     1.049043   -6.6820868    477.52568  0.034573247  0.035319016            2 
 1152000    1.0540014   -6.6748758    477.26573  0.034524431   0.03530955            5 
 1153000    1.0514006   -6.6826449    479.89174  0.034684283  0.035300131            4 
 1154000     1.070536   -6.6786479    478.66431  0.034565591  0.035290789            5 
 1155000    1.0508328   -6.6908815    480.39889  0.034660815  0.035281353            3 
 1156000    1.0883237   -6.6993572    479.93131  0.034597124  0.035271957            3 
 1157000    1.0744448    -6.696379    479.41306  0.034529894  0.035262529            5 
 1158000    1.0934089   -6.6551615    479.21263  0.034485653   0.03525283            2 
 1159000    1.0659637   -6.7154612    480.92034  0.034578684  0.035243209            2 
 1160000    1.0517074   -6.7077708    479.94373  0.034478716  0.035233764            5 
 1161000    1.0588538   -6.6987282    480.52792   0.03449095  0.035224319            3 
 1162000    1.0230242   -6.7090978    480.53261  0.034461604  0.035214925            3 
 1163000    1.0482561   -6.7202845    482.34238  0.034561649  0.035205405            4 
 1164000    1.0699702   -6.7320535    480.55819  0.034404223   0.03519595            2 
 1165000    1.0685468   -6.7452341    481.10756  0.034413989  0.035186469            6 
 1166000     1.060556   -6.7427923    482.76014  0.034502583  0.035176926            2 
 1167000    1.0711209   -6.6816196    482.33146  0.034442406   0.03516745            3 
 1168000    1.0856942   -6.6991227    482.98601  0.034459618  0.035158053            2 
 1169000    1.0901486    -6.689219    483.46938  0.034464598  0.035148751            2 
 1170000    1.0521966   -6.6937837    484.03627  0.034475517  0.035139288            4 
 1171000    1.0612056    -6.711021    482.40827  0.034330221  0.035129916            2 
 1172000    1.0482585   -6.7023682    481.91454  0.034265823  0.035120143            2 
 1173000    1.0696056   -6.7102293    484.11455  0.034392906  0.035110419            2 
 1174000    1.0710767    -6.699558     483.3146  0.034306829  0.035100623            5 
 1175000    1.0609074   -6.6953487    482.88498  0.034247162    0.0350907            3 
 1176000    1.0614564   -6.7203879     484.0045  0.034297371  0.035080893            5 
 1177000    1.0475474   -6.6793431    484.57254  0.034308449  0.035071184            3 
 1178000    1.0650918   -6.7185658     484.7555  0.034292268  0.035061542            2 
 1179000    1.0774936   -6.6853106     486.0259  0.034352975  0.035051854            3 
 1180000    1.0737806   -6.6682883    486.58517   0.03436336  0.035042308            3 
 1181000    1.0798565   -6.6847007    487.44699  0.034395074  0.035032807            1 
 1182000    1.0800134   -6.6783058    486.18346  0.034276894  0.035023343            3 
 1183000    1.0405068   -6.7100533    486.53466  0.034272658  0.035013834            5 
 1184000    1.0470068   -6.6718798    487.70516  0.034326095  0.035004446            3 
 1185000    1.0698728   -6.7194904    486.22725  0.034193196  0.034994838            3 
 1186000    1.0650735   -6.7234048    487.18645  0.034231763  0.034985408            3 
 1187000     1.068932   -6.7027685    488.15276  0.034270764   0.03497587            3 
 1188000    1.0639927   -6.7154444    488.87037  0.034292254  0.034966403            2 
 1189000     1.061917   -6.7067119    488.75914  0.034255617  0.034956916            2 
 1190000    1.0644356    -6.709933     489.0866  0.034249762  0.034947219            4 
 1191000    1.0507043   -6.7121238    489.25943  0.034233098  0.034937719            4 
 1192000    1.0699975   -6.7082691    488.99221  0.034185697  0.034928213            2 
 1193000    1.0624257   -6.6923582    489.11722  0.034165774  0.034918672            5 
 1194000    1.0675708   -6.6997941    488.97541  0.034127262   0.03490879            1 
 1195000    1.0736122   -6.6837633    490.02776  0.034172089  0.034898959            3 
 1196000    1.0695148   -6.6967174    490.28321  0.034161316  0.034889048            4 
 1197000    1.0721627    -6.716681    489.56618  0.034082859  0.034879214            2 
 1198000    1.0605359   -6.7430771    489.94593  0.034080824  0.034869371            2 
 1199000    1.0574838   -6.6874643    491.73555  0.034176783  0.034859789            2 
 1200000    1.0707497   -6.7056764    492.63952  0.034211078  0.034850253            2 
 1201000    1.0627164   -6.6697217    491.36137  0.034093906   0.03484059            3 
 1202000    1.0445898   -6.7128582    491.82707  0.034097828   0.03483098            3 
 1203000    1.0619397   -6.6822621    492.55366  0.034119816  0.034821466            3 
 1204000     1.070587    -6.735844    493.30755  0.034143656  0.034811954            2 
 1205000     1.052231   -6.7076827    493.25294  0.034111545  0.034802601            1 
 1206000    1.0483372   -6.7293599      492.272  0.034015478  0.034792917            3 
 1207000    1.0736601   -6.7081844    492.62303  0.034011532  0.034783516            2 
 1208000    1.0482748   -6.6924033    494.38165  0.034104695   0.03477381            2 
 1209000    1.0487464   -6.6820174    492.93761  0.033976951  0.034764046            2 
 1210000    1.0451335   -6.7266117    493.11189  0.033960874  0.034754195            2 
 1211000    1.0438831   -6.7178491    492.73369  0.033906805  0.034744207            2 
 1212000    1.0364385   -6.6822997    492.37244  0.033853991  0.034734127            2 
 1213000    1.0578152    -6.711293    494.35448  0.033962248  0.034724084            5 
 1214000    1.0646779   -6.7393578    493.49751  0.033875447  0.034714053            4 
 1215000     1.045044   -6.7305257    494.91759  0.033944965  0.034704048            3 
 1216000     1.052147   -6.6815391    494.86444  0.033913407  0.034693859            5 
 1217000     1.062973    -6.733729    494.81445  0.033882118  0.034683888            6 
 1218000    1.0608932   -6.7172615    494.74521  0.033849563  0.034673471            6 
 1219000    1.0598156   -6.6715667    495.05631  0.033843062   0.03466318            3 
 1220000    1.0710005   -6.7327087    496.56981  0.033918703  0.034652925            2 
 1221000    1.0664426   -6.7256645    495.04331   0.03378674  0.034642987            2 
 1222000      1.06031      -6.7674    494.91442  0.033750301  0.034632729            3 
 1223000    1.0724479    -6.721598    496.85493  0.033854928  0.034622385            5 
 1224000    1.0622116   -6.7394669    495.84398  0.033758441  0.034612264            2 
 1225000    1.0308659   -6.7242903     497.3585  0.033833912  0.034602108            6 
 1226000     1.051717   -6.7053255    496.90418  0.033775434  0.034591893            2 
 1227000    1.0682802   -6.7130877     496.0397  0.033689194  0.034581661            2 
 1228000     1.048319   -6.7563608    495.29953  0.033611532  0.034571317            2 
 1229000    1.0711401   -6.7017449    498.68348  0.033813634  0.034560982            3 
 1230000    1.0527312   -6.7165972    497.44527  0.033702254  0.034550802            2 
 1231000    1.0596267   -6.7070207     498.4406  0.033742255  0.034540624            2 
 1232000    1.0682291   -6.7091363    499.29856  0.033772901  0.034530658            2 
 1233000    1.0532534   -6.6972094    500.33592   0.03381562  0.034520817            1 
 1234000    1.0813503   -6.7043331    500.61491  0.033807057  0.034510919            1 
 1235000    1.0640435   -6.7426354    500.51126  0.033772689  0.034501068            3 
 1236000    1.0324888   -6.7607475    497.58072  0.033547783  0.034490892            5 
 1237000    1.0809765   -6.7314875    500.41123  0.033711347  0.034480667            3 
 1238000    1.0607599   -6.7179654     500.3077  0.033677147  0.034470544            3 
 1239000    1.0435404    -6.728432    500.16673  0.033640485  0.034460505            1 
 1240000    1.0655277   -6.7365264    500.36574   0.03362673  0.034450418            3 
 1241000    1.0332978   -6.7203907    500.50013  0.033608657  0.034440382            4 
 1242000    1.0643603   -6.7360434    499.53752   0.03351701   0.03443019            3 
 1243000    1.0799123   -6.7322611    501.93612  0.033650853  0.034420023            2 
 1244000    1.0508487   -6.7333555    501.34852   0.03358444  0.034409924            1 
 1245000    1.0722341   -6.7144753    503.50308  0.033701678  0.034399876            6 
 1246000    1.0398381   -6.7331995    501.97314  0.033572307  0.034389764            2 
 1247000    1.0690561    -6.712157    502.64898  0.033590549  0.034379802            4 
 1248000    1.0493377   -6.7222475    501.78507  0.033505947  0.034369803            4 
 1249000    1.0616586   -6.7083509    502.86589  0.033551233  0.034359897            3 
 1250000    1.0626725   -6.7224225    503.96563  0.033597709  0.034350002            3 
 1251000    1.0540085   -6.7377209    504.76741  0.033624262  0.034340215            1 
 1252000    1.0264114    -6.735545    505.22764  0.033628038  0.034330214            2 
 1253000    1.0625449   -6.7546863    505.74713  0.033635749  0.034320431            3 
 1254000    1.0502001   -6.7282155    504.73881   0.03354192  0.034310491            5 
 1255000    1.0490985    -6.725659    506.22748  0.033614043  0.034300793            3 
 1256000    1.0662794   -6.7321769    506.58382  0.033610922  0.034291231            2 
 1257000     1.041232   -6.7216302    506.89723  0.033604961  0.034281621            6 
 1258000    1.0422541   -6.7431901    507.19107  0.033597712   0.03427186            9 
 1259000    1.0669737   -6.7198483    507.14756  0.033568147   0.03426202            3 
 1260000    1.0363989   -6.7089403    507.52075  0.033566187  0.034252291            2 
 1261000    1.0262752    -6.716777    508.10173  0.033577962  0.034242608            4 
 1262000     1.037199   -6.7369056    507.55164  0.033515032  0.034232755            4 
 1263000    1.0237902   -6.7118653    508.77815  0.033569421  0.034223012            3 
 1264000    1.0383956   -6.7213029    506.98812   0.03342485  0.034213257            2 
 1265000    1.0281669   -6.7560336    507.68252  0.033444171  0.034203343            3 
 1266000    1.0494354   -6.6979512    510.03379  0.033572525  0.034193601            2 
 1267000    1.0425231   -6.7469077    510.61898  0.033584516  0.034184006            3 
 1268000    1.0305495   -6.7157212    509.56521  0.033488776  0.034174414            3 
 1269000    1.0409516   -6.7419753    508.81571  0.033413167  0.034164872            3 
 1270000    1.0519964   -6.7297886    510.56368  0.033501553  0.034155384            3 
 1271000    1.0455854   -6.7356689    511.94614  0.033565836  0.034145949            1 
 1272000     1.061796   -6.7217211    511.57105  0.033514875  0.034136565            4 
 1273000    1.0512784   -6.7233622    512.14883   0.03352637  0.034127177            4 
 1274000    1.0520084   -6.6900873    512.15434  0.033500415  0.034117741            5 
 1275000    1.0288949    -6.709832    512.62246  0.033504736  0.034108343            3 
 1276000    1.0060345   -6.7401662    513.26211  0.033520253  0.034098797            2 
 1277000    1.0449929   -6.7687621    512.86432  0.033468045   0.03408932            2 
 1278000    1.0491281   -6.7594378    512.47456  0.033416443  0.034079739            3 
 1279000    1.0532969   -6.7287191    513.17695   0.03343608    0.0340702            4 
 1280000     1.048413    -6.738486    515.83561  0.033583048  0.034060803            2 
 1281000    1.0625134   -6.7308823    514.27394  0.033455239  0.034051605            5 
 1282000    1.0434596   -6.7018088    515.09994  0.033482836  0.034042262            3 
 1283000    1.0447455   -6.7402722    514.83564  0.033439571  0.034032847            2 
 1284000    1.0534404   -6.7689092    513.36922  0.033318355  0.034023453            4 
 1285000    1.0392518     -6.71896    513.76552  0.033318127  0.034013904            4 
 1286000    1.0305791   -6.7384363    514.04582  0.033310382  0.034004396            4 
 1287000    1.0402532   -6.7291354    514.84288   0.03333611  0.033994848            3 
 1288000     1.047953    -6.746378    515.91226  0.033379416  0.033985328            4 
 1289000     1.051914   -6.7469671    516.60877   0.03339855  0.033975647            2 
 1290000    1.0306263   -6.6986034    515.70056   0.03331399  0.033966216            3 
 1291000     1.053848   -6.7246539    515.05367  0.033246428  0.033956728            2 
 1292000     1.060894   -6.7315023    515.61703  0.033257032  0.033947075            6 
 1293000    1.0408808   -6.7711063    515.12351  0.033199505   0.03393756            3 
 1294000    1.0673788   -6.7261581    516.53783  0.033264929  0.033928063            1 
 1295000    1.0454533   -6.7526747    517.31369  0.033289169  0.033918324            2 
 1296000    1.0815452   -6.7449552    517.20049  0.033256205  0.033908835            4 
 1297000    1.0709539   -6.7131925    519.27105  0.033363599  0.033899555            5 
 1298000    1.0405453   -6.7652645    517.77551  0.033241879  0.033890017            4 
 1299000    1.0397382   -6.7835853    517.01302  0.033167373  0.033880425            4 
 1300000    1.0256054   -6.7732092    517.50121  0.033173155  0.033870918            3 
 1301000    1.0310024   -6.7944732    517.43597  0.033143477  0.033861323            7 
 1302000    1.0493579   -6.7566983     518.2083  0.033167454  0.033851686            7 
 1303000    1.0581292   -6.7280972    521.20453  0.033333623  0.033842221            3 
 1304000    1.0240094    -6.782096    519.30028  0.033186368  0.033832784            3 
 1305000    1.0376596   -6.7267013    521.23388  0.033284411  0.033823473            2 
 1306000    1.0370583   -6.6956008    523.02827  0.033373422   0.03381425            3 
 1307000    1.0312627   -6.7328002    521.59223  0.033256327   0.03380499            3 
 1308000    1.0420879   -6.7454956    520.92436  0.033188351  0.033795697            5 
 1309000    1.0288735   -6.7569241    521.66741  0.033210301  0.033786437            3 
 1310000    1.0463537    -6.722284    521.17539  0.033153651  0.033777004            3 
 1311000     1.053469   -6.7604699    521.16043  0.033127411  0.033767616            2 
 1312000     1.049501   -6.7365771    522.44285  0.033183616  0.033758189            2 
 1313000    1.0438442   -6.7440901    522.73761  0.033177051  0.033749062            4 
 1314000    1.0303871   -6.7336248    523.45333  0.033197192  0.033739792            3 
 1315000    1.0361705   -6.7645945    524.91834  0.033264787  0.033730785            3 
 1316000    1.0428458   -6.7687071    525.46005  0.033273813  0.033722031           11 
 1317000    1.0297326   -6.7570893    524.65238  0.033197442  0.033713239            3 
 1318000    1.0434636   -6.7670367    524.33168  0.033151978  0.033704407            3 
 1319000    1.0522155   -6.7469805     527.8144  0.033346879  0.033695657            3 
 1320000    1.0383956   -6.7625493    525.98435  0.033206082  0.033687119            6 
 1321000    1.0583668   -6.7399764    526.97286  0.033243304  0.033678424            4 
 1322000    1.0278819   -6.7419593    526.88656  0.033212718  0.033669766            2 
 1323000    1.0225928    -6.759791     526.3475   0.03315366  0.033661081            7 
 1324000    1.0588835   -6.7496982    528.14612  0.033241825  0.033652353            3 
 1325000    1.0376972   -6.7479447    526.88722  0.033137561  0.033643614            2 
 1326000    1.0363362   -6.7325581    528.38984  0.033207004  0.033634972            2 
 1327000    1.0390035   -6.7503502    527.44953   0.03312293  0.033626307            3 
 1328000       1.0495   -6.7150413    530.27457  0.033275262  0.033617696            3 
 1329000    1.0402297   -6.7438124    529.66558  0.033212038  0.033609191            5 
 1330000    1.0435357    -6.700854    530.03426  0.033210167  0.033600687            4 
 1331000    1.0342046    -6.708909    530.74263  0.033229566  0.033592122            4 
 1332000    1.0325521   -6.7573831    529.60077  0.033133182  0.033583563            4 
 1333000    1.0159571   -6.7680441    530.82773   0.03318503  0.033574878            2 
 1334000    1.0473007    -6.703221    529.89052  0.033101607  0.033566407            4 
 1335000    1.0602181   -6.7653162    532.63753  0.033248285  0.033557958            5 
 1336000    1.0264577   -6.7618328    531.18667  0.033132901   0.03354942            4 
 1337000    1.0458651   -6.7712331    530.43569  0.033061312  0.033541049            4 
 1338000    1.0489885   -6.7892392    532.42461  0.033160476  0.033532673            3 
 1339000    1.0537426   -6.7208309    534.08357  0.033238958  0.033524172            2 
 1340000    1.0321594   -6.7526121    531.77865  0.033070812  0.033515668            4 
 1341000     1.035916   -6.7167407    531.74138  0.033043834  0.033506933            2 
 1342000    1.0355319    -6.775261    532.27784  0.033052523  0.033498299            4 
 1343000    1.0300671    -6.724696     533.5469  0.033106658  0.033489907            4 
 1344000    1.0312073   -6.7512662    535.08998  0.033177702  0.033481305            3 
 1345000     1.055271   -6.7368238     534.1829  0.033096834  0.033473013            4 
 1346000    1.0472904   -6.7482064    533.05331   0.03300231  0.033464719            4 
 1347000    1.0547841   -6.7748593    534.58716  0.033072702  0.033456387            5 
 1348000    1.0440669   -6.7193193    535.25053  0.033089177   0.03344807            3 
 1349000    1.0647045   -6.7857104    536.34689  0.033132376  0.033439957            7 
 1350000    1.0392132   -6.8238904    534.93752  0.033020835  0.033431617            2 
 1351000    1.0433232   -6.7318067    536.35969  0.033084116  0.033423334            6 
 1352000    1.0411613   -6.7673998    537.44735  0.033126686  0.033415161            4 
 1353000    1.0298025   -6.7772985    535.88824  0.033006174  0.033407047            5 
 1354000    1.0416268   -6.7327668    537.30738   0.03306914   0.03339895            3 
 1355000    1.0336501   -6.7303063    539.14391  0.033157682  0.033391081            4 
 1356000    1.0408921   -6.7357456    538.59729  0.033099637  0.033383257            3 
 1357000    1.0198229   -6.7418572     539.8852  0.033154335  0.033375543            2 
 1358000     1.045726   -6.7791814    540.05175  0.033140142  0.033367685            4 
 1359000    1.0387708   -6.7396704     541.6027  0.033210859  0.033359852            2 
 1360000    1.0240586   -6.7706533    538.99285  0.033026523  0.033352082            2 
 1361000    1.0168556   -6.7488746      540.703  0.033106968  0.033344163            5 
 1362000    1.0521682   -6.7931181     540.5633  0.033074113  0.033336367            3 
 1363000    1.0422807   -6.8018935    539.75409  0.033000372   0.03332845            3 
 1364000    1.0241558    -6.764616    541.50383  0.033083079  0.033320566            9 
 1365000    1.0186935   -6.7763488    543.42233  0.033175966  0.033312936            2 
 1366000     1.036916   -6.7374787    543.26266  0.033141939  0.033305284            4 
 1367000   0.99926935   -6.7362942    543.08118  0.033106632  0.033297661            4 
 1368000    1.0108582   -6.7347996    543.64604   0.03311684  0.033289916            3 
 1369000    1.0260598   -6.7850042    542.25337  0.033007875  0.033282194            3 
 1370000    1.0287284   -6.7819398    543.03807  0.033031512   0.03327447            3 
 1371000    1.0558868   -6.7788457    544.81729  0.033115566  0.033266636            3 
 1372000    1.0074157    -6.745824    543.81292  0.033030425  0.033258916            9 
 1373000     1.042792   -6.7643998    543.93654  0.033013871   0.03325126            2 
 1374000    1.0494006   -6.7300541    547.91336  0.033231038  0.033243608            2 
 1375000    1.0326758   -6.7643212    544.45875    0.0329975  0.033236063            6 
 1376000    1.0254165   -6.7853338    544.59547  0.032981799  0.033228262            8 
 1377000    1.0336077   -6.7752282     544.4214  0.032947313  0.033220233            3 
 1378000    1.0157331   -6.7139797    545.36211  0.032980292  0.033212152            7 
 1379000    1.0379174   -6.7820921     544.6938   0.03291599  0.033204213            4 
 1380000    1.0349551   -6.7869542    544.85809  0.032902058  0.033196434            3 
 1381000    1.0321998   -6.7770251    546.39499  0.032970974  0.033188599            2 
 1382000    1.0270139   -6.7443159    546.28317  0.032940374  0.033180756            3 
 1383000    1.0094756   -6.7624841    547.01129   0.03296043   0.03317287            2 
 1384000    1.0193249    -6.775456    546.23493  0.032889868  0.033164893            2 
 1385000    1.0397433     -6.76213    546.57118  0.032886353  0.033157022            5 
 1386000    1.0124315   -6.8060956    548.42789   0.03297426  0.033149101            3 
 1387000    1.0172582   -6.7859339    546.33105  0.032824505  0.033141112            4 
 1388000    1.0398239   -6.7604052    547.16679  0.032851032  0.033133271            2 
 1389000    1.0268583    -6.747428    547.66302  0.032857153  0.033125378            4 
 1390000    1.0381209   -6.7731389    547.08242  0.032798706  0.033117458            7 
 1391000    1.0210857   -6.7739622    548.19825  0.032841975  0.033109413            2 
 1392000    1.0281228   -6.7615997    549.92486  0.032921747  0.033101448            7 
 1393000    1.0392393   -6.7500902    549.45016  0.032869715  0.033093484            2 
 1394000    1.0068914   -6.7694213    548.26395  0.032775224    0.0330853            7 
 1395000     1.008512   -6.7608646    549.31331  0.032814415  0.033077143            3 
 1396000    1.0231419   -6.7723033    547.14742  0.032661618  0.033069078            3 
 1397000    1.0306068   -6.8086894    548.06761  0.032693129   0.03306069            2 
 1398000    1.0244093    -6.786085    549.12514  0.032732781  0.033052417            3 
 1399000    1.0007293   -6.7692002    547.19121  0.032594187  0.033044124            5 
 1400000    1.0551902   -6.7205824    550.45093  0.032764936  0.033035796            7 
 1401000    1.0538356    -6.779552     550.7933  0.032761914  0.033027559            8 
 1402000    1.0162766   -6.8004468    549.83504  0.032681588  0.033019135            3 
 1403000     1.037693   -6.7558989    549.32456  0.032627973  0.033010671            3 
 1404000    1.0065202   -6.7659654    549.91833  0.032639977  0.033002379            6 
 1405000    1.0282467   -6.7484493    551.25728  0.032696161  0.032994025            3 
 1406000    1.0132966   -6.7634575     550.7621  0.032643557   0.03298554            2 
 1407000     1.024601   -6.7507172    550.31817  0.032594064  0.032977226            2 
 1408000    1.0404853   -6.7963404    550.55026  0.032584651  0.032968935            3 
 1409000    1.0163504   -6.7406347    553.03461  0.032708458  0.032960571            2 
 1410000    1.0153167   -6.7747871    551.93057   0.03262001  0.032952204            5 
 1411000    1.0313334   -6.7630779    552.95746  0.032657539  0.032943904            3 
 1412000    1.0265852   -6.7839079    551.65576  0.032557588  0.032935574            4 
 1413000    1.0101761   -6.7626907    551.44246  0.032521966  0.032927088            3 
 1414000    1.0374895   -6.7598451    553.66487  0.032629943  0.032918757            6 
 1415000    1.0024551   -6.7949544    552.12584  0.032516245  0.032910358            6 
 1416000    1.0340009   -6.7681432    553.11076  0.032551245  0.032901952            3 
 1417000    1.0238979    -6.729298    554.09638  0.032586238  0.032893588            3 
 1418000    1.0530066    -6.760029    555.20667  0.032628506  0.032885412            4 
 1419000    1.0252319   -6.7862009    554.17141  0.032544715  0.032877115            4 
 1420000    1.0062804   -6.7692614     553.1804  0.032463639  0.032868704            3 
 1421000    1.0564351    -6.799286    554.15064  0.032497692  0.032860273            4 
 1422000     1.031574   -6.8174371    554.03224    0.0324679  0.032851766            3 
 1423000    1.0144729   -6.7966474    555.35277  0.032522416  0.032843116            3 
 1424000    1.0218768    -6.807305    553.75704  0.032406194  0.032834542            3 
 1425000    1.0069584   -6.8320893    552.66487  0.032319583  0.032825852            6 
 1426000    1.0190666   -6.7990987    555.32123  0.032452152  0.032817192            5 
 1427000    1.0269666   -6.7654346     555.2463  0.032425035  0.032808746            5 
 1428000    1.0206756   -6.7635738    556.14574  0.032454817   0.03280034            4 
 1429000   0.99823076   -6.7988876    555.48534  0.032393593  0.032791745            5 
 1430000    1.0004601   -6.7522845    556.28971  0.032417815  0.032783316            6 
 1431000    1.0298432   -6.7692354    555.43318  0.032345282  0.032774868            2 
 1432000    1.0263304   -6.7965569    555.40773  0.032321213  0.032766242            2 
 1433000    1.0230725   -6.7709946    557.46969  0.032418568  0.032757778            4 
 1434000    1.0004885   -6.7847195    556.92056  0.032364049  0.032749282            3 
 1435000    1.0293577   -6.8113894    557.04188  0.032348541  0.032740875            3 
 1436000    1.0209373   -6.7919945    556.84274  0.032314458  0.032732407            5 
 1437000    1.0085676    -6.774697    558.59868    0.0323938  0.032723834            4 
 1438000    1.0378718   -6.7842461    559.55376   0.03242662   0.03271538            5 
 1439000    1.0244167   -6.8011669    559.19856  0.032383517  0.032707019            3 
 1440000    1.0155274   -6.8000766    558.81848  0.032339033  0.032698718            2 
 1441000   0.99490928   -6.7994825     559.8972  0.032378973  0.032690428            6 
 1442000    1.0200027    -6.789071    559.32724  0.032323581  0.032682149            3 
 1443000     1.030537   -6.7294072    561.25463  0.032412487  0.032673933            2 
 1444000     1.028404   -6.7902802    559.93911  0.032314122  0.032665603            3 
 1445000    1.0153477   -6.7704293     561.6259  0.032389037  0.032657295            4 
 1446000    1.0195024   -6.7821147     561.4987  0.032359307  0.032649108            4 
 1447000    1.0233508   -6.7951714    560.39021  0.032273106  0.032640807            4 
 1448000    1.0210865   -6.8134917    562.67544  0.032382334  0.032632546            2 
 1449000     1.016912   -6.7661364    563.58187  0.032412116  0.032624478            2 
 1450000    1.0310915   -6.7938364     561.9386  0.032295322  0.032616447            5 
 1451000    1.0284044   -6.7760978    562.38304  0.032298589  0.032608394            3 
 1452000    1.0053146   -6.7882988    562.40461  0.032277583   0.03260026            2 
 1453000    1.0292788   -6.7977703     564.3006  0.032364109  0.032592181            2 
 1454000    1.0255618   -6.8403503    561.14031  0.032160724  0.032584119            3 
 1455000    1.0063756   -6.7830118    565.34919  0.032379679  0.032576038            3 
 1456000   0.98870454   -6.8047978     564.9506  0.032334627  0.032567909            3 
 1457000    1.0220213   -6.7800811    565.94746  0.032369449  0.032559806            3 
 1458000    1.0248159   -6.7907168    563.42331  0.032202979  0.032551802            3 
 1459000     1.031293   -6.7821114    565.96165  0.032325888  0.032543621            3 
 1460000    1.0216233   -6.7980121    564.49836  0.032220226  0.032535431            3 
 1461000    1.0313244   -6.8057915    564.16486   0.03217915  0.032527271            4 
 1462000    1.0210737   -6.7397667    565.45864  0.032230885  0.032519059            2 
 1463000     1.014801   -6.7856409    567.78649  0.032341449  0.032510708            2 
 1464000    1.0001263    -6.810822    565.56007  0.032192627  0.032502526            4 
 1465000    1.0082265   -6.8214937    565.16447   0.03214815  0.032494149            7 
 1466000    1.0196629    -6.815979    564.30509   0.03207737  0.032485753            8 
 1467000    1.0189716   -6.7821884    566.87781  0.032201648  0.032477423            4 
 1468000    1.0194648   -6.7947281    567.83072  0.032233806  0.032469248            4 
 1469000    1.0355182   -6.8014322    566.59392  0.032141702  0.032461142            3 
 1470000     1.012521   -6.7965572    567.70804  0.032182995  0.032453122            4 
 1471000    1.0347027   -6.8025274     568.9851  0.032233464  0.032445118            5 
 1472000    1.0208605   -6.7887195    569.99912  0.032268972  0.032437118            8 
 1473000   0.99227664   -6.7987694    568.60558  0.032168227  0.032429288            3 
 1474000    1.0219374    -6.819066    567.56416  0.032087526  0.032421206            5 
 1475000    1.0257449   -6.7814876    570.50745  0.032232059   0.03241325            4 
 1476000    1.0077841   -6.8108135    569.77136  0.032168663  0.032405232            2 
 1477000     1.009138   -6.7915656    570.48602  0.032187205  0.032397153            4 
 1478000    1.0207689   -6.7930492    570.03113  0.032139779  0.032389102            5 
 1479000     1.013071   -6.7786206    569.56962  0.032092045  0.032381167            3 
 1480000    1.0058739    -6.783588    571.22483   0.03216356  0.032373308            3 
 1481000    1.0238155    -6.812099    569.67398  0.032054579  0.032365376            3 
 1482000   0.98982556   -6.8032055    572.28913      0.03218  0.032357499            3 
 1483000   0.98253731   -6.7819491    572.11305  0.032148407  0.032349743            2 
 1484000    1.0046481   -6.8089315    572.28784  0.032136559  0.032341869            4 
 1485000     1.019944   -6.8177202    573.17553  0.032164732  0.032334029            3 
 1486000    1.0090283   -6.8030876     572.8289  0.032123648  0.032326208            3 
 1487000    1.0162202    -6.798766     573.9193  0.032163153  0.032318596            1 
 1488000    1.0319183   -6.7922569    574.02935  0.032147701  0.032310884            6 
 1489000    1.0074669   -6.7827633    573.98343  0.032123541  0.032303033            2 
 1490000     1.000612   -6.7958394    573.54177   0.03207728   0.03229516            5 
 1491000    0.9896109   -6.8235673    573.61504  0.032059861  0.032287367            1 
 1492000     1.030206   -6.7842186    574.41117   0.03208284  0.032279431            3 
 1493000    1.0103874   -6.8298125    574.07486   0.03204258    0.0322716            3 
 1494000    1.0277359   -6.8336944    574.77284  0.032060065  0.032263889            4 
 1495000    1.0175496   -6.7868566    575.43209  0.032075367  0.032256089            3 
 1496000    1.0356706   -6.7694302     576.0859  0.032090347  0.032248376            2 
 1497000    1.0167958   -6.7451911    576.94883  0.032116947  0.032240733            4 
 1498000    1.0178081   -6.7777602     575.7511  0.032028877  0.032233064            2 
 1499000    1.0031537   -6.8029438    575.55197  0.031996441  0.032225335            3 
 1500000    1.0073511   -6.8171662    576.42654  0.032023696  0.032217506            3 
 1501000    1.0332609   -6.8214997    576.00961  0.031979214  0.032209664           11 
 1502000   0.99860293   -6.8188006      575.752  0.031943631  0.032201837            7 
 1503000    1.0079458   -6.8134468    576.63437    0.0319713  0.032193898            3 
 1504000   0.98474778   -6.8191756     577.6145   0.03200435   0.03218593            5 
 1505000      1.01098    -6.770631    578.43267  0.032028387   0.03217832            2 
 1506000    1.0272626   -6.7953939    578.97571  0.032037168  0.032170643            5 
 1507000    1.0030047   -6.8314721    577.31088  0.031923849  0.032162984            3 
 1508000    1.0204892   -6.8143109     578.5767  0.031972629  0.032155182            2 
 1509000    1.0133223   -6.8140393    577.10682  0.031870268  0.032147352            2 
 1510000    1.0079715   -6.8437729    574.57832   0.03170962   0.03213932            1 
 1511000    1.0180267   -6.8116335    578.35115   0.03189671  0.032131446            4 
 1512000    1.0223827   -6.7628875    578.88996  0.031905311  0.032123617            8 
 1513000    1.0176282   -6.8000667    581.45537  0.032025521  0.032115752            2 
 1514000    1.0072028   -6.8264254    579.13285  0.031876533  0.032107837            1 
 1515000    1.0126464   -6.8393343    579.15146  0.031856516  0.032100041            7 
 1516000    1.0185983   -6.7906587    582.19334  0.032002712  0.032092221            2 
 1517000    1.0067229   -6.7971241     580.7297  0.031901214  0.032084467            4 
 1518000    1.0171579   -6.8262239    581.11347  0.031901266  0.032076649            5 
 1519000    1.0116463   -6.8391295    582.37758  0.031949615  0.032068751            4 
 1520000    0.9939252   -6.7967891    580.78489  0.031841277  0.032060771            4 
 1521000    1.0066094   -6.7729345    581.02141  0.031833301   0.03205284            7 
 1522000    1.0056012   -6.7772724    580.11814  0.031762929  0.032044804            2 
 1523000     1.022619   -6.8175822    581.32171  0.031807929  0.032036687            4 
 1524000    1.0122593   -6.8013161    581.98711  0.031823442   0.03202863            5 
 1525000    1.0249308   -6.7636022    581.41654  0.031771396  0.032020605            5 
 1526000    1.0092426    -6.815506    580.34461  0.031692039  0.032012621            5 
 1527000   0.98136408    -6.840708    581.39111  0.031728395  0.032004504            2 
 1528000    1.0096483   -6.8198177    582.10046  0.031746316  0.031996356            5 
 1529000    1.0060367   -6.8228124    582.58834  0.031752144  0.031988196            4 
 1530000    1.0160713   -6.7998562    582.22425   0.03171156  0.031980097            3 
 1531000    1.0190603   -6.8187513    582.11012  0.031684635  0.031972035            4 
 1532000    1.0142546    -6.816683    582.69019  0.031695506   0.03196401            4 
 1533000    1.0038177   -6.8589488    583.52806  0.031720377  0.031955921            2 
 1534000    1.0208298    -6.814632    584.09638  0.031730572  0.031947912            3 
 1535000    1.0144791   -6.8164271    585.09863  0.031764312  0.031940035            4 
 1536000    1.0125076   -6.8031725    584.45617  0.031708776  0.031932126            4 
 1537000    1.0182333   -6.8261182    583.92772  0.031659494  0.031924278            2 
 1538000    1.0397658   -6.7935446    583.57104  0.031619584  0.031916277            2 
 1539000   0.99203721   -6.8295414    585.15258  0.031684675  0.031908437            3 
 1540000    1.0212448   -6.8277385    585.69269  0.031693328  0.031900409            3 
 1541000    1.0220659   -6.8117423    586.36518  0.031709127  0.031892457            6 
 1542000    1.0181141   -6.7657819    588.32593  0.031794527  0.031884578            1 
 1543000   0.99652195    -6.846611    584.79906  0.031583444  0.031876663            4 
 1544000   0.99720142   -6.8227277     587.7033  0.031719737  0.031868783            2 
 1545000    1.0140996   -6.7973107    587.69407  0.031698709  0.031860965            2 
 1546000    1.0100369   -6.8211136    587.76683  0.031682128  0.031853132            4 
 1547000   0.99391664    -6.777922    588.59636  0.031706333   0.03184528            3 
 1548000   0.98981792   -6.8261416    586.71448  0.031584544  0.031837343            5 
 1549000   0.99731116   -6.8235179    586.49157  0.031552161  0.031829448            3 
 1550000   0.99706484   -6.7958247    587.85508  0.031605112  0.031821639            2 
 1551000    1.0046512   -6.8427494    585.72718  0.031470405  0.031813662            2 
 1552000    0.9727508   -6.8268481    587.72169  0.031557221  0.031805652            4 
 1553000    1.0060178   -6.8237704    589.95197  0.031656577  0.031797783            2 
 1554000   0.98804291   -6.8463164    589.63954  0.031619452  0.031789916            3 
 1555000    0.9987561   -6.8506822    589.66022  0.031600226  0.031782182            6 
 1556000    1.0115787   -6.8318615    589.37825  0.031564816  0.031774352            3 
 1557000    1.0085897   -6.7772088    590.32199  0.031595054  0.031766698            4 
 1558000    1.0065372   -6.8257909    591.03835  0.031613091  0.031759133            3 
 1559000    1.0222838   -6.8024484    590.62807  0.031570882  0.031751526            6 
 1560000    0.9907979   -6.7894877    592.59175  0.031655542  0.031743915            2 
 1561000    1.0055034   -6.8284092    592.30772    0.0316201  0.031736288            4 
 1562000   0.98799919   -6.8056018    591.68059    0.0315664  0.031728622            3 
 1563000   0.98509317   -6.8134221    591.76126  0.031550504  0.031720943            2 
 1564000   0.99444587   -6.8058181    594.25485  0.031663195  0.031713351            8 
 1565000     1.010086   -6.8345593    593.21588   0.03158764  0.031705676            6 
 1566000    1.0083239   -6.8228378      593.264   0.03157003  0.031698041            2 
 1567000    1.0025894   -6.8321927    593.65329  0.031570585    0.0316905            2 
 1568000   0.99206949   -6.7829794    594.64697  0.031603262  0.031683034            5 
 1569000   0.99788868   -6.8325718    594.14265  0.031556334  0.031675511            3 
 1570000   0.98069365    -6.834554    593.63911  0.031509507  0.031667888            2 
 1571000    1.0137003   -6.8472728    594.21741  0.031520126  0.031660294            4 
 1572000   0.97664907   -6.8649349    594.08245   0.03149292  0.031652726            3 
 1573000    1.0036596   -6.8140603    595.42872  0.031544221  0.031645041           14 
 1574000   0.99258668   -6.8301776    595.61731  0.031534165  0.031637507            9 
 1575000    1.0118635   -6.8396907    593.76287  0.031416025   0.03162979            4 
 1576000   0.99411403   -6.8437098    595.74812  0.031501064  0.031622051            2 
 1577000   0.99978303   -6.8078825     594.9879  0.031440916  0.031614431            3 
 1578000   0.99582955   -6.8312169     595.3575   0.03144051  0.031606646            4 
 1579000   0.99505326   -6.8894237    595.09315  0.031406647  0.031598831            2 
 1580000   0.98468137   -6.8072715    597.10322  0.031492786  0.031591136            2 
 1581000    1.0141559   -6.8319806    595.79469  0.031403895  0.031583498            2 
 1582000   0.98227904   -6.8492597    596.76973  0.031435405  0.031575814            4 
 1583000   0.99542601   -6.8252438    598.83986  0.031524524  0.031568257            2 
 1584000   0.98476847   -6.8135356    597.99599  0.031460227  0.031560702            3 
 1585000   0.98788197   -6.8398089    598.82457  0.031483942  0.031553114            4 
 1586000   0.97349247   -6.8655438     597.6274  0.031401187   0.03154542            2 
 1587000    1.0047748   -6.8177112    597.57104  0.031378442  0.031537646            4 
 1588000    1.0061465   -6.8255741    598.59183   0.03141225  0.031529837            2 
 1589000   0.99786193   -6.8636722    597.67268  0.031344277  0.031522121            3 
 1590000   0.99153905    -6.830366    598.31991  0.031358486  0.031514325            3 
 1591000    1.0039625   -6.8129885    596.97233  0.031268192  0.031506451            2 
 1592000   0.97770105   -6.8385529    597.24999  0.031263086  0.031498616            8 
 1593000   0.99981937   -6.8301968     598.5956  0.031313852   0.03149071            3 
 1594000    1.0030981   -6.8442069    599.54796  0.031343996   0.03148303            3 
 1595000    1.0006022   -6.8098729    598.63277  0.031276529  0.031475209            4 
 1596000    1.0032487   -6.8248567    601.53975  0.031408717  0.031467475            4 
 1597000    1.0110922   -6.8079514    599.66055  0.031290991  0.031459641            3 
 1598000    1.0008168   -6.8604666    598.11963  0.031191053  0.031451748            2 
 1599000   0.99504006   -6.8216213    600.31154   0.03128578  0.031443858            2 
 1600000   0.99313313   -6.8173329    598.78838  0.031186895   0.03143613            2 
 1601000    1.0099688   -6.8162744    600.37126  0.031249805  0.031428336            1 
 1602000   0.99272736   -6.8205194    600.69807  0.031247299  0.031420523            2 
 1603000   0.99784993   -6.8649612     599.6765  0.031174698  0.031412512            4 
 1604000    1.0050567   -6.8190268    600.04314  0.031174311  0.031404456            3 
 1605000   0.99590785   -6.8215656    599.32309  0.031117502  0.031396389            3 
 1606000    0.9834539   -6.8219791    599.13165  0.031088193   0.03138846            3 
 1607000     1.017259   -6.8378407    600.44823   0.03113712  0.031380508            9 
 1608000    1.0094366   -6.8129045    602.02765  0.031199609  0.031372518            3 
 1609000     0.981967   -6.8599535    598.71231   0.03100851  0.031364437            5 
 1610000   0.99337172   -6.8069713    601.88895  0.031153673  0.031356225            3 
 1611000    1.0169408   -6.8269011    602.85727  0.031184423  0.031348006            7 
 1612000   0.99289458   -6.8348015    600.93194  0.031065547  0.031339752            3 
 1613000    0.9920659   -6.8534859    601.75644  0.031088884  0.031331373            5 
 1614000    1.0084303   -6.8522981    601.57292  0.031060147  0.031323104            4 
 1615000   0.99408457   -6.8624709      599.924  0.030955831   0.03131486            4 
 1616000   0.99388322   -6.8026509    600.98148  0.030991207  0.031306471            4 
 1617000   0.98265298   -6.8492962    601.52347  0.030999973  0.031298136            2 
 1618000   0.98224826   -6.8505364    600.08124  0.030906533  0.031289773            8 
 1619000    0.9919924   -6.8562728     601.5644  0.030963784  0.031281455            3 
 1620000   0.98786272   -6.8695691    600.14695  0.030871757  0.031273023            7 
 1621000   0.96982859   -6.8168078    602.58503   0.03097805  0.031264599            4 
 1622000   0.99627796   -6.8632542    599.50448  0.030800682  0.031256179            4 
 1623000   0.96365885    -6.828652    602.74428  0.030948053  0.031247673            4 
 1624000    1.0021044   -6.8089563    601.36137  0.030858034  0.031239241            3 
 1625000   0.98128656   -6.8725013    601.17527  0.030829501  0.031230817            3 
 1626000    0.9695215    -6.880619    601.63432  0.030834067  0.031222195            3 
 1627000   0.97624143   -6.8180392     602.6629  0.030867799  0.031213663            6 
 1628000   0.98970322   -6.8561078    601.91003  0.030810301  0.031205162            4 
 1629000   0.98633467   -6.8347728    602.22529  0.030807514  0.031196613            2 
 1630000   0.97026663   -6.8560839    602.43218  0.030799191  0.031188073            4 
 1631000   0.99125463    -6.839962    602.86335  0.030802338  0.031179642            2 
 1632000   0.98189968   -6.8597847    602.45733  0.030762731  0.031171212            5 
 1633000    1.0127804   -6.8140978    604.11335  0.030828401  0.031162787            3 
 1634000   0.99771078   -6.8772419    603.77305  0.030792179  0.031154374            7 
 1635000    1.0020445   -6.8315639    603.79302  0.030774364  0.031145936            2 
 1636000   0.99517311   -6.8410175    603.91506   0.03076177  0.031137548            4 
 1637000    1.0082763   -6.8430409    605.40688  0.030818921  0.031129102            2 
 1638000   0.99104217   -6.8488996    605.58058  0.030808943  0.031120579            3 
 1639000   0.99260413   -6.8564206    605.75714  0.030799122  0.031112136            4 
 1640000   0.96961207   -6.8587017    605.26202  0.030755184  0.031103726            4 
 1641000   0.99816428   -6.8515252    605.56572  0.030751864   0.03109538            4 
 1642000    1.0037711   -6.8837543    605.58872  0.030734304  0.031086902            3 
 1643000    0.9834231    -6.857524    607.05354  0.030789893   0.03107855            4 
 1644000   0.98595776   -6.8467411    607.57113  0.030797401  0.031070212            5 
 1645000   0.98988028   -6.8634463    605.99574  0.030698872  0.031061805            5 
 1646000    1.0017325   -6.8511853    605.85301  0.030672996  0.031053396            3 
 1647000    1.0108176   -6.8654463    607.45962  0.030735662  0.031045118            7 
 1648000   0.97983545   -6.8944097    607.17453  0.030702596  0.031036885            3 
 1649000    0.9917701   -6.8518221    609.56389  0.030804724  0.031028544            3 
 1650000    1.0007604   -6.8355648    609.60479  0.030788121  0.031020342            9 
 1651000   0.96735053   -6.8732561    609.07699  0.030742832  0.031012169            5 
 1652000   0.96786049   -6.8577281     609.6405  0.030752648  0.031003997            5 
 1653000   0.98807299   -6.8300042    610.64634  0.030784752  0.030995797            4 
 1654000   0.97280622   -6.8650475    609.32475  0.030699554  0.030987647            4 
 1655000   0.97805922   -6.8380011    610.72916   0.03075172  0.030979538            4 
 1656000   0.99603053   -6.8464359     610.4036  0.030716767  0.030971552            4 
 1657000   0.98530801   -6.8484386    612.04727  0.030780892  0.030963597            4 
 1658000   0.96205155   -6.8491928    613.56859  0.030838791  0.030955634            3 
 1659000   0.97200902   -6.8472659    611.14353  0.030698389  0.030947679            4 
 1660000   0.99589494   -6.8493708    611.67904  0.030706779  0.030939675            2 
 1661000   0.99026024    -6.872691    611.11239  0.030659863  0.030931626            3 
 1662000   0.99607577   -6.8310852    614.62005  0.030817291   0.03092375            2 
 1663000   0.97845722   -6.8260177     612.0784  0.030671397  0.030915675            3 
 1664000   0.98058561    -6.881348    612.09469  0.030653781  0.030907827            4 
 1665000   0.97177513   -6.8416052    612.50518  0.030655915  0.030899796            2 
 1666000   0.97267251    -6.865615    612.51268  0.030637889  0.030891756            7 
 1667000   0.97398029   -6.8262921    613.42898  0.030665316   0.03088375            4 
 1668000   0.97959717   -6.8424348    611.97483  0.030574282  0.030875749            3 
 1669000   0.98925221   -6.8592059    613.26756   0.03062051  0.030867689            7 
 1670000   0.96406224   -6.8423263    614.08185  0.030642807  0.030859683            8 
 1671000   0.99103772   -6.8472852    616.09407  0.030724819  0.030851846            2 
 1672000   0.98097427   -6.8314733    615.68501  0.030686055  0.030843985            3 
 1673000   0.98985667   -6.8642683     615.8004  0.030673461  0.030836206            4 
 1674000    1.0038115     -6.86824    614.76189  0.030603439  0.030828341            7 
 1675000   0.98976988   -6.8439575    617.03194  0.030698107  0.030820522            4 
 1676000     0.991954   -6.8609827    616.82913  0.030669706  0.030812782            3 
 1677000   0.98094444   -6.8492771    618.88142    0.0307534  0.030804948            6 
 1678000    1.0032728   -6.8650867    619.86462  0.030783901  0.030797171            8 
 1679000   0.96324589   -6.8373529     618.0162  0.030673823  0.030789543            1 
 1680000   0.97398309   -6.8708093    617.75985   0.03064285    0.0307818            6 
 1681000   0.97032647   -6.8634739    618.38187  0.030655457  0.030774143            4 
 1682000   0.98164852   -6.8539594    618.79953  0.030657924  0.030766458            6 
 1683000   0.98717888   -6.8641819      618.368   0.03061834  0.030758735            5 
 1684000   0.98091651   -6.8626641    619.78137    0.0306701  0.030751001            6 
 1685000   0.97710491   -6.8471192    618.37857  0.030582521   0.03074326            3 
 1686000   0.96258554    -6.837881    620.36586  0.030662607  0.030735552            2 
 1687000   0.97228346   -6.8330514    618.15675  0.030535307   0.03072793            3 
 1688000   0.94435414   -6.8354644    619.20497  0.030568966  0.030720169            6 
 1689000   0.97745633    -6.869701    618.96221  0.030538889  0.030712411            3 
 1690000   0.97771693   -6.8257905     620.1058  0.030577209  0.030704662            3 
 1691000   0.96167243   -6.8701706    620.75804  0.030591269  0.030696818            4 
 1692000    0.9854975    -6.861371     622.1723  0.030642844   0.03068906            4 
 1693000   0.96889945   -6.8724605    619.67426  0.030501785  0.030681203            3 
 1694000   0.98119672   -6.8566166    621.24411  0.030561005  0.030673418            5 
 1695000   0.99165521   -6.8533369    622.69903  0.030614505  0.030665666            4 
 1696000   0.99710363   -6.8762908    620.78023  0.030502173  0.030657939            2 
 1697000   0.98668956   -6.8604405    621.99539  0.030543871  0.030650186            4 
 1698000   0.97350649   -6.8314659    621.75553  0.030514111   0.03064252            2 
 1699000   0.96677323   -6.8623278    623.54801   0.03058407  0.030634884            4 
 1700000    0.9707574    -6.855965    621.93293  0.030486908  0.030627262            4 
 1701000   0.97188068   -6.8820149    621.95427  0.030470031   0.03061967            3 
 1702000   0.95913661   -6.8629858     624.1015  0.030557261  0.030612114            2 
 1703000   0.98136312   -6.8447783     624.2978  0.030548924  0.030604711            3 
 1704000   0.97266148   -6.8677204    624.38863  0.030535437  0.030597179            7 
 1705000   0.99511809   -6.8723354    625.79672   0.03058635  0.030589854            4 
 1706000   0.95195416   -6.8743551    625.26317  0.030542359  0.030582535            4 
 1707000    0.9759007   -6.8390834    625.09976  0.030516489  0.030575045            3 
 1708000   0.98812668   -6.8771337    626.51692  0.030567766  0.030567697            3 
 1709000   0.99033757   -6.8735363     624.9728  0.030474586  0.030560316            2 
 1710000   0.98043386   -6.8548977    625.67868  0.030491164  0.030552958            2 
 1711000   0.97659474   -6.8776419    627.11463   0.03054328  0.030545514            4 
 1712000   0.97013704   -6.8601032    625.86249   0.03046449  0.030538165            2 
 1713000   0.97119992   -6.8542378    627.49685  0.030526214  0.030530782            3 
 1714000   0.97055359   -6.8907617     627.0411  0.030486246  0.030523348            4 
 1715000     1.012411   -6.8508954    625.91759  0.030413877  0.030515938            4 
 1716000    0.9774673    -6.874351    627.46443  0.030471272  0.030508545            5 
 1717000   0.94250565   -6.8602794    626.60908  0.030412011  0.030501068            2 
 1718000   0.97001033   -6.8635573     629.6912  0.030543811  0.030493596            3 
 1719000   0.97992789   -6.8860681    629.64391   0.03052375  0.030486198            3 
 1720000   0.99268229   -6.8630927    628.15442  0.030433838  0.030478835            4 
 1721000   0.96918937   -6.8784085    627.12067  0.030366098  0.030471424            6 
 1722000   0.97759625   -6.8765425    628.27612  0.030404381  0.030463868            6 
 1723000   0.97575947   -6.8580108     629.3345  0.030437923  0.030456349            3 
 1724000   0.97303225   -6.8462936    631.01602  0.030501548  0.030448834            2 
 1725000    0.9855167   -6.8482782    630.31396   0.03044995  0.030441325            2 
 1726000   0.97240332   -6.8538308    628.95328  0.030366613  0.030433878            3 
 1727000   0.97494156    -6.850561    628.97628  0.030350139  0.030426546            2 
 1728000   0.97366958   -6.8726194    629.90929   0.03037757  0.030419125            5 
 1729000   0.98220252    -6.895688    628.99625  0.030315994  0.030411628            2 
 1730000    0.9513587   -6.8959918    632.24042  0.030454741  0.030404187            5 
 1731000   0.98194769   -6.9139633    630.37621  0.030347401  0.030396659            6 
 1732000    0.9646468   -6.8788727    631.10658   0.03036502  0.030389228            2 
 1733000   0.97016024   -6.8666751    631.84914  0.030383205  0.030381818            6 
 1734000   0.98169717   -6.9055518    629.96863  0.030275309  0.030374295            2 
 1735000   0.97858929   -6.8746215    629.30687  0.030226074  0.030366742            2 
 1736000    0.9722653   -6.9184329    628.73771  0.030181342  0.030359079            3 
 1737000   0.97477858   -6.9042528    630.14248  0.030231361  0.030351462            5 
 1738000   0.98667332   -6.8759328     631.5682  0.030282327  0.030343819            2 
 1739000    1.0027368   -6.8916544    630.56266  0.030216727  0.030336247            2 
 1740000    0.9756582   -6.8596964    630.64666  0.030203384  0.030328674            4 
 1741000   0.94942127   -6.9072012    632.22057  0.030261371  0.030321163            3 
 1742000   0.97095752   -6.8612648    629.62396  0.030119784  0.030313643            2 
 1743000   0.99649014   -6.8902947     632.8826    0.0302583  0.030306062            4 
 1744000    0.9865225   -6.8764912    631.68277  0.030183619  0.030298521            3 
 1745000   0.94046701   -6.9049156    630.81894  0.030125069  0.030290921            3 
 1746000   0.98550194   -6.8696471    634.19862  0.030269121  0.030283375            4 
 1747000   0.98154381   -6.8802652    633.43503  0.030215371  0.030275824            2 
 1748000   0.98008225   -6.8843836    636.19243   0.03032954  0.030268377            4 
 1749000   0.97390368   -6.8950256    634.67118  0.030239717  0.030260903            3 
 1750000    0.9489353   -6.8950362    634.99305  0.030237764  0.030253491            3 
 1751000   0.95655913   -6.8916853    633.53952  0.030151319  0.030246086            3 
 1752000   0.96906038    -6.889749    635.35751  0.030220582  0.030238578            2 
 1753000   0.95754661   -6.8953603    635.43265  0.030206914  0.030231113            4 
 1754000   0.97618225   -6.9214747     634.8031  0.030159783  0.030223663            7 
 1755000   0.96651188   -6.9195783    634.65073  0.030135362  0.030216203            8 
 1756000   0.96184456   -6.8958365     635.8204  0.030173709  0.030208734            4 
 1757000   0.96665258   -6.9394176    636.40962  0.030184482  0.030201399            3 
 1758000   0.94748095   -6.9058877    634.49997   0.03007679   0.03019388            4 
 1759000   0.95881474   -6.9101607    637.26357  0.030190618   0.03018643            6 
 1760000   0.97588379   -6.9281538    636.01926  0.030114548  0.030178953            4 
 1761000   0.99030431   -6.8916556    636.04295  0.030098569   0.03017138            2 
 1762000   0.94182375   -6.9124862    636.76829  0.030115791  0.030163869            4 
 1763000   0.96211508   -6.8457252     638.3963  0.030175662  0.030156352           11 
 1764000   0.96989706   -6.8624232    639.44295     0.030208   0.03014895            3 
 1765000   0.96492521   -6.8926208     637.8717    0.0301167  0.030141525            6 
 1766000   0.96450675   -6.8849822     640.6454  0.030230531  0.030134099            3 
 1767000   0.95539475    -6.886698    638.31008  0.030103286  0.030126584            6 
 1768000   0.98784604   -6.8863873    635.49433  0.029953541   0.03011907            9 
 1769000   0.96558158    -6.896456    637.37517  0.030025211  0.030111692            5 
 1770000   0.96192855   -6.9056101    638.76559   0.03007371   0.03010424            4 
 1771000   0.95245061   -6.8881742    639.54125  0.030093226  0.030096785            2 
 1772000   0.97217681   -6.9096426     639.5914  0.030078602  0.030089385           12 
 1773000   0.96203493   -6.9060267    638.29256   0.03000059  0.030081975            3 
 1774000   0.96679474   -6.8810519    640.34313  0.030080004  0.030074532            2 
 1775000   0.97895501   -6.8923233    640.96873  0.030092429  0.030067156            2 
 1776000   0.97273533   -6.9121435    640.23856  0.030041224  0.030059702            2 
 1777000   0.95540982   -6.8674216    641.00055  0.030060052  0.030052314            2 
 1778000   0.96843433   -6.8819844    641.35462   0.03005974  0.030045004            5 
 1779000   0.94717293   -6.8805617    640.64622   0.03000966  0.030037787            5 
 1780000   0.98035472   -6.9058815    641.40638  0.030028389  0.030030531            3 
 1781000   0.95274988   -6.9042862    641.92836  0.030035952  0.030023333            6 
 1782000   0.97941011   -6.9236159    642.97424  0.030068006  0.030016031            7 
 1783000   0.96942377   -6.8656372    643.26555  0.030064758  0.030008825            2 
 1784000   0.95601352   -6.8769405    642.73758  0.030023243  0.030001505            3 
 1785000   0.96775789   -6.8785403    644.70212  0.030098138  0.029994275            5 
 1786000   0.96729338   -6.9331404    641.47962  0.029930927  0.029986946            3 
 1787000   0.97681521   -6.8974451    641.78701  0.029928512  0.029979647            4 
 1788000   0.95405724   -6.8840085    644.37111  0.030032211  0.029972328            5 
 1789000   0.96972137   -6.8770245    643.52533  0.029976026  0.029964994            2 
 1790000   0.95965846   -6.8755042    644.41794  0.030000835    0.0299577            2 
 1791000   0.96630576   -6.9101899    641.88595  0.029866273  0.029950394            3 
 1792000   0.97186271   -6.8554896    644.62516  0.029976989  0.029943246            4 
 1793000   0.96670257   -6.9380493    643.92786  0.029927861  0.029935969            4 
 1794000   0.96553407   -6.9062981    644.11139  0.029919704  0.029928693            6 
 1795000   0.96883597   -6.8839895    644.25894  0.029909886  0.029921374            3 
 1796000   0.98144185    -6.916503    643.53972  0.029859861  0.029914062            3 
 1797000   0.95832732   -6.9158043    644.05991  0.029867367  0.029906779            4 
 1798000   0.97691167   -6.8848772    644.74358  0.029882442  0.029899517            9 
 1799000   0.93867549   -6.8699252    645.98525  0.029923349    0.0298923            5 
 1800000   0.97614653   -6.9233253     647.4624  0.029975111   0.02988511            5 
 1801000    0.9641907   -6.8842903    645.99631  0.029890631   0.02987806            3 
 1802000   0.94945002    -6.890276    647.06511   0.02992347  0.029870979           10 
 1803000    0.9694284   -6.8822147    646.96281  0.029902145   0.02986373            2 
 1804000   0.96858911   -6.8871997    648.38076   0.02995107  0.029856625            3 
 1805000   0.96758816   -6.8777181    647.87266  0.029911018  0.029849503            8 
 1806000   0.98649225   -6.8943703    646.80655  0.029845263  0.029842352            5 
 1807000   0.95958049   -6.8986641    646.62067  0.029820175  0.029835158            6 
 1808000   0.97188067    -6.913736    647.81812  0.029858874  0.029827917            3 
 1809000   0.96132677   -6.9159497    649.82078  0.029934622  0.029820774            7 
 1810000   0.96911001   -6.8819533    649.47408  0.029902121  0.029813706            2 
 1811000   0.97758808   -6.9225836    648.21827  0.029827824  0.029806697            6 
 1812000   0.96104743   -6.9005807    649.86437  0.029887066  0.029799769            2 
 1813000   0.94234462   -6.9396519    648.77938  0.029820711   0.02979278            2 
 1814000   0.95596842   -6.8898793    649.10742  0.029819341   0.02978574            6 
 1815000   0.96370242   -6.8974612     651.9431  0.029933108  0.029778834            3 
 1816000   0.96731878   -6.9126128    649.82917  0.029819621  0.029771842            5 
 1817000   0.95508687    -6.919291    652.11385  0.029907992  0.029764741            3 
 1818000   0.96346696   -6.9037996    652.29826  0.029899994  0.029757729            4 
 1819000   0.95521094   -6.8944428     650.5415  0.029803074   0.02975073            5 
 1820000   0.94317138   -6.8819819      651.692  0.029839377  0.029743732            3 
 1821000   0.96790643   -6.9282099    651.91782  0.029833325  0.029736745            2 
 1822000   0.95537613    -6.916479    651.70869  0.029807386  0.029729735            3 
 1823000   0.94840334   -6.8774438     651.3448  0.029774401  0.029722668            7 
 1824000   0.97970153   -6.9345054     650.5375  0.029721194  0.029715643            3 
 1825000   0.97218464   -6.9384024    650.99669  0.029725876  0.029708548            3 
 1826000   0.97467661   -6.9287868    651.63422  0.029738692  0.029701525            5 
 1827000   0.93215511   -6.8919086    652.02128  0.029740069  0.029694457            7 
 1828000   0.97022692   -6.9014557    652.71921  0.029755617  0.029687325            2 
 1829000   0.96438376   -6.9286127    652.65369  0.029736363  0.029680221            3 
 1830000   0.95892229   -6.9193962    652.75118  0.029724553   0.02967321            2 
 1831000   0.95933349   -6.8818376    654.06909    0.0297683  0.029666124            4 
 1832000   0.95776536   -6.9243861    652.64086  0.029687084  0.029659148            3 
 1833000   0.97927875   -6.9189138    653.07871  0.029690794  0.029652054            3 
 1834000   0.94310712     -6.86746    653.65501  0.029700791   0.02964488            7 
 1835000   0.96414776   -6.9167475    654.52743  0.029724225   0.02963782            4 
 1836000      0.97823   -6.9218163    654.17963  0.029692249   0.02963073            3 
 1837000   0.96429696   -6.9277571     655.3999  0.029731442   0.02962356            2 
 1838000   0.97260314   -6.8867975     655.1219  0.029702661  0.029616401            3 
 1839000   0.95283239   -6.9070394    653.52304  0.029614059   0.02960927            6 
 1840000   0.96372761    -6.925269    655.47986  0.029686588  0.029602092            5 
 1841000   0.99463704   -6.8976432    655.51646  0.029672119  0.029594921            4 
 1842000   0.95682422   -6.9164947    655.37184  0.029649468  0.029587784            5 
 1843000   0.95689276   -6.9160079    654.28894  0.029584416  0.029580687            6 
 1844000   0.94096917   -6.9229779    655.18602  0.029608913  0.029573531            5 
 1845000   0.97035554   -6.9399135     654.2183  0.029549155  0.029566357            7 
 1846000   0.98070289   -6.9122602    656.66558  0.029643625  0.029559161            8 
 1847000   0.96479267   -6.9217097    654.69126  0.029538497  0.029552062            4 
 1848000   0.95104484   -6.9330712    655.16689  0.029543961   0.02954496            3 
 1849000    0.9310429   -6.9019098    657.95221  0.029653516   0.02953788            3 
 1850000   0.96145555   -6.9377741    657.29824  0.029608029  0.029530894            2 
 1851000   0.96792527   -6.9129808    657.89251  0.029618788  0.029523891            6 
 1852000   0.95645435   -6.8956363    658.68519  0.029638463  0.029516858            4 
 1853000    0.9697801   -6.9323832    657.95773  0.029589752  0.029509803            1 
 1854000   0.96396944   -6.9054358    658.29555  0.029588977  0.029502764            6 
 1855000   0.95897557   -6.8872145    660.29025  0.029662635  0.029495922           19 
 1856000   0.96875324   -6.9019093    658.03864  0.029545557  0.029488946            3 
 1857000   0.94680828   -6.9360289    659.28495  0.029585575  0.029481909            4 
 1858000   0.92639218   -6.9287362    657.07938  0.029470729  0.029474766            8 
 1859000   0.95282963   -6.9044168    658.77237  0.029530768  0.029467668            2 
 1860000   0.96332446   -6.9153563    659.78126  0.029560092  0.029460583            2 
 1861000   0.94609033   -6.8922978    659.08163   0.02951288  0.029453503            4 
 1862000   0.96584898    -6.923442    658.58949  0.029475004   0.02944641            8 
 1863000   0.95732059   -6.9214868    659.95635  0.029520323  0.029439317            3 
 1864000   0.96343694   -6.9099001    657.83674  0.029409726  0.029432177            2 
 1865000    0.9481724   -6.8816173    659.63388  0.029474257  0.029425054            3 
 1866000   0.93158639   -6.9365849    658.36061  0.029401599  0.029417901            2 
 1867000   0.93642157   -6.9448921     659.3263  0.029428955   0.02941069            6 
 1868000   0.96900317   -6.9484452     660.8237  0.029480001  0.029403451            4 
 1869000   0.95402533   -6.9348742    661.31473  0.029486121  0.029396277            3 
 1870000   0.96359946   -6.9044705    661.23665  0.029466874  0.029389217            4 
 1871000   0.95205498   -6.9418238    658.68578   0.02933751  0.029382119            4 
 1872000   0.94159378   -6.8959104    661.60364  0.029451729   0.02937495            3 
 1873000   0.95860765   -6.9285699    660.26736  0.029376551  0.029367837            2 
 1874000   0.96266213   -6.9441469    661.91507  0.029434146  0.029360738            5 
 1875000   0.96245071   -6.9112544    659.73289  0.029321462  0.029353625            5 
 1876000   0.93885695   -6.9396672     661.7719  0.029396406  0.029346491           10 
 1877000   0.96048802   -6.9114052    660.92682  0.029343226  0.029339349            8 
 1878000    0.9649867   -6.9091084     663.0479  0.029421721  0.029332266            3 
 1879000   0.95404633   -6.9517281    663.02187  0.029404908  0.029325217            4 
 1880000   0.93571915     -6.93165    661.40675  0.029317675   0.02931818            3 
 1881000   0.96270335   -6.9347289    661.87064  0.029322641  0.029311079            3 
 1882000   0.93579132   -6.9518601    663.04146  0.029358903  0.029303981            5 
 1883000   0.94394713   -6.8972073     663.7323  0.029373885  0.029296879            4 
 1884000   0.94294579   -6.9297495    663.99666  0.029369987  0.029289742            2 
 1885000   0.96731496   -6.9094077    663.92333  0.029351164  0.029282678            3 
 1886000   0.93243622   -6.9452057    664.00955  0.029339411   0.02927556            3 
 1887000   0.93887467   -6.9553812    662.65626  0.029264099  0.029268315            3 
 1888000   0.94822299   -6.9402339    662.53419  0.029243211  0.029261029            4 
 1889000   0.95184811   -6.9593237    665.28116  0.029348913  0.029253879            5 
 1890000   0.96094548   -6.8944638    666.68792  0.029395411   0.02924685            1 
 1891000   0.91829563   -6.9096894    665.86124  0.029343436  0.029239795            2 
 1892000   0.95944287   -6.9114914    662.90872  0.029197882  0.029232684            3 
 1893000   0.95443427    -6.960875     664.0276  0.029231713  0.029225499            6 
 1894000   0.95037704   -6.9542425    663.85282  0.029208589  0.029218291            3 
 1895000   0.95508322   -6.9428224    664.39342  0.029216949  0.029210985            4 
 1896000   0.95541258   -6.9135844    665.86149  0.029266064  0.029203723            5 
 1897000    0.9400335   -6.9376874    666.09918  0.029261078  0.029196595            9 
 1898000   0.94601853   -6.9202767    665.11457  0.029202431  0.029189517            2 
 1899000    0.9618907   -6.9501817    664.75918  0.029171458  0.029182377            5 
 1900000   0.92894636   -6.9280044    663.18058  0.029086868  0.029175075            3 
 1901000   0.94799077   -6.9403499    666.91823  0.029235413  0.029167657            5 
 1902000   0.92642993   -6.9451994    663.79656   0.02908327  0.029160175            2 
 1903000   0.95249236   -6.9297118    666.57383  0.029189605  0.029152871           15 
 1904000    0.9491566   -6.9222765    665.23664  0.029115749  0.029145555            4 
 1905000   0.96213306   -6.9062126    664.90633  0.029086016  0.029138287            4 
 1906000   0.93442896   -6.9098015    667.33566   0.02917697  0.029130992            9 
 1907000   0.95001389   -6.9582596    667.15828  0.029153919  0.029123707            3 
 1908000   0.94812179    -6.946131    666.99293  0.029131417  0.029116457            2 
 1909000    0.9403891    -6.922079    665.92374  0.029069484  0.029109223            5 
 1910000   0.94736202   -6.9417759    667.21039  0.029110401  0.029101966            5 
 1911000   0.96181595   -6.9409142    666.51981  0.029065054  0.029094697            4 
 1912000   0.94191854   -6.9204268     667.3884  0.029087709  0.029087457            3 
 1913000   0.93728685   -6.9296426    667.21813  0.029065087  0.029080229            3 
 1914000   0.95514765   -6.9405071    668.54171  0.029107528  0.029073049            4 
 1915000   0.94244939   -6.9185929    671.45087  0.029218924  0.029065919            3 
 1916000   0.95143335   -6.9206917    669.47948  0.029117932  0.029058731            4 
 1917000   0.96333141   -6.9334776    670.07512  0.029128635  0.029051678            5 
 1918000   0.94035057   -6.9347505    668.74461   0.02905564  0.029044487            3 
 1919000   0.95576039   -6.9603562    668.65534  0.029036622  0.029037353            3 
 1920000   0.93865116   -6.9157446    671.07178  0.029126379  0.029030177            2 
 1921000   0.96791741   -6.9478186    669.18646  0.029029432   0.02902299            2 
 1922000   0.95249236   -6.9420478    671.00253  0.029093069  0.029015849            5 
 1923000   0.91370353   -6.9371698    670.68184  0.029064042  0.029008603            4 
 1924000    0.9369505    -6.928102     671.0279  0.029063925    0.0290015            2 
 1925000   0.95120972   -6.9267781    671.38891  0.029064455  0.028994414            4 
 1926000   0.96632142   -6.9715636    670.92182  0.029029155  0.028987235            5 
 1927000   0.94288362   -6.9294472    671.53286  0.029040515   0.02898001            2 
 1928000    0.9436377    -6.982789    670.28137   0.02897136    0.0289729            4 
 1929000   0.92143516   -6.9513604    670.38838  0.028960963  0.028965734            7 
 1930000   0.95833215   -6.9647186    671.34517   0.02898727  0.028958555            6 
 1931000   0.94375477   -6.9646595    673.44939  0.029063067  0.028951453            4 
 1932000   0.95036825   -6.9371657    672.80098  0.029020056  0.028944258            4 
 1933000   0.92947047   -6.9682561     671.6456  0.028955234  0.028937249            3 
 1934000   0.92672083   -6.9210904    672.54202  0.028978888  0.028930187            6 
 1935000   0.93661134   -6.9274935    675.66372  0.029098352  0.028923229            7 
 1936000   0.94851207   -6.9279894    672.86599  0.028962896  0.028916265            7 
 1937000    0.9399366   -6.9341005     673.6733  0.028982675  0.028909295            6 
 1938000   0.91545731   -6.9256634    673.08877  0.028942585  0.028902275            7 
 1939000   0.93680313   -6.9385642    674.77117  0.028999964  0.028895326            5 
 1940000   0.94123036   -6.9391055    676.19129  0.029046018  0.028888396            3 
 1941000   0.93951211   -6.9585818    673.52645  0.028916643  0.028881415            5 
 1942000   0.96850859   -6.9384541    674.07402   0.02892525  0.028874363            4 
 1943000    0.9284264   -6.9505337    675.73863  0.028981756  0.028867363            4 
 1944000   0.92911668     -6.95169    675.78471  0.028968823  0.028860335            7 
 1945000   0.94299655    -6.925726    677.04465  0.029007911  0.028853347            3 
 1946000   0.95274501   -6.9600103    677.08897  0.028994903  0.028846339            3 
 1947000   0.94840956   -6.9047832    677.24885  0.028986854  0.028839344            3 
 1948000   0.95284136   -6.9556826    675.13387  0.028881497  0.028832333            8 
 1949000   0.92587137   -6.9566808    677.45273  0.028965826  0.028825291            3 
 1950000    0.9334869   -6.9537905    675.62151  0.028872714  0.028818273            3 
 1951000    0.9676906   -6.9719539    675.40432  0.028848638  0.028811192            4 
 1952000   0.93190008   -6.9517727    678.03424  0.028946134  0.028804098            4 
 1953000   0.93135361   -6.9252081    677.08734  0.028890909  0.028797072            3 
 1954000   0.91169008   -6.9393421    676.34966  0.028844663  0.028790058           10 
 1955000   0.94035655   -6.9066359    676.87325  0.028852227   0.02878304            3 
 1956000   0.93016086   -6.9281964    677.00222  0.028842971     0.028776            3 
 1957000   0.94215821   -6.9511668    675.70555  0.028773018   0.02876892            2 
 1958000      0.93177     -6.95673    676.49117  0.028791759  0.028761756            4 
 1959000   0.94038772   -6.9195824    676.52749  0.028778607  0.028754579            7 
 1960000   0.93852631   -6.9283205    677.29917  0.028796734  0.028747422            2 
 1961000   0.94710107   -6.9152508    677.65188  0.028797037  0.028740279            6 
 1962000   0.94430728   -6.9148455    676.79785  0.028746086  0.028733168            3 
 1963000    0.9450378   -6.9855141    677.86834  0.028776887  0.028726012            5 
 1964000   0.92931789   -6.9336957    678.73855  0.028799158  0.028718869            5 
 1965000   0.93166543   -6.9622475    676.04043  0.028670078  0.028711663            3 
 1966000   0.94097237   -6.9825441    676.96578  0.028694718  0.028704448            2 
 1967000    0.9393623   -6.9555957    678.64244  0.028751162  0.028697261            2 
 1968000   0.93592083   -6.9918602    677.27925   0.02867883  0.028690017            6 
 1969000   0.93270334   -6.9405564    678.64945  0.028722255  0.028682791            2 
 1970000   0.93880546   -6.9592218    679.38043  0.028738597  0.028675766            4 
 1971000    0.9462862   -6.9763428    679.93329  0.028747391  0.028668703            2 
 1972000   0.97398893   -6.9763399    677.69775  0.028638343  0.028661621            5 
 1973000   0.91467954   -6.9131564    682.40979   0.02882285  0.028654555            3 
 1974000   0.93520329   -6.9580084    680.58767  0.028731327  0.028647581            5 
 1975000   0.95765998   -6.9604525    681.24891   0.02874468  0.028640585            6 
 1976000   0.92048189   -6.9621045    681.43761  0.028738091  0.028633557            5 
 1977000   0.92659802   -6.9677015    682.32989  0.028761165  0.028626545            6 
 1978000   0.94758895   -6.9418167    683.84293   0.02881037  0.028619623            3 
 1979000    0.9217134   -6.9388728    684.02124   0.02880332  0.028612771            5 
 1980000   0.94803265   -6.9599513    683.20893  0.028754584  0.028605877            3 
 1981000   0.93180625   -6.9508729    683.81068  0.028765383  0.028599029            3 
 1982000   0.93941802   -6.9269527    684.17742  0.028766289  0.028592127            3 
 1983000   0.94221438   -6.9728124    684.66817  0.028772406  0.028585286            7 
 1984000   0.95139119   -6.9188222    686.16052  0.028820586  0.028578495            5 
 1985000   0.94253034   -6.9493233    684.92815   0.02875433  0.028571613            4 
 1986000   0.94897157   -6.9791213    683.78037  0.028691691  0.028564743            7 
 1987000   0.94288046   -6.9882643    684.09484   0.02869044   0.02855783            3 
 1988000    0.9365868   -6.9548303     686.2485  0.028766285  0.028550923            3 
 1989000   0.93375329   -6.9375107    686.29999   0.02875398  0.028544099            5 
 1990000   0.94142011   -6.9817901    685.10291  0.028689401  0.028537299            4 
 1991000   0.94165883   -6.9300688    683.63333  0.028613483  0.028530432            3 
 1992000   0.92638492   -6.9561293     686.2103  0.028706924  0.028523552            5 
 1993000   0.93435659   -6.9521517    687.05198  0.028727713    0.0285167            4 
 1994000   0.93032636   -6.9771945    684.45673  0.028604845   0.02850989            9 
 1995000   0.94897159   -6.9741132    685.11155  0.028617859  0.028503071            5 
 1996000   0.93812565   -6.9706021    684.54832  0.028580006  0.028496142            3 
 1997000   0.91799938    -6.966779    686.64694  0.028653269  0.028489253            5 
 1998000   0.95708477   -6.9686552    685.18363  0.028577896  0.028482423            4 
 1999000   0.91852244   -6.9641178    687.02201  0.028640237  0.028475569            4 
 2000000   0.95899874   -6.9992506    686.48869  0.028603695  0.028468703            6 
 2001000     0.933952   -6.9961675    684.56708  0.028509374  0.028461767            5 
 2002000   0.92963242   -6.9596754    688.60195  0.028663085  0.028454945            2 
 2003000   0.93922312   -6.9672925    686.33605  0.028554504  0.028448123           10 
 2004000   0.93810172   -6.9936253    686.95944  0.028566178   0.02844118            7 
 2005000   0.92137042   -6.9970263    687.05257  0.028555801  0.028434186            3 
 2006000   0.92063447   -6.9358725    687.03683  0.028540912  0.028427262            4 
 2007000   0.93041159   -6.9307855     687.6745  0.028553168  0.028420439            4 
 2008000   0.92871148   -6.9752254    688.18175      0.02856  0.028413576            3 
 2009000   0.94272396   -6.9408343    687.13433  0.028502336   0.02840671            4 
 2010000   0.91096974   -6.9717574    688.02811  0.028525212  0.028399837            4 
 2011000   0.94878639   -6.9609004     687.1905  0.028476318  0.028392906            2 
 2012000   0.94491512    -6.994525    688.34883   0.02851014  0.028385962            4 
 2013000   0.90264244   -6.9632882    688.94723   0.02852075  0.028379056            5 
 2014000   0.90943529   -6.9706321    688.32388  0.028480796  0.028372138            6 
 2015000   0.94384417   -6.9581108     689.4815  0.028514537  0.028365285            3 
 2016000   0.91518016   -6.9615903    688.08244  0.028442561   0.02835841            7 
 2017000   0.92019564   -6.9523635    689.58118  0.028490381  0.028351471            3 
 2018000   0.92361741   -6.9614711    690.18686  0.028501274  0.028344542            2 
 2019000   0.91897587   -6.9660788    691.23087  0.028530249  0.028337688            4 
 2020000   0.94531145   -6.9602367    687.84343  0.028376379  0.028330761            5 
 2021000   0.91543397    -6.940615    690.78296  0.028483546  0.028323867            4 
 2022000   0.94686204    -6.983491    689.92113   0.02843394  0.028316935            3 
 2023000   0.90184598   -6.9630163    689.30382  0.028394456   0.02830994            2 
 2024000   0.92097817   -6.9964993    688.72104  0.028356433  0.028302926            4 
 2025000    0.9372812    -6.956024     690.2956  0.028407227  0.028295941            2 
 2026000   0.92203764   -6.9681976    689.55898  0.028362906  0.028288957            3 
 2027000   0.93096839   -6.9527936    693.02997  0.028491612  0.028282076            2 
 2028000   0.92264406   -6.9588846    689.94094  0.028350631  0.028275192            2 
 2029000   0.93073951   -6.9938956    690.13284  0.028344539  0.028268365            5 
 2030000   0.91587519   -6.9923967    692.96888  0.028446998  0.028261563            4 
 2031000   0.90996658   -7.0030878     689.7694  0.028301715  0.028254769            3 
 2032000   0.92441297   -7.0009669    691.55959  0.028361204  0.028247848            4 
 2033000   0.91910556   -6.9472152    692.98329  0.028405611  0.028241069            5 
 2034000    0.9274788   -6.9846569    693.82444  0.028426108  0.028234325            3 
 2035000   0.92124473   -6.9350695    694.01015  0.028419744  0.028227488            4 
 2036000   0.93359782   -6.9509446    692.87764  0.028359432   0.02822066            5 
 2037000   0.93963531   -6.9166866    693.87455  0.028386293  0.028213872            4 
 2038000   0.92086511   -6.9740191    694.11731  0.028382291  0.028207082            4 
 2039000   0.92306271   -6.9786559    692.92896  0.028319804  0.028200167            3 
 2040000   0.93890322   -6.9766667    694.06061  0.028352149  0.028193214            2 
 2041000   0.91087955   -6.9834643    695.01999  0.028377429  0.028186351            4 
 2042000   0.92394095   -6.9853566    692.53175  0.028261988  0.028179479            3 
 2043000   0.91383423   -6.9962009    691.52798  0.028207211  0.028172546            4 
 2044000   0.91373413   -7.0047406    693.74124  0.028283645  0.028165603            4 
 2045000   0.93282746   -6.9824065    693.31433  0.028252418  0.028158669           12 
 2046000   0.91995878   -6.9457644     694.2498   0.02827671  0.028151789            4 
 2047000   0.93468603   -6.9703299    694.78146  0.028284541  0.028144916            4 
 2048000   0.92577285   -6.9589562    694.42768  0.028256335  0.028137949            2 
 2049000   0.90882642    -6.949968    694.04451  0.028226961  0.028131034            6 
 2050000   0.89139232    -6.999485    691.30761  0.028101935  0.028124068            4 
 2051000    0.9297422   -7.0052285    693.41021  0.028173663  0.028116989            4 
 2052000   0.91955048   -6.9990133    693.72731  0.028172812  0.028109864            3 
 2053000   0.93590542   -6.9428138    694.32564  0.028183376  0.028102881            3 
 2054000   0.91961367   -6.9930022    694.69297  0.028184557  0.028095915            3 
 2055000    0.9171019   -6.9874946    694.99458  0.028183073  0.028088997            5 
 2056000   0.93297941   -6.9837831    697.34453  0.028264613  0.028082063            4 
 2057000    0.9075882   -6.9989657    694.93634  0.028153311  0.028075098            3 
 2058000   0.95017011   -7.0041866    695.62592  0.028167554  0.028068176            4 
 2059000   0.90500618   -6.9529509    696.31176  0.028181632  0.028061247            4 
 2060000   0.92037125    -6.969767    696.05686   0.02815764  0.028054295            3 
 2061000   0.93564229   -7.0092181    696.58214  0.028165217  0.028047313            2 
 2062000   0.90635743   -6.9905687    697.03542  0.028169876  0.028040346            3 
 2063000   0.91949902   -7.0227831    695.47086  0.028093022  0.028033302            4 
 2064000   0.92972534   -6.9925422    697.67866   0.02816855    0.0280263            2 
 2065000    0.9207919   -6.9873445     696.3545  0.028101473   0.02801933            5 
 2066000   0.91943572   -6.9501323    696.38398   0.02808906  0.028012431            6 
 2067000   0.90468883   -7.0015731    697.53383  0.028121828  0.028005397            7 
 2068000   0.91244454   -6.9851445    695.24444  0.028015975  0.027998345            3 
 2069000   0.93123392    -6.994131    697.07956  0.028076348  0.027991339            6 
 2070000   0.91429291   -6.9779417    695.90399  0.028015459  0.027984283            2 
 2071000   0.92355236   -7.0302245    695.39107  0.027981292  0.027977093            7 
 2072000    0.9187174   -6.9821697    698.89952  0.028108893  0.027970031            6 
 2073000   0.93839998    -6.980823    699.06501  0.028101986  0.027963021            2 
 2074000   0.92829264   -6.9999668    697.89385  0.028041379   0.02795601            3 
 2075000   0.92196965   -7.0311745    696.77107  0.027982774  0.027948907            3 
 2076000   0.94621474   -6.9999996    698.90416   0.02805492  0.027941798            5 
 2077000   0.91894917   -7.0080441    699.47349  0.028064255  0.027934747            3 
 2078000   0.93859124   -6.9609134    697.29988  0.027963582  0.027927787            4 
 2079000    0.9394609   -7.0115129    699.32478  0.028031296   0.02792077            5 
 2080000   0.91874439   -7.0092393    701.54681  0.028106843  0.027913841            5 
 2081000   0.91879781    -6.977772    700.75245  0.028061527   0.02790698            9 
 2082000   0.91923963   -6.9886269    698.08749  0.027941382  0.027900041            2 
 2083000   0.92837904   -6.9777118    699.52861  0.027985622  0.027892943            6 
 2084000   0.90628284   -6.9888835    700.42478  0.028008029  0.027885959            3 
 2085000   0.92736512   -6.9875562    701.13656  0.028023044  0.027878933            7 
 2086000   0.92288925   -6.9714662     700.6268  0.027989246  0.027871977            3 
 2087000    0.9237173   -7.0035307    699.65686  0.027937105  0.027864971            4 
 2088000   0.91283604   -6.9697996    702.75116  0.028047221  0.027857963           12 
 2089000   0.91181044   -6.9909935     700.2796    0.0279352  0.027851035           10 
 2090000   0.91128573     -6.97459    702.54616  0.028012207  0.027844046            5 
 2091000   0.92429849   -6.9954551    699.61531  0.027882007  0.027836969            3 
 2092000   0.90780914   -6.9870202    701.02703  0.027924914  0.027829936            3 
 2093000   0.89874447   -6.9884619    699.18146   0.02783809   0.02782292           16 
 2094000   0.91579731   -6.9864258    702.23167  0.027946182  0.027815913            3 
 2095000    0.9316384   -6.9651183    702.71166  0.027951936  0.027808932            5 
 2096000   0.95308074   -7.0205999    699.10238  0.027795101  0.027801917            2 
 2097000   0.92440704   -6.9555837    701.13667  0.027862687  0.027794841           11 
 2098000   0.92603405   -6.9799482    701.70796  0.027872099  0.027787863            4 
 2099000   0.92591398   -7.0025191    701.25624  0.027840886  0.027780775            7 
 2100000   0.91574949   -7.0186983    700.79667  0.027809392  0.027773702            4 
 2101000   0.92637307   -6.9899425     702.3304  0.027856989   0.02776662            4 
 2102000   0.91138542   -6.9707242    701.49201  0.027810498  0.027759583            3 
 2103000   0.94071319   -7.0298737    701.76265  0.027807999  0.027752485            4 
 2104000   0.91631035   -6.9647167    702.08539  0.027807564  0.027745417            4 
 2105000   0.93846915   -7.0014931    701.23045  0.027760509  0.027738387            5 
 2106000   0.92140703   -7.0255621    701.85163  0.027771907  0.027731342            3 
 2107000   0.91892124   -7.0033529    702.87216  0.027799089   0.02772425            3 
 2108000   0.91254148   -6.9958905    702.27929  0.027762464  0.027717255            4 
 2109000   0.91061123   -6.9950524    704.57258  0.027839915  0.027710208            7 
 2110000   0.90163164   -6.9839756    703.79318  0.027795939  0.027703212            2 
 2111000   0.90323988   -7.0045882      704.342  0.027804437  0.027696167            2 
 2112000   0.92399354   -7.0169702     701.9872  0.027698359  0.027689053            5 
 2113000   0.93257389   -7.0004492    702.77655  0.027716381  0.027681938            4 
 2114000   0.92432302   -7.0350839    702.55276  0.027694448  0.027674811            4 
 2115000   0.91572914   -7.0066426    702.48316  0.027678612  0.027667652            3 
 2116000   0.92436164   -7.0065436    704.50852  0.027745294  0.027660519            5 
 2117000   0.89966212   -6.9848075    704.18251  0.027719356  0.027653407            5 
 2118000   0.92390144    -6.985453      703.893  0.027694877  0.027646336            4 
 2119000   0.89865414   -7.0437837    704.04046  0.027687607  0.027639229            6 
 2120000    0.9162149    -6.995365    705.65036  0.027737829  0.027632173            3 
 2121000   0.91291918   -7.0158687    705.03261   0.02770048   0.02762511            4 
 2122000   0.93081267   -7.0158367     705.2834  0.027697275  0.027618053            7 
 2123000    0.9179191   -7.0024717    705.08882   0.02767659  0.027610983            2 
 2124000   0.92279451   -7.0044262    704.24323  0.027630384  0.027603937            6 
 2125000     0.897038   -7.0083555    706.27369  0.027697008  0.027596874            6 
 2126000   0.93043161   -6.9820978    707.04839  0.027714346  0.027589836            3 
 2127000   0.92878912   -6.9967835    706.67401  0.027686648  0.027582842            4 
 2128000   0.91894589   -7.0131428    706.00947  0.027647614  0.027575851            8 
 2129000   0.90154168   -6.9999214    707.97166  0.027711432  0.027568866            5 
 2130000   0.91704266   -7.0355209    708.46811  0.027717845  0.027561955            3 
 2131000   0.90597302   -6.9559331     710.5554  0.027786462  0.027555076            2 
 2132000   0.91395378   -7.0235124    708.35822  0.027687548  0.027548244            3 
 2133000   0.88864525   -7.0265068    708.52071  0.027680915   0.02754126           10 
 2134000   0.92323816   -7.0311811     706.3662   0.02758381  0.027534355           11 
 2135000   0.92339448   -7.0148563    708.81055  0.027666298   0.02752738            6 
 2136000    0.9127586    -7.047991    706.31743  0.027556079  0.027520432            3 
 2137000   0.90333764   -7.0210746    707.29497  0.027581304  0.027513481            4 
 2138000   0.92226228   -7.0408735    707.92367  0.027592909  0.027506522            1 
 2139000   0.91200847   -7.0314651    707.61067  0.027567815  0.027499484            3 
 2140000   0.91254462    -7.025645    709.56301  0.027630958   0.02749249            6 
 2141000    0.9102562    -6.994104    709.97134  0.027633946  0.027485571            8 
 2142000   0.91040161   -7.0206243    709.63646  0.027608017  0.027478642            4 
 2143000   0.91122032   -7.0035906    708.37959  0.027546259  0.027471617            4 
 2144000   0.89849058   -6.9959286    709.07731   0.02756053  0.027464652            3 
 2145000   0.91491626   -7.0405229    708.74358  0.027534715  0.027457612            4 
 2146000   0.91348188   -7.0416083    708.03664  0.027494433  0.027450561            8 
 2147000   0.90460846   -6.9929449    708.32702  0.027492898  0.027443535            8 
 2148000   0.91161492   -7.0014811    710.59653  0.027568146  0.027436517            3 
 2149000   0.89911285   -6.9957567    709.32025  0.027505826  0.027429465            8 
 2150000    0.8919554   -7.0183345    711.02484  0.027559102  0.027422457            6 
 2151000   0.89926293   -7.0245647    709.41369  0.027483871  0.027415429            5 
 2152000   0.90760213   -7.0145859    710.79159  0.027524457    0.0274084           10 
 2153000   0.92383528   -6.9990483    709.11711  0.027446862  0.027401371            5 
 2154000   0.91748665   -6.9953327    710.45703  0.027485958  0.027394292            5 
 2155000   0.90761864   -7.0422361    708.31885   0.02739052  0.027387191            7 
 2156000   0.89058109   -7.0071254    711.18521  0.027488606  0.027380064            6 
 2157000   0.89842196   -7.0154816     710.5167  0.027450035  0.027373029            3 
 2158000   0.90406277   -7.0303296    709.34909  0.027392226  0.027365895            2 
 2159000   0.90605822   -7.0112215    709.88728  0.027400312  0.027358778            4 
 2160000   0.92622921   -7.0382437    711.10259  0.027434514  0.027351657            5 
 2161000   0.90119161   -7.0205087    709.58447  0.027363276  0.027344598            9 
 2162000   0.90513434    -7.038123    709.54272   0.02734901  0.027337512            6 
 2163000   0.89593426   -7.0070307    710.11668  0.027358479  0.027330412            4 
 2164000   0.89728136   -7.0210214    710.29728  0.027352791  0.027323343            5 
 2165000    0.9136821   -7.0053749    712.69278  0.027432363  0.027316368            2 
 2166000   0.90143139      -7.0235    711.98121  0.027392321  0.027309365            3 
 2167000   0.89277022   -7.0262655    711.36926  0.027356148  0.027302321            6 
 2168000   0.89618557   -7.0572284    713.94551  0.027442555   0.02729529            3 
 2169000   0.91032441   -7.0402751    712.79569  0.027385726  0.027288264            3 
 2170000   0.90629904   -7.0537678    712.92991  0.027378261  0.027281297            5 
 2171000   0.90854893   -7.0240559    713.33299  0.027381122  0.027274307            3 
 2172000   0.91066932   -7.0077514    716.56566  0.027492544  0.027267347           12 
 2173000   0.91083901   -7.0213573    715.41698   0.02743584  0.027260412            3 
 2174000   0.90710318    -7.000095    715.00208  0.027407317  0.027253443            8 
 2175000   0.87771245   -7.0057657    713.48387  0.027336547  0.027246462            3 
 2176000    0.8901423    -7.065391    711.84301  0.027261145  0.027239449            3 
 2177000   0.90026851   -7.0132539    712.77747  0.027284392  0.027232398            4 
 2178000   0.89799111   -7.0413398     713.8485  0.027312844   0.02722537            4 
 2179000    0.9127274   -7.0188022    714.23256  0.027314998  0.027218402            8 
 2180000   0.89515106   -7.0185829    715.76941  0.027361216  0.027211502            5 
 2181000    0.9004378   -7.0054743    717.56616  0.027417322  0.027204695            5 
 2182000   0.91165525   -7.0315146    715.16498  0.027313053  0.027197763            6 
 2183000   0.91382719   -7.0341705    715.35626  0.027307843  0.027190842           18 
 2184000   0.91288539   -7.0295458    717.04862  0.027359914  0.027183903            3 
 2185000   0.89065959   -7.0171139    717.63697  0.027369831  0.027176976            2 
 2186000   0.88122675   -7.0373824     716.1898  0.027302142  0.027170028            7 
 2187000   0.91807706   -7.0054401    715.85524  0.027276911  0.027163031            2 
 2188000    0.8822219   -7.0137803    715.29482    0.0272431  0.027156087            9 
 2189000   0.89326859   -7.0395802    714.69411  0.027207786  0.027149191           10 
 2190000   0.90780865    -7.062477    715.65009  0.027231738  0.027142244            2 
 2191000   0.90215974   -7.0203652    714.60067  0.027179396  0.027135264            5 
 2192000   0.89451199   -7.0205293    717.47455  0.027276253  0.027128313            2 
 2193000   0.89806843   -7.0578915    714.12602  0.027136572  0.027121383            3 
 2194000   0.91125967   -7.0090894    718.70862  0.027298261  0.027114531            3 
 2195000   0.91062015   -7.0385356    716.70172  0.027209632  0.027107588            6 
 2196000   0.90881942   -7.0296897    718.22406  0.027255011  0.027100634            6 
 2197000   0.89326409   -7.0144242    716.52758  0.027178257  0.027093625            4 
 2198000   0.89870678    -7.014087    718.07258  0.027224469  0.027086627            3 
 2199000   0.91481801   -7.0433239    717.16266  0.027177606  0.027079705           11 
 2200000   0.89123687   -7.0085929    719.01187  0.027235298  0.027072854            5 
 2201000     0.896683   -7.0427293    718.05358  0.027186642  0.027066019           12 
 2202000   0.91266878   -7.0208515    718.15152  0.027178002  0.027059181            5 
 2203000   0.90910185   -7.0583233    717.09872  0.027125841  0.027052262            3 
 2204000   0.90272787   -7.0179698    719.83943  0.027217159  0.027045368            5 
 2205000   0.90685571   -7.0508015    718.11177  0.027139523  0.027038496            4 
 2206000   0.89518845   -7.0559075    719.43793  0.027177317  0.027031548            4 
 2207000    0.9062815   -7.0370571    718.91394  0.027145218  0.027024555            5 
 2208000   0.89714625   -7.0411322    720.76348  0.027202728  0.027017683            3 
 2209000   0.90326834   -7.0111294    720.11677  0.027166017  0.027010848            3 
 2210000   0.90415611   -7.0517444    718.92091  0.027108632  0.027003953            5 
 2211000   0.89653022   -7.0357384     719.2996  0.027110644  0.026997002            2 
 2212000   0.90566367   -7.0079328    720.11781  0.027129212  0.026990165            9 
 2213000    0.8970109   -7.0273544    721.60851  0.027173088  0.026983306            4 
 2214000   0.87879205   -7.0206905    721.86549  0.027170487  0.026976395            5 
 2215000   0.88928996   -7.0158448    721.57132  0.027147153  0.026969515            4 
 2216000   0.89666128    -7.034269    721.72957  0.027140853  0.026962709            3 
 2217000   0.90811824   -7.0371988     721.5804  0.027123004  0.026955829            4 
 2218000    0.8968808   -7.0466602    721.80349  0.027119157  0.026949015            3 
 2219000   0.91130383   -7.0589861    720.38576  0.027053694  0.026942134            7 
 2220000   0.88842193   -7.0368941     722.5535  0.027122879  0.026935249            7 
 2221000   0.90022667    -7.062244    723.16861  0.027133747  0.026928425            4 
 2222000   0.89111993   -7.0151033    722.67237  0.027102924  0.026921591            3 
 2223000   0.89071652   -7.0079083    723.60625   0.02712574  0.026914745            4 
 2224000   0.90665446   -7.0233099    722.76954  0.027082192  0.026908024            4 
 2225000   0.87995883   -7.0300948    724.12219  0.027120681  0.026901361            2 
 2226000   0.89412761   -7.0336863     723.4169  0.027082094  0.026894607            3 
 2227000   0.90530368   -7.0585481    722.98677  0.027053838   0.02688794            6 
 2228000   0.92101867   -7.0361893    723.12984  0.027047047  0.026881276            3 
 2229000   0.89054297   -7.0175745    724.47532  0.027085215  0.026874588            2 
 2230000    0.8745151   -7.0156118    723.37765   0.02703205  0.026867901            9 
 2231000   0.86538396   -7.0384564     726.6784  0.027143224  0.026861316            4 
 2232000   0.88774047   -7.0052956    726.05295  0.027107712  0.026854733            5 
 2233000   0.89001157   -7.0093672    727.21402  0.027138902   0.02684816            4 
 2234000   0.88482911   -7.0468663    728.19792  0.027163456  0.026841575            3 
 2235000   0.90117928   -7.0385336    726.39345  0.027084021  0.026835037            5 
 2236000   0.88208559   -7.0622109    729.25917  0.027178711  0.026828592            4 
 2237000   0.89785146   -7.0407493    725.41094  0.027023206  0.026822064           11 
 2238000   0.88116373    -7.069992    726.46888  0.027050524  0.026815499            3 
 2239000   0.89492288   -7.0745414    728.54857  0.027115847   0.02680895            2 
 2240000   0.91427303   -7.0488507    727.26695  0.027056062   0.02680239            5 
 2241000   0.90787582   -7.0451476    726.58033  0.027018457  0.026795915            6 
 2242000   0.88814385   -7.0309658    728.16325  0.027065241  0.026789438            5 
 2243000   0.90233256   -7.0268749    729.93815  0.027119117  0.026783052            5 
 2244000   0.91737533   -7.0470163    727.44772  0.027014547  0.026776576            2 
 2245000   0.90539238   -7.0342955    729.46415  0.027077363  0.026770051            2 
 2246000   0.90001221   -7.0389981    728.06445  0.027013374  0.026763589            6 
 2247000   0.89569913   -7.0500725    727.79728  0.026991444  0.026757088            3 
 2248000   0.91014448   -7.0909968    728.38527  0.027001233  0.026750541            5 
 2249000   0.89637308   -7.0764574    727.78514  0.026966991  0.026743998            4 
 2250000     0.916733    -7.056699     728.4219  0.026978589  0.026737458            9 
 2251000   0.88726599   -7.0361438    728.99819  0.026987938  0.026730939            5 
 2252000   0.88368353   -7.0713264    728.83525  0.026969925  0.026724436            7 
 2253000   0.88997912   -7.0504665    728.85675   0.02695875  0.026717883            6 
 2254000   0.87928514   -7.0362415    728.08094  0.026918106  0.026711341           12 
 2255000   0.87504904   -7.0862045     727.9237  0.026900359  0.026704724            6 
 2256000   0.90091143   -7.0344016    731.18955   0.02700907  0.026698158            3 
 2257000    0.8901172   -7.0439118    730.92646   0.02698739  0.026691609            5 
 2258000   0.87026671   -7.0553871    729.28995  0.026915041  0.026685022            5 
 2259000   0.89194974   -7.0441664    730.86315  0.026961161  0.026678435            3 
 2260000   0.89448274   -7.0464349    730.76219  0.026945508  0.026671826            2 
 2261000   0.90058567   -7.0630227    731.95483  0.026977548  0.026665237            5 
 2262000   0.88634349   -7.0344202    730.95304  0.026928715  0.026658755            5 
 2263000   0.87922868   -7.0210697    730.72532   0.02690843  0.026652236            3 
 2264000    0.8755392   -7.0657643    731.05485  0.026908674   0.02664578            4 
 2265000     0.880618   -7.0568038    729.38296  0.026835282  0.026639239            8 
 2266000   0.90658022   -7.0567066     731.0965  0.026886456  0.026632676            3 
 2267000   0.89905636   -7.0631845    731.48817  0.026888993  0.026626145            3 
 2268000   0.88701572   -7.0579491    730.07538  0.026825227  0.026619591           10 
 2269000   0.88562785   -7.0770017    731.62289   0.02687024  0.026613039            6 
 2270000   0.90758632    -7.059846    731.36374  0.026848889  0.026606485            5 
 2271000    0.8835335   -7.0629108    732.66905  0.026884965  0.026599936           10 
 2272000   0.91673837   -7.0594628    730.72824  0.026801946  0.026593401            6 
 2273000   0.90024191   -7.0440266    733.21542   0.02688134  0.026586859            1 
 2274000   0.88716457   -7.0750419    733.33891  0.026874044  0.026580339            6 
 2275000   0.89934012   -7.0636661    732.97725  0.026848984  0.026573908            6 
 2276000   0.87589277   -7.0596672    734.06226  0.026876914   0.02656742            7 
 2277000   0.90424533   -7.0550591    733.26957  0.026836099  0.026560904            5 
 2278000   0.89427408   -7.0653154    733.39289   0.02682883  0.026554374            4 
 2279000   0.88301514   -7.0614472    731.59763  0.026751412  0.026547837            6 
 2280000   0.89161818   -7.0737998    734.22878  0.026835847  0.026541284            6 
 2281000   0.87906281   -7.0880943     733.2945   0.02678995  0.026534679            2 
 2282000    0.9038797   -7.0465947    733.30179  0.026778476  0.026528171            5 
 2283000   0.87976074   -7.0547527    733.86756  0.026787398  0.026521674            4 
 2284000    0.8794863   -7.0490915    733.89139  0.026776539  0.026515226            4 
 2285000   0.88625469   -7.0789113    733.49356  0.026750312  0.026508734            4 
 2286000   0.88139466   -7.0545377    733.90191  0.026753496  0.026502185            2 
 2287000   0.90153713   -7.0457424    734.42627  0.026760905  0.026495698            5 
 2288000   0.89483492   -7.0814758    736.87606  0.026838435  0.026489243            3 
 2289000   0.87008825   -7.0685692    734.79134  0.026750813  0.026482772            5 
 2290000   0.88606184   -7.0766399    735.12764   0.02675137  0.026476248            4 
 2291000   0.87763661   -7.0448001    734.70078  0.026724166  0.026469753            4 
 2292000   0.88728506   -7.0554759     734.1547  0.026692652  0.026463275            3 
 2293000   0.85408563   -7.0696432    735.04565   0.02671339  0.026456729            4 
 2294000   0.86895982   -7.0626958    736.99193  0.026772447  0.026450229            4 
 2295000   0.87652486   -7.0843297    735.59748  0.026710148  0.026443688            4 
 2296000    0.8700509    -7.067616    736.53161  0.026732419  0.026437122            3 
 2297000   0.87946519   -7.0219025    737.45289  0.026754204  0.026430602            3 
 2298000   0.86895045   -7.0679694    733.70903  0.026606797  0.026424058            4 
 2299000   0.86859604   -7.0700238    735.90627  0.026674868  0.026417443            4 
 2300000   0.89150009   -7.0526344    735.90491  0.026663221  0.026410888            4 
 2301000   0.89473057   -7.0326475    736.78322  0.026683443  0.026404341            3 
 2302000   0.88918615   -7.0406607    736.65423  0.026667182  0.026397802            4 
 2303000   0.88848051   -7.0563361    736.34424  0.026644386  0.026391283            6 
 2304000   0.87642333   -7.0519934    735.10551  0.026588018  0.026384643            5 
 2305000   0.88133208    -7.074454    733.84725  0.026530992  0.026377947            4 
 2306000   0.87628191   -7.0342502    735.51481  0.026579749  0.026371357            4 
 2307000   0.88681342   -7.0463479    736.84894  0.026616419  0.026364799            5 
 2308000   0.88177614   -7.0492622    737.30542  0.026621369  0.026358224            3 
 2309000   0.88969466   -7.1003771    737.01958  0.026599523   0.02635162            5 
 2310000   0.87585235    -7.071865     735.8337  0.026545227  0.026345035            4 
 2311000   0.87444546   -7.0681454     736.8294  0.026569645  0.026338446            4 
 2312000   0.88242034   -7.0922634    735.58975  0.026513471  0.026331844            4 
 2313000   0.88301727   -7.0522539    738.50544  0.026607056  0.026325306            4 
 2314000    0.8836999   -7.0882039    737.07952  0.026544206  0.026318782            6 
 2315000   0.87713856    -7.061137    737.13762  0.026534831   0.02631227            4 
 2316000   0.90240792   -7.0501532    738.32788  0.026566202  0.026305733            5 
 2317000   0.87068912   -7.0573398    740.13755  0.026619823  0.026299235            5 
 2318000    0.8619933   -7.0707822    740.62308  0.026625794  0.026292798            8 
 2319000   0.88266303   -7.0666698    739.06494   0.02655832  0.026286358            3 
 2320000   0.87640117   -7.0636979    739.95131  0.026578711  0.026279934            4 
 2321000   0.87531708   -7.0987896    740.14747  0.026574302  0.026273494            6 
 2322000   0.87681326   -7.0475459    740.73089  0.026583796  0.026267048            7 
 2323000   0.88184324   -7.0804566    739.25424   0.02651938  0.026260627            4 
 2324000   0.88497605   -7.0804763    741.17434  0.026576819  0.026254135            8 
 2325000    0.8776261   -7.0773142    740.03593  0.026524585  0.026247678            5 
 2326000    0.8900839   -7.0820382      741.415   0.02656259  0.026241238            7 
 2327000   0.88179332    -7.068045    740.33085   0.02651235  0.026234755            2 
 2328000   0.87349684   -7.0772165    739.57015  0.026473731   0.02622826            4 
 2329000   0.88401366   -7.0534127    741.16731  0.026519512  0.026221824            4 
 2330000   0.89983451   -7.0952107    741.78503  0.026530223  0.026215367            8 
 2331000   0.88231376   -7.1332085     741.1774  0.026497119  0.026208884            4 
 2332000   0.86167572   -7.0951687    740.46085   0.02646015   0.02620242            4 
 2333000   0.88042268   -7.0934133    743.48624  0.026556874  0.026196016            3 
 2334000   0.88880081   -7.0663377    742.11106  0.026496396  0.026189652            6 
 2335000   0.86579691   -7.0852298    739.14709  0.026379268  0.026183255            6 
 2336000   0.89624767   -7.0805048    741.18917  0.026440824  0.026176836            6 
 2337000   0.87604118   -7.0863141    742.21141  0.026465961  0.026170452            3 
 2338000   0.88294826   -7.0566379    743.05042  0.026484546  0.026164064            6 
 2339000   0.88360272   -7.0798325     742.4342  0.026451268  0.026157653            4 
 2340000   0.87305332   -7.0728691    740.96301  0.026387572  0.026151207            3 
 2341000   0.87495589    -7.114854    741.28507  0.026387764  0.026144726            3 
 2342000    0.8698786   -7.0997516    741.65442  0.026389639  0.026138246            3 
 2343000   0.87250539   -7.0631767    742.19422  0.026397575  0.026131831            5 
 2344000   0.86426243    -7.077672    744.35593  0.026463166  0.026125459            5 
 2345000   0.86611986   -7.0955091    744.13412  0.026443998  0.026119052            6 
 2346000   0.86251868   -7.0842549    744.38752  0.026441728  0.026112693            7 
 2347000   0.88594364   -7.0954512    745.92124  0.026484918  0.026106392            9 
 2348000   0.88514431   -7.0845647    743.08155  0.026372855   0.02610007            5 
 2349000    0.8643799   -7.0623232    744.57621  0.026414652  0.026093772            4 
 2350000   0.87108379   -7.0709481    744.94776  0.026416587  0.026087456            8 
 2351000   0.87807504   -7.0903635    746.80735  0.026471266  0.026081097            7 
 2352000   0.89524953   -7.1030996    743.83457  0.026354683  0.026074677            5 
 2353000   0.88429829   -7.0942368    744.69045  0.026373794  0.026068297            3 
 2354000   0.88252555   -7.0706187    743.85748  0.026333103  0.026061971            7 
 2355000   0.89103048   -7.0827707    748.26008   0.02647771  0.026055639            2 
 2356000    0.8732278   -7.0497213    745.86892  0.026381894  0.026049319            8 
 2357000   0.87531766   -7.0740556    746.10945  0.026379205  0.026043037            3 
 2358000   0.87040433   -7.0688484    747.86838   0.02643018  0.026036761            6 
 2359000   0.89035446   -7.1052367    745.15943  0.026323281  0.026030511            4 
 2360000   0.87289109   -7.1113157    743.64465  0.026258639  0.026024162            6 
 2361000    0.8802892   -7.0770178    748.90205  0.026433081   0.02601783            9 
 2362000   0.87727368   -7.0609854    745.89641  0.026315849   0.02601152            4 
 2363000   0.87480342   -7.0754277    745.96452  0.026307114  0.026005239            3 
 2364000   0.87843861   -7.0620865     747.3511  0.026344864  0.025998992            3 
 2365000   0.87845835   -7.0667793    746.88251  0.026317213  0.025992745            3 
 2366000   0.86184187   -7.0583194    748.61841  0.026367231  0.025986507            3 
 2367000   0.88348973   -7.0707527    745.18349   0.02623516  0.025980239            5 
 2368000   0.88288105   -7.0816463    747.00514  0.026288188  0.025974036           16 
 2369000   0.86986428   -7.0533743    748.16117  0.026317756  0.025967729           13 
 2370000   0.85642406   -7.0592475    748.59537  0.026321919  0.025961446            3 
 2371000   0.87369304   -7.0904378    748.76266  0.026316697  0.025955168            4 
 2372000   0.87630895   -7.1131625       748.63  0.026300941   0.02594884            4 
 2373000   0.86623453   -7.0725569    749.35239  0.026315227  0.025942536           12 
 2374000   0.87321133   -7.1084664    748.67237  0.026280271  0.025936185            8 
 2375000    0.8763645   -7.0873312    748.39073  0.026259324  0.025929871           10 
 2376000   0.85876386   -7.1212687    747.90732  0.026231317  0.025923548            7 
 2377000   0.90317122   -7.0576677    749.60754  0.026279889  0.025917224            5 
 2378000   0.88976785   -7.0635495     749.5423  0.026266551  0.025911013            5 
 2379000   0.87923798   -7.0767099    749.39287  0.026250276  0.025904782            3 
 2380000    0.8772895    -7.093504    750.22148  0.026268259  0.025898519            4 
 2381000   0.87760658   -7.0944455    749.88492  0.026245447  0.025892266            5 
 2382000   0.87875238   -7.0776446    749.88625  0.026234475  0.025886011            8 
 2383000   0.88884832   -7.0997169    750.06837  0.026229835  0.025879746            4 
 2384000   0.88685316   -7.1116951     747.7843  0.026138993   0.02587347            7 
 2385000   0.88627338   -7.0895799    749.16769  0.026176369  0.025867175            5 
 2386000   0.86702793   -7.0883579    749.62605  0.026181407    0.0258609            4 
 2387000   0.88071542   -7.0965889    750.03806  0.026184823  0.025854639            6 
 2388000   0.85311214   -7.0987677    750.81964  0.026201132  0.025848357            4 
 2389000   0.86754224   -7.1079728    748.52032   0.02610996   0.02584201            5 
 2390000   0.87362715   -7.0803784    751.04839  0.026187182  0.025835675            3 
 2391000   0.86923092   -7.0959433     749.5191   0.02612293  0.025829416            4 
 2392000    0.8604346   -7.0743041    751.66745  0.026186854  0.025823132            3 
 2393000    0.8863228    -7.107166    748.94717   0.02608118  0.025816822            7 
 2394000   0.85147387   -7.0805593    751.01595  0.026142299  0.025810472            4 
 2395000    0.8717943   -7.0977788    751.23862  0.026139131  0.025804155            5 
 2396000    0.8710709   -7.0931925    751.43326  0.026134991  0.025797821            3 
 2397000   0.87189518   -7.0903607    751.40221  0.026123008  0.025791462            2 
 2398000   0.87077835   -7.0729767    751.31774  0.026109179  0.025785121            8 
 2399000   0.86862093   -7.0761489    751.22638  0.026095122  0.025778788            5 
 2400000   0.87731461   -7.0986013    750.81108  0.026069829  0.025772428           10 
 2401000   0.85546138   -7.0700248    751.66752  0.026088696  0.025766112            4 
 2402000   0.85616828   -7.0800022    752.25382  0.026098176  0.025759793            4 
 2403000   0.87545398   -7.0956829    751.80321  0.026071688  0.025753472            7 
 2404000   0.86445261    -7.083394    754.01435  0.026137491  0.025747151            6 
 2405000   0.85254657   -7.1258046    750.53905  0.026006204   0.02574081            4 
 2406000   0.87605104   -7.0894893    752.13879  0.026050803   0.02573446            5 
 2407000    0.8501258   -7.1150574    751.68224  0.026024174   0.02572809            4 
 2408000   0.86928485   -7.1005701       752.11   0.02602817  0.025721779            3 
 2409000   0.87469672   -7.0908861    752.50828  0.026031143  0.025715457            7 
 2410000   0.86614963   -7.1263202      751.184   0.02597455  0.025709074            7 
 2411000   0.84567704   -7.0946762    752.73266  0.026017305  0.025702737            3 
 2412000   0.87015885    -7.081683    753.03148  0.026016842  0.025696348            5 
 2413000   0.85559748   -7.1330096    752.43646  0.025985511  0.025689916            4 
 2414000   0.84962967   -7.1364817     752.7534  0.025985688  0.025683442            6 
 2415000   0.86395738   -7.1145104    753.28455  0.025993256  0.025676986            5 
 2416000   0.85285688   -7.0928723    751.47341  0.025920027  0.025670578           11 
 2417000   0.87812426   -7.0837036    751.54163  0.025911655  0.025664091            3 
 2418000   0.87419139    -7.119783    752.03774  0.025918036  0.025657621            4 
 2419000   0.86149388   -7.1253168    749.07699  0.025805325  0.025651048            6 
 2420000   0.88432651   -7.0990527    751.71748  0.025885588  0.025644576            5 
 2421000   0.85907014   -7.1194788    752.79168  0.025911871  0.025638119            2 
 2422000    0.8525548   -7.1232755    751.59551  0.025860016  0.025631634            7 
 2423000   0.85400216   -7.1066811    752.83399  0.025891938  0.025625124            6 
 2424000   0.84955241   -7.0672397    753.60076  0.025907617  0.025618683            6 
 2425000   0.85946173   -7.0619356     753.6487  0.025898581  0.025612256            7 
 2426000   0.87005955   -7.1394413     754.1454  0.025904967  0.025605836            6 
 2427000    0.8607848    -7.112024    753.88392  0.025885315  0.025599383            8 
 2428000   0.89665413    -7.119552    754.04474  0.025880174  0.025592952            3 
 2429000   0.86524624   -7.0554364    754.65016   0.02589029   0.02558651            8 
 2430000   0.86918705    -7.098966    754.59055  0.025877591  0.025580113            3 
 2431000   0.87395696   -7.0881768    752.99116   0.02581212  0.025573643            4 
 2432000   0.85911044   -7.1409629    752.02477  0.025768393  0.025567122            5 
 2433000   0.86754378   -7.0994898     754.0521   0.02582724  0.025560587            5 
 2434000   0.87326002   -7.0978056    754.29228  0.025824852  0.025554121            7 
 2435000   0.86380954   -7.1173678    755.30787  0.025849003  0.025547646            6 
 2436000    0.8693938   -7.1174119    753.58034  0.025779295  0.025541173            4 
 2437000   0.86562826   -7.1336514    753.86021  0.025778286  0.025534729            2 
 2438000   0.87404369   -7.0902743    755.64093   0.02582858  0.025528289            3 
 2439000   0.88656983   -7.1065467    755.98549  0.025829763  0.025521889           12 
 2440000   0.86380565   -7.1278071     753.8615  0.025746636  0.025515425           10 
 2441000   0.86609382   -7.1293163    755.06551  0.025777192  0.025508984            6 
 2442000    0.8778431   -7.1115603    755.72645  0.025789191  0.025502554           13 
 2443000   0.85318113   -7.1042185    755.14249  0.025758715  0.025496129            2 
 2444000   0.85764357   -7.1184295    757.17353  0.025817428  0.025489742            5 
 2445000   0.86033131   -7.1097979    755.61485  0.025753744  0.025483324            4 
 2446000   0.85996723     -7.08618      756.531  0.025774428  0.025476893            7 
 2447000   0.86494397   -7.1279105    756.34862  0.025757683  0.025470441            4 
 2448000   0.85265214   -7.1186937    755.67228  0.025724138  0.025463935            9 
 2449000   0.82710523   -7.1153356    755.68008  0.025713899  0.025457424            7 
 2450000   0.87946094   -7.1464137    756.75181  0.025739857  0.025451023            6 
 2451000   0.87391519   -7.1018244     757.4318  0.025752475  0.025444631            5 
 2452000   0.86938118   -7.1014141    756.10968  0.025697039  0.025438167            5 
 2453000   0.85702289   -7.0898972    758.44718  0.025765973  0.025431765            5 
 2454000   0.87448626   -7.1266168    757.52595   0.02572419  0.025425401            6 
 2455000   0.88953303   -7.0991603    756.62168  0.025683017  0.025418966            5 
 2456000   0.86379173   -7.1134377     755.9427  0.025649522  0.025412431            7 
 2457000   0.88049182   -7.1431118    757.99114  0.025708559  0.025405906            5 
 2458000    0.8530008    -7.102885    756.73177  0.025655403  0.025399436            4 
 2459000   0.87169923   -7.1385794    759.25216  0.025730383  0.025393014            4 
 2460000   0.86776603   -7.1022946    758.77823  0.025703869  0.025386558            5 
 2461000   0.87492499     -7.10786     756.4635  0.025615045  0.025380052            6 
 2462000    0.8621745   -7.0942253    759.07866  0.025693158  0.025373592            5 
 2463000   0.84612404   -7.1183033    756.88408  0.025608475  0.025367091            9 
 2464000   0.84085406   -7.1186846     757.9053   0.02563262  0.025360567           12 
 2465000   0.86813929   -7.1437228    756.69636  0.025581351  0.025354042            8 
 2466000   0.87332158   -7.0981391    756.86397  0.025576641  0.025347571            7 
 2467000   0.86018992   -7.0984817    757.56167  0.025589842  0.025341082            7 
 2468000   0.86274644   -7.1309028    757.63308  0.025581884  0.025334596           13 
 2469000   0.86328016   -7.1398971     757.8095  0.025577477   0.02532809            3 
 2470000   0.85166025   -7.1570507    758.56912   0.02559275  0.025321594            4 
 2471000   0.84820637   -7.1514917    757.39106  0.025542664  0.025315116           13 
 2472000   0.86156683   -7.1096203    760.57881  0.025639793   0.02530863            4 
 2473000   0.83951058   -7.1227967    758.85655  0.025571389  0.025302106            3 
 2474000   0.87699575    -7.119043    758.71442  0.025556266  0.025295695            8 
 2475000   0.84867111   -7.1168091    757.61948  0.025509073  0.025289223            8 
 2476000   0.86254511   -7.1261666     757.4164  0.025491936   0.02528268            4 
 2477000    0.8545503   -7.1284872    760.41125    0.0255824  0.025276157            7 
 2478000    0.8619357   -7.1453105     757.0646  0.025459531  0.025269613           19 
 2479000   0.85002271   -7.1232772    756.70957  0.025437326  0.025263071            4 
 2480000   0.85567343   -7.1251653    760.06869  0.025539943  0.025256574            5 
 2481000   0.86476795   -7.1438202    760.13603   0.02553191   0.02525009           10 
 2482000    0.8505941   -7.1374295    759.32874  0.025494519   0.02524362            5 
 2483000   0.84314887   -7.0852254    761.52977  0.025558121  0.025237218            3 
 2484000   0.86084867   -7.1193176    759.29533  0.025472871  0.025230771            3 
 2485000   0.84376399   -7.1228554    759.22857  0.025460381  0.025224329            4 
 2486000   0.85773981   -7.1044976    761.58267  0.025529052  0.025217927            2 
 2487000   0.84368858   -7.0956446    761.23607  0.025507173  0.025211521            5 
 2488000   0.83989584   -7.1164082    758.58611  0.025408163  0.025205066            3 
 2489000   0.84927392    -7.123201    760.73331  0.025469844  0.025198614            3 
 2490000   0.83960081    -7.092778    762.11462  0.025505844  0.025192241            7 
 2491000   0.84481364   -7.0950719    762.81998  0.025519202  0.025185926            6 
 2492000    0.8557859   -7.1394604    762.00782  0.025481803  0.025179558           10 
 2493000    0.8630054   -7.1441845    761.69131  0.025461001  0.025173166            5 
 2494000   0.84662285   -7.1629384    760.32505  0.025405141  0.025166777            3 
 2495000   0.86578812   -7.1165989    761.67128  0.025439923  0.025160422            4 
 2496000    0.8702992     -7.12191    762.92463  0.025471576  0.025154046            4 
 2497000   0.87397265   -7.1306863    761.51584  0.025414359  0.025147701            7 
 2498000   0.86290075   -7.1318968    762.07114  0.025422709  0.025141369           10 
 2499000   0.84952552    -7.144058     762.3983  0.025423446  0.025135014            3 
 2500000   0.83618611   -7.1091386    762.48902  0.025416301  0.025128621            4 
 2501000   0.85316051   -7.1267167    763.02695  0.025424062  0.025122188            5 
 2502000   0.86327269   -7.1217622    763.95303  0.025444745  0.025115799            7 
 2503000   0.85593899   -7.1341357    763.41447  0.025416649  0.025109405            8 
 2504000   0.84491226   -7.1246178    762.79695  0.025385947  0.025102945            7 
 2505000   0.85087229   -7.1550746     762.6674  0.025371504  0.025096545            4 
 2506000   0.83921306   -7.1172867    765.22207  0.025446331  0.025090156            3 
 2507000   0.85632305   -7.1574834    764.33525  0.025406703  0.025083808            7 
 2508000   0.84122696   -7.1396905    763.80126   0.02537883   0.02507742           10 
 2509000   0.85216368    -7.142067    764.15341  0.025380411  0.025070985            3 
 2510000   0.84713346    -7.122327    763.25538  0.025340484  0.025064626           16 
 2511000   0.84232547   -7.1400894    762.25415  0.025297164  0.025058236           10 
 2512000   0.84974359   -7.1535176    763.64146  0.025333116  0.025051839            5 
 2513000   0.84779054   -7.1692683    763.90624  0.025331816  0.025045406            6 
 2514000   0.82330815   -7.1405237    764.51757  0.025342004  0.025038997            2 
 2515000   0.84784344   -7.1523622    762.84952  0.025276658  0.025032596            9 
 2516000   0.83444747   -7.1369253    763.41794  0.025285438   0.02502617            6 
 2517000   0.83700742   -7.1152665    764.64139  0.025315898  0.025019776            6 
 2518000   0.85314435   -7.1573156    763.96446  0.025283441  0.025013374            6 
 2519000   0.84567845   -7.1438342    764.41746   0.02528839  0.025006968            4 
 2520000   0.85412297   -7.1112982    763.99802  0.025264485  0.025000514            4 
 2521000   0.84503109   -7.1339775    763.46528  0.025236853  0.024994075            5 
 2522000     0.861708   -7.1168829    764.81513  0.025271449  0.024987649           13 
 2523000   0.84328908   -7.1530382    765.93622  0.025298461  0.024981245            4 
 2524000   0.83562163   -7.1510325    763.07005  0.025193808  0.024974781            3 
 2525000   0.84909953   -7.1284264    766.57538  0.025299518  0.024968329            2 
 2526000   0.84347599     -7.17471    765.35494  0.025249239  0.024961842            6 
 2527000   0.84985787   -7.1329517    764.46905  0.025210033   0.02495535            8 
 2528000   0.85496968   -7.1510337    765.37673  0.025229982  0.024948839            5 
 2529000   0.84318124   -7.1207231    764.82961  0.025201977  0.024942326            5 
 2530000   0.85163374    -7.152846    763.58516  0.025151027  0.024935817           10 
 2531000    0.8644465   -7.1495538    765.23683  0.025195471  0.024929353            8 
 2532000   0.84679917   -7.1377351    766.55898  0.025229034   0.02492285            6 
 2533000   0.84358872   -7.1539692    764.18542  0.025140986  0.024916369            3 
 2534000   0.85741839   -7.1395425    766.20428  0.025197457  0.024909843            3 
 2535000   0.85059949    -7.162414    763.89835  0.025111714  0.024903334            5 
 2536000   0.83386186   -7.1414278    763.91365  0.025102315  0.024896821            3 
 2537000   0.84370539   -7.1754185    764.16678  0.025100735  0.024890314            8 
 2538000   0.85284534   -7.1515583    763.79209  0.025078542   0.02488379            5 
 2539000   0.84695971   -7.1606569    766.03509  0.025142283  0.024877248            2 
 2540000   0.85008468   -7.1367294    765.59965  0.025118099  0.024870705            4 
 2541000   0.83263498   -7.1770588    762.52848  0.025007493  0.024864126            6 
 2542000   0.86135898   -7.1344785    763.88875  0.025042249  0.024857514            6 
 2543000   0.82955593   -7.1338876    765.11196  0.025072485  0.024850953            6 
 2544000   0.83549235   -7.1293481    763.74004   0.02501769  0.024844338           11 
 2545000    0.8443264   -7.1294974    764.85088  0.025044233  0.024837743            5 
 2546000   0.84062341   -7.1657826     764.6063  0.025026391  0.024831157            5 
 2547000    0.8599708   -7.1095867    765.61027  0.025049413  0.024824595            3 
 2548000    0.8512428   -7.1794846    765.11212   0.02502329   0.02481805            2 
 2549000   0.84740528   -7.1618729    766.59386  0.025061915   0.02481155            4 
 2550000   0.84201827   -7.1403806    767.71086   0.02508859  0.024805038            7 
 2551000   0.84897802   -7.1471848    767.26405  0.025064159  0.024798536            3 
 2552000   0.83577462   -7.1557321    767.02348  0.025046483     0.024792            6 
 2553000   0.84923225   -7.1646876    765.11084  0.024974241  0.024785413            6 
 2554000    0.8400772   -7.1440758     766.0216  0.024994179  0.024778851            4 
 2555000   0.81295895   -7.1587487    764.13097  0.024922732  0.024772305            5 
 2556000   0.84537614   -7.1890267    765.90774   0.02497091  0.024765735           14 
 2557000    0.8690206   -7.1899133    766.75689  0.024988818   0.02475918           10 
 2558000   0.85662858    -7.161907     766.3437  0.024965588  0.024752627            6 
 2559000   0.84672645   -7.1674196     767.5197  0.024994129  0.024746106            9 
 2560000   0.83443345   -7.1437253    767.19145   0.02497368  0.024739549            2 
 2561000   0.85918138   -7.1701863     767.3715  0.024969787  0.024733027           11 
 2562000   0.84758422    -7.176343    765.28694  0.024892237  0.024726457            6 
 2563000   0.83344694    -7.138487     764.7559  0.024865259  0.024719864            7 
 2564000    0.8234498   -7.1394785    767.89663  0.024957639   0.02471331            7 
 2565000   0.84974682   -7.1625184     764.9712  0.024852865   0.02470672            5 
 2566000   0.85248441   -7.1445051    767.87815  0.024937586  0.024700111            3 
 2567000   0.83211765   -7.1706343    767.39048   0.02491204  0.024693519            6 
 2568000   0.85105954   -7.1616943    766.98717  0.024889251  0.024686917           11 
 2569000   0.82506172   -7.1509664    766.21095  0.024854384  0.024680307            6 
 2570000   0.84923777   -7.1319687    767.88279  0.024898923  0.024673753            4 
 2571000   0.82085874   -7.1640227     768.2029  0.024899614  0.024667198            5 
 2572000   0.84457319   -7.1114057    768.64857  0.024904373  0.024660625            4 
 2573000   0.83272197   -7.1435357    768.04281  0.024875075  0.024654099            5 
 2574000   0.83772581   -7.1525676    767.61836  0.024851669  0.024647523            4 
 2575000   0.83440726   -7.1747037    768.00861  0.024854647  0.024640982            5 
 2576000   0.81584868    -7.182567    766.26414  0.024788566  0.024634366            8 
 2577000   0.82721069   -7.1544109    768.53748   0.02485246  0.024627802            8 
 2578000   0.84720679   -7.1613788    767.64984  0.024814127  0.024621246            8 
 2579000   0.83117848   -7.1634856    767.72653  0.024806984  0.024614706            7 
 2580000   0.84895338    -7.163585    768.56715   0.02482452  0.024608127            7 
 2581000   0.85112779   -7.1404059    768.03011  0.024797563  0.024601571            7 
 2582000   0.84995112   -7.1419428    769.21478  0.024826194  0.024595005            6 
 2583000   0.83371508   -7.1470891    768.47464  0.024792703  0.024588433            5 
 2584000   0.84323386   -7.1526633    768.64825  0.024788708  0.024581835            9 
 2585000    0.8499155   -7.1513648    769.73902  0.024814282  0.024575313            5 
 2586000   0.85633569   -7.1476438    768.27027  0.024757356  0.024568755            3 
 2587000   0.82929796   -7.1542864    770.39699  0.024816293  0.024562216            3 
 2588000   0.85470889   -7.1401778    769.44327  0.024775994  0.024555709            9 
 2589000   0.83873415   -7.1371426    769.67352  0.024773836  0.024549179            3 
 2590000   0.83062009   -7.1695784    769.43956  0.024756742  0.024542562            2 
 2591000   0.84602441   -7.1664013      769.995  0.024765052  0.024535979            3 
 2592000   0.81874424   -7.1723562    770.28027  0.024764669  0.024529386            4 
 2593000   0.83513404   -7.1752772    768.23837  0.024689496  0.024522785            3 
 2594000   0.83696608   -7.1645013    767.42294  0.024653783  0.024516179            6 
 2595000   0.83266391   -7.2082743    768.46153  0.024677634  0.024509542            3 
 2596000   0.82786286   -7.1475362     771.5738  0.024768034  0.024502948            3 
 2597000   0.83514642   -7.1197014    767.70423  0.024634329  0.024496395            2 
 2598000   0.82470481    -7.164411    770.97249   0.02472968  0.024489825            8 
 2599000   0.83964602   -7.1802922    769.58823   0.02467578    0.0244832            2 
 2600000   0.83943972   -7.1662936    770.03037  0.024680461  0.024476609            8 
 2601000   0.83161035   -7.1631107    770.76439  0.024694489   0.02446999            4 
 2602000    0.8386713   -7.1715387    769.83053   0.02465509  0.024463424            2 
 2603000   0.84347365   -7.1714577    769.70603  0.024641632  0.024456862            7 
 2604000    0.8396315   -7.1846353    770.29572  0.024651041  0.024450291           10 
 2605000   0.84779806   -7.1715579    770.31331   0.02464214  0.024443774            5 
 2606000   0.81950344   -7.1397594    771.67253  0.024676149   0.02443726            8 
 2607000   0.83329146   -7.1678246    769.29004  0.024590527  0.024430702            4 
 2608000   0.84665487   -7.1829854    770.42017  0.024617209  0.024424069            4 
 2609000   0.83209934   -7.1803697    769.33655  0.024573162  0.024417477            5 
 2610000   0.82164883   -7.1902159    769.80744  0.024578781  0.024410871            4 
 2611000   0.85764705   -7.1728228    770.61591  0.024595171  0.024404264            8 
 2612000   0.83400192   -7.1843016    770.03535  0.024567233  0.024397689           10 
 2613000   0.84359548   -7.1771465    771.20883  0.024595255  0.024391076           11 
 2614000   0.82013483   -7.1835582    771.23832  0.024586786  0.024384449            5 
 2615000   0.82818822   -7.1502765    774.42598  0.024678967  0.024377866           14 
 2616000   0.83867945   -7.1617861    770.84239  0.024555377  0.024371252            8 
 2617000   0.82146929   -7.1607396    770.70258  0.024541542  0.024364611            7 
 2618000   0.83238629   -7.1796388    770.98817  0.024541258  0.024357983           10 
 2619000   0.84070632    -7.183382    771.54512  0.024549609  0.024351341            6 
 2620000   0.84486904   -7.1771223    772.12245  0.024558602  0.024344732            5 
 2621000   0.83839422   -7.1530555    773.15618  0.024582099  0.024338157            6 
 2622000   0.83071773   -7.1801708     771.4891   0.02451974  0.024331499            6 
 2623000   0.83086804    -7.197589    771.68156  0.024516506   0.02432486            4 
 2624000   0.84545469   -7.1684076    772.81737  0.024543235  0.024318258            6 
 2625000   0.81989608   -7.1891706    769.63554  0.024432874  0.024311618            8 
 2626000   0.82719889   -7.1604478    772.30374  0.024508243  0.024305025            4 
 2627000   0.83296768   -7.1718694     771.6182  0.024477167  0.024298415            4 
 2628000   0.83035136   -7.1762801    770.46613  0.024431321  0.024291801            9 
 2629000   0.82868779   -7.1900368    771.90682  0.024467694  0.024285187            6 
 2630000   0.83145267   -7.1733935    771.57542   0.02444789  0.024278571            9 
 2631000   0.82788213   -7.2245496    772.36199  0.024463512  0.024271974            8 
 2632000   0.83572002   -7.1803129    771.25115  0.024419046  0.024265341            4 
 2633000   0.83268587   -7.1953861     773.4593  0.024479659  0.024258751            6 
 2634000   0.82067148   -7.1928868    773.47276  0.024470791  0.024252115            6 
 2635000   0.81412162   -7.1856098    772.15576  0.024419853  0.024245497            3 
 2636000   0.85356282   -7.1958973    772.62163  0.024425317  0.024238887            3 
 2637000   0.81588713   -7.1769878    772.57504  0.024414582  0.024232323            4 
 2638000   0.82869353   -7.1866904     771.7715  0.024379944  0.024225725            3 
 2639000   0.82397952   -7.1803802    771.93973  0.024376018  0.024219127            6 
 2640000   0.82771459   -7.1676715    774.52803  0.024448486  0.024212548            9 
 2641000   0.80786646   -7.1955656    772.64477  0.024379805  0.024206002            6 
 2642000   0.81706164   -7.1475301    772.79275  0.024375245  0.024199409            3 
 2643000   0.82405605   -7.1998863    773.08138  0.024375122   0.02419285            6 
 2644000   0.82188952   -7.2015515    773.20041  0.024369655  0.024186244            5 
 2645000   0.83427986   -7.1775789    774.04803  0.024387147  0.024179617            6 
 2646000   0.84464114   -7.1926811    771.48108  0.024297086  0.024172988            5 
 2647000   0.84301509   -7.1759606    774.87442  0.024394737  0.024166367            8 
 2648000   0.82758337   -7.1933636    773.91473  0.024355323   0.02415975            6 
 2649000   0.83830047   -7.1811028    773.93777  0.024346853  0.024153091            8 
 2650000   0.83146764   -7.1885068    775.90435  0.024399508  0.024146445            3 
 2651000   0.82411916   -7.1737472    774.05416  0.024332144  0.024139842            6 
 2652000   0.82832698   -7.1437427    775.90676  0.024381183  0.024133236            4 
 2653000   0.84158541   -7.2067552     775.0521  0.024345147   0.02412666           14 
 2654000   0.81609631   -7.1728668    772.25024  0.024247998  0.024120107           11 
 2655000   0.83105637   -7.2002378    775.20363  0.024331564  0.024113499            2 
 2656000   0.83036189   -7.1777022    774.88481    0.0243124  0.024106897            6 
 2657000   0.82749942    -7.161864    775.04849  0.024308383  0.024100308            5 
 2658000   0.83597357   -7.1668168    771.93331  0.024201571   0.02409372            7 
 2659000   0.83230426   -7.1849527    774.64251  0.024277376  0.024087113            3 
 2660000   0.82976126    -7.200559    773.37937  0.024228677  0.024080478            5 
 2661000   0.82875877   -7.1787243    773.83453  0.024233826  0.024073869            4 
 2662000   0.80997743   -7.1745029    774.14249  0.024234363  0.024067245            6 
 2663000   0.83376687   -7.2043363    776.52238  0.024299737  0.024060627            3 
 2664000   0.83223504   -7.1972108    774.04371  0.024213079  0.024054037            4 
 2665000    0.8134907   -7.2137518    775.32844  0.024244166  0.024047382           11 
 2666000   0.81667555   -7.1896961    775.31088  0.024234524  0.024040735            5 
 2667000   0.81538427   -7.1979845    774.05743  0.024186271  0.024034079            8 
 2668000   0.82585616   -7.1877628    775.87483  0.024233971  0.024027441            5 
 2669000    0.8309215   -7.1618551    776.67311  0.024249816  0.024020807            5 
 2670000   0.81462854   -7.1830118    773.87473  0.024153394  0.024014194            7 
 2671000   0.82799717   -7.1867113    776.03848  0.024211858  0.024007545           11 
 2672000   0.83296673    -7.196483    774.10723  0.024142566  0.024000937            5 
 2673000   0.83556549   -7.1564438    776.01205  0.024192918  0.023994323            5 
 2674000   0.81647021   -7.1810142    776.84692  0.024209889  0.023987694            5 
 2675000   0.81694391   -7.1711204    776.31491  0.024184265  0.023981068            4 
 2676000   0.84517154   -7.2011236     775.5794  0.024152323  0.023974461            3 
 2677000   0.83452732   -7.1973515      775.134  0.024129436  0.023967838            4 
 2678000   0.81105831   -7.1873128    776.54434  0.024164312  0.023961232            4 
 2679000   0.84083979   -7.1592145    775.37586  0.024118946   0.02395468            9 
 2680000   0.79528271   -7.1934155    776.56777  0.024147008  0.023948103            5 
 2681000   0.82044224   -7.2043239    775.28961  0.024098272  0.023941494            3 
 2682000   0.82465102   -7.1994152    775.60596  0.024099116  0.023934853            8 
 2683000   0.82252037   -7.2060374     776.2171  0.024109116  0.023928235            4 
 2684000   0.82387486   -7.1725749    776.00776  0.024093634  0.023921589            2 
 2685000   0.81611755   -7.1564687    776.88388  0.024111852  0.023914949            3 
 2686000   0.81747873   -7.1759325    778.74758  0.024160697  0.023908393            7 
 2687000   0.83578687    -7.210932    777.87403  0.024124613  0.023901818            7 
 2688000   0.83177168   -7.1508732    777.19816  0.024094685  0.023895232            5 
 2689000   0.80736703   -7.1730819    776.85314  0.024075032  0.023888648            5 
 2690000   0.82743231   -7.1919412    776.96643  0.024069592  0.023882039            8 
 2691000   0.83589347   -7.2024818    776.28787  0.024039634  0.023875413            4 
 2692000    0.8033568   -7.2283849    778.58781  0.024101901  0.023868819            5 
 2693000   0.83748979   -7.1856272    777.50246  0.024059366  0.023862237            5 
 2694000    0.8121661   -7.1766704    777.88417  0.024062242  0.023855634            5 
 2695000   0.82195194   -7.1754423    777.23686  0.024033298  0.023849069            8 
 2696000   0.81412233   -7.2249466    776.77701   0.02401017   0.02384249            6 
 2697000   0.83153641   -7.2239592    778.35999  0.024050179  0.023835895            5 
 2698000   0.83528788    -7.178697     777.5449  0.024016089  0.023829308            5 
 2699000   0.80989468    -7.174697    780.01931   0.02408359  0.023822787            6 
 2700000   0.83879063   -7.2045246    779.95853  0.024072794  0.023816265            6 
 2701000   0.83246697   -7.1905633     778.1054  0.024006707  0.023809742            4 
 2702000    0.8285275   -7.2161024    778.06591  0.023996605  0.023803196           13 
 2703000   0.80965606      -7.2305     777.8778  0.023981927  0.023796615            4 
 2704000   0.80063958   -7.1908561    778.66335  0.023997268  0.023790036            4 
 2705000   0.81346254   -7.2132474    778.48642  0.023982946  0.023783461            3 
 2706000    0.8249763   -7.2334506    778.86355  0.023985697  0.023776878            4 
 2707000    0.8338885   -7.2200202    778.55815  0.023967435   0.02377031            7 
 2708000   0.81902759   -7.2154661    778.02215   0.02394209  0.023763702            6 
 2709000   0.81228501   -7.2233484    778.16227  0.023937562  0.023757068           12 
 2710000   0.83725278   -7.2248862    778.53063  0.023940056  0.023750443            6 
 2711000   0.83168758   -7.1824875    778.26975  0.023923206  0.023743838            5 
 2712000   0.81459872   -7.2148771    779.73522  0.023959416  0.023737239            4 
 2713000   0.82299734   -7.2153222    779.96772  0.023957726  0.023730627            5 
 2714000   0.83070322   -7.1954548    778.78358  0.023912539  0.023724014            5 
 2715000   0.81264344   -7.2072974     778.5851   0.02389764  0.023717453            5 
 2716000   0.82310495   -7.1964452    777.20142  0.023846386  0.023710882            1 
 2717000   0.81641742   -7.1927177    777.97744  0.023861411  0.023704323            7 
 2718000   0.81829429   -7.2347168    779.06428  0.023885954  0.023697706           18 
 2719000   0.81444628     -7.21423    779.63174  0.023894561  0.023691069            5 
 2720000   0.83320485    -7.217317    777.73884  0.023827783  0.023684443            4 
 2721000   0.81898937   -7.1924477    779.80514  0.023882308  0.023677829           14 
 2722000   0.81728639   -7.1835452    779.62548  0.023868034  0.023671238            6 
 2723000   0.82537326   -7.1966781    780.35449   0.02388158  0.023664637            2 
 2724000   0.84446026   -7.2326084    780.04658  0.023863393  0.023658028            4 
 2725000   0.82380564   -7.2140052    778.69345  0.023813255  0.023651438            4 
 2726000   0.82624451     -7.21808    778.96445  0.023812804  0.023644844            5 
 2727000   0.81627149   -7.2229793    778.72364  0.023796713  0.023638216            6 
 2728000    0.8088343   -7.2553717    780.31231   0.02383652  0.023631585            4 
 2729000   0.82897142   -7.2158453    779.54254  0.023804279  0.023624922            4 
 2730000   0.80843363   -7.2096671    781.39403  0.023852077   0.02361831            5 
 2731000   0.80865904   -7.2041253    779.88842  0.023797401  0.023611753            6 
 2732000   0.83107017   -7.2364624    778.93255  0.023759534  0.023605155            7 
 2733000   0.82042312   -7.1914146    779.14977  0.023757464  0.023598569            4 
 2734000   0.81756073   -7.1935833    779.65718   0.02376424  0.023591989            9 
 2735000   0.79877041   -7.1928189    781.63444  0.023815796  0.023585383            8 
 2736000   0.80911845   -7.2162624     779.7028  0.023748258  0.023578788            4 
 2737000   0.82064575   -7.2397776    778.84879  0.023713579  0.023572162            4 
 2738000   0.80409018   -7.2200742    779.30397  0.023718772  0.023565574            5 
 2739000   0.80667951   -7.2008271    780.95149  0.023760238   0.02355898            4 
 2740000   0.80823568   -7.2146998    781.82741  0.023778206  0.023552348           14 
 2741000    0.8301988    -7.199247    780.32447  0.023723838   0.02354573            4 
 2742000   0.82101678    -7.193412    780.25069  0.023712944  0.023539156            6 
 2743000   0.80898003   -7.2289403    779.99031  0.023696388  0.023532573            3 
 2744000   0.81273939   -7.2098807    781.13121  0.023722401  0.023525952            4 
 2745000   0.81069376   -7.2326218    781.13358  0.023713831  0.023519343           10 
 2746000   0.81140467    -7.222291    781.81553   0.02372589  0.023512771            8 
 2747000   0.81315473   -7.2131483    781.90998  0.023720118  0.023506198            5 
 2748000   0.80347887   -7.2258165    782.72629  0.023736241  0.023499639            7 
 2749000   0.82478503   -7.2132222    781.35284  0.023685972  0.023493112            7 
 2750000   0.80886501   -7.2145516    781.92894  0.023694816  0.023486592            4 
 2751000   0.80895048   -7.2438241    783.51229  0.023734166  0.023480048            6 
 2752000   0.81283453   -7.2254746    782.55192  0.023696461  0.023473546            3 
 2753000   0.80979071   -7.2350315    783.42695  0.023714341  0.023467026            8 
 2754000   0.81567596   -7.2253381    784.30885  0.023732415  0.023460482            4 
 2755000   0.80401551   -7.2392376    782.26513  0.023661982  0.023453969            9 
 2756000   0.80547619   -7.2147527     782.7644  0.023668493  0.023447466            6 
 2757000   0.80839334   -7.2255353    783.16551  0.023672032  0.023440978            7 
 2758000   0.81969379   -7.2331615    782.48905   0.02364301  0.023434517            6 
 2759000   0.82981732   -7.2284727    783.73844  0.023672177  0.023428049            6 
 2760000   0.82253942   -7.2240063    785.41331   0.02371417  0.023421599           10 
 2761000   0.81574705   -7.2214147    785.27226  0.023701324  0.023415209            4 
 2762000   0.80985905   -7.2182677    786.55417  0.023731419  0.023408827            5 
 2763000    0.8293646   -7.2297217      787.027  0.023737091  0.023402427            8 
 2764000   0.81986277   -7.2330057    785.30347   0.02367654  0.023396029            5 
 2765000   0.81563368   -7.1842785    785.14944  0.023663335  0.023389638            2 
 2766000   0.79753201   -7.2198896    786.59253  0.023698257  0.023383205            3 
 2767000   0.81136405   -7.2252184    785.24848  0.023649213  0.023376783            3 
 2768000   0.80475555   -7.2345551     785.0077   0.02363342  0.023370353            6 
 2769000   0.82227076   -7.2272247    784.84809  0.023620082  0.023363942            8 
 2770000   0.79984146   -7.2375468    785.88501   0.02364275  0.023357533            4 
 2771000   0.81343301   -7.2405875    786.01677   0.02363818  0.023351138            6 
 2772000   0.81312061   -7.2295305    783.10249  0.023542042  0.023344719            5 
 2773000   0.81833198   -7.2228509    786.88522   0.02364723  0.023338334            4 
 2774000   0.80645022   -7.2173123    786.13751  0.023616243  0.023331942            1 
 2775000   0.81623372   -7.2111318    785.81521  0.023598054  0.023325585            5 
 2776000   0.80954727   -7.2083113    787.47585  0.023639405  0.023319227            6 
 2777000   0.80090921   -7.2249789    787.13594  0.023620692  0.023312848            4 
 2778000   0.82938923   -7.2357482    786.01544  0.023578577  0.023306461            5 
 2779000   0.82013735    -7.238596    786.98853  0.023599272  0.023300052            5 
 2780000   0.79059655   -7.2172715    783.94648  0.023499595  0.023293628            6 
 2781000   0.80119924   -7.2604688    786.06517  0.023554632  0.023287213           19 
 2782000   0.82202803   -7.2009724     786.0742  0.023546435  0.023280776           12 
 2783000   0.79887269   -7.1992634    786.78863  0.023559367  0.023274341            6 
 2784000   0.82915779   -7.2094626    786.81633  0.023551734  0.023267927            5 
 2785000   0.81001997   -7.2358503    786.79668   0.02354269  0.023261492            5 
 2786000   0.80445089   -7.2414584    785.60121  0.023498481  0.023255061            6 
 2787000   0.82012986   -7.2046503    787.86743  0.023557811  0.023248622            4 
 2788000    0.8089711   -7.1856182    789.09642  0.023586096  0.023242218            4 
 2789000   0.78935014   -7.2116139    786.22399  0.023491813  0.023235821            9 
 2790000    0.7830386   -7.2291736    787.40387  0.023518634  0.023229355            4 
 2791000   0.81376972   -7.2510422    786.03969  0.023469476  0.023222933            9 
 2792000   0.78966981   -7.2342404    787.03761  0.023490855  0.023216489            6 
 2793000   0.79606629   -7.2412788    786.44853  0.023464869  0.023210045            8 
 2794000   0.79002958   -7.2115046    788.50837  0.023517906  0.023203648            3 
 2795000   0.81521888   -7.2323701    787.39174    0.0234762  0.023197243            8 
 2796000   0.78896267   -7.2349972    788.00365  0.023486041  0.023190853            6 
 2797000   0.80656198   -7.2477044    787.72505  0.023469344  0.023184467            8 
 2798000   0.81038009   -7.2453419    786.96576  0.023438342  0.023178073            8 
 2799000   0.81421052   -7.2446974    786.19276  0.023406954  0.023171655           11 
 2800000   0.81942676   -7.2241517     787.0618  0.023424458  0.023165245            8 
 2801000    0.7821253     -7.20632    786.71153  0.023405675   0.02315883           11 
 2802000   0.78713479   -7.2406634    787.00186  0.023405956  0.023152436            4 
 2803000   0.82046139   -7.2391153    786.55423  0.023384298  0.023146041            5 
 2804000    0.8007566    -7.211976    788.22649  0.023425656  0.023139639            7 
 2805000   0.80317027   -7.2376869     789.2793  0.023448583  0.023133326           11 
 2806000   0.78628481   -7.2297102    788.00326   0.02340233  0.023126995            2 
 2807000   0.82408601   -7.2523693    788.05552  0.023395545  0.023120613            7 
 2808000   0.80310086   -7.2289409    787.48322  0.023370228   0.02311425            4 
 2809000   0.80780141   -7.2542137    788.72048  0.023398614  0.023107897            6 
 2810000   0.80283246   -7.2450956    790.15351  0.023432785  0.023101501            9 
 2811000   0.80951055   -7.2319028      790.208  0.023426064   0.02309516            6 
 2812000   0.80860454    -7.248599    790.49015  0.023426095  0.023088776            5 
 2813000   0.79123678   -7.2423409    790.38609  0.023414684  0.023082407           11 
 2814000   0.81775436   -7.2164617     788.0104   0.02333601  0.023076039            5 
 2815000   0.80063657   -7.2724639     789.0286  0.023357863   0.02306966            3 
 2816000   0.80103591   -7.2474377    789.30956  0.023357882  0.023063271            6 
 2817000   0.78003699   -7.2623231    787.78333  0.023304441  0.023056825            5 
 2818000   0.81375071   -7.2584867    790.82382  0.023386084  0.023050414            6 
 2819000   0.81433099   -7.2314807    787.47115  0.023278679  0.023044033            3 
 2820000   0.78866611   -7.2313934    788.97028  0.023314725  0.023037673            8 
 2821000   0.82870962   -7.2521817    790.62938   0.02335547    0.0230313            5 
 2822000   0.80355906   -7.2415631    789.74461  0.023321067  0.023024927            7 
 2823000   0.80448054    -7.242194     789.7604  0.023313272  0.023018531            2 
 2824000   0.79974092   -7.2698615    788.14781  0.023257431   0.02301214            5 
 2825000   0.80726947   -7.2561541    790.93971  0.023331555  0.023005764            8 
 2826000   0.79690656   -7.2292828    790.03678  0.023296673  0.022999416           10 
 2827000   0.80905696    -7.246701    791.08429  0.023319311  0.022993059            6 
 2828000   0.80518965   -7.2063079    790.16611  0.023284009  0.022986691            8 
 2829000   0.80918466   -7.2504154    788.77675  0.023234852  0.022980358            7 
 2830000   0.79432171   -7.2658194    790.23033  0.023269444  0.022973989            6 
 2831000   0.80146218   -7.2171358     790.7565  0.023276713  0.022967653            4 
 2832000   0.80988742   -7.2496707     791.0785  0.023277969  0.022961351            5 
 2833000   0.78602753   -7.2625482    790.86786  0.023263556  0.022955001            5 
 2834000   0.79584509    -7.259182    790.22318  0.023236391  0.022948636            5 
 2835000   0.80430562   -7.2906439    789.23155  0.023199046  0.022942272           10 
 2836000   0.79485394   -7.2332187     790.9392  0.023241044  0.022935889            4 
 2837000   0.81477042   -7.2481502    791.22503  0.023241247  0.022929563            7 
 2838000   0.80312379   -7.2617215    791.78113  0.023249387  0.022923253            6 
 2839000   0.76679043   -7.2596855    792.96797  0.023276035   0.02291691            7 
 2840000   0.79759243   -7.2358027    792.28002  0.023247653  0.022910596           11 
 2841000   0.79533618   -7.2585148    792.74715  0.023253172  0.022904309           12 
 2842000   0.79096543   -7.2437621    792.13531   0.02322705  0.022898001            5 
 2843000   0.77839098   -7.2377236    793.94314  0.023271871  0.022891716            3 
 2844000   0.79147897   -7.2366169    791.96276   0.02320566  0.022885452            6 
 2845000   0.77841182    -7.226954    793.87267  0.023253447  0.022879154            7 
 2846000   0.79324114   -7.2653485    791.91564  0.023187973  0.022872806            3 
 2847000   0.79671545   -7.2616614    790.16866  0.023128693  0.022866451            8 
 2848000   0.80677212   -7.2843245    792.95073  0.023201976  0.022860105            5 
 2849000   0.79769211   -7.2935443    791.75905  0.023158975   0.02285379            6 
 2850000   0.77795084   -7.2888461     790.8433  0.023124073  0.022847448            4 
 2851000   0.79971032   -7.2481885     791.9651  0.023148752  0.022841143            5 
 2852000   0.79634998   -7.2656576    791.64135  0.023131176  0.022834843            9 
 2853000   0.79234101   -7.2571421    792.96094  0.023161612  0.022828562            7 
 2854000   0.78477878   -7.2686729    792.54522  0.023141358  0.022822322            5 
 2855000   0.79659523   -7.2444437    793.72924  0.023167812  0.022816093            4 
 2856000    0.7914057   -7.2728357     793.0579  0.023140111  0.022809849            6 
 2857000   0.79333904      -7.2649    795.64843  0.023207573  0.022803602            4 
 2858000   0.78084113   -7.2364492    794.87719  0.023176965  0.022797413            5 
 2859000   0.80757151   -7.2524454     793.7531  0.023136094  0.022791252            4 
 2860000   0.78360326   -7.2653452    793.59515  0.023123402  0.022785042            8 
 2861000   0.78596037    -7.253415    794.30244  0.023135921  0.022778826           10 
 2862000    0.7865052   -7.2814662    793.50726  0.023104684  0.022772605            5 
 2863000   0.80198227   -7.2697589    793.79181  0.023104896  0.022766387            7 
 2864000   0.78030127   -7.2363612    795.34118  0.023141911  0.022760196            4 
 2865000   0.78938174   -7.2725625    795.16547  0.023128722  0.022753986            7 
 2866000   0.76632086   -7.2682003    795.93611   0.02314306  0.022747769           13 
 2867000   0.78819505   -7.2576911    793.59328   0.02306689  0.022741535            5 
 2868000   0.80493201   -7.2786104    794.00096  0.023070693  0.022735331           11 
 2869000   0.81698631   -7.2477186    795.91199  0.023118159  0.022729131            5 
 2870000   0.79309618   -7.2502041    794.51289   0.02306948  0.022722921            4 
 2871000   0.80267219   -7.2736508    794.92282  0.023073343  0.022716708            5 
 2872000   0.80369749   -7.2461019    796.83223  0.023120712  0.022710523            5 
 2873000   0.79468866   -7.2520906    796.35296  0.023098763  0.022704349            6 
 2874000   0.79324886   -7.2572729     795.2712   0.02305936  0.022698175            8 
 2875000   0.78855645   -7.2457924    795.42257  0.023055727  0.022691996            4 
 2876000   0.79096501   -7.2816995    796.22734  0.023071028  0.022685811           19 
 2877000   0.79712447   -7.2672391     796.4828  0.023070409  0.022679627            4 
 2878000   0.79069027   -7.2559074    796.16124  0.023053082  0.022673422            4 
 2879000    0.7819133   -7.2404414    795.03497  0.023012475   0.02266722            5 
 2880000   0.77662241    -7.290263    795.16156  0.023008147     0.022661            8 
 2881000   0.79272293   -7.2582826    796.45746  0.023037645   0.02265478            7 
 2882000   0.79564152   -7.2733476    795.18277  0.022992793  0.022648552            8 
 2883000   0.78405906   -7.2734732    795.97527  0.023007726   0.02264231           10 
 2884000   0.79028061   -7.2613721    796.07368  0.023002591  0.022636112           15 
 2885000   0.79946954   -7.2604337    797.25771  0.023028819   0.02262992            7 
 2886000   0.79276091   -7.2794692    796.94711  0.023011871  0.022623744            6 
 2887000     0.783156   -7.2701801    796.33216   0.02298615   0.02261755           12 
 2888000   0.79426258   -7.2904863    794.18053  0.022916105   0.02261134            6 
 2889000   0.80946286   -7.2789617    795.15204  0.022936196   0.02260508            8 
 2890000   0.79663689   -7.2670858    793.74157  0.022887588  0.022598832           10 
 2891000   0.78033021   -7.2619844    795.82842  0.022939825  0.022592596            7 
 2892000   0.78895885   -7.2492508    795.21847  0.022914317  0.022586389            9 
 2893000   0.79592983   -7.2719324    796.77144   0.02295113  0.022580203            5 
 2894000   0.79256893   -7.2443855    797.94586  0.022977017  0.022574019           17 
 2895000   0.78905482   -7.2629382    795.32773  0.022893717  0.022567845            7 
 2896000   0.79504262   -7.2621429    795.70469  0.022896659   0.02256167            7 
 2897000   0.80405925   -7.2663487    796.50473  0.022911769  0.022555492            5 
 2898000   0.78242449   -7.2442528    797.81413  0.022941515  0.022549325           12 
 2899000   0.78883428   -7.2655229    795.37123  0.022863379  0.022543135            4 
 2900000    0.7934368   -7.2594206     797.7352  0.022923425  0.022536941            3 
 2901000    0.7888261   -7.2705484     796.1663  0.022870456  0.022530738            7 
 2902000   0.77369229   -7.2577215    797.40137  0.022898041  0.022524552            6 
 2903000    0.7972719   -7.2509002    798.26307  0.022914889  0.022518412            4 
 2904000   0.77957725   -7.2745858    795.94906  0.022840595  0.022512295            6 
 2905000   0.80072095   -7.2697191    795.91257  0.022831686   0.02250611           11 
 2906000   0.79927058    -7.278851    797.64718  0.022873571  0.022499918            8 
 2907000   0.80008215   -7.2824723    797.76663  0.022869127  0.022493751            6 
 2908000    0.7845256   -7.2806386    797.64182  0.022857686  0.022487532           17 
 2909000   0.78343493   -7.2960878    798.59023  0.022876998  0.022481367            7 
 2910000    0.7769968    -7.281061    798.87975  0.022877427  0.022475207           10 
 2911000   0.79694916   -7.2908476     799.0123  0.022873363  0.022469103            6 
 2912000   0.77599892    -7.260346    800.11799  0.022897149  0.022462985            5 
 2913000   0.78148227    -7.279333    798.34701  0.022838626  0.022456846            6 
 2914000   0.80404497   -7.2538272    800.18772  0.022883428  0.022450737            8 
 2915000   0.80246679   -7.2647218    799.54021  0.022857067  0.022444645            4 
 2916000   0.79401578   -7.2801534    799.46514  0.022847083  0.022438523            4 
 2917000   0.78896969   -7.2950474    797.06312   0.02277063   0.02243233            5 
 2918000   0.79829664    -7.288818    797.51342  0.022775686  0.022426136            9 
 2919000   0.78107986   -7.2879883    797.66726  0.022772275  0.022419959            5 
 2920000   0.79462182   -7.2735321    799.59881  0.022819601  0.022413805            7 
 2921000   0.77512104   -7.2826141    799.23081   0.02280129  0.022407678            6 
 2922000    0.7867405   -7.2888687    799.27184  0.022794657  0.022401531            2 
 2923000   0.78033151   -7.2908072    801.39322  0.022847338  0.022395402            5 
 2924000    0.7828994   -7.2816697    800.14148   0.02280385  0.022389286           12 
 2925000   0.79983989   -7.2548448    799.35835  0.022773742  0.022383154            8 
 2926000   0.76814919   -7.2677557    800.95183  0.022811342  0.022377029            3 
 2927000   0.78667269   -7.2708118    800.50528  0.022790835  0.022370903            5 
 2928000   0.79058089     -7.25836    800.73994   0.02278973  0.022364778            7 
 2929000   0.77894659    -7.289845    800.46833  0.022774221   0.02235864            8 
 2930000   0.76603655   -7.2756265    801.08245  0.022783915  0.022352546           14 
 2931000   0.77505521   -7.2400114     799.9277   0.02274331  0.022346455            8 
 2932000   0.78766817   -7.2968259    799.16051  0.022713748  0.022340338           10 
 2933000   0.79222399   -7.2549945    800.85243  0.022754075   0.02233425            9 
 2934000   0.78689128   -7.2838372    799.88076  0.022718722  0.022328135            6 
 2935000   0.79076796   -7.2622566    801.26522   0.02275029  0.022321981            7 
 2936000   0.78189155   -7.2645955    800.56476   0.02272266  0.022315826            7 
 2937000   0.79085156   -7.2794369    799.19994  0.022676198  0.022309695            8 
 2938000   0.78994387   -7.2755411    799.90254  0.022688409  0.022303525            3 
 2939000   0.80840579   -7.2897277    800.56259  0.022699404   0.02229738            7 
 2940000   0.77746827   -7.3095457    799.95381  0.022674428  0.022291213            9 
 2941000   0.77716497   -7.2823956    799.06499  0.022641533  0.022285064            8 
 2942000   0.78484611   -7.3014513    799.96604   0.02265936  0.022278913            5 
 2943000   0.77609252   -7.2868736    799.17198  0.022629176  0.022272722            5 
 2944000   0.76826988   -7.2947857    800.52739  0.022659856  0.022266522            6 
 2945000     0.754689    -7.298175    799.73145  0.022629639  0.022260303            3 
 2946000   0.77482886   -7.3007927     801.6997  0.022677634  0.022254108            6 
 2947000   0.78856068   -7.2778322    800.77619  0.022643824  0.022247954           12 
 2948000   0.78652769   -7.2867721    800.13742  0.022618086  0.022241802            5 
 2949000   0.77569898   -7.2963302    799.29397  0.022586582  0.022235625            3 
 2950000   0.78316503   -7.2785589    799.60357  0.022587671  0.022229474            7 
 2951000   0.77699713   -7.3130053    799.97105  0.022590394  0.022223335            5 
 2952000   0.78095312   -7.2876254    802.17982  0.022645094  0.022217213            8 
 2953000   0.77086697   -7.2669381    801.23088  0.022610647  0.022211065           16 
 2954000   0.78445074   -7.3031173    800.00801  0.022568495  0.022204917            6 
 2955000   0.78434964   -7.2949625    799.84899  0.022556373  0.022198723           14 
 2956000   0.77673147   -7.3035851    798.10049   0.02249945  0.022192532            5 
 2957000   0.77338172   -7.2745398    801.46851  0.022586758  0.022186364            4 
 2958000   0.77671671    -7.285995    801.00785  0.022566144  0.022180231           12 
 2959000   0.77716571   -7.3021551    799.05556  0.022503536  0.022174082            7 
 2960000   0.78861772   -7.2786868    802.00539  0.022578981  0.022167915            5 
 2961000   0.77580487   -7.2728623    802.41759  0.022582956   0.02216181            9 
 2962000   0.78149143   -7.3055236    800.68724   0.02252665  0.022155689           12 
 2963000   0.77643368     -7.32482    799.41337   0.02248322  0.022149527            8 
 2964000   0.78370916   -7.2952201    802.25642  0.022555567  0.022143363           11 
 2965000   0.77362327   -7.3124464    800.21921  0.022490703  0.022137201           16 
 2966000   0.79126942   -7.3145197     801.0817  0.022507353  0.022131043            6 
 2967000   0.79044643   -7.2990889    798.93137  0.022439371  0.022124866            5 
 2968000   0.75748619   -7.2994101    800.48723  0.022475495  0.022118686            4 
 2969000   0.77396724   -7.2961595    801.17036  0.022487099  0.022112527            5 
 2970000   0.76338549   -7.2653716    801.38555  0.022485565  0.022106389            4 
 2971000   0.78710942   -7.2984864    799.80891  0.022433774  0.022100263            4 
 2972000   0.77853622   -7.2725005    800.91991  0.022457378  0.022094112            7 
 2973000   0.77367464   -7.2870526    803.98829  0.022535831  0.022088017            7 
 2974000   0.77203551   -7.2663776    803.34526  0.022510235  0.022081941            7 
 2975000   0.79331236   -7.3050957    803.32284   0.02250204   0.02207584            6 
 2976000   0.81283073    -7.297884    802.91707  0.022483117  0.022069719            7 
 2977000     0.784535   -7.3149605    801.92912   0.02244791  0.022063625            6 
 2978000   0.75996576   -7.3190088    803.28394  0.022478284  0.022057521            6 
 2979000   0.76240205   -7.2900351    803.27796  0.022470571  0.022051423            6 
 2980000   0.77757357   -7.2815695    803.23219   0.02246175  0.022045331            7 
 2981000   0.77725458   -7.3054012    801.98875  0.022419455  0.022039243            4 
 2982000   0.77502026   -7.3028368    803.89807  0.022465294  0.022033135            5 
 2983000   0.78883709   -7.3103185    802.78317  0.022426617  0.022027017            5 
 2984000   0.77558395   -7.3006682    801.25269   0.02237636   0.02202088            8 
 2985000   0.77382743   -7.3024223    801.49631  0.022375665  0.022014746            7 
 2986000   0.77959629   -7.2940518    802.29824  0.022390552  0.022008607            5 
 2987000   0.75765964   -7.3225064    802.14989  0.022378917  0.022002459            5 
 2988000    0.7869124   -7.2780392    802.05146  0.022368682  0.021996312            4 
 2989000   0.76270417   -7.2961279     805.0791  0.022445609  0.021990169            3 
 2990000   0.76759414   -7.3129669    801.31004  0.022333056  0.021984029            5 
 2991000   0.77862218   -7.3181885    803.56966  0.022388545  0.021977881           10 
 2992000   0.76807496   -7.2902285    804.04435  0.022394283  0.021971761            5 
 2993000   0.78462713   -7.2984477    804.19087  0.022390881  0.021965659            5 
 2994000   0.76722286   -7.2979592    804.66868  0.022396701  0.021959542            6 
 2995000   0.76583983   -7.3235765     802.9256  0.022340723  0.021953423            4 
 2996000    0.7715714   -7.3212984    803.57707  0.022351387  0.021947322            7 
 2997000    0.7577566   -7.3120982    802.14308  0.022304056  0.021941193            4 
 2998000   0.75150006   -7.3022527    802.42608  0.022304483  0.021935046            5 
 2999000   0.77263151   -7.3259653    801.71088  0.022277172  0.021928911           11 
 3000000   0.74718886   -7.3453385    802.16434  0.022282343  0.021922746           19 
 3001000   0.77156396   -7.3414179    804.84239  0.022349283  0.021916626           16 
 3002000   0.77333023   -7.2903699     804.1042  0.022321347  0.021910519           10 
 3003000   0.76608951   -7.2821435    803.99627  0.022310919  0.021904443            8 
 3004000   0.76307695   -7.2925538    803.79342  0.022297864  0.021898349            8 
 3005000    0.7860829   -7.3100656    802.57861  0.022256756  0.021892259            5 
 3006000   0.75598521   -7.2967118     803.7147  0.022280847  0.021886159            5 
 3007000   0.77085491    -7.330229    801.80393  0.022220484  0.021880031            6 
 3008000   0.78429788   -7.3039153    805.26797  0.022309064  0.021873923            5 
 3009000   0.76176426   -7.3172023    804.92158  0.022292057  0.021867825            6 
 3010000   0.76000401   -7.3191548    802.80824  0.022226142   0.02186171           11 
 3011000   0.76897995    -7.317064    804.97614   0.02227876  0.021855578            5 
 3012000   0.78543026   -7.3480421    802.39418  0.022199928  0.021849456           12 
 3013000   0.77895589   -7.3107268    803.45973   0.02222203  0.021843354            4 
 3014000   0.76922566   -7.3051116    803.78133  0.022223549  0.021837262            8 
 3015000     0.754619   -7.3101468    805.68647  0.022268836  0.021831152            4 
 3016000   0.77851943   -7.3061148    804.65569  0.022232971  0.021825077            7 
 3017000   0.76047757   -7.3253418    804.49027  0.022221033  0.021819008            3 
 3018000   0.77186884   -7.3002147     805.1025  0.022230575   0.02181291            5 
 3019000   0.77232349   -7.3197814    804.37106  0.022203021  0.021806829            9 
 3020000   0.76601558   -7.3199988    803.31464  0.022166519  0.021800754            5 
 3021000   0.76300759   -7.3280485    804.40163  0.022189165  0.021794667            7 
 3022000    0.7704097    -7.298098     806.0423  0.022227065   0.02178862            5 
 3023000   0.76765377   -7.3235947    806.18261  0.022223581  0.021782546            6 
 3024000     0.765984   -7.3013753    803.84527  0.022151821   0.02177652           10 
 3025000   0.77268824   -7.3181122    806.19115  0.022209123   0.02177048            7 
 3026000   0.77288535   -7.2986125    805.51131  0.022183061   0.02176442            5 
 3027000   0.76653274   -7.3353478    803.94777  0.022132688  0.021758352            6 
 3028000   0.76717051   -7.3216378    803.79604  0.022121203  0.021752264            3 
 3029000   0.76154476   -7.3286188     805.5492  0.022162133  0.021746197            3 
 3030000   0.75695119   -7.2946352     805.1169  0.022142929  0.021740158            4 
 3031000   0.77115947   -7.3231163    806.00452  0.022160028  0.021734116            3 
 3032000   0.77979589   -7.3031845    806.55117  0.022167743  0.021728061            9 
 3033000   0.74422045   -7.3294184    805.35083  0.022127454  0.021721994            9 
 3034000   0.75600462   -7.3060849    805.64989  0.022128375  0.021715917           10 
 3035000   0.76441194    -7.337922    806.46713  0.022143524  0.021709855            5 
 3036000   0.77270892   -7.3347922    805.14064   0.02209982  0.021703784            7 
 3037000   0.77446654   -7.3081244    805.73923  0.022108968  0.021697691           12 
 3038000   0.76159065   -7.3127547    807.25783  0.022143346   0.02169161            4 
 3039000   0.77761717   -7.3625672    805.27704  0.022081744  0.021685537            4 
 3040000   0.76321709   -7.3019142    808.60008  0.022165572  0.021679451            9 
 3041000    0.7538144   -7.3084493    803.05874  0.022006433  0.021673364            5 
 3042000   0.76371038   -7.3140036    806.51579  0.022093902  0.021667308            6 
 3043000   0.76811977   -7.3322607    805.61065  0.022061854  0.021661238            7 
 3044000    0.7562524   -7.2943139    805.55493  0.022053081  0.021655167            7 
 3045000   0.78246991   -7.3342475    806.63863  0.022075496  0.021649105            9 
 3046000   0.76783949   -7.3375812      805.611  0.022040135  0.021643006            6 
 3047000   0.77381807   -7.3305824    807.15985  0.022075261  0.021636877            5 
 3048000   0.75047296   -7.3072777    806.52059  0.022050541  0.021630807           11 
 3049000   0.77141812   -7.3147551    805.05447  0.022003238  0.021624736            4 
 3050000   0.77818926   -7.3525037    806.18162   0.02202682   0.02161868            4 
 3051000   0.77818406   -7.3407742    806.57045  0.022030221  0.021612594            5 
 3052000   0.77414918   -7.3249912    806.06254  0.022009134  0.021606528            3 
 3053000    0.7674328   -7.3347107     805.1879  0.021978052  0.021600463            3 
 3054000   0.75714484   -7.3252252    805.28918  0.021973619  0.021594386            3 
 3055000   0.76037796   -7.3370958    806.91333  0.022010729  0.021588327            5 
 3056000   0.77641705   -7.3332112    807.67496  0.022024295   0.02158228            8 
 3057000   0.75142721   -7.3378295    806.52274  0.021985682  0.021576225            5 
 3058000   0.77083228   -7.3295173    807.33108   0.02200052  0.021570145            6 
 3059000   0.76662453   -7.3157128    808.05621  0.022013082  0.021564111            9 
 3060000   0.76870748   -7.3393443    808.28305  0.022012066  0.021558051           11 
 3061000   0.76326455   -7.3427263    806.53104  0.021957177  0.021552008            4 
 3062000   0.78417805   -7.3084759    809.17234   0.02202189  0.021545977            6 
 3063000   0.74578779   -7.3291203    806.75179  0.021948846  0.021539935            4 
 3064000   0.75167735   -7.3113602    807.39665  0.021959221  0.021533893            4 
 3065000   0.73341604   -7.3181297    807.74326  0.021961481  0.021527846            8 
 3066000   0.77078601   -7.3304755    808.31151  0.021969763  0.021521813            7 
 3067000   0.76908146   -7.3276285    807.17355   0.02193168  0.021515764            8 
 3068000   0.76848197   -7.3574595    808.03662  0.021947974  0.021509719            7 
 3069000   0.75515592   -7.3575302    807.90137   0.02193715  0.021503662            4 
 3070000   0.76208865   -7.3273987    808.32647  0.021941544  0.021497611            6 
 3071000   0.76538993   -7.3200067     809.0333  0.021953579  0.021491571            6 
 3072000   0.75945892   -7.3197828    808.81068  0.021940394  0.021485548            8 
 3073000   0.74058951   -7.3547373    807.66048  0.021902063  0.021479517            4 
 3074000   0.76354297   -7.3201855    808.13305  0.021907749  0.021473485            6 
 3075000   0.77551627   -7.3434597    808.78849  0.021918387  0.021467456            9 
 3076000   0.74867038   -7.3220083    807.80268  0.021884555   0.02146142            4 
 3077000   0.73915616   -7.3344522    809.09677   0.02191249  0.021455389            5 
 3078000   0.73800553   -7.3390305     809.2385  0.021909208  0.021449364            5 
 3079000   0.75434319   -7.3163809     807.8342  0.021864085  0.021443355            5 
 3080000   0.75892342   -7.3169657    808.77178  0.021882353  0.021437381            4 
 3081000   0.76328636   -7.3565826    807.49788  0.021840795  0.021431347            7 
 3082000   0.74249796   -7.3514144    809.49372  0.021887674  0.021425297           14 
 3083000   0.75632662   -7.3323009    807.85565  0.021836297  0.021419261           11 
 3084000   0.75481788   -7.3486574     808.9435  0.021858612  0.021413233           26 
 3085000   0.75985815    -7.319599     809.5824  0.021868785  0.021407213           14 
 3086000   0.77149133   -7.3267329    808.31754  0.021827542  0.021401189            6 
 3087000   0.76038315   -7.3211509    810.61769  0.021882564  0.021395166           13 
 3088000   0.76810819   -7.3389596    809.80603  0.021853574  0.021389156            6 
 3089000   0.76289077   -7.3566817    810.18846  0.021856816  0.021383146            6 
 3090000     0.758531   -7.3429492    809.54544  0.021832401  0.021377118            9 
 3091000   0.74625329   -7.3223664    808.05821  0.021785242  0.021371132            6 
 3092000   0.75268753   -7.3218911    809.80937  0.021825393  0.021365133            5 
 3093000   0.76024713   -7.3202226     810.7034  0.021842424  0.021359184           10 
 3094000   0.75193033   -7.3102308    810.47976  0.021829341  0.021353228            7 
 3095000   0.75677393   -7.3411964    809.65071  0.021799965  0.021347259            9 
 3096000   0.75766089   -7.3328472    808.90072  0.021772737  0.021341283            8 
 3097000    0.7576469   -7.3048682    809.97976  0.021794741  0.021335318            5 
 3098000   0.76053623   -7.3117839    810.56225  0.021803374  0.021329358            5 
 3099000   0.76786102   -7.3369716    809.86624  0.021777623  0.021323387            7 
 3100000   0.76442644   -7.3298761    809.91295  0.021771853  0.021317395            4 
 3101000   0.76259025   -7.3238609    811.39328  0.021804614  0.021311434            4 
 3102000     0.772215   -7.3113671    808.85188  0.021729311  0.021305482            5 
 3103000   0.76890503   -7.3172915    810.44836  0.021765183   0.02129951            6 
 3104000   0.75447796   -7.3045163    810.77191  0.021766857  0.021293566            3 
 3105000   0.76002253   -7.3470123    809.15573  0.021716472  0.021287637            7 
 3106000   0.75915642   -7.3504135    812.01294  0.021786138  0.021281677            6 
 3107000   0.75684267   -7.3466185    811.02016  0.021752499  0.021275715            4 
 3108000   0.76322937   -7.3441004    809.69187  0.021709885  0.021269718            3 
 3109000   0.75114738   -7.3374936    809.94145  0.021709592  0.021263743            3 
 3110000   0.77072928   -7.3419253    810.67409  0.021722243   0.02125776            8 
 3111000   0.75261951   -7.3751051    808.85419  0.021666511  0.021251781           12 
 3112000   0.74595153   -7.3353546    808.71078  0.021655709  0.021245804           11 
 3113000   0.75448175   -7.3284616    809.98564  0.021682879  0.021239829           10 
 3114000   0.76808912   -7.3368244    810.52485  0.021690346  0.021233854            4 
 3115000   0.74270504   -7.3418024    810.34989  0.021678702  0.021227918            8 
 3116000   0.76389723   -7.3230885    810.67554  0.021680454  0.021221954           14 
 3117000   0.77403064   -7.3928169    810.56543  0.021670555  0.021216005           10 
 3118000   0.74981226   -7.3318905    812.60244  0.021718047  0.021210064            8 
 3119000     0.752865   -7.3528729    808.77169  0.021608734  0.021204108           12 
 3120000   0.78483142   -7.3357285    812.47613  0.021700751  0.021198173           12 
 3121000   0.74724289   -7.3880905    811.20307  0.021659806  0.021192246           11 
 3122000   0.75270649   -7.3492769    810.94329  0.021645934  0.021186304            7 
 3123000    0.7504207   -7.3415267    810.60512   0.02162998  0.021180355           14 
 3124000   0.74944598   -7.3298036    812.02723  0.021660991  0.021174432           11 
 3125000   0.75085847   -7.3103872    808.90888  0.021570904  0.021168508           12 
 3126000   0.74030138   -7.3373971    812.68534  0.021664676  0.021162594            4 
 3127000   0.74653167   -7.3463629    813.54341  0.021680615  0.021156643            7 
 3128000   0.75509194    -7.361678    812.70437  0.021651331   0.02115071           11 
 3129000   0.76858919   -7.3484389    811.43977  0.021610732  0.021144787           14 
 3130000   0.75331509    -7.359939    810.56865  0.021580635  0.021138797            5 
 3131000   0.76029349   -7.3397597    810.77874  0.021579334  0.021132837            3 
 3132000   0.75293178   -7.3547521    812.79732  0.021626153  0.021126884            3 
 3133000   0.76958091   -7.3433624    812.07048  0.021599917  0.021120947           11 
 3134000   0.76289469   -7.3453928    811.14957  0.021568538  0.021114988            5 
 3135000   0.75769183   -7.3707356    811.19014  0.021562736  0.021109021            7 
 3136000   0.76084766   -7.3460521    811.52694   0.02156481  0.021103064           20 
 3137000   0.74757102   -7.3488102    813.64839  0.021614292  0.021097113            8 
 3138000    0.7464964   -7.3502101    812.76864  0.021584041  0.021091194           20 
 3139000   0.75277321   -7.3434466    813.35038  0.021592609  0.021085263            4 
 3140000   0.76246117   -7.3649731    812.35179   0.02155923  0.021079318           10 
 3141000   0.75560154   -7.3644002    812.72195  0.021562187  0.021073417            8 
 3142000   0.74153463   -7.3548016    812.39288  0.021546597   0.02106752            9 
 3143000   0.74324659   -7.3606626    811.35648  0.021512262  0.021061612            6 
 3144000   0.76510549   -7.3399046    812.96184  0.021547971  0.021055708            8 
 3145000   0.75343971   -7.3408895    815.09594  0.021597667  0.021049825            5 
 3146000   0.74037303   -7.3547426    813.80658  0.021556648  0.021043956           10 
 3147000   0.74929518   -7.3721641      811.994  0.021501801   0.02103807            4 
 3148000   0.73383917   -7.3576605    812.70523  0.021513798  0.021032204            6 
 3149000   0.74142322   -7.3656531    813.50895  0.021528235  0.021026324            7 
 3150000   0.74904186   -7.3380339    814.25928  0.021541251  0.021020474            4 
 3151000   0.75759556   -7.3674693    812.32771  0.021483331  0.021014598            6 
 3152000   0.73977292   -7.3920617    813.65099    0.0215115  0.021008741            6 
 3153000   0.75378912   -7.3737961     813.0149  0.021487866  0.021002872            6 
 3154000   0.73248107   -7.3573194    813.39097  0.021490989  0.020997008            5 
 3155000   0.74799742   -7.3465744    814.14186  0.021504011  0.020991145            4 
 3156000   0.74585698    -7.347314    812.55515  0.021455301  0.020985276           13 
 3157000   0.74427623   -7.3691677    813.18677  0.021465177  0.020979385            6 
 3158000   0.76117359   -7.3542896     812.9316  0.021451647  0.020973505            7 
 3159000   0.75762192   -7.3442142     812.8357  0.021442326  0.020967634            6 
 3160000   0.75317571   -7.3282142    815.21129  0.021498188  0.020961753            5 
 3161000   0.74262365   -7.3974174    814.38969  0.021469727  0.020955875            7 
 3162000   0.74180298   -7.3839695    813.62209  0.021442707  0.020949941           11 
 3163000   0.75681611   -7.3596769    814.06012  0.021447469  0.020944012           10 
 3164000   0.75834996    -7.368563    813.25856  0.021419579  0.020938081            8 
 3165000   0.74250237   -7.3619489    812.08488  0.021381908   0.02093215           12 
 3166000   0.72518312    -7.356204    813.14617  0.021403089  0.020926259            6 
 3167000   0.73143429   -7.3629037    815.65737  0.021462408  0.020920376            6 
 3168000   0.73983994    -7.361379    814.34454    0.0214211  0.020914497           12 
 3169000   0.74719761   -7.3620611    812.84625  0.021374941  0.020908569            7 
 3170000    0.7517501   -7.3613076    814.21678  0.021404227  0.020902634            4 
 3171000   0.74704505   -7.3667717    813.71601  0.021384316  0.020896731            2 
 3172000   0.75821152   -7.3700305    812.96545  0.021357856  0.020890822            7 
 3173000   0.74452749   -7.3492038    813.31343  0.021360264  0.020884903           10 
 3174000   0.75196729   -7.3594209    813.02933  0.021346076     0.020879            4 
 3175000   0.73040902   -7.3756884    812.65241   0.02132946   0.02087308            7 
 3176000   0.73449163   -7.3656932    813.61355  0.021347962  0.020867194            6 
 3177000   0.75586081   -7.3626319    813.58014  0.021340367   0.02086128            9 
 3178000   0.74849165   -7.3735423    812.66256  0.021309591   0.02085538           14 
 3179000   0.75005662   -7.3597478    815.40113  0.021374676  0.020849489            8 
 3180000   0.75606711   -7.3481414    813.21056  0.021310549  0.020843569            5 
 3181000   0.74396264   -7.3811775    811.88267  0.021269063  0.020837641           12 
 3182000   0.73284085    -7.361241    813.11805  0.021294732  0.020831711           13 
 3183000   0.74186424   -7.3543746    815.05512  0.021338756  0.020825832            6 
 3184000   0.74209618   -7.3583101    813.92854  0.021302569  0.020819956           10 
 3185000   0.74521609   -7.3636509    815.20848  0.021329369  0.020814064           12 
 3186000   0.74745378   -7.3709968     813.1001  0.021267527  0.020808156           10 
 3187000    0.7438622   -7.3645937    814.53132  0.021298277   0.02080227            5 
 3188000   0.74824312    -7.390549    813.96638  0.021276829  0.020796378           15 
 3189000    0.7271132   -7.3786287    813.76818  0.021264978  0.020790473           12 
 3190000   0.74179279   -7.3518029    813.54474  0.021252475  0.020784579           28 
 3191000   0.74461302   -7.3555408    813.75598  0.021251331  0.020778681            7 
 3192000   0.75541763   -7.4093638    812.20914   0.02120429  0.020772787           11 
 3193000   0.74750575   -7.3959743    814.24822  0.021250867  0.020766876           11 
 3194000   0.74887938   -7.3764402    815.23595  0.021269984  0.020761002           13 
 3195000   0.74145076   -7.3812482    815.08552  0.021259403  0.020755155            7 
 3196000   0.74645323    -7.363937    816.10826  0.021279419  0.020749328            4 
 3197000   0.74074357   -7.3687739    816.20393  0.021275256  0.020743498            4 
 3198000   0.75544041    -7.361787    814.93869  0.021235634   0.02073768            7 
 3199000   0.73737952   -7.3395671    815.02025   0.02123112  0.020731858            3 
 3200000   0.73684426   -7.3859543    814.53499  0.021211849  0.020726031            4 
 3201000   0.73301741   -7.3886784    816.97257  0.021268681  0.020720185            6 
 3202000   0.72965291   -7.3756845    816.16721  0.021241079  0.020714367            4 
 3203000   0.75174949   -7.3577968    815.47539  0.021216448  0.020708549            5 
 3204000   0.72411608   -7.3714921    815.16669  0.021201797  0.020702704           11 
 3205000   0.75104302   -7.3729186    815.96646  0.021215977    0.0206969            9 
 3206000   0.74465941   -7.3772502    817.58655   0.02125147  0.020691108            5 
 3207000   0.74878756   -7.3852714    818.03089  0.021256389  0.020685293            5 
 3208000   0.74931383   -7.3639425    814.72308  0.021163837  0.020679492            8 
 3209000   0.74600145   -7.3556954    816.52874  0.021204133  0.020673673            5 
 3210000   0.74254449   -7.3941218    815.52524  0.021171475  0.020667876            5 
 3211000   0.74423952   -7.3945842    817.92116  0.021227062  0.020662102            8 
 3212000   0.73512834   -7.3862528    817.22142  0.021202299  0.020656305            6 
 3213000   0.73833649   -7.4025483    815.40733  0.021148649  0.020650526           10 
 3214000   0.73515374   -7.3798754    816.98999  0.021183105  0.020644755            7 
 3215000   0.73280382   -7.3504974    817.89462  0.021199964  0.020639005            4 
 3216000   0.73829326   -7.3577191    817.90843   0.02119373  0.020633239           11 
 3217000   0.73274301   -7.3829647    816.29704    0.0211454  0.020627486            8 
 3218000   0.73743121   -7.3976564     817.3492  0.021166076  0.020621701            4 
 3219000   0.75197256   -7.3491746    818.54126  0.021190361  0.020615953            8 
 3220000   0.74415008   -7.3408877    818.73947   0.02118891   0.02061021            8 
 3221000   0.75760092   -7.3694009    816.37226  0.021121087  0.020604455           13 
 3222000   0.74681107   -7.3722133    816.54522  0.021119005  0.020598706            7 
 3223000   0.71682262   -7.3538682    817.96614  0.021149192  0.020592971            8 
 3224000   0.75137562   -7.3796882    815.68674  0.021083714  0.020587225           10 
 3225000   0.73713993   -7.3874013    816.83439  0.021106832  0.020581454            5 
 3226000   0.72821884   -7.3973435    817.59585  0.021119959   0.02057568            4 
 3227000   0.73978168   -7.4115192    816.29887  0.021079921  0.020569903            5 
 3228000   0.73091102   -7.3858782    816.90854   0.02108913  0.020564128            8 
 3229000    0.7254254   -7.3670728    816.34674    0.0210681  0.020558362            9 
 3230000   0.74537921   -7.3514884    817.66429   0.02109557  0.020552628            6 
 3231000    0.7398954   -7.4000726    818.07696  0.021099684  0.020546881            6 
 3232000   0.73628405   -7.3711984    818.79628  0.021111703   0.02054112           12 
 3233000   0.74008538   -7.3944935    818.79174  0.021105056  0.020535392           11 
 3234000   0.73543502   -7.4159043    817.26712  0.021059243  0.020529625            4 
 3235000   0.73857349   -7.3703648    818.22495  0.021077407  0.020523872            8 
 3236000    0.7431913   -7.3825565    820.47862   0.02112893  0.020518151           11 
 3237000   0.74432081   -7.3830021    818.89156  0.021081546  0.020512417           12 
 3238000   0.73212063   -7.3830603    819.50332  0.021090779  0.020506712            9 
 3239000   0.73250128   -7.3575339    818.11095  0.021048445  0.020500978            8 
 3240000   0.73588623    -7.398283    818.25421  0.021045633  0.020495249           13 
 3241000   0.75085144   -7.3801241    819.32188  0.021066592  0.020489518            8 
 3242000   0.71819964   -7.4024297    818.38646  0.021036049  0.020483777           10 
 3243000   0.73016149   -7.4137676    819.21511  0.021050856  0.020478027           11 
 3244000   0.73098387   -7.3984975    818.28497  0.021020473  0.020472284           13 
 3245000   0.72017516   -7.3958741    818.71826  0.021025122  0.020466523           11 
 3246000   0.72855943   -7.3919971    816.84236  0.020970486  0.020460764            9 
 3247000   0.73772632    -7.380825      819.079   0.02102143  0.020455034            4 
 3248000   0.73534817   -7.4102778    819.20151  0.021018101  0.020449288            8 
 3249000   0.74324803   -7.4384261    818.88978  0.021003637  0.020443541            7 
 3250000    0.7395065   -7.3590797    820.08921  0.021027929  0.020437798            9 
 3251000   0.73190033   -7.3928397    819.92891  0.021017351  0.020432074           11 
 3252000   0.73958728   -7.3882118     818.7775  0.020981383  0.020426351            8 
 3253000    0.7353298   -7.3939711    819.15876    0.0209847  0.020420629            7 
 3254000   0.74763144   -7.3663048    820.36763   0.02100921  0.020414911            8 
 3255000   0.72792998   -7.4057423    818.87503  0.020964542  0.020409208           14 
 3256000   0.74330124   -7.3936451    820.63881  0.021003246  0.020403505            9 
 3257000   0.71742713   -7.4002806    818.19044  0.020934153  0.020397793            9 
 3258000   0.73334118   -7.3673568    818.88564  0.020945509  0.020392078           11 
 3259000     0.726877   -7.3856305    820.21609  0.020973102  0.020386369           10 
 3260000   0.72174456   -7.3893126    818.35227  0.020919025  0.020380657           10 
 3261000   0.73485871   -7.4089133    820.32721  0.020963079  0.020374908            8 
 3262000   0.73816424   -7.3965646    818.78819  0.020917336  0.020369161           12 
 3263000   0.73258926   -7.3839223    820.26955  0.020948757  0.020363439           13 
 3264000   0.72776192   -7.3854432    820.56164  0.020949797  0.020357714           23 
 3265000   0.72700355   -7.3641442    819.92808   0.02092721  0.020351983            6 
 3266000   0.73790832   -7.3704886     818.4127  0.020882137  0.020346287            8 
 3267000   0.74019496   -7.3931119    819.77942  0.020910607  0.020340572            6 
 3268000   0.73273179   -7.3787273    821.35911   0.02094449  0.020334867            5 
 3269000    0.7217561   -7.3705781    820.82946  0.020924581  0.020329178            8 
 3270000    0.7246048   -7.4083317    820.63073  0.020913117    0.0203235            5 
 3271000   0.73358883   -7.3986276    819.28792  0.020872514  0.020317783           11 
 3272000    0.7137074   -7.4111512    818.91086  0.020856532  0.020312043            6 
 3273000   0.73386592   -7.3731006    821.09504   0.02090577  0.020306327            7 
 3274000   0.73015292   -7.4083687    820.80194  0.020891925  0.020300632           11 
 3275000   0.71069979   -7.3809493    820.39705  0.020875243  0.020294936           10 
 3276000   0.72196386   -7.4269374    819.73663  0.020852071  0.020289232            7 
 3277000   0.73594236   -7.3825887    819.91973  0.020850365  0.020283515           20 
 3278000   0.72449758   -7.3995045    819.63285  0.020836711  0.020277785            5 
 3279000   0.73205701   -7.3798932    818.62752  0.020804806  0.020272054           17 
 3280000   0.72503072   -7.4214545    820.36531  0.020842614  0.020266327            7 
 3281000   0.72873429   -7.4037073    819.70854  0.020819581  0.020260595            9 
 3282000   0.72326088   -7.3957541    819.51633  0.020808357  0.020254862           10 
 3283000   0.73067754   -7.4203945    819.50494   0.02080173   0.02024913            7 
 3284000   0.72809635   -7.4309702    821.42725  0.020844175  0.020243409           13 
 3285000    0.7505335   -7.4272997    820.66445  0.020818479  0.020237673            8 
 3286000   0.73519744   -7.3976206    821.07539  0.020822565  0.020231965            4 
 3287000   0.71501706   -7.4207913     820.1233  0.020792093  0.020226257           10 
 3288000   0.74185296   -7.4128133    820.31551   0.02079064  0.020220533            7 
 3289000   0.72287166   -7.3830802    820.95338  0.020800481  0.020214826            5 
 3290000   0.71655426    -7.411703    820.27692  0.020777024  0.020209119            7 
 3291000   0.70756069   -7.4200754    820.95367  0.020787847  0.020203393            6 
 3292000   0.72386764   -7.4139286    819.33229  0.020740489  0.020197688            6 
 3293000   0.72126098   -7.3929971    821.52107  0.020789581  0.020191973           18 
 3294000   0.72227162   -7.3755369    820.77054  0.020764282  0.020186278            9 
 3295000   0.71098423   -7.3875337    821.28651   0.02077103  0.020180583           23 
 3296000    0.7285486   -7.4219904    819.58588   0.02072173  0.020174863           21 
 3297000    0.7218398   -7.4248178    818.90058  0.020698124  0.020169142            9 
 3298000   0.73270458   -7.4444275    819.92468  0.020717725  0.020163409           10 
 3299000     0.721736   -7.4183263    822.40004  0.020773973  0.020157663            7 
 3300000   0.72195725   -7.3931102    818.87955  0.020678776  0.020151923           12 
 3301000   0.71246025   -7.4377558    820.07908  0.020702794    0.0201462            6 
 3302000    0.7085633   -7.4132951    819.72187  0.020687509  0.020140453            7 
 3303000   0.72509152   -7.4427924    820.10712  0.020690966  0.020134711           11 
 3304000   0.70988791   -7.4457196    819.32152  0.020664889  0.020128952           18 
 3305000    0.7258466   -7.4258371    818.97784  0.020649971  0.020123173           12 
 3306000   0.71987012   -7.4206872    819.04294  0.020645365  0.020117387            7 
 3307000   0.71605846   -7.4200374    819.95338  0.020662065   0.02011163            8 
 3308000   0.72442938    -7.442265    819.30265  0.020639426  0.020105855           11 
 3309000   0.71932374   -7.4365339    817.85074  0.020596624  0.020100102           14 
 3310000   0.72221785   -7.4417343    818.18971  0.020598935  0.020094329            6 
 3311000   0.72240909   -7.4354944    818.76154  0.020607106   0.02008857            6 
 3312000   0.72889886    -7.410506    820.20063  0.020637093  0.020082818            6 
 3313000   0.71929336   -7.3786568    819.84578  0.020621938  0.020077067            4 
 3314000    0.7252409    -7.417683    818.99646  0.020594359  0.020071355            5 
 3315000   0.72156355   -7.3934701    819.07067  0.020590012  0.020065656           11 
 3316000   0.71905083   -7.4155078    820.35131  0.020615986   0.02005993           10 
 3317000   0.71944301   -7.4111014    819.32353  0.020583949  0.020054196           11 
 3318000   0.70357002   -7.4301896    818.81906  0.020565076   0.02004845            7 
 3319000   0.73494805   -7.4039245    822.09436  0.020641116  0.020042726            8 
 3320000   0.71029498   -7.3819914    818.50926  0.020544911  0.020036998            5 
 3321000   0.72338723   -7.4064985    821.62638  0.020616942  0.020031269            5 
 3322000   0.70128782   -7.3978016    819.39043  0.020554646  0.020025527           11 
 3323000   0.71521495   -7.4286304    819.64996  0.020554969  0.020019782           12 
 3324000   0.72837241   -7.4247652    820.90681  0.020580295  0.020014053            7 
 3325000   0.72650967   -7.4300707    820.20148  0.020556428  0.020008346            7 
 3326000   0.72552509   -7.4493712    819.40634  0.020530325  0.020002625            7 
 3327000   0.71587973   -7.4221329    820.04953  0.020540265  0.019996892           15 
 3328000   0.72257496   -7.4412351    821.38946  0.020567645  0.019991169           13 
 3329000   0.71381616   -7.4301242    820.48842  0.020538911   0.01998545            8 
 3330000   0.71533133    -7.406871    821.14097  0.020549073  0.019979722            4 
 3331000   0.72456764   -7.4151345    820.68177  0.020531416  0.019973997            4 
 3332000   0.71733813   -7.3895441    822.08892  0.020560447  0.019968303            6 
 3333000   0.72067107   -7.4360988    819.06489   0.02047867  0.019962608           10 
 3334000   0.71832842   -7.4471805    820.01655  0.020496314  0.019956896            7 
 3335000   0.71434689   -7.4274367    821.86989  0.020536479  0.019951188            7 
 3336000   0.72509019   -7.4371139     821.4126    0.0205189  0.019945471            5 
 3337000   0.74274407   -7.4265811    821.16971  0.020506685  0.019939777            9 
 3338000   0.70773122   -7.4205982    820.79834  0.020491271  0.019934093           11 
 3339000   0.73513466   -7.4235186    822.76303  0.020534168  0.019928422            7 
 3340000   0.73081962   -7.4077669    823.42097  0.020544435  0.019922755           14 
 3341000   0.70913176   -7.4071351    823.21797  0.020533223  0.019917105            6 
 3342000   0.73208043   -7.4343743    820.93196  0.020470077  0.019911442           14 
 3343000   0.72044719   -7.4393876     820.6879   0.02045787  0.019905795            9 
 3344000   0.71664998   -7.4080669    821.73238   0.02047778  0.019900124           20 
 3345000   0.72257624   -7.4501001    822.24876  0.020484523  0.019894456           28 
 3346000   0.71538021   -7.4368276    822.58087  0.020486672  0.019888806           30 
 3347000   0.72152362   -7.4443787    821.75456  0.020459978  0.019883137           18 
 3348000    0.7127156    -7.406416    822.41879    0.0204704  0.019877469           24 
 3349000    0.7173948   -7.4427092     821.7924  0.020448701  0.019871822           13 
 3350000   0.71704932   -7.4465183     822.7528  0.020466488   0.01986615           10 
 3351000   0.73132256   -7.4478506    820.77749  0.020411258  0.019860462            8 
 3352000   0.71290339   -7.4483892    820.41354   0.02039612  0.019854767           11 
 3353000   0.72215267   -7.4314348    821.89347  0.020426818  0.019849081           14 
 3354000   0.72244482   -7.4289331    822.73815  0.020441715  0.019843408           18 
 3355000    0.7209647   -7.4026018    820.87474  0.020389338  0.019837726            8 
 3356000    0.7144894   -7.4467804    822.46051  0.020422639  0.019832065           29 
 3357000   0.70760839    -7.433443    822.45356  0.020416383  0.019826372           14 
 3358000   0.71009892   -7.4299177    822.95471  0.020422739    0.0198207           10 
 3359000   0.72766402   -7.4317647    821.80707  0.020388188  0.019815033           11 
 3360000   0.72297457   -7.4077394    821.58033  0.020376496  0.019809377            6 
 3361000   0.72496675   -7.4340535    822.27771  0.020387725  0.019803724            6 
 3362000   0.71199168   -7.4519523    820.37581  0.020334518  0.019798071            8 
 3363000   0.70892089   -7.4434461    821.72095  0.020361804  0.019792412            6 
 3364000   0.71143204   -7.4277553    821.67881  0.020354707  0.019786742            4 
 3365000    0.7139487   -7.4287227    823.45059  0.020392536  0.019781073            8 
 3366000   0.70920932   -7.4175552    821.65434  0.020342007  0.019775405            8 
 3367000   0.71597421   -7.4253708    823.94506  0.020392661  0.019769728            9 
 3368000   0.71501474   -7.4402315    822.52089  0.020351368  0.019764042            5 
 3369000   0.71929518   -7.4567349     822.4276   0.02034302  0.019758365            7 
 3370000   0.70238714   -7.4297426    821.79042  0.020321227  0.019752678           11 
 3371000   0.69885212   -7.4561236    821.54684  0.020309177  0.019746989            6 
 3372000    0.7130483   -7.4537506     823.2076  0.020344197   0.01974132           22 
 3373000   0.70298096   -7.4585695    822.31431  0.020316096  0.019735644           23 
 3374000   0.71432945   -7.3980623    820.68489   0.02026983  0.019729961           10 
 3375000   0.71135867   -7.4307278    821.84563  0.020292485  0.019724288           17 
 3376000   0.71706122   -7.4411868    820.69242  0.020258008  0.019718593            9 
 3377000   0.71410458   -7.4361692    822.54045  0.020297613  0.019712933            8 
 3378000   0.71109328   -7.4571032    822.49808  0.020290558   0.01970727            7 
 3379000   0.72783223   -7.4136031    822.07761  0.020274184  0.019701606            6 
 3380000   0.71548538   -7.4347547      822.511  0.020278871   0.01969596            7 
 3381000   0.70928751   -7.4599019    824.25022   0.02031574    0.0196903            9 
 3382000   0.71376284   -7.4070362    822.34148  0.020262702  0.019684633           19 
 3383000   0.71506705   -7.4398402    822.87778  0.020269923  0.019678961           37 
 3384000   0.71511163   -7.4625722    823.70881  0.020284397    0.0196733           55 
 3385000   0.72149381   -7.4458628     824.1594  0.020289498  0.019667646           27 
 3386000   0.69177148   -7.4547386    822.73053  0.020248339  0.019661994           12 
 3387000    0.7158401   -7.4567794    822.44766  0.020235401  0.019656334           10 
 3388000    0.7089449   -7.4373544    824.21328  0.020272857  0.019650666            9 
 3389000   0.70783812   -7.4379451    822.59376  0.020227052  0.019645011            6 
 3390000   0.68832426   -7.4145271    822.13293  0.020209757  0.019639383            5 
 3391000   0.72245713    -7.430903    822.70475   0.02021785  0.019633734            8 
 3392000   0.70870092   -7.4254329    823.08341  0.020221192  0.019628071           15 
 3393000   0.71702269   -7.4484486       824.09  0.020239955  0.019622404            6 
 3394000   0.71294338   -7.4441734    822.70045  0.020199873  0.019616722           20 
 3395000   0.72409082    -7.467473    821.27104  0.020158838  0.019611029           10 
 3396000   0.71673861    -7.455822    821.15564   0.02015007  0.019605331           17 
 3397000   0.70148421   -7.4525819    820.82958  0.020136139  0.019599634           13 
 3398000    0.7147304   -7.4414052    820.13505  0.020113181  0.019593944            8 
 3399000   0.71016992   -7.4469707    821.75979  0.020147097  0.019588254            7 
 3400000   0.70451284   -7.4665209    822.45475  0.020158205  0.019582569            9 
 3401000   0.71062856   -7.4558815    820.54768  0.020105549  0.019576884            8 
 3402000   0.70217304   -7.4460968    822.31716  0.020142984  0.019571199            5 
 3403000     0.710769   -7.4558085    822.13365  0.020132571  0.019565525            8 
 3404000   0.69090508   -7.4601157    822.23704  0.020129187  0.019559837            5 
 3405000   0.71619956   -7.4584208    822.83903  0.020138008  0.019554157            9 
 3406000   0.70303106   -7.4563113    821.57195  0.020101095  0.019548479            7 
 3407000    0.7107666    -7.427542    820.49974  0.020068969  0.019542809           10 
 3408000   0.68924804   -7.4274738     822.3422  0.020108133  0.019537171           23 
 3409000   0.69595818   -7.4445361    821.63769  0.020085013  0.019531502            7 
 3410000    0.7063366   -7.4658756    821.16582  0.020067591  0.019525829            8 
 3411000   0.71223189   -7.4550409    822.54699  0.020095451  0.019520166            9 
 3412000   0.70297575   -7.4366854     825.2079   0.02015455  0.019514503            8 
 3413000   0.71867473   -7.4485889     822.2964  0.020077556  0.019508826           11 
 3414000   0.70790295   -7.4196328    822.69406  0.020081382   0.01950317            9 
 3415000   0.70070678   -7.4529331    823.30761  0.020090474  0.019497532           11 
 3416000   0.69969552   -7.4270841     823.3415  0.020085419  0.019491915           16 
 3417000   0.71320983    -7.446914    822.24358  0.020052765  0.019486272           12 
 3418000   0.69549433   -7.4866968    823.13615   0.02006866  0.019480604            7 
 3419000   0.70152853   -7.4308911    822.75629  0.020053532  0.019474957            8 
 3420000   0.69355017    -7.436636    822.49938  0.020041408  0.019469325           16 
 3421000   0.70945207   -7.4242153     822.9607  0.020046787  0.019463683            7 
 3422000   0.71391658   -7.4375048    822.59631  0.020032055  0.019458058           15 
 3423000   0.70348895   -7.4385076    822.43715  0.020022328  0.019452416           16 
 3424000    0.6981346   -7.4033615    823.77478  0.020049036  0.019446795            8 
 3425000   0.70137866   -7.4441607    821.71047  0.019992956  0.019441173           14 
 3426000   0.70542864   -7.4429967    823.49759  0.020030589  0.019435544           10 
 3427000   0.70881903   -7.4445142     823.1031  0.020015152  0.019429921            6 
 3428000    0.7025131   -7.4458294    823.30267  0.020014165  0.019424285            9 
 3429000   0.71404865   -7.4417048    822.37085  0.019985682  0.019418671           10 
 3430000   0.70000875   -7.4637273    823.16729  0.019999205  0.019413037            5 
 3431000   0.72173994   -7.4737738    823.08387   0.01999135  0.019407396            5 
 3432000   0.67973702   -7.4773118    821.65045   0.01995072  0.019401735           12 
 3433000   0.69901928    -7.461007    823.55086   0.01999104   0.01939609            8 
 3434000   0.69334865   -7.4593089    822.68527  0.019964213   0.01939044            6 
 3435000   0.71373285   -7.4543961    823.92323  0.019988433  0.019384793            7 
 3436000   0.70243968   -7.4905206    823.55137  0.019973597  0.019379158            7 
 3437000   0.69837215   -7.4431679    823.75382  0.019972695  0.019373535           10 
 3438000   0.71558354   -7.4460868    823.63974   0.01996412   0.01936793            8 
 3439000   0.68641756   -7.4548475    823.06309  0.019944342  0.019362298            9 
 3440000   0.69567235   -7.4708418    823.44668  0.019947836  0.019356663           11 
 3441000   0.70694478   -7.4769151    821.56333  0.019896429  0.019351023            4 
 3442000    0.7114185   -7.4576927    823.52444  0.019938128  0.019345367            9 
 3443000    0.6857148    -7.481323    823.83131  0.019939764  0.019339729           10 
 3444000   0.71006322   -7.4506187    824.56275  0.019951673   0.01933412            5 
 3445000   0.69877276   -7.4655301    824.57633   0.01994621   0.01932852            7 
 3446000   0.70130282   -7.4500267    823.50659  0.019914553  0.019322923            5 
 3447000   0.69083241   -7.4626908    825.44675   0.01995568  0.019317326           14 
 3448000   0.69224505     -7.44754    824.09859  0.019917309  0.019311709            7 
 3449000   0.69747707   -7.4855669    824.97232  0.019932645  0.019306084            4 
 3450000   0.69314243   -7.4660127    823.72372  0.019896708  0.019300458            6 
 3451000   0.71556658   -7.4861595    822.20473  0.019854263  0.019294841            9 
 3452000   0.69727757   -7.4779491    824.97391  0.019915361  0.019289229           10 
 3453000   0.68792175   -7.4749602    823.03867  0.019862889  0.019283597            4 
 3454000   0.68340137   -7.4693963    822.61957  0.019847027  0.019277964           13 
 3455000   0.70626881   -7.4526915    822.25111  0.019832395  0.019272327            7 
 3456000   0.68761305   -7.4604518    824.07525  0.019870642   0.01926669           16 
 3457000   0.70600778   -7.4939551    822.78503  0.019833792  0.019261045            9 
 3458000   0.68678418   -7.4706539    824.23041  0.019862888  0.019255403           12 
 3459000   0.72402661   -7.4560947    825.10639   0.01987825  0.019249765            6 
 3460000   0.70294191   -7.4678885    822.18045  0.019802034  0.019244135           12 
 3461000   0.70680098   -7.4546502    823.49238  0.019827901  0.019238507            7 
 3462000   0.69189261   -7.4806201     822.8296   0.01980622  0.019232879            7 
 3463000   0.70823553   -7.4618957    822.36267  0.019789264  0.019227256            7 
 3464000   0.71862182   -7.4594269     824.1094  0.019825573   0.01922164            8 
 3465000   0.69941196   -7.5015103    824.21906  0.019822488  0.019216016           18 
 3466000   0.69651244   -7.4829909    822.81235  0.019782947   0.01921039           10 
 3467000   0.69050318   -7.4673006     822.5274  0.019770392  0.019204783            9 
 3468000   0.70123771   -7.4725173    823.24472  0.019781928  0.019199176           13 
 3469000   0.69770706      -7.4761    821.10574  0.019724842  0.019193552           15 
 3470000   0.69698302   -7.4624069    823.09645  0.019766966  0.019187933            8 
 3471000   0.70159102   -7.4552458    824.67008  0.019799051  0.019182328            8 
 3472000   0.69833587   -7.4658431    825.08315  0.019803263   0.01917675            9 
 3473000   0.69136102   -7.4762306     825.2947  0.019802637  0.019171163            7 
 3474000    0.6970762   -7.4812981    825.53302  0.019802654  0.019165579            7 
 3475000   0.72142233   -7.4656903    824.86845  0.019781018  0.019160012           14 
 3476000    0.6820809   -7.4757666    825.55024  0.019791672  0.019154443            8 
 3477000   0.71097087   -7.4540078    824.15812  0.019752615  0.019148887            6 
 3478000   0.70461404   -7.4555122    824.71534  0.019760287  0.019143347            5 
 3479000   0.69502912   -7.4442933    824.81485  0.019756991  0.019137798            8 
 3480000   0.70451023   -7.4437658    824.72754  0.019749223  0.019132253            7 
 3481000   0.70932419   -7.4636362    826.23275  0.019779583  0.019126711           11 
 3482000   0.68299733   -7.4795585    825.19786  0.019749135  0.019121167            6 
 3483000   0.69521937    -7.465789    824.35961  0.019723409  0.019115612            9 
 3484000   0.70385513    -7.456878    825.74221  0.019750818  0.019110066            4 
 3485000   0.70092595   -7.4829822    824.11064  0.019706137  0.019104529            9 
 3486000   0.69299312   -7.4648173    826.32607  0.019753444  0.019098993           10 
 3487000   0.70315746   -7.4707676    827.44231  0.019774455  0.019093462            3 
 3488000   0.69722224   -7.4677721    826.54905  0.019747445  0.019087931            4 
 3489000   0.70074822   -7.4751559    825.88147   0.01972584  0.019082396            5 
 3490000   0.70578049   -7.4616419    826.16717   0.01972701  0.019076851            6 
 3491000   0.67840712   -7.4902922    824.96893  0.019692756  0.019071328            5 
 3492000   0.69212994   -7.4862986    824.87816   0.01968495  0.019065792            7 
 3493000   0.69689414   -7.4804741    825.85083   0.01970252  0.019060257            8 
 3494000   0.69743438   -7.5057947    825.24056  0.019682326  0.019054718            5 
 3495000   0.68333975   -7.4745674    825.93052  0.019693146  0.019049176            7 
 3496000   0.69406934    -7.462252    823.97649  0.019640935  0.019043606           10 
 3497000   0.69560011   -7.4868954    824.46564  0.019646974  0.019038051           12 
 3498000   0.68347428   -7.4752503    823.87056  0.019627181  0.019032504            4 
 3499000   0.69102721   -7.4956495    824.32342  0.019632357  0.019026951            4 
 3500000   0.69884164   -7.4664959    824.84699  0.019639214  0.019021394            7 
 3501000   0.69517979   -7.5007657    824.77986  0.019632007  0.019015835            5 
 3502000   0.68860619   -7.4653134    825.18059  0.019635936  0.019010276            3 
 3503000   0.70894822   -7.5037655    824.79915  0.019621257   0.01900472            9 
 3504000   0.70211952   -7.4727163     825.1533   0.01962408  0.018999169            7 
 3505000   0.70096467   -7.4642204    826.22311  0.019643916  0.018993604            6 
 3506000   0.69252043   -7.4943591    823.74594  0.019579434  0.018988051            9 
 3507000   0.67876879   -7.4826939    827.24111  0.019656903  0.018982514           11 
 3508000   0.69370799   -7.4791484    825.84057  0.019618029  0.018976982           10 
 3509000   0.70079572   -7.4656122    825.31745  0.019600016  0.018971432           43 
 3510000   0.70679149   -7.4714457    826.53916  0.019623437  0.018965891           11 
 3511000   0.70037858    -7.486767    824.96996  0.019580603  0.018960368           14 
 3512000   0.68638031   -7.4833262    824.19234  0.019556576  0.018954838            8 
 3513000   0.67530683   -7.4816582    823.77742  0.019541167  0.018949283           10 
 3514000   0.69597538   -7.4771252     825.6388  0.019579748  0.018943738           10 
 3515000   0.68943538   -7.4827128    823.69718  0.019528146  0.018938189           13 
 3516000   0.69786925   -7.4666095    824.07797  0.019531617   0.01893265           10 
 3517000   0.68406556   -7.5007004    824.84621  0.019544266  0.018927094            9 
 3518000    0.6887585   -7.4781046    824.40641  0.019528293  0.018921539           30 
 3519000   0.68325254   -7.4574826    823.68741  0.019505717  0.018916008            7 
 3520000   0.70192213   -7.4717937    827.47595  0.019589866   0.01891049           10 
 3521000   0.68302684   -7.4982613    826.22263  0.019554639  0.018904943           10 
 3522000     0.672441   -7.5198472    824.91002   0.01951803  0.018899391            7 
 3523000   0.69158516   -7.4756637    825.36048  0.019523145  0.018893838            5 
 3524000   0.68079465   -7.4968346    825.96979  0.019532013  0.018888305            7 
 3525000   0.67506239   -7.5045965    825.47219  0.019514709  0.018882748           20 
 3526000   0.69418989   -7.4898317    825.72387  0.019515123  0.018877175           16 
 3527000   0.67112838   -7.5027562    823.01429   0.01944557  0.018871612           16 
 3528000   0.69665215   -7.4870467     826.1835  0.019514916  0.018866053            4 
 3529000   0.69249194   -7.4942199     825.4824  0.019492831  0.018860509            5 
 3530000   0.68034261   -7.4856672     825.0155  0.019476286  0.018854961            8 
 3531000   0.69911859   -7.4877363    825.14724   0.01947388  0.018849397           14 
 3532000   0.67941573   -7.4952113     824.9582  0.019463906  0.018843827           10 
 3533000   0.66688969   -7.4621664    825.18042  0.019463639  0.018838261            5 
 3534000   0.69341299    -7.493785    826.19429  0.019482039  0.018832703            5 
 3535000   0.68468275   -7.4990181    825.04389  0.019449408  0.018827136            5 
 3536000    0.6886906   -7.4547228    827.18976   0.01949448   0.01882159            5 
 3537000   0.67693198   -7.5073854    824.94612  0.019436107  0.018816043            6 
 3538000   0.68936791   -7.4699911    825.76318  0.019449858  0.018810501            5 
 3539000   0.68252019   -7.4768451    824.78117  0.019421239  0.018804968           10 
 3540000   0.68548518    -7.481083    825.68742  0.019437086  0.018799439            6 
 3541000   0.67360852   -7.5087569    826.94169  0.019461115  0.018793897            6 
 3542000   0.67283337    -7.480603    825.25487  0.019415934  0.018788356            4 
 3543000   0.69586507    -7.485143    823.98197  0.019380515  0.018782839           10 
 3544000    0.6904348   -7.4918755    824.79456  0.019394154  0.018777307            4 
 3545000   0.68669917   -7.4791428    826.02955  0.019417714  0.018771771            8 
 3546000   0.68810822   -7.4869536    825.22035  0.019393221  0.018766222           13 
 3547000   0.68348704   -7.4780453    823.29859  0.019342604  0.018760665            7 
 3548000   0.67767317   -7.4929874    824.27761  0.019360147  0.018755109           12 
 3549000    0.6909428   -7.5163842    824.62756  0.019362909  0.018749545           17 
 3550000   0.67628809   -7.4961308    823.15126    0.0193228   0.01874398           11 
 3551000   0.68900929   -7.4968459    823.77895  0.019332088  0.018738412           11 
 3552000   0.67130647   -7.5025744    824.37207  0.019340561  0.018732845           12 
 3553000   0.67974617   -7.5149263    823.91646  0.019324432  0.018727285           11 
 3554000   0.68665597   -7.5116107    825.41259  0.019354075  0.018721713           10 
 3555000   0.68399901   -7.5054554    824.59088  0.019329369   0.01871613           13 
 3556000   0.68423943   -7.5096514    824.04255  0.019311083  0.018710549            9 
 3557000   0.67612991   -7.4956243    823.06832   0.01928283  0.018704986           17 
 3558000   0.69243827   -7.5199033    824.60838  0.019313481  0.018699417           31 
 3559000   0.68059448    -7.516254    823.07308  0.019272105  0.018693827           16 
 3560000   0.69711165   -7.5235265     822.3603  0.019250007  0.018688261           29 
 3561000   0.70353843   -7.5173041    824.07676  0.019284769  0.018682682           27 
 3562000   0.67823909   -7.5161375    823.45189  0.019264736  0.018677121            8 
 3563000   0.68321796   -7.5158399    825.46279  0.019306361  0.018671571           10 
 3564000     0.684501   -7.5145936    825.83451  0.019309636  0.018666009            9 
 3565000   0.65927929   -7.5150046    823.70333  0.019254402  0.018660458           21 
 3566000   0.67505612   -7.5269213     825.2488  0.019285119  0.018654915           13 
 3567000   0.66317519   -7.5216019    823.55691  0.019240186  0.018649369           11 
 3568000   0.68191274   -7.5497565    823.43088   0.01923185   0.01864381           15 
 3569000   0.66737582   -7.5154941     824.8836  0.019260381  0.018638266           14 
 3570000   0.70059764    -7.499189    825.79826  0.019276337  0.018632746           10 
 3571000   0.67531886   -7.5284091    825.28946  0.019259065  0.018627222           21 
 3572000   0.68486264   -7.5149384    826.75498  0.019287863  0.018621701           18 
 3573000   0.69469522   -7.5140861    825.42758  0.019251506  0.018616191           17 
 3574000   0.69336894   -7.5233072    824.70558  0.019229285  0.018610669           16 
 3575000   0.66918642    -7.539189     825.2035  0.019235513   0.01860516           34 
 3576000    0.6849167   -7.5327541    825.57576  0.019238809  0.018599645           22 
 3577000   0.69058175   -7.5142349    825.24481   0.01922572  0.018594122           14 
 3578000   0.68059026   -7.5138068    824.85596   0.01921129  0.018588607           21 
 3579000   0.66850996   -7.5076749    825.70933  0.019225792  0.018583077           33 
 3580000   0.68967983   -7.4863367    825.55027   0.01921672  0.018577572           17 
 3581000   0.69179799   -7.5115997    826.07772  0.019223627  0.018572071           10 
 3582000   0.68975107   -7.5224443    826.28242  0.019223023  0.018566547            9 
 3583000   0.68413486   -7.5120351    824.04168  0.019165543   0.01856101           20 
 3584000   0.69094329   -7.5131488    824.21166  0.019164148  0.018555481           19 
 3585000   0.67699908   -7.5283206    823.83346  0.019150011  0.018549945           13 
 3586000   0.67303179    -7.522033    823.37838  0.019134095  0.018544423           16 
 3587000   0.68090426   -7.5270036    823.49311  0.019131426   0.01853889           23 
 3588000    0.6898716   -7.5305793    824.14698  0.019141281  0.018533352           19 
 3589000   0.68625785   -7.5183779    824.68003  0.019148324  0.018527807           21 
 3590000    0.6758515   -7.5416604    824.29347  0.019134017  0.018522293           20 
 3591000   0.67268724   -7.4920858    827.14859  0.019194945  0.018516781           11 
 3592000   0.66853619   -7.4824952    825.59432  0.019153543  0.018511268           12 
 3593000   0.67653519   -7.4879821    823.48766  0.019099352  0.018505739           14 
 3594000   0.68266153   -7.5119806    824.50729   0.01911768  0.018500225            8 
 3595000   0.66310758   -7.5226961    826.12509  0.019149863  0.018494708           19 
 3596000   0.67327205   -7.5345022    825.52487  0.019130628  0.018489197           11 
 3597000   0.68145071   -7.5064096    825.81787  0.019132098  0.018483705           17 
 3598000   0.67186097   -7.5114005    823.87157  0.019081702  0.018478197           13 
 3599000   0.67551564   -7.5072836    825.48875  0.019113845  0.018472686           15 
 3600000    0.6701118   -7.5339926    822.75579  0.019045273  0.018467164           11 
 3601000     0.675914   -7.5154794    823.86534  0.019065661  0.018461631           14 
 3602000   0.67075171   -7.5066287    824.69233  0.019079501  0.018456105            3 
 3603000   0.67502705     -7.49934    824.51315  0.019070061  0.018450589           21 
 3604000   0.68146246    -7.516903    824.50102  0.019064489  0.018445083           17 
 3605000   0.69449848    -7.531183    824.91791  0.019068838  0.018439576           15 
 3606000   0.68535795   -7.5182083    825.62905  0.019079984  0.018434086           30 
 3607000   0.67265294   -7.5123653    827.39509  0.019115495    0.0184286            7 
 3608000   0.67760251   -7.5076743    825.42157  0.019064615  0.018423131            7 
 3609000   0.68134259   -7.5258959    825.40473  0.019058944  0.018417646            4 
 3610000   0.67789712   -7.5132646    825.45621  0.019054853  0.018412158            9 
 3611000   0.67300095   -7.5295434    824.87346  0.019036127  0.018406677           16 
 3612000   0.67444935   -7.5321009    825.13499  0.019036891   0.01840119           18 
 3613000   0.68418317   -7.5193715    824.72745  0.019022222  0.018395702           19 
 3614000   0.66945741   -7.5375445    825.32682  0.019030779  0.018390223           46 
 3615000   0.67729477   -7.5388362    824.87314  0.019015056   0.01838472           16 
 3616000   0.65830264   -7.5291556    827.41124   0.01906829  0.018379216           11 
 3617000    0.6583102   -7.5204541    825.86768  0.019027455  0.018373714           38 
 3618000   0.66545281   -7.5156282    824.83925  0.018998509   0.01836822           17 
 3619000   0.68923252   -7.5339935    825.06106  0.018998366  0.018362724           36 
 3620000   0.66587405   -7.5242248    823.37637  0.018954336  0.018357215           41 
 3621000   0.65048445   -7.5099733    826.55453  0.019022244  0.018351719           27 
 3622000   0.68008689   -7.5089777    826.37099  0.019012769  0.018346225           31 
 3623000   0.66376544   -7.5268438    824.90698  0.018973847  0.018340748           12 
 3624000   0.67886338   -7.5362165    824.64516  0.018962591  0.018335258           24 
 3625000   0.67317097   -7.5166464    826.60495  0.019002413  0.018329779           36 
 3626000   0.66334282    -7.521973    823.25109  0.018920093  0.018324302           26 
 3627000   0.67199682   -7.5039821     825.4443  0.018965267  0.018318818           32 
 3628000   0.67054933   -7.5348008    823.28355  0.018910409  0.018313315           27 
 3629000   0.66491138   -7.5331311    824.49446  0.018933004  0.018307824           25 
 3630000   0.66428916   -7.5511695    824.69936  0.018932492   0.01830233           22 
 3631000   0.66293253   -7.5370873    824.17037  0.018915137  0.018296838           16 
 3632000   0.66729526   -7.5127857    825.58217  0.018942322  0.018291334           17 
 3633000   0.67090141   -7.5629553    823.51368  0.018889662  0.018285832           17 
 3634000   0.67212596   -7.5318831    825.66893  0.018933887  0.018280323            8 
 3635000   0.66968902   -7.5476804    825.31447  0.018920552   0.01827482           12 
 3636000   0.67781485   -7.5297966    824.51014  0.018896914  0.018269338           10 
 3637000   0.67070856   -7.5362854    824.40522  0.018889314  0.018263855            9 
 3638000   0.66561821   -7.5241773    824.71888  0.018891307  0.018258385            5 
 3639000   0.68331275   -7.5423602      824.692    0.0188855  0.018252909           13 
 3640000    0.6744573   -7.5472186    825.32888  0.018894892  0.018247439           14 
 3641000   0.67035354   -7.5459513    826.01922  0.018905503  0.018241961            9 
 3642000   0.65244122   -7.5300754    826.08379  0.018901789  0.018236505            9 
 3643000   0.67278499    -7.525382    826.11454  0.018897304  0.018231052           14 
 3644000   0.66346664   -7.5248073    826.14088   0.01889272  0.018225582           16 
 3645000   0.67429149   -7.5456102     826.2818  0.018890759  0.018220114           10 
 3646000   0.65913307   -7.5428088    824.63521  0.018847943  0.018214648           20 
 3647000    0.6879848   -7.5316953    826.24009  0.018879446  0.018209188            6 
 3648000   0.65750992   -7.5727842    825.74885  0.018863049  0.018203725           10 
 3649000    0.6725714   -7.5496148    823.63054  0.018809503  0.018198254           13 
 3650000   0.67089551    -7.547044    825.31741  0.018842863   0.01819278            8 
 3651000   0.66004445   -7.5580159    824.30668  0.018814632  0.018187307           17 
 3652000   0.65955719   -7.5359699     826.3574  0.018856275   0.01818184           16 
 3653000   0.65898723   -7.5600315    826.11362  0.018845552  0.018176375           15 
 3654000   0.65784856   -7.5455734    824.91655  0.018813094   0.01817091           11 
 3655000   0.65851647   -7.5424189    826.60218  0.018846379  0.018165452           14 
 3656000   0.65406711   -7.5538153    825.36234  0.018812964  0.018160004            5 
 3657000   0.65883385   -7.5551588    825.11666  0.018802221  0.018154541            9 
 3658000   0.66529064   -7.5612727    823.73567   0.01876562  0.018149083           10 
 3659000   0.66873956   -7.5475753    824.84092  0.018785664  0.018143619           10 
 3660000   0.66793974   -7.5672483    826.48945  0.018818066  0.018138173           12 
 3661000   0.67423522   -7.5501312    826.25867  0.018807672  0.018132735           10 
 3662000    0.6755172   -7.5516012    825.08002  0.018775715  0.018127311           13 
 3663000   0.65365378   -7.5251903    826.50975  0.018803116  0.018121882           15 
 3664000   0.65985418   -7.5213699    826.72686  0.018802922  0.018116453           15 
 3665000   0.66915226   -7.5611828    826.15868  0.018784872  0.018111029           16 
 3666000   0.67660753   -7.5233859    827.67087  0.018814122  0.018105607           19 
 3667000   0.66421357   -7.5449677    824.38713  0.018734368  0.018100197           13 
 3668000   0.66379233   -7.5575676    827.49089  0.018799775  0.018094773            8 
 3669000   0.66404908   -7.5571028    827.05336  0.018784713  0.018089359           11 
 3670000   0.65121969   -7.5355638    827.54937  0.018790858  0.018083941            7 
 3671000   0.66740192   -7.5344951    826.39247  0.018759477  0.018078533           22 
 3672000   0.68099701   -7.5211096    826.08226  0.018747328   0.01807315           16 
 3673000   0.65142288   -7.5195946    826.14561  0.018743661  0.018067748            8 
 3674000   0.66787942   -7.5486972    826.62446  0.018749421  0.018062359           11 
 3675000   0.64999125   -7.5380748    828.52145  0.018787335  0.018056958           11 
 3676000   0.66839062   -7.5613975    825.54304  0.018714704  0.018051567            7 
 3677000   0.66496628   -7.5563389    826.39745  0.018728979  0.018046169            7 
 3678000   0.68234789   -7.5604147    827.20513  0.018742186  0.018040786           16 
 3679000   0.66750113    -7.522479     827.4157  0.018741861  0.018035412           15 
 3680000   0.66656971   -7.5282123    826.47689  0.018715509  0.018030034            6 
 3681000   0.66017397   -7.5141745    826.12018   0.01870235  0.018024663           20 
 3682000   0.66680879   -7.5496843    827.33507  0.018724766  0.018019312            8 
 3683000   0.66360823   -7.5493818    826.44395  0.018699519  0.018013942            9 
 3684000   0.67215718   -7.5502757    826.00297  0.018684468  0.018008565           10 
 3685000   0.65269996   -7.5596324    827.42317  0.018711515  0.018003193            9 
 3686000   0.65210603   -7.5405449    829.35934  0.018750211  0.017997826           10 
 3687000   0.66888221   -7.5499805    827.19984  0.018696317  0.017992444           29 
 3688000   0.66903301   -7.5768812    826.33839  0.018671782   0.01798704           14 
 3689000   0.66118585   -7.5593582    826.28267  0.018665462   0.01798165           14 
 3690000   0.67654535   -7.5580154    826.45448  0.018664284  0.017976251           10 
 3691000   0.65794299   -7.5508933     826.3373  0.018656581  0.017970863            6 
 3692000   0.65924663   -7.5584092    826.32419  0.018651232  0.017965473           12 
 3693000   0.67247947   -7.5632386    827.29595   0.01866811  0.017960099            8 
 3694000   0.66725432   -7.5773973    828.39332  0.018687812  0.017954718           11 
 3695000   0.65916263   -7.5775887    826.19808  0.018633245  0.017949353           13 
 3696000   0.66265755   -7.5578296    826.73406  0.018640288  0.017943999           19 
 3697000   0.65842725   -7.5543411    827.94145  0.018662462   0.01793864           15 
 3698000   0.66304788   -7.5630224    825.85021   0.01861029  0.017933283           16 
 3699000   0.66223729   -7.5426525    827.57227  0.018644054  0.017927946           12 
 3700000   0.66375499   -7.5772238    828.18585  0.018652835  0.017922589           11 
 3701000   0.64582195   -7.5666577    826.27036  0.018604665  0.017917228           10 
 3702000   0.65668559   -7.6039044    825.32203  0.018578292  0.017911874           21 
 3703000   0.65807355   -7.5552019    829.71263  0.018672082  0.017906531           16 
 3704000    0.6692687    -7.564949     826.0746  0.018585192  0.017901199           10 
 3705000   0.66538224   -7.5537091    827.10477  0.018603346  0.017895853           15 
 3706000   0.66977739   -7.5625486    827.41492    0.0186053  0.017890516           19 
 3707000   0.66072415   -7.5544815     826.9244  0.018589254   0.01788517            8 
 3708000   0.66664436   -7.5630385    826.85395  0.018582658  0.017879818           15 
 3709000   0.65173133   -7.5749243    826.84536  0.018577455  0.017874463           11 
 3710000   0.65545791   -7.5711412    827.10493  0.018578278   0.01786911           11 
 3711000   0.65760197   -7.5543614    824.91877   0.01852418  0.017863751           12 
 3712000   0.66159853   -7.5609215    826.01802  0.018543867  0.017858382           12 
 3713000   0.66366674   -7.5699099    826.18865  0.018542702  0.017853008           12 
 3714000   0.66138711   -7.5817141    825.66195  0.018525892  0.017847644           17 
 3715000   0.65116428   -7.5604614     828.1324  0.018576321  0.017842283            7 
 3716000   0.65546692   -7.5768493    826.48319  0.018534338  0.017836925           16 
 3717000   0.66888465   -7.5725762    826.83825  0.018537312  0.017831574           10 
 3718000   0.66085885   -7.5701935    826.94868  0.018534801  0.017826207           18 
 3719000   0.64780942   -7.5633128    828.26253  0.018559257  0.017820865           22 
 3720000   0.66622907    -7.546263    826.83337  0.018522253  0.017815516            9 
 3721000   0.64915411   -7.5563832    827.42793  0.018530591  0.017810171           11 
 3722000    0.6379291   -7.5618036    828.20719  0.018543059  0.017804817            7 
 3723000   0.64686844   -7.5806908     827.4817  0.018521839  0.017799467           12 
 3724000   0.67509717   -7.5474086    827.11666  0.018508697  0.017794126            5 
 3725000   0.64950729   -7.5546929    827.39388   0.01850993  0.017788798            5 
 3726000   0.65546298    -7.554554    827.92167  0.018516767  0.017783472           10 
 3727000   0.65185437   -7.5286619    826.97129  0.018490549   0.01777815            9 
 3728000   0.65124163    -7.573699    827.32964  0.018493599  0.017772821           20 
 3729000   0.64621216   -7.5423868    828.43698  0.018513386  0.017767486           10 
 3730000   0.64244792   -7.5670887    828.19816  0.018503087   0.01776217           16 
 3731000   0.63750366   -7.5512256    827.43999  0.018481193  0.017756857            8 
 3732000   0.63465094   -7.5658439    828.29547  0.018495344  0.017751541           11 
 3733000   0.65378807   -7.5641921    827.30618  0.018468305   0.01774622           11 
 3734000   0.65562635   -7.5728642    827.62725  0.018470524  0.017740897            9 
 3735000   0.65579443   -7.5916355    827.78643   0.01846913  0.017735581            7 
 3736000   0.65442723   -7.5628849    827.49906  0.018457777  0.017730257           10 
 3737000   0.66072044   -7.5246757    827.07849  0.018443459  0.017724958           12 
 3738000   0.65984313   -7.5487187    827.64727  0.018451205  0.017719654            6 
 3739000   0.64169161   -7.5513633     826.9294  0.018430271  0.017714354           10 
 3740000    0.6491022   -7.5671495    829.27492  0.018477605  0.017709054           13 
 3741000   0.64720585   -7.5578105    827.98089   0.01844384  0.017703762            9 
 3742000   0.66255469   -7.5896814    827.90638  0.018437252  0.017698486           13 
 3743000   0.65654082   -7.5644474    827.54133  0.018424199  0.017693183           12 
 3744000   0.65641993   -7.5789688    828.75602  0.018446315   0.01768789            9 
 3745000   0.65146726   -7.5631431    828.50221  0.018435741  0.017682598           15 
 3746000   0.65687457   -7.5569243     828.8615  0.018438812  0.017677318            8 
 3747000   0.64104275   -7.5750737    826.41521  0.018379486  0.017672021           12 
 3748000   0.66161057   -7.5535186    827.84049  0.018406272  0.017666732           14 
 3749000   0.65548473   -7.5941372    826.19671  0.018364824  0.017661421            8 
 3750000   0.64841115   -7.5814857    826.48301  0.018366289  0.017656115            8 
 3751000   0.64636673   -7.5570476    828.03579   0.01839589  0.017650807            5 
 3752000   0.65010093    -7.575825    828.67799   0.01840525  0.017645517            6 
 3753000   0.65955537   -7.5777491      827.512  0.018374456  0.017640219           13 
 3754000   0.66605732   -7.5750773     828.6415  0.018394635  0.017634936            8 
 3755000    0.6593896   -7.5817454    827.37631  0.018361658  0.017629659           12 
 3756000    0.6340739   -7.5563837    827.60553  0.018361855  0.017624376           11 
 3757000   0.65423221   -7.5797779    828.08085  0.018367511  0.017619094            7 
 3758000   0.65320531   -7.5410589    828.22667  0.018365857  0.017613809           10 
 3759000   0.65731901   -7.5733537    827.38648  0.018342345  0.017608527            9 
 3760000   0.64675651   -7.5650781    828.08195   0.01835288  0.017603238            8 
 3761000   0.64441551   -7.5638143    827.84691  0.018342793  0.017597944            9 
 3762000   0.65050727   -7.6086858    827.19807  0.018323544   0.01759266            5 
 3763000   0.65735233   -7.5807689    827.51749  0.018325748  0.017587365            4 
 3764000   0.64964671   -7.5833626    827.05555  0.018310653  0.017582077            9 
 3765000   0.64843887    -7.592227    826.25707  0.018288116  0.017576796            7 
 3766000    0.6384344   -7.5794195    827.45977  0.018309873  0.017571516            5 
 3767000   0.64316616   -7.5538749    826.83557  0.018291204  0.017566232            6 
 3768000   0.65035487   -7.5589728    827.33753  0.018297451  0.017560955            5 
 3769000   0.64014611   -7.5717424    826.95282   0.01828409  0.017555676            7 
 3770000   0.64836308   -7.5823139    827.99367  0.018302247  0.017550416            7 
 3771000   0.63787693   -7.5523536    827.60566  0.018288819  0.017545158           18 
 3772000   0.64275389    -7.581585    828.43383  0.018302267  0.017539912           13 
 3773000   0.64736456   -7.5784257    827.95026  0.018286736  0.017534651            5 
 3774000   0.63215848   -7.5731827     828.3409  0.018290516  0.017529391            9 
 3775000   0.65161626   -7.5844205     828.0668   0.01827962  0.017524126           21 
 3776000   0.64606831   -7.5874062    827.50356  0.018262349  0.017518857           11 
 3777000   0.64352495   -7.5765479    828.58413  0.018281355  0.017513596           18 
 3778000   0.63970448   -7.5842507    827.49393  0.018252469  0.017508346           32 
 3779000   0.65186108   -7.5929682    827.60754  0.018250144  0.017503098           16 
 3780000   0.65097044    -7.581944    827.75356  0.018248535  0.017497846           21 
 3781000   0.64389063   -7.5913179    826.32826  0.018212295  0.017492594            8 
 3782000   0.65163912   -7.5929389    829.45596  0.018276396  0.017487346           12 
 3783000   0.63513714   -7.5704235    827.73488  0.018233652  0.017482106           16 
 3784000   0.65557017   -7.5795293    828.28979  0.018241054  0.017476871            6 
 3785000   0.64996967   -7.5834279    828.91852  0.018250078  0.017471641           14 
 3786000   0.64093882   -7.5886214    829.39306  0.018255702  0.017466423            8 
 3787000   0.64020827   -7.5826605    828.98785  0.018241965  0.017461212           13 
 3788000   0.64438757   -7.5785641    829.55135  0.018249546  0.017456004           10 
 3789000    0.6484059   -7.5754954    830.16523  0.018258231  0.017450788           22 
 3790000   0.63576185   -7.5674911     829.0232  0.018228303  0.017445569           23 
 3791000    0.6465407   -7.5743185    829.27869   0.01822911  0.017440361           10 
 3792000   0.63351674   -7.5766556    828.96059  0.018217313  0.017435145           24 
 3793000   0.63869424    -7.584098    829.66885   0.01822807  0.017429943            8 
 3794000   0.64179063   -7.5891526    830.07229  0.018232127   0.01742474           10 
 3795000   0.64979881   -7.5708605    831.13836  0.018250732  0.017419552           10 
 3796000    0.6549464   -7.5610218    831.47102  0.018253227  0.017414381           11 
 3797000   0.64368577    -7.564726    830.56975   0.01822864    0.0174092           21 
 3798000   0.63561057   -7.6010366    829.32474  0.018196523   0.01740401           13 
 3799000   0.62353546    -7.560665    827.84373  0.018159246  0.017398817           14 
 3800000   0.63895982   -7.5800141    829.43215  0.018189301  0.017393633            8 
 3801000   0.64866519   -7.6002146    829.48119  0.018185591  0.017388445            7 
 3802000   0.64439336   -7.5976106    829.76696  0.018187072  0.017383255           12 
 3803000   0.66285955   -7.5836349    828.94501  0.018164278  0.017378055           10 
 3804000   0.63045548   -7.6084679    827.95643  0.018137847  0.017372861           15 
 3805000   0.65161238   -7.5858541    828.14688  0.018137251  0.017367662           19 
 3806000   0.64151181   -7.5806366    829.72744  0.018167092   0.01736248            9 
 3807000   0.62461017    -7.587969    829.11045  0.018148815  0.017357305            7 
 3808000   0.64750865   -7.5851383    831.91426  0.018205407  0.017352138            9 
 3809000   0.64755994    -7.600315     828.3302  0.018122215  0.017346948            9 
 3810000   0.64263643   -7.5806584    829.19109  0.018136288  0.017341774           15 
 3811000   0.62755249    -7.585291     830.6863  0.018164224  0.017336593            7 
 3812000   0.63567847   -7.5782182    830.39606  0.018153114  0.017331418           19 
 3813000   0.63275763   -7.5728016    830.75532  0.018156205  0.017326261           13 
 3814000   0.65138491   -7.5741658    828.50399  0.018102255  0.017321086           19 
 3815000   0.64910904   -7.5773572    828.59344  0.018099464  0.017315909           14 
 3816000   0.64658764   -7.5612341    828.87303  0.018100826  0.017310732           12 
 3817000   0.63558468    -7.567471    829.23752  0.018104042  0.017305556           13 
 3818000    0.6463554   -7.5911665    828.72369  0.018088085  0.017300382           17 
 3819000   0.64019823   -7.6084934    829.84963  0.018107917  0.017295204            5 
 3820000   0.63981835   -7.6116464    828.58201  0.018075524   0.01729003           13 
 3821000   0.64865096   -7.6167821    829.18538  0.018083952  0.017284858            9 
 3822000   0.64632417    -7.583274    829.40133  0.018083929  0.017279688            9 
 3823000   0.64107474   -7.6077223    829.29067  0.018076787  0.017274527            6 
 3824000   0.63420526   -7.6085094    827.85177  0.018040703  0.017269344            7 
 3825000    0.6415023   -7.6155292    829.78865  0.018078184  0.017264152            4 
 3826000   0.63395174   -7.6194433    827.77062  0.018029505  0.017258979            9 
 3827000   0.62685108   -7.6163527    828.17867  0.018033679  0.017253801            7 
 3828000   0.65586995   -7.5994626    829.10373  0.018049106  0.017248625            7 
 3829000   0.64787387   -7.5935555    829.42735  0.018051435  0.017243457            9 
 3830000   0.65195396   -7.6015001     829.3586  0.018045226   0.01723828           19 
 3831000   0.63388403   -7.6043576       828.89  0.018030323  0.017233101            6 
 3832000   0.63820259   -7.5966505    829.22418  0.018032885  0.017227921            8 
 3833000    0.6356362   -7.6035423    830.82746  0.018063037  0.017222741            9 
 3834000   0.64025464   -7.5994396    829.38667   0.01802701  0.017217559            8 
 3835000   0.63778255   -7.5842761    829.19792  0.018018208  0.017212395           13 
 3836000   0.62418884   -7.6070211    830.12755  0.018033706  0.017207236           20 
 3837000   0.64965033   -7.6091977    827.37217  0.017969164  0.017202066           24 
 3838000   0.63997836   -7.6271039    828.75338  0.017994472  0.017196892           19 
 3839000   0.64120661   -7.6278864     828.9332  0.017993688  0.017191725           11 
 3840000   0.64360936   -7.5803352    828.58982   0.01798155  0.017186548           32 
 3841000    0.6403274   -7.6216404    829.44277  0.017995374  0.017181374           13 
 3842000   0.63291624   -7.5873286     829.0545  0.017982268  0.017176206            8 
 3843000   0.64556439   -7.6167035    829.10641  0.017978715  0.017171026           14 
 3844000   0.63362615   -7.6002413    829.17791  0.017975588  0.017165853           11 
 3845000   0.64183029   -7.6185593    829.97945  0.017988285  0.017160675            6 
 3846000   0.63371359   -7.6021231    828.91539  0.017960552  0.017155499            9 
 3847000   0.63995474   -7.5979603    827.53086  0.017925892  0.017150312            7 
 3848000   0.63000346   -7.6160552    828.98559  0.017952737  0.017145136            5 
 3849000   0.63924661   -7.6105971    828.96303  0.017947584  0.017139963           11 
 3850000   0.64537118   -7.6078029    829.76297  0.017960237  0.017134789            8 
 3851000   0.63203462   -7.5970979    830.26102  0.017966351  0.017129625            6 
 3852000   0.63265125   -7.5996768    829.42131  0.017943521  0.017124469            5 
 3853000   0.64615194   -7.5842498    829.82093  0.017947507  0.017119324            7 
 3854000    0.6384396   -7.5960306    828.89036  0.017922729  0.017114166           16 
 3855000   0.62976624   -7.6167717    829.29012  0.017926721  0.017109006           16 
 3856000   0.62812762   -7.6009909    830.71582  0.017952883  0.017103857           11 
 3857000   0.62359809   -7.5969053    827.65786  0.017882159  0.017098711            8 
 3858000   0.63715411   -7.6414777    827.85148  0.017881706  0.017093554           19 
 3859000   0.63395218   -7.6332606    827.00205   0.01785873  0.017088385           12 
 3860000   0.62655133   -7.6094979    829.11952  0.017899817  0.017083215           16 
 3861000   0.62858001   -7.6348149    829.54937  0.017904459  0.017078047           17 
 3862000    0.6432503   -7.6267078    827.34231  0.017852199  0.017072864           21 
 3863000   0.63434062   -7.6161407    828.31448   0.01786855  0.017067688           18 
 3864000   0.63311543   -7.6044752    827.70715  0.017850827  0.017062506           16 
 3865000   0.64131902   -7.6315479    827.20597  0.017835403  0.017057338            6 
 3866000   0.63500949   -7.6110497    828.18791  0.017851955   0.01705217            7 
 3867000   0.63609397   -7.6190749    827.56633  0.017833944     0.017047            6 
 3868000   0.61503854   -7.5990032    827.41684  0.017826112   0.01704182           11 
 3869000   0.62356166   -7.6196351    826.79461  0.017808103  0.017036635            8 
 3870000   0.63819209     -7.63847    826.59047  0.017799106  0.017031457           11 
 3871000   0.63559504   -7.6394381    827.34362  0.017810721  0.017026285            7 
 3872000   0.63829705   -7.6304097     826.5577  0.017789207  0.017021109           13 
 3873000   0.63652964   -7.6220004    827.27503  0.017800048  0.017015926           18 
 3874000   0.64170296   -7.6316727    827.42208  0.017798617  0.017010759           14 
 3875000   0.63610442   -7.6029385    827.00733  0.017785104  0.017005588           29 
 3876000   0.62817795   -7.6117831     827.0776  0.017782026  0.017000417           13 
 3877000   0.62362254   -7.6199748    827.93987  0.017795973  0.016995257           13 
 3878000   0.63354801    -7.624559    827.96435   0.01779191  0.016990098           13 
 3879000   0.63472556   -7.6118711    828.66158  0.017802303  0.016984947           15 
 3880000   0.63299997   -7.6263948    828.68347  0.017798184   0.01697978           23 
 3881000   0.63514484   -7.6074707    828.49545  0.017789561  0.016974623           13 
 3882000   0.62329433   -7.6319149    826.87931  0.017750286  0.016969473           17 
 3883000     0.628747   -7.6126359    827.25285  0.017753731  0.016964329           14 
 3884000   0.63560077   -7.6224965    827.60266  0.017756665    0.0169592            8 
 3885000   0.63050038   -7.6134588    829.80322  0.017799297  0.016954067           15 
 3886000   0.62669265   -7.6101704    830.14882  0.017802128  0.016948949           16 
 3887000   0.62207832   -7.5988298    829.36996   0.01778085   0.01694383           19 
 3888000   0.61095588   -7.6107188    829.92287  0.017788127  0.016938717            7 
 3889000   0.63658577   -7.6125334    829.61683  0.017776996  0.016933608           21 
 3890000   0.62318086   -7.6006619    828.42156   0.01774682  0.016928496            9 
 3891000   0.62104038   -7.6040055    828.43844  0.017742621  0.016923384           10 
 3892000    0.6291491   -7.5766398    829.08097  0.017751819  0.016918296            6 
 3893000   0.62781295   -7.6131103    830.28513  0.017773036  0.016913204           18 
 3894000   0.62782039   -7.5858439    830.31309   0.01776907  0.016908117           11 
 3895000   0.61805172   -7.5932807    829.29082  0.017742636  0.016903037           12 
 3896000   0.63262408   -7.6373933     827.7524  0.017705176  0.016897943           13 
 3897000   0.63145833   -7.6531346    829.37502  0.017735331  0.016892845            9 
 3898000   0.63089307   -7.6023699    829.22108   0.01772749  0.016887735           12 
 3899000   0.62902891   -7.6287095    828.03238  0.017697537  0.016882626           11 
 3900000   0.62703157   -7.6123192    828.01209  0.017692566  0.016877509           10 
 3901000   0.61806115   -7.6184622    827.79837  0.017683465  0.016872401           23 
 3902000   0.63935495   -7.6284662    827.33533  0.017669044  0.016867301           23 
 3903000    0.6279505   -7.6281271    828.91424  0.017698229  0.016862193           11 
 3904000   0.62572597   -7.6085914    828.94991  0.017694457  0.016857089           19 
 3905000   0.60998281   -7.6180215    827.75086  0.017664338  0.016851981           25 
 3906000   0.62304074   -7.6195368    828.74247  0.017680971  0.016846869           22 
 3907000   0.60949071   -7.6133628    828.98754  0.017681673   0.01684176           11 
 3908000   0.62847822   -7.6223851    828.67166  0.017670412  0.016836646           25 
 3909000     0.619394   -7.6282286    828.44375  0.017661033   0.01683154           11 
 3910000   0.61853317   -7.6371495    827.98978  0.017646841  0.016826425            7 
 3911000   0.62043914   -7.6202424    828.42333  0.017651567  0.016821316           12 
 3912000   0.62652122   -7.6218595      828.707  0.017653097  0.016816209           14 
 3913000   0.62769821   -7.6382989    826.83656  0.017608752    0.0168111           18 
 3914000   0.63695238   -7.6148586    826.98014   0.01760731  0.016806002           12 
 3915000   0.62355237   -7.6163039    827.78293    0.0176199  0.016800914           12 
 3916000   0.62197968   -7.6120274    827.31532   0.01760545  0.016795815            7 
 3917000   0.62091123   -7.6096344    828.72281    0.0176309  0.016790711           12 
 3918000   0.63219176   -7.6308027    827.05156  0.017590853  0.016785611            9 
 3919000   0.62554372    -7.631454    828.99448  0.017627679  0.016780517           12 
 3920000   0.62610737   -7.6446096    829.27483  0.017629142  0.016775424           11 
 3921000   0.62597203   -7.6278409    830.03255   0.01764075  0.016770333            7 
 3922000   0.63004983   -7.6107004    828.76501  0.017609319  0.016765248           11 
 3923000   0.63024077   -7.6012424    828.54073  0.017600067  0.016760161            9 
 3924000   0.63518033   -7.6283732    828.66403    0.0175982  0.016755081           16 
 3925000    0.6075828   -7.6183079    827.51802  0.017569385  0.016749998            8 
 3926000   0.63197076   -7.6451215    829.47895  0.017606532  0.016744922            7 
 3927000   0.62248208   -7.6384696    827.81226  0.017566681  0.016739841           13 
 3928000   0.63651072    -7.635125    827.93869  0.017564891   0.01673475           13 
 3929000     0.633361   -7.6388892    828.50972  0.017572532  0.016729665            4 
 3930000    0.6243779   -7.6229937    827.70682  0.017551035  0.016724575           10 
 3931000   0.63261253   -7.6442262    829.48529  0.017584272  0.016719498           12 
 3932000   0.62790859    -7.647842    829.75122  0.017585436  0.016714425            6 
 3933000   0.62004006   -7.6400554    829.86933  0.017583468  0.016709358            9 
 3934000    0.6383817   -7.6484559    829.52063  0.017571611  0.016704279           12 
 3935000   0.61167375   -7.6283796    829.60855  0.017569008  0.016699212            8 
 3936000   0.62277759    -7.643887    828.74713  0.017546306  0.016694146            7 
 3937000   0.62678147    -7.640685    828.08089  0.017527747  0.016689079            4 
 3938000   0.60555862    -7.633171      827.278  0.017506306  0.016684003           13 
 3939000   0.62973399   -7.6323261    829.43493  0.017547494  0.016678937            9 
 3940000   0.61947247   -7.6438274    829.93967  0.017553715  0.016673866           16 
 3941000    0.6121304   -7.6582209    827.82197  0.017504482  0.016668796            8 
 3942000   0.63712779   -7.6432152     827.9401  0.017502539  0.016663733            8 
 3943000   0.62144627   -7.6436807    827.06892  0.017479688  0.016658658            8 
 3944000   0.62810291   -7.6424234    827.17972  0.017477597  0.016653592            6 
 3945000   0.62416645   -7.6400106    829.57987  0.017523867  0.016648531            8 
 3946000   0.62132245   -7.6253406    828.64214  0.017499623  0.016643465            8 
 3947000     0.626178   -7.6226703    829.44068  0.017512049  0.016638407           11 
 3948000   0.60868527   -7.6387476    828.04767   0.01747821   0.01663335            5 
 3949000   0.61561118   -7.6514124    826.82141  0.017447907  0.016628285            5 
 3950000   0.62527921   -7.6474904    827.64478   0.01746086  0.016623219           13 
 3951000    0.6178728   -7.6436485    830.25163  0.017511424   0.01661817            7 
 3952000   0.63673399   -7.6426262    828.61141  0.017472407  0.016613121           15 
 3953000   0.61129557   -7.6603865     827.4772  0.017444076  0.016608065           12 
 3954000   0.63183892   -7.6594106    829.76278  0.017487835  0.016603009           11 
 3955000   0.60567549   -7.6853078    827.78464  0.017441733  0.016597955            8 
 3956000   0.63823287   -7.6752336    827.68671  0.017435261  0.016592902            7 
 3957000   0.61924698   -7.6601315    827.75143  0.017432218  0.016587842            4 
 3958000   0.62987966   -7.6494472    828.25053  0.017438322  0.016582795           11 
 3959000   0.61323379   -7.6659058    828.18823  0.017432606  0.016577739           10 
 3960000   0.62649094   -7.6365788    827.85314  0.017421152  0.016572687           10 
 3961000   0.61927095   -7.6449357    829.20278  0.017445148  0.016567641            6 
 3962000   0.61077618   -7.6529425    828.74618  0.017431141  0.016562601           10 
 3963000   0.61036827   -7.6497308    829.32216  0.017438854  0.016557564            9 
 3964000    0.6125529   -7.6214534     828.9769  0.017427197  0.016552534           10 
 3965000   0.62281295   -7.6346558    829.14388  0.017426311  0.016547508            9 
 3966000    0.6321101   -7.6382601    828.91217  0.017417049  0.016542474            8 
 3967000   0.60833664   -7.6361962    829.40889  0.017423092  0.016537439            9 
 3968000   0.61703437   -7.6554773     828.3572  0.017396615  0.016532404           13 
 3969000    0.6093426    -7.642103    828.27075  0.017390416   0.01652736           12 
 3970000    0.6216862   -7.6407193    828.66696  0.017394353  0.016522331           10 
 3971000   0.62344269   -7.6225241    828.33475  0.017383001  0.016517302           10 
 3972000   0.60964936   -7.6395168     828.9876  0.017392321  0.016512263           12 
 3973000   0.61533839   -7.6461296    828.11884  0.017369722  0.016507226           12 
 3974000   0.62400364   -7.6419637    828.69547  0.017377442  0.016502204           14 
 3975000   0.61113589   -7.6230176    829.95541  0.017399485  0.016497193            7 
 3976000   0.63810315    -7.650529    826.68553  0.017326575  0.016492178            8 
 3977000   0.63516157   -7.6491644    827.63458  0.017342104  0.016487154           13 
 3978000   0.61056233   -7.6356918    827.39953  0.017332821   0.01648213           16 
 3979000   0.61621489   -7.6373544    827.70489   0.01733486    0.0164771           19 
 3980000   0.62703299   -7.6675159    828.68719  0.017351072  0.016472079           15 
 3981000   0.61205308   -7.6571167    828.61157   0.01734513  0.016467052           17 
 3982000   0.60811941   -7.6578164    826.64838   0.01729969   0.01646203           19 
 3983000   0.62006427   -7.6420625    828.52168   0.01733454  0.016457009           10 
 3984000   0.61728223   -7.6580113     827.1732  0.017301983  0.016451992           16 
 3985000   0.62264403   -7.6515112    827.74348  0.017309567  0.016446972           18 
 3986000   0.59887073   -7.6527474    828.67114  0.017324618  0.016441951           18 
 3987000   0.62123144   -7.6553307    828.92918  0.017325666  0.016436929           10 
 3988000   0.61065526   -7.6079076    828.49972  0.017312348  0.016431928            9 
 3989000   0.60416526   -7.6538637    827.67715  0.017290824  0.016426917            7 
 3990000   0.60355453   -7.6603505    828.03224  0.017293906    0.0164219           19 
 3991000   0.62402939   -7.6638616    828.60951  0.017301627  0.016416889           19 
 3992000   0.62073549    -7.651851    829.43804  0.017314588  0.016411883           13 
 3993000    0.6136417   -7.6732069    828.40335  0.017288658  0.016406875           15 
 3994000   0.60110684   -7.6506326    827.63929  0.017268388   0.01640186           42 
 3995000   0.62025851   -7.6669319    827.70095  0.017265351  0.016396847           10 
 3996000   0.61444339   -7.6574818    827.09346  0.017248362  0.016391836           10 
 3997000   0.60814877   -7.6613317    828.55176  0.017274451  0.016386828            9 
 3998000   0.62129802   -7.6682913    829.18873  0.017283407  0.016381832           33 
 3999000   0.61425763   -7.6544375    827.71801  0.017248437  0.016376824           26 
 4000000   0.60691628   -7.6439391    827.43454   0.01723822  0.016371821           50 
 4001000   0.62295565   -7.6717972    828.06686  0.017247081  0.016366834           64 
 4002000   0.61529233   -7.6738054    828.71471  0.017256262  0.016361838           37 
 4003000   0.59994221   -7.6651505    828.32188  0.017243773  0.016356842           54 
 4004000   0.60952999   -7.6609066    827.56331  0.017223679  0.016351838           49 
 4005000   0.62743713    -7.646447    828.24184  0.017233497  0.016346839           69 
 4006000   0.61184276   -7.6628116    828.08783  0.017225991   0.01634184           49 
 4007000   0.61134652   -7.6645893    826.93699  0.017197758   0.01633684           31 
 4008000    0.6085618   -7.6547586    826.95752  0.017193894  0.016331848           23 
 4009000   0.61900698   -7.6357526    827.90704  0.017209342  0.016326855           24 
 4010000   0.60585809    -7.665953    827.71827  0.017201128  0.016321856           22 
 4011000   0.61679719   -7.6852789    828.11401  0.017205061  0.016316861           18 
 4012000   0.62259228   -7.6567341    829.29497  0.017225303  0.016311868           20 
 4013000   0.61331233   -7.6524408     829.1824  0.017218673  0.016306872           24 
 4014000   0.61419496   -7.6634494    826.60493  0.017160873  0.016301882           20 
 4015000   0.61494965   -7.6608749    825.55596  0.017134827  0.016296877           24 
 4016000   0.61287623   -7.6701581    827.40127  0.017168851   0.01629187           11 
 4017000   0.61656987   -7.6686465    826.96465  0.017155519  0.016286879           20 
 4018000   0.61543003   -7.6419304    827.58518  0.017164119  0.016281888           21 
 4019000   0.61173857   -7.6466171    828.61577  0.017181218  0.016276901           39 
 4020000    0.6134855   -7.6632059    826.93591  0.017142121  0.016271918           39 
 4021000   0.61216651   -7.6701663    827.12466  0.017141769  0.016266937           29 
 4022000   0.61525826   -7.6578991    826.37487  0.017121972  0.016261954           47 
 4023000   0.61679428   -7.6811935    827.22133   0.01713525  0.016256969           33 
 4024000   0.60632133   -7.6802963    827.71832  0.017141284  0.016251973           31 
 4025000   0.58190158   -7.6704031     826.0459    0.0171024  0.016246978           45 
 4026000   0.61269112   -7.6563656    827.70192  0.017132429  0.016241986           21 
 4027000   0.60797134   -7.6820126    826.23264   0.01709777  0.016236994           26 
 4028000    0.6133992   -7.6722402    827.11267  0.017111732  0.016231995           14 
 4029000   0.60736021   -7.6730974    826.86417  0.017102345  0.016227008           45 
 4030000    0.6086514     -7.68036    826.75803  0.017095906  0.016222022           39 
 4031000   0.61309282   -7.6753172    827.06428  0.017097996  0.016217038           25 
 4032000   0.61100149   -7.6643815    826.44624  0.017080982   0.01621206           29 
 4033000   0.62353403   -7.6725663    826.89909  0.017086104  0.016207085           21 
 4034000   0.59720783   -7.6664877    825.54252  0.017053845  0.016202122           26 
 4035000   0.59715625    -7.654542    826.09305  0.017060988   0.01619715           23 
 4036000   0.62794191   -7.6794276    827.21264  0.017079878   0.01619217           20 
 4037000   0.61133325   -7.6753555    827.72135  0.017086148  0.016187193           25 
 4038000   0.59605307   -7.6807339    828.12383  0.017090223  0.016182228           28 
 4039000   0.60677644   -7.6844634    826.51718  0.017052843  0.016177263           34 
 4040000   0.61279077   -7.7067805     829.4314  0.017108733  0.016172299           23 
 4041000   0.59488593   -7.6778898    826.90804  0.017052463  0.016167342           12 
 4042000    0.6203815   -7.6470185    827.75036   0.01706561  0.016162393           23 
 4043000   0.60946742   -7.6827804    827.44697  0.017055136   0.01615744           22 
 4044000    0.5975992   -7.6707853     826.8657   0.01703894  0.016152472           15 
 4045000   0.60172224   -7.6727916    827.32457  0.017044181  0.016147503           18 
 4046000   0.61271739   -7.6702492    826.03989  0.017013509  0.016142537           18 
 4047000   0.60821107   -7.6733571    827.14442  0.017032049  0.016137573           27 
 4048000   0.60596893   -7.6633499    826.96713  0.017024192   0.01613262           24 
 4049000   0.60716968   -7.6682402        827.5  0.017030954  0.016127666           17 
 4050000   0.61179755   -7.6673973    828.38008  0.017044858  0.016122714           22 
 4051000   0.61324969   -7.6650513    827.98243   0.01703247  0.016117761           10 
 4052000   0.60942628   -7.6477881    827.49688  0.017018281  0.016112821           13 
 4053000   0.59845104   -7.6855782    827.81832  0.017020691  0.016107884           16 
 4054000   0.59807693   -7.6470303     826.9616  0.016998882  0.016102943           22 
 4055000   0.60258998   -7.6791912    827.16103  0.016998788  0.016098004           20 
 4056000   0.59586717   -7.6696138    828.82997  0.017028887  0.016093069           16 
 4057000   0.61195656   -7.6890394    826.37034  0.016974167  0.016088138           19 
 4058000   0.59090694   -7.6772555    829.40289  0.017032259  0.016083199           23 
 4059000   0.59549492   -7.6951401    826.77806  0.016974174   0.01607826           20 
 4060000   0.59596318   -7.6880821    828.00448  0.016995166  0.016073321           20 
 4061000     0.600602   -7.6723872    827.54848  0.016981624  0.016068389           17 
 4062000    0.6023149   -7.6773804    827.45665  0.016975559  0.016063455           17 
 4063000   0.59936961   -7.6691345     827.9845  0.016982207  0.016058534           19 
 4064000   0.59727263   -7.6747283    827.72321  0.016972671   0.01605362           19 
 4065000   0.60666478   -7.6655715    827.01483  0.016953974  0.016048702           21 
 4066000   0.60860471   -7.6860478    826.79205  0.016945238  0.016043789           24 
 4067000   0.60163175   -7.6834866     827.4792  0.016955151  0.016038865           22 
 4068000   0.60612635   -7.6615331    827.38436   0.01694904  0.016033948           22 
 4069000   0.60793823   -7.6629706    828.81464  0.016974167  0.016029032           31 
 4070000    0.5996242   -7.6778162    826.92216  0.016931248  0.016024114           33 
 4071000   0.58767901   -7.6870176    826.34548  0.016915284    0.0160192           21 
 4072000    0.5907067   -7.6636863    829.03804  0.016966234  0.016014276           23 
 4073000   0.60867245   -7.6578182    827.26686   0.01692583  0.016009364           12 
 4074000   0.59989554   -7.6688917     827.0549   0.01691734  0.016004453           21 
 4075000   0.59386603   -7.6793858    827.72554  0.016926903  0.015999541           22 
 4076000   0.59608674   -7.6731482     828.1209  0.016930833  0.015994634           18 
 4077000   0.59665286   -7.6672467    829.21885  0.016949122  0.015989732           25 
 4078000   0.60528079   -7.6753373    828.46175  0.016929495   0.01598483           24 
 4079000   0.58851955   -7.6589689    828.76626  0.016931565  0.015979933           24 
 4080000   0.59697401   -7.6872909    828.50152  0.016922008  0.015975033           20 
 4081000   0.58736044   -7.6858909    827.64721  0.016900417  0.015970133           30 
 4082000   0.61018307   -7.6750905     827.8497   0.01690041  0.015965227           22 
 4083000   0.60714593   -7.6960307    826.63639  0.016871508   0.01596032           29 
 4084000   0.59473566   -7.6815262    828.31163   0.01690156  0.015955418           18 
 4085000   0.60514386   -7.6904547    826.85431  0.016867693  0.015950511           24 
 4086000   0.61523074   -7.6862465    827.19711  0.016870556   0.01594561           25 
 4087000   0.60639869   -7.6862194    826.99591  0.016862326  0.015940713           16 
 4088000   0.59837987   -7.6864693    826.98139  0.016857905  0.015935815           28 
 4089000   0.60687973   -7.6969838     825.8495  0.016830715  0.015930919           20 
 4090000   0.58754169    -7.691973    826.99802      0.01685   0.01592602           20 
 4091000   0.60148698    -7.677384    827.59597  0.016858062  0.015921119           23 
 4092000   0.58768145   -7.6580761    825.00171   0.01680111  0.015916218           19 
 4093000   0.60187572   -7.7016765    826.36979  0.016824859   0.01591132           16 
 4094000   0.59676541   -7.7096652    828.04035  0.016854754  0.015906415           20 
 4095000   0.59453824   -7.6869122    826.24712  0.016814146  0.015901508           23 
 4096000   0.59893892   -7.6833399    825.76942  0.016800322  0.015896607           22 
 4097000   0.59244518   -7.6844224      828.064  0.016842893  0.015891708           19 
 4098000   0.58628393   -7.6947571    827.70169  0.016831416  0.015886815           17 
 4099000   0.58895841    -7.701732     826.9514  0.016812056  0.015881916           21 
 4100000   0.59708767   -7.7028466    828.15207  0.016832359  0.015877016           21 
 4101000   0.60145448   -7.7048891    826.90929  0.016803001  0.015872118           23 
 4102000   0.59493323   -7.7056145    825.15613  0.016763289  0.015867219           16 
 4103000   0.59670818   -7.6901861    825.99397   0.01677622  0.015862332           24 
 4104000   0.59717193   -7.6784523    824.93079  0.016750544   0.01585744           20 
 4105000   0.60148134   -7.6987658    826.71525  0.016782689  0.015852549           13 
 4106000   0.60110148   -7.7119427    826.69584  0.016778208  0.015847655           32 
 4107000   0.59214685   -7.6834047    827.97508  0.016800079  0.015842764           17 
 4108000   0.58922813    -7.706111    826.46252  0.016765306   0.01583788           17 
 4109000   0.58606924   -7.7011906    826.99274  0.016771979  0.015832992           18 
 4110000   0.60124039   -7.6977533    828.98634   0.01680832  0.015828113           20 
 4111000   0.58638416   -7.7013439    827.85466  0.016781291  0.015823232           12 
 4112000   0.58494735   -7.6892947    825.87704  0.016737132   0.01581835           17 
 4113000   0.58215957   -7.6885956    827.22603  0.016760395  0.015813462           17 
 4114000   0.59005215   -7.7095454    827.40834  0.016760013  0.015808577           16 
 4115000    0.5876114   -7.7106881    826.65243  0.016740632   0.01580369           16 
 4116000   0.59322371   -7.7024166    825.13416  0.016705826  0.015798803           23 
 4117000   0.59983086   -7.7138957    825.67901  0.016712797  0.015793914           20 
 4118000   0.59294514   -7.6945956    824.28294  0.016680487  0.015789034           14 
 4119000   0.59926807   -7.7044187    825.14512   0.01669388   0.01578416           20 
 4120000   0.59913313   -7.7007402      827.432  0.016736084  0.015779272           21 
 4121000   0.58787474   -7.6922381    827.64075  0.016736244  0.015774402           13 
 4122000   0.57936152    -7.721576    826.00439  0.016699102  0.015769521           12 
 4123000   0.58605125     -7.71362     825.5396  0.016685658  0.015764635           16 
 4124000   0.58687833   -7.7069622    825.81606  0.016687198  0.015759756           16 
 4125000   0.59497706     -7.72689    824.90483  0.016664744  0.015754886           21 
 4126000   0.58648112   -7.7115713    825.71661  0.016677101  0.015750006           10 
 4127000   0.59382676   -7.7207863     826.0459  0.016679709  0.015745125           22 
 4128000   0.57768653    -7.715064    826.45136  0.016683853  0.015740253           11 
 4129000   0.58685667   -7.7034143    826.24732  0.016675695  0.015735381           21 
 4130000   0.59355543   -7.7101839    825.92282  0.016665109  0.015730513           13 
 4131000   0.57999839   -7.7208632    826.72198  0.016677196  0.015725651           18 
 4132000   0.58849513   -7.7071163    825.73282  0.016653211  0.015720779           35 
 4133000   0.60877079   -7.7180845    826.02672  0.016655108  0.015715905           19 
 4134000   0.59537092   -7.7304612    826.35029  0.016657601  0.015711044           19 
 4135000   0.59247671   -7.7139526    826.91415  0.016664936   0.01570618           12 
 4136000   0.58354267   -7.7500268    827.04403  0.016663524  0.015701319           18 
 4137000   0.57870709   -7.7033188    826.20397  0.016642575  0.015696458           11 
 4138000   0.59499463   -7.6991656    825.49129    0.0166242  0.015691607           14 
 4139000   0.57786517   -7.7129049    826.46484  0.016639785  0.015686745            8 
 4140000   0.60114912   -7.7260918    826.08377  0.016628095  0.015681892           10 
 4141000   0.59062886   -7.7209996    826.29444  0.016628319  0.015677038           23 
 4142000   0.59733387   -7.7015862    827.89234  0.016656453  0.015672196           12 
 4143000   0.59750228   -7.7251715    826.92883  0.016633052  0.015667349           10 
 4144000   0.58483842   -7.7384951    825.86485  0.016607643  0.015662502            9 
 4145000   0.58671598   -7.7076268    827.28586  0.016632205  0.015657656           15 
 4146000   0.58883774   -7.7229132    826.44314  0.016611255  0.015652811           36 
 4147000   0.59185008   -7.7124803    827.06238  0.016619692  0.015647964           10 
 4148000   0.59406904   -7.7005582    825.56347  0.016585573  0.015643119           14 
 4149000   0.57710588   -7.7031634    826.43153   0.01659901  0.015638275           11 
 4150000   0.59133307   -7.7320348    825.77991  0.016581926  0.015633428           24 
 4151000   0.58577755   -7.7218439    826.89667  0.016600351  0.015628593           15 
 4152000   0.58876763   -7.7056779    826.24578  0.016583289  0.015623756           22 
 4153000   0.58697014   -7.7440956    825.55593  0.016565453  0.015618912           12 
 4154000   0.58806458   -7.7049946    825.19579  0.016554241  0.015614072           16 
 4155000   0.59180484   -7.7296646     825.2992   0.01655233  0.015609232           13 
 4156000   0.59288161    -7.735295    824.58388  0.016534005  0.015604394           22 
 4157000   0.58850542   -7.7161758    826.24228  0.016563272  0.015599564           18 
 4158000   0.58192799   -7.7172316    827.31427  0.016580773  0.015594738           23 
 4159000   0.58007457   -7.7247023    825.61851  0.016542809  0.015589911           27 
 4160000   0.59430018   -7.7112304    826.27865  0.016552056  0.015585084           30 
 4161000   0.59742064   -7.7324769    826.77583  0.016558036   0.01558026           18 
 4162000   0.57414011   -7.7347726     826.8102  0.016554745  0.015575435           30 
 4163000   0.58263745   -7.7183234     826.0508  0.016535567  0.015570615           24 
 4164000    0.5842615   -7.7296604    826.04962  0.016531573  0.015565796           29 
 4165000   0.57321017   -7.7147135    826.76611  0.016541939  0.015560986           20 
 4166000     0.581327   -7.7065556    827.85177  0.016559685  0.015556184           33 
 4167000   0.59676569   -7.7188761     826.1049  0.016520776   0.01555138           31 
 4168000   0.57807158   -7.7176542    825.75184  0.016509754  0.015546567           20 
 4169000   0.57671435   -7.6951434    825.66446  0.016504047   0.01554176           27 
 4170000   0.58382729   -7.7017711    827.22176   0.01653121  0.015536957           16 
 4171000   0.58011948   -7.7309076     827.2557  0.016527925  0.015532154           18 
 4172000   0.57477375   -7.7339101     828.0872  0.016540572  0.015527355           21 
 4173000   0.59569408    -7.719934    827.08134  0.016516522  0.015522559           23 
 4174000   0.58482059   -7.7219413    826.54674  0.016501891  0.015517765           15 
 4175000   0.59426782    -7.722117    826.31847  0.016493383  0.015512975           25 
 4176000   0.58071298   -7.7154688    825.21243  0.016467362  0.015508189           13 
 4177000   0.58765594   -7.7196588    827.51637  0.016509384  0.015503402           12 
 4178000   0.58250765    -7.729399    826.75786  0.016490304   0.01549862           11 
 4179000   0.59976567   -7.7293741    826.98471  0.016490881  0.015493831           16 
 4180000   0.58579147   -7.7065369    825.79279  0.016463174  0.015489046           19 
 4181000   0.58487652   -7.7045827    827.16036  0.016486494  0.015484262           13 
 4182000   0.58643908   -7.7381094    825.90577  0.016457552   0.01547948           20 
 4183000   0.57704112   -7.7300011    826.34563   0.01646238  0.015474699           23 
 4184000   0.58549865   -7.7400949    826.33726  0.016458279  0.015469918           17 
 4185000    0.5801715   -7.7318436     826.9483  0.016466513   0.01546513           21 
 4186000   0.56810952   -7.7313715    825.13521  0.016426485  0.015460347           14 
 4187000   0.58913787   -7.7499619    827.06863  0.016461043  0.015455558           15 
 4188000   0.58393698   -7.7165547    826.62711  0.016448327  0.015450781           13 
 4189000   0.59326165   -7.7382961    825.67579  0.016425475     0.015446            9 
 4190000   0.59080744   -7.7218859    826.85766  0.016445061  0.015441224           19 
 4191000    0.5832149     -7.74443    826.61141  0.016436241  0.015436446           25 
 4192000    0.5871773   -7.7280872    826.89504  0.016437958   0.01543167           22 
 4193000   0.59249395   -7.7368701    826.83426   0.01643283   0.01542689           10 
 4194000   0.57157934   -7.7370407    824.85104  0.016389506  0.015422118           27 
 4195000    0.5836223   -7.7216578    825.50283  0.016398546  0.015417342            9 
 4196000   0.58258193   -7.7236425    825.62397  0.016397044  0.015412569           17 
 4197000   0.58772877   -7.7464462    828.42229  0.016448699    0.0154078           16 
 4198000   0.59778946   -7.7244973    826.04323  0.016397555  0.015403032           14 
 4199000   0.57868151   -7.7381845    826.40527  0.016400835   0.01539827           23 
 4200000   0.59474129   -7.7334955    826.76086  0.016403985  0.015393508           10 
 4201000   0.57208304   -7.7219485    825.97008  0.016384394  0.015388749           24 
 4202000   0.58117113   -7.7400607    825.64927  0.016374133  0.015383983           11 
 4203000   0.57388913   -7.7458775    826.05605  0.016378302   0.01537922            7 
 4204000   0.57848583   -7.7365125     826.0076  0.016373446  0.015374456           11 
 4205000   0.57025851   -7.7415125     825.4295  0.016358096  0.015369692            9 
 4206000   0.57520424   -7.7333355    825.44863  0.016354585  0.015364929           10 
 4207000   0.56711392   -7.7619193    826.02078  0.016362031  0.015360163           12 
 4208000   0.57417281   -7.7164016    825.62696  0.016350344  0.015355402           15 
 4209000   0.57257397   -7.7288758    825.18905  0.016337789  0.015350637           16 
 4210000   0.57622564   -7.7470408    825.59445  0.016341933  0.015345875           18 
 4211000   0.57837067   -7.7466348    825.75482  0.016341226  0.015341114           42 
 4212000   0.56927369   -7.7424544    825.96361  0.016341477  0.015336363           25 
 4213000   0.57019341   -7.7113008    827.20134   0.01636208  0.015331619           29 
 4214000   0.57148536   -7.7417627    824.30752  0.016300971  0.015326864           19 
 4215000    0.5677187   -7.7343468    825.13421  0.016313448  0.015322114           23 
 4216000   0.58557228   -7.7350425    825.90164  0.016324748  0.015317362           10 
 4217000   0.58217291   -7.7309796    826.43738  0.016331463  0.015312612           23 
 4218000   0.57267959   -7.7405047    826.70076  0.016332795  0.015307858           35 
 4219000   0.59554719   -7.7268152    826.96491  0.016334141  0.015303116           15 
 4220000   0.57926329   -7.7473095    827.37291  0.016338328  0.015298377           30 
 4221000   0.57232443   -7.7422755    826.51561  0.016317532  0.015293637           35 
 4222000   0.57794823   -7.7361655    824.65553  0.016276953  0.015288893           33 
 4223000   0.58301105   -7.7510317    825.86412  0.016296948  0.015284148           15 
 4224000   0.56335254   -7.7459483    825.80549  0.016291933  0.015279404           12 
 4225000   0.57227962    -7.737187    825.83288  0.016288617  0.015274652           27 
 4226000   0.58483419   -7.7562269    826.37064  0.016295367  0.015269912           29 
 4227000   0.57876554   -7.7510665    826.02164  0.016284631  0.015265171           16 
 4228000   0.57847468   -7.7410461    826.04938  0.016281326  0.015260428           23 
 4229000    0.5752211   -7.7486648    824.60952  0.016249104  0.015255685           20 
 4230000   0.57962541   -7.7609434    824.68851  0.016246819  0.015250948           29 
 4231000   0.56876518   -7.7454492    824.78559  0.016244891  0.015246205            8 
 4232000   0.57567855   -7.7388449    825.95629  0.016264105  0.015241461           39 
 4233000   0.58301392   -7.7525043    825.44498  0.016250197  0.015236721           25 
 4234000   0.57029939   -7.7604808     825.1385  0.016240326  0.015231979           14 
 4235000   0.57994401   -7.7501719    824.71597  0.016228177  0.015227247           19 
 4236000   0.57931983     -7.76596    825.07468  0.016231403  0.015222515           29 
 4237000   0.56808726    -7.742639    827.02771  0.016265984  0.015217784           14 
 4238000   0.56389844   -7.7551268    826.82297   0.01625812  0.015213054           21 
 4239000   0.58427532   -7.7625483    825.27069  0.016223769  0.015208331           24 
 4240000    0.5697338   -7.7498971    825.23258  0.016219194  0.015203603           15 
 4241000   0.58619118   -7.7549958    823.68387  0.016184938  0.015198882           32 
 4242000   0.57759314   -7.7574388    825.18172  0.016210548  0.015194156           16 
 4243000   0.58651947   -7.7472734    825.62136  0.016215362   0.01518943           48 
 4244000   0.56393663   -7.7423947    828.62521  0.016270523  0.015184714           26 
 4245000   0.58120909   -7.7441243    824.44479  0.016184625  0.015180003           17 
 4246000   0.57723831   -7.7688379    824.86773  0.016189114  0.015175281           26 
 4247000   0.55441855   -7.7706891    824.73456  0.016182689  0.015170558           31 
 4248000   0.55294055    -7.742083    826.25131  0.016208634  0.015165843           38 
 4249000   0.56295931   -7.7323571    823.39166  0.016148734  0.015161124           36 
 4250000   0.56109206    -7.752291    824.05217  0.016157886  0.015156411           17 
 4251000   0.56512416   -7.7627963    825.77798  0.016187916  0.015151695           24 
 4252000   0.56838847   -7.7625783    825.56117   0.01617986  0.015146985           35 
 4253000   0.58356186   -7.7588916    825.06271  0.016166289  0.015142273           25 
 4254000   0.57783965   -7.7447085    824.02117  0.016142085  0.015137567           18 
 4255000   0.57069924   -7.7503065    826.28051   0.01618254  0.015132864           26 
 4256000   0.56785125   -7.7738141    825.28746  0.016159294  0.015128155           28 
 4257000   0.57211359   -7.7684584    825.13408  0.016152496  0.015123453           33 
 4258000   0.56471716   -7.7322252    825.94126  0.016164499  0.015118758           15 
 4259000   0.57611193   -7.7480854     824.7281  0.016136967  0.015114057           24 
 4260000   0.57687381   -7.7447718    823.80091  0.016115041   0.01510935           16 
 4261000   0.57893071   -7.7743909    825.63211  0.016147073  0.015104643           16 
 4262000   0.57278073   -7.7781418    824.25714    0.0161164  0.015099942           52 
 4263000   0.57720464   -7.7723817    825.41584  0.016135269   0.01509524           44 
 4264000   0.56914395   -7.7427622    825.38202  0.016130824  0.015090545           49 
 4265000   0.56230692   -7.7701482    824.68504  0.016113424  0.015085844           28 
 4266000   0.56663178   -7.7569314    826.20405   0.01613932  0.015081149           34 
 4267000   0.57931784   -7.7645198    825.68158  0.016125334  0.015076453           29 
 4268000   0.56071164   -7.7741466    825.40806  0.016116215  0.015071762           27 
 4269000   0.55556028    -7.776215    824.23762  0.016089592  0.015067069           23 
 4270000   0.57356101   -7.7622643    825.22982  0.016105188  0.015062374           41 
 4271000   0.57740501   -7.7546898    824.22325  0.016081777  0.015057676           17 
 4272000   0.56823771   -7.7654964    825.35695  0.016100128  0.015052982           35 
 4273000   0.57632036   -7.7468861     823.1051  0.016052444  0.015048287           44 
 4274000   0.56759451   -7.7524696    823.35953  0.016053649  0.015043594           20 
 4275000   0.57183195   -7.7615481    824.78283  0.016077638    0.0150389           23 
 4276000   0.57189741   -7.7772919    825.16192  0.016081266  0.015034204           26 
 4277000   0.56804637   -7.7632134     824.5233  0.016065063  0.015029513           47 
 4278000   0.56942242   -7.7901961    824.33187  0.016057579  0.015024821           18 
 4279000   0.56822414   -7.7571293    824.30962  0.016053393  0.015020129           32 
 4280000   0.56784232   -7.7829068    824.91112  0.016061354  0.015015441           16 
 4281000   0.56356988   -7.7925282    825.43481  0.016067796  0.015010749           15 
 4282000   0.56111104   -7.7848303    823.76209   0.01603149  0.015006067           24 
 4283000   0.56965048     -7.76896    823.02225  0.016013352  0.015001386           39 
 4284000   0.58244566   -7.7794858    824.61443  0.016040586   0.01499671           38 
 4285000   0.56197732   -7.7911477    823.78442  0.016020701  0.014992032           34 
 4286000   0.56216341   -7.7595094    823.88065  0.016018834  0.014987354           18 
 4287000   0.56220433   -7.7705753    824.61325  0.016029338  0.014982676           17 
 4288000   0.57412134   -7.7682729    825.31644  0.016039265  0.014978007           30 
 4289000   0.56061003   -7.7722831    823.18992  0.015994208  0.014973338           27 
 4290000   0.55876475   -7.7917319    823.69242  0.016000241  0.014968662           45 
 4291000   0.56712731   -7.7890006    824.30935  0.016008494  0.014963998           29 
 4292000   0.56906558   -7.7886988    824.62258  0.016010845  0.014959325           17 
 4293000   0.57720619   -7.7945144    824.98364  0.016014125  0.014954656           18 
 4294000   0.55889605   -7.7746917    823.65052  0.015984523  0.014949986           15 
 4295000   0.57621814   -7.7918126    825.19629  0.016010793  0.014945317           22 
 4296000    0.5464525   -7.7742372    823.27223  0.015969744  0.014940654           21 
 4297000   0.56802153   -7.7806559    823.54702  0.015971356   0.01493599           33 
 4298000    0.5798125   -7.7684469    823.14813  0.015959906  0.014931337           26 
 4299000   0.56208108   -7.7995971    824.66833  0.015985662  0.014926676           34 
 4300000    0.5563039    -7.773515    824.10407  0.015971009  0.014922014           18 
 4301000   0.57632312   -7.7845573    823.44653  0.015954556  0.014917351           21 
 4302000    0.5619228   -7.7729316    824.76136  0.015976316  0.014912692           36 
 4303000   0.56058894   -7.7814673     823.7802  0.015953602  0.014908039           20 
 4304000   0.56211791   -7.7876606     824.8752  0.015971097  0.014903383           17 
 4305000   0.56869875    -7.773723    823.84761  0.015947495  0.014898736           26 
 4306000   0.54999514   -7.7970738    823.82711  0.015943395  0.014894082           24 
 4307000   0.56021158    -7.783821     821.7469  0.015899445  0.014889436           11 
 4308000   0.56834324   -7.7873024    823.86889  0.015936802  0.014884785           20 
 4309000   0.55509009   -7.7700803    824.78236  0.015950769  0.014880137           17 
 4310000   0.56273476   -7.7869523    824.49788  0.015941568  0.014875498           11 
 4311000   0.55541211   -7.7960786     824.6296  0.015940416  0.014870859           12 
 4312000   0.55348128   -7.7729049    825.63198  0.015956091  0.014866228           12 
 4313000   0.55944424   -7.7798584    824.26349   0.01592595  0.014861595           13 
 4314000   0.56000395   -7.7718098    824.50321  0.015926889  0.014856962           19 
 4315000   0.56478487   -7.7765195     824.8304  0.015929517  0.014852331           13 
 4316000   0.54723269   -7.7891931    824.95885  0.015928307  0.014847697           27 
 4317000   0.54682583    -7.775638    823.03334  0.015887448  0.014843069           18 
 4318000   0.55427694   -7.7630208    825.72433  0.015935702  0.014838442           16 
 4319000   0.56151238   -7.7680986    822.64815  0.015872659  0.014833821           12 
 4320000   0.56005135    -7.775987    824.26223   0.01590012  0.014829195           22 
 4321000   0.57204227   -7.7724706    823.17797   0.01587553  0.014824571           29 
 4322000   0.55974566    -7.786365        823.6  0.015879994  0.014819943           25 
 4323000   0.55672513   -7.7826457    822.19254  0.015849189  0.014815312           24 
 4324000   0.57056203   -7.7745928    823.58712  0.015872401  0.014810688           18 
 4325000   0.56110074   -7.7819977    824.01597  0.015876994   0.01480606           20 
 4326000   0.56458487   -7.7948712    823.35808   0.01586065  0.014801437           27 
 4327000   0.57137392   -7.7725891    823.56567  0.015860983  0.014796815           16 
 4328000   0.56547026   -7.7666583    824.68819  0.015878932  0.014792196           17 
 4329000   0.54897278   -7.7855465    824.27586  0.015867326  0.014787576           12 
 4330000   0.56362179    -7.780817      824.263  0.015863414  0.014782957           30 
 4331000   0.55205967    -7.779125     824.3737  0.015861881  0.014778337           14 
 4332000   0.54431397   -7.7865364     823.6799  0.015844873  0.014773717           31 
 4333000   0.56652289   -7.7885785    823.63083  0.015840273  0.014769102           41 
 4334000   0.56383833   -7.7917135    825.08772  0.015864631  0.014764491           14 
 4335000   0.56337856    -7.782372    823.99154  0.015839899  0.014759876           27 
 4336000   0.55336211   -7.7784176     823.5252  0.015827283  0.014755261           13 
 4337000   0.55505367   -7.7781225     823.1047  0.015815554  0.014750655           10 
 4338000   0.56938571   -7.7883364    824.00165  0.015829139  0.014746049           14 
 4339000   0.54628811   -7.7952366    824.46277  0.015834347  0.014741445           15 
 4340000   0.54607057   -7.7808714    822.82954  0.015799338  0.014736841            8 
 4341000   0.56906935   -7.7877718    823.96599  0.015817515  0.014732236           15 
 4342000   0.55073676   -7.7857103    823.29694  0.015801031   0.01472763           16 
 4343000    0.5448847   -7.7712697     822.9871  0.015791448  0.014723033           20 
 4344000   0.56173819   -7.7834101    823.90764  0.015805472  0.014718438           13 
 4345000     0.553712   -7.7775078    822.65074  0.015777728  0.014713854           14 
 4346000   0.56583561   -7.7771731    823.27864  0.015786137  0.014709269           16 
 4347000   0.55934389   -7.7835296    823.23379  0.015781646   0.01470468           12 
 4348000   0.56234624    -7.786712    823.47659   0.01578267  0.014700093           15 
 4349000   0.55260454   -7.7833346     823.2763  0.015775203  0.014695509           11 
 4350000   0.56639363   -7.7921131    824.57429  0.015796442  0.014690926           13 
 4351000    0.5530898   -7.7877186     823.3946  0.015770218  0.014686342           12 
 4352000   0.55384953   -7.7929617    823.20611  0.015762985  0.014681764            9 
 4353000   0.57121842   -7.7889289    823.04946  0.015756364  0.014677188           12 
 4354000   0.55008287   -7.7714524    823.00599  0.015751914  0.014672616           11 
 4355000   0.55074704   -7.7801668     823.8623  0.015764682  0.014668045           24 
 4356000   0.55622395   -7.7803428    824.54974  0.015774214  0.014663477           22 
 4357000   0.54677096   -7.7763423    823.73889  0.015755086  0.014658914           15 
 4358000    0.5562603   -7.7853547    825.14127  0.015778286  0.014654352           16 
 4359000   0.55157964   -7.7977482     824.0096  0.015753032  0.014649792           17 
 4360000   0.55837826   -7.7965334    823.38178  0.015737419  0.014645231           19 
 4361000   0.54116222   -7.7996147    824.67077  0.015758442  0.014640669           16 
 4362000   0.54465258   -7.7836352    824.09536  0.015743836  0.014636107           11 
 4363000   0.56139847   -7.7815104    824.00455  0.015738493  0.014631547           15 
 4364000   0.56052662   -7.8073173    823.05992  0.015716848  0.014626988           10 
 4365000   0.55952084   -7.7827718    823.76706  0.015726748  0.014622434           12 
 4366000   0.55030222    -7.784735    824.09458  0.015729397  0.014617879           34 
 4367000   0.54160468   -7.7930758    824.53273  0.015734156  0.014613322           50 
 4368000   0.55025789   -7.7848489    823.17593  0.015704669   0.01460877           24 
 4369000   0.56065434   -7.7871849    823.93283  0.015715511  0.014604216           20 
 4370000   0.54999436    -7.766902    823.45933  0.015702886  0.014599665           31 
 4371000   0.54868611   -7.7916245    822.69055  0.015684636  0.014595116           18 
 4372000   0.55392852   -7.7928303    823.72615  0.015700788  0.014590565           12 
 4373000   0.54825677   -7.7895419    824.67912  0.015715358  0.014586016           15 
 4374000   0.55438951    -7.778389    824.61077  0.015710463   0.01458147           15 
 4375000   0.55524962   -7.7876075    823.61426  0.015687891   0.01457693           13 
 4376000   0.54754702   -7.7851279    826.26949   0.01573487  0.014572391           13 
 4377000   0.53608788   -7.7967502    824.14136  0.015690758  0.014567849           12 
 4378000   0.52767896   -7.7647711    823.74205  0.015679573  0.014563308           18 
 4379000   0.55955658   -7.7997989    825.12835  0.015702374  0.014558764           20 
 4380000   0.54835423   -7.7852998    824.93748  0.015695158  0.014554229           21 
 4381000   0.55613169   -7.7892342    823.60467  0.015666223  0.014549692           15 
 4382000   0.55244528   -7.7888159    822.73325  0.015646076  0.014545157           19 
 4383000   0.55265347   -7.8155766    822.79554   0.01564369  0.014540617           22 
 4384000   0.55312197    -7.806029     823.6554  0.015656467  0.014536086           27 
 4385000   0.54750233   -7.8051524    823.34671   0.01564703  0.014531554           17 
 4386000   0.55268109   -7.7918741    823.43658   0.01564517  0.014527029           17 
 4387000   0.54454619   -7.7880904    824.07705   0.01565377  0.014522502           21 
 4388000   0.54689867   -7.8005127    824.49093  0.015658062  0.014517979           13 
 4389000    0.5465562   -7.8065457    823.51716  0.015636006  0.014513449           25 
 4390000   0.55237525   -7.7954081    823.36307  0.015629519  0.014508923           25 
 4391000   0.54886187   -7.7928882    824.07816  0.015639531  0.014504402           17 
 4392000   0.54348903   -7.7950248    823.81004  0.015630883  0.014499885           19 
 4393000   0.54827653   -7.7866785    823.96886  0.015630337  0.014495374           20 
 4394000   0.56283954   -7.7978733    824.25184  0.015632147  0.014490859           16 
 4395000    0.5413315    -7.810109    822.61848   0.01559762  0.014486344           23 
 4396000   0.56069881   -7.8026241    824.17099  0.015623502  0.014481827           14 
 4397000   0.56036763   -7.8137462    823.93874  0.015615547  0.014477312           14 
 4398000   0.54062305   -7.8001861    823.21843  0.015598348  0.014472801           15 
 4399000   0.55882106   -7.7886322    823.10374   0.01559263  0.014468288           15 
 4400000   0.54353485   -7.8046866    823.84024  0.015603035  0.014463779           13 
 4401000   0.55148262   -7.8064882    822.81094      0.01558  0.014459266           17 
 4402000   0.53848335   -7.7876349    823.36146  0.015586882  0.014454749           35 
 4403000   0.55029059   -7.8081629    822.36841  0.015564547  0.014450241           24 
 4404000   0.54788336   -7.8024363    821.79376  0.015550139  0.014445734           21 
 4405000    0.5451868   -7.8053752    822.35597  0.015557245  0.014441225           16 
 4406000   0.54570612   -7.8191489    825.00755  0.015603865  0.014436719           25 
 4407000   0.54706899   -7.8099396    823.72063   0.01557599  0.014432216           17 
 4408000   0.54306964   -7.7961113    822.51596  0.015549682  0.014427712           18 
 4409000   0.54121023   -7.8100578    822.98243  0.015554972  0.014423213           16 
 4410000   0.54205486   -7.7983696    821.20251   0.01551781  0.014418712           15 
 4411000   0.54555221    -7.801263    822.92094  0.015546757  0.014414219           18 
 4412000   0.53649729   -7.8061689     823.4872  0.015553929  0.014409723           16 
 4413000   0.54486662   -7.8023862    822.21562  0.015526392  0.014405225           28 
 4414000   0.54850802   -7.7931703    821.21233  0.015503933  0.014400728           12 
 4415000     0.538527   -7.8086097    822.25004  0.015520008  0.014396235           17 
 4416000   0.54377531   -7.7920323    823.64527  0.015542823  0.014391743           14 
 4417000   0.54552166    -7.815664    821.94989  0.015507318  0.014387251           14 
 4418000   0.53884542   -7.7977035    822.89575  0.015521649  0.014382761           27 
 4419000   0.54605011   -7.8095413    821.93149  0.015499953  0.014378272           22 
 4420000   0.54017206   -7.8116924    822.62519  0.015509525  0.014373787           14 
 4421000   0.54913778   -7.8257378    822.76049  0.015508567  0.014369296           22 
 4422000   0.54174204   -7.8147851    822.41957  0.015498635  0.014364812           21 
 4423000   0.55534993   -7.8085592    823.02844  0.015506603  0.014360332           24 
 4424000   0.54760391   -7.8104475    823.28092  0.015507853  0.014355849           14 
 4425000   0.54381036   -7.8236779    823.35339  0.015505713  0.014351372           21 
 4426000   0.54403582   -7.8125764     822.8028  0.015491844  0.014346894           26 
 4427000   0.54674951   -7.8101651    823.29521  0.015497613  0.014342418           14 
 4428000   0.54171485   -7.8137915    822.80328  0.015484855  0.014337942           25 
 4429000   0.55080239   -7.8040198    824.52786  0.015513808  0.014333477           19 
 4430000   0.55701366   -7.7999603    823.19108  0.015485159  0.014329012           23 
 4431000   0.54845377   -7.8292359    823.31017  0.015483904  0.014324548           23 
 4432000   0.53180216   -7.8093506    824.08167  0.015494917  0.014320087           22 
 4433000   0.54496674   -7.8110569    823.57907  0.015481974  0.014315621           17 
 4434000   0.54052427   -7.8030881    822.95375   0.01546673  0.014311161           26 
 4435000   0.55448945   -7.7873541    822.72846  0.015459009  0.014306703           35 
 4436000   0.54441532   -7.7987132    823.22875  0.015464922   0.01430224           26 
 4437000   0.54539145   -7.8067668    822.86504  0.015454606   0.01429778           18 
 4438000   0.53389007   -7.8141762    823.20211  0.015457453  0.014293325           25 
 4439000   0.54021407   -7.8154885    822.75875  0.015445648  0.014288872           20 
 4440000   0.54282262   -7.8106145    823.42094  0.015454597  0.014284418           14 
 4441000   0.54946932   -7.8098947    823.10846  0.015445254   0.01427997           40 
 4442000   0.54160447   -7.8120852    822.91481  0.015438144  0.014275518           26 
 4443000   0.55036741   -7.7983183     822.1312  0.015419971  0.014271065           22 
 4444000   0.53243348   -7.8176151    823.89011  0.015449485  0.014266615           25 
 4445000   0.55022719   -7.8163925    823.09482  0.015431099  0.014262163           21 
 4446000   0.54752217   -7.8146392    822.03138  0.015407696  0.014257718           27 
 4447000   0.54541934   -7.8198356    823.81823  0.015437715  0.014253273           23 
 4448000   0.53132981   -7.7961389    822.79589  0.015415091  0.014248823           16 
 4449000   0.55295085   -7.8074645    822.98807  0.015415226  0.014244387           21 
 4450000   0.54509088   -7.8109208    822.72138  0.015406767  0.014239946           20 
 4451000   0.54299389   -7.8116995    821.69352  0.015384062  0.014235504           25 
 4452000   0.54121983    -7.814386    823.16002  0.015408057  0.014231073           30 
 4453000   0.52682719   -7.8164488    822.90618  0.015399846  0.014226642           37 
 4454000   0.55129389   -7.7925454    822.37254  0.015386404  0.014222215           27 
 4455000   0.53950003   -7.8204024    824.22879  0.015417673  0.014217789           23 
 4456000   0.53246055   -7.8249689    824.11731  0.015412128  0.014213363           30 
 4457000   0.53903715    -7.809883    823.42755  0.015395774  0.014208935           15 
 4458000   0.52731966   -7.8099268    823.33924  0.015390669  0.014204507           23 
 4459000   0.53590383    -7.827457    823.00334   0.01538094  0.014200085           24 
 4460000   0.53837086   -7.8194134    822.59421  0.015369847  0.014195656           21 
 4461000   0.54814092   -7.8096405     821.9593  0.015354541  0.014191236           26 
 4462000   0.53715478   -7.8230797     823.6996  0.015383602  0.014186817           33 
 4463000   0.52677182    -7.811131    822.91099   0.01536543  0.014182399           18 
 4464000   0.53368695   -7.8316108    823.05174  0.015364616  0.014177978           25 
 4465000   0.52767817   -7.8036129    822.56968  0.015352178  0.014173565           19 
 4466000   0.54192279   -7.8172201    823.58509  0.015367687  0.014169148           24 
 4467000   0.53301462   -7.8075106    823.33305  0.015359545  0.014164731           19 
 4468000    0.5241227   -7.8175656    822.80562   0.01534627  0.014160319           33 
 4469000   0.54419023   -7.8149764    822.53777  0.015337842  0.014155905           18 
 4470000   0.53437462   -7.8175567    822.19183  0.015327961  0.014151495           26 
 4471000   0.53953564   -7.8289049    822.23177  0.015325277  0.014147084           21 
 4472000   0.54568623   -7.8152934    821.62829  0.015310605  0.014142667           30 
 4473000    0.5208678   -7.8315948    823.74595  0.015346634  0.014138254           22 
 4474000   0.53479004   -7.8171019    822.56987  0.015321299  0.014133845           22 
 4475000   0.53165239   -7.8173279    822.83791  0.015322866  0.014129438           22 
 4476000   0.53413731   -7.8142489    822.67813  0.015316468  0.014125035           30 
 4477000   0.53721594   -7.7965153    821.37534  0.015288797  0.014120632           21 
 4478000   0.54129186   -7.8081279    821.84037  0.015294037  0.014116233           39 
 4479000   0.53911656    -7.824715    822.63198   0.01530535  0.014111836           26 
 4480000   0.54456594   -7.8279304    824.47142   0.01533615  0.014107446           30 
 4481000   0.52842089   -7.8270041    822.63458  0.015298568  0.014103051           23 
 4482000   0.52243654   -7.8191766    823.26198  0.015306819  0.014098657           19 
 4483000   0.53906798   -7.8252461     823.4919  0.015307679  0.014094266           28 
 4484000   0.52471243   -7.8251938    821.27185  0.015263006  0.014089876           35 
 4485000   0.54209044   -7.8258465    822.01769  0.015273461  0.014085482           24 
 4486000   0.53970172   -7.8324087    820.38183  0.015239668   0.01408109           22 
 4487000   0.53479936   -7.8211792    821.97824  0.015265921  0.014076695           28 
 4488000   0.52464006   -7.8211295    822.22106  0.015267028  0.014072307           17 
 4489000   0.53577536   -7.8458907    822.18313  0.015262923  0.014067923           22 
 4490000   0.53673723   -7.8301659    823.39173  0.015281955   0.01406354           21 
 4491000   0.52617293    -7.813218    822.12852  0.015255112  0.014059157           36 
 4492000   0.52008108   -7.8219651    821.85821  0.015246702  0.014054774           28 
 4493000    0.5397033   -7.8489603    823.49878  0.015273737  0.014050391           18 
 4494000   0.52860617   -7.7992934    822.62557  0.015254146  0.014046014           24 
 4495000   0.52846796   -7.8311285    824.03357  0.015276855  0.014041635           22 
 4496000   0.52874188   -7.8171769    821.44702  0.015225516  0.014037262           20 
 4497000   0.52649721   -7.8273368     822.4023  0.015239832  0.014032887           23 
 4498000    0.5281933   -7.8228795    822.99035  0.015247339  0.014028513           21 
 4499000   0.53475118   -7.8223668     821.7992  0.015221886  0.014024144           20 
 4500000    0.5212158   -7.8117256    822.15096  0.015225018  0.014019778           25 
 4501000   0.52202595   -7.8348611    821.50641  0.015209702  0.014015412           24 
 4502000   0.54058477   -7.8197216    821.59117  0.015207892  0.014011044           28 
 4503000   0.53522927   -7.8304917    822.47411  0.015220855  0.014006677           23 
 4504000    0.5284235   -7.8162118    821.04286  0.015190994  0.014002313           29 
 4505000   0.53891954   -7.8049657    821.91715  0.015203795  0.013997949           33 
 4506000   0.53146272   -7.8080663    822.70861  0.015215058  0.013993592           30 
 4507000   0.53900963   -7.8320542    822.32355  0.015204562  0.013989232           37 
 4508000   0.53452766   -7.8318247    821.72778  0.015190176  0.013984873           49 
 4509000   0.52600012   -7.8269583    823.91425  0.015227217  0.013980516           28 
 4510000    0.5400062   -7.8326027    821.78672  0.015184529  0.013976161           20 
 4511000   0.52935521   -7.8304774    821.98934  0.015184906  0.013971805           24 
 4512000   0.53089716   -7.8149202    821.49866  0.015172478   0.01396745           38 
 4513000    0.5280797    -7.849871    821.68068  0.015172477   0.01396309           19 
 4514000   0.53471243   -7.8401071    822.48996  0.015184056  0.013958734           22 
 4515000   0.53774993   -7.8471557    822.34428  0.015178004  0.013954381           26 
 4516000   0.54276459   -7.8204262    822.07231  0.015169625  0.013950033           25 
 4517000   0.53373975   -7.8360802    822.39596  0.015172237  0.013945681           35 
 4518000   0.52523013   -7.8337959    820.71663  0.015137905  0.013941332           19 
 4519000   0.52387652   -7.8252129    823.51387  0.015186138  0.013936983           22 
 4520000    0.5309358   -7.8240215    820.62788   0.01512957  0.013932643           23 
 4521000   0.53826976     -7.83787    822.73814  0.015165121  0.013928305           27 
 4522000   0.53273311   -7.8377032    822.13167  0.015150591  0.013923962           17 
 4523000   0.53050872     -7.84024    820.75923  0.015121955  0.013919617           40 
 4524000   0.53351287   -7.8260558    822.69252  0.015154224  0.013915281           21 
 4525000   0.52687232   -7.8320078    821.22787  0.015123902  0.013910944           27 
 4526000   0.52050254   -7.8330949    821.92992  0.015133487  0.013906604           26 
 4527000   0.53710758   -7.8254934    821.27817  0.015118146  0.013902265           24 
 4528000   0.52350028   -7.8297003    822.38138  0.015135111  0.013897933           19 
 4529000   0.52273883   -7.8265113    821.25795  0.015111098  0.013893597           26 
 4530000   0.53023832   -7.8437357    821.57067  0.015113515  0.013889261           29 
 4531000   0.52598858   -7.8562945    823.14581  0.015139149  0.013884923           29 
 4532000   0.52746483   -7.8301152    822.15762  0.015117638  0.013880587           31 
 4533000   0.53114266   -7.8287645    822.46414  0.015119938  0.013876251           48 
 4534000   0.51336167   -7.8392031    821.08192  0.015091198   0.01387192           22 
 4535000    0.5255848   -7.8542959    821.50129  0.015095577  0.013867585           25 
 4536000    0.5294522   -7.8413704    822.15512  0.015104261  0.013863253           30 
 4537000   0.53700488   -7.8254826    820.87536  0.015077426  0.013858928           26 
 4538000   0.53351094   -7.8480484    821.04812  0.015077276  0.013854599           32 
 4539000   0.52839745   -7.8561025    822.12756  0.015093772  0.013850273           27 
 4540000   0.52228184   -7.8451853    821.84403  0.015085243  0.013845946           29 
 4541000   0.52301967   -7.8361057    820.43887  0.015056134  0.013841618           26 
 4542000   0.53157789   -7.8421147    822.73991  0.015095037  0.013837298           20 
 4543000   0.52205072   -7.8703737    822.09541  0.015079892  0.013832975           24 
 4544000   0.51628073   -7.8334606     821.6491  0.015068389  0.013828654           21 
 4545000   0.53211463   -7.8350418    821.38413  0.015060215  0.013824337           26 
 4546000   0.52660727    -7.848185    823.84568  0.015102025  0.013820021           21 
 4547000   0.52935897   -7.8569385    822.25742  0.015069596  0.013815705           22 
 4548000   0.51703789   -7.8614425    822.84227  0.015076998  0.013811398           24 
 4549000   0.51763355   -7.8277945    821.30689  0.015045557  0.013807083           28 
 4550000   0.52228421   -7.8753882     821.4714  0.015045264  0.013802773           26 
 4551000   0.51668678   -7.8489622    821.73287  0.015046746  0.013798463           28 
 4552000   0.50769598   -7.8499479    820.59325  0.015022577  0.013794153           25 
 4553000    0.5276295   -7.8550795    822.45978  0.015053441  0.013789844           25 
 4554000   0.52408476   -7.8532768    820.11249  0.015007182  0.013785534           25 
 4555000   0.52118751   -7.8473499     821.1193  0.015022307   0.01378123           22 
 4556000    0.5211054    -7.849318    819.76775  0.014994289  0.013776933           17 
 4557000   0.52576144   -7.8426006     821.1611  0.015016478  0.013772633           26 
 4558000     0.522476   -7.8382865    821.45764  0.015018605  0.013768333           23 
 4559000   0.51431482   -7.8682703    822.81482  0.015040119  0.013764029           17 
 4560000   0.52089354   -7.8503778    821.63806  0.015015315  0.013759729           29 
 4561000   0.52166474   -7.8551662    820.86453   0.01499789  0.013755434           28 
 4562000   0.52728434    -7.854046    822.00416   0.01501542   0.01375114           22 
 4563000   0.52986474   -7.8623924    821.03595  0.014994447  0.013746847           28 
 4564000   0.52561144   -7.8617817    821.70095  0.015003304  0.013742555           27 
 4565000   0.51063571   -7.8707694    821.71559  0.015000285  0.013738264           23 
 4566000     0.528261   -7.8556351    821.14512  0.014986588  0.013733973           17 
 4567000     0.522698   -7.8381719    821.07365  0.014982002  0.013729684           22 
 4568000   0.51473363   -7.8589685    821.85368  0.014992952  0.013725397           37 
 4569000   0.52870272   -7.8543214     820.5394    0.0149657  0.013721114           28 
 4570000   0.54221146   -7.8492229    820.69513  0.014965265  0.013716831           23 
 4571000     0.513675   -7.8685021    821.69487  0.014980217   0.01371255           19 
 4572000   0.51698168   -7.8546797    821.16216  0.014967231  0.013708271           23 
 4573000   0.53122949   -7.8531317    821.25308  0.014965615  0.013703993           24 
 4574000   0.52234989   -7.8520437    821.06543  0.014958924  0.013699719           21 
 4575000    0.5125272   -7.8492569    820.50367  0.014945422  0.013695443           17 
 4576000   0.51884198   -7.8471178    820.60206  0.014943948  0.013691174           29 
 4577000     0.525247   -7.8553281    822.32849  0.014972116    0.0136869           25 
 4578000   0.51683308   -7.8385737    820.94992  0.014943751  0.013682625           15 
 4579000   0.52315682   -7.8546459     820.1326  0.014925613  0.013678355           31 
 4580000   0.51252576   -7.8616164    820.78863  0.014934291  0.013674085           28 
 4581000   0.51702969   -7.8510243    821.82395  0.014949864  0.013669818           29 
 4582000   0.53127661   -7.8500236    821.01071  0.014931811  0.013665554           23 
 4583000   0.51172855   -7.8580955    821.43063  0.014936189  0.013661294           21 
 4584000   0.51672464   -7.8460122    822.67151  0.014955488  0.013657032           17 
 4585000   0.51095859   -7.8499639    820.92221  0.014920433  0.013652771           27 
 4586000   0.51243317   -7.8532535    820.84591  0.014915793  0.013648512           24 
 4587000   0.51191777   -7.8624739    819.38496     0.014886  0.013644252           26 
 4588000   0.51902209   -7.8710135    820.32357  0.014899803   0.01363999           26 
 4589000   0.51021559   -7.8631296    821.06147  0.014909956  0.013635736           14 
 4590000   0.51731071   -7.8806674    821.79142   0.01491996  0.013631482           30 
 4591000   0.52240132   -7.8520927    821.56691  0.014912635   0.01362723           25 
 4592000   0.52659471   -7.8602351    821.47912  0.014907795  0.013622977           26 
 4593000    0.5251117   -7.8582558    820.34896  0.014884044  0.013618722           23 
 4594000   0.51516787   -7.8817514    820.12681  0.014876774  0.013614475           23 
 4595000   0.51091642   -7.8442215    819.38637  0.014860108  0.013610225           33 
 4596000   0.51533778   -7.8671207    821.72786   0.01489933  0.013605977           21 
 4597000   0.50986436   -7.8554141    820.41911  0.014872364  0.013601734           31 
 4598000   0.51000307   -7.8596115    820.79295  0.014875905  0.013597489           21 
 4599000   0.51343156   -7.8824648    820.85602  0.014873814  0.013593248           27 
 4600000   0.51537832   -7.8539977    820.36167  0.014861624  0.013589005           20 
 4601000   0.51908131   -7.8788085    821.01838  0.014870289  0.013584765           36 
 4602000   0.51410093   -7.8555083     821.4934  0.014875659  0.013580526           20 
 4603000   0.50792668   -7.8750482    820.53944  0.014855157  0.013576288           26 
 4604000   0.51165697   -7.8601397    820.15445  0.014844962  0.013572049           42 
 4605000   0.51484236   -7.8590961    820.43703  0.014846852  0.013567816           29 
 4606000   0.50889393   -7.8730463    819.96972  0.014835174  0.013563583           19 
 4607000   0.50063015   -7.8758226    821.29545  0.014855934  0.013559347           15 
 4608000   0.51355149   -7.8619087    822.61963  0.014876657  0.013555114           41 
 4609000   0.51272759   -7.8593155    820.92582  0.014842804  0.013550889           22 
 4610000    0.5140867   -7.8596245    819.68996  0.014817244  0.013546664           18 
 4611000   0.50316396   -7.8818296    820.44293  0.014827639  0.013542441           23 
 4612000   0.52357329   -7.8728253    820.83883  0.014831578   0.01353822           20 
 4613000   0.51321963   -7.8476271    820.94965  0.014830364  0.013533997           28 
 4614000   0.51287345   -7.8820784    820.98182  0.014827731  0.013529774           26 
 4615000   0.49931995   -7.8655229    819.91498  0.014805254  0.013525554           30 
 4616000   0.50199505   -7.8617434    819.71742   0.01479848  0.013521335           39 
 4617000   0.52143945   -7.8666511    820.63601  0.014811855  0.013517118           30 
 4618000   0.50206098   -7.8700631    819.38674  0.014786104  0.013512897           23 
 4619000   0.50630949   -7.8744446     820.1131  0.014796007  0.013508682           27 
 4620000   0.50967577   -7.8695178    821.38921  0.014815823  0.013504466           28 
 4621000   0.52334837    -7.890751    820.26989  0.014792431  0.013500254           27 
 4622000   0.51659076   -7.8645803    819.68439  0.014778674  0.013496041           24 
 4623000   0.51501876   -7.8628499    821.39833  0.014806373  0.013491831           38 
 4624000    0.5081796   -7.8669428    819.92418  0.014776604  0.013487619           28 
 4625000   0.49401685   -7.8793401    819.74629  0.014770203   0.01348341           27 
 4626000   0.50860516   -7.8638646    820.05786  0.014772623  0.013479201           25 
 4627000   0.50946309   -7.8901845      819.066  0.014751567  0.013474995           26 
 4628000   0.51297322   -7.8634336    819.93566  0.014764039   0.01347079           39 
 4629000   0.52005516    -7.881985    821.04929  0.014780897  0.013466589           34 
 4630000   0.51588947   -7.8587249    821.93683  0.014793679  0.013462386           23 
 4631000   0.51554471   -7.8679094    820.04325  0.014756411   0.01345819           21 
 4632000   0.50559368   -7.8821087    820.00953  0.014752618  0.013453991           25 
 4633000   0.51637743   -7.8690275    820.12026  0.014751426  0.013449796           29 
 4634000   0.50497466   -7.8791297    821.38152  0.014770924  0.013445602           27 
 4635000   0.50601277   -7.8629204    819.17499  0.014728065  0.013441408           25 
 4636000   0.52399775   -7.8746979    820.98239  0.014757377  0.013437217           23 
 4637000   0.50247624   -7.8779149    820.96972  0.014753967  0.013433025           23 
 4638000    0.5073405   -7.8663891    821.02714  0.014751817  0.013428834           31 
 4639000   0.51299164   -7.8732185    818.66515  0.014706207  0.013424648           27 
 4640000   0.50050182   -7.8643844    819.57051  0.014719298  0.013420457           22 
 4641000   0.51061897   -7.8622455    820.43776  0.014731699  0.013416273           30 
 4642000   0.51523595   -7.8697916    819.74877  0.014716156  0.013412089           21 
 4643000    0.5190942   -7.8791549    820.30418  0.014722955  0.013407904           29 
 4644000   0.50083488   -7.8746827    820.33593  0.014720355  0.013403723           27 
 4645000   0.51495626   -7.8601127    821.77759   0.01474305  0.013399548           25 
 4646000   0.49953469    -7.871664    819.59101  0.014700657  0.013395371           30 
 4647000   0.51189296   -7.8593343    819.52909  0.014696383  0.013391198           27 
 4648000   0.50868367   -7.8748343    821.06152  0.014720696  0.013387025           27 
 4649000   0.51168529   -7.8778566    820.80583  0.014712946  0.013382855           26 
 4650000   0.49265646   -7.8764606    820.68663  0.014707646  0.013378685           22 
 4651000    0.5006574   -7.8819745    821.26538  0.014714853  0.013374511           24 
 4652000   0.50717188   -7.8630062    819.61509  0.014682127   0.01337034           25 
 4653000    0.5078267   -7.8801033    820.08742  0.014687431  0.013366172           28 
 4654000   0.49756266   -7.8731773    819.86052  0.014680213  0.013362006           23 
 4655000    0.5097465   -7.8698208    819.87845   0.01467738  0.013357844           24 
 4656000   0.49373828   -7.8639226    820.45604  0.014684565   0.01335368           37 
 4657000   0.50079066   -7.8842703    820.20397  0.014676902  0.013349516           30 
 4658000   0.50136498   -7.8783427    820.69452  0.014682527  0.013345356           39 
 4659000   0.51701556   -7.8696811    821.07753  0.014686226  0.013341195           33 
 4660000   0.50382219   -7.8592553    819.89456   0.01466192  0.013337038           27 
 4661000   0.49500766    -7.868368    819.14394  0.014645354  0.013332885           24 
 4662000   0.49412546   -7.8678657    820.59381  0.014668129  0.013328733           25 
 4663000   0.50680521   -7.8676408    820.75138  0.014667799  0.013324585           26 
 4664000   0.50773431   -7.8742648    819.59685  0.014644026  0.013320429           31 
 4665000   0.49405476   -7.8737179    819.90316  0.014646359   0.01331628           23 
 4666000   0.49649603   -7.8761279    820.48516  0.014653614  0.013312136           28 
 4667000   0.50471684   -7.8531038    820.69305  0.014654186  0.013307996           23 
 4668000   0.51355026   -7.8640028    821.84622  0.014671633  0.013303856           31 
 4669000   0.50071244   -7.8866338    819.04122  0.014618427  0.013299716           35 
 4670000   0.50366905   -7.8691111    822.43697  0.014675892  0.013295577           23 
 4671000   0.51328219   -7.8797508    819.97458  0.014628819   0.01329144           26 
 4672000   0.50854667   -7.8825422    819.99477  0.014626048  0.013287303           31 
 4673000   0.49500272   -7.8792109    818.48126  0.014595928  0.013283166           24 
 4674000   0.52043271   -7.8864309    820.93438  0.014636542  0.013279032           31 
 4675000   0.49910855   -7.8665372    820.17999  0.014619964    0.0132749           32 
 4676000   0.50725257   -7.8781928    820.91654  0.014629964  0.013270768           34 
 4677000   0.51410116   -7.8842128    820.16846  0.014613507  0.013266639           25 
 4678000   0.49262784   -7.8769233    820.12042  0.014609527  0.013262514           23 
 4679000   0.50968372   -7.8664231     819.6455  0.014597946  0.013258389           21 
 4680000   0.48830569   -7.8677229    820.03074  0.014601687  0.013254267           32 
 4681000   0.49469975   -7.8620341    820.70928  0.014610647  0.013250149           26 
 4682000   0.50705217   -7.8616964    818.75706   0.01457278  0.013246029           26 
 4683000   0.50124427   -7.8705711    819.49299  0.014582764  0.013241911           28 
 4684000     0.499248   -7.8855009    819.67323  0.014582857  0.013237796           22 
 4685000    0.5045618   -7.8841034    820.38103  0.014592334  0.013233678           26 
 4686000   0.50372536   -7.8842596     820.3791  0.014589186   0.01322956           31 
 4687000   0.49206234   -7.8846272    820.72336  0.014592194  0.013225445           33 
 4688000   0.50170149   -7.8589059    819.87156   0.01457394  0.013221332           31 
 4689000   0.49725889   -7.8608066    818.32482  0.014543343   0.01321722           23 
 4690000   0.50295248   -7.8786066    820.50148  0.014578918  0.013213111           22 
 4691000   0.50163604   -7.8796423    820.10589  0.014568782  0.013209001           28 
 4692000    0.5040429   -7.8868222    819.96756   0.01456322  0.013204891           27 
 4693000   0.49403033   -7.8717452    818.76281  0.014538725  0.013200784           28 
 4694000   0.50431542    -7.865288    820.24855  0.014562004  0.013196678           22 
 4695000   0.49949283   -7.8953711      820.536  0.014564004  0.013192574           26 
 4696000   0.49350105   -7.8572429    819.57296  0.014543813  0.013188472           34 
 4697000    0.4982334   -7.8803322    819.26019  0.014535168  0.013184369           30 
 4698000   0.50482192   -7.8837348    820.34443  0.014551306   0.01318027           28 
 4699000   0.49695115   -7.8780006    818.99356  0.014524253  0.013176174           32 
 4700000   0.49678767   -7.8760816    819.82032  0.014535821  0.013172077           24 
 4701000   0.49815451   -7.8778932    819.80384  0.014532437   0.01316798           26 
 4702000   0.49976938   -7.8660563    819.92742  0.014531537  0.013163884           30 
 4703000   0.50004308   -7.8816192    819.67709  0.014524011  0.013159787           24 
 4704000   0.50152638   -7.8822742    819.81259  0.014523324  0.013155697           25 
 4705000   0.49437064   -7.8905944    820.56437  0.014533552  0.013151608           20 
 4706000   0.50533925   -7.8714116    819.88258  0.014518391   0.01314752           24 
 4707000   0.49222328   -7.8778132     820.9164  0.014533609  0.013143428           33 
 4708000   0.49596081   -7.8826069    820.00247  0.014514346  0.013139339           24 
 4709000    0.4965022   -7.8951856    818.88498  0.014491488  0.013135248           27 
 4710000   0.51172866   -7.8854901    817.85037  0.014470106  0.013131161           27 
 4711000   0.50176155   -7.8838288    820.26551  0.014509756  0.013127074           24 
 4712000   0.50402291   -7.8936373     818.2422  0.014470894  0.013122987           32 
 4713000   0.50058212   -7.8862274    820.36267  0.014505316  0.013118902           23 
 4714000   0.50474135   -7.8820729    819.60459  0.014488838  0.013114819           22 
 4715000   0.50733506   -7.8936914    819.93197  0.014491551  0.013110741           26 
 4716000   0.49771792    -7.886101    820.25105  0.014494117  0.013106668           26 
 4717000   0.48817402   -7.8906736    820.54624  0.014496259  0.013102596           26 
 4718000   0.50447454    -7.877683    820.67839  0.014495521  0.013098523           25 
 4719000   0.49766305   -7.8597956    818.58476  0.014455477  0.013094456           20 
 4720000   0.49199326   -7.8862584    820.04622  0.014478217  0.013090387           23 
 4721000    0.4845778   -7.8733485    820.87835  0.014489839  0.013086318           21 
 4722000   0.49943813   -7.8949326     820.1097  0.014473205  0.013082253           33 
 4723000   0.48662921   -7.8732066    819.33336  0.014456443  0.013078185           25 
 4724000   0.48998141   -7.8884516    819.80328  0.014461672  0.013074123           22 
 4725000   0.49572267   -7.8842389    819.97048   0.01446156  0.013070065           15 
 4726000   0.49191583    -7.875556    819.58565  0.014451715  0.013066005           21 
 4727000   0.48792158   -7.8896394    818.02302   0.01442111  0.013061944           16 
 4728000   0.49593444   -7.8654767    819.12253  0.014437439  0.013057882           24 
 4729000   0.49308135   -7.8886516    818.68246  0.014426631  0.013053822           30 
 4730000   0.49637882   -7.8938022    820.62752  0.014457849  0.013049765           25 
 4731000   0.48685895   -7.9003365    819.20436  0.014429725  0.013045707           20 
 4732000   0.49181011   -7.8734089    819.02719  0.014423556   0.01304165           20 
 4733000   0.49777108   -7.9083124    820.09367  0.014439286  0.013037599           23 
 4734000   0.50298752   -7.8835616    819.33563  0.014422892  0.013033547           29 
 4735000   0.49167522   -7.8797502    819.44725   0.01442181  0.013029495           24 
 4736000   0.48560228   -7.8999313    819.50878  0.014419848  0.013025444           19 
 4737000   0.48331535   -7.8822335    818.88807  0.014405884  0.013021392           20 
 4738000    0.5111285   -7.8918685    818.66553  0.014398929  0.013017345           20 
 4739000   0.49797465   -7.8840841    819.73069  0.014414621  0.013013297           29 
 4740000   0.49554899   -7.8977189    819.83245  0.014413369  0.013009251           32 
 4741000   0.49344095   -7.8778921    818.74788  0.014391266  0.013005211           35 
 4742000   0.49838695   -7.8894957    818.95089  0.014391798  0.013001165           22 
 4743000   0.48520784   -7.8843042    818.50674   0.01438096  0.012997124           22 
 4744000   0.49163286   -7.8797508    818.94028  0.014385545  0.012993085           22 
 4745000   0.49354905    -7.894703    819.90382  0.014399435  0.012989047           30 
 4746000   0.49871791   -7.8738973    819.12121  0.014382659  0.012985012           24 
 4747000   0.48072809   -7.9027095    819.33101  0.014383312  0.012980979           35 
 4748000    0.4830268   -7.8797455    818.19985   0.01436043  0.012976947           25 
 4749000   0.48655775   -7.8890621    819.57262  0.014381495  0.012972917           34 
 4750000   0.49388951    -7.898959     819.5966  0.014378888  0.012968889           23 
 4751000    0.4915345   -7.8787068    818.83421  0.014362489  0.012964866           30 
 4752000   0.48925433   -7.8711818    818.98302  0.014362076  0.012960838           24 
 4753000   0.49604968   -7.8966594    819.81683  0.014373673  0.012956811           20 
 4754000   0.49938007   -7.8887689    817.95896  0.014338083   0.01295279           17 
 4755000   0.49084722   -7.9000914    819.09224  0.014354929  0.012948769           28 
 4756000   0.48860225   -7.8902379    818.57284   0.01434281   0.01294475           23 
 4757000    0.5007474   -7.8791286     819.3287  0.014353036  0.012940735           20 
 4758000    0.4898147    -7.901212    819.27472  0.014349074  0.012936718           19 
 4759000   0.49534664   -7.9007083    819.68601  0.014353261  0.012932707           24 
 4760000   0.49852399   -7.8929878    818.70923  0.014333145  0.012928694           32 
 4761000   0.49155359   -7.9043604    818.71887  0.014330303  0.012924682           19 
 4762000   0.49234317   -7.9024079    819.68195  0.014344147  0.012920671           17 
 4763000   0.49174184    -7.881921    818.43926  0.014319394  0.012916659           23 
 4764000   0.49817581   -7.8857518    820.30894  0.014349093   0.01291265           31 
 4765000   0.49181265   -7.8728348    819.93269  0.014339501  0.012908642           30 
 4766000   0.49427921   -7.8798687    819.05558  0.014321156  0.012904636           17 
 4767000   0.48495472   -7.9048092    819.01369   0.01431742   0.01290063           24 
 4768000   0.48673973   -7.8818113     819.1607  0.014316986  0.012896624           30 
 4769000   0.49593234   -7.8948075    818.74725   0.01430676   0.01289262           33 
 4770000   0.49295682   -7.8965053    818.81454  0.014304936   0.01288862           45 
 4771000   0.50099933   -7.9094189    817.40515   0.01427732  0.012884619           25 
 4772000   0.49177843   -7.9064323    820.21449  0.014323388  0.012880623           20 
 4773000   0.49516694   -7.8919687    818.62922  0.014292709  0.012876629           22 
 4774000   0.49067969   -7.8956846     818.0477  0.014279565  0.012872637           20 
 4775000   0.49905127   -7.8927164    818.92611  0.014291904   0.01286864           31 
 4776000   0.48952372   -7.8953932    818.75329  0.014285896  0.012864651           21 
 4777000   0.48466217   -7.9158915    818.91634   0.01428575  0.012860659           34 
 4778000   0.48560847   -7.9090235    818.96203  0.014283557  0.012856671           19 
 4779000   0.49225992   -7.8971367    819.50135  0.014289973  0.012852682           20 
 4780000   0.48452124   -7.8997992    819.29529  0.014283391  0.012848691           24 
 4781000   0.48407416   -7.9003358    817.46233  0.014248455  0.012844702           16 
 4782000   0.49104898   -7.9128554    818.05542   0.01425581  0.012840718           22 
 4783000   0.47988866    -7.897991    817.89944  0.014250112  0.012836731           20 
 4784000   0.49302278   -7.9004495    819.94214  0.014282716  0.012832747           21 
 4785000   0.48597214   -7.8860298    818.89913  0.014261566  0.012828771           23 
 4786000   0.49694384   -7.9078966    818.77071   0.01425635  0.012824791           33 
 4787000   0.47524983   -7.8924582    818.63272   0.01425097  0.012820816           19 
 4788000   0.49200222   -7.9060523    818.70049  0.014249173  0.012816846           27 
 4789000   0.49495914   -7.8980603    819.34947  0.014257491  0.012812878           33 
 4790000   0.49115387   -7.8932847    818.46552  0.014239136  0.012808907           26 
 4791000   0.47982182    -7.913433    819.58076  0.014255562  0.012804933           27 
 4792000   0.47730799   -7.9257006    819.26266  0.014247055  0.012800964           15 
 4793000   0.48596913   -7.9050104    818.16086  0.014224926  0.012796994           23 
 4794000   0.47437811   -7.8905825    818.62485  0.014230025  0.012793027           27 
 4795000   0.48766041   -7.9037357    818.50223  0.014224926  0.012789061           20 
 4796000   0.48013526   -7.8973888    818.51969  0.014222263  0.012785092           42 
 4797000   0.48704879   -7.9006902    817.79959  0.014206789   0.01278113           25 
 4798000   0.47295244   -7.9197747    818.46025  0.014215302  0.012777167           24 
 4799000   0.47766675   -7.9023956    817.91275  0.014202833  0.012773205           21 
 4800000   0.48918576   -7.9271257    819.13542  0.014221101  0.012769244           21 
 4801000   0.48675001   -7.9036384    818.97619  0.014215375  0.012765284           22 
 4802000   0.48694133   -7.9123967    818.73149  0.014208168  0.012761322           23 
 4803000   0.47939012   -7.8851601    819.95531  0.014226444  0.012757367           24 
 4804000   0.48284378    -7.911439    818.10425  0.014191373  0.012753413           35 
 4805000   0.48085956   -7.9081254    819.76832  0.014217279  0.012749461           19 
 4806000   0.47898427   -7.9108918    818.76311  0.014196891  0.012745512           24 
 4807000   0.47701024   -7.8879122    818.68025  0.014192501  0.012741561           15 
 4808000   0.48093123     -7.90201     818.2177  0.014181533  0.012737614           23 
 4809000   0.48396804   -7.9157426    819.07307  0.014193406  0.012733669           24 
 4810000   0.47065593   -7.9024316    819.31908  0.014194717  0.012729721           25 
 4811000   0.48039562   -7.8989922    817.80092   0.01416547  0.012725776           22 
 4812000   0.47881246   -7.9066988    818.46387  0.014174007  0.012721829           33 
 4813000   0.48633778   -7.9087488    819.29833   0.01418551  0.012717885           28 
 4814000   0.47402474   -7.9239804    819.73062  0.014190047  0.012713946           19 
 4815000   0.47187362   -7.9021382    819.62525  0.014185276  0.012710004           21 
 4816000   0.47327922   -7.8971308    818.25335  0.014158592  0.012706067           23 
 4817000   0.47731994   -7.9162758    818.22866  0.014155226  0.012702131           38 
 4818000   0.49105835    -7.908816    818.17146  0.014151298  0.012698196           22 
 4819000   0.49201555   -7.9011801    818.22107   0.01414922  0.012694261           18 
 4820000   0.47583432   -7.9014261     819.1267  0.014161942  0.012690328           14 
 4821000    0.4899171    -7.899435    818.20703  0.014143107  0.012686395           19 
 4822000   0.48699398    -7.911246    817.84407  0.014133901  0.012682462           16 
 4823000    0.4712192   -7.9082598    819.68874  0.014162844  0.012678535           20 
 4824000   0.48011099   -7.9181005    818.83282  0.014145122  0.012674607           23 
 4825000   0.48044104   -7.9107017    818.54971  0.014137301  0.012670684           18 
 4826000   0.46533642   -7.8991839    818.98997  0.014141974  0.012666759           33 
 4827000   0.46855127    -7.907877    818.52223  0.014130969   0.01266284           25 
 4828000    0.4853981   -7.8970594    816.95474  0.014100986  0.012658919           23 
 4829000   0.48513254   -7.9044646     818.8786  0.014131266  0.012654996           20 
 4830000   0.47885165   -7.9153417    818.99394   0.01413033  0.012651076           20 
 4831000   0.48657337   -7.9135003    818.00818  0.014110401  0.012647155           22 
 4832000   0.48110247   -7.9211635    818.37251  0.014113764  0.012643236           21 
 4833000   0.47768312   -7.9137959    819.10475   0.01412347  0.012639321           40 
 4834000   0.47241042   -7.9155305     820.3392  0.014141829  0.012635402           24 
 4835000   0.46739115   -7.9214264    817.66466  0.014092807  0.012631484           24 
 4836000   0.46524286   -7.9217684    817.69219  0.014090367  0.012627566           16 
 4837000   0.47367269   -7.9234887    818.25441   0.01409714  0.012623655           16 
 4838000   0.47302413   -7.9236347    818.29914  0.014094997  0.012619744           34 
 4839000   0.47891781   -7.9096389    818.58186  0.014096953  0.012615839           33 
 4840000   0.46164499    -7.916663    818.60242  0.014094394  0.012611932           32 
 4841000   0.47885736   -7.8934497    818.96187   0.01409767  0.012608025           21 
 4842000   0.47118261   -7.9165105    817.96447  0.014077593  0.012604124           22 
 4843000     0.468153     -7.91081    818.79542  0.014088984  0.012600222           27 
 4844000   0.47698861   -7.9125041    818.17354  0.014075378  0.012596326           20 
 4845000   0.47581027   -7.9161279    817.48039   0.01406055  0.012592428           19 
 4846000    0.4705274   -7.9221268    817.99718  0.014066536   0.01258853           20 
 4847000   0.47157394   -7.9222967    817.60367  0.014056868  0.012584631           27 
 4848000   0.46890814   -7.9269077    817.19272  0.014046905  0.012580738           25 
 4849000   0.48007739   -7.9258649    818.98226  0.014074762  0.012576848           25 
 4850000   0.48606175   -7.9247549    818.48094  0.014063246   0.01257296           27 
 4851000   0.47750863   -7.9080591    819.56424  0.014078957  0.012569074           25 
 4852000   0.46821121   -7.9135644    818.81804  0.014063239  0.012565192           26 
 4853000   0.48590368   -7.9255309    818.51611  0.014055157  0.012561303           20 
 4854000   0.48105314   -7.9312931    818.64778  0.014054522  0.012557417           23 
 4855000   0.47005368   -7.9176829    818.28985  0.014045483  0.012553533           30 
 4856000   0.46764376   -7.9245831    818.01467  0.014037869  0.012549652           33 
 4857000   0.47794882   -7.9088864    818.47016  0.014042793   0.01254577           27 
 4858000    0.4800704   -7.9027242    818.00874  0.014031987  0.012541888           19 
 4859000   0.48023932   -7.9070603    817.74171   0.01402452  0.012538008           23 
 4860000   0.47506072   -7.9158031    817.84201  0.014023354  0.012534132           30 
 4861000   0.48237405    -7.928751    818.07369  0.014024441  0.012530257           20 
 4862000   0.46689752   -7.9151806    818.52407  0.014029276  0.012526381           23 
 4863000   0.47284145   -7.9221962     818.3801  0.014023924  0.012522506           30 
 4864000   0.46624893    -7.928763    817.94216  0.014013538  0.012518633           25 
 4865000   0.46993257   -7.9183067     818.0535  0.014012564  0.012514766           22 
 4866000   0.45856188   -7.9350911     817.8455  0.014006122  0.012510895           21 
 4867000   0.48053741   -7.9356126    817.80552   0.01400256  0.012507026           26 
 4868000   0.46995137   -7.9207656    818.54255  0.014012301  0.012503157           21 
 4869000   0.46985741   -7.9314301    817.59477  0.013993201  0.012499292           31 
 4870000   0.46968947   -7.9185248    818.50315  0.014005872  0.012495428           23 
 4871000   0.47520459   -7.9184923    817.76417  0.013990354  0.012491566           29 
 4872000     0.482928    -7.937695    817.74329  0.013987125  0.012487702           40 
 4873000   0.47075792   -7.9256618    817.26149  0.013976016  0.012483841           24 
 4874000   0.47978816   -7.9356497    817.44297  0.013976251  0.012479982           19 
 4875000   0.47509643   -7.9378277    817.25925  0.013970244  0.012476126           19 
 4876000   0.48047115   -7.9176276    817.25344  0.013967279  0.012472269           22 
 4877000   0.46954839   -7.9435373    816.97613  0.013959677  0.012468413           19 
 4878000   0.46813762   -7.9296981    818.86133  0.013989021  0.012464559           20 
 4879000   0.47947928   -7.9219807    818.29338  0.013976453  0.012460706           20 
 4880000   0.46441603   -7.9160984     817.8802  0.013966533  0.012456856           21 
 4881000   0.46854672   -7.9142761    817.19651  0.013951999  0.012453005           19 
 4882000   0.47293041   -7.9305883    817.54815  0.013955144  0.012449156           25 
 4883000   0.47890714   -7.9300624    817.36012  0.013949077  0.012445307           23 
 4884000   0.46926709   -7.9237059    817.30151  0.013945221  0.012441461           26 
 4885000   0.47276544   -7.9377197    819.72019  0.013983627  0.012437615           25 
 4886000   0.47386344   -7.9247388    816.22922  0.013921224  0.012433773           26 
 4887000   0.47702643   -7.9211002    817.80084  0.013945175  0.012429932           24 
 4888000   0.47123669   -7.9312266    817.04758   0.01392948  0.012426093           23 
 4889000   0.46663578   -7.9306448    818.47911  0.013951031  0.012422254           23 
 4890000   0.47285849   -7.9328656    818.53645  0.013949156  0.012418414           25 
 4891000   0.46349345   -7.9191716    818.10778     0.013939  0.012414574           22 
 4892000   0.47584306    -7.922928    817.60083  0.013927515  0.012410736           19 
 4893000   0.45913014   -7.9370408     818.0215  0.013931833  0.012406898           18 
 4894000   0.46586829   -7.9332463    817.98233  0.013928319  0.012403063           25 
 4895000   0.45788695   -7.9496024    817.12135  0.013910816  0.012399231           23 
 4896000   0.46579609   -7.9226958    817.94674  0.013922024    0.0123954           24 
 4897000   0.47231836   -7.9197007    818.08187   0.01392148  0.012391572           25 
 4898000   0.46697076   -7.9465646    818.47147  0.013925267  0.012387744           19 
 4899000   0.46280184   -7.9383064    816.08653  0.013881856  0.012383918           22 
 4900000   0.47097827   -7.9239504    817.68354  0.013906183  0.012380092           21 
 4901000   0.47231227   -7.9252485    817.45283  0.013899422  0.012376268           23 
 4902000   0.46912766   -7.9402853    816.63437  0.013882673  0.012372444           22 
 4903000   0.47847144   -7.9303354     817.8154  0.013899915  0.012368622           16 
 4904000   0.47025572   -7.9269203    817.48542  0.013891473  0.012364804           23 
 4905000   0.46702609   -7.9320618    817.59971  0.013890583  0.012360983           27 
 4906000   0.47408437   -7.9355484    817.45654   0.01388532  0.012357167           23 
 4907000   0.45972082   -7.9218837    817.39328  0.013881416  0.012353349           26 
 4908000   0.47419395    -7.935956    816.60461  0.013865196  0.012349535           24 
 4909000   0.46803206   -7.9354809    816.89162  0.013867244  0.012345718           23 
 4910000   0.45538527   -7.9390208     818.1961   0.01388656  0.012341903           25 
 4911000   0.47833968   -7.9359569    816.14686  0.013848959  0.012338091           26 
 4912000   0.46410075   -7.9241794    817.11804  0.013862616   0.01233428           29 
 4913000   0.46226611   -7.9324284    817.46996  0.013865764   0.01233047           25 
 4914000   0.46830002    -7.942251    817.67246  0.013866376  0.012326661           26 
 4915000   0.46420791   -7.9343735     816.1579  0.013837876  0.012322856           25 
 4916000   0.46376504   -7.9551719    818.30536  0.013871463  0.012319049           22 
 4917000   0.46435413   -7.9167663    817.30257  0.013851647  0.012315245           22 
 4918000   0.46919101   -7.9506613    817.96084  0.013859984  0.012311443           26 
 4919000   0.45729252    -7.952083    817.32873  0.013846458  0.012307644           22 
 4920000   0.45577249   -7.9487983    817.10305  0.013839821  0.012303843           18 
 4921000   0.46230261   -7.9570744    817.94451  0.013851258  0.012300045           25 
 4922000   0.46144908   -7.9486985     817.0583   0.01383344  0.012296248           22 
 4923000   0.46822521   -7.9324567     817.1276  0.013831803  0.012292454           28 
 4924000   0.47750388   -7.9337467    816.64635  0.013820849  0.012288658           30 
 4925000   0.45674771    -7.954811    817.95295  0.013840151  0.012284865           26 
 4926000   0.46320389   -7.9363126    817.34257  0.013827016  0.012281075           45 
 4927000   0.46003879   -7.9374431    817.73845  0.013830905  0.012277285           23 
 4928000   0.45937376   -7.9360099    817.86383  0.013830219  0.012273498           26 
 4929000   0.45992037   -7.9402243    816.92985  0.013811623  0.012269713           21 
 4930000   0.46892635   -7.9524342    818.23018  0.013830801  0.012265927           20 
 4931000   0.47266137   -7.9574157    817.83002  0.013821233  0.012262146           23 
 4932000   0.46313809   -7.9298224    817.64904  0.013815373  0.012258365           28 
 4933000   0.46788705   -7.9465651    817.49418  0.013809956  0.012254586           32 
 4934000   0.45833576    -7.948649    817.44837  0.013806384  0.012250806           21 
 4935000   0.45072221   -7.9397021    816.34709   0.01378499  0.012247028           31 
 4936000   0.47497786   -7.9537754    817.65347  0.013804252  0.012243251           24 
 4937000   0.46061829   -7.9370653    817.00612  0.013790529  0.012239477           22 
 4938000   0.45440678   -7.9367215    815.93621  0.013769681  0.012235702           19 
 4939000   0.45922944   -7.9487767    817.86238  0.013799392  0.012231929           27 
 4940000   0.46458998   -7.9396627     817.6186  0.013792487  0.012228161           36 
 4941000   0.45956868   -7.9490834    817.37636   0.01378561  0.012224393           25 
 4942000   0.45740321   -7.9636182    817.21989  0.013780182  0.012220625           22 
 4943000      0.46701   -7.9350195    817.62104  0.013784157  0.012216864           20 
 4944000   0.45241655   -7.9613278    817.24763  0.013775075  0.012213101           23 
 4945000   0.46409717   -7.9348245    817.51344  0.013776768  0.012209337           33 
 4946000     0.454094   -7.9565171    816.61503  0.013758846  0.012205575           28 
 4947000   0.45957083   -7.9380792    816.82706  0.013759637  0.012201812           23 
 4948000   0.46735238    -7.944625    816.88446  0.013757822   0.01219805           19 
 4949000   0.45318835   -7.9575186    816.61604  0.013750523  0.012194291           27 
 4950000    0.4566642   -7.9427153    816.84837  0.013751656  0.012190531           33 
 4951000   0.45925378   -7.9516696    816.62737  0.013745159  0.012186773           24 
 4952000   0.45614745   -7.9556719    817.92451  0.013764212  0.012183017           29 
 4953000   0.45958958   -7.9484616    816.14264  0.013731453  0.012179265           21 
 4954000    0.4588835   -7.9286843    816.66947  0.013737543  0.012175513           26 
 4955000   0.44905561   -7.9519233    817.00247  0.013740371  0.012171764           30 
 4956000   0.45671504   -7.9435796    817.02942  0.013738052  0.012168014           24 
 4957000   0.46191478   -7.9339604    817.90544  0.013750007  0.012164265           22 
 4958000    0.4577285   -7.9440316    817.00196  0.013732049  0.012160521           18 
 4959000   0.46305223   -7.9526462    816.10852  0.013714266  0.012156774           24 
 4960000   0.46399757   -7.9405174    817.27562  0.013731109  0.012153032           24 
 4961000   0.45655312   -7.9326792    815.90904  0.013705386  0.012149289           32 
 4962000   0.46220669   -7.9552128    816.98663  0.013720721  0.012145549           27 
 4963000   0.45912267   -7.9506841    818.80514  0.013748491  0.012141809           19 
 4964000   0.45869919   -7.9713989    816.91515  0.013713993   0.01213807           25 
 4965000   0.46162455   -7.9519948    817.22688  0.013716463   0.01213433           24 
 4966000   0.46463751   -7.9530034    817.36058  0.013715945  0.012130594           17 
 4967000   0.46199301   -7.9454336    817.14351  0.013709541  0.012126857           31 
 4968000   0.46130415   -7.9488493    816.59626  0.013697602  0.012123123           20 
 4969000   0.45392306   -7.9502703    818.84519  0.013732562  0.012119392           20 
 4970000   0.45776376   -7.9534521    816.53572  0.013691075  0.012115663           21 
 4971000   0.44802114   -7.9484575    816.46032  0.013687057  0.012111936           18 
 4972000   0.46343811   -7.9507497    817.63815  0.013704045  0.012108209           26 
 4973000   0.45520283   -7.9336005    816.48773  0.013682012  0.012104485           31 
 4974000   0.44262315   -7.9426096    815.94003  0.013670085  0.012100759           22 
 4975000   0.45477201   -7.9673734    816.59098  0.013678241  0.012097036           29 
 4976000   0.45315852    -7.952189    817.82452   0.01369615  0.012093315           37 
 4977000    0.4547925   -7.9399569    816.78018  0.013675912  0.012089593           25 
 4978000     0.458067   -7.9508528      815.604  0.013653475  0.012085872           20 
 4979000   0.45879922   -7.9558127    817.70027  0.013685818  0.012082155           20 
 4980000   0.45396605   -7.9515036    816.46354  0.013662375  0.012078437           24 
 4981000   0.44678735   -7.9497922    815.63273  0.013645733  0.012074722           22 
 4982000   0.45623905   -7.9276165     816.4654  0.013656922  0.012071009           25 
 4983000   0.45466698   -7.9536016    816.64579  0.013657198  0.012067292           19 
 4984000   0.44346843   -7.9494688    818.55081   0.01368631  0.012063581           22 
 4985000   0.45717629   -7.9572156    817.51653  0.013666274   0.01205987           23 
 4986000   0.45413776   -7.9660659    817.44489  0.013662336  0.012056164           15 
 4987000    0.4488451   -7.9594689    816.98829  0.013651967  0.012052455           19 
 4988000   0.45960733   -7.9499138    815.76122  0.013628729  0.012048748           22 
 4989000   0.44356819   -7.9456627    817.54859  0.013655853  0.012045042           17 
 4990000   0.45923904   -7.9606384    817.01361  0.013644182  0.012041339           26 
 4991000   0.45957256   -7.9495865    815.37027   0.01361401  0.012037638           20 
 4992000   0.45046217   -7.9506856    816.85382  0.013636048  0.012033938           39 
 4993000   0.44710845   -7.9428913    815.72032  0.013614399  0.012030242           28 
 4994000   0.44904034   -7.9502679    816.47209  0.013624217  0.012026545           28 
 4995000   0.45773475   -7.9405116    817.21217  0.013633837  0.012022848           29 
 4996000   0.44998725   -7.9464675    816.80269  0.013624278  0.012019156           33 
 4997000    0.4562949   -7.9478632    816.15033  0.013610672  0.012015461           19 
 4998000    0.4466257   -7.9589466    817.32174   0.01362748  0.012011764           23 
 4999000   0.44850141   -7.9559485     815.0124  0.013586257  0.012008072           25 
 5000000    0.4581161   -7.9569874    816.46048  0.013607675  0.012004381           21 
 5001000   0.45272625   -7.9499646    816.45989  0.013604944   0.01200069           24 
 5002000   0.45643544   -7.9532945     817.2194  0.013614877  0.011997001           25 
 5003000   0.45861817   -7.9479969    816.26341  0.013596232  0.011993313           25 
 5004000   0.45185901    -7.958512    817.59686  0.013615722  0.011989628           21 
 5005000   0.45376129   -7.9701724    816.47499  0.013594322  0.011985944           33 
 5006000   0.44471584   -7.9667616    815.62371  0.013577436  0.011982259           22 
 5007000    0.4446041   -7.9674673    816.48367  0.013589037  0.011978577           23 
 5008000   0.45263417   -7.9535406    815.38029  0.013567963  0.011974898           19 
 5009000   0.44540798   -7.9615104    816.88184  0.013590235  0.011971221           21 
 5010000    0.4539086   -7.9491364    816.79123  0.013586015  0.011967545           24 
 5011000   0.45244015   -7.9555402    816.74113  0.013582471   0.01196387           24 
 5012000   0.45902842   -7.9404348    816.42442  0.013574495  0.011960198           28 
Loop time of 11133.7 on 48 procs for 5000000 steps with 4000 atoms

Performance: 77601.938 tau/day, 449.085 timesteps/s
99.4% CPU use with 48 MPI tasks x no OpenMP threads

MPI task timing breakdown:
Section |  min time  |  avg time  |  max time  |%varavg| %total
---------------------------------------------------------------
Pair    | 746.98     | 778.95     | 812.12     |  53.4 |  7.00
Neigh   | 70.774     | 72.257     | 74.156     |  10.7 |  0.65
Comm    | 646.36     | 688.83     | 729.15     |  59.9 |  6.19
Output  | 13.86      | 13.864     | 13.959     |   0.4 |  0.12
Modify  | 9439.1     | 9465.3     | 9492.2     |  14.8 | 85.01
Other   |            | 114.6      |            |       |  1.03

Nlocal:        83.3333 ave          91 max          75 min
Histogram: 2 3 3 6 4 12 10 1 5 2
Nghost:        1858.54 ave        1879 max        1834 min
Histogram: 1 2 0 2 16 10 9 3 2 3
Neighs:        11569.0 ave       13228 max       10204 min
Histogram: 4 3 5 6 8 8 8 5 0 1
FullNghs:      23137.2 ave       25838 max       20458 min
Histogram: 1 2 5 5 11 8 11 2 2 1

Total # of neighbors = 1110586
Ave neighs/atom = 277.64650
Neighbor list builds = 269198
Dangerous builds = 0

#clear
#
#next RN
#
#jump SELF
Total wall time: 3:05:36
