
units lj                  # Use reduced LJ style units
atom_style atomic         # Uncharged point particles
atom_modify map hash      # Needed for indexing of clusters etc
                          # Used to be able to find where atoms are in relation to each other.

lattice fcc 1.0 spacing 1 1 1
Lattice spacing in x,y,z = 1.5874011 1.5874011 1.5874011
region box block 0 10 0 10 0 10 units lattice
create_box 2 box
Created orthogonal box = (0.0000000 0.0000000 0.0000000) to (15.874011 15.874011 15.874011)
  3 by 4 by 4 MPI processor grid
create_atoms 1 box
Created 4000 atoms
  using lattice units in orthogonal box = (0.0000000 0.0000000 0.0000000) to (15.874011 15.874011 15.874011)
  create_atoms CPU = 0.003 seconds
set type 1 type/fraction 2 0.03 78393
Setting atom values ...
  125 settings made for type/fraction
mass 1 1.0
mass 2 1.0
pair_style lj/cut  3.5
pair_modify tail  yes
pair_coeff 1  1  1.0  1.0   # Intearaction between 1 and 1 set with epsilon = 1 and sigma = 1
pair_coeff 1  2  1.5  0.8
pair_coeff 2  2  0.5  0.88

write_data data.0
System init for write_data ...
Neighbor list info ...
  update every 1 steps, delay 10 steps, check yes
  max neighbors/atom: 2000, page size: 100000
  master list distance cutoff = 3.8
  ghost atom cutoff = 3.8
  binsize = 1.9, bins = 9 9 9
  1 neighbor lists, perpetual/occasional/extra = 1 0 0
  (1) pair lj/cut, perpetual
      attributes: half, newton on
      pair build: half/bin/atomonly/newton
      stencil: half/bin/3d
      bin: standard
WARNING: Not all mixed pair coeffs generated from mixing. Use write_data with 'pair ij' option to store all pair coeffs. (../write_data.cpp:312)


#############################
#   M E L T   S Y S T E M   #
#############################

velocity all create 2.4 1741580 mom yes dist gaussian # Assign velocities
                                                    # Temperature 2.4, random number seed, zero linear momentum
                                                                                # Gaussian distribution

timestep 0.002   # simulation timestep
thermo 1000       # output thermodynamic data every 1000 steps bf 100

# Define a fix  in this case with index 1 applied to all
# particles in the simulation. This fix is for simulations
# in the anisotropic NPT ensemble. Note that we use the MTK
# correction.
fix 1 all npt temp 2.4 2.4 0.1 iso 5.68 5.68 0.5 mtk yes tchain 5 pchain 5 # Use NPT ensemble
                                                                         # Set temperature and pressure and damping
                                                                         # Numbers of thermostats in chain and in barostat
run 10000          # run for 10000 steps
Per MPI rank memory allocation (min/avg/max) = 3.642 | 3.644 | 3.648 Mbytes
Step Temp E_pair E_mol TotEng Press Volume 
       0          2.4    -8.178823            0    -4.579723   -2.4950487         4000 
    1000    2.3782531   -4.4826907            0  -0.91620291    5.7050206    5078.1411 
    2000     2.397548   -4.3945863            0  -0.79916341    5.8217137    5107.5655 
    3000    2.4388735   -4.4580017            0  -0.80060598    5.8422707    5078.7996 
    4000    2.4276001   -4.4215138            0  -0.78102401    5.5070553    5159.8999 
    5000    2.3985069   -4.4475366            0  -0.85067567    5.6810341    5110.4809 
    6000    2.3928162   -4.3975174            0  -0.80919041    5.8017411    5120.9378 
    7000    2.4108121   -4.4451941            0  -0.82988005    5.8852328    5081.1469 
    8000    2.4333661   -4.3919902            0  -0.74285346    5.8709059    5119.4874 
    9000    2.4010431   -4.3984715            0  -0.79780728    6.0499552    5082.9467 
   10000    2.3468076    -4.446304            0  -0.92697265    5.5210269     5127.331 
Loop time of 2.0993 on 48 procs for 10000 steps with 4000 atoms

Performance: 823130.271 tau/day, 4763.485 timesteps/s
99.6% CPU use with 48 MPI tasks x no OpenMP threads

MPI task timing breakdown:
Section |  min time  |  avg time  |  max time  |%varavg| %total
---------------------------------------------------------------
Pair    | 0.85956    | 0.92957    | 1.0838     |   4.3 | 44.28
Neigh   | 0.16777    | 0.17526    | 0.20349    |   1.5 |  8.35
Comm    | 0.58043    | 0.74238    | 0.84061    |   5.8 | 35.36
Output  | 0.00024754 | 0.0002547  | 0.00039854 |   0.0 |  0.01
Modify  | 0.20743    | 0.23747    | 0.29711    |   4.8 | 11.31
Other   |            | 0.01437    |            |       |  0.68

Nlocal:        83.3333 ave          94 max          76 min
Histogram: 3 7 8 4 5 13 4 1 2 1
Nghost:        1399.90 ave        1428 max        1372 min
Histogram: 1 2 5 8 10 7 3 6 5 1
Neighs:        7416.48 ave        8677 max        6541 min
Histogram: 6 2 6 10 5 13 3 1 0 2

Total # of neighbors = 355991
Ave neighs/atom = 88.997750
Neighbor list builds = 904
Dangerous builds = 203

# Equilibrate just above the melting temperature to avoid step fn in T

fix 1 all npt temp 1.25 1.25 0.1 iso 5.68 5.68 0.5 mtk yes tchain 5 pchain 5
run 2000
Per MPI rank memory allocation (min/avg/max) = 3.642 | 3.645 | 3.648 Mbytes
Step Temp E_pair E_mol TotEng Press Volume 
   10000    2.3468076    -4.446304            0  -0.92697265    5.5210269     5127.331 
   11000    1.2317135   -5.9256662            0   -4.0785578    5.7975485     4232.135 
   12000     1.244745   -5.9588835            0   -4.0922327    5.6453118    4236.3785 
Loop time of 0.454495 on 48 procs for 2000 steps with 4000 atoms

Performance: 760404.469 tau/day, 4400.489 timesteps/s
99.6% CPU use with 48 MPI tasks x no OpenMP threads

MPI task timing breakdown:
Section |  min time  |  avg time  |  max time  |%varavg| %total
---------------------------------------------------------------
Pair    | 0.19989    | 0.21455    | 0.23093    |   1.4 | 47.21
Neigh   | 0.030921   | 0.032314   | 0.033827   |   0.4 |  7.11
Comm    | 0.1385     | 0.15502    | 0.17145    |   1.8 | 34.11
Output  | 6.2239e-05 | 6.4182e-05 | 7.6785e-05 |   0.0 |  0.01
Modify  | 0.043409   | 0.048053   | 0.052836   |   1.1 | 10.57
Other   |            | 0.004489   |            |       |  0.99

Nlocal:        83.3333 ave          91 max          76 min
Histogram: 2 2 3 6 9 11 9 3 2 1
Nghost:        1583.98 ave        1605 max        1566 min
Histogram: 1 6 6 5 8 10 6 1 3 2
Neighs:        8979.73 ave        9723 max        7828 min
Histogram: 2 1 1 3 5 10 10 7 3 6

Total # of neighbors = 431027
Ave neighs/atom = 107.75675
Neighbor list builds = 141
Dangerous builds = 8

#############################
# L I N E A R  Q U E N C H  #
#############################

# Define solid atoms. This closely follows ten Wolde  Ruiz-Montero and Frenkel  Faraday Discuss  1996  104  93-110
# Compute components of the per-atom q6 vector
compute q6 all orientorder/atom degrees 1 6 components 6 nnn NULL cutoff 1.3 # compute the Q6 parameter.
                                                                             # Use all neighbours within 1.3 unit cell.

# get number of connections
compute coord_number all coord/atom orientorder q6 0.5

# An atom is solid if it has 8 or more connections (of a possible 14)
variable is_solid atom c_coord_number>=8
group solid dynamic all var is_solid    # Must be dynamic to update
dynamic group solid defined

# do clustering
compute cluster solid cluster/atom 1.3 # Create a cluster where all atoms within are solid and max 1.3 units from another member

# define chunks one chunk per cluster
compute clus_chunks solid chunk/atom c_cluster nchunk every compress yes  # Says which atoms are in which chunk

# count the size of each chunk
compute size_chunks solid property/chunk clus_chunks count


# Find the maximum entry in the vector of chunk sizes
variable max_n equal max(c_size_chunks)


# Thermo style which includes this variable
# thermo_style custom step temp pe vol v_max_n

thermo ${N}  # Print the thermo information every 100 steps
thermo 1000  

# Reset the npt fix at a lower temperature (below freezing)
fix 1  all npt temp  ${temp} ${temp}  0.1  iso  5.68  5.68  0.5  mtk yes tchain  5  pchain  5
fix 1  all npt temp  0.45 ${temp}  0.1  iso  5.68  5.68  0.5  mtk yes tchain  5  pchain  5
fix 1  all npt temp  0.45 0.45  0.1  iso  5.68  5.68  0.5  mtk yes tchain  5  pchain  5

dump dmp2 all dcd ${N} traj.dcd
dump dmp2 all dcd 1000 traj.dcd


compute msd all msd com yes
variable twopoint equal c_msd[4]/6/(step*dt+1.0e-6)
fix 9 all vector 10 c_msd[4]
variable fit equal slope(f_9)/6/(10*dt)
thermo_style custom step temp pe c_msd[4] v_twopoint v_fit v_max_n

fix 1 all npt temp 1.25 ${temp} 0.1 iso 5.68 5.68 0.5 mtk yes tchain 5 pchain 5
fix 1 all npt temp 1.25 0.45 0.1 iso 5.68 5.68 0.5 mtk yes tchain 5 pchain 5
run 5000000 # 5000000  # Run for this many steps
Neighbor list info ...
  update every 1 steps, delay 10 steps, check yes
  max neighbors/atom: 2000, page size: 100000
  master list distance cutoff = 3.8
  ghost atom cutoff = 3.8
  binsize = 1.9, bins = 9 9 9
  4 neighbor lists, perpetual/occasional/extra = 1 3 0
  (1) pair lj/cut, perpetual
      attributes: half, newton on
      pair build: half/bin/atomonly/newton
      stencil: half/bin/3d
      bin: standard
  (2) compute orientorder/atom, occasional
      attributes: full, newton on
      pair build: full/bin/atomonly
      stencil: full/bin/3d
      bin: standard
  (3) compute coord/atom, occasional
      attributes: full, newton on
      pair build: full/bin/atomonly
      stencil: full/bin/3d
      bin: standard
  (4) compute cluster/atom, occasional
      attributes: full, newton on
      pair build: full/bin/atomonly
      stencil: full/bin/3d
      bin: standard
Per MPI rank memory allocation (min/avg/max) = 9.734 | 9.739 | 9.743 Mbytes
Step Temp PotEng c_msd[4] v_twopoint v_fit v_max_n 
   12000     1.244745   -5.9588835 8.7386067e-31 6.0684766e-33 8.3333333e+20            4 
   13000    1.2556751   -5.9321137   0.54969214 0.0035236674  0.045306165            2 
   14000    1.2422835   -5.9280873    1.1256758 0.0067004512  0.046437098            2 
   15000    1.2459834   -5.9279335    1.6639855 0.0092443636  0.046311518            4 
   16000    1.2623604   -5.9448157    2.2205327  0.011565274  0.046280409            3 
   17000    1.2370472   -5.9802687    2.7261991   0.01336372  0.045916842            2 
   18000    1.2674665   -5.9819324    3.2715025  0.015145845   0.04538246            3 
   19000    1.2221827   -5.9657556    3.8357824  0.016823606  0.045416472            2 
   20000    1.2448146   -5.9435282    4.3549083  0.018145451  0.045413358            4 
   21000      1.24159   -5.9368134     4.934759  0.019582377  0.045314535            1 
   22000    1.2148308   -5.9607691    5.4512546  0.020648691  0.045392786            5 
   23000    1.1990225   -5.9461853    5.9804214  0.021668193  0.045250341            2 
   24000    1.2595573   -5.9489331    6.5366305  0.022696633  0.045195605            2 
   25000    1.2332324   -5.9750297    7.0575259  0.023525086  0.045140489            5 
   26000    1.2783841   -5.9789413    7.5682158  0.024257102  0.044994242            2 
   27000    1.2566169   -5.9416658    8.1565893  0.025174658  0.045001359            6 
   28000    1.2413873   -5.9318224    8.7385598  0.026007618  0.045105879            4 
   29000    1.2120901    -5.943597    9.2503467  0.026581456  0.045133204            3 
   30000    1.2601821   -5.9778942    9.7681315  0.027133698  0.045151666            2 
   31000    1.2644899   -5.9718745    10.238384  0.027522538  0.045099917            2 
   32000     1.229663   -5.9481522    10.708843  0.027887611  0.044961701            6 
   33000    1.2290694   -5.9646564    11.324548  0.028597343  0.044872197            4 
   34000    1.2594538   -5.9657211    11.933475  0.029248713  0.044859842            1 
   35000    1.2691156   -6.0004305    12.501124  0.029764581  0.044928645            2 
   36000    1.2576784   -5.9806213    13.129674  0.030392763  0.045008265            3 
   37000    1.2533921   -5.9224485    13.578917  0.030583146   0.04505737            5 
   38000    1.2385694   -5.9708005    14.100277  0.030921661  0.045059542            3 
   39000    1.2518331   -5.9326411    14.645297  0.031293369  0.045072197            4 
   40000     1.255501   -5.9178797    15.181803  0.031628755  0.045099902            4 
   41000    1.2429107   -5.9527527    15.687309  0.031884774  0.045083452            2 
   42000    1.2257402   -5.9495269    16.138193  0.032020224  0.045022891            4 
   43000    1.2704271   -5.9350812    16.726794  0.032416266  0.044983836            2 
   44000    1.2558155   -5.9500358     17.18369  0.032544868   0.04494059            3 
   45000     1.260558   -5.9449549    17.862101  0.033077964  0.044928685            4 
   46000    1.2535178   -5.9610705    18.389809  0.033314871  0.044936907            3 
   47000    1.2507745   -5.9830566    18.844588  0.033412389  0.044905517            3 
   48000    1.2393859    -5.951107    19.490292  0.033837312  0.044885297            4 
   49000    1.2452686   -5.9313245    19.992721  0.034001226  0.044886661            3 
   50000    1.2380094   -5.9465527    20.480478   0.03413413  0.044875655            4 
   51000    1.2460508   -5.9420273    21.051589   0.03439802  0.044877965            3 
   52000    1.2586735   -5.9467998     21.59966  0.034614839  0.044865079            6 
   53000    1.2508854   -5.9580875    22.123148  0.034784824  0.044842638            4 
   54000    1.2471125   -5.9357718    22.634619  0.034929967   0.04485027            4 
   55000    1.2201282   -5.9593813    23.312411  0.035321835  0.044858403            3 
   56000    1.2594812   -5.9454522    23.746697  0.035337347  0.044860931            2 
   57000    1.2482116   -5.9764245    24.195946  0.035374189  0.044827214            3 
   58000    1.2684759   -5.9500298    24.731897  0.035534334  0.044809713            3 
   59000    1.2144185   -5.9656537    25.153224  0.035527153  0.044791994            2 
   60000    1.2225122    -6.014838    25.613731  0.035574626  0.044758626            2 
   61000    1.2269647   -5.9566614     26.12067  0.035683975  0.044712841            2 
   62000    1.2414697   -5.9716343    26.453183  0.035555353  0.044654911            3 
   63000    1.2666714   -5.9569962    27.064627  0.035799771  0.044583295            6 
   64000    1.2394289   -5.9637212    27.672761   0.03603224  0.044527163            2 
   65000    1.2222781   -5.9574363    28.143564  0.036081492  0.044474052            1 
   66000    1.2499038   -5.9780543    28.570798  0.036074239  0.044423744            3 
   67000    1.2385865   -5.9452745    29.157234  0.036265217  0.044362977            3 
   68000    1.2470822   -5.9972921    29.664776  0.036353892  0.044315217            2 
   69000      1.24117   -5.9387531    30.047122  0.036288794  0.044249275            3 
   70000    1.2561724   -5.9334612    30.731423  0.036585027  0.044202114            2 
   71000    1.2468315   -5.9517086    31.271941  0.036704156   0.04417623            3 
   72000    1.2264526   -5.9817757    31.998784  0.037035629  0.044159183            3 
   73000    1.2065299   -5.9915071    32.538173  0.037144033  0.044164105            2 
   74000    1.2547931   -5.9806677    33.174652  0.037358843  0.044184828            4 
   75000    1.2291492    -5.990503    33.895621  0.037661801  0.044210834            3 
   76000    1.2263706   -5.9397949    34.753204  0.038106583  0.044269063            1 
   77000    1.2020164   -5.9721549    35.073554  0.037958392  0.044325162            3 
   78000    1.2132671   -5.9403486    35.887364    0.0383412  0.044380754            4 
   79000    1.2291985   -5.9492116    36.230842  0.038218188  0.044422568            2 
   80000    1.2205582   -5.9564586    36.813553  0.038347451  0.044458425            3 
   81000    1.2253752   -5.9995046    37.124994  0.038194438  0.044493446            4 
   82000    1.2360313    -5.975945    37.663887  0.038276308  0.044516221            3 
   83000    1.2685325    -5.946182    38.002602  0.038155222  0.044524424            3 
   84000    1.2289837   -5.9484451    38.591606  0.038285323  0.044519863            5 
   85000    1.2370741   -5.9710943    39.043166  0.038277613  0.044518843            5 
   86000    1.2521953   -5.9675145    39.522482  0.038296978  0.044517902            2 
   87000    1.2380087   -5.9307006      40.0153  0.038328831  0.044508182            5 
   88000    1.2288442   -5.9615609    40.290227  0.038153624  0.044487959            3 
   89000    1.2206599   -6.0077768    40.895697  0.038291851  0.044464564            3 
   90000    1.2400351    -5.977078    41.469199  0.038397407   0.04445111            3 
   91000    1.2520312   -5.9686928     42.03522  0.038493791  0.044438496            4 
   92000    1.2230381   -5.9915381    42.617334  0.038602657  0.044432726            4 
   93000    1.2363463    -5.957578    43.289365  0.038789753   0.04442879            2 
   94000    1.2510321   -6.0118255    43.509894  0.038572601  0.044417954            3 
   95000    1.2422353   -5.9530441    44.072573  0.038660152  0.044397451            4 
   96000    1.2376235   -5.9982346     44.69943  0.038801589  0.044377639            5 
   97000    1.2459634   -5.9575314    45.235432  0.038862055  0.044360398            2 
   98000    1.2428693   -5.9649482    45.751688  0.038904496   0.04434395            2 
   99000    1.2205822   -5.9872423    46.292242  0.038966533  0.044336572            4 
  100000    1.2453317   -5.9825037    46.910452  0.039092043    0.0443302            5 
  101000    1.2329986   -5.9865372    47.303105  0.039028964  0.044315516            3 
  102000     1.263169   -5.9521401    47.859955   0.03910127  0.044307771            2 
  103000    1.2432239   -5.9704024    48.208867  0.039003937   0.04429167            3 
  104000    1.2460354   -5.9683167    48.681445  0.039007568  0.044277855            1 
  105000    1.2658315   -6.0267062    49.485196  0.039273965  0.044271066            2 
  106000    1.2170769   -6.0118181    50.096691  0.039384191  0.044270777            4 
  107000    1.2416787   -5.9742078    50.766529  0.039537795  0.044274514            2 
  108000     1.231687   -5.9832351    51.020299  0.039367515  0.044269804            3 
  109000    1.2455026   -5.9865125    51.681987  0.039512222  0.044265155            3 
  110000    1.2227126   -6.0008146      52.0666  0.039444394  0.044255915            3 
  111000    1.2365738   -5.9749737    52.570745  0.039467526  0.044250963            3 
  112000    1.2274781   -5.9901367    52.950543  0.039397725  0.044241503            2 
  113000    1.2455188   -5.9566876    53.634846  0.039553721  0.044235597            1 
  114000    1.2362151   -5.9524649    54.160965  0.039591349  0.044224102            3 
  115000    1.2444174   -5.9674376    54.681758  0.039624462  0.044213335            2 
  116000    1.2330076   -5.9864647    55.099481   0.03958296   0.04419801            3 
  117000    1.2312357   -5.9733786    55.602738   0.03960309  0.044183968            3 
  118000    1.2253839   -5.9468941    56.180259  0.039675324  0.044173109            3 
  119000    1.2416545   -5.9617148    56.483541    0.0395543   0.04415462            2 
  120000    1.2576384   -5.9816798    57.039315  0.039610636  0.044131838            2 
  121000    1.2157942   -5.9658502    57.331105  0.039484232  0.044108393            3 
  122000    1.2262037   -5.9894374    57.889309  0.039541878  0.044085731            5 
  123000    1.2001765   -5.8996097    58.605945  0.039705925  0.044065952            3 
  124000    1.2280626    -6.002708    58.870165  0.039563283  0.044047157            3 
  125000    1.2252525   -5.9946281    59.419728  0.039613152  0.044023004            4 
  126000    1.2560986   -5.9891872    59.922398  0.039631215  0.043999608            3 
  127000    1.2540234   -5.9517838    60.722223  0.039843978  0.043978573            4 
  128000    1.2209703    -5.997178    61.228655  0.039862406  0.043968803            4 
  129000     1.228054   -5.9829538    61.588498  0.039785851  0.043951614            3 
  130000    1.2446662   -5.9934125    62.237454  0.039895804  0.043936008            2 
  131000    1.2170656   -6.0023629    63.006405   0.04008041  0.043919671            6 
  132000    1.2284383   -5.9814324    63.550572   0.04012031  0.043912598            4 
  133000    1.2363677   -5.9567597     63.87797  0.040023791  0.043903309            5 
  134000    1.2135632   -5.9905929    64.518214  0.040123267  0.043896031            4 
  135000    1.2377202   -5.9749684    64.877828  0.040048042   0.04388571            4 
  136000    1.2091007   -6.0129721    65.136798  0.039912254  0.043874112            3 
  137000    1.2381259   -5.9491925    65.748037  0.039992723  0.043864969            4 
  138000    1.2302606   -5.9943858    66.377128  0.040082807  0.043858523            4 
  139000    1.2276299   -5.9971597    66.613405  0.039936094  0.043848728            4 
  140000    1.2018415   -5.9904856    67.462426  0.040156206  0.043838056            2 
  141000    1.2512301   -5.9494987    67.818981   0.04008214  0.043830032            3 
  142000    1.2475908   -5.9659905    68.883787  0.040424758  0.043827191            3 
  143000    1.2186511   -6.0308348    69.231941  0.040344954   0.04382632            3 
  144000     1.228008   -5.9984134    69.406137  0.040165588  0.043820773            2 
  145000     1.216068   -5.9540375    70.088276  0.040280618   0.04381326            7 
  146000    1.2407665   -5.9922679    70.565824  0.040277297  0.043802291            2 
  147000    1.2274063   -6.0369548    70.643859  0.040047539  0.043791968            2 
  148000    1.2475465   -5.9740781    71.467215  0.040240549  0.043778056            2 
  149000    1.2679888   -5.9968492    71.751171   0.04012929  0.043762577            2 
  150000    1.2424403   -5.9920301    72.597196  0.040331776  0.043754992            5 
  151000     1.229342    -5.975837    73.396698  0.040505904  0.043749749            2 
  152000    1.2477682   -5.9799001    73.235856  0.040151237  0.043742025            5 
  153000    1.2029286   -6.0088845    73.471274  0.040017033  0.043726224            3 
  154000    1.2454605   -5.9432157    74.222302  0.040163583  0.043705668            5 
  155000    1.2265688   -5.9649935    74.586435  0.040100234    0.0436881            2 
  156000    1.2467019   -5.9972553     75.03472   0.04008265  0.043667669            4 
  157000    1.2177796   -6.0181346    75.637048  0.040147053  0.043649289            3 
  158000    1.1929778   -5.9353589    76.111305  0.040143093  0.043631518            3 
  159000    1.2190846   -5.9891147    76.822271  0.040263245  0.043620175            3 
  160000    1.2184495   -6.0066088    77.298241    0.0402595  0.043608939            2 
  161000    1.2188291   -6.0152191    78.001368  0.040373379   0.04359522            5 
  162000    1.2550178   -5.9760131    78.283317  0.040269196  0.043581525            3 
  163000    1.2024646    -5.971241    78.921935  0.040348638  0.043567055            4 
  164000     1.242663   -6.0050527    79.573749  0.040433816  0.043553621            2 
  165000    1.2168361   -5.9700394    80.270439  0.040540625  0.043547027            2 
  166000    1.2021476   -6.0111017    80.375226  0.040349009  0.043536015            3 
  167000    1.1810807   -5.9668703    81.034071  0.040436163  0.043526011            5 
  168000    1.2240171   -6.0096004    81.394275  0.040374144  0.043516018            2 
  169000    1.2315475   -6.0054252    81.953929  0.040411208  0.043507075            6 
  170000    1.2259346   -6.0527553    82.147803  0.040268531  0.043492255            3 
  171000    1.2432002   -5.9939865    82.938677  0.040418459  0.043475439            4 
  172000    1.2110295   -5.9866563    82.924477  0.040176588  0.043454572            5 
  173000    1.2450258   -6.0293084    83.162842  0.040059173  0.043430817            2 
  174000    1.2046162   -5.9844533     83.74895   0.04010965  0.043407312            1 
  175000     1.259211   -5.9796709    84.362338  0.040172542  0.043381934            7 
  176000    1.2284524   -5.9967374    84.604759  0.040059072  0.043356175            3 
  177000    1.2153532   -6.0396142    85.097833  0.040064893   0.04332973            4 
  178000    1.2046896   -5.9876318    85.752943  0.040146509  0.043303908            5 
  179000     1.212344   -6.0190625    86.064804  0.040067413  0.043280141            4 
  180000    1.2284551   -5.9732733    86.711281  0.040144112  0.043255751            4 
  181000    1.2052701   -5.9885601    87.333914  0.040208984   0.04323304            4 
  182000    1.2228043   -5.9945821     87.33393  0.039988063  0.043208396            2 
  183000    1.2368161   -5.9985164    88.138906  0.040136114  0.043183366            3 
  184000    1.2009153   -5.9744009    88.637808  0.040143934  0.043161602            2 
  185000    1.2238566    -6.002291    89.127334  0.040147448  0.043141459            4 
  186000    1.2364079    -5.971317    89.299318  0.040008655   0.04311802            3 
  187000    1.2196254    -5.999836    90.178753   0.04018661  0.043094648            2 
  188000    1.2367948   -5.9821565    90.488674  0.040110228  0.043071088            4 
  189000    1.2161963   -5.9906368    91.066942  0.040152972   0.04304842            3 
  190000    1.1969045   -6.0282404    91.381114  0.040079436   0.04302733            4 
  191000    1.2332838    -5.976827    92.191079  0.040222984  0.043007307            2 
  192000    1.2109272   -5.9524811    92.426639  0.040115729  0.042985824            2 
  193000    1.2128242   -6.0129148    92.879134  0.040103253  0.042964104            3 
  194000    1.2016186   -5.9750167    93.445669  0.040139892  0.042943259            3 
  195000    1.2264447   -5.9886019    93.591709  0.039996457  0.042918014            7 
  196000    1.2261022   -6.0265269     93.76956   0.03986801  0.042890758            2 
  197000    1.2111284   -5.9712488    94.163205  0.039832151   0.04286351            2 
  198000    1.2406205    -6.058706    94.620935  0.039823626  0.042833597            3 
  199000    1.2002932   -5.9953499    95.092562  0.039821006  0.042806076            3 
  200000    1.2210828   -6.0407876    95.812449  0.039921854  0.042778292            2 
  201000    1.2487962   -5.9863692    96.926542  0.040185133  0.042756315            2 
  202000    1.2392199   -5.9864146    96.814335  0.039939907   0.04273374            2 
  203000    1.2398317   -5.9881508    97.880272  0.040180735  0.042713852            2 
  204000    1.2030969   -5.9904452    98.526652  0.040247815  0.042696133            3 
  205000    1.2011502   -5.9532658    99.031269  0.040256613  0.042680507            2 
  206000    1.2276695   -5.9798068    99.300985  0.040170301  0.042668002            2 
  207000    1.2103814   -6.0186753    99.734663  0.040150831  0.042651908            3 
  208000     1.200044   -6.0052432    99.961497  0.040048677   0.04263247            5 
  209000    1.2680928   -5.9892476    100.35395  0.040013536  0.042614929            2 
  210000    1.2247314   -5.9917633    101.02502  0.040089296  0.042597959            4 
  211000    1.2314155   -6.0069209    101.84576  0.040223442   0.04258203            3 
  212000      1.23467   -5.9805225    102.21594   0.04017922  0.042566926            2 
  213000    1.2187052   -6.0370436     102.5491  0.040120933  0.042551817            4 
  214000    1.2077174   -5.9961701    103.00717  0.040111825  0.042533721            2 
  215000    1.2071779   -6.0226062    103.23266  0.040012659  0.042517136            2 
  216000    1.2150059   -6.0027651    104.20798  0.040203697  0.042500188            2 
  217000    1.2060569   -5.9847598    104.74242  0.040223664  0.042484897            3 
  218000    1.2192754   -6.0148815    105.34918  0.040271092  0.042470463            2 
  219000    1.2238695   -5.9856865    105.54185  0.040160522  0.042456929            4 
  220000    1.2225148   -5.9739759    106.93244  0.040504713   0.04244592            4 
  221000    1.2155115   -5.9999641    106.97234   0.04033648  0.042437661            3 
  222000    1.2202579   -5.9827843    107.66775  0.040415823  0.042431979            5 
  223000    1.2460883   -6.0440353    108.25231   0.04045303  0.042426015            4 
  224000    1.2296429    -6.006349    108.64583  0.040418836  0.042422267            1 
  225000    1.2158954   -5.9933669    109.32904  0.040492239  0.042416456            5 
  226000     1.203691   -6.0129578    109.63769  0.040426876  0.042410442            3 
  227000    1.2104616   -6.0347136    109.91904  0.040352069  0.042404571            3 
  228000    1.2404423    -6.013594    110.65584  0.040444388  0.042396825            3 
  229000    1.2309691   -6.0289453    110.89687  0.040355485  0.042390175            2 
  230000    1.2031319   -6.0106184    111.60538  0.040436732  0.042383316            3 
  231000    1.2241767   -6.0380696    111.94965  0.040385876  0.042375532            1 
  232000    1.2046976   -6.0562355    112.80121  0.040517677  0.042367736            3 
  233000    1.2152637    -6.021952    113.36979  0.040547134  0.042362209            2 
  234000    1.2273367   -6.0197497    113.44333  0.040400046  0.042357222            3 
  235000    1.2205102   -5.9887376    114.28609  0.040526982   0.04235009            2 
  236000    1.2129262   -6.0134076     114.6427  0.040481179  0.042343341            2 
  237000    1.2001109   -6.0387068    114.88455  0.040395412  0.042335681            4 
  238000    1.2028138   -5.9835918    115.42623  0.040415348  0.042327935            2 
  239000    1.2137467   -5.9908174    115.80711  0.040379047  0.042319155            4 
  240000    1.2247164   -6.0203337    115.99444  0.040275845  0.042312654            3 
  241000    1.1985747   -6.0330891    116.87003  0.040411489  0.042304877            4 
  242000     1.240604    -6.016963    117.76629  0.040553132  0.042298759            3 
  243000    1.1983598   -5.9508646    118.12671  0.040509847  0.042295313            4 
  244000    1.2158354   -6.0025482    118.74857  0.040556204  0.042291922            3 
  245000    1.2345386   -5.9780966    119.46911  0.040635751  0.042289035            3 
  246000    1.2339392   -6.0238665    120.13522  0.040696214  0.042287987            2 
  247000    1.2146182   -5.9995193    120.57739  0.040680632  0.042287709            2 
  248000    1.2145237   -5.9699827     120.8526  0.040609074  0.042285726            3 
  249000     1.214881   -5.9900893    121.85527   0.04078155  0.042284305            2 
  250000    1.2413522   -6.0046652    122.42112  0.040807038  0.042283398            2 
  251000    1.2091626   -6.0273874    122.56476  0.040692153  0.042283044            5 
  252000    1.2099462   -6.0127082    123.07734  0.040700178  0.042281512            2 
  253000    1.1987519   -6.0196527    123.31687  0.040618206  0.042279968            3 
  254000    1.2329933   -6.0053077    123.98669  0.040678047  0.042275977            3 
  255000    1.2307047   -6.0459878    124.43785  0.040665965  0.042272925            4 
  256000    1.1982134   -6.0145453    124.73786  0.040604772  0.042269193            3 
  257000    1.2344643   -6.0067798    125.20832  0.040599326  0.042266793            2 
  258000    1.2507179   -6.0252248    125.86929  0.040655454  0.042263622            6 
  259000    1.2181907   -6.0144538    126.44231  0.040682855  0.042260008            3 
  260000    1.1960331   -5.9923594     127.0234  0.040712628  0.042255792            3 
  261000    1.1815352   -6.0458371     126.7668  0.040474713  0.042251912            3 
  262000    1.2063525   -6.0375882    127.51974  0.040559713  0.042245669            2 
  263000    1.1987809   -5.9601713    128.21342  0.040625291   0.04224108            3 
  264000    1.1812138   -6.0291837    128.65287  0.040610123  0.042237926            3 
  265000    1.2138191   -6.0353479    129.02672  0.040574439  0.042231828            3 
  266000    1.1934984   -5.9837338    129.93994     0.040708   0.04222622            6 
  267000    1.1910862   -5.9896594    130.68786   0.04078897  0.042222407            2 
  268000     1.218803   -5.9988887    130.79656  0.040670572  0.042220052            3 
  269000     1.189668   -6.0322036     131.5363  0.040748544  0.042218459            2 
  270000    1.2138684   -6.0140314     132.1201  0.040777809  0.042216885            8 
  271000    1.1890113    -6.049401    132.74346  0.040819021  0.042215632            4 
  272000    1.1922248   -5.9897483    133.89645  0.041022197  0.042215553            2 
  273000    1.2089618   -5.9707325     134.0574  0.040921063  0.042216623            4 
  274000    1.2170371   -5.9769026     134.4505  0.040891272  0.042215842            4 
  275000    1.2078071   -6.0089441    134.02359   0.04061321  0.042211927            2 
  276000    1.2171647     -6.04122    134.44289  0.040592659   0.04220676            6 
  277000    1.2065959   -6.0395959    134.84553  0.040567248   0.04220005            3 
  278000    1.2155186   -6.0035667    135.58376  0.040642615  0.042194551            1 
  279000    1.1838418   -6.0463183    135.90615  0.040593233  0.042189485            2 
  280000    1.1929447   -6.0201947    136.45374  0.040611233  0.042183252            2 
  281000    1.2033549   -6.0485304    137.55763  0.040794077  0.042178975            2 
  282000    1.2057226   -6.0065749    137.87645  0.040743631  0.042175103            4 
  283000    1.1917858   -6.0144379    137.95803  0.040623684  0.042171197            4 
  284000    1.2014357   -6.0316486    138.50475  0.040641065  0.042167775            2 
  285000    1.2165404   -6.0051667    138.93795   0.04062513  0.042161815            2 
  286000    1.1917218   -5.9988994    139.83894  0.040745611  0.042155009            3 
  287000    1.1933555   -6.0128927    140.09011  0.040676571   0.04214865            2 
  288000    1.2131553   -6.0114338    140.18343  0.040562336  0.042142589            3 
  289000     1.225568   -6.0061879    140.97192  0.040649343  0.042136929            2 
  290000    1.2015636   -6.0085646    140.83041  0.040468508  0.042129425            3 
  291000    1.1625731   -6.0462866    140.98629  0.040374079  0.042120375            4 
  292000    1.2076514   -6.0011143    141.77795  0.040461745  0.042110455            2 
  293000    1.1815504   -6.0484266    141.49269  0.040242518  0.042098189            3 
  294000     1.202602   -6.0384234    142.10103  0.040278069  0.042085652            4 
  295000    1.1943652   -6.0086974    142.92331  0.040373817  0.042074176            3 
  296000    1.1926008   -6.0420935    143.63511  0.040437813  0.042063203            2 
  297000    1.2171269   -6.0040311    144.04026  0.040415338  0.042052807            6 
  298000    1.2153649   -5.9927484    144.13174  0.040305296  0.042042022            3 
  299000    1.2069092   -6.0323681    145.45892  0.040540391  0.042031541            3 
  300000     1.191676   -6.0168894    146.00166  0.040556018  0.042023543            3 
  301000    1.2041098   -6.0228862    146.31981  0.040509361  0.042016337            5 
  302000    1.2225336   -6.0311088    146.58008  0.040447041  0.042009897            6 
  303000    1.1817108   -6.0307262    147.55162  0.040580754  0.042003778            3 
  304000    1.2094331   -6.0399027    148.06567  0.040588177  0.041997372            4 
  305000    1.2014784   -6.0895501     148.6733  0.040621121  0.041992486            4 
  306000     1.195222   -6.0291177    149.31506  0.040663143   0.04198792            3 
  307000    1.2122266   -6.0001778    149.95488  0.040704366  0.041984514            3 
  308000    1.2280372    -6.079294    149.91202  0.040560612   0.04198025            2 
  309000    1.2002161   -6.0197513    151.48927  0.040854712  0.041977711            2 
  310000    1.2047329   -6.0442629    151.64477  0.040764724  0.041975794            3 
  311000    1.2129756   -6.0166738    151.84534  0.040687391  0.041973216            3 
  312000    1.2043249   -6.0452363    151.97086  0.040590506   0.04197188            3 
  313000    1.2030679   -6.0371824    153.00648  0.040736551  0.041970161            5 
  314000    1.1813696    -6.020251    153.17875  0.040652536     0.041968            6 
  315000     1.185633   -6.0328154    154.18642  0.040790058  0.041965874            2 
  316000    1.1585483   -6.0220156     154.2037  0.040665534  0.041964886            3 
  317000     1.188035     -6.04919    154.85669  0.040708908  0.041962689            7 
  318000    1.2074822   -6.0513502    155.53273  0.040758053  0.041960247            3 
  319000    1.2096396   -6.0385374     155.1891  0.040540516  0.041957128            4 
  320000    1.1898319   -6.0330588    156.47665  0.040749127  0.041952835           10 
  321000    1.2045457   -6.0358786     156.5444  0.040639772  0.041948937            2 
  322000    1.1904222   -6.0488353    157.12444  0.040663674  0.041943829            2 
  323000    1.1916736   -6.0522114    156.93623  0.040489223  0.041938422            3 
  324000    1.2101094   -6.0150541     158.0855  0.040659851   0.04193344            7 
  325000    1.1739516   -6.0331878    158.31184  0.040592778  0.041928631            3 
  326000    1.1838808   -6.0450036    158.85724   0.04060768  0.041923304            8 
  327000     1.226156   -6.0504889    159.29754  0.040595703   0.04191853            4 
  328000     1.183301   -6.0382723    160.70914  0.040830574  0.041914008            2 
  329000     1.193709   -6.0459904    160.95008  0.040767498  0.041909959            4 
  330000     1.195371   -6.0471694    160.77233  0.040599073  0.041905201            5 
  331000    1.2410776   -6.0675847    161.38021   0.04062946  0.041900166            4 
  332000    1.1902043   -6.0340595    161.99428  0.040661216  0.041895876            4 
  333000    1.1741971   -6.0382027    162.21738  0.040594941  0.041891934            3 
  334000    1.2047423   -6.0426931    162.18576  0.040465508  0.041887931            6 
  335000    1.2216524   -6.0385402    163.29281  0.040620102  0.041882926            3 
  336000    1.1845515   -6.0415185    164.70405  0.040849218  0.041877898            3 
  337000     1.226118    -6.018467    164.62442  0.040708313  0.041875402            3 
  338000    1.2211343   -6.0632283    165.08101  0.040700447  0.041873538            5 
  339000    1.1950715   -6.0620061    165.30755  0.040636074  0.041872013            7 
  340000    1.2242386   -6.0195843    166.57693  0.040827678  0.041869976            4 
  341000     1.203053   -6.0629853    166.61284  0.040716725  0.041867846            6 
  342000    1.2058567   -6.0509766     167.5667  0.040830092  0.041866285            3 
  343000     1.213559   -6.0435286    166.82396  0.040530603  0.041862961            6 
  344000    1.1985376   -6.0537638    167.75812  0.040639079  0.041858615            4 
  345000    1.1597983   -6.0487633    168.39408    0.0406749  0.041854086            3 
  346000    1.1763786    -6.032924    169.03952  0.040712793  0.041850923            3 
  347000    1.1795286   -6.0754828    169.21135  0.040636732  0.041847987            3 
  348000    1.2016583   -6.0440113     169.9397  0.040694371  0.041845254            4 
  349000    1.2271253   -6.0680452    171.28902  0.040899956  0.041843105            5 
  350000    1.1836339   -6.0551077    171.73085  0.040888298  0.041841329            3 
  351000     1.219912   -6.0745368    171.74776  0.040775821  0.041840915            6 
  352000    1.1866077   -5.9889378    172.37214  0.040807798  0.041840164            2 
  353000    1.2123506   -6.0332866    172.49617  0.040721475  0.041838061            7 
  354000    1.2500739   -6.0498914    172.72617  0.040660587  0.041834158            3 
  355000     1.172731   -6.0516099    173.96174  0.040836089  0.041831935            4 
  356000    1.1902653   -6.0229973    174.55402  0.040860023  0.041830736            3 
  357000    1.1796051    -6.016347    174.70736  0.040781363  0.041829843            3 
  358000    1.2033984   -6.0181875    175.21581  0.040785803  0.041828242            9 
  359000    1.1898635   -6.0329913    175.50297   0.04073885   0.04182725            2 
  360000    1.1983909   -6.0540928    176.36113  0.040824335  0.041826239            5 
  361000    1.2105579   -6.0731546    176.46946  0.040736256  0.041825047            2 
  362000    1.1969712   -6.0427591    176.69703  0.040676113  0.041823294            2 
  363000    1.1813679   -6.0102868    177.17998  0.040674926  0.041820973            3 
  364000    1.1880354     -6.06077    177.69875  0.040681947  0.041817614            3 
  365000    1.1904727   -5.9844703    178.86486  0.040836725     0.041815            3 
  366000     1.237833   -6.0761409    178.52098  0.040646854  0.041810993            6 
  367000    1.1828934   -6.0262423    179.20035  0.040690362  0.041806704            3 
  368000    1.1881726   -6.0505504     179.2511  0.040591281  0.041802741            2 
  369000    1.1696612   -6.0706228    179.59374  0.040558658  0.041798135            5 
  370000    1.1973002   -6.0642378    179.58604  0.040447306  0.041792239            3 
  371000    1.2074412   -6.0351618    180.42238  0.040526141  0.041785411            4 
  372000    1.2055579   -6.0593396    181.09784  0.040568513   0.04177977            5 
  373000    1.1992891    -6.052616     181.8516  0.040628149  0.041773583            4 
  374000    1.1909739   -6.1014604    182.11762  0.040578793  0.041768991            3 
  375000    1.1808977   -6.0386005    183.05072  0.040677937   0.04176531            3 
  376000    1.2062778   -6.0164927    184.51884  0.040895133  0.041762581            3 
  377000    1.1832423   -6.0383387    184.36382  0.040752391  0.041760856            3 
  378000    1.1904763   -6.0003294    184.96202  0.040776459  0.041758202            3 
  379000    1.1724961   -6.0351715    184.80096  0.040633456  0.041754678            3 
  380000    1.2065082   -6.0330957    185.08555  0.040588937  0.041750129            7 
  381000    1.2153335   -6.0417229    185.45003  0.040562124  0.041744373            8 
  382000    1.2082181   -6.0556405    185.72168  0.040515201  0.041738171            3 
  383000    1.1877198   -6.0302178    186.81392  0.040647068  0.041731866            4 
  384000    1.1785904   -6.0150244    186.65722  0.040507209  0.041725177            3 
  385000    1.2396304   -6.0342039    187.03925  0.040484686  0.041718302            2 
  386000    1.1998586   -6.0497709    187.55737   0.04049166  0.041711607            2 
  387000    1.1963979   -6.0547381    188.19493  0.040524317  0.041705196            5 
  388000    1.1905442    -6.010371    189.39611  0.040677859  0.041699711            7 
  389000    1.1913089   -6.0589294    189.06604  0.040502579  0.041694484            4 
  390000    1.1625938   -6.0470526    190.36852  0.040677034  0.041688576            4 
  391000    1.2012795   -6.0682776    190.34996  0.040569045  0.041682714           10 
  392000    1.1895007   -6.0461846     190.7367  0.040547769  0.041677892            3 
  393000    1.1850807   -6.0759027    191.45361  0.040596609  0.041674117            2 
  394000    1.1981694   -6.0465564    192.20709  0.040652938  0.041669839            4 
  395000    1.2013233   -6.0540401    192.93259  0.040703078  0.041666524            3 
  396000    1.2037132    -6.053744    193.80442  0.040783758  0.041664168            5 
  397000    1.2132081   -6.0268978    194.20712  0.040765557  0.041661795            4 
  398000    1.1715012   -6.0297171    194.44584  0.040713116  0.041658986            4 
  399000    1.1795901   -6.1087362    194.69891  0.040663932   0.04165561            5 
  400000    1.1710178   -6.0291619    195.14526  0.040655262   0.04165201            5 
  401000    1.2064479    -6.068189    195.50247  0.040628112  0.041648657            4 
  402000    1.1846873   -6.0476149    197.05721  0.040849338  0.041645457            4 
  403000    1.1909464   -6.0543426    196.98636  0.040733325  0.041643442            4 
  404000    1.2172944   -6.0673739    197.98955  0.040839429  0.041641978            1 
  405000    1.1844779   -6.0275145    198.53725  0.040851287  0.041641102            4 
  406000    1.1662564   -6.0819671    198.20686  0.040682852  0.041639691            4 
  407000    1.1994787    -6.040433    199.80971  0.040911078  0.041638164            3 
  408000    1.1970896   -6.0995149    199.64961  0.040778106   0.04163646            3 
  409000     1.201142   -6.0856605    199.99706  0.040749197  0.041634424            2 
  410000    1.2109304   -6.0822778    200.47877  0.040747718  0.041632361            3 
  411000    1.2065879   -6.0545675    201.45565  0.040846644  0.041630086            2 
  412000    1.2193544   -6.0550044    201.55888  0.040768382  0.041627928            3 
  413000    1.1772944   -6.0653847    201.81414  0.040721174  0.041625544            6 
  414000    1.1795579   -6.0620752     202.5488  0.040770693  0.041623051            5 
  415000    1.1945813   -6.0598163    202.11657  0.040585658  0.041619414            7 
  416000    1.2171676   -6.0280829    202.77468  0.040619929  0.041616508            2 
  417000     1.200426   -6.0398502    203.50093  0.040667652  0.041614693            2 
  418000    1.1751804   -6.0392519    203.76134  0.040622277  0.041611807            5 
  419000    1.1898263   -6.0309016     204.8357  0.040739002  0.041607732            2 
  420000    1.1996436   -6.0474093     204.7884   0.04063262  0.041604089            3 
  421000    1.2101927   -6.0009536     206.0445  0.040784739  0.041600798            5 
  422000    1.1837742   -6.0331932    205.46383  0.040573425  0.041597278            2 
  423000    1.1850601   -6.0717695    205.44357  0.040473517  0.041593174            4 
  424000     1.186697   -6.0840266    205.71364   0.04043114  0.041588342            4 
  425000    1.1906487   -6.0456381    207.59742  0.040705377  0.041584206            4 
  426000    1.1961671   -6.0362218    207.29141  0.040549962  0.041579235            5 
  427000    1.1841571   -6.0921099    207.37885  0.040472063  0.041573723            3 
  428000    1.1741183   -6.0171363    208.28947  0.040554804  0.041568214            5 
  429000    1.1697217   -6.0515293    208.96627  0.040591738  0.041563248            3 
  430000    1.1914008   -6.1217849    208.62471  0.040431146   0.04155708            9 
  431000     1.189048   -6.0376727    209.52807  0.040512002  0.041551072            4 
  432000     1.195208   -6.0375761    209.67261  0.040446105  0.041545262            2 
  433000    1.1928071   -6.1444538    209.97052   0.04041003  0.041539915            2 
  434000    1.1811618   -6.0580445     210.5242  0.040423234   0.04153368            2 
  435000    1.1809241    -6.048637    211.90456  0.040594744  0.041528001            4 
  436000    1.1476314   -6.0396905    211.72166  0.040466678  0.041522039            4 
  437000    1.2069764   -6.0592116    212.47145  0.040517058  0.041516475            3 
  438000    1.1924988   -6.0709655    212.81457  0.040489835  0.041511691            3 
  439000    1.1959797   -6.0881959    213.65262  0.040556686  0.041507477            4 
  440000    1.1879088   -6.0706265    213.54148  0.040443462   0.04150279            2 
  441000     1.160488   -6.0663153    214.37232  0.040508753  0.041498719            4 
  442000    1.1952157   -6.0718315    214.90871  0.040518233  0.041494586            7 
  443000    1.1661234   -6.0376374    216.10387  0.040651593  0.041490823            3 
  444000    1.1881979   -6.0868812    215.29352  0.040407942  0.041485987            3 
  445000    1.1725467   -6.0261285    216.16723  0.040480754  0.041480684            4 
  446000    1.1985443   -6.0559071    215.89749  0.040339591  0.041474987            4 
  447000    1.1895289   -6.0752191    217.03151  0.040460758  0.041469253            5 
  448000    1.1758998   -6.0383734    217.11197  0.040385411  0.041463409            4 
  449000    1.1948056   -6.0591903     218.3213  0.040519915   0.04145726            3 
  450000    1.1718762   -6.0473717    219.55467  0.040658271  0.041451523            4 
  451000    1.1678335   -6.0548957    219.04766  0.040474437  0.041445795            3 
  452000    1.1870354   -6.0640708    219.55185  0.040477848  0.041439238            7 
  453000     1.169768   -6.0589619    219.86004  0.040445188  0.041433731            3 
  454000    1.1911229   -6.0630577    219.12633  0.040221425  0.041427983            3 
  455000    1.1811683   -6.0310448    220.66314  0.040414494  0.041421794            2 
  456000    1.1831887   -6.1008821    221.26031  0.040434999  0.041415619            3 
  457000    1.1762753    -6.034238     221.6771   0.04042252  0.041411131            2 
  458000    1.1931422   -6.0755596    223.37219  0.040642684  0.041406648            4 
  459000     1.164055    -6.084519    223.45555  0.040569271  0.041402404            2 
  460000    1.1691151    -6.096412    223.82307  0.040547657  0.041398027            8 
  461000    1.1914016   -6.1084702    223.16942  0.040341544  0.041393056            4 
  462000    1.1719691   -6.1235236    224.31294  0.040460487  0.041388098            3 
  463000    1.1730601   -6.0767805     225.1878  0.040530562  0.041384142            3 
  464000    1.2070328   -6.0594314    225.94609  0.040579398  0.041380626            4 
  465000     1.169176   -6.0755153    226.68956  0.040625368  0.041377203            3 
  466000    1.1634771   -6.0757782    226.91567  0.040578625  0.041374445            3 
  467000    1.1856852   -6.0337849    227.94734  0.040675829  0.041372084            5 
  468000    1.1606607   -6.0514872    228.78855  0.040738702  0.041370357            2 
  469000    1.1811279   -6.0679626    228.76496  0.040647648   0.04136813            2 
  470000    1.1818326   -6.1250978    228.33279  0.040484538  0.041364952           11 
  471000    1.1622203   -6.0554517    229.85455  0.040667826  0.041362209            4 
  472000    1.1888244   -6.0796077    229.56748  0.040530982  0.041359815            3 
  473000    1.1710406   -6.0475442    230.61272  0.040629444  0.041357296            3 
  474000    1.1777421   -6.0378821    231.21175  0.040649042  0.041355077            5 
  475000    1.1797554   -6.0985844     232.1424  0.040726736  0.041353587            2 
  476000    1.1588942   -6.0781279    231.93644  0.040605119  0.041352163            2 
  477000    1.1760503   -6.0293578    233.72897  0.040833154  0.041350675            2 
  478000    1.1839122   -6.0679645    232.84521  0.040593655  0.041349217            1 
  479000    1.1692534   -6.0920569    233.02564    0.0405403    0.0413475            3 
  480000    1.1973216   -6.0614188    233.83806  0.040596885  0.041345151            5 
  481000    1.1446419    -6.075919    233.86571  0.040517275  0.041342581            6 
  482000    1.1334883   -6.0910489    233.84314  0.040429312  0.041339128            3 
  483000     1.171442   -6.0505159    235.51815  0.040634601  0.041334961            1 
  484000    1.1746112   -6.0794296    234.74311  0.040417202  0.041330722            3 
  485000    1.1658953   -6.0908515     236.0891  0.040565137  0.041327037            4 
  486000    1.1700176   -6.0629517    236.39039  0.040533332  0.041323628            5 
  487000    1.1823926   -6.0602408    236.77036  0.040515119  0.041320308            2 
  488000    1.1699916   -6.0575934    237.52556  0.040561058  0.041316661            3 
  489000    1.1880051   -6.0845804    238.61771  0.040664232  0.041313917            4 
  490000    1.1740839   -6.0590223    238.24402   0.04051769   0.04131113            3 
  491000    1.1797915   -6.0620256    238.82761  0.040534218  0.041307998            3 
  492000    1.1620156   -6.0688506    238.77872  0.040443551  0.041304443            4 
  493000    1.1843253   -6.0639653    239.90719  0.040552263  0.041301777            4 
  494000    1.1768081   -6.0385273    239.97734  0.040482007  0.041298586            6 
  495000    1.1790804   -6.0888931    240.21275  0.040439856  0.041294533            2 
  496000    1.1689241   -6.1181978    240.99971  0.040490543  0.041290628            2 
  497000    1.1681001     -6.10667    241.19784  0.040442294  0.041286441            3 
  498000    1.1995148   -6.0943208    242.03179  0.040500634  0.041282663            3 
  499000    1.1769475   -6.0921587    242.74739  0.040538975  0.041278689            2 
  500000    1.1722582   -6.0699635    242.45815  0.040409692  0.041274983            2 
  501000    1.1892297   -6.0770032    243.89793  0.040568519  0.041272074            2 
  502000     1.169621   -6.0909918    245.10479  0.040688045  0.041268888            3 
  503000     1.182437   -6.0681434    244.20127  0.040457466  0.041265648            7 
  504000    1.2044682   -6.0871349    244.64764  0.040450999   0.04126211            8 
  505000    1.1655038   -6.0822895    245.30684  0.040479677  0.041258645            3 
  506000    1.1710635   -6.0730221    245.42954  0.040419885   0.04125525            4 
  507000    1.1721437   -6.0589838    246.46941  0.040511079  0.041251645            5 
  508000    1.1606872   -6.0917551    246.62754  0.040457274  0.041247909            3 
  509000    1.2119186   -6.0763377    246.39108  0.040339077  0.041243704            5 
  510000    1.1881615   -6.0887067    246.95921  0.040352811  0.041238867            8 
  511000    1.1660413    -6.076273    246.78075   0.04024474  0.041233679            5 
  512000    1.1681573   -6.0781147    247.39621   0.04026631  0.041228196            3 
  513000    1.1507958   -6.0828337    248.03481  0.040291554  0.041222937            4 
  514000    1.1792679   -6.0831089    248.53895  0.040294901  0.041217261            3 
  515000    1.1641674   -6.1090538    248.87588  0.040271177  0.041211528            3 
  516000    1.1574153   -6.1023764    248.73827  0.040170909   0.04120559            2 
  517000    1.1664224   -6.0787316    249.55552  0.040224939  0.041199779            2 
  518000    1.1835367   -6.0764749    250.77753  0.040343875  0.041194112            3 
  519000    1.1650809   -6.0686995    250.86904  0.040280835  0.041188251            7 
  520000    1.1473848   -6.1085809    251.34907  0.040280299  0.041182708            4 
  521000    1.1578605   -6.0705647    251.35898  0.040204571  0.041176678            3 
  522000    1.1435339     -6.07789    251.89281  0.040212773  0.041170735            2 
  523000    1.1665859    -6.080088    252.11611  0.040171464  0.041163931            5 
  524000    1.1855443   -6.0595157    252.46012   0.04014951  0.041157229            4 
  525000    1.1446369   -6.0746466    252.62764  0.040099625  0.041150383            3 
  526000    1.1594128   -6.0905255    253.36961   0.04014094  0.041144452            3 
  527000    1.1994998   -6.0941788    253.92549  0.040152671  0.041137414            4 
  528000    1.1720318   -6.0445246    254.92559  0.040234468  0.041130611            6 
  529000    1.1580853   -6.1109687    253.95466  0.040005461  0.041123242            3 
  530000    1.1656217   -6.0970996     254.8483  0.040070488  0.041115843            6 
  531000    1.1467406   -6.0650523    255.76192  0.040138405  0.041108863            3 
  532000    1.1734747   -6.0922522    255.11999  0.039962405  0.041101944            3 
  533000    1.1715523   -6.1081996    256.56527  0.040113395  0.041094234            2 
  534000    1.1806872   -6.1032797    257.01291  0.040108132  0.041086562            3 
  535000    1.1814057   -6.1146112    256.71901  0.039987385  0.041079061            4 
  536000    1.1956415    -6.097003    257.34296  0.040009789  0.041071154            4 
  537000    1.1393677     -6.07652    258.52167  0.040118198  0.041063736            5 
  538000    1.1510654   -6.1082029    258.92926  0.040106763  0.041056649            3 
  539000    1.1546106   -6.0860571     259.3757  0.040101376  0.041048837            3 
  540000    1.1692051   -6.1446459     258.5797  0.039904275  0.041040652            4 
  541000    1.1531364   -6.1049399    259.05026  0.039902998  0.041032605            8 
  542000    1.1515658   -6.0835592     260.0536   0.03998364  0.041024345            2 
  543000    1.1464339   -6.1071039    259.63734  0.039846124  0.041017177            4 
  544000    1.2073645   -6.0773831    261.03426  0.039986866  0.041009391            6 
  545000     1.171194    -6.101237    261.44435  0.039976201  0.041001303            3 
  546000    1.1616491   -6.0846773    261.29954  0.039880883  0.040993735            4 
  547000    1.1782424   -6.0962766    261.93179  0.039904295  0.040985698            4 
  548000    1.1593016   -6.0644874    262.62157   0.03993637  0.040977472            6 
  549000    1.1618294   -6.1060551    263.51816   0.03999972  0.040970172            6 
  550000    1.1630883   -6.0931223    263.93028  0.039989437  0.040962881            2 
  551000    1.1538977    -6.111739    264.23894  0.039963541  0.040955386            3 
  552000    1.1942138   -6.0977202    265.10854  0.040022425  0.040948098            3 
  553000    1.1618528   -6.0870698     265.0348   0.03993894  0.040940505            2 
  554000    1.1839995   -6.1124432    265.11367  0.039878711  0.040932714            3 
  555000    1.1411369   -6.0877023    266.24909  0.039977341  0.040924921            5 
  556000    1.1520878   -6.1394416    266.45254  0.039935932  0.040917238            5 
  557000    1.1741787   -6.1115305    266.47898   0.03986819  0.040909988            4 
  558000    1.1448448   -6.0811163    267.41311  0.039936246  0.040903043            5 
  559000    1.1968082   -6.1103874    267.64469  0.039899327  0.040895866            2 
  560000    1.1560635    -6.097383    268.05252  0.039888767  0.040888137            3 
  561000    1.1784806   -6.0829434    268.12471  0.039828389  0.040879849            3 
  562000    1.1391601   -6.0944121    269.28155  0.039929055  0.040871876            5 
  563000    1.1538996    -6.140744    269.14907  0.039838524  0.040863717            6 
  564000    1.1494393   -6.1484841    268.74561  0.039708276  0.040855702            3 
  565000    1.1531321   -6.0971907    269.87838  0.039805071   0.04084708            3 
  566000     1.169901   -6.1250495    270.00921  0.039754006  0.040838831            3 
  567000    1.1653165     -6.12224    271.08134  0.039841467   0.04083118            3 
  568000    1.1539183   -6.0459959    271.93249  0.039896199  0.040823161            4 
  569000    1.1275963   -6.1057476     272.9158  0.039970093  0.040816172            2 
  570000    1.1661762   -6.0978752     273.0723   0.03992285  0.040809136            3 
  571000    1.1426732   -6.0682017    273.87268  0.039969744  0.040802262            6 
  572000    1.1443096   -6.0586506    274.11752  0.039935536  0.040795478            2 
  573000    1.1552163   -6.1067881    273.48371  0.039773664   0.04078842            5 
  574000    1.1735607   -6.0932262    274.32091  0.039825916  0.040781465            4 
  575000    1.1514662   -6.1162998    274.70147  0.039811808  0.040774664            3 
  576000    1.1517369   -6.1111912    274.95834  0.039779852  0.040767604            4 
  577000    1.1602178   -6.1344664    275.43967  0.039780426  0.040760724            2 
  578000     1.168532   -6.1313454    276.98553  0.039934477   0.04075433            3 
  579000    1.1469649   -6.1494353    276.51801  0.039798217  0.040747529            9 
  580000    1.1842354   -6.1421955    277.48655  0.039868758  0.040740575            3 
  581000    1.1702755   -6.1142368    278.11593  0.039890409  0.040734009            5 
  582000    1.1649471   -6.0839638     279.4047    0.0400064   0.04072824            4 
  583000    1.1464022   -6.1217669     278.9645  0.039874857  0.040721812            3 
  584000    1.1475335   -6.1003983    279.98145  0.039951691  0.040714983            3 
  585000    1.1579885   -6.0917305     279.1479  0.039764658  0.040708023            3 
  586000    1.1467739   -6.0848027    279.74561  0.039781799  0.040700549            4 
  587000    1.1845143    -6.085814    280.26856  0.039788269  0.040693947            3 
  588000     1.157517   -6.0825602    281.62507  0.039912849  0.040687491            4 
  589000    1.1609596    -6.120927    281.41513  0.039815383  0.040681227            5 
  590000     1.155269   -6.1012065    282.10459  0.039845281  0.040674614            2 
  591000     1.161951   -6.1016532     282.3127  0.039807205  0.040668278            2 
  592000    1.1508884   -6.1226147    282.52489  0.039769833  0.040661679            5 
  593000     1.136761   -6.0996699    283.86019  0.039890414  0.040655402            3 
  594000    1.1538116    -6.104943    283.72427   0.03980419  0.040649376            4 
  595000    1.1692274   -6.0918146    284.28094  0.039815257  0.040643453            5 
  596000    1.1354382   -6.1425136    285.59908  0.039932757  0.040637257            6 
  597000    1.1744579   -6.1072801    286.00782  0.039922922  0.040631684            5 
  598000    1.1584288   -6.0876772    286.97203  0.039990528  0.040626491            3 
  599000    1.1284797   -6.0828557    286.21643  0.039818646  0.040621153            3 
  600000    1.1990509   -6.1244109    286.63652  0.039810628  0.040615843            5 
  601000    1.1524608    -6.130305    286.41383  0.039713509  0.040609826            3 
  602000    1.1689404   -6.1381665     287.3302  0.039774391  0.040603818            3 
  603000    1.1784668   -6.1051072    288.24568  0.039834948  0.040597491            3 
  604000     1.170076   -6.0799826    287.90059  0.039721384  0.040591104            2 
  605000    1.1632586   -6.1130586    288.71822   0.03976835  0.040584814            2 
  606000    1.1809338   -6.1113084    288.67176  0.039696337  0.040578212            6 
  607000    1.1445227   -6.0997687     289.4328   0.03973542  0.040571983            3 
  608000    1.1479594   -6.1201068    289.97285  0.039744086  0.040566143            6 
  609000    1.1674937   -6.1671233    290.35579  0.039731225  0.040560426            2 
  610000    1.1598714   -6.1018328    291.67941  0.039846913  0.040554437            5 
  611000    1.1312253   -6.1078208    292.16276  0.039847621  0.040549069            6 
  612000    1.1541421   -6.1243103    292.20556  0.039788339  0.040543553            2 
  613000     1.173829   -6.1164885    292.03757  0.039700594  0.040537666            3 
  614000    1.1723447   -6.0880587    293.21203  0.039795335  0.040531955            2 
  615000    1.1494974   -6.1043717    293.62781  0.039786967  0.040526064            2 
  616000    1.1434694   -6.0904637    293.63006  0.039722681  0.040520379            3 
  617000    1.1686884   -6.1367903    294.32398  0.039752023  0.040514151            3 
  618000    1.1630668   -6.1081909    293.75648  0.039611176  0.040507978            3 
  619000    1.1440823   -6.1395923    294.30998  0.039621699  0.040502025            2 
  620000    1.1591638    -6.196971    295.19166  0.039676298  0.040495534            6 
  621000    1.1403248   -6.1168483    296.43925  0.039779825  0.040489109            3 
  622000    1.1699268   -6.0891904     296.5801   0.03973474  0.040483052            4 
  623000    1.1294964   -6.1105398    295.79892  0.039566468  0.040476174            4 
  624000     1.155595   -6.1179674    296.99074  0.039662225  0.040469423            5 
  625000    1.1738891    -6.115322    297.63162  0.039684216  0.040463133            5 
  626000    1.1319326   -6.0984994     297.6297  0.039620567    0.0404565            4 
  627000    1.1484609   -6.1435121    297.84257  0.039585669  0.040449294            3 
  628000    1.1589995   -6.1327214    297.31762  0.039452975  0.040441649            5 
  629000    1.1508819    -6.100652    299.12023  0.039629072  0.040433701            3 
  630000    1.1644627   -6.1138354    299.34591  0.039596019  0.040426282            4 
  631000    1.1547219   -6.1519196    299.70989  0.039581338  0.040418469            4 
  632000    1.1484138   -6.0955971    299.64456  0.039510095  0.040411284            4 
  633000    1.1333082   -6.1212119    299.75701  0.039462482  0.040403886            5 
  634000     1.151017   -6.1157706     301.2651  0.039598462  0.040396905            3 
  635000    1.1589295   -6.0986355    301.15897  0.039522174  0.040389477            5 
  636000    1.1361907   -6.1270179    301.48778  0.039503115  0.040382202            4 
  637000    1.1716385   -6.1239453    301.04384  0.039383025  0.040374869            5 
  638000    1.1708337    -6.087087    302.23754  0.039477212  0.040366805            6 
  639000    1.1558772    -6.137083     303.2073  0.039541901   0.04035896            5 
  640000    1.1474606   -6.0994965    303.96949  0.039579361  0.040351459            5 
  641000    1.1303429   -6.1431953    302.62619  0.039342979  0.040343811            3 
  642000    1.1740136   -6.1077812    304.37618   0.03950885  0.040336056            4 
  643000    1.1637507   -6.1461926    304.73135  0.039493436   0.04032844            6 
  644000    1.1454907   -6.0858847    305.03315  0.039471163  0.040320588            4 
  645000    1.1462063   -6.1198977    304.54028   0.03934629  0.040312929            3 
  646000    1.1555203   -6.0920148    304.71521  0.039307947  0.040305282            6 
  647000    1.1447928   -6.1160479    306.90868  0.039529711  0.040297702            4 
  648000    1.1346329   -6.1389706    305.84199  0.039331531  0.040290063            3 
  649000    1.1494967   -6.1448612    306.68723   0.03937946  0.040282345            2 
  650000    1.1506543   -6.1496907    307.54274  0.039428556  0.040274882            3 
  651000    1.1650755   -6.1046969    307.55075  0.039369015   0.04026779            6 
  652000    1.1522831   -6.1245383    309.74505  0.039589091  0.040260775            3 
  653000    1.1664411   -6.1363699    309.65448  0.039516906  0.040254266            6 
  654000    1.1481406   -6.1089123    309.90176  0.039487992  0.040247848            2 
  655000    1.1521259   -6.1106842     309.5943  0.039388588  0.040241212            3 
  656000    1.1610645   -6.1177495    310.98717  0.039505484  0.040234615            4 
  657000     1.138599    -6.101448    310.62137  0.039398957  0.040227911            3 
  658000    1.1315084   -6.1248252    310.72839  0.039352633  0.040220713            2 
  659000    1.1482213   -6.1468426    310.71546  0.039291283  0.040213335            5 
  660000    1.1406188   -6.1113388    312.68644  0.039480611  0.040206239            4 
  661000    1.1488454   -6.0935529    312.49524  0.039396778  0.040199484            4 
  662000    1.1560599   -6.0826995    313.77086  0.039497842   0.04019215            3 
  663000      1.12578   -6.1349438    313.03377  0.039345622  0.040185122            9 
  664000     1.156554   -6.1128146    313.82747  0.039385978  0.040178097            4 
  665000     1.165881   -6.1351164    314.61852  0.039425879  0.040171383            3 
  666000    1.1334948   -6.1012696    314.59189  0.039363349  0.040164276            3 
  667000     1.167894    -6.129378    315.47235  0.039414337  0.040157516            4 
  668000     1.166088   -6.1081888    315.77123  0.039392618  0.040150833            4 
  669000     1.142169   -6.1452923    315.74859  0.039330915  0.040144113            3 
  670000    1.1585266   -6.1042593     317.7147  0.039516753  0.040137649           10 
  671000    1.1123913   -6.1029822    317.44981  0.039424964  0.040131091            3 
  672000    1.1648375   -6.1300268     317.6306  0.039388715   0.04012444            4 
  673000    1.1583192    -6.102368    318.82959  0.039478651  0.040118234            4 
  674000    1.1684067   -6.1480298    318.48472  0.039377438  0.040111769            5 
  675000    1.1465196   -6.1176762     319.7285  0.039472655  0.040105168            4 
  676000    1.1775497   -6.1258074    320.30484  0.039485311  0.040099327            4 
  677000    1.1487811    -6.122467    320.68842  0.039474203  0.040093704            5 
  678000    1.1392617   -6.1480254    320.56144  0.039400374   0.04008765            8 
  679000    1.1558996   -6.1530608    320.63283  0.039351108  0.040081473            4 
  680000    1.1559937   -6.1523832    321.35517  0.039381761  0.040075773            2 
  681000    1.1385527   -6.1015789    322.50489  0.039464621  0.040069827            5 
  682000    1.1529255   -6.1431379    322.19341  0.039368696  0.040063751            3 
  683000      1.14281   -6.1182149    322.25388  0.039318433  0.040057665            2 
  684000    1.1576927   -6.1418573    323.18407  0.039374278  0.040051725            2 
  685000    1.1583524   -6.1477123    323.45706  0.039350007  0.040045755            3 
  686000     1.167268   -6.1283515    325.00869  0.039481134  0.040039852            6 
  687000    1.1429408   -6.1446062    324.56878  0.039370303  0.040034176            7 
  688000    1.1590962   -6.1590123    324.74835  0.039334829  0.040028683            2 
  689000    1.1578839   -6.1633435    324.53084  0.039251431  0.040022817            4 
  690000    1.1527714   -6.1231668    326.32645  0.039411407  0.040017021            4 
  691000     1.149196     -6.07519    328.07868  0.039565688  0.040011455            3 
  692000    1.1388878   -6.1166781    326.94907   0.03937248    0.0400064            8 
  693000     1.126084     -6.11666    328.65388  0.039520669  0.040001522            3 
  694000    1.1355483   -6.1399916    328.42021  0.039435663  0.039996207            5 
  695000    1.1435569   -6.1571518    328.13319  0.039344507  0.039990503            6 
  696000    1.1097705   -6.1427925    329.83248  0.039491437  0.039985084            2 
  697000    1.1406583   -6.1107225    329.25051  0.039365197  0.039979766            4 
  698000    1.1400119   -6.1137116    329.99392  0.039397555  0.039974403            3 
  699000    1.1667997   -6.1180448    329.67366  0.039303011  0.039968654            3 
  700000    1.1333701   -6.0807651    331.27318  0.039437283  0.039963202            3 
  701000    1.1370217   -6.1469886    329.92529   0.03922079  0.039957471            5 
  702000    1.1464792   -6.1658428    330.58412  0.039243129  0.039951955            4 
  703000    1.1620438   -6.1301172    331.98188  0.039352997   0.03994601            5 
  704000    1.1523393   -6.1619582    331.67542  0.039260821  0.039940443            5 
  705000    1.1252139   -6.1402542    332.88625  0.039348256  0.039934449            5 
  706000    1.1323698    -6.110255    333.12843  0.039321109  0.039928616            5 
  707000    1.1477785    -6.117756    333.10476  0.039262701   0.03992263            3 
  708000    1.1605871   -6.1525533     332.7688  0.039167702  0.039916666            3 
  709000     1.141941   -6.1192215    333.90736  0.039246281  0.039910669            3 
  710000    1.1303018   -6.1331304    334.59908  0.039272192  0.039904961           10 
  711000    1.1433979   -6.1213607    335.57757  0.039331642  0.039899137            2 
  712000    1.1363926   -6.1038582     335.9553  0.039320611  0.039893106            3 
  713000    1.1577858   -6.1403768    335.45895  0.039207451  0.039886941            3 
  714000     1.157084   -6.1563335    336.40137  0.039262532  0.039881387            2 
  715000     1.129613   -6.1386738    337.61569  0.039349148  0.039875534            2 
  716000    1.1362985   -6.1674719    336.67516  0.039184725   0.03986942            5 
  717000    1.1273283   -6.1374137    338.78671  0.039375489   0.03986341            2 
  718000    1.1333535   -6.1404447    337.50964  0.039172428  0.039857171            3 
  719000    1.1387847   -6.1293741    339.12415  0.039305071   0.03985187            4 
  720000    1.1313788   -6.1648997    338.57288  0.039186676  0.039846704            4 
  721000    1.1468134   -6.1633309    338.90335  0.039170522  0.039841229            6 
  722000    1.1488912   -6.1197967    339.97949  0.039240477  0.039835787            4 
  723000    1.1240597   -6.1603643    340.48759  0.039244766  0.039830021            4 
  724000    1.1304631   -6.1354001    340.82677  0.039229601  0.039824049            8 
  725000    1.1050227   -6.1473844    340.45193  0.039132406  0.039817711            5 
  726000    1.1053889   -6.1522002    340.34917  0.039066709  0.039811007            8 
  727000    1.1279221   -6.1424247     341.5038  0.039145324  0.039804649           10 
  728000    1.1480772   -6.1915387    341.56448  0.039098499  0.039798086            3 
  729000     1.134902   -6.1746644    341.89353  0.039082479   0.03979151            5 
  730000    1.1530417   -6.1365047    342.35448  0.039081561   0.03978475            4 
  731000    1.0913206   -6.1724933    341.79952  0.038964833  0.039778029            9 
  732000    1.1264834    -6.157341    343.51551  0.039106957  0.039771189            2 
  733000    1.1604199   -6.1664443    343.23333  0.039021525  0.039764718            5 
  734000    1.1282871   -6.1436389    344.74793  0.039140319  0.039758529            4 
  735000    1.1306309   -6.1269815     344.4047  0.039048151   0.03975245            3 
  736000    1.1143412   -6.1775098    344.10684  0.038961372  0.039746062            5 
  737000    1.1346674   -6.1382246    345.96447  0.039118552  0.039739352            3 
  738000    1.1428264   -6.1598591    346.06969  0.039077427   0.03973306            2 
  739000     1.126426   -6.1691389    345.38914  0.038947805  0.039726337            4 
  740000    1.1217478   -6.1597645     346.9907  0.039075529   0.03971992            5 
  741000    1.1332024   -6.1600857    347.09281  0.039034279  0.039713335            4 
  742000    1.1350013    -6.171874    345.88631  0.038846172   0.03970653            3 
  743000    1.1430186   -6.1689644    347.89895  0.039019622  0.039699663            2 
  744000    1.1360997   -6.1873042    347.82218  0.038958577  0.039693265            4 
  745000    1.1465833   -6.1647124    347.73769  0.038896834  0.039686217            6 
  746000    1.1068095   -6.1521864    348.89257    0.0389737  0.039679148            3 
  747000     1.143687   -6.1865031    349.15881  0.038951228  0.039671749            5 
  748000     1.110468   -6.1669847    350.36895  0.039033974  0.039664675            4 
  749000    1.1532113    -6.157145    349.69864  0.038907281  0.039657665            4 
  750000    1.1048023   -6.1608515    350.84901  0.038983223  0.039650383            3 
  751000    1.1406398   -6.1589588    351.43291  0.038996106    0.0396432            3 
  752000    1.1118819   -6.1589512    351.73031  0.038977206  0.039635821            3 
  753000    1.1213491   -6.1663747    350.51626  0.038791087  0.039628371            4 
  754000    1.1132513   -6.1547447    352.08184   0.03891267  0.039621117            4 
  755000    1.1425562     -6.15359    352.84089  0.038944911  0.039613945            5 
  756000    1.1400745   -6.1329107    353.04151   0.03891551  0.039606711            4 
  757000    1.1334441   -6.1791669    352.59431  0.038814874  0.039599588            3 
  758000     1.126928   -6.1769644    352.97632  0.038805664  0.039592037            3 
  759000    1.1397287    -6.176912    354.04388  0.038871748  0.039584797            3 
  760000    1.1252551   -6.1521698    354.01608  0.038817553  0.039577175            3 
  761000    1.1371087    -6.167587    354.61711   0.03883236  0.039569783            3 
  762000    1.1336618   -6.1606759    354.77816  0.038799011  0.039562631            8 
  763000    1.1243509    -6.165504     355.6832  0.038847008  0.039555648            2 
  764000     1.094109   -6.1130889    356.38771  0.038873005  0.039548625            3 
  765000    1.1457845   -6.0953887    356.65229  0.038851012  0.039541424            3 
  766000    1.1415483   -6.1744011    357.40969  0.038882691  0.039534502            3 
  767000    1.1353834   -6.1678125    356.96106  0.038783253  0.039527212            7 
  768000    1.1152319   -6.1524418    357.48504  0.038789609  0.039519843            7 
  769000    1.1491676   -6.1696619    357.11968  0.038699575  0.039512315            2 
  770000    1.1443499   -6.1423785     359.4551  0.038902067  0.039505099            5 
  771000    1.1505056   -6.1633426    358.80218   0.03878104  0.039498125            4 
  772000    1.0925095   -6.1640911    359.37498  0.038792636  0.039491121            5 
  773000    1.1236627   -6.1365031    359.79791  0.038788046  0.039484091            4 
  774000    1.1122002    -6.173399    361.60802  0.038932819  0.039477319            4 
  775000    1.1448611   -6.1810374    360.78707  0.038794309  0.039470527           12 
  776000    1.1399096   -6.1464295     360.4552  0.038708677   0.03946354            4 
  777000    1.1160847   -6.1684483    362.47606  0.038875596  0.039456946            4 
  778000    1.1290092   -6.1605549    361.84905  0.038758467  0.039450104            4 
  779000    1.1327342   -6.1706007    363.82114  0.038919677  0.039443979            5 
  780000    1.1051575   -6.1280984    365.06068   0.03900221  0.039438326            3 
  781000    1.1436736   -6.1578466    365.38427  0.038986798  0.039432344            3 
  782000    1.1263487   -6.1441641    365.52915  0.038952382  0.039426673            6 
  783000    1.1031305   -6.1859809    366.08698  0.038962003  0.039421398            4 
  784000    1.1584773   -6.1863313    366.08136  0.038911709   0.03941565            4 
  785000     1.137973   -6.1754478    367.31788  0.038993405  0.039410039            5 
  786000    1.1016517   -6.1551969    366.59048  0.038866675  0.039404216            5 
  787000    1.1180199   -6.1536949    367.45118  0.038908426  0.039398659            3 
  788000    1.1271408   -6.1329785    367.89184  0.038905652  0.039393275            1 
  789000    1.1574141   -6.1724098    368.78867  0.038951063   0.03938814            3 
  790000     1.116126   -6.1217546    368.67144  0.038889392   0.03938295            8 
  791000    1.1217787   -6.1867236    368.49248  0.038821374  0.039377352            3 
  792000    1.1411143   -6.1571139    369.07245  0.038833381  0.039371722            5 
  793000    1.1368489   -6.1667937    370.52132  0.038936667  0.039366295            4 
  794000    1.1342938   -6.1512635    372.09042  0.039052312  0.039361103            2 
  795000    1.1631886   -6.2150737    370.98348  0.038887157   0.03935602            4 
  796000    1.1209532   -6.1792713    370.85746  0.038825111  0.039351121            4 
  797000    1.1515916   -6.1652606    373.04826  0.039005465   0.03934611            2 
  798000    1.1386963   -6.1640291    373.32896  0.038985898  0.039341198            2 
  799000    1.1182518   -6.1694435    374.31844  0.039040304  0.039336513            3 
  800000    1.1147012   -6.1949878    374.56739  0.039017437  0.039331929            7 
  801000    1.1097884   -6.1706141    373.58897  0.038866934  0.039327057            3 
  802000    1.1450124   -6.1518455    375.01205  0.038966339   0.03932237            3 
  803000    1.1109815   -6.1497692    375.82641  0.039002326  0.039317808            3 
  804000    1.1258106   -6.1723845    375.83165  0.038954359  0.039313159            3 
  805000     1.120157   -6.1706626     376.6004  0.038985549  0.039308201            7 
  806000    1.1450939   -6.2130129    374.84607  0.038755798  0.039303341            6 
  807000    1.1095807   -6.1779099    376.07628  0.038834808  0.039298381            4 
  808000    1.1382204   -6.1642067    377.60499  0.038944409  0.039293469            5 
  809000    1.1342975    -6.172116    377.83772  0.038920243  0.039288684            4 
  810000    1.1219585   -6.1636564    378.45194  0.038935385  0.039284118            3 
  811000    1.1358911   -6.1248874    379.21192  0.038965467  0.039279805            5 
  812000    1.1090875   -6.1717645    380.34137  0.039033392  0.039275495            5 
  813000    1.1470627   -6.1920117    379.21294  0.038869715  0.039271034            4 
  814000    1.1207552   -6.1817724    379.30972  0.038831872  0.039266455            6 
  815000    1.1459166   -6.1602543     378.9318  0.038745583  0.039261471            2 
  816000    1.1273455   -6.1921724    380.46518  0.038854696  0.039256338            3 
  817000    1.1125227   -6.1672897    381.31147  0.038893458  0.039251467            2 
  818000    1.1039919   -6.2058918    381.48814   0.03886391  0.039246818            6 
  819000    1.1059169   -6.1901732    381.52162  0.038819863  0.039242256            6 
  820000    1.1265469   -6.2114079    382.63127  0.038885291  0.039237764            4 
  821000    1.1198715   -6.1576659    383.06425  0.038881877  0.039233283            2 
  822000    1.1368887   -6.1588792    383.40429  0.038869048  0.039228492            2 
  823000    1.1290892     -6.16663    384.45708   0.03892842  0.039223616            6 
  824000    1.1168519   -6.1583357    384.70571  0.038906322  0.039219084            5 
  825000    1.1455977   -6.1941476     385.0494  0.038893879  0.039214506            4 
  826000    1.1067036   -6.2138173    385.40889   0.03888306  0.039209986            4 
  827000    1.1363338   -6.1670005    385.81981  0.038877449  0.039205597            8 
  828000    1.1130989   -6.1673731    385.99656  0.038848285  0.039200996            5 
  829000     1.121925   -6.1649001    385.43663  0.038745138  0.039196337            4 
  830000    1.1493378   -6.2067917    387.13645  0.038869121  0.039191025            4 
  831000    1.0839037   -6.1694466    386.96337  0.038804991  0.039185804            4 
  832000    1.1587561   -6.1966694    387.94288  0.038856458  0.039180629            5 
  833000     1.138387   -6.1688499    386.79081  0.038694559  0.039175286            4 
  834000    1.1250944   -6.1395631    388.64762  0.038833695  0.039170061            3 
  835000    1.1380425   -6.1949196     389.8512  0.038907305  0.039165015            4 
  836000    1.0986159   -6.1871353    387.81062  0.038657358  0.039159964            2 
  837000    1.1328744   -6.2170715    389.44699  0.038774093   0.03915486            4 
  838000    1.1299684   -6.1412678    389.35387  0.038718563  0.039149735            2 
  839000    1.1084937   -6.1674193    389.71472  0.038708256  0.039144473            8 
  840000    1.1255475   -6.1714596    390.19742  0.038710062  0.039139292            3 
  841000    1.0917594   -6.1949341    389.87045  0.038631634  0.039134018            5 
  842000    1.1083893   -6.1827575    391.42078  0.038739191  0.039128724            2 
  843000     1.110007    -6.186601    390.64551  0.038616598  0.039123705            5 
  844000    1.1303205   -6.1774327    391.21347  0.038626922  0.039118797            4 
  845000     1.109556   -6.1723396    392.54769   0.03871279  0.039113918            5 
  846000    1.1041742   -6.1770899    392.80147  0.038692028  0.039109099            6 
  847000    1.1270018   -6.1837927    393.91039  0.038755449  0.039104247            3 
  848000    1.1212413    -6.186108    392.52944  0.038574041  0.039098916            4 
  849000    1.1172094   -6.1619508    394.17362   0.03868999  0.039093598            3 
  850000    1.1117771   -6.1881065    394.98662  0.038724178  0.039088816            4 
  851000    1.1474749   -6.1760389    394.26212  0.038607728   0.03908369            6 
  852000     1.127437   -6.1592026    396.26864  0.038758669  0.039078759            8 
  853000    1.1125841   -6.2063221    395.45884  0.038634119  0.039073951            6 
  854000    1.1081968   -6.1404236    398.17658  0.038854077  0.039069305            2 
  855000    1.0986373   -6.1816996    397.67399  0.038759648  0.039065038            3 
  856000    1.1298051   -6.1963334     397.8242  0.038728992  0.039060489            5 
  857000    1.1383896   -6.1986532    396.93395  0.038597234  0.039055989           10 
  858000    1.1221841   -6.1874222    399.60725  0.038811893  0.039051073            3 
  859000    1.1297491   -6.2016883    398.40528  0.038650105   0.03904617           10 
  860000    1.1338504   -6.1445021    399.64334   0.03872513  0.039041352            5 
  861000    1.1209201   -6.1685969    399.97506  0.038712259  0.039036437            4 
  862000    1.1216264   -6.2211424    399.82798   0.03865313  0.039031333            5 
  863000     1.103653   -6.1876018    400.76867  0.038699176  0.039026485            6 
  864000    1.1555098   -6.1660433    401.27628  0.038703345  0.039021741            4 
  865000    1.1282577   -6.1569926    401.21654  0.038652846  0.039017223            5 
  866000    1.1294745   -6.1681579    402.19564  0.038702429  0.039012667            2 
  867000    1.1070815   -6.1755622    402.01284  0.038640219  0.039008247            3 
  868000    1.0988109   -6.1445003    403.88388  0.038775334   0.03900367            2 
  869000    1.1357392   -6.2333452    401.51979  0.038504008    0.0389991            4 
  870000    1.1271239   -6.1525118    403.54551  0.038653785  0.038994071            4 
  871000    1.0967097   -6.1810298    403.61673   0.03861622  0.038988991            1 
  872000    1.1129612   -6.1888771    403.37003  0.038548359  0.038983967            2 
  873000    1.1185922   -6.2223242    403.92709  0.038557377  0.038978504            3 
  874000     1.091894   -6.1688775    404.51783  0.038569587  0.038973461            5 
  875000    1.1063592   -6.1666505    405.53857  0.038622721  0.038968557            6 
  876000    1.0939343   -6.2000506    405.21492  0.038547842  0.038963557            5 
  877000    1.0953261   -6.1804599    405.86653  0.038565805  0.038958424            3 
  878000    1.1198754   -6.1670947     406.9677  0.038626395  0.038953833            3 
  879000    1.1169432   -6.1490542    407.87662  0.038668622  0.038949167            3 
  880000    1.1018828   -6.2404413    405.80613  0.038428611  0.038944332            3 
  881000    1.0871757   -6.1827163    408.33407  0.038624108  0.038939167            6 
  882000     1.095543   -6.2158488    406.98515  0.038452868  0.038934287            4 
  883000    1.1015345   -6.1524389    408.82441    0.0385829   0.03892904            4 
  884000    1.1026526   -6.1884812    409.52614  0.038605405  0.038924064            3 
  885000    1.1034672   -6.1780577    408.95726  0.038508217  0.038918884            5 
  886000    1.0994773   -6.2138598    407.80496  0.038356373  0.038913257            3 
  887000    1.1087104   -6.1832091    408.66043  0.038393502  0.038907622            4 
  888000    1.0988639   -6.1802608    409.33292  0.038413375  0.038902034            4 
  889000    1.1102304   -6.2044691    409.65832  0.038400667   0.03889627            9 
  890000    1.1027368   -6.2179363    410.23761  0.038411762  0.038890539            4 
  891000    1.1398294   -6.1974229    410.70707  0.038412558  0.038884611            2 
  892000    1.1009139    -6.189749    412.98855  0.038582638  0.038879164            4 
  893000     1.117294   -6.1750077    410.90499  0.038344997  0.038873468            3 
  894000    1.1053129   -6.2116695    410.57085  0.038270959  0.038867645            6 
  895000    1.1263785   -6.2132104    411.22438  0.038289048  0.038861819            3 
  896000    1.1339267   -6.1543604     412.5012  0.038365067  0.038856015            4 
  897000    1.1004335   -6.1460904    412.76404  0.038346715  0.038850353            4 
  898000    1.1151259   -6.1956979    413.09039  0.038334298  0.038844537            4 
  899000     1.115781    -6.194646    414.32059   0.03840569  0.038838798            4 
  900000    1.1061621   -6.1744551     415.2945  0.038453194  0.038833215            7 
  901000    1.0902682   -6.2084435    415.77293  0.038454766  0.038827834            3 
  902000    1.1142979   -6.1891371    416.65252  0.038493396  0.038822818            7 
  903000       1.1158   -6.1979829    415.79704   0.03837182  0.038817668            2 
  904000    1.1048363   -6.1741471    417.37854   0.03847516  0.038812341            4 
  905000    1.1382447   -6.1755414    416.78678  0.038378157  0.038806904            9 
  906000    1.0833163   -6.2000168    416.86261  0.038342771  0.038801465            2 
  907000    1.1071892   -6.1791083    419.18564  0.038513932  0.038796351            2 
  908000    1.1040008   -6.1924888    418.41306  0.038400611  0.038791243            4 
  909000    1.1132987   -6.2431604     418.6941  0.038384131  0.038786361            8 
  910000    1.1092505   -6.2257849    420.24426  0.038483907   0.03878086            2 
  911000    1.1013841   -6.1978321    419.19128  0.038345342  0.038775248            3 
  912000    1.0917788    -6.171454    418.49828  0.038239974  0.038769487            6 
  913000    1.1113453    -6.208618    417.48044  0.038105188  0.038763301            3 
  914000    1.0978966   -6.1802071    419.90031  0.038284127  0.038757323            3 
  915000    1.1108168   -6.1744175    419.55214  0.038210577  0.038751496            7 
  916000    1.1043173   -6.1951665    420.82805  0.038284939  0.038745601            4 
  917000    1.1133284   -6.1588916    422.76292  0.038419022  0.038739628            3 
  918000    1.0919386    -6.210363    420.85748  0.038204201  0.038733803            3 
  919000    1.0925699   -6.1951754    419.90481  0.038076243  0.038727627            3 
  920000    1.1074285   -6.1861367    421.54423  0.038183354  0.038721268            7 
  921000    1.1086602   -6.1954502    422.53917  0.038231919  0.038715136            3 
  922000     1.103969    -6.215395     423.0132  0.038233297   0.03870901            5 
  923000    1.1327806   -6.1948271    423.56901  0.038242055  0.038703131            7 
  924000     1.119347   -6.2195066    421.57871  0.038021168  0.038697084            4 
  925000    1.0956473   -6.2214853    424.73811  0.038264695  0.038691091            5 
  926000    1.1112793   -6.1873216    424.84213  0.038232733  0.038685119            5 
  927000    1.1034515    -6.191114    425.15955  0.038220025  0.038678924            4 
  928000    1.0934107   -6.2253082    422.44964  0.037935492  0.038672544            3 
  929000    1.0835622   -6.1727685    425.35949  0.038155677  0.038666015            4 
  930000    1.1263426   -6.1680794    424.92502  0.038075719  0.038659815            9 
  931000    1.1169114   -6.1939129    425.04189  0.038045282  0.038653406            7 
  932000    1.1077772   -6.1874727    425.87813  0.038079232  0.038647087            5 
  933000    1.1133645   -6.1685027    425.62145  0.038015492  0.038640884            5 
  934000    1.1109669   -6.1847986    427.25292  0.038120353  0.038634404            4 
  935000    1.1133663   -6.1866758    427.82086  0.038130201  0.038628173            5 
  936000    1.0922851   -6.1958758    427.27285  0.038040674  0.038621909            4 
  937000     1.101362   -6.2147053    428.09085  0.038072826  0.038615343            5 
  938000    1.0882137   -6.1829797    427.53777    0.0379831  0.038608529            3 
  939000    1.0653593   -6.1828132    428.31638  0.038011748    0.0386017            2 
  940000    1.1209363   -6.2140974    427.99211  0.037942563  0.038594783            4 
  941000    1.0844254   -6.2133348     427.9021   0.03789427  0.038587748            4 
  942000    1.1094849   -6.1947061    429.52712  0.037997799  0.038580785            4 
  943000    1.0926151   -6.2007351    428.62306  0.037877613  0.038573728            4 
  944000    1.0998125   -6.1932186    431.33907  0.038077248  0.038566849            3 
  945000    1.0996047   -6.2030194    429.63365  0.037886565  0.038560206            7 
  946000    1.0906453   -6.1943363    429.79576  0.037860797  0.038553091            6 
  947000    1.0959402   -6.2162546     429.5305  0.037797474  0.038546172            7 
  948000    1.0902533   -6.2156404    430.01863  0.037800512  0.038538882            7 
  949000    1.1462166   -6.1900815     431.3262  0.037875501  0.038531461            5 
  950000    1.1061833   -6.2108913    432.41916  0.037931506  0.038524435            5 
  951000    1.0935193   -6.1913943    432.57383  0.037905173   0.03851726            3 
  952000    1.1095111   -6.2343528    431.32223  0.037755798  0.038510049            5 
  953000    1.1219299   -6.2043769    432.55994  0.037824409  0.038502794            6 
  954000    1.1424221   -6.2083124    434.12342  0.037921333  0.038495862            3 
  955000    1.1120303   -6.1687387    434.75888  0.037937075  0.038488857            4 
  956000    1.1048078   -6.1906551    434.82041  0.037902755  0.038482068            2 
  957000    1.1054434   -6.1922293    434.24906  0.037813398  0.038474809            2 
  958000     1.092308   -6.2320212    435.08094  0.037846289  0.038467834            4 
  959000    1.0888018   -6.2241521    435.65873  0.037857033  0.038460561            3 
  960000    1.1119819   -6.2233529     435.3587  0.037791554  0.038453315            2 
  961000    1.1021985    -6.210186    435.51004  0.037765352  0.038445981            5 
  962000    1.0980589   -6.2028683    434.95768  0.037678247  0.038438715            3 
  963000    1.0799489   -6.1804448    436.37453  0.037761728  0.038431333            4 
  964000    1.1154162   -6.2083103    436.01936  0.037691854  0.038423611            8 
  965000    1.1053364    -6.234742    437.41718  0.037773504  0.038416241            6 
  966000    1.0889887   -6.2236476    438.42293  0.037821164  0.038409063            4 
  967000    1.0868103   -6.2303452    438.59892  0.037797218  0.038401891            2 
  968000    1.0866345   -6.2507393    438.12889  0.037717707  0.038394736            3 
  969000    1.0930309      -6.2041    440.00127  0.037839806  0.038387701            5 
  970000    1.1012587   -6.2207605    439.13426  0.037726311  0.038380865            5 
  971000    1.0934079   -6.2342978    439.64111  0.037730957  0.038374003            4 
  972000    1.1030765   -6.1888745    441.24327  0.037829499  0.038367187            4 
  973000    1.0992575   -6.1991419    439.70645  0.037658997  0.038360472            5 
  974000     1.104805   -6.2083002    440.77529   0.03771178  0.038353393            3 
  975000    1.1128149   -6.2139783    440.73876   0.03766998  0.038346546            2 
  976000     1.123225   -6.2076636    442.18421  0.037754799  0.038339607            4 
  977000    1.0823781   -6.1840602    442.40398  0.037734901    0.0383328            4 
  978000    1.1028715   -6.2058953    443.98029  0.037830631   0.03832619            7 
  979000    1.1227842   -6.1956843    443.83664  0.037779762  0.038319675            3 
  980000    1.1117011   -6.2370719    444.14804  0.037767691   0.03831311            4 
  981000    1.0732528   -6.1889643    444.78497  0.037783297  0.038306514            3 
  982000    1.1071847   -6.1863322    445.69895  0.037822382  0.038300146            6 
  983000    1.0769533   -6.2067891    445.19877  0.037741503  0.038293586            5 
  984000    1.0917558    -6.215631    445.27112  0.037709275  0.038287175            4 
  985000    1.0910051   -6.2203567    446.85335  0.037804852  0.038280748            3 
  986000    1.0871045   -6.2121504    446.90774  0.037771107  0.038274199            5 
  987000    1.0947901   -6.2113338    446.77288  0.037721452  0.038267544            7 
  988000     1.105482   -6.2162686    446.96673  0.037699623  0.038261182            3 
  989000    1.0776358   -6.2125022    449.01649  0.037834217  0.038254584            4 
  990000    1.1028036   -6.2317048    446.73192  0.037603697  0.038248011           12 
  991000    1.0723511   -6.1869499    449.54044  0.037801921  0.038241469            6 
  992000    1.1030208   -6.2352171    448.83431  0.037704495  0.038234856            8 
  993000    1.0930062   -6.1976666    447.65773  0.037567786  0.038228527            3 
  994000    1.0776597   -6.2389776    450.06352  0.037731683  0.038222305            5 
  995000     1.084629   -6.2029286    449.79756  0.037671488  0.038215782            4 
  996000    1.0936458    -6.226103    449.32742  0.037594329  0.038209346            5 
  997000    1.0924474   -6.2119638    450.50462  0.037655017  0.038202896            3 
  998000    1.0748465   -6.2061406    452.29985  0.037767189  0.038196559            2 
  999000    1.0830526   -6.2208215    452.88955  0.037778575  0.038190081            4 
 1000000    1.1020867   -6.2353738     450.2476  0.037520633  0.038183494            4 
 1001000    1.0743004   -6.2275744    450.26107  0.037484271  0.038176771            6 
 1002000    1.0657075   -6.2733305    450.86568  0.037497145  0.038169915            6 
 1003000    1.0673992   -6.2264976    451.94175  0.037549165  0.038162939            1 
 1004000    1.0756954   -6.2030686    452.28974  0.037540649  0.038156339            6 
 1005000    1.0773304   -6.2388928     452.1881  0.037494867  0.038149526            5 
 1006000    1.0662116   -6.1828286    454.33813  0.037635696  0.038142865            4 
 1007000    1.0851723   -6.2192382    454.61426  0.037621173  0.038136222            4 
 1008000    1.0986662   -6.2705294    453.21332  0.037468032  0.038129183            2 
 1009000    1.1016102   -6.2131733    455.60035  0.037628043  0.038122114            5 
 1010000    1.1044871   -6.1846317    454.82113  0.037526496  0.038115283            3 
 1011000    1.1075887   -6.2153699    454.13042  0.037432445  0.038108396            3 
 1012000     1.099177   -6.2551785    454.03113   0.03738728  0.038101313            6 
 1013000    1.0953856   -6.1720194    456.26747  0.037534342  0.038094262            9 
 1014000    1.0973014   -6.1674856    456.45733   0.03751293  0.038087699            3 
 1015000    1.0750024   -6.2159571    458.23298  0.037621756  0.038080949            3 
 1016000    1.0789102   -6.2080767    457.10062  0.037491849  0.038074203            8 
 1017000    1.1366301    -6.215133    458.19032  0.037544274  0.038067303            7 
 1018000    1.0762321   -6.2286251    456.90611  0.037402268  0.038060624            6 
 1019000    1.0693988   -6.2630744    457.70181  0.037430636   0.03805362            4 
 1020000     1.086351   -6.2437885    456.98677  0.037335521  0.038046666            4 
 1021000    1.0711002   -6.2201379    458.09502  0.037389408  0.038039635            2 
 1022000    1.0742374   -6.2291217    459.02322  0.037428507  0.038032469            4 
 1023000    1.0857845   -6.2462526    459.08048  0.037396585  0.038025373            3 
 1024000    1.0992032   -6.1904491    460.09222  0.037442401  0.038018127            3 
 1025000    1.0856566   -6.2052742    458.92349  0.037310853  0.038010824            4 
 1026000    1.0799685   -6.2237096    461.03124  0.037445683  0.038003324            9 
 1027000    1.0695217   -6.2367546    461.13214  0.037417408  0.037996283            7 
 1028000     1.097814   -6.2150161    462.53227  0.037494509  0.037989013            5 
 1029000    1.0998355   -6.1981005    461.47187  0.037372196  0.037981756            9 
 1030000    1.0536675   -6.2155149    461.54513  0.037341839    0.0379745            3 
 1031000    1.0831293   -6.2529399     461.5282  0.037304251  0.037966952            7 
 1032000    1.1007288   -6.2074753     461.5139  0.037266949  0.037959419            5 
 1033000    1.0948826   -6.2310627    462.79574   0.03733428  0.037951974            2 
 1034000    1.0746237   -6.2129595    462.82534   0.03730056   0.03794461            3 
 1035000    1.0778805   -6.2115273    462.71829  0.037255901  0.037937086            8 
 1036000    1.1062558    -6.236435    463.01905  0.037244132  0.037929747            3 
 1037000    1.0965088   -6.2217952    463.75778  0.037267581  0.037922382            5 
 1038000    1.0996977   -6.2066592     464.4179  0.037284674  0.037914842            4 
 1039000    1.0943339   -6.2213634     464.1025  0.037223492  0.037907033           12 
 1040000    1.0872899   -6.1975605    465.75717  0.037320286  0.037899394            8 
 1041000    1.0640115   -6.2239963    465.72115  0.037281552  0.037891776            5 
 1042000    1.0797208    -6.235785    467.84604   0.03741571  0.037884453            6 
 1043000    1.0970854   -6.2294221    465.80333  0.037216629  0.037877147            3 
 1044000    1.0673219   -6.2409169    466.54829  0.037240445  0.037869706            6 
 1045000    1.1039701     -6.25786    467.21142  0.037257689  0.037862283            5 
 1046000    1.0801068   -6.2348142    467.68895  0.037260114  0.037854973            3 
 1047000     1.105889   -6.2054812    468.91649  0.037322229  0.037847889            5 
 1048000    1.0867117   -6.2202975    470.16274  0.037385714  0.037841093            4 
 1049000    1.0698952   -6.2435103    469.33852  0.037284598  0.037834176            3 
 1050000    1.1085238   -6.2211287    468.69125  0.037197718   0.03782734            3 
 1051000    1.0969549    -6.238184    470.18775  0.037280982  0.037820555            3 
 1052000    1.0984754   -6.2300338    470.70644  0.037286632  0.037813574            7 
 1053000    1.0838973   -6.2397643    470.75499  0.037255064  0.037806637            5 
 1054000    1.0868126    -6.257835    471.59715  0.037286302  0.037799953            5 
 1055000    1.0697352   -6.2467109    471.40033  0.037235413  0.037793282            5 
 1056000     1.067866    -6.203937    471.92955  0.037241916  0.037786611            3 
 1057000    1.0936566   -6.2563847    472.27476  0.037233898  0.037779809            3 
 1058000    1.0913144   -6.2139552    473.91622  0.037327995  0.037772914            3 
 1059000    1.0606116   -6.2631306    472.85737  0.037209425  0.037766098            6 
 1060000    1.0821097   -6.2307997    472.60675  0.037154619  0.037759096            2 
 1061000    1.1007026   -6.2561749     473.5546  0.037194046  0.037752238            6 
 1062000    1.1144981   -6.2502413    473.57429  0.037160569  0.037744957           11 
 1063000    1.1032329   -6.2220064    474.99957  0.037237345  0.037737947           10 
 1064000    1.0644122   -6.2569422    474.00012   0.03712407  0.037730715            2 
 1065000    1.0472967   -6.2510377    475.49638  0.037206289   0.03772362            4 
 1066000    1.0749392   -6.2381656    474.24634  0.037073667    0.0377163            9 
 1067000    1.0956794   -6.2228776    475.13389  0.037108238  0.037708899            4 
 1068000    1.0727622   -6.2639765    474.34745  0.037012129  0.037701458            5 
 1069000    1.0853786   -6.2092837    476.76896  0.037166274  0.037694133            3 
 1070000     1.094113   -6.2124348    475.15542  0.037005874  0.037686914            5 
 1071000    1.0711001   -6.2408696    476.38811  0.037067235  0.037679212            7 
 1072000    1.0839134   -6.2295529    476.86227  0.037069517  0.037671563            3 
 1073000    1.0708781   -6.2348208    476.83284  0.037032684  0.037664252            4 
 1074000    1.0659096    -6.238402    476.11074  0.036942174  0.037656709            5 
 1075000    1.0799027    -6.230212    476.65289  0.036949836  0.037649346            7 
 1076000    1.0880208   -6.2302687    477.79808  0.037004188  0.037641924            5 
 1077000     1.086898   -6.2477426    479.08887  0.037069705  0.037634283            3 
 1078000    1.0682574   -6.2315994    479.20331  0.037044164  0.037626677            3 
 1079000    1.0822679   -6.2347689    477.17103  0.036852875  0.037619085            4 
 1080000    1.0825492   -6.2468568    478.04374  0.036886091  0.037611464            3 
 1081000    1.1087923   -6.2352478    480.26549  0.037023242  0.037603648            6 
 1082000    1.0288653   -6.2163236    480.79131  0.037029522  0.037596213            6 
 1083000    1.0616329   -6.2595222    479.96881  0.036932041  0.037588726            3 
 1084000    1.0812627   -6.2508321    479.66787  0.036874836  0.037581079            5 
 1085000    1.0779838   -6.2583259    480.98194  0.036941777  0.037573719            6 
 1086000    1.0674489   -6.2396269    482.39105  0.037015888   0.03756647            6 
 1087000    1.0780507   -6.2360821    481.17592  0.036888678  0.037558981           10 
 1088000    1.0501447   -6.2227254    483.28641  0.037016423  0.037551652            4 
 1089000    1.0707686   -6.2314992    482.58435  0.036928708  0.037544351            7 
 1090000    1.0949904   -6.2748408    482.28157   0.03687168  0.037536954            4 
 1091000    1.0649238   -6.2420927    483.79886  0.036953778  0.037529692            5 
 1092000    1.0647834   -6.2287571    484.09618  0.036942626  0.037522604            4 
 1093000     1.058539   -6.2276325    485.02993  0.036980019  0.037515206            3 
 1094000    1.0481344   -6.2602427    485.66781  0.036994806  0.037507928            6 
 1095000     1.066272   -6.2235613    484.94357  0.036905903  0.037500518            7 
 1096000    1.0652774   -6.2440272    484.59228   0.03684552  0.037493188            4 
 1097000    1.0687083   -6.2550548    486.15662  0.036930767  0.037485468            3 
 1098000    1.0819171   -6.2637587    484.58871  0.036778135  0.037478026            7 
 1099000    1.0801317   -6.2442503    485.26029  0.036795594  0.037470514            8 
 1100000    1.0781952   -6.2225289    486.64425  0.036866989  0.037463123            3 
 1101000    1.0647732   -6.2428372    485.96838  0.036782348  0.037455637            2 
 1102000    1.0648175   -6.2585501    484.83708  0.036663421  0.037447681            4 
 1103000    1.0659344   -6.2586199    485.51089  0.036681089  0.037439534            7 
 1104000    1.0911698   -6.2265665    488.08409  0.036842096  0.037431531            3 
 1105000    1.0632686   -6.2537168     487.0573   0.03673132  0.037423456            5 
 1106000    1.0827343   -6.2286286    487.18353   0.03670762  0.037415668            3 
 1107000    1.0658499   -6.2886905    487.35803  0.036687596  0.037407561            3 
 1108000    1.1033529   -6.2612752    488.38015  0.036731359  0.037399505            5 
 1109000    1.0821464   -6.2616165    489.02452  0.036746658  0.037391617            7 
 1110000    1.0801042   -6.2603266    489.78876  0.036770928  0.037383654            6 
 1111000      1.03972   -6.2869356    490.05403  0.036757728  0.037375888            4 
 1112000    1.0658468   -6.2145807     489.9265  0.036715115  0.037367991            6 
 1113000    1.0620234     -6.24219     490.7009   0.03674011  0.037360123            3 
 1114000    1.0666208    -6.224402    489.92555  0.036649129  0.037352271            4 
 1115000    1.0743187   -6.2670011    491.69496  0.036748502  0.037344403            3 
 1116000    1.0936598   -6.2383596    491.73682    0.0367187  0.037336654            4 
 1117000     1.065825   -6.2456197    492.01089  0.036706273  0.037328781            2 
 1118000    1.0727044   -6.2330822    493.39771  0.036776812  0.037320925            3 
 1119000    1.0779695   -6.2469799    493.66932  0.036764174  0.037313158            5 
 1120000    1.1066956   -6.2554056    492.16235  0.036619223  0.037305552            3 
 1121000    1.0677572    -6.268328    493.00489  0.036649189  0.037297921            4 
 1122000    1.0651519    -6.251228    493.34338  0.036641665  0.037290262            6 
 1123000    1.0608045   -6.2035495    493.88098   0.03664893  0.037282685            4 
 1124000    1.0802997   -6.2673457    493.28388  0.036572055  0.037275095            6 
 1125000    1.0735956   -6.2686775    495.80708   0.03672645  0.037267514            4 
 1126000    1.0788729   -6.2572872    493.76236  0.036542507  0.037259842            4 
 1127000    1.0812841   -6.2504767    496.38777  0.036704212  0.037251876            4 
 1128000    1.0746772   -6.2903812    493.81778   0.03648181  0.037244247            3 
 1129000    1.0609078   -6.2473665    494.84174  0.036525077  0.037236421            7 
 1130000    1.0669426   -6.2827286    494.29023  0.036452082  0.037228456            4 
 1131000    1.0909485   -6.2754259     494.9215  0.036466365   0.03722063            2 
 1132000    1.0853639    -6.248856    496.78074   0.03657102  0.037212815            7 
 1133000    1.0831997   -6.2252625    498.35206  0.036654314  0.037205127            5 
 1134000    1.0697628   -6.2564065    497.72585  0.036575973  0.037197438            3 
 1135000    1.0844941   -6.2468535    498.23218  0.036580923  0.037189699            4 
 1136000    1.0875641   -6.2689931     497.4981  0.036494873  0.037182026            5 
 1137000    1.0684607    -6.249541    498.29057  0.036520857  0.037174204            4 
 1138000    1.0830955   -6.2696295     498.4774  0.036502446  0.037166566            5 
 1139000    1.0666227   -6.2705871    498.81463  0.036495071  0.037158843            5 
 1140000    1.0618771   -6.2615598    498.13431  0.036413327  0.037150674            7 
 1141000    1.0672252    -6.262884    499.95049  0.036514059  0.037142589            7 
 1142000    1.0857518   -6.2761789    498.31748  0.036362922  0.037134565            7 
 1143000    1.0529227   -6.2628012    500.08177  0.036459739  0.037126458            2 
 1144000    1.0760694   -6.2417077    502.73248  0.036620956    0.0371185            7 
 1145000    1.0522633   -6.2216019     499.9142  0.036383857  0.037110652            4 
 1146000    1.0623102   -6.2433367    500.22527  0.036374729  0.037102677            5 
 1147000    1.0577442   -6.2605916       502.55  0.036511915  0.037094662            2 
 1148000    1.0818035    -6.265936    500.69567  0.036345504  0.037086592            4 
 1149000    1.0743359   -6.2400653    503.13394  0.036490712  0.037078526            4 
 1150000    1.0671345   -6.2572102    502.18164  0.036389974  0.037070426            4 
 1151000    1.1099661   -6.2584222    503.17642   0.03643038  0.037062409            5 
 1152000    1.0581193   -6.2407596    504.06254  0.036462857  0.037054498            5 
 1153000    1.0829066   -6.3014872    502.72111  0.036334281  0.037046517            9 
 1154000    1.0742988   -6.2746845    503.62876  0.036368339  0.037038605            7 
 1155000    1.0482655   -6.2321231    506.39712  0.036536589  0.037031023            4 
 1156000    1.0471531   -6.2884849    504.56426  0.036372856  0.037023356            8 
 1157000    1.0685891   -6.2854672    505.79394  0.036429987  0.037015436            7 
 1158000    1.0614293    -6.266588    505.40747  0.036370716  0.037007397            5 
 1159000    1.0635567   -6.2844879    505.50965  0.036346682  0.036999473            4 
 1160000    1.0972773   -6.2405735    506.72175  0.036402425  0.036991551            4 
 1161000    1.0511991   -6.2879365     506.0665  0.036324038  0.036983715            4 
 1162000    1.0804631   -6.2719205    507.06601  0.036364459  0.036975892            4 
 1163000     1.073489   -6.3217654    506.09594  0.036263682     0.036968           10 
 1164000    1.0479559    -6.308171     506.3362  0.036249728  0.036960127            5 
 1165000    1.0725846   -6.2377862    507.37176  0.036292687  0.036952265            4 
 1166000    1.0519855    -6.308649    507.86197  0.036296596  0.036944273            6 
 1167000    1.0447711   -6.2710247    505.79318  0.036117765  0.036936139            3 
 1168000    1.0552038   -6.2640305    507.00973   0.03617364  0.036928069            5 
 1169000    1.0725675    -6.298548    507.70928  0.036192563  0.036920006            4 
 1170000    1.0520148   -6.2379072    508.09559  0.036189145  0.036911818           10 
 1171000    1.0750641   -6.2684437    508.42933  0.036181991  0.036903892            2 
 1172000    1.0710589   -6.3140422    509.29952  0.036212992  0.036895906            4 
 1173000    1.0660775   -6.3021289    510.02537  0.036233686   0.03688769            5 
 1174000    1.0555781    -6.246859    510.30979  0.036223012  0.036879701            6 
 1175000    1.0641399   -6.2730676    509.86395  0.036160564  0.036871676            3 
 1176000    1.0637228   -6.2577874    509.96766  0.036137164  0.036863843           10 
 1177000     1.087453   -6.3072554    510.66915  0.036156128  0.036855839            2 
 1178000    1.0783634   -6.2475787    513.04193  0.036293289  0.036847775            4 
 1179000    1.0680706    -6.302316    511.07489  0.036123472  0.036839717            6 
 1180000    1.0471118   -6.2550057    512.14948  0.036168749  0.036831819            3 
 1181000    1.0586476   -6.2524868    512.67507  0.036175209  0.036823979            8 
 1182000    1.0809236   -6.3024478    512.64429  0.036142434  0.036816164            8 
 1183000    1.0674459   -6.2908871    513.37664  0.036163471  0.036808037            7 
 1184000    1.0569958   -6.2645562    515.19038  0.036260584  0.036800004            7 
 1185000    1.0748799   -6.2851043    514.76453  0.036200037  0.036792337            5 
 1186000    1.0554593   -6.2688503    514.57629  0.036156288  0.036784444            6 
 1187000    1.0421724   -6.2518937    515.17822  0.036168086  0.036776588            8 
 1188000    1.0658074   -6.2765521    515.29424   0.03614578  0.036768897            7 
 1189000    1.0803862   -6.2882017    515.38701  0.036121882  0.036761129            5 
 1190000    1.0666563   -6.2530762    517.60238  0.036246666  0.036753397            6 
 1191000    1.0733438   -6.2611717     517.4208  0.036203527  0.036745915            5 
 1192000    1.0451672   -6.2855611    517.01432  0.036144737  0.036738199            8 
 1193000    1.0767176   -6.2868815    516.43096  0.036073691  0.036730478            7 
 1194000    1.0905344   -6.2616647    516.87794  0.036074675  0.036722709            5 
 1195000    1.0802019   -6.3107017    516.06655  0.035987904  0.036714728            9 
 1196000    1.0742206   -6.2952029    519.49288   0.03619655  0.036706911            6 
 1197000     1.060917   -6.2558953    518.95012  0.036128524  0.036699463            7 
 1198000    1.0633116   -6.2571237    520.80755   0.03622757  0.036691912            4 
 1199000    1.0573174   -6.2277248    520.35656   0.03616601  0.036684442            8 
 1200000    1.0488318   -6.3055221    521.04876  0.036183942  0.036676882            2 
 1201000    1.0452708   -6.2801132     521.8377  0.036208555   0.03666918            7 
 1202000    1.0386711   -6.2895468    521.34818  0.036144494  0.036661643            7 
 1203000    1.0649688   -6.2771474    521.01009  0.036091028  0.036654219            4 
 1204000    1.0503468   -6.2847954    521.43022  0.036090132  0.036646682            2 
 1205000    1.0681684   -6.2552748    520.49898   0.03599578  0.036638893            4 
 1206000    1.0608046   -6.2805905    522.36828  0.036095099  0.036631302            6 
 1207000    1.0559799   -6.2948167    522.30976  0.036061155  0.036623564            7 
 1208000     1.059231   -6.2725495    522.75144  0.036061771  0.036615776            8 
 1209000    1.0716666   -6.2625662    522.97254  0.036047184  0.036608363            3 
 1210000    1.0647422   -6.3133361    522.55874  0.035988894  0.036600623            7 
 1211000    1.0401027   -6.2757925    524.45259  0.036089499  0.036593088            8 
 1212000    1.0628853   -6.2708918    523.95222  0.036025318  0.036585411            5 
 1213000    1.0652517   -6.2842887    523.66877  0.035976145  0.036577686            3 
 1214000    1.0713818   -6.2834327    523.75401  0.035952362  0.036569913            6 
 1215000    1.0653621   -6.2473856    526.27716  0.036095827  0.036562269           10 
 1216000    1.0398831    -6.270362    523.74702  0.035892751  0.036554666            8 
 1217000    1.0545644    -6.296546    526.14195  0.036027249  0.036547124            4 
 1218000    1.0404555   -6.2600749    525.79814  0.035974148  0.036539702            9 
 1219000    1.0635358   -6.2846136    527.84384  0.036084484  0.036532289            6 
 1220000    1.0570113   -6.2471924    528.26792  0.036083874   0.03652511            3 
 1221000     1.067584   -6.3095045    527.14919  0.035977968  0.036517932           10 
 1222000    1.0388911   -6.3043349     528.9621  0.036072157  0.036510721            5 
 1223000    1.0365613     -6.28013    528.93013  0.036040483  0.036503419            6 
 1224000    1.0457229   -6.2864927     528.5084  0.035982326  0.036496185            3 
 1225000    1.0644981   -6.2731529    529.19545  0.035999691  0.036488858           11 
 1226000    1.0553541   -6.2755539      529.698  0.036004486  0.036481696            4 
 1227000     1.054806   -6.2900035    527.72682  0.035841268  0.036474282            6 
 1228000    1.0453732   -6.2742334    530.35604  0.035990502  0.036466831            4 
 1229000    1.0526173   -6.2707994    529.54297  0.035906087  0.036459367            6 
 1230000    1.0461277   -6.2724518    531.05535   0.03597936  0.036451801            8 
 1231000    1.0717267   -6.2603961    530.53134  0.035914659  0.036444401            5 
 1232000    1.0669535   -6.2801194    532.07716  0.035990068  0.036436845           11 
 1233000    1.0551522   -6.3104153    529.57529  0.035791788   0.03642932            6 
 1234000    1.0634703   -6.2953961    531.16828  0.035870359  0.036421757            4 
 1235000    1.0717312   -6.2651832     533.5715  0.036003475  0.036414384            2 
 1236000    1.0503199    -6.272821    533.15087  0.035945986   0.03640693            7 
 1237000    1.0293815   -6.2837375    533.67753  0.035952407  0.036399534            6 
 1238000    1.0378473   -6.2735051    534.01843  0.035946313  0.036392317            3 
 1239000    1.0520195   -6.2836947    534.06961  0.035920743  0.036385152            6 
 1240000     1.071013   -6.2802095    536.50149  0.036055208  0.036378081            4 
 1241000    1.0742234   -6.2992106    534.97925  0.035923936  0.036371197            5 
 1242000    1.0615864   -6.3171842    534.44702  0.035859301  0.036364074            4 
 1243000    1.0427173    -6.313811    535.74173  0.035917252  0.036356852            5 
 1244000    1.0322899   -6.2868513    535.97716  0.035904151  0.036349867           11 
 1245000    1.0539072   -6.2978254    537.72798  0.035992502  0.036342623            3 
 1246000    1.0405683   -6.2490344    535.36553  0.035805613  0.036335395            7 
 1247000    1.0671809   -6.2862561    534.69104  0.035731826  0.036327969            8 
 1248000    1.0491605   -6.3065268    536.70757  0.035837845  0.036320682           17 
 1249000    1.0390705   -6.2859598    538.07713  0.035900529  0.036313542            4 
 1250000    1.0587525   -6.2871948     537.8231  0.035854873  0.036306239            4 
 1251000    1.0285445   -6.2607442    539.46312   0.03593546  0.036299117            2 
 1252000    1.0608757   -6.3020592    537.85428  0.035799673  0.036291988            8 
 1253000    1.0499454   -6.2962242    538.06895  0.035785378  0.036284947           11 
 1254000    1.0708811   -6.2822245    539.20075  0.035832054  0.036277641            3 
 1255000    1.0474274   -6.3186977    538.95356  0.035787089  0.036270553            9 
 1256000    1.0481909   -6.2933155    539.37054  0.035786262  0.036263371            4 
 1257000     1.028638   -6.2818412     541.3698  0.035890334  0.036256289           11 
 1258000    1.0503859   -6.2759424    539.14938  0.035714718  0.036249214            4 
 1259000    1.0320385   -6.3478194    540.87733  0.035800724   0.03624211            4 
 1260000     1.053062   -6.2971303    541.57587   0.03581851  0.036234795            4 
 1261000    1.0467371   -6.2773549    541.65348  0.035795234  0.036227467            6 
 1262000    1.0632167   -6.2971803    542.79549   0.03584228  0.036220382            4 
 1263000    1.0687688   -6.2775571    542.20262  0.035774783  0.036213498            4 
 1264000    1.0562531   -6.3252667    542.33061  0.035754919  0.036206497            6 
 1265000    1.0528236   -6.3025693    543.46941  0.035801674  0.036199456            3 
 1266000    1.0276425   -6.2902177    543.81563  0.035796184   0.03619252            4 
 1267000        1.062   -6.3029366    542.75312  0.035698048  0.036185619            6 
 1268000    1.0519873   -6.2716715    544.89167  0.035810441  0.036178674            3 
 1269000    1.0534456   -6.3142599    544.89978  0.035782754  0.036171855            5 
 1270000    1.0382937   -6.2718138    544.62248  0.035736384  0.036164881            4 
 1271000    1.0442147   -6.2775014    545.37823  0.035757818  0.036158145            6 
 1272000    1.0520441   -6.2878731    547.28633  0.035854712  0.036151106            4 
 1273000    1.0476615   -6.2893121    546.73448  0.035790421  0.036144064            7 
 1274000    1.0349679    -6.303244    545.36904  0.035673014   0.03613684            5 
 1275000    1.0617684   -6.3221946    546.69984  0.035732016   0.03612961            3 
 1276000    1.0471164   -6.2865339    545.29802  0.035612462  0.036122269            8 
 1277000    1.0486275   -6.2718669    546.68199  0.035674889  0.036115041            4 
 1278000    1.0291366    -6.290366    547.93394  0.035728609  0.036108002            4 
 1279000    1.0828216   -6.2811517    547.93159   0.03570052  0.036100848           18 
 1280000    1.0511365   -6.3122678    547.42838  0.035639869  0.036093761            6 
 1281000    1.0250505   -6.2533984    546.53186  0.035553725   0.03608667            8 
 1282000     1.050497   -6.2680061    547.35122  0.035579253  0.036079384            3 
 1283000    1.0184914   -6.3231531    548.75683  0.035642818  0.036071911            4 
 1284000    1.0272898   -6.2810623    550.34484  0.035718123  0.036064638            7 
 1285000    1.0605518   -6.3119307    550.63399  0.035709078  0.036057308            9 
 1286000    1.0293797   -6.2850518    550.80557  0.035692429  0.036050138            5 
 1287000    1.0493203   -6.2961798    549.60787  0.035587145   0.03604294            3 
 1288000     1.033194   -6.3181561    550.33057  0.035606274  0.036035657            3 
 1289000    1.0493407    -6.279897     552.4105  0.035713118  0.036028618            4 
 1290000    1.0374993    -6.315336    551.70581   0.03563991  0.036021554            2 
 1291000     1.079015   -6.3066375    550.56339  0.035538561  0.036014401            2 
 1292000    1.0580399   -6.2803352    551.08099   0.03554444  0.036007319            3 
 1293000    1.0375284   -6.3210594    552.15767  0.035586341  0.036000184            6 
 1294000    1.0699573   -6.3347396    553.49764  0.035645134  0.035993216            4 
 1295000    1.0572728   -6.3077018    553.64762   0.03562726  0.035986263            5 
 1296000    1.0413042   -6.3051012    553.89827  0.035615887  0.035979314            4 
 1297000    1.0488927   -6.3154534     552.9019  0.035524409  0.035972553            5 
 1298000    1.0809393   -6.3064052    554.39432  0.035592856  0.035965611            4 
 1299000     1.062635   -6.2830707    556.08832  0.035674129   0.03595864            4 
 1300000    1.0659918   -6.3152536    555.55671  0.035612609  0.035951868            4 
 1301000     1.036924   -6.3294633    555.51518  0.035582576  0.035945084            2 
 1302000    1.0422747   -6.3110255    555.26516  0.035539245   0.03593812            8 
 1303000    1.0313364   -6.2754984    554.49567  0.035462757  0.035931303            8 
 1304000    1.0221807   -6.3062942    555.95814  0.035529022  0.035924359            4 
 1305000     1.034708   -6.3253654    557.32329  0.035588971  0.035917269           11 
 1306000    1.0439569    -6.308232      557.155  0.035550982  0.035910284            9 
 1307000    1.0482984   -6.3189305    557.54593  0.035548708  0.035903303            3 
 1308000    1.0362889    -6.306622    557.88593  0.035543191   0.03589613            6 
 1309000    1.0398002   -6.2999502    559.20559  0.035600051  0.035889161            3 
 1310000    1.0275374   -6.2861777    558.97733  0.035558354  0.035882432            3 
 1311000    1.0407843    -6.306085    560.90013  0.035653454  0.035875768            6 
 1312000    1.0443568   -6.3140602     560.8646  0.035624022  0.035869228            5 
 1313000    1.0467507   -6.3184936    557.76052  0.035399881  0.035862632            6 
 1314000    1.0450432   -6.2766252    561.62479   0.03561801  0.035856017            3 
 1315000    1.0249625   -6.2834938    561.10509  0.035557991  0.035849254            2 
 1316000    1.0276708   -6.3484632    559.34822   0.03541972  0.035842431            4 
 1317000    1.0332721   -6.2964069     560.1417  0.035443033  0.035835393            6 
 1318000    1.0397125   -6.3554946    559.32866  0.035364736  0.035828427            5 
 1319000    1.0263459   -6.3213123    560.50079  0.035411978  0.035821309            6 
 1320000    1.0609473   -6.3282258    561.30273  0.035435778  0.035814368            3 
 1321000    1.0180035   -6.3233887    561.41197  0.035415845  0.035807356            7 
 1322000    1.0399846   -6.3427586    560.86256  0.035354422  0.035800467            6 
 1323000    1.0337358   -6.3376776    562.15883  0.035409349  0.035793695            5 
 1324000    1.0410931   -6.2809593    564.49765  0.035529812  0.035786931           12 
 1325000    1.0388249   -6.3440969    563.56839  0.035444553  0.035779943            4 
 1326000    1.0181194   -6.3298326    562.77283  0.035367825  0.035773177           11 
 1327000     1.031817   -6.3185449    563.52541  0.035388433  0.035766262            3 
 1328000    1.0394393   -6.3067517    567.16334  0.035590069  0.035759681            4 
 1329000    1.0110181   -6.3253346    564.34224  0.035386396   0.03575305            6 
 1330000    1.0468271   -6.3323758    563.10567   0.03528231  0.035746179            4 
 1331000    1.0452066   -6.3017759    565.00132  0.035374488  0.035739403            4 
 1332000    1.0273615   -6.3317705    564.95605  0.035345098   0.03573256            6 
 1333000     1.029427   -6.2939898      568.682  0.035551513  0.035725686            7 
 1334000    1.0357763   -6.3375341    566.70026  0.035401066  0.035718951            9 
 1335000    1.0508407   -6.2855933    567.59878  0.035430636  0.035712225            5 
 1336000    1.0547392    -6.314617    567.31205  0.035386231  0.035705545           10 
 1337000    1.0153201   -6.3038565    567.76143  0.035387773  0.035698762            5 
 1338000    1.0421827   -6.2958355    567.41696   0.03533987  0.035691966            3 
 1339000    1.0282029   -6.2899775    568.58766  0.035386337  0.035685135            3 
 1340000    1.0468198   -6.3060403    567.24432  0.035276388  0.035678279            5 
 1341000    1.0463559    -6.342657    569.17001   0.03536975  0.035671307            3 
 1342000    1.0397961   -6.3080982    568.00905  0.035271302  0.035664399            4 
 1343000    1.0523315   -6.3224062    568.89319    0.0352999  0.035657537            4 
 1344000    1.0385049   -6.3078863    570.96038  0.035401809  0.035650672            5 
 1345000    1.0065859   -6.2904835    570.73508  0.035361529  0.035644087            6 
 1346000    1.0195138   -6.3062586    569.90784  0.035284041  0.035637422            5 
 1347000    1.0418402   -6.3131712    571.25151  0.035340974  0.035630686            4 
 1348000     1.040277   -6.3395537    571.86742  0.035352832  0.035623961            7 
 1349000    1.0577718    -6.311193    572.98298  0.035395539   0.03561732            7 
 1350000     0.997098    -6.330476    572.75552  0.035355279  0.035610899            5 
 1351000    1.0488729   -6.3178257    573.47116  0.035373252  0.035604448            4 
 1352000    1.0479202   -6.3415029    573.43926  0.035345122  0.035598043            7 
 1353000    1.0408469   -6.3197363    573.65936  0.035332555  0.035591619            5 
 1354000    1.0464436    -6.352086    574.48379  0.035357201  0.035585129            2 
 1355000    1.0247651   -6.3134182    574.19443  0.035313311  0.035578813            4 
 1356000    1.0292812    -6.311183    574.98514  0.035335862   0.03557229            5 
 1357000    1.0462785   -6.3218193    576.38273  0.035395648  0.035566096            6 
 1358000    1.0241418   -6.3397126    576.61857  0.035384055  0.035559772            6 
 1359000    1.0408669   -6.3400341    574.96173  0.035256422  0.035553514            6 
 1360000     1.047078   -6.3136672    576.98649  0.035354565  0.035547046            7 
 1361000    1.0350371   -6.2983203    577.93812  0.035386855  0.035540588            4 
 1362000    1.0293332   -6.3214598    577.55949  0.035337707  0.035534133            7 
 1363000    1.0252595   -6.3101118    575.73662  0.035200331  0.035527588            4 
 1364000    1.0358361   -6.3132565    577.57924  0.035287099  0.035521091            6 
 1365000    1.0160373    -6.327366    577.68832  0.035267907  0.035514566            9 
 1366000    1.0404285   -6.3425379     577.8717  0.035253276  0.035507927            5 
 1367000    1.0262656      -6.3057    577.37391  0.035197141  0.035501324            6 
 1368000    1.0303143   -6.3145012     578.0958  0.035215387  0.035494687            3 
 1369000     1.028244   -6.3308056    577.48493  0.035152479   0.03548814            5 
 1370000    1.0096243   -6.3259822    579.59098  0.035254926  0.035481553            3 
 1371000    1.0259952   -6.3245134     579.0875  0.035198608  0.035474741            7 
 1372000    1.0076666   -6.3483581    578.92398  0.035163021  0.035467949            3 
 1373000    1.0250429   -6.3307019    578.33882  0.035101895  0.035461384            6 
 1374000   0.99871247   -6.3338936    580.20579   0.03518958  0.035454793           17 
 1375000    1.0242899    -6.326027    580.62358  0.035189308   0.03544815            4 
 1376000    1.0459543   -6.3192517    580.53941  0.035158637  0.035441651            7 
 1377000    1.0206814   -6.3368852    582.07112    0.0352258  0.035435202            6 
 1378000     1.023474   -6.3864083    581.42157  0.035160956  0.035428842            3 
 1379000    1.0122716   -6.3169867     581.8399  0.035160739  0.035422247            6 
 1380000     1.036458   -6.3610692    581.67423  0.035125256  0.035415702            4 
 1381000    1.0124195   -6.3727854    581.96136  0.035117147   0.03540922            4 
 1382000    1.0154133   -6.3358502    582.89831  0.035148234  0.035402807            3 
 1383000    1.0182694     -6.33249    584.75391  0.035234629  0.035396562            4 
 1384000     1.050278   -6.3317608     583.4056  0.035127987  0.035390328            5 
 1385000     1.032138    -6.372993    583.72792  0.035122017  0.035383861            5 
 1386000    1.0255872   -6.3328677    583.91597  0.035107983   0.03537745           10 
 1387000    1.0193514   -6.3349335    584.50657  0.035118155  0.035371089            5 
 1388000     1.000484   -6.3224775    585.13736  0.035130725  0.035364909            6 
 1389000    1.0330971   -6.3003806    586.26642  0.035173171  0.035358573            3 
 1390000     1.008786   -6.3400745    584.59971  0.035047944  0.035352166            6 
 1391000    1.0330466   -6.3448957    586.21187  0.035119331  0.035345742            4 
 1392000    1.0352482   -6.3575038    587.21758  0.035154309  0.035339306            6 
 1393000    1.0153991   -6.3199935    585.91338  0.035051052  0.035332814            5 
 1394000    1.0220674   -6.3233425    588.57498  0.035185018  0.035326277            3 
 1395000    1.0515541   -6.3672546    586.41628  0.035030841  0.035319573            9 
 1396000    1.0442831   -6.3406894    587.93611  0.035096473  0.035313082            8 
 1397000    1.0043793   -6.3382721    587.29714  0.035033234    0.0353066            5 
 1398000    1.0575358   -6.3247136    587.23046    0.0350042  0.035300136            8 
 1399000    1.0335993   -6.3341833    587.38877  0.034988609  0.035293594            5 
 1400000    1.0248984   -6.3405139    588.75067  0.035044683    0.0352871            6 
 1401000    1.0256474   -6.3736523    588.67045  0.035014897  0.035280455            7 
 1402000    1.0294031   -6.3211869    589.71628  0.035052085   0.03527397            5 
 1403000    1.0325672    -6.332459    590.91397   0.03509824  0.035267585            2 
 1404000    1.0346725   -6.3118571    590.10996   0.03502552  0.035261154            2 
 1405000    1.0174356   -6.3049065    588.84797  0.034925739  0.035254548            2 
 1406000    1.0297259   -6.3239125     590.7038  0.035010894  0.035248144            3 
 1407000    1.0283608   -6.3468173    592.24162  0.035077092  0.035241786           10 
 1408000    1.0213986   -6.3084934    591.36588  0.035000348  0.035235278            6 
 1409000    1.0125067   -6.3297676    590.45126  0.034921414  0.035228751            3 
 1410000      1.02659    -6.316452    591.78173   0.03497528  0.035222258            3 
 1411000    1.0074711   -6.3779963    590.39539  0.034868615  0.035215587           10 
 1412000     1.040605   -6.3306271    589.91049  0.034815303  0.035208798            5 
 1413000    1.0193337   -6.3302345    591.27285   0.03487101  0.035202186            8 
 1414000    1.0131479   -6.3465577     591.3638  0.034851709  0.035195585            6 
 1415000    1.0243185   -6.3408184    591.21929  0.034818568   0.03518876            5 
 1416000    1.0097904   -6.3321909    593.19123   0.03491003  0.035181813            7 
 1417000    1.0347168   -6.3348826    591.83824  0.034805825  0.035174982            6 
 1418000    1.0223934   -6.3440114    591.23312  0.034745717  0.035168199            4 
 1419000    1.0142664   -6.3219585    592.21861  0.034779105  0.035161408            4 
 1420000    1.0075691   -6.3294984     591.5309  0.034714254  0.035154428            4 
 1421000    1.0281925   -6.3834416    592.51465  0.034747517  0.035147359            7 
 1422000    1.0177691   -6.3481506    591.08089  0.034639058  0.035140193            9 
 1423000    1.0181087   -6.3238671    593.69994  0.034768092  0.035133014            7 
 1424000    1.0150938   -6.3491406    591.95035  0.034641289  0.035125798            9 
 1425000       1.0439   -6.3364668    592.52679   0.03465069  0.035118608            5 
 1426000    1.0074351   -6.3520851    593.62521   0.03469058  0.035111375            2 
 1427000    1.0167537   -6.3340794     593.0334   0.03463171  0.035104029            4 
 1428000    1.0445682   -6.3172086    594.10604  0.034670054  0.035096743            4 
 1429000    1.0419209   -6.3563576    596.13132  0.034763898  0.035089577            4 
 1430000     1.027982   -6.3605854    594.16857  0.034625208  0.035082535            6 
 1431000    1.0107614   -6.3274336    594.69509  0.034631673  0.035075339            5 
 1432000   0.99814756   -6.3271089    593.85773   0.03455876  0.035068103            6 
 1433000    1.0240385   -6.3547232     596.7457  0.034702588  0.035060954            4 
 1434000    1.0240157   -6.3465891    595.68458  0.034616723  0.035053732            3 
 1435000    1.0436558    -6.377115    595.55132  0.034584862  0.035046627            9 
 1436000      1.02697   -6.4039144    596.61213  0.034622338  0.035039392            8 
 1437000    1.0352316   -6.3295183    596.72465   0.03460477  0.035032375            5 
 1438000    1.0342902   -6.3601202    597.28406  0.034613124  0.035025437           12 
 1439000    1.0095964   -6.3756377    597.58131  0.034606284  0.035018282            5 
 1440000    1.0271758   -6.3412794    596.39069   0.03451335  0.035011253            8 
 1441000    1.0478268   -6.3383659    597.68813  0.034564431  0.035004159            9 
 1442000    1.0354186   -6.3593152    598.02876  0.034560146  0.034997078            7 
 1443000   0.99994231   -6.3281549    599.58496  0.034626066  0.034989906           10 
 1444000    1.0179903     -6.34589     600.9067  0.034678365   0.03498267           10 
 1445000   0.99973154   -6.3640925    600.53574  0.034632972   0.03497548            5 
 1446000    1.0178565   -6.3418468    598.77992  0.034507833   0.03496803           15 
 1447000    1.0205982   -6.3404949    599.35631   0.03451718  0.034960709            4 
 1448000    1.0481468   -6.3626872     599.1324  0.034480456  0.034953581            5 
 1449000    1.0179758   -6.3479534    601.09787  0.034569696  0.034946271            4 
 1450000    1.0098511   -6.3537619    600.48832  0.034510823  0.034939052            7 
 1451000    1.0312802   -6.3474831    601.25273   0.03453094  0.034931854            3 
 1452000    1.0255632   -6.3746834    600.75963  0.034478858  0.034924447            5 
 1453000    1.0122667   -6.3406715    601.29935  0.034486083  0.034917238            4 
 1454000    1.0116621   -6.3139715    601.81762  0.034492069  0.034909919            4 
 1455000    1.0138943    -6.328081    603.31729  0.034554255  0.034902608            6 
 1456000    1.0173654   -6.3538767     601.6347   0.03443422  0.034895209            4 
 1457000    1.0225483   -6.3371316    599.87621   0.03431001  0.034887713            7 
 1458000    1.0261591    -6.359396    601.80942  0.034396972  0.034880149            9 
 1459000    1.0068223   -6.3592396    602.02247  0.034385565  0.034872699            3 
 1460000    1.0117951   -6.3450522    603.60943  0.034452593   0.03486536            6 
 1461000    1.0159186   -6.3467257    603.32595  0.034412842  0.034857953            4 
 1462000    1.0289896    -6.351402    602.38409  0.034335618  0.034850427           10 
 1463000    1.0142811   -6.3373229    604.36292  0.034424864  0.034842853            5 
 1464000    1.0081498   -6.3556815    603.44203  0.034348931   0.03483542            6 
 1465000    1.0133862   -6.3806634    604.36635  0.034378063  0.034827826            7 
 1466000    1.0177151   -6.3466325    604.03232  0.034335625  0.034820195            5 
 1467000    1.0308698   -6.3643993    603.53091  0.034283737  0.034812476            6 
 1468000    1.0265405   -6.3959081    603.41356  0.034253722  0.034804678            7 
 1469000   0.99681697   -6.3761878    604.86427    0.0343127  0.034796997            4 
 1470000   0.99733168   -6.3801513    606.08135  0.034358353  0.034789357            4 
 1471000    1.0081422   -6.3531335    605.38987  0.034295823  0.034781756            7 
 1472000    1.0058895   -6.3458608    604.58611  0.034227022  0.034774181            3 
 1473000    1.0073433   -6.3870627    605.71749  0.034267792  0.034766428            9 
 1474000     1.026185     -6.38286    603.93062  0.034143522  0.034758583            6 
 1475000    1.0168473   -6.3651633    607.62977  0.034329365  0.034750932           21 
 1476000    1.0182924   -6.3590351    606.57466  0.034246537  0.034743294            2 
 1477000    1.0267427   -6.3597456    606.16121  0.034200023   0.03473545            5 
 1478000    1.0081082   -6.3868981    606.64472  0.034204145  0.034727811            6 
 1479000    1.0026646    -6.355177    606.82373  0.034191105  0.034720087           11 
 1480000    1.0142135   -6.3544896    606.80004  0.034166669  0.034712236            3 
 1481000    1.0172181   -6.3198557    606.10961  0.034104749  0.034704441            4 
 1482000    1.0048978   -6.3539675    608.23042  0.034200991  0.034696698           10 
 1483000    1.0276114   -6.3820922    607.51791  0.034137891  0.034688922            7 
 1484000    1.0205078   -6.3488652    606.23504  0.034042848  0.034681008            5 
 1485000   0.97939749   -6.3724406    606.69122  0.034045523  0.034673074            6 
 1486000    1.0115727   -6.3686893    606.99979  0.034039917   0.03466503            7 
 1487000    1.0174533    -6.365288     610.2421  0.034198728  0.034657036            6 
 1488000    1.0212289   -6.3591978    608.13914  0.034057971  0.034649112            6 
 1489000    1.0059025   -6.3679617    608.16741  0.034036681  0.034641103            6 
 1490000    1.0141566   -6.3617352    608.89153  0.034054336  0.034633036            5 
 1491000    1.0044439   -6.3935881    609.54312  0.034067914  0.034625086            5 
 1492000    1.0142914   -6.3559955    609.28354  0.034030582  0.034617117            4 
 1493000   0.99894343   -6.3495408    611.32044   0.03412148  0.034609295           10 
 1494000    1.0070768   -6.3442229    610.61968  0.034059554  0.034601425            6 
 1495000    1.0136151   -6.3532689     611.9415  0.034110452  0.034593635            5 
 1496000    1.0131315   -6.3824263    611.46408  0.034061056  0.034585843            4 
 1497000    1.0030072    -6.367247    612.00571  0.034068454  0.034578139           12 
 1498000    1.0394291   -6.3398127    612.93394  0.034097349  0.034570371            8 
 1499000     1.014065   -6.3385134    612.88158  0.034071691  0.034562738            2 
 1500000    1.0050211   -6.3837449    612.70484  0.034039158  0.034554865            4 
 1501000   0.99960607   -6.3752915    614.04063  0.034090641   0.03454705            4 
 1502000    1.0376133   -6.3555927    612.65018    0.0339908   0.03453951            7 
 1503000    1.0125229   -6.3681737    613.15824  0.033996354  0.034531936            3 
 1504000   0.98424807   -6.3584844    614.18582  0.034030686  0.034524294            8 
 1505000    1.0220437   -6.3436652    616.73555  0.034149255  0.034516675            7 
 1506000   0.99638777   -6.3758484    615.34308  0.034049528  0.034509167           12 
 1507000    1.0074596   -6.3783461    615.00402  0.034008185  0.034501606            4 
 1508000     1.045374   -6.3711049    615.13139  0.033992672  0.034494007            6 
 1509000    1.0133195   -6.3805575    616.10762  0.034024057  0.034486483            7 
 1510000    1.0145153    -6.376833     616.8354  0.034041689  0.034478946            4 
 1511000     1.016623   -6.3740648    616.05691  0.033976225  0.034471401            5 
 1512000    1.0229832    -6.329622    617.92349   0.03405663  0.034463883            3 
 1513000    1.0137394   -6.3635293    616.55521  0.033958758  0.034456357            5 
 1514000   0.99843753   -6.4051986    616.60931  0.033939306  0.034448816            5 
 1515000    1.0253173   -6.3609658    618.60973  0.034026938  0.034441112            7 
 1516000   0.98776708    -6.355379    617.30021   0.03393251  0.034433463           20 
 1517000   0.99613209   -6.3661801    615.34311  0.033802632  0.034425666            5 
 1518000    1.0205418   -6.3804756    616.34321  0.033835267  0.034417837            5 
 1519000   0.99162793   -6.3839408     615.7709  0.033781594  0.034409992           10 
 1520000    1.0189259   -6.3743313    619.15564  0.033944936  0.034402083            4 
 1521000    1.0177289   -6.3474917    618.60461  0.033892429  0.034394317            8 
 1522000   0.99956202   -6.3948858    620.39597  0.033968242  0.034386526            5 
 1523000     1.000401   -6.3789506    620.21629  0.033936107  0.034378745            6 
 1524000      1.00183   -6.3700524    617.64107  0.033773024  0.034370889            5 
 1525000     1.043165   -6.3506602    621.45849  0.033959481  0.034363089            4 
 1526000    1.0076935    -6.359244    619.85727  0.033849785  0.034355373           12 
 1527000    1.0254936    -6.342912    618.03026  0.033727912  0.034347645            3 
 1528000   0.99205461   -6.3744894    621.90899  0.033917375  0.034339827            6 
 1529000   0.99571754   -6.3813033     620.5331  0.033820204  0.034332038            7 
 1530000    1.0344651   -6.3882034    620.29702  0.033785241  0.034324271            5 
 1531000    1.0136571   -6.3896908    620.75419  0.033788057  0.034316612            5 
 1532000    1.0039218   -6.3856851    623.85848  0.033934861    0.0343089            5 
 1533000    1.0002712   -6.3744555    620.90307  0.033752069  0.034301276            5 
 1534000    0.9970339   -6.4000133    621.28535  0.033750834  0.034293493           14 
 1535000   0.99331801   -6.3606815    620.91968  0.033708994  0.034285643            4 
 1536000   0.98433892   -6.3634392    623.20328  0.033810942  0.034277754           17 
 1537000    1.0111274   -6.3360665    623.46036  0.033802882  0.034269889            4 
 1538000    1.0006042   -6.3913548    621.00514  0.033647873  0.034262176           15 
 1539000     1.011891   -6.3988481    622.59242  0.033711957  0.034254255            6 
 1540000   0.99085577   -6.4006207    624.03135   0.03376793  0.034246369            6 
 1541000   0.97818552   -6.3700824    622.95895  0.033688024  0.034238487            5 
 1542000   0.99269695   -6.3802707    623.45407  0.033692935  0.034230684            7 
 1543000    1.0020748   -6.3964563    624.26533  0.033714913  0.034222962            6 
 1544000    1.0000803    -6.380971    624.43869  0.033702434  0.034215189            9 
 1545000    1.0193795   -6.3977976    624.31263   0.03367382  0.034207406            6 
 1546000    1.0355589   -6.3627007    626.26068  0.033757044  0.034199701            4 
 1547000    1.0170174   -6.3665775    624.47944  0.033639272  0.034191983           12 
 1548000    1.0194098   -6.3712766    627.02256  0.033754444   0.03418433            4 
 1549000   0.99704419   -6.3946112    625.32813  0.033641496  0.034176614            4 
 1550000    1.0135637   -6.4125392    625.97236  0.033654428  0.034168889            6 
 1551000    1.0108574   -6.3670272    627.76137  0.033728851  0.034161256            4 
 1552000    1.0199092    -6.369491    627.83048  0.033710829   0.03415364            6 
 1553000    1.0142275   -6.3600274    627.53087  0.033673045  0.034145997            5 
 1554000    1.0072417     -6.39025     627.5244   0.03365103  0.034138336            9 
 1555000    0.9782083    -6.372097    627.50415  0.033628304  0.034130735            4 
 1556000   0.98796398   -6.3838294    629.36772  0.033706497  0.034123221            4 
 1557000   0.98695918   -6.4109153    628.17785  0.033621165  0.034115639            8 
 1558000   0.98819315    -6.349301    630.63295  0.033730902  0.034108117            4 
 1559000   0.99268079   -6.3660187    630.57448  0.033706141  0.034100611            6 
 1560000   0.97832176   -6.3959221    630.80277  0.033696729   0.03409295            5 
 1561000    1.0055047   -6.4030931    630.48391  0.033658121  0.034085425            3 
 1562000   0.98742937   -6.3861728      629.607  0.033589789  0.034077791           21 
 1563000   0.99922832   -6.4072433     629.2138  0.033547334  0.034069876            7 
 1564000     1.004631   -6.3816577    628.76275  0.033501852  0.034061997           11 
 1565000    1.0094428   -6.3855401    630.21702  0.033557882  0.034054196            4 
 1566000    1.0092691   -6.3821415    629.53628  0.033500228  0.034046336            4 
 1567000    1.0240848   -6.3714282    628.47863  0.033422603  0.034038451            5 
 1568000    0.9959647   -6.3858207    628.06995  0.033379568  0.034030492            5 
 1569000   0.99345387    -6.372688    628.46761  0.033379414  0.034022461            5 
 1570000     1.017465   -6.3848255    628.67294  0.033369052  0.034014442            3 
 1571000   0.99708155   -6.3754246    631.38155  0.033491489  0.034006354            3 
 1572000   0.98531852   -6.3877497    631.56707  0.033480019  0.033998384            3 
 1573000    1.0089042   -6.3676624    631.28623  0.033443856  0.033990445            3 
 1574000    1.0173002   -6.3821582    630.48629  0.033380257   0.03398249            2 
 1575000    1.0015221   -6.3630673    631.42587  0.033408776  0.033974452            6 
 1576000    1.0280329   -6.3652025    632.05481  0.033420834  0.033966471            4 
 1577000   0.96424248   -6.3900595    633.96328   0.03350049  0.033958567            5 
 1578000    1.0013263   -6.3904141    633.57413   0.03345871   0.03395061            9 
 1579000   0.98123892   -6.4165699    631.76966  0.033342287  0.033942725            6 
 1580000    1.0076018   -6.3873184     633.1859  0.033395881  0.033934766            5 
 1581000   0.98012819   -6.4114455    633.88543  0.033411629  0.033926752            7 
 1582000   0.98609725   -6.3825732    633.38934  0.033364377  0.033918813           12 
 1583000   0.99383524   -6.4055477     632.4734  0.033295083  0.033910802            4 
 1584000   0.98477644   -6.3997708     632.2846  0.033264131  0.033902675            4 
 1585000    1.0149708   -6.3997321    635.25678   0.03339941   0.03389465            4 
 1586000   0.97357206   -6.3937824    634.63885  0.033345883  0.033886678            3 
 1587000    0.9957358   -6.4035453    633.62356  0.033271559  0.033878797            8 
 1588000    1.0107443   -6.3757749    635.42274  0.033345022  0.033870823            7 
 1589000   0.99855472   -6.3960556    636.00578  0.033354614  0.033863013            4 
 1590000   0.98737897   -6.3371826    638.25645  0.033451596  0.033855333            3 
 1591000   0.99359428   -6.4120519    636.85072  0.033356941  0.033847432            4 
 1592000    0.9909856   -6.3811302    636.71285  0.033328771  0.033839555            7 
 1593000    0.9918594   -6.4098955    638.16947  0.033384049  0.033831805            6 
 1594000   0.99240739   -6.3872986    636.65557  0.033283959  0.033823834           10 
 1595000    0.9891513   -6.3668177    638.78076  0.033374126   0.03381611           10 
 1596000    1.0009857   -6.3679326    638.55308  0.033341326  0.033808393            6 
 1597000   0.98625795   -6.4112638    636.78089  0.033227974  0.033800535            5 
 1598000    1.0037551   -6.3669922    638.41354   0.03329232  0.033792678            5 
 1599000    1.0007793   -6.4070576    637.05853  0.033200883  0.033784698            5 
 1600000     1.019588   -6.3989901    638.28821  0.033244178  0.033776637            3 
 1601000   0.98057803   -6.4158259    638.50091  0.033234484  0.033768663           15 
 1602000   0.99157514   -6.4049128    638.73968  0.033226159  0.033760716            8 
 1603000    1.0212831    -6.396726    638.11169  0.033172785  0.033752848            7 
 1604000   0.99198449   -6.4053697    640.42693  0.033272388  0.033745069            7 
 1605000    1.0227051   -6.3744611    639.87142  0.033222815  0.033737158           17 
 1606000    1.0125046   -6.4000269    641.10159   0.03326596  0.033729306            7 
 1607000    1.0101561   -6.3874292    640.74056  0.033226538  0.033721458            6 
 1608000   0.99711748   -6.4235134    640.90129  0.033214204  0.033713635            5 
 1609000    1.0040195   -6.3857819    639.07056  0.033098744  0.033705684           12 
 1610000   0.96275418   -6.4038788    640.46477   0.03315035  0.033697838            3 
 1611000   0.99636593   -6.4252851    639.87789  0.033099415  0.033689847            4 
 1612000    1.0063221   -6.4095764    641.25382  0.033150011  0.033681832            4 
 1613000   0.99509742    -6.399021    642.21479  0.033179107  0.033673735            4 
 1614000   0.98455192   -6.3714284      641.363   0.03311457  0.033665738            8 
 1615000    1.0151759   -6.4300885    640.76317  0.033063115  0.033657672           17 
 1616000   0.96958393   -6.3620099    640.85764  0.033047527  0.033649599            8 
 1617000    1.0105376   -6.4134917    642.31921  0.033102412  0.033641508            6 
 1618000    1.0018498   -6.4206886    640.16001  0.032970746  0.033633426            7 
 1619000   0.98925441   -6.4081122    641.20697  0.033004271  0.033625435            9 
 1620000   0.99505265   -6.3949205    642.23152  0.033036601  0.033617393            6 
 1621000    1.0030762   -6.3826963    643.79661   0.03309668  0.033609339            9 
 1622000   0.99304334   -6.3756666    643.58801  0.033065557  0.033601257            5 
 1623000    0.9765564   -6.3525031    643.36106  0.033033531  0.033593111            2 
 1624000   0.99413961   -6.4196343    644.10428  0.033051328  0.033584979            5 
 1625000    1.0031844   -6.4048939    642.81391  0.032964816  0.033576714            8 
 1626000    1.0035566   -6.4055299    644.71151  0.033041796  0.033568534            6 
 1627000   0.99710345   -6.4040127     643.2227  0.032945231  0.033560325            7 
 1628000   0.98683308   -6.4249318    643.88269  0.032958778  0.033552175            7 
 1629000   0.96838892   -6.4162504    643.55443  0.032921753   0.03354402            5 
 1630000    0.9962102    -6.411216    643.97241  0.032922925  0.033535761            6 
 1631000   0.97968787   -6.3750622    645.56424  0.032984071   0.03352753            4 
 1632000    0.9996779   -6.3823326    644.52675  0.032910884  0.033519311            8 
 1633000   0.97737771     -6.41335    645.46178  0.032938445  0.033511222            2 
 1634000   0.97773346   -6.3934794    645.06724  0.032898166   0.03350303            3 
 1635000     1.008391   -6.4007994    646.47938   0.03295002  0.033494894           10 
 1636000    0.9809026   -6.3810774    646.36918  0.032924265  0.033486813            6 
 1637000   0.98622659   -6.4053609    645.91544  0.032881055  0.033478613            5 
 1638000   0.97501655   -6.4099552     647.3174  0.032932305   0.03347046            4 
 1639000   0.99508826   -6.4144731    648.64816  0.032979874  0.033462471           12 
 1640000    1.0168935   -6.3958562    648.81521  0.032968253  0.033454439            6 
 1641000   0.98884843   -6.3755606    647.62236  0.032887587  0.033446371            3 
 1642000   0.98841316   -6.3968582    646.32286  0.032801607  0.033438257           14 
 1643000    1.0066417   -6.4104119    648.54654  0.032894428  0.033430199            4 
 1644000   0.98608914   -6.4179654    649.18268  0.032906665  0.033422197            4 
 1645000   0.99758152   -6.4385079    650.09641  0.032932949  0.033414025            3 
 1646000   0.98420724   -6.4000786    652.19952  0.033019417  0.033406057           10 
 1647000    1.0207874   -6.4061975    649.58338     0.032867  0.033398125            4 
 1648000   0.98385798   -6.4322045    648.87232    0.0328111  0.033390171            9 
 1649000   0.98684404   -6.4359998    652.42408  0.032970693  0.033382216            5 
 1650000    1.0037751   -6.4302705     648.9842   0.03277698  0.033374197            4 
 1651000   0.98956532   -6.4219687    651.17239  0.032867575  0.033366161            5 
 1652000   0.98550682   -6.4568563    649.63969  0.032770364  0.033358129            5 
 1653000   0.99379014   -6.4067831    650.94967  0.032816579  0.033350119            9 
 1654000    0.9934664    -6.415623    651.37107   0.03281797  0.033342202            6 
 1655000   0.98175779   -6.3661542    652.20259   0.03284001  0.033334358            8 
 1656000    1.0132918   -6.4205703    651.95254  0.032807596  0.033326372           11 
 1657000   0.99360032   -6.3786692    654.68764  0.032925349  0.033318517            6 
 1658000   0.99000316   -6.4056933    653.63324  0.032852495  0.033310831            5 
 1659000   0.97829287   -6.4228823    654.69225  0.032885887  0.033303138            7 
 1660000   0.98805511   -6.3937029    654.27216  0.032844988   0.03329538            5 
 1661000   0.99896995   -6.4079883    653.57485  0.032790229  0.033287674           11 
 1662000   0.99643952   -6.4205163    653.94125  0.032788871  0.033279985            8 
 1663000   0.99565183   -6.3811154    654.96817  0.032820614  0.033272208            6 
 1664000   0.96975726   -6.3934801    655.55128  0.032830092  0.033264396            2 
 1665000    1.0060069   -6.4113768    655.21855  0.032793721   0.03325661            7 
 1666000   0.99158422   -6.3929252    656.24464  0.032825362  0.033248855            5 
 1667000   0.98523964    -6.392331    655.54052  0.032770472  0.033241052            7 
 1668000   0.96889846   -6.4106497    655.12521  0.032730076  0.033233133            4 
 1669000   0.98889608   -6.4018057    653.89227  0.032648905  0.033225107            4 
 1670000    1.0023838   -6.4627956    652.64568   0.03256715  0.033217031            5 
 1671000   0.98780249   -6.4169239    653.52296   0.03259141  0.033208872            5 
 1672000   0.97903338   -6.3975901    656.56288  0.032723429  0.033200769            7 
 1673000    0.9899234   -6.4033381    655.07026  0.032629521  0.033192601            7 
 1674000     1.004071   -6.4043791    656.26884  0.032669695  0.033184449            8 
 1675000   0.98650741   -6.4344023    655.33153  0.032603559  0.033176267            5 
 1676000   0.99166582   -6.4506216    655.02778  0.032569002  0.033168082            6 
 1677000   0.96843061   -6.4310679    655.52883   0.03257448  0.033159953            4 
 1678000   0.98146739   -6.3989577    657.82069  0.032668886  0.033151932            4 
 1679000   0.97294067    -6.394483    656.83465  0.032600489  0.033143846            5 
 1680000    0.9619763   -6.4235261    656.09721  0.032544504  0.033135686            8 
 1681000   0.98569387    -6.424214    655.99159  0.032519908  0.033127467            9 
 1682000   0.99286824   -6.3984523    655.01667  0.032452273  0.033119219            6 
 1683000   0.99360217    -6.438765    657.07353  0.032534835  0.033110924            6 
 1684000   0.97750806   -6.4136426    655.85729  0.032455329  0.033102625           12 
 1685000   0.96557147   -6.4074381    658.82472  0.032582825  0.033094312            5 
 1686000   0.99547152   -6.4135565    656.90051  0.032468392  0.033085845            7 
 1687000   0.98110657   -6.4150818    657.92392    0.0324997  0.033077497            6 
 1688000   0.97670925   -6.4332996    658.58095  0.032512883  0.033069188            3 
 1689000    0.9810052   -6.4455465    657.89166  0.032459624  0.033060934           10 
 1690000   0.99198151   -6.4470572    658.30786   0.03246094  0.033052687            5 
 1691000   0.97818877   -6.4157906    659.19188  0.032485309  0.033044504            3 
 1692000   0.96789134   -6.4234869    658.60817  0.032437361  0.033036289            7 
 1693000   0.98139079   -6.4481861    658.50816  0.032413278  0.033027994            3 
 1694000   0.98015253   -6.4243112    659.74774  0.032455123  0.033019834            5 
 1695000   0.98366426   -6.4334534    661.23304  0.032508999  0.033011593            6 
 1696000   0.97733669   -6.4399537    659.87125  0.032422919   0.03300339            3 
 1697000   0.97545393    -6.423078    658.83895  0.032353121  0.032995058            5 
 1698000   0.96239941   -6.4108363    662.60209  0.032518752  0.032986899            7 
 1699000   0.99501271     -6.40363    661.66324  0.032453563  0.032978803           15 
 1700000   0.99874439   -6.3973821    660.34801  0.032370001  0.032970704            5 
 1701000   0.99591712    -6.446845     661.4145  0.032403219  0.032962481            5 
 1702000   0.98396328   -6.4375422    663.03053  0.032463304   0.03295438            6 
 1703000   0.99579586   -6.3947294    663.16673  0.032450907   0.03294623            3 
 1704000   0.98696918   -6.4392008    661.15984  0.032333717  0.032938091            5 
 1705000   0.97801846    -6.442792    660.89581  0.032301848  0.032929694            8 
 1706000   0.98522588   -6.4321351    661.92642  0.032333256  0.032921364            5 
 1707000   0.97172277   -6.3914831    662.04047  0.032319883  0.032913154            8 
 1708000   0.98199819   -6.4676027    662.19127  0.032308317  0.032904989           11 
 1709000   0.99341325   -6.4522248    663.45804  0.032351182  0.032896692            5 
 1710000   0.97720021   -6.4359668    662.44858  0.032283069  0.032888372            3 
 1711000   0.99048503   -6.4212666    663.28774  0.032305072  0.032880082            9 
 1712000   0.96158681   -6.4344848    663.93531  0.032317724  0.032871796            6 
 1713000   0.99664052   -6.4403441    664.22125  0.032312768  0.032863558            4 
 1714000   0.97314877   -6.4401884    665.70676   0.03236614  0.032855292            8 
 1715000   0.99127169   -6.4194272    664.41592  0.032284544  0.032847086            6 
 1716000   0.98963095   -6.4217959    663.84045  0.032237784  0.032838792            5 
 1717000   0.96444792   -6.4017424    665.02398   0.03227645  0.032830476            5 
 1718000   0.98686791   -6.4307198    664.22917   0.03221911  0.032822241            6 
 1719000   0.97649976   -6.4293963     666.1115  0.032291618  0.032813952            6 
 1720000   0.97183989   -6.4407591    664.26874  0.032183563  0.032805656           19 
 1721000   0.98975622   -6.4238817    664.47276  0.032174741    0.0327973            8 
 1722000   0.97132007   -6.4394253    665.43596  0.032202669  0.032788956            8 
 1723000   0.96605363   -6.4504003    666.15685  0.032218845  0.032780576            4 
 1724000   0.98688737   -6.3941251    668.22134  0.032299949  0.032772373            6 
 1725000   0.96880527   -6.4063549    666.55082  0.032200523  0.032764228            7 
 1726000   0.95930297   -6.4151125    668.17861  0.032260458  0.032756038            8 
 1727000   0.98309032   -6.4469849     666.8674  0.032178508  0.032747823           11 
 1728000   0.99054636   -6.4661437    667.29452  0.032180484   0.03273954            5 
 1729000   0.97758141   -6.4474048    667.75304  0.032183972   0.03273126            7 
 1730000   0.96151514   -6.4394355    667.24257  0.032140779  0.032723055           11 
 1731000    0.9768174   -6.4211125    669.78148  0.032244439  0.032714987            6 
 1732000   0.97749613   -6.4421273    668.01622  0.032140888  0.032706837            7 
 1733000   0.96567642   -6.4557804    669.09541  0.032174236  0.032698659           11 
 1734000   0.96027983   -6.4238811    671.26025   0.03225972  0.032690629           11 
 1735000   0.97877913   -6.4419361    670.70564  0.032214488  0.032682746           10 
 1736000   0.97469178    -6.428127    671.24095  0.032221628  0.032674764            7 
 1737000   0.96801541   -6.4365306    670.32677  0.032159219  0.032666703            8 
 1738000   0.97359845   -6.4342283    670.69623  0.032158431  0.032658609            5 
 1739000   0.95555663    -6.472436    673.28359  0.032263925  0.032650626            8 
 1740000   0.94485738   -6.4464868    671.57693  0.032163646  0.032642621            6 
 1741000   0.96354464   -6.4415477    673.41155  0.032232986  0.032634718            6 
 1742000   0.99322836    -6.455507    671.35803  0.032116247  0.032626769            6 
 1743000   0.95726846   -6.4314436    673.01238  0.032176916  0.032618772            6 
 1744000    0.9678833   -6.4364285    671.75449  0.032098361  0.032610793            5 
 1745000    0.9765952   -6.4537571    673.69446   0.03217261  0.032602881            5 
 1746000   0.95573955   -6.4453225    670.83082  0.032017508  0.032594854           14 
 1747000   0.95461964   -6.4504937    672.82397  0.032094255  0.032586802           11 
 1748000   0.96031453   -6.4670576    672.52772  0.032061772  0.032578764            5 
 1749000   0.97404449   -6.4445519    672.32802  0.032033925  0.032570706            5 
 1750000     1.012487   -6.4435972    674.26323  0.032107773  0.032562678            5 
 1751000   0.95956397   -6.4721554    672.98969  0.032028826  0.032554574            4 
 1752000    0.9879302    -6.455755    671.79403  0.031953673  0.032546559            3 
 1753000   0.95996559   -6.4417485    674.40972  0.032059789  0.032538587            6 
 1754000   0.98328631   -6.4535928    675.13323  0.032075885  0.032530601            7 
 1755000   0.95422586   -6.4187469    674.85328  0.032044315  0.032522579            6 
 1756000   0.98229813   -6.4484674    675.05809  0.032035786  0.032514597            5 
 1757000   0.97067314   -6.4627226    674.38361  0.031985563  0.032506638            4 
 1758000   0.95570244   -6.4558197    674.68528  0.031981669  0.032498699            5 
 1759000   0.96475373   -6.4222493    678.04988  0.032122886  0.032490747            3 
 1760000   0.98563354   -6.4603659    676.44443  0.032028619  0.032482737           10 
 1761000   0.99932809   -6.4672522    675.86128  0.031982835  0.032474708            9 
 1762000   0.96569322   -6.4414675    676.36672  0.031988589  0.032466731            7 
 1763000   0.95474299   -6.4349535    676.18075  0.031961654  0.032458689            3 
 1764000   0.97157906   -6.4565072      675.641  0.031918037  0.032450573            4 
 1765000   0.97416501   -6.4598496    675.35389  0.031886397    0.0324426            5 
 1766000   0.95301313   -6.4685495    675.89956   0.03189409  0.032434532            7 
 1767000    0.9672447   -6.4270678    678.62234  0.032004449  0.032426504            5 
 1768000   0.97870243   -6.4348258    678.02337  0.031958115  0.032418607           20 
 1769000   0.98358788   -6.4549364      678.271  0.031951715  0.032410547            8 
 1770000    1.0046777   -6.4734637    678.88641  0.031962637  0.032402477           10 
 1771000    0.9733244   -6.4460985    677.79426  0.031893199  0.032394438            5 
 1772000   0.97422878   -6.4522782    680.10208  0.031983732  0.032386397            4 
 1773000   0.93604502   -6.4166886    678.60505   0.03189533  0.032378371           22 
 1774000    0.9705623   -6.4539513    678.49742  0.031872295  0.032370294            3 
 1775000   0.95552485   -6.4511747    677.10507  0.031788971  0.032362191            3 
 1776000   0.95943726   -6.4549284    678.22138  0.031823451  0.032354028            5 
 1777000     0.968221   -6.4264107    680.73466  0.031923404  0.032345835            3 
 1778000   0.97967917   -6.4226025    681.43283  0.031938172  0.032337856            8 
 1779000   0.95025258   -6.4640992    680.26673  0.031865595  0.032329795            5 
 1780000   0.96602436   -6.4613061    680.01754  0.031836027  0.032321752            6 
 1781000   0.93524058   -6.4511819    680.20262  0.031826812  0.032313645            8 
 1782000   0.95173064   -6.4632527    679.75234  0.031787894  0.032305548            4 
 1783000   0.98669067   -6.4483309    681.09966  0.031833037  0.032297398            4 
 1784000   0.96003515   -6.4454693    680.97442  0.031809343  0.032289372            4 
 1785000   0.94182714   -6.4611384     681.1268  0.031798637  0.032281299            3 
 1786000   0.98287521   -6.4724045    678.93096  0.031678376  0.032273265            9 
 1787000    0.9551851   -6.4848904    681.00806  0.031757511  0.032265141            6 
 1788000   0.95965637   -6.4531918    680.42686  0.031712661  0.032257002            6 
 1789000   0.95701446   -6.4527871     681.9401  0.031765423  0.032248977            8 
 1790000   0.97687525   -6.4229552     682.2641  0.031762761  0.032240953            3 
 1791000   0.96624303   -6.4225761    682.72359  0.031766406   0.03223294            3 
 1792000   0.95101732   -6.4350562    683.80635   0.03179903  0.032224912           12 
 1793000   0.96958551   -6.4157849    683.42658  0.031763645  0.032216947            4 
 1794000   0.94200499   -6.4483273    682.71374  0.031712827  0.032208946           10 
 1795000   0.96348555   -6.4502899    679.75509  0.031557804  0.032200988            8 
 1796000   0.96597466   -6.4305156    684.37962  0.031754808  0.032192936            5 
 1797000   0.97505922   -6.4552058    684.41846  0.031738938  0.032184876            4 
 1798000   0.96014746   -6.4597792    683.95291  0.031699708  0.032176878            6 
 1799000    0.9704209   -6.4628572    684.40442  0.031703003   0.03216874           28 
 1800000   0.95882165   -6.4804963    681.63603  0.031557224   0.03216062            8 
 1801000   0.97342012   -6.4318408    684.86656   0.03168918  0.032152493            2 
 1802000   0.96675754    -6.462899    683.85561  0.031624843  0.032144369            6 
 1803000   0.95170162   -6.4439713    683.95042  0.031611685  0.032136288            4 
 1804000   0.97126529   -6.4547292    686.63372  0.031718113  0.032128219            8 
 1805000   0.94910063   -6.4604692    684.84172  0.031617808  0.032120059            6 
 1806000    0.9809483   -6.4597262    683.76797  0.031550755  0.032111883            5 
 1807000   0.97239857   -6.4809696    684.77881  0.031579912  0.032103763            7 
 1808000   0.95177512   -6.4782358    684.84181  0.031565349  0.032095617            9 
 1809000    0.9641918   -6.4874684    685.17773  0.031563374  0.032087308            5 
 1810000   0.96260073   -6.4204942    688.33214  0.031691167  0.032079132           10 
 1811000   0.93509621   -6.4622912    686.38983  0.031584292  0.032071053            6 
 1812000   0.94146952   -6.4607128    686.84549  0.031587817  0.032062869            4 
 1813000   0.95944947   -6.4226747    686.03426  0.031533106  0.032054746            5 
 1814000   0.97681088   -6.4419603    686.23621     0.031525  0.032046721            8 
 1815000   0.98246988   -6.4602757    686.58433  0.031523615   0.03203858            7 
 1816000   0.95105976    -6.456892    685.59463   0.03146084   0.03203047            7 
 1817000   0.98630743   -6.4496904    688.21155  0.031563546  0.032022344            6 
 1818000   0.95993322   -6.4494886    688.83775  0.031574888   0.03201434            6 
 1819000   0.93935089   -6.4637484    688.63786  0.031548372  0.032006196            3 
 1820000   0.91718282   -6.4674896    689.07373  0.031550995  0.031998075            4 
 1821000   0.96600122   -6.4615663    686.97764  0.031437746   0.03198991            5 
 1822000   0.95056834   -6.4638073    687.87318  0.031461452  0.031981798            5 
 1823000   0.95913113   -6.4597591    687.86518  0.031443828  0.031973638           13 
 1824000   0.97944234   -6.4320442    688.22223  0.031442901  0.031965531           17 
 1825000   0.96341746   -6.4534876    688.52825  0.031439646  0.031957312            4 
 1826000   0.94202222   -6.4401083    689.24176  0.031454991  0.031949235            8 
 1827000    0.9713214   -6.4632486    688.48451  0.031403234  0.031941073           12 
 1828000   0.95217296   -6.4627704      691.433  0.031520469  0.031933007            5 
 1829000   0.95019746   -6.4680168     689.6359  0.031421355  0.031924897           14 
 1830000    0.9598225   -6.4946519    687.97812  0.031328694  0.031916648           10 
 1831000   0.95300607   -6.4770739    688.98388  0.031357359  0.031908366           10 
 1832000   0.96325898   -6.4471189    689.77051  0.031376024   0.03190026            6 
 1833000   0.96307832   -6.5110848    688.86207  0.031317607  0.031892071            5 
 1834000   0.98427081   -6.4618933    689.84279  0.031345092   0.03188378            9 
 1835000   0.94868226   -6.4895097    691.88528  0.031420767  0.031875556            5 
 1836000    0.9571142   -6.4862296    689.44269  0.031292787   0.03186726            5 
 1837000     0.955961   -6.4430279    690.87915  0.031340916   0.03185906            6 
 1838000   0.95369589   -6.4761335    691.76922  0.031364219  0.031850772           21 
 1839000   0.96844082   -6.4456387    693.03379  0.031404467  0.031842619            5 
 1840000    0.9560877   -6.4779423    688.74918   0.03119335  0.031834376           15 
 1841000   0.96449013   -6.4660177    691.25847  0.031289991  0.031826208            9 
 1842000     0.955938   -6.4969089     692.3597  0.031322824  0.031817996            8 
 1843000   0.96612037   -6.4699849    692.67805  0.031320223  0.031809802           10 
 1844000   0.95575911   -6.4606521    691.89841  0.031268005  0.031801689            6 
 1845000     0.955739   -6.4627194    693.96406  0.031344357   0.03179361            6 
 1846000   0.96053281   -6.4478129    692.88109  0.031278489  0.031785458            4 
 1847000   0.96565226   -6.4682214    692.19144  0.031230439  0.031777215            6 
 1848000   0.96037372   -6.4735424    694.17002  0.031302761  0.031768977           10 
 1849000   0.94987022   -6.4527944    693.79006  0.031268707  0.031760845            7 
 1850000   0.93463072   -6.4463959    695.02171  0.031307284  0.031752695           12 
 1851000   0.95740251   -6.4931324    693.59139  0.031225977  0.031744473            7 
 1852000   0.94966663   -6.4334158    694.88806  0.031267461  0.031736293            7 
 1853000   0.96358854   -6.4931442    694.20502  0.031219869  0.031728064            8 
 1854000   0.94934994    -6.479543    694.86037  0.031232487   0.03171988            5 
 1855000   0.95445867   -6.4980437    692.81036  0.031123556  0.031711647            5 
 1856000   0.96115467   -6.4726676    693.43267  0.031134728  0.031703438            5 
 1857000   0.95966845   -6.4678214    695.11214  0.031193329  0.031695228            6 
 1858000   0.95807037   -6.5006235    695.63976  0.031200204  0.031687034           13 
 1859000   0.97693572    -6.485841     694.8829  0.031149493  0.031678795            8 
 1860000   0.95941412   -6.4643957    694.39679  0.031110967   0.03167052            3 
 1861000   0.92851113   -6.5171896    694.14903  0.031083156  0.031662288            7 
 1862000   0.95630644   -6.4994957    694.23755  0.031070424  0.031654057            5 
 1863000   0.93857358   -6.4646525    696.72534  0.031165027  0.031645735           14 
 1864000   0.95521568   -6.4875514    694.80266  0.031062351  0.031637436            8 
 1865000   0.93941476   -6.4959178    695.64715  0.031083429  0.031629157            7 
 1866000   0.94717138   -6.4602017     698.7353  0.031204685  0.031620958           11 
 1867000   0.95957733   -6.4757981    695.93241  0.031062864  0.031612696           12 
 1868000   0.95279692   -6.4844383    696.14419  0.031055683  0.031604446            4 
 1869000   0.96945133   -6.4619717    698.28183  0.031134378  0.031596129            8 
 1870000    0.9346898   -6.4942827    696.63209  0.031044211  0.031587808            7 
 1871000   0.94440746   -6.4780448    695.72609  0.030987266  0.031579465            9 
 1872000   0.94370149    -6.471235    697.21894  0.031037168  0.031571084            5 
 1873000   0.94644823    -6.484875    697.46746  0.031031654  0.031562705            7 
 1874000   0.93535891   -6.4744934    695.97163  0.030948579  0.031554377           13 
 1875000   0.94122188   -6.4694365     697.3393  0.030992858  0.031546043            5 
 1876000   0.92743537   -6.4749809    697.98011  0.031004802  0.031537868            3 
 1877000   0.93927302   -6.5147634    698.42218  0.031007911  0.031529532            6 
 1878000   0.95923643    -6.496421    697.43139  0.030947435  0.031521272            6 
 1879000    0.9667661   -6.4898803    697.70764  0.030943216  0.031512931            7 
 1880000    0.9413007   -6.5181965    698.77527  0.030974081  0.031504618            7 
 1881000   0.95958093   -6.5200325    699.29067  0.030980448  0.031496218            4 
 1882000   0.96036107   -6.4826597    699.73171  0.030983515  0.031487903            4 
 1883000   0.94622065   -6.4743813    698.94945  0.030932442  0.031479531            4 
 1884000   0.94676093   -6.4629829    701.91663  0.031047268  0.031471288            5 
 1885000   0.95834785    -6.467004    701.92445  0.031031143  0.031463097            5 
 1886000   0.95707531   -6.4700889    700.93696  0.030971057  0.031454855            8 
 1887000   0.93953035   -6.4989049    699.46003   0.03088942  0.031446556            8 
 1888000    0.9451851   -6.4570819     699.6312  0.030880614  0.031438344            7 
 1889000   0.96533762   -6.4528063    701.23869  0.030935181  0.031430206            3 
 1890000   0.93271037   -6.4789195    703.98832  0.031040049  0.031421989            9 
 1891000     0.952209   -6.5007575    701.22069   0.03090167  0.031413745            8 
 1892000    0.9344022    -6.462594    700.76384  0.030865215   0.03140546            9 
 1893000   0.95075234    -6.490665    702.16506  0.030910594  0.031397129            4 
 1894000   0.95371727   -6.4335683    702.81128  0.030922707  0.031388965            7 
 1895000   0.94801216   -6.4666942    701.52971  0.030850031  0.031380797            2 
 1896000   0.93551436   -6.4908779    703.69871  0.030929092  0.031372624            5 
 1897000   0.95605023   -6.4718808    703.36197  0.030897996  0.031364427            8 
 1898000    0.9556125   -6.4705703    702.80242  0.030857149  0.031356278            6 
 1899000   0.93896646   -6.5135419    701.29486  0.030774744  0.031348119            7 
 1900000   0.94772057   -6.4848059    703.84935  0.030870585  0.031339927            6 
 1901000   0.95293153   -6.4901577    704.30166  0.030874174  0.031331693            7 
 1902000   0.95354511   -6.4915448    704.48888  0.030866144  0.031323538           10 
 1903000   0.92894802    -6.482883    703.86903  0.030822781  0.031315344            9 
 1904000    0.9385716   -6.4776389    705.27573   0.03086816  0.031307166           10 
 1905000   0.97079917   -6.5290775    704.73462  0.030828286  0.031298927            3 
 1906000   0.93629874   -6.5045169    702.60206  0.030718873  0.031290714           11 
 1907000   0.95395642   -6.4694073    703.40287  0.030737759  0.031282359           15 
 1908000    0.9710513   -6.5096223    705.69268  0.030821658  0.031274198            7 
 1909000      0.94104   -6.4978415    705.13347  0.030781101  0.031265982            5 
 1910000   0.93856537   -6.4993849     704.4077   0.03073332   0.03125762           10 
 1911000   0.93633588   -6.5107964    704.66301  0.030728371  0.031249375            8 
 1912000   0.94731362   -6.4916183    704.08282  0.030687013  0.031241166            9 
 1913000   0.94081387   -6.4575017    706.66616  0.030783506  0.031233047            8 
 1914000   0.95233296   -6.4773192    707.41562  0.030800053  0.031224914            6 
 1915000   0.95208279   -6.4721118    706.73574  0.030754384  0.031216783            6 
 1916000   0.93817379    -6.464752    707.16142  0.030756847  0.031208601            6 
 1917000   0.94134115   -6.4973895    707.58108  0.030759045  0.031200447            5 
 1918000   0.92322947    -6.488796     705.4535  0.030650569  0.031192229            8 
 1919000   0.95037443   -6.4819546    708.48852  0.030766394  0.031184055            8 
 1920000   0.93781415   -6.4611219     706.7631  0.030675482  0.031175889            4 
 1921000   0.95825992   -6.5093363    705.03217  0.030584425  0.031167735            5 
 1922000   0.95005609   -6.4869635    708.07164  0.030700297  0.031159437            8 
 1923000   0.94262125   -6.4989714    705.99358  0.030594279    0.0311512            4 
 1924000   0.95122676   -6.5161772    706.19462  0.030587085  0.031143035            6 
 1925000   0.94434001   -6.5106407     707.8916  0.030644658  0.031134878            7 
 1926000   0.93875923    -6.495772    707.79044   0.03062437  0.031126665            5 
 1927000   0.93074956   -6.4828466    707.81155  0.030609391  0.031118501            8 
 1928000   0.95719402   -6.4984931    708.73662  0.030633498  0.031110345            6 
 1929000   0.91696064   -6.4882981    708.05613  0.030588221  0.031102163            9 
 1930000   0.96825771   -6.4668578    709.49707  0.030634588  0.031094089           12 
 1931000   0.93224698   -6.5112443     709.7818  0.030631011  0.031085998            8 
 1932000   0.92001335    -6.493651    709.72883  0.030612872  0.031077941            6 
 1933000   0.94494802   -6.4773736    712.48158  0.030715709  0.031069965            6 
 1934000    0.9392729   -6.4936216    709.14394  0.030556013  0.031062038            5 
 1935000   0.94597896   -6.5038826    710.24291   0.03058755  0.031053971            7 
 1936000    0.9439054   -6.4769923    711.67516    0.0306334  0.031046008           14 
 1937000   0.94688449   -6.4868416    711.53371    0.0306115  0.031038094            9 
 1938000   0.92620457   -6.4990477    711.43119  0.030591297  0.031030214            6 
 1939000   0.93646352   -6.5048363    711.99524  0.030599761  0.031022245            9 
 1940000   0.93914592   -6.4964751    713.44184  0.030646127  0.031014301            4 
 1941000    0.9200028   -6.5052463    709.82765   0.03047517  0.031006362            5 
 1942000   0.93361244   -6.5345742    712.05435  0.030555027  0.030998364            9 
 1943000   0.94340108    -6.499137    713.46157  0.030599655  0.030990415           15 
 1944000   0.90798595   -6.5106985    713.79139  0.030598053  0.030982436            4 
 1945000   0.94953275   -6.5058271    713.38511  0.030564915  0.030974516           12 
 1946000   0.95773692   -6.4873126    713.33507  0.030547065   0.03096659            8 
 1947000   0.93185581   -6.5123097    713.84927  0.030553384  0.030958718            4 
 1948000   0.94252685   -6.5067142    715.49677  0.030608178   0.03095074            5 
 1949000   0.93277707   -6.4953554    716.03175  0.030615348   0.03094285            7 
 1950000   0.91978817   -6.5107674    714.45871  0.030532423  0.030935022            9 
 1951000    0.9403984   -6.5121018     714.3744  0.030513173  0.030927209            7 
 1952000    0.9457535   -6.5047591    715.56623  0.030548422  0.030919393            4 
 1953000    0.9432536   -6.5142194    715.79736  0.030542642   0.03091157            6 
 1954000   0.96107639   -6.5564007    715.50423   0.03051451  0.030903688            6 
 1955000    0.9597053   -6.5060998    715.90625  0.030516038  0.030895847            3 
 1956000   0.94235513   -6.4997045    716.40187  0.030521552  0.030888037            5 
 1957000   0.91596474    -6.490942    716.79068  0.030522512  0.030880176            7 
 1958000   0.91633139   -6.4878423    717.82449  0.030550923  0.030872352            6 
 1959000   0.93961916    -6.497748    717.89788   0.03053845  0.030864509           11 
 1960000   0.93315589   -6.4914792    717.29385  0.030497188  0.030856654            6 
 1961000   0.93814006   -6.5254239    717.96549  0.030510177  0.030848895            6 
 1962000   0.93630095    -6.502978    718.10709  0.030500641  0.030841191            7 
 1963000    0.9389859   -6.5177816    717.92459  0.030477356   0.03083346            5 
 1964000   0.92588195   -6.4749031    719.36297  0.030522869  0.030825705            5 
 1965000   0.91871345   -6.5009555    720.52168  0.030556475  0.030817936            5 
 1966000   0.94621624   -6.4672208    716.61622  0.030375391  0.030810133            9 
 1967000    0.9311254   -6.5102015    717.18207  0.030383921  0.030802281            5 
 1968000    0.9421003   -6.5146472     719.1745   0.03045285  0.030794437            4 
 1969000   0.93484796   -6.5164674    721.42051  0.030532441  0.030786591            5 
 1970000   0.94316353   -6.4911023    718.96302  0.030412987  0.030778751            7 
 1971000   0.91529585   -6.4906385    718.95008   0.03039701  0.030770811            5 
 1972000   0.93247926   -6.4949594     717.4715  0.030319113  0.030762846            7 
 1973000   0.94829031   -6.4912004    718.50541  0.030347416  0.030754927           10 
 1974000   0.92989862   -6.4882974    720.41857  0.030412807  0.030747056            7 
 1975000   0.92416086   -6.5165226    719.00435  0.030337736  0.030739193            7 
 1976000   0.93292827   -6.5165223    718.15464  0.030286549  0.030731171            4 
 1977000   0.93829968   -6.4920908    721.23179  0.030400935   0.03072323            5 
 1978000    0.9176706   -6.4863547    720.85085  0.030369517  0.030715371            5 
 1979000   0.93231396   -6.4938327    720.08118  0.030321761  0.030707427            8 
 1980000   0.92932479   -6.5157664    718.64901  0.030246171  0.030699498            3 
 1981000   0.94240323   -6.5182626     719.0019  0.030245747  0.030691526            4 
 1982000   0.93273788   -6.5211825    720.74729  0.030303872  0.030683542            7 
 1983000   0.94261896    -6.509053     719.8399  0.030250458  0.030675534            4 
 1984000   0.93448291   -6.4781118    723.25857  0.030378804  0.030667592           12 
 1985000   0.92203882    -6.501988    720.43909  0.030245134  0.030659656            5 
 1986000   0.93270231   -6.5034712    720.98192  0.030252682  0.030651751            4 
 1987000   0.95883811   -6.4981807     721.3766  0.030254009  0.030643855            5 
 1988000   0.95249555   -6.5098542    720.08342  0.030184583  0.030635959            8 
 1989000   0.92826052   -6.5223977    722.31279  0.030262812  0.030628039           11 
 1990000    0.9170224   -6.5285952    720.47426  0.030170614  0.030620074            9 
 1991000   0.93352351   -6.5123089    723.38912  0.030277462  0.030612082            4 
 1992000   0.93773142   -6.5102294    721.48145  0.030182457  0.030604202            4 
 1993000   0.92679945   -6.5075852    724.17344  0.030279873  0.030596349            8 
 1994000   0.92379607   -6.4803774    723.84655  0.030251026  0.030588508            5 
 1995000   0.92551325   -6.5192674    724.02458  0.030243299    0.0305808            6 
 1996000   0.95028192   -6.5203091    720.76372  0.030092006  0.030572839            8 
 1997000   0.93394017   -6.5475434    723.56765  0.030193943  0.030564895            3 
 1998000   0.91553781   -6.5600866    723.38012  0.030171009   0.03055694            8 
 1999000   0.95427499   -6.4908836    726.24614  0.030275394  0.030549182           18 
 2000000    0.9237042   -6.5062371    723.69072   0.03015378  0.030541399            5 
 2001000   0.91369282   -6.5118382    725.45959  0.030212377  0.030533596            5 
 2002000   0.94744298   -6.5105775    727.15201  0.030267733  0.030525884            5 
 2003000   0.90757427   -6.4813152    726.15067  0.030210961  0.030518115            4 
 2004000   0.92294133    -6.533612    725.59391  0.030172734  0.030510366            5 
 2005000   0.94373084   -6.4999508    727.49994  0.030236905  0.030502614           12 
 2006000   0.93147511   -6.5051653    725.28692  0.030129899  0.030494913            7 
 2007000   0.91785996   -6.5159803     727.2622  0.030196902  0.030487187           14 
 2008000   0.91873079   -6.5466857    725.62327  0.030113847  0.030479425            6 
 2009000   0.92927699   -6.5083976    726.35819  0.030129342  0.030471684            8 
 2010000   0.94474516   -6.5027411    727.82987  0.030175368  0.030463978           10 
 2011000   0.94538853   -6.5154886    725.07627  0.030046257  0.030456185            6 
 2012000    0.9348135   -6.5097337    727.94831  0.030150278  0.030448372            3 
 2013000   0.93360942   -6.5206729    727.10539  0.030100405  0.030440583            5 
 2014000   0.92736976   -6.5070581    726.32962  0.030053361  0.030432833            6 
 2015000   0.92505557   -6.4970795    729.29999   0.03016129  0.030425113            7 
 2016000   0.94108717   -6.5121048    728.07438  0.030095667  0.030417405           12 
 2017000   0.94762372   -6.4972728    727.73913  0.030066895  0.030409651            7 
 2018000   0.94070966   -6.5481422    728.98813  0.030103573  0.030401876            9 
 2019000   0.95061042   -6.5234423    728.72296  0.030077718  0.030394152           10 
 2020000    0.9255359   -6.4936631    727.86185  0.030027304  0.030386409            9 
 2021000   0.93283271   -6.5014923    729.07315  0.030062393  0.030378735            5 
 2022000   0.92939036   -6.5107901    729.18671  0.030052205  0.030370947            5 
 2023000   0.93770466   -6.5379427    730.73113  0.030100969  0.030363242            7 
 2024000   0.93391323   -6.4988764    732.35322  0.030152883  0.030355606            3 
 2025000   0.92369004   -6.5193611    730.61495  0.030066459  0.030347903           10 
 2026000   0.92037243   -6.5021805    731.65805  0.030094523  0.030340308            4 
 2027000   0.92871769   -6.5472188    731.95662  0.030091951  0.030332738            7 
 2028000   0.92393119   -6.5347365    729.78359   0.02998782   0.03032513            9 
 2029000   0.93034195   -6.5247649     731.0042  0.030023172  0.030317429            9 
 2030000   0.93584473   -6.5176399     730.5144  0.029988276  0.030309696            6 
 2031000   0.92190721   -6.5059479    732.01925  0.030035255  0.030301939           13 
 2032000    0.9466944   -6.4985289    730.28957  0.029949539  0.030294242           12 
 2033000   0.91244134   -6.4974725    731.62912  0.029989716  0.030286475            7 
 2034000   0.92730212   -6.5200305    730.44751  0.029926561  0.030278655            3 
 2035000   0.92048364   -6.5422695    730.39721  0.029909796  0.030270834            4 
 2036000   0.92822593    -6.569723     731.1316  0.029925164  0.030262992            5 
 2037000   0.91233513     -6.53295    730.12094  0.029869127  0.030255227            5 
 2038000    0.9230821   -6.4957174    733.39784  0.029988463   0.03024752            5 
 2039000   0.91521378   -6.5370023    731.57932  0.029899433  0.030239847            8 
 2040000   0.93929685   -6.5621533    733.05776   0.02994517  0.030232128            8 
 2041000   0.92412628   -6.5118303    734.06804  0.029971748  0.030224445            3 
 2042000   0.93403847   -6.5367437    731.98331  0.029871993  0.030216861            7 
 2043000    0.9241038   -6.5347695    732.95039  0.029896818  0.030209202            8 
 2044000     0.923059   -6.5457532    734.30808  0.029937544   0.03020158            7 
 2045000   0.93463533   -6.5208162     736.4242  0.030009136  0.030193998            6 
 2046000   0.90913237   -6.5113672    735.22071  0.029945451  0.030186468           13 
 2047000   0.93866243   -6.5344007    734.90684  0.029918044  0.030178871            4 
 2048000   0.90360282   -6.5591778    733.48138  0.029845434  0.030171229           12 
 2049000   0.93151402   -6.5237227    734.09077  0.029855652  0.030163568            6 
 2050000   0.91411261   -6.5398786    733.83188  0.029830564   0.03015596           10 
 2051000   0.92935634    -6.509269    736.13573  0.029909627  0.030148374            5 
 2052000   0.93173927   -6.5350141    734.61041  0.029833106  0.030140735           10 
 2053000   0.91982573   -6.5474285     738.6496   0.02998253   0.03013313            6 
 2054000   0.90862596   -6.5253592    736.89885  0.029896902  0.030125496           11 
 2055000   0.91638063   -6.5239131    738.43643  0.029944705  0.030117874           12 
 2056000   0.92296026   -6.5006858    736.71934  0.029860544  0.030110278            4 
 2057000   0.91984339   -6.5372391    738.31403  0.029910631  0.030102687            8 
 2058000   0.90654765   -6.5276461    737.69814  0.029871159  0.030095155            6 
 2059000   0.92275484   -6.5165036    737.13509  0.029833863  0.030087562           11 
 2060000   0.93760277   -6.5381931      735.329  0.029746319  0.030079955           20 
 2061000   0.92769799   -6.4963181    738.62108  0.029864996  0.030072411            9 
 2062000   0.90202745   -6.5392758    736.54885  0.029766766   0.03006483           13 
 2063000   0.92745278    -6.512468    737.99859  0.029810898  0.030057217            7 
 2064000   0.92173759    -6.542985    737.78249   0.02978773  0.030049561           12 
 2065000   0.92419887   -6.5364291    736.75108  0.029731682  0.030041923            9 
 2066000   0.93107607   -6.5415265    737.29269  0.029739137  0.030034242           10 
 2067000   0.91257472   -6.5405766    740.37227  0.029848906  0.030026584            6 
 2068000   0.93362886   -6.5385119    739.42323  0.029796229  0.030019019            8 
 2069000   0.92896907     -6.52751    738.88355  0.029760092  0.030011494            8 
 2070000   0.90895996   -6.5352265    739.01638  0.029751062  0.030003991           11 
 2071000   0.93010924   -6.5460634    741.18544  0.029823976  0.029996476            8 
 2072000   0.91743091    -6.569999    737.69506  0.029669203  0.029988919           13 
 2073000   0.92366267   -6.5391948    739.87915   0.02974269  0.029981341           10 
 2074000    0.8996015    -6.527904    740.65385  0.029759476  0.029973808            8 
 2075000   0.92570848   -6.5553313    740.00056  0.029718898  0.029966297            8 
 2076000   0.91990373   -6.5279577    740.11648  0.029709236  0.029958769           11 
 2077000   0.92307998   -6.5411251    740.31618  0.029702944  0.029951301            6 
 2078000   0.92726501   -6.5125637     742.5989  0.029780193  0.029943778            9 
 2079000   0.92271513     -6.55911    741.73011  0.029731045  0.029936269            6 
 2080000   0.89319057    -6.542425    741.84826  0.029721485  0.029928726            7 
 2081000   0.90916857   -6.5175145    741.96964  0.029712063  0.029921242            6 
 2082000   0.92153668   -6.5412426    741.49874  0.029678944   0.02991376            6 
 2083000   0.93615388   -6.5270918    740.66623   0.02963139  0.029906304            5 
 2084000   0.90872605   -6.5510329     742.2556  0.029680726  0.029898741            7 
 2085000   0.92695715   -6.5310803    742.76153  0.029686712  0.029891205            6 
 2086000   0.91273492   -6.5486377    741.74371   0.02963182  0.029883632           14 
 2087000   0.92654469   -6.5721134       741.97  0.029626657  0.029876074           15 
 2088000    0.9181246   -6.5330908    743.77173  0.029684376  0.029868573            5 
 2089000   0.90515034    -6.539723    741.15632  0.029565834  0.029861015           17 
 2090000   0.91661359   -6.5252056    742.24152  0.029594957  0.029853437           23 
 2091000   0.90399196    -6.531638    742.58088  0.029594328  0.029845899            7 
 2092000   0.92513833   -6.5099014    745.52454   0.02969744  0.029838375            5 
 2093000   0.90179329   -6.5901216    741.32388  0.029516001  0.029830766            7 
 2094000    0.8936985   -6.5412296    744.42351  0.029625259  0.029823187            4 
 2095000   0.92118769     -6.54033    746.23922  0.029683342  0.029815613            3 
 2096000   0.91991315   -6.5686064    743.19156   0.02954801  0.029807999            4 
 2097000   0.90053793   -6.5450894    744.65872  0.029592224  0.029800366           10 
 2098000   0.90239492   -6.5503176    743.07233  0.029515107  0.029792749           17 
 2099000   0.90281718   -6.5592236    742.13129  0.029463685  0.029785105           17 
 2100000   0.90975311   -6.5579702    744.52587  0.029544677  0.029777491            5 
 2101000   0.92101665    -6.535709     744.5224  0.029530477  0.029769933           18 
 2102000    0.9202659   -6.5566594    743.10601  0.029460276  0.029762365           14 
 2103000   0.89573074   -6.5521375    743.11813  0.029446748  0.029754798            3 
 2104000   0.91980315   -6.5608009    744.48514  0.029486895  0.029747188           11 
 2105000   0.91419043   -6.5282758    746.02964  0.029534032  0.029739682           11 
 2106000   0.89257952   -6.5750968    746.44818  0.029536569  0.029732228            6 
 2107000   0.90944505   -6.5882887    744.24393  0.029435371  0.029724692            5 
 2108000   0.90161813   -6.5516131     746.3806  0.029505875  0.029717169           17 
 2109000   0.92847182   -6.5724814     745.3343  0.029450541  0.029709759            9 
 2110000   0.91311615   -6.5734136    746.38966  0.029478265  0.029702327            7 
 2111000   0.89714949   -6.5738925    747.56494  0.029510696  0.029694889           15 
 2112000   0.92246083   -6.5391452    749.22159  0.029562089  0.029687387           12 
 2113000   0.92518031   -6.5692435    748.78308  0.029530805  0.029679997            7 
 2114000   0.91073046    -6.552074    747.99718  0.029485856  0.029672616           10 
 2115000   0.91509597   -6.5451848    748.15616  0.029478178  0.029665187            4 
 2116000   0.92674844   -6.5952096    746.39242  0.029394786  0.029657793           11 
 2117000   0.91036896   -6.5924732    746.02603  0.029366479   0.02965026            7 
 2118000   0.90773393   -6.5452209    748.10024  0.029434224  0.029642842           11 
 2119000     0.903291    -6.554384    748.27023  0.029427019  0.029635433            4 
 2120000   0.91723135   -6.5562139    748.17942  0.029409568  0.029627978            7 
 2121000   0.92086043   -6.5536244    748.96145  0.029426428  0.029620512            5 
 2122000   0.94971481   -6.5836382    750.22729  0.029462272  0.029613028            6 
 2123000   0.91493925   -6.5409852    748.70377  0.029388592  0.029605609           12 
 2124000   0.92383295   -6.5696783    747.93704  0.029344674  0.029598239           14 
 2125000    0.9138529   -6.5572512    749.51151  0.029392608  0.029590868            5 
 2126000   0.91024859   -6.5638298    749.05437  0.029360864  0.029583441            6 
 2127000   0.90704241   -6.5610273    749.80406  0.029376432  0.029575978            5 
 2128000   0.90807196   -6.6084751    750.45692  0.029388194  0.029568549            7 
 2129000   0.91190293   -6.5393983    751.68925  0.029422626  0.029561147            5 
 2130000   0.90510226   -6.5405463    752.67931  0.029447547  0.029553769            7 
 2131000   0.92704802   -6.5388382    750.44165  0.029346225  0.029546447           20 
 2132000   0.91018661   -6.5435601    752.02356  0.029394292  0.029539159           10 
 2133000   0.90723092   -6.5862791    751.58521  0.029363385  0.029531769            7 
 2134000   0.90882202    -6.531171    753.69234  0.029431909  0.029524356            4 
 2135000   0.90701836   -6.5315009    753.91477  0.029426806  0.029516978           13 
 2136000   0.89275049   -6.5500648    751.15555  0.029305382  0.029509701            7 
 2137000   0.91592665   -6.5560839    750.91148  0.029282151  0.029502337            7 
 2138000   0.92906256    -6.571904    752.40656  0.029326729     0.029495            4 
 2139000   0.91636918   -6.5447169    751.64476  0.029283339  0.029487659            8 
 2140000   0.89528372    -6.548561    752.70016  0.029310754   0.02948026            8 
 2141000   0.91376522   -6.5522321     752.9931  0.029308466  0.029472852            4 
 2142000    0.9107312   -6.5559457    754.03008  0.029335126  0.029465517           10 
 2143000    0.9097214    -6.557647    752.57883  0.029265004  0.029458111            4 
 2144000   0.89065175   -6.5644092     751.6766  0.029216286  0.029450671            7 
 2145000   0.88831422    -6.553701    752.48912  0.029234231  0.029443216            6 
 2146000   0.89212083   -6.5648962    751.81418  0.029194399  0.029435707           10 
 2147000   0.94176831   -6.5561822    754.23997  0.029274956  0.029428298           11 
 2148000   0.92666693   -6.5600884    753.26306  0.029223427  0.029420776           25 
 2149000   0.90088298   -6.5813141    752.63774   0.02918558  0.029413259            8 
 2150000   0.88809839   -6.5832856    753.01673  0.029186695  0.029405648            7 
 2151000     0.913302   -6.5470669    751.67197  0.029121028  0.029398083            3 
 2152000   0.90338739   -6.5784166    751.75751  0.029110808  0.029390496            9 
 2153000   0.89530875   -6.5335577    753.53309  0.029166012  0.029382897            7 
 2154000   0.89783468   -6.5932981    753.64881  0.029156949  0.029375292            5 
 2155000   0.90056952   -6.5591865    752.76403  0.029109204  0.029367715            9 
 2156000   0.89728433    -6.564028    752.98192  0.029104125   0.02936014           14 
 2157000   0.91875481   -6.5384368    755.79012  0.029199124  0.029352685           16 
 2158000   0.91158411   -6.5456738    752.54913  0.029060439  0.029345241            5 
 2159000   0.90951868   -6.5672606    754.93719  0.029139154  0.029337735           11 
 2160000   0.91277447   -6.5592149    754.53857  0.029110284  0.029330265            3 
 2161000    0.9110938   -6.5922938    753.76425  0.029066954  0.029322804            8 
 2162000   0.90317156   -6.5490076    757.44734  0.029195472  0.029315411           20 
 2163000   0.90145145   -6.5572138    757.57175  0.029186768  0.029308088            7 
 2164000   0.91831255   -6.5411924    755.01512  0.029074827  0.029300737           11 
 2165000   0.89611029   -6.5707886     754.2682  0.029032648  0.029293375           11 
 2166000   0.90813582   -6.5287023    756.78458  0.029116058  0.029286028            5 
 2167000   0.89972177   -6.5754398    756.04817  0.029074303  0.029278687           10 
 2168000   0.89228981   -6.5718557    755.72681   0.02904854  0.029271341            9 
 2169000   0.90038448   -6.5607809    758.43023  0.029139013  0.029263937           14 
 2170000   0.91985744   -6.5754311    758.37599  0.029123502  0.029256602            7 
 2171000   0.92028794   -6.5925229    759.14077  0.029139443  0.029249266           10 
 2172000   0.89717201   -6.5880492    755.83868  0.028999335  0.029241902           10 
 2173000   0.88394622   -6.5756091    756.93157  0.029027902  0.029234511           10 
 2174000   0.89756221   -6.5490174    759.44422  0.029110864  0.029227232           10 
 2175000   0.90264744   -6.5521263    761.22843   0.02916584  0.029220028            7 
 2176000   0.91277569    -6.555946    759.70882  0.029094241  0.029212848           18 
 2177000   0.91406657   -6.5698961    759.23012  0.029062552  0.029205631            8 
 2178000   0.91008825   -6.5657813    760.02681  0.029079691  0.029198331            4 
 2179000   0.89909318   -6.5986022    759.65733  0.029052216  0.029190999            7 
 2180000   0.91577968   -6.5590512    760.61514  0.029075502  0.029183596           10 
 2181000   0.91741802   -6.5518257    760.29264  0.029049849  0.029176281           10 
 2182000   0.91289007   -6.5694204     757.7545  0.028939601  0.029168911            6 
 2183000   0.91551153   -6.5673244    759.63719  0.028998213  0.029161423           11 
 2184000   0.90645804   -6.6236361    758.45037  0.028939651  0.029154018            8 
 2185000    0.9022127   -6.5619031    758.94517  0.028945277  0.029146719            4 
 2186000   0.93258291   -6.5578576    758.84009   0.02892803  0.029139369            7 
 2187000   0.89688632   -6.5923374    759.16181  0.028927062  0.029131996           11 
 2188000   0.89088081   -6.5790086    759.28226  0.028918429   0.02912457           10 
 2189000   0.90698388   -6.5732975    760.87552  0.028965872  0.029117117           13 
 2190000   0.88433741   -6.5981798    758.70914  0.028870211  0.029109634           14 
 2191000   0.90448675   -6.5912036    759.45918  0.028885561  0.029102174            4 
 2192000   0.92584846   -6.5932908    760.03367  0.028894224  0.029094659           12 
 2193000   0.90861156   -6.5695158    760.31802  0.028891853  0.029087222            4 
 2194000   0.87492228   -6.5710315    761.74286  0.028932804  0.029079784           11 
 2195000    0.9048651   -6.5514827    760.27784  0.028864003  0.029072403            9 
 2196000   0.90166939    -6.596768    760.55366  0.028861326  0.029064948           16 
 2197000    0.9168693   -6.5771937    760.67478  0.028852783  0.029057494            9 
 2198000   0.89296695   -6.5698536     762.0621  0.028892254  0.029050118            7 
 2199000   0.88140558   -6.5644632    761.88545  0.028872421   0.02904281            4 
 2200000   0.89709845   -6.6011358    762.63441  0.028887667  0.029035465            8 
 2201000   0.90552554   -6.5408471    763.77166    0.0289176  0.029028135            6 
 2202000   0.90801294     -6.56857    763.39282  0.028890131   0.02902083            7 
 2203000   0.91133888   -6.6172043    761.82726  0.028817796  0.029013499           13 
 2204000   0.89044781   -6.5642032    760.84069  0.028767419  0.029006156            8 
 2205000   0.89839388   -6.6032259    762.16342  0.028804362  0.028998781           11 
 2206000   0.91563544   -6.5940875    763.49486  0.028841601  0.028991409           10 
 2207000   0.89870818   -6.5631772    764.05465   0.02884967  0.028984037           13 
 2208000   0.91011997   -6.5799327    764.20456  0.028842262  0.028976686            4 
 2209000   0.90514698   -6.5812176    764.37213  0.028835526  0.028969408           12 
 2210000   0.89845895   -6.5936868    764.04259  0.028810052  0.028962067            6 
 2211000   0.88808256   -6.5443919     764.4177   0.02881116  0.028954724            9 
 2212000    0.8722333   -6.5858842    763.43031  0.028760937  0.028947347            8 
 2213000    0.8819516   -6.6004956      762.773  0.028723189   0.02893995            7 
 2214000   0.88816202   -6.5876564    765.40018  0.028809101  0.028932597            4 
 2215000   0.89608193   -6.5672929    766.01617  0.028819269  0.028925241            9 
 2216000   0.87779435   -6.5956686    765.06412  0.028770462  0.028917831           12 
 2217000   0.91075077   -6.5823299    765.25294  0.028764582  0.028910444           11 
 2218000   0.90755482   -6.5991801    764.97998  0.028741358  0.028903074           25 
 2219000   0.90303366   -6.5908537    765.73783  0.028756866  0.028895637            5 
 2220000   0.90137799   -6.5652308    765.44573  0.028732948   0.02888834            7 
 2221000   0.89456776   -6.5674723    765.06686  0.028705795  0.028881015           13 
 2222000   0.88354744   -6.6049441    766.13569  0.028732962  0.028873662           14 
 2223000   0.89342697   -6.6075198    767.56806  0.028773731  0.028866369           11 
 2224000   0.91266188   -6.5993717    766.49257  0.028720495  0.028859081            5 
 2225000   0.89624876   -6.6170091    766.50722  0.028708136  0.028851693            6 
 2226000   0.86482758   -6.6137688    766.97805  0.028712865  0.028844271           12 
 2227000   0.90424477   -6.5998803    765.34516   0.02863887   0.02883683           23 
 2228000   0.89627991   -6.5954899    766.32141   0.02866253  0.028829485           41 
 2229000   0.90316997   -6.5607235    767.34837  0.028688065  0.028822073           23 
 2230000   0.89368552   -6.5783543    767.52549  0.028681819  0.028814765           26 
 2231000   0.86888779   -6.5592062    768.09345  0.028690178  0.028807479           11 
 2232000   0.88038699    -6.586407    767.78533   0.02866582    0.0288002            8 
 2233000   0.89285982   -6.5783279    768.00741  0.028661271   0.02879292           12 
 2234000   0.87522107   -6.6004982    765.97674  0.028572693  0.028785668           18 
 2235000   0.88495577   -6.5800391     767.3048  0.028609426  0.028778332           14 
 2236000   0.89753501     -6.59035    765.62642   0.02853408  0.028770916            5 
 2237000   0.89300485   -6.5923981    770.10688  0.028688231  0.028763571           18 
 2238000   0.89083613   -6.5880071    769.58148  0.028655849  0.028756256            5 
 2239000   0.88753804   -6.5822277    769.17457  0.028627906  0.028749028           11 
 2240000    0.8884681   -6.5885485    767.31156  0.028545817   0.02874182            7 
 2241000   0.89138081    -6.578158    768.76436  0.028587102  0.028734613            7 
 2242000   0.88759898   -6.5658008    770.53619  0.028640209  0.028727371            5 
 2243000   0.88908517   -6.5903491    769.40626  0.028585461  0.028720183            6 
 2244000   0.86637081   -6.5971657    770.67532   0.02861985   0.02871305            7 
 2245000   0.87088925   -6.6397416    770.01664  0.028582652  0.028705817            6 
 2246000   0.88545461   -6.6248953    770.20737  0.028577002  0.028698567            8 
 2247000   0.90180541   -6.5938941    771.21066  0.028601493  0.028691312           11 
 2248000   0.89458403   -6.5882702    772.69795  0.028643904  0.028684127           12 
 2249000   0.90444949   -6.5814607    772.30619  0.028616651  0.028676951            9 
 2250000   0.89736801   -6.5952708    772.13109  0.028597448  0.028669754           13 
 2251000   0.91501418   -6.5964612    770.52368  0.028525236  0.028662575            5 
 2252000   0.88294518   -6.5854953    771.08113  0.028533198  0.028655374           14 
 2253000   0.88490482   -6.6002298    772.89218  0.028587519  0.028648183           17 
 2254000   0.88241068   -6.6148469    772.50213  0.028560416  0.028640962            8 
 2255000   0.89569915   -6.6133429    770.37001  0.028468958  0.028633736           10 
 2256000   0.89509674   -6.5894034    771.56049  0.028500314  0.028626496            6 
 2257000   0.86593135   -6.6012301    773.79763  0.028570286  0.028619332            5 
 2258000   0.87371281   -6.5739369    772.37334  0.028505069  0.028612156            5 
 2259000   0.88751074   -6.5998597    773.46479  0.028532713  0.028604974            7 
 2260000   0.89908517   -6.5767284    774.33545  0.028552192  0.028597782            7 
 2261000   0.89393482   -6.5930943    770.57351  0.028400911  0.028590539           10 
 2262000   0.89128048   -6.5807669    772.15826  0.028446738  0.028583243            4 
 2263000   0.90316346   -6.5940076    774.17753  0.028508526  0.028575979           28 
 2264000   0.90338998   -6.6018643    773.23681  0.028461308  0.028568779           13 
 2265000   0.88094525   -6.5874057    773.19121  0.028447064   0.02856161            7 
 2266000   0.89610911   -6.5647106    776.24828  0.028546936  0.028554431            4 
 2267000   0.88551305   -6.5825663    775.05776  0.028490581  0.028547283            5 
 2268000   0.90360263   -6.6143064    774.27689  0.028449327  0.028540118           15 
 2269000    0.8898688   -6.6028728     773.3954  0.028404414  0.028532909           17 
 2270000   0.90020557    -6.581111    772.07068   0.02834327  0.028525702            8 
 2271000    0.8744731   -6.6003824    774.40508   0.02841645  0.028518496            5 
 2272000   0.88621313   -6.5753405     775.6598  0.028449963   0.02851124            7 
 2273000   0.89309343   -6.5749095    773.80984  0.028369623  0.028503987           19 
 2274000   0.88681739   -6.5856216    774.97896  0.028399991  0.028496648            7 
 2275000   0.87962282   -6.6013818    774.54856  0.028371742  0.028489351           18 
 2276000   0.91030028   -6.5848129    773.58383  0.028323954  0.028482122           12 
 2277000    0.8868138   -6.5945304    776.65808  0.028424026  0.028474857           28 
 2278000   0.89542528   -6.5635948    775.92151  0.028384603  0.028467596            9 
 2279000   0.88114278   -6.5852621    775.87606  0.028370486   0.02846038            4 
 2280000   0.88833734   -6.5979988    777.84954  0.028430173  0.028453159            7 
 2281000   0.86676761   -6.6077793    776.66792   0.02837454  0.028445976           13 
 2282000   0.89032687   -6.6041271    777.69434  0.028399589  0.028438743           15 
 2283000    0.8864026   -6.5727734    777.55147  0.028381934  0.028431582           11 
 2284000   0.88006147   -6.6099965    776.51363  0.028331641  0.028424316            5 
 2285000   0.88876644   -6.5828197    778.52127  0.028392461  0.028417068            5 
 2286000   0.88528277   -6.5858964    775.95065  0.028286332  0.028409776           11 
 2287000   0.86631375   -6.6401665    775.74112  0.028266329  0.028402514           15 
 2288000   0.87512671   -6.5695119    777.90356  0.028332735  0.028395316            6 
 2289000   0.89340699   -6.6034134    777.77777  0.028315777   0.02838811            9 
 2290000    0.9011926   -6.6259599     774.9471  0.028200404  0.028380841           13 
 2291000    0.8849911    -6.614395    775.76637  0.028217895   0.02837354           11 
 2292000   0.88508134   -6.6208837    777.24384  0.028259302  0.028366224            4 
 2293000   0.88030895   -6.6277413    776.29408  0.028212461   0.02835891            9 
 2294000   0.88302373   -6.6133335    776.47813  0.028206849  0.028351597            7 
 2295000   0.89813258   -6.6337488    775.78678  0.028169455  0.028344272            8 
 2296000   0.89907871    -6.637627    775.27934  0.028138768  0.028336937           11 
 2297000   0.88538418   -6.5905776    779.29432  0.028272178  0.028329701           17 
 2298000   0.88677371   -6.5993541    775.67257  0.028128538  0.028322508           12 
 2299000   0.88476006   -6.6016355    778.59487   0.02822223  0.028315258            8 
 2300000    0.8620756   -6.6034584    777.60129   0.02817396  0.028308065           13 
 2301000   0.89297788   -6.6073469    779.99302  0.028248335  0.028300734           16 
 2302000   0.87143875   -6.6236263    779.16685  0.028206156  0.028293471           14 
 2303000   0.88785185   -6.6464251    776.94746    0.0281136  0.028286184           14 
 2304000   0.88498729    -6.600335    778.79104  0.028168079  0.028278897           10 
 2305000    0.8605152   -6.6562693    777.50652  0.028109419  0.028271577           13 
 2306000   0.87204911   -6.6126475    777.55141  0.028098851   0.02826423           14 
 2307000   0.86767293   -6.6461305    778.96489  0.028137729  0.028256906           22 
 2308000   0.87796935   -6.5947053    778.88655  0.028122709  0.028249571           10 
 2309000   0.88704846    -6.593314    778.67946  0.028103055  0.028242278           20 
 2310000   0.87684315    -6.606728    778.69292  0.028091375   0.02823492            8 
 2311000   0.88061586   -6.6287391    779.98749  0.028125901  0.028227583           19 
 2312000   0.87390331   -6.6043318    778.98427  0.028077576   0.02822019            9 
 2313000   0.87904263   -6.6029274    779.97752  0.028101222  0.028212861           23 
 2314000   0.87097854   -6.6216087    778.72546  0.028043988  0.028205594            8 
 2315000   0.89578178   -6.5996282    780.28565  0.028088036  0.028198374           13 
 2316000   0.88359704   -6.6222808    779.06969  0.028032157  0.028191161            8 
 2317000   0.88513334   -6.6284836    781.45484  0.028105842  0.028183901           19 
 2318000   0.89244581   -6.6146233    781.42872  0.028092778  0.028176688           10 
 2319000   0.89440858   -6.6244721     780.7524  0.028056361  0.028169518           13 
 2320000   0.88174412   -6.6122881    780.33247  0.028029184   0.02816231            9 
 2321000   0.89415415   -6.6045852    780.91217  0.028037921  0.028155064            6 
 2322000   0.89734858   -6.6278749    781.95468   0.02806326  0.028147797           23 
 2323000   0.86868873   -6.6076331    783.00835  0.028088978  0.028140549            6 
 2324000   0.88199864   -6.6205326    781.74677  0.028031654  0.028133277            8 
 2325000   0.86987071    -6.616908    781.62329  0.028015172   0.02812595            7 
 2326000   0.88652137   -6.5943579    779.32509   0.02792079  0.028118664            6 
 2327000   0.88500061   -6.6368181    779.16695  0.027903128  0.028111362           19 
 2328000   0.87330057   -6.6212606    781.05543  0.027958742  0.028104012           18 
 2329000   0.87749725   -6.6178611    778.84431  0.027867622  0.028096653            9 
 2330000   0.88088223   -6.6263088     779.7848  0.027889299  0.028089241            6 
 2331000   0.87094436   -6.6171948    780.28323  0.027895153  0.028081867            9 
 2332000   0.88858935   -6.6257355    780.35878  0.027885891  0.028074471           13 
 2333000   0.89061503   -6.6223125    781.08653  0.027899933  0.028067062            5 
 2334000   0.86996192   -6.6077412    781.74963  0.027911655  0.028059621            6 
 2335000   0.88390983   -6.6378186    782.77321  0.027936231  0.028052182           23 
 2336000   0.88193984   -6.6193987    781.74814  0.027887705  0.028044711           13 
 2337000   0.87163464   -6.6068553     781.5307  0.027868018  0.028037262           18 
 2338000   0.86519039   -6.6339086    780.70558  0.027826689  0.028029772           12 
 2339000   0.88508972   -6.6300477    782.01201  0.027861337  0.028022297            9 
 2340000   0.86856971   -6.6184799    781.06462  0.027815692  0.028014792           10 
 2341000   0.87955749     -6.60022    783.99577  0.027908151  0.028007341           13 
 2342000   0.87675656   -6.6249046    782.38321  0.027838856  0.027999941            4 
 2343000   0.86805796   -6.6238858    780.84485  0.027772259  0.027992528           13 
 2344000   0.88372359   -6.6205969    782.95719  0.027835509  0.027985119            7 
 2345000   0.86984106   -6.6490209    781.10674   0.02775788  0.027977697           14 
 2346000   0.88800258   -6.6227776    783.46708  0.027829891  0.027970255            9 
 2347000   0.88215257   -6.6449092    782.86351  0.027796603  0.027962791           12 
 2348000   0.86941624   -6.6344598     782.8534  0.027784405  0.027955372            6 
 2349000   0.87988094   -6.6449367    782.09908  0.027745817  0.027947994           14 
 2350000   0.86776153   -6.6009386    782.88459  0.027761865  0.027940624            6 
 2351000   0.87391395   -6.6066613    785.41936  0.027839904   0.02793333            7 
 2352000   0.88439241   -6.6165011    786.47746  0.027865556  0.027926073            9 
 2353000   0.85519166   -6.6004679     784.0285  0.027766982  0.027918807           12 
 2354000   0.86049808   -6.5928656    784.80042  0.027782513   0.02791152            5 
 2355000   0.89814323   -6.6335312     785.9463  0.027811263  0.027904121           14 
 2356000   0.89416064   -6.6132521    785.55016  0.027785447  0.027896822            4 
 2357000   0.85460147   -6.6059211    785.23639  0.027762565  0.027889479            8 
 2358000   0.88267295   -6.6191065    785.42963  0.027757621  0.027882143            9 
 2359000   0.84768423   -6.6169498    783.06055  0.027662164  0.027874724            8 
 2360000   0.88018854   -6.6422448    785.59283   0.02773986  0.027867376           15 
 2361000   0.90123859   -6.6396368    784.98376  0.027706613  0.027859988            6 
 2362000   0.89269947   -6.6398439     784.2385   0.02766859  0.027852572           12 
 2363000    0.8774809   -6.6360787    785.84692  0.027713603  0.027845184           18 
 2364000   0.88486485   -6.6194646    786.50676   0.02772514  0.027837849           11 
 2365000   0.87481643   -6.6342379    785.65814  0.027683515  0.027830557           11 
 2366000   0.86559121   -6.6106915    784.45017  0.027629268  0.027823223            8 
 2367000    0.8787323   -6.6370059    786.65862  0.027695346  0.027815927           13 
 2368000   0.87880573   -6.6346149    785.97853  0.027659718  0.027808575            6 
 2369000   0.87031083    -6.613647    786.45445  0.027664783  0.027801228            9 
 2370000   0.87817905   -6.5728169    785.46912  0.027618464  0.027793969           10 
 2371000   0.86685052   -6.6444145     786.2527  0.027634356  0.027786715            5 
 2372000   0.88376905   -6.6368044    785.88517  0.027609794  0.027779419           13 
 2373000   0.88643711   -6.6263836     789.5239  0.027725941  0.027772144            7 
 2374000   0.86120836    -6.628114    788.27824  0.027670536  0.027764858            7 
 2375000   0.88216492    -6.615749    788.32872  0.027660657  0.027757565            5 
 2376000   0.88363071   -6.6401525    788.81111  0.027665934  0.027750248           10 
 2377000    0.8752819   -6.6279364    787.12383  0.027595142  0.027742929           10 
 2378000   0.84809892   -6.6456425    788.15889   0.02761981  0.027735592           16 
 2379000   0.87500632   -6.6137994    788.79557  0.027630502  0.027728306           15 
 2380000   0.88557091   -6.6626157    787.89307  0.027587292  0.027720996            9 
 2381000   0.89096941   -6.6520069      786.769  0.027536364   0.02771367            6 
 2382000   0.86309511    -6.619264    790.00525  0.027638023  0.027706323           11 
 2383000   0.87257577   -6.6438803    787.85096   0.02755109   0.02769905           10 
 2384000   0.86701462   -6.6331612    789.50729   0.02759743  0.027691806           29 
 2385000   0.89405676   -6.6311748    789.63279  0.027590244  0.027684566           19 
 2386000   0.86908156   -6.6597026    789.55306  0.027575896  0.027677258            9 
 2387000   0.86089909   -6.6507186    789.96999  0.027578899  0.027669955            6 
 2388000   0.88533387   -6.6452379    788.21427  0.027506082  0.027662661            7 
 2389000   0.87411492   -6.6215766     787.5217   0.02747041   0.02765534           13 
 2390000   0.85558063   -6.6437589    789.51445  0.027528398   0.02764803            5 
 2391000   0.86612632   -6.6413205    789.50389  0.027516516  0.027640717           11 
 2392000   0.87579447   -6.6602795    788.57137  0.027472526  0.027633398            8 
 2393000   0.87792197   -6.6474215    789.72228  0.027501124  0.027626096            7 
 2394000   0.85106515   -6.6306389    788.65631  0.027452531  0.027618789            9 
 2395000   0.86545027   -6.6355728    789.73484  0.027478596  0.027611456            9 
 2396000    0.8585133   -6.6328603    790.72642  0.027501615  0.027604243            7 
 2397000   0.87349812   -6.5993371    792.09803  0.027537826  0.027596966            9 
 2398000    0.8692098   -6.5960084    791.18734  0.027494695  0.027589781            8 
 2399000    0.8842129    -6.642911    791.92697  0.027508926  0.027582575           11 
 2400000   0.86752553    -6.614367     791.1207  0.027469469   0.02757535            9 
 2401000   0.85283711   -6.6451707    793.25342   0.02753205  0.027568144           17 
 2402000   0.85691266   -6.6232032    790.29248  0.027417863  0.027560926           12 
 2403000   0.85348308   -6.6557153     792.1926  0.027472347  0.027553675           20 
 2404000   0.88315221   -6.6565193    791.01332   0.02742004  0.027546386            9 
 2405000   0.84799619   -6.6339764    792.05389  0.027444695  0.027539194            7 
 2406000   0.85271288   -6.6016046    793.81149  0.027494164  0.027532054            5 
 2407000   0.87039876    -6.646032    793.57122  0.027474423  0.027524896           17 
 2408000   0.86996006   -6.6480484    791.96279   0.02740735  0.027517696            6 
 2409000   0.85220123   -6.6583113     792.6846  0.027420942  0.027510459            6 
 2410000    0.8481628    -6.667327    792.98961  0.027420111  0.027503217            7 
 2411000   0.85638861   -6.6424598    791.85044  0.027369364   0.02749591           10 
 2412000   0.86706249   -6.6390707    793.49279  0.027414759  0.027488664           10 
 2413000   0.84997529   -6.6332797    794.31832  0.027431908  0.027481482           14 
 2414000    0.8569745   -6.6409819     792.7549  0.027366574  0.027474257            7 
 2415000   0.86622789    -6.648218    792.97551  0.027362854  0.027466974            4 
 2416000   0.87460365   -6.6299732    793.21849  0.027359909  0.027459711            6 
 2417000   0.85785764   -6.6367297    793.85234  0.027370443  0.027452483            6 
 2418000   0.85917642   -6.6492861    794.63862  0.027386222  0.027445248            7 
 2419000   0.88488474   -6.6643785    794.27111   0.02736224  0.027437992           11 
 2420000   0.85753025   -6.6577964    793.72238  0.027332038  0.027430846            6 
 2421000   0.88315466   -6.6247982    797.32656  0.027444808  0.027423737            5 
 2422000   0.88106641   -6.6221768    795.51794  0.027371248  0.027416646            7 
 2423000   0.84877765   -6.6384249     795.3169  0.027353037  0.027409489            8 
 2424000   0.88053035   -6.6109954    796.65592  0.027387786   0.02740236            5 
 2425000   0.88633737   -6.5858113     796.6668  0.027376866  0.027395229           13 
 2426000   0.86449218   -6.6561166    795.43877  0.027323398   0.02738811            8 
 2427000   0.86171651   -6.6048212    795.13822   0.02730182  0.027380973            8 
 2428000   0.87524924   -6.6550227    794.67501  0.027274678   0.02737384            8 
 2429000   0.85817897   -6.6484905    796.76483  0.027335146  0.027366683           10 
 2430000   0.85647378   -6.6595806    796.23044  0.027305571  0.027359556            7 
 2431000   0.84234112    -6.603299    795.87609  0.027282192  0.027352411           14 
 2432000   0.86148889   -6.6547744    795.56771  0.027260407  0.027345236           21 
 2433000   0.85776374   -6.6571816    796.93878  0.027296163  0.027338019           14 
 2434000   0.85955154   -6.6363785    798.33263   0.02733267   0.02733088            9 
 2435000   0.85108581   -6.6005146    798.20646  0.027317127  0.027323753           11 
 2436000    0.8599046   -6.6453285    797.60335  0.027285282  0.027316599           10 
 2437000   0.87578245   -6.6512021     798.5299  0.027305769  0.027309486            9 
 2438000   0.85403832    -6.641274    796.92995  0.027239881   0.02730237           14 
 2439000   0.84923572   -6.6600847    797.76629  0.027257287  0.027295217           15 
 2440000   0.87041154   -6.6721017    796.76824   0.02721203  0.027288071            7 
 2441000   0.86377417   -6.6505603    797.83096  0.027237162  0.027280898           13 
 2442000   0.84427282   -6.6436245    799.00051   0.02726592  0.027273749           13 
 2443000   0.84230517   -6.6597687    797.51497  0.027204085  0.027266623           10 
 2444000   0.86040119   -6.6326893    797.88232   0.02720548  0.027259508            9 
 2445000   0.85312246   -6.6313024    797.05374  0.027166113  0.027252432            7 
 2446000   0.84418043   -6.6273445    798.89114  0.027217605   0.02724531           18 
 2447000   0.88068069   -6.6608143    799.11907  0.027214244  0.027238165            8 
 2448000   0.85820013   -6.6582621     799.0495  0.027200759  0.027231023            3 
 2449000   0.85367269    -6.667202    798.04473  0.027155462   0.02722384            7 
 2450000   0.84707518   -6.6349295    799.32122  0.027187797  0.027216691            6 
 2451000   0.87597455   -6.6722708    800.92515  0.027231237  0.027209576            9 
 2452000   0.85148257   -6.6575756    800.89045  0.027218952   0.02720247           16 
 2453000   0.87134397    -6.637452     801.2894  0.027221409  0.027195414            7 
 2454000   0.85030726   -6.6775587    801.17187  0.027206325  0.027188389           10 
 2455000   0.86359292   -6.6297525    799.51364  0.027138956  0.027181327           17 
 2456000   0.86641694   -6.6734113    801.13638  0.027182966  0.027174261           12 
 2457000    0.8743314   -6.6385918    801.86025  0.027196454  0.027167241           12 
 2458000   0.84523307   -6.6602029     800.2396  0.027130445  0.027160315           10 
 2459000   0.88345934   -6.6280389    802.41942  0.027193284  0.027153383            8 
 2460000   0.85904044   -6.6437792    802.15588  0.027173302   0.02714644            6 
 2461000   0.87545506   -6.6372783    799.91853    0.0270865  0.027139489            8 
 2462000   0.85831065   -6.6656865    801.58787  0.027132002  0.027132528           13 
 2463000   0.86588454   -6.6664576    801.88198  0.027130937  0.027125584           21 
 2464000   0.85373591   -6.6520629    804.91886  0.027222635  0.027118656           12 
 2465000   0.86380539   -6.6465042    803.59227  0.027166743   0.02711174           18 
 2466000   0.87202057   -6.6761589    802.79753   0.02712887  0.027104856           17 
 2467000   0.85265979   -6.6750248    803.03436  0.027125873  0.027097936           26 
 2468000   0.88160492   -6.6520426    803.94669  0.027145688  0.027090998            7 
 2469000   0.85847383   -6.6512512    802.90687  0.027099597   0.02708406            6 
 2470000   0.86171908    -6.667999    802.32696  0.027069061  0.027077104            6 
 2471000   0.88021278   -6.6859119    803.22476  0.027088384  0.027070126           19 
 2472000   0.86738299   -6.6496484    803.63821  0.027091364  0.027063138            9 
 2473000   0.85185022   -6.6384095    804.47479  0.027108599  0.027056128           16 
 2474000   0.84907141   -6.6842986     802.4452  0.027029278  0.027049154           13 
 2475000   0.85609467   -6.6738028    804.28241  0.027080216  0.027042134           12 
 2476000   0.84271083    -6.675736    804.01304  0.027060213  0.027035177            6 
 2477000   0.85929878    -6.663042    805.92518  0.027113618  0.027028248           15 
 2478000   0.86461674   -6.6743334     803.2182  0.027011642  0.027021287           14 
 2479000   0.87215705   -6.7124489    803.08568  0.026996291  0.027014248           21 
 2480000    0.8515856   -6.6719124    805.33608  0.027061024  0.027007272           20 
 2481000   0.84396329   -6.6551295    804.97641  0.027038036  0.027000363           11 
 2482000   0.84684242   -6.6641777    804.12159  0.026998442  0.026993456           13 
 2483000   0.87855728   -6.6901188    804.48479  0.026999758  0.026986541            5 
 2484000   0.84198422   -6.6796387    805.22444  0.027013702  0.026979573           15 
 2485000   0.85911185   -6.6615546     802.6704  0.026917183  0.026972601           13 
 2486000   0.85617664   -6.6585501     804.2909  0.026960676  0.026965628           18 
 2487000   0.83962035   -6.6909451    805.66386   0.02699584  0.026958638           20 
 2488000   0.85418585   -6.6840087    806.38568  0.027009167  0.026951708            7 
 2489000   0.85199967   -6.6372555    805.83838  0.026979991  0.026944768           11 
 2490000   0.84396715   -6.6794542    804.81409  0.026934876  0.026937782            8 
 2491000   0.84289382   -6.6340152     805.6332  0.026951465  0.026930819            8 
 2492000   0.85322485   -6.6789637    806.45468  0.026968121  0.026923921           10 
 2493000   0.85254868   -6.6543916    806.44449  0.026956962  0.026917007            6 
 2494000   0.85815146   -6.6662433    808.14074  0.027002832   0.02691015            9 
 2495000   0.86001676    -6.691832    807.47125  0.026969648  0.026903229            9 
 2496000   0.82726511   -6.6682101    806.93276  0.026940864  0.026896293            8 
 2497000   0.84598889   -6.6473455    810.30966  0.027042773  0.026889458           12 
 2498000   0.83558337   -6.6372203    807.54395  0.026939683   0.02688266            9 
 2499000   0.86334568   -6.6710584    808.22836  0.026951726  0.026875883            4 
 2500000   0.84987409   -6.6872627    809.00345  0.026966782  0.026869037           11 
 2501000   0.83738136    -6.643632    808.27204  0.026931629  0.026862204            6 
 2502000   0.86395503   -6.6529845     808.1584   0.02691708  0.026855376           18 
 2503000   0.85892576   -6.6805255    809.26995  0.026943333  0.026848581           10 
 2504000   0.83607432   -6.6446126     810.7982  0.026983433  0.026841748           17 
 2505000   0.83853677   -6.6467957    808.96859  0.026911796  0.026834944            8 
 2506000   0.85237938   -6.6803657    808.64855  0.026890415  0.026828117            9 
 2507000    0.8566665   -6.6788115    807.62113  0.026845537  0.026821246           11 
 2508000   0.83622846   -6.6811175    809.17795  0.026886561  0.026814391           10 
 2509000   0.85670082    -6.696427    807.34048  0.026814816  0.026807511           19 
 2510000   0.85762823   -6.6852566    807.77464  0.026818547  0.026800582            8 
 2511000   0.86235662   -6.6551472    808.97194  0.026847602   0.02679372           25 
 2512000   0.84605317   -6.6383478    809.86852  0.026866657  0.026786865           14 
 2513000   0.85675271   -6.6696841    809.36927  0.026839411  0.026780004           18 
 2514000   0.85311796   -6.6906769    808.59103  0.026802938   0.02677316           11 
 2515000   0.85942894   -6.6638262    809.89085   0.02683535  0.026766314            6 
 2516000   0.85746587   -6.6822876    810.11873  0.026832231   0.02675948           10 
 2517000   0.83530871   -6.6916653    809.48014  0.026800428  0.026752647           13 
 2518000    0.8552817   -6.6701967    810.68735  0.026829738  0.026745855            7 
 2519000   0.84737015   -6.6317044    810.98126   0.02682881  0.026739045           13 
 2520000   0.83869857   -6.6719295    811.21241  0.026825807  0.026732232            6 
 2521000    0.8594589   -6.6820079    811.14731  0.026813014  0.026725449            8 
 2522000   0.85181826    -6.698242    809.79627  0.026757741  0.026718635           16 
 2523000    0.8683112    -6.655798    812.38965  0.026832793  0.026711814           13 
 2524000   0.85120528    -6.671844    811.72012  0.026800057  0.026705033           14 
 2525000   0.85298015   -6.6908408    809.83706  0.026727296  0.026698234            8 
 2526000   0.85301432   -6.6858363    812.68448  0.026810652  0.026691411           10 
 2527000    0.8489304   -6.6229129    813.63934  0.026831531  0.026684593            6 
 2528000   0.84838199   -6.6766348     811.3046  0.026743954  0.026677784            5 
 2529000   0.84387445   -6.6579284    811.13787  0.026727885  0.026670931           12 
 2530000   0.84714467   -6.6790157    811.23665  0.026720575  0.026664079            9 
 2531000   0.85848795   -6.6731195    812.59534  0.026754752  0.026657243           10 
 2532000   0.84030143   -6.6909638    812.16064  0.026729879  0.026650397           10 
 2533000   0.84260603   -6.6644414    811.73534  0.026705334   0.02664357            7 
 2534000   0.84178663   -6.6719812    812.03703  0.026704717  0.026636782           18 
 2535000    0.8279877   -6.6755715    813.38951  0.026738643   0.02662999           13 
 2536000   0.85339261   -6.6842603    810.99669  0.026649471  0.026623145           12 
 2537000   0.85757216   -6.6673125    813.48885  0.026720827  0.026616359           12 
 2538000   0.85721666   -6.7000558    812.32026  0.026671929   0.02660953           12 
 2539000    0.8389412    -6.685514    811.59363  0.026637575   0.02660266            9 
 2540000   0.84714684   -6.6497015    812.98097  0.026672604  0.026595834            6 
 2541000    0.8442061   -6.7132086    812.69373  0.026652687  0.026589005           13 
 2542000   0.84786791   -6.6859693      814.584   0.02670417  0.026582199           13 
 2543000   0.85580989   -6.7074915    813.19768  0.026648239  0.026575362           14 
 2544000   0.83395907   -6.6891186    812.93448  0.026629143  0.026568532            9 
 2545000   0.83849041   -6.7046868    813.00557  0.026621007  0.026561687            6 
 2546000   0.85860899   -6.6812899    812.96848  0.026609337  0.026554844           13 
 2547000   0.82907056   -6.6673576    814.27111   0.02664151  0.026548017           11 
 2548000    0.8465124   -6.7006852    811.82961  0.026551204   0.02654122           11 
 2549000   0.84492694   -6.6981397    813.34479  0.026590323  0.026534351           23 
 2550000   0.87054524   -6.6611498    813.61036  0.026588574  0.026527523            7 
 2551000   0.83806924   -6.6687901    814.07765  0.026593416  0.026520652           17 
 2552000   0.83713354   -6.6473472    814.42761  0.026594423  0.026513759            7 
 2553000   0.83195073   -6.6957311    814.03391  0.026571155  0.026506888            5 
 2554000   0.84202202   -6.6979597    814.28324  0.026568887  0.026500067           14 
 2555000   0.83964467   -6.6808021    814.30488  0.026559194  0.026493195            8 
 2556000   0.85284236   -6.6712046    814.25612  0.026547213  0.026486364           15 
 2557000   0.83856103    -6.692949    814.74123  0.026552641   0.02647956           13 
 2558000   0.82179878   -6.7022147      815.252    0.0265589  0.026472785           12 
 2559000   0.84486672   -6.6852351     813.9492  0.026506096  0.026465951            6 
 2560000   0.84221892    -6.676368    815.95971  0.026561188  0.026459138           14 
 2561000   0.84826329   -6.7045432    815.93206  0.026549917  0.026452291           26 
 2562000   0.83731345   -6.6926543    814.94278  0.026507376  0.026445452            7 
 2563000   0.83478038   -6.6463255    814.46097  0.026481369  0.026438583            7 
 2564000   0.85478519   -6.7117829    813.62225  0.026443781  0.026431769           13 
 2565000   0.85117076   -6.7170843    814.17999  0.026451592  0.026424859            7 
 2566000   0.84950495   -6.6928683    815.39715  0.026480812  0.026417943            8 
 2567000   0.83752318   -6.6727048    816.62034  0.026510204  0.026411092           23 
 2568000   0.82796563   -6.6976091    815.03151  0.026448323   0.02640424            9 
 2569000   0.83417794   -6.6754434     817.4875  0.026517695  0.026397371           20 
 2570000   0.84855265   -6.6972565    814.79099  0.026419941  0.026390509           14 
 2571000   0.84660305   -6.7271961    814.76681  0.026408881  0.026383655           17 
 2572000   0.85801101   -6.7111322    816.86729  0.026466669  0.026376743            6 
 2573000    0.8424333   -6.6602275    814.70664  0.026386405  0.026369881            7 
 2574000   0.83087839   -6.7043146    814.87587  0.026381633  0.026362979           12 
 2575000   0.83088894   -6.6824433    816.33165    0.0264185  0.026356088           13 
 2576000   0.83949463   -6.6850064    815.23791  0.026372862  0.026349233            5 
 2577000   0.82154012   -6.6886529    816.69895  0.026409874  0.026342328           31 
 2578000   0.84879907   -6.7049079    817.06409  0.026411433  0.026335431           23 
 2579000   0.83136854   -6.6951381    814.25788  0.026310517  0.026328532            9 
 2580000   0.83030944   -6.6961338    816.73378   0.02638029  0.026321697           17 
 2581000   0.82174129   -6.6934296    817.19908  0.026385092  0.026314837           30 
 2582000   0.83726178   -6.6733447    817.71258  0.026391446  0.026307991           18 
 2583000   0.83057966   -6.6646835    817.42803  0.026372049  0.026301208           12 
 2584000   0.82706515   -6.6645967    817.86726  0.026376008  0.026294465           11 
 2585000   0.83863598   -6.6824681    818.62694  0.026390295  0.026287743           10 
 2586000   0.82902481   -6.7004823    817.76989  0.026352471  0.026280978           16 
 2587000    0.8276501   -6.6784873    817.85923  0.026345163   0.02627421            8 
 2588000   0.85286393   -6.6903145    817.58515  0.026326158  0.026267405           20 
 2589000   0.83364236   -6.6748993    820.88329  0.026422148  0.026260633            6 
 2590000     0.841422   -6.7220908    819.54397  0.026368854  0.026253898           19 
 2591000   0.84098348   -6.6825771    817.30691  0.026286727  0.026247115           13 
 2592000   0.82610615   -6.7125879    816.87386  0.026262663  0.026240327           13 
 2593000   0.84231877   -6.7102619    819.34826  0.026332056  0.026233483           10 
 2594000    0.8345376   -6.7093027    817.89821  0.026275321  0.026226712           10 
 2595000   0.83035907   -6.7115804    819.61554  0.026320345  0.026219871           24 
 2596000   0.83128931   -6.7227511    819.91617  0.026319856  0.026213036           17 
 2597000     0.834308   -6.7205135    820.24499  0.026320273  0.026206197           11 
 2598000   0.84745482   -6.7117483    819.65055  0.026291075  0.026199385           13 
 2599000   0.83715426   -6.7127863    819.64789  0.026280874   0.02619261            6 
 2600000   0.83712934   -6.6783569    819.04351  0.026251395  0.026185853           19 
 2601000   0.83116015   -6.6780537    818.79238  0.026233256  0.026179028           15 
 2602000   0.80281112   -6.7199646    820.34313  0.026272839  0.026172183           12 
 2603000    0.8405204   -6.6856786    819.87421  0.026247734  0.026165349            9 
 2604000     0.848337   -6.7307159    818.97686  0.026208937  0.026158517            9 
 2605000   0.83219523   -6.6713027    820.96422  0.026262451  0.026151709           11 
 2606000   0.83432851   -6.6954055    822.59366  0.026304479  0.026144964           15 
 2607000   0.83510181   -6.7235385    819.93319  0.026209346  0.026138204           11 
 2608000   0.83783601   -6.6880095     823.1077  0.026300732  0.026131417           11 
 2609000   0.87033071   -6.6806447    821.26412  0.026231766  0.026124709            7 
 2610000   0.83262452   -6.6940237    821.85622   0.02624062  0.026117978            7 
 2611000    0.8512204   -6.6881858    821.20571  0.026209808  0.026111221           13 
 2612000   0.81728028   -6.7128948    821.18829  0.026199218  0.026104482           11 
 2613000   0.82539096   -6.6909013    822.81558  0.026241089   0.02609774           10 
 2614000   0.83443256   -6.7152409    821.87535  0.026201076  0.026090959           15 
 2615000   0.84299025   -6.7193403    822.93835  0.026224931  0.026084215            7 
 2616000   0.82740514   -6.7098311    823.30666  0.026226639  0.026077434           16 
 2617000   0.82399596   -6.6967735     822.9668  0.026205796   0.02607066           11 
 2618000   0.81997052   -6.7095227    822.25407  0.026173099  0.026063866           28 
 2619000   0.84311877   -6.7289528    822.05647  0.026156818  0.026057055           13 
 2620000   0.83164016   -6.6853508    822.20812  0.026151658  0.026050237           26 
 2621000   0.83875668   -6.7332994    820.25392  0.026079547  0.026043412           30 
 2622000   0.82103983     -6.71294    819.28134   0.02603869   0.02603659           15 
 2623000    0.8224547   -6.7097261    821.55531  0.026101008  0.026029764            8 
 2624000   0.83684832   -6.6774467    822.82171  0.026131279  0.026022991            9 
 2625000   0.83248654   -6.7250293    821.53357  0.026080431  0.026016163           17 
 2626000   0.84440361   -6.7051279    824.12332  0.026152682   0.02600937           21 
 2627000   0.84571327   -6.7107595    823.59047  0.026125824  0.026002595           22 
 2628000   0.84079465   -6.7286595    822.62869  0.026085385  0.025995837           10 
 2629000   0.82971958   -6.7247869    821.68136  0.026045434  0.025989037            8 
 2630000   0.83330632   -6.7206124    823.48536  0.026092692  0.025982241           13 
 2631000   0.84469668   -6.6886349    823.28848  0.026076539  0.025975482           12 
 2632000   0.82506546   -6.6927024    823.04994  0.026059079  0.025968728            7 
 2633000   0.82783899   -6.7092104    823.71961  0.026070376  0.025961965           15 
 2634000   0.83143969   -6.7202018    825.31472  0.026110944  0.025955222           10 
 2635000   0.82094706    -6.720145    824.28743  0.026068546  0.025948503           22 
 2636000   0.83231222   -6.7095736    823.66945   0.02603912  0.025941779           18 
 2637000   0.84558449   -6.7252173    825.65126  0.026091874  0.025935038           25 
 2638000   0.81830574   -6.7362608    824.63081  0.026049748  0.025928296           13 
 2639000   0.81681023   -6.7225869    824.75795  0.026043891  0.025921554           19 
 2640000   0.84007725    -6.740364    823.97458  0.026009299  0.025914851           15 
 2641000   0.81987222   -6.7126288    825.89735  0.026060121  0.025908166           34 
 2642000   0.81355526   -6.6914017    824.52469  0.026006961    0.0259015           18 
 2643000   0.83079669   -6.7145461    825.21796   0.02601898  0.025894839           11 
 2644000   0.86064988   -6.7224105    825.62803  0.026022064  0.025888175            8 
 2645000   0.85323571   -6.7103134    824.23456  0.025968323  0.025881443           10 
 2646000   0.83796006   -6.7231662    825.75777  0.026006481  0.025874804            8 
 2647000    0.8364663   -6.6786019    826.04524  0.026005706  0.025868167            9 
 2648000   0.83531331   -6.7117815    824.14075   0.02593595  0.025861495            8 
 2649000   0.82894728   -6.7308999     824.9734  0.025952353  0.025854761           28 
 2650000   0.82210289   -6.7225918    825.97738  0.025974132  0.025848058           21 
 2651000    0.8182309   -6.6947752    827.75024  0.026020063  0.025841366           17 
 2652000   0.84405762   -6.7475299    823.36961  0.025872599  0.025834671            5 
 2653000   0.81958839   -6.7260784    825.69643  0.025935935   0.02582795            6 
 2654000     0.833281   -6.7104467    826.06112  0.025937614   0.02582124           12 
 2655000   0.83292526   -6.7088668    827.86288  0.025984397  0.025814515           16 
 2656000   0.83351085   -6.6815908    828.31079  0.025988667  0.025807845           12 
 2657000    0.8247812   -6.7433466    824.57087  0.025861588  0.025801114            5 
 2658000   0.83358248   -6.7103283    826.50295  0.025912432  0.025794385           13 
 2659000   0.83890115   -6.7247647    826.14315  0.025891411  0.025787691           11 
 2660000   0.81889579    -6.719855    827.15635  0.025913419  0.025781005            7 
 2661000   0.82028512   -6.7330617    826.29878  0.025876825  0.025774297           15 
 2662000   0.84910574    -6.698741    827.16948  0.025894361  0.025767596           23 
 2663000   0.83596383   -6.7350359    827.27487  0.025887936  0.025760879           35 
 2664000   0.83516168   -6.7341451    828.99165  0.025931921  0.025754164           42 
 2665000   0.82182688   -6.7378055    826.69307  0.025850315  0.025747461           16 
 2666000   0.81290032   -6.7342995    827.61242  0.025869355  0.025740728           23 
 2667000   0.82396388   -6.7257223    827.43329  0.025854059  0.025734025           10 
 2668000   0.80787157    -6.720498    826.77894   0.02582393  0.025727285           11 
 2669000   0.82650801    -6.722807    826.68795  0.025811414  0.025720571            7 
 2670000   0.84307377   -6.7145884      826.666  0.025801061  0.025713888           14 
 2671000   0.83199342   -6.7114132    828.92494  0.025861879  0.025707238            6 
 2672000   0.81172242   -6.6985467    828.03435  0.025824425  0.025700585           16 
 2673000    0.8256511   -6.7232725    828.89102  0.025841471   0.02569395           45 
 2674000   0.81899337   -6.7258197     828.1702  0.025809343  0.025687274           21 
 2675000    0.8132984   -6.7236781    828.23522   0.02580172  0.025680542            9 
 2676000   0.81231867   -6.7291686     829.4674   0.02583045  0.025673858           13 
 2677000   0.82572793   -6.7388581    827.40617  0.025756636  0.025667109           16 
 2678000   0.81958177   -6.7197956    828.84706  0.025791855   0.02566037           17 
 2679000   0.82454672   -6.7103506    828.49195  0.025771182   0.02565367            8 
 2680000   0.82542723   -6.7321058    828.95049  0.025775824  0.025646973            6 
 2681000   0.81404989   -6.7089599    829.67062  0.025788593  0.025640262           29 
 2682000   0.83028146   -6.7101673     830.3732  0.025800808  0.025633559            9 
 2683000   0.84439833   -6.6958007    831.17845  0.025816202  0.025626899           12 
 2684000   0.82874087   -6.7160143    830.61006  0.025788936  0.025620271            8 
 2685000    0.8208985     -6.69937    828.36781   0.02570974   0.02561358           12 
 2686000   0.81013408   -6.7373492    828.38001  0.025700546  0.025606869           16 
 2687000   0.81750923   -6.7684778    826.95916  0.025646916  0.025600125            8 
 2688000   0.80947241   -6.7596329    828.47866  0.025684482  0.025593345           14 
 2689000   0.81891199   -6.7255492    830.25548  0.025729995  0.025586589            6 
 2690000   0.81046872   -6.7202213    832.08922  0.025777237  0.025579922           19 
 2691000   0.81170464   -6.7449773    830.54444   0.02571982   0.02557322           18 
 2692000   0.83786509   -6.7204278    829.19612  0.025668528  0.025566501           14 
 2693000   0.82744869   -6.7601832    829.70433  0.025674722  0.025559763           12 
 2694000   0.83073521   -6.7326635    829.59944  0.025661947  0.025553031           13 
 2695000   0.81755628   -6.7307002    829.93671  0.025662854   0.02554625           41 
 2696000   0.82258593   -6.7070786     829.1489  0.025628984  0.025539509           12 
 2697000   0.79703853   -6.7420278    829.60388   0.02563354  0.025532781           12 
 2698000   0.83208811   -6.7805984    830.15016  0.025640912  0.025526026           30 
 2699000   0.81804442   -6.7469972    829.51225  0.025611716   0.02551928           29 
 2700000   0.81880641   -6.7365791    830.62339  0.025636524  0.025512519           15 
 2701000   0.80624425   -6.7234818    830.64855  0.025627809   0.02550577           15 
 2702000   0.80329713   -6.6916656    830.62859  0.025617709  0.025499003           11 
 2703000   0.82481442   -6.7279627    830.17064  0.025594113  0.025492226           45 
 2704000   0.81164939   -6.7486182    830.33701  0.025589775  0.025485461           29 
 2705000   0.81329841   -6.7363434    829.15574  0.025543923  0.025478677           13 
 2706000   0.82319232   -6.7510493    830.53037  0.025576816  0.025471916           13 
 2707000   0.80774578    -6.695575     832.0096  0.025612905  0.025465216           10 
 2708000   0.83726217   -6.7150133    831.22877  0.025579418  0.025458511           25 
 2709000   0.82379474     -6.73171    831.94352  0.025591963  0.025451785           18 
 2710000   0.82745622   -6.7303847    831.86335  0.025580054  0.025445064           13 
 2711000   0.81607172   -6.7283156    831.09761   0.02554708  0.025438358           10 
 2712000   0.81923024   -6.7531945    830.99141  0.025534397  0.025431655            8 
 2713000   0.80970461   -6.7299185    832.59744  0.025574316  0.025424892           13 
 2714000   0.80457044   -6.7276509    832.82194  0.025571786  0.025418167           14 
 2715000    0.8103848    -6.733284    833.12289  0.025571605  0.025411415           22 
 2716000   0.83542162   -6.7345257    831.08715  0.025499729   0.02540468           11 
 2717000     0.809103   -6.7213182    832.72081  0.025540449  0.025397945           19 
 2718000   0.81413876   -6.7308099      833.694   0.02556089  0.025391191           17 
 2719000   0.82192638    -6.722434    833.96023  0.025559649  0.025384453            5 
 2720000   0.80598155   -6.7128411    833.51455  0.025536598   0.02537773           17 
 2721000   0.82583001   -6.7113573    833.66251  0.025531744  0.025370985           10 
 2722000   0.81631168   -6.7385697    832.34082  0.025481901  0.025364233           18 
 2723000   0.82402642   -6.7366376    831.85967  0.025457818  0.025357455           26 
 2724000   0.82529137    -6.732337    831.39467  0.025434247  0.025350672           10 
 2725000   0.80201719   -6.7376297    831.60404  0.025431316  0.025343915            6 
 2726000   0.81793976   -6.7410981    833.41677  0.025477402  0.025337132           15 
 2727000   0.81038045   -6.7360992    832.25914  0.025432684  0.025330341            9 
 2728000   0.82084257   -6.7358161    829.84238  0.025349535  0.025323539           11 
 2729000   0.82840718   -6.7395643     831.1544   0.02538031  0.025316706            9 
 2730000   0.80432067   -6.7620059    833.01739  0.025427881  0.025309901           20 
 2731000   0.82245589   -6.7380982    832.37056  0.025398833  0.025303065           12 
 2732000   0.82525132   -6.7204033    831.65048  0.025367572   0.02529625            7 
 2733000   0.82083422   -6.7446918    831.91235  0.025366275  0.025289412            8 
 2734000   0.83485184    -6.729545    831.13126  0.025333189  0.025282618            8 
 2735000   0.82167201   -6.7320619    831.42118   0.02533276  0.025275809            5 
 2736000    0.8404694   -6.7361663    833.67976  0.025392293   0.02526903           19 
 2737000   0.80024133    -6.730269    834.67809  0.025413411  0.025262279           13 
 2738000   0.80710304    -6.755445    834.77022  0.025406934  0.025255494           13 
 2739000   0.80827751   -6.7417248    834.13847  0.025378437  0.025248664            7 
 2740000   0.81665456      -6.7696    833.87978  0.025361307  0.025241857            8 
 2741000   0.81165254   -6.7332761    832.68605  0.025315762  0.025235107           10 
 2742000    0.8027448   -6.7205635    832.68365  0.025306457  0.025228336            6 
 2743000   0.82562801   -6.7601639    833.48193  0.025321483  0.025221556           23 
 2744000    0.8167615   -6.7484797    832.58014  0.025284868  0.025214726            6 
 2745000   0.80856859   -6.7379328    833.03167  0.025289365  0.025207924            8 
 2746000   0.81783251   -6.7228061    831.68475   0.02523928  0.025201144            9 
 2747000   0.82171762   -6.7530158    833.71588  0.025291709  0.025194389            9 
 2748000   0.79823867   -6.7448825    833.70148  0.025282068  0.025187588           10 
 2749000   0.80087031   -6.7573948    833.18216  0.025257129  0.025180774           12 
 2750000    0.8132543    -6.736371    832.78522  0.025235916  0.025173962            8 
 2751000   0.79587234   -6.7452655    832.88185  0.025229669  0.025167132           18 
 2752000   0.80830204   -6.7668553    832.61852  0.025212528  0.025160302           11 
 2753000   0.80742214   -6.7512892    832.55983  0.025201593  0.025153434           16 
 2754000   0.80348626   -6.7687903    832.18021  0.025180955  0.025146603           11 
 2755000   0.81410222   -6.7414212    834.43042   0.02523988  0.025139764           17 
 2756000   0.83168881   -6.7300476    835.56691  0.025265086  0.025132928           18 
 2757000   0.80677248   -6.7526431    831.11779  0.025121442  0.025126116            9 
 2758000   0.81467501    -6.744544    833.93756  0.025197533  0.025119264            9 
 2759000   0.80316066   -6.7441308    836.54672  0.025267208  0.025112436           17 
 2760000   0.81889993   -6.7489165    832.24149  0.025128064  0.025105623           37 
 2761000   0.78978622   -6.7292788    833.70367  0.025163095   0.02509878           11 
 2762000   0.79653644   -6.7262442    834.73765  0.025185181  0.025091951            9 
 2763000   0.82295711   -6.7614454     834.0106  0.025154138  0.025085096           36 
 2764000   0.80837278    -6.772257    834.44405  0.025158106  0.025078196           41 
 2765000   0.82247742   -6.7880278    833.92074  0.025133235  0.025071324           17 
 2766000   0.80165663   -6.7981405    833.48735  0.025111091  0.025064379           18 
 2767000   0.80919588   -6.7902445    831.49117  0.025041898  0.025057463           40 
 2768000   0.80732291   -6.7936618    833.87049  0.025104482  0.025050528           13 
 2769000   0.80620778   -6.7505637    833.75258  0.025091868  0.025043648           12 
 2770000   0.80538115   -6.7819066    831.54375  0.025016358   0.02503679           17 
 2771000   0.80025849   -6.7449408    833.55099  0.025067695  0.025029942           20 
 2772000   0.81115959    -6.746044    832.56612  0.025029044   0.02502309           19 
 2773000   0.80861179   -6.7908069    834.67891  0.025083511   0.02501621           37 
 2774000   0.80386273    -6.797539    834.87065  0.025080229  0.025009338           12 
 2775000   0.80449939   -6.7687745    834.98544  0.025074638  0.025002498           15 
 2776000   0.80255629   -6.7851096    832.27941  0.024984372  0.024995658           12 
 2777000   0.81385584   -6.7515238    836.79532  0.025110891   0.02498882           10 
 2778000   0.80377505   -6.7502884    834.86123  0.025043833  0.024982003           14 
 2779000   0.80497862   -6.7460377    835.29478  0.025047822  0.024975206           12 
 2780000   0.79954867   -6.7646195    837.05834  0.025091677  0.024968419           16 
 2781000   0.80336032   -6.7518519    836.19074  0.025056657  0.024961603           16 
 2782000   0.81801314   -6.7509051    837.65777  0.025091594   0.02495484           14 
 2783000   0.79876879   -6.7535505    836.51309  0.025048302  0.024948079            9 
 2784000   0.81772212   -6.7587058     836.4115  0.025036264  0.024941288           15 
 2785000   0.80669998   -6.7546605    836.27209  0.025023103  0.024934546           10 
 2786000   0.80318004   -6.7514656    836.80143  0.025029954  0.024927774           12 
 2787000   0.81256807    -6.748361     836.9316  0.025024865  0.024921004           11 
 2788000   0.79565124    -6.765735     836.9504  0.025016451  0.024914236           17 
 2789000   0.81837038   -6.7826083    836.15519  0.024983722   0.02490747           19 
 2790000   0.80099908   -6.7641418    838.22951  0.025036724  0.024900709           14 
 2791000   0.80186666    -6.743706    837.84801  0.025016362  0.024893972           13 
 2792000   0.82556835   -6.7776211    837.21265  0.024988439  0.024887246           13 
 2793000   0.82114497   -6.7705306    837.42479  0.024985822  0.024880496           10 
 2794000   0.78933243   -6.7805095    837.90603  0.024991232  0.024873771           13 
 2795000    0.8132639   -6.7445001    837.87996  0.024981514  0.024867053            6 
 2796000   0.81887393   -6.7810854    839.29444  0.025014737  0.024860344           14 
 2797000   0.79224362   -6.7782551    838.67298  0.024987278  0.024853607           18 
 2798000   0.80466189   -6.7952552     839.3846  0.024999541  0.024846871           14 
 2799000   0.80631789   -6.7582405     839.8373  0.025004088  0.024840156            9 
 2800000   0.78836415   -6.7518746    839.63029  0.024988997  0.024833444           13 
 2801000   0.79440386   -6.7603338    837.39236  0.024913494  0.024826733            9 
 2802000   0.81020773   -6.7666478    838.15603  0.024927315  0.024819981           12 
 2803000    0.8061929   -6.8073354    838.20913      0.02492  0.024813236           21 
 2804000   0.81092816   -6.7472071    839.33403  0.024944545  0.024806475            9 
 2805000   0.78762606   -6.7531884    839.30298  0.024934729  0.024799778           22 
 2806000   0.79196167   -6.7454259    840.64309  0.024965642  0.024793095           17 
 2807000   0.79721927   -6.7708166    840.49295   0.02495229  0.024786393            8 
 2808000   0.79316253   -6.7673003    839.52856  0.024914784  0.024779663           25 
 2809000   0.79739088   -6.7705426    838.81604  0.024884776   0.02477293           14 
 2810000   0.81545325   -6.7582293    841.20396  0.024946737  0.024766208           11 
 2811000   0.80741523   -6.7453322     839.8024  0.024896312  0.024759518            8 
 2812000    0.8175659   -6.7632482    838.28729  0.024842558  0.024752789            9 
 2813000   0.81537241   -6.7873196    839.39399  0.024866512  0.024746068           11 
 2814000   0.78230584   -6.8055057    839.37992  0.024857259   0.02473929           18 
 2815000    0.8092157   -6.7784278    837.19872  0.024783858   0.02473249           14 
 2816000   0.81347113   -6.7676761     839.1843  0.024833816  0.024725742           25 
 2817000   0.80746369   -6.7814802    840.78216  0.024872268  0.024718982           20 
 2818000   0.80095445   -6.7638682    838.00054  0.024781185  0.024712245            8 
 2819000   0.80633576   -6.7719535    839.34769  0.024812217  0.024705516           14 
 2820000   0.80838118   -6.7604515    838.86306  0.024789098  0.024698808           23 
 2821000   0.79709108   -6.8032679    839.54323  0.024800403  0.024692064           13 
 2822000   0.80629416   -6.7845036    839.05646   0.02477724  0.024685295           12 
 2823000   0.79103987   -6.8161052    839.27761  0.024774991  0.024678547           13 
 2824000   0.79295979   -6.7648023    838.47315   0.02474248  0.024671795           17 
 2825000   0.77659844    -6.766178    838.51401  0.024734927  0.024665074           16 
 2826000   0.80025275   -6.7784076    842.49762  0.024843643  0.024658349           12 
 2827000   0.80141025   -6.7661253    840.74259  0.024783121   0.02465165           23 
 2828000   0.79750749   -6.7815815    840.21252  0.024758738  0.024644952           19 
 2829000   0.78501999   -6.7839707    839.06345  0.024716138  0.024638234           15 
 2830000   0.78192443   -6.7528107    840.18773   0.02474051  0.024631516           11 
 2831000   0.78972709   -6.7565185    840.14978  0.024730654  0.024624816           23 
 2832000   0.77557288   -6.7574537    841.33701  0.024756857   0.02461811           11 
 2833000   0.78798693   -6.7690612    840.55116  0.024725002  0.024611388           10 
 2834000     0.794846   -6.7684065    840.32803  0.024709716  0.024604688           15 
 2835000   0.80949564   -6.7667512    841.04999  0.024722222  0.024597948           23 
 2836000   0.79655843    -6.774117    840.99094  0.024711769  0.024591254           20 
 2837000   0.77068681    -6.766117    839.33407  0.024654391  0.024584573           11 
 2838000   0.80348539   -6.7937311    841.82183  0.024718752  0.024577912           18 
 2839000   0.81683309   -6.7526156    843.36835  0.024755441  0.024571246            9 
 2840000   0.79745701   -6.7896852    841.33963  0.024687196  0.024564556           25 
 2841000   0.80781281   -6.7877494    842.58952  0.024715168  0.024557852           21 
 2842000   0.78485331   -6.7694116    843.24145  0.024725588  0.024551161           22 
 2843000   0.80742938   -6.7332057     842.9029  0.024706967   0.02454454            9 
 2844000   0.79414711   -6.7609403    843.14329  0.024705324  0.024537937           13 
 2845000   0.80599517   -6.7871114    843.11248  0.024695738  0.024531321           19 
 2846000   0.78267713   -6.7839737    841.48432  0.024639386  0.024524684           12 
 2847000   0.78642037   -6.7718287    841.80046  0.024639985  0.024518063           10 
 2848000   0.79957832   -6.7735109    843.46413  0.024680013  0.024511427           12 
 2849000   0.82115794   -6.7637196    843.03347  0.024658754  0.024504765           15 
 2850000   0.79212062   -6.7700718    842.63572  0.024638471  0.024498134           15 
 2851000    0.7933503    -6.751782    841.35022  0.024592255  0.024491458           13 
 2852000   0.79547609   -6.7583788     842.3938  0.024614124  0.024484755            8 
 2853000   0.79361624    -6.796551    842.50519  0.024608751  0.024478054           17 
 2854000   0.80189778   -6.7774382    842.20945  0.024591493  0.024471346           13 
 2855000    0.8057143   -6.7508401    843.53543  0.024621583  0.024464618            9 
 2856000   0.78497243   -6.7639187    842.21879  0.024574544  0.024457925           10 
 2857000   0.78265921   -6.7934753    841.43602  0.024543111    0.0244512           10 
 2858000   0.78786186   -6.7811754    842.84751   0.02457568  0.024444441            7 
 2859000   0.80721151   -6.7928032    842.36459  0.024553008  0.024437708           24 
 2860000   0.79458305   -6.7677255    842.71494  0.024554631  0.024430992           43 
 2861000   0.79540099   -6.7868625    842.70166  0.024545662  0.024424293           30 
 2862000   0.78349327   -6.7794304    843.26712   0.02455355  0.024417607           13 
 2863000   0.79267672   -6.8079083    842.05476  0.024509686  0.024410882           17 
 2864000   0.79725025   -6.7821533    843.38558   0.02453985  0.024404185           14 
 2865000   0.79996117   -6.7783598    843.81921  0.024543898  0.024397497           16 
 2866000    0.7963841   -6.7763584    843.64023   0.02453013  0.024390793           15 
 2867000   0.79210438   -6.7939351    843.08142  0.024505331  0.024384092           23 
 2868000   0.79619944   -6.7880935    843.73704  0.024515837  0.024377375           32 
 2869000   0.78649413   -6.7850092    844.02507  0.024515658  0.024370688           35 
 2870000    0.8090719   -6.7820288    843.11983  0.024480831  0.024364009           42 
 2871000   0.79333066   -6.7727986    845.03353  0.024527851  0.024357326           41 
 2872000   0.78765611   -6.7385691    846.17409  0.024552405  0.024350691            7 
 2873000   0.79732309   -6.7819817     846.3403   0.02454868   0.02434404           27 
 2874000   0.79896275   -6.7667006    844.01845  0.024472815  0.024337382           25 
 2875000   0.81759448   -6.7879074    846.15772  0.024526311  0.024330721           27 
 2876000   0.78859751   -6.7877038    845.33031  0.024493808  0.024324032           25 
 2877000   0.78550753    -6.789295    843.44425  0.024430664  0.024317315           18 
 2878000    0.7876709   -6.7681313    844.96975  0.024466347  0.024310671           29 
 2879000   0.79039424   -6.8136419    848.31621  0.024554712  0.024304032           30 
 2880000    0.7972664   -6.7705279    845.33355  0.024459883  0.024297387           18 
 2881000   0.80864904   -6.7841986    843.94217  0.024411147  0.024290734            8 
 2882000   0.78269809   -6.7965765    845.82969  0.024457255  0.024284059           12 
 2883000   0.78409242   -6.7916912    844.71218  0.024416469    0.0242774           13 
 2884000   0.79576781    -6.783898    845.39568  0.024427753  0.024270765           35 
 2885000   0.78568361   -6.8069216    848.07184  0.024496587   0.02426413           15 
 2886000   0.78181943   -6.7553782    846.87796  0.024453626  0.024257508           14 
 2887000   0.80257428   -6.7786543    842.67094   0.02432372  0.024250898           15 
 2888000   0.79845036   -6.7744987    844.72788   0.02437465   0.02424425           12 
 2889000   0.80091153   -6.7874023    843.17438  0.024321403  0.024237607           12 
 2890000   0.80458615    -6.809923    845.72379  0.024386499  0.024230996           15 
 2891000   0.78414755    -6.783131    846.72041  0.024406791   0.02422436           36 
 2892000   0.79460289   -6.7863031    846.59093  0.024394621  0.024217708           11 
 2893000    0.7729602   -6.8041629    846.23818  0.024376028  0.024211039           13 
 2894000   0.79933728   -6.8049955    845.25025  0.024339157  0.024204383            8 
 2895000   0.78882845   -6.8071473    847.84499   0.02440544  0.024197764           18 
 2896000   0.77541809   -6.7905381    848.04707  0.024402828  0.024191137            8 
 2897000   0.79580031   -6.7929408    846.31775   0.02434466  0.024184499           24 
 2898000   0.79303157   -6.8061657    844.57479   0.02428614  0.024177864           26 
 2899000   0.79098217   -6.7736905    847.24422  0.024354496  0.024171173           12 
 2900000   0.76841624    -6.802478    847.18309  0.024344342    0.0241645           28 
 2901000   0.78128171   -6.7688808    845.76772  0.024295292  0.024157813           21 
 2902000   0.77580386   -6.8144786    844.96249  0.024263798  0.024151109           32 
 2903000   0.80070113   -6.7833506     846.4554  0.024298295  0.024144418           16 
 2904000   0.80225654   -6.8275352    845.18936  0.024253597   0.02413772           12 
 2905000    0.7952771   -6.7578631     846.0358   0.02426953  0.024131054           13 
 2906000   0.79411398   -6.8003426    845.78793   0.02425407  0.024124377           11 
 2907000   0.79166891    -6.803115    848.07264  0.024311221  0.024117705           15 
 2908000   0.78746694   -6.8281343     845.1977  0.024220475  0.024111001           15 
 2909000   0.79838251    -6.779013    844.87904  0.024203021  0.024104288           18 
 2910000   0.80030742   -6.8211704    845.49441  0.024212326  0.024097596           25 
 2911000   0.76799474   -6.8115564    846.69329  0.024238329  0.024090897           32 
 2912000   0.79387372   -6.7981483    845.85248  0.024205943  0.024084221           70 
 2913000   0.77553089    -6.774824    847.44677  0.024243242  0.024077578           38 
 2914000   0.78082054   -6.7987652    846.53427  0.024208827  0.024070921           13 
 2915000   0.78416794   -6.7994446    845.81138  0.024179857   0.02406422           66 
 2916000   0.75859912   -6.8128504     847.2818  0.024213586  0.024057511           44 
 2917000   0.78613294   -6.8053264    846.68012  0.024188096  0.024050792           16 
 2918000   0.77437717   -6.8282042     848.3952  0.024228787  0.024044091           15 
 2919000   0.77510138    -6.775765    846.40967  0.024163802  0.024037433           18 
 2920000     0.778548   -6.7764899    845.83222  0.024139047  0.024030801           39 
 2921000   0.78273774   -6.7889122    847.20026  0.024169812  0.024024155           35 
 2922000   0.78149295   -6.8021721    846.69096  0.024147016  0.024017525           20 
 2923000   0.80883823   -6.7877973    849.21656  0.024210758  0.024010897           18 
 2924000   0.77764812   -6.7844656    846.54821  0.024126431   0.02400429           17 
 2925000   0.79467498   -6.7885001    848.19046   0.02416497  0.023997636           11 
 2926000   0.76698151   -6.7911443    849.17437  0.024184734   0.02399099           11 
 2927000   0.77329036      -6.8075    848.36244  0.024153355  0.023984351           12 
 2928000   0.78493566   -6.7883417    846.57219  0.024094154   0.02397769            8 
 2929000   0.78448188   -6.7994238     847.0349  0.024099092   0.02397103           34 
 2930000   0.78843275   -6.8004266    849.85807  0.024171163  0.023964412           19 
 2931000   0.78920271   -6.8026733    846.86714  0.024077879  0.023957769           45 
 2932000   0.78678231   -6.7805357    847.38347  0.024084341  0.023951132           13 
 2933000   0.78970815   -6.8036094    848.63515  0.024111693  0.023944485           29 
 2934000   0.76153039   -6.7840775    847.04716  0.024058372   0.02393783           48 
 2935000   0.79104114   -6.8042798    847.08214  0.024051168  0.023931165           29 
 2936000   0.78560418   -6.8021812    846.87542  0.024037109  0.023924507           14 
 2937000   0.78753093    -6.800093    848.47431  0.024074291  0.023917871           17 
 2938000    0.7898815   -6.8274755    846.20675   0.02400178   0.02391117           54 
 2939000   0.78644482   -6.7810196    849.05577  0.024074395  0.023904533           57 
 2940000   0.77909394   -6.7895763    847.38208  0.024018766  0.023897892           25 
 2941000   0.78904009   -6.7918328     850.6872   0.02410425  0.023891275           29 
 2942000    0.7686663   -6.8211401    849.10689  0.024051294  0.023884636            8 
 2943000   0.77516536   -6.7842763    849.07839  0.024042315  0.023878012           13 
 2944000   0.78238788    -6.800293    850.48008  0.024073825  0.023871383           19 
 2945000   0.77197635   -6.7859816    849.09842  0.024026554  0.023864751            9 
 2946000   0.77412868   -6.8329428    849.42602  0.024027665    0.0238581           16 
 2947000   0.79291184   -6.8308823    849.49671  0.024021511  0.023851458           10 
 2948000   0.78472057   -6.8348363    850.58591  0.024044152  0.023844843           11 
 2949000   0.78835735   -6.8357282    848.81583  0.023985979  0.023838262           10 
 2950000   0.77614355   -6.8059333    850.67379  0.024030333  0.023831673           13 
 2951000   0.76958389   -6.8111701    848.57036  0.023962791  0.023825072           10 
 2952000   0.78638942   -6.7957777       851.04   0.02402439  0.023818491           10 
 2953000   0.79870509   -6.8170745    850.08339  0.023989259  0.023811922           16 
 2954000   0.79454717   -6.8173775    850.06034  0.023980488  0.023805319           11 
 2955000   0.76418152   -6.8086433    849.96093  0.023969569  0.023798733           15 
 2956000   0.79980847   -6.8347959    850.73757  0.023983355  0.023792144           24 
 2957000   0.78703448   -6.8297573    849.79539  0.023948692  0.023785553           23 
 2958000   0.76699199   -6.8287802    850.40454  0.023957757  0.023778957           14 
 2959000   0.79040851    -6.829582     849.8224  0.023933266  0.023772378           15 
 2960000   0.78658155   -6.8171348    851.36639  0.023968648  0.023765823           19 
 2961000   0.77561994   -6.8236012    850.51702  0.023936649  0.023759244           24 
 2962000   0.77541113   -6.8132841    850.96606  0.023941201   0.02375266           18 
 2963000   0.77284525   -6.8252192    850.54767  0.023921354  0.023746099           24 
 2964000   0.80487834   -6.8255577    848.64266  0.023859724  0.023739483           21 
 2965000    0.7880733   -6.7989895    853.25517  0.023981315  0.023732883           12 
 2966000   0.77615322   -6.7893302    850.02816  0.023882562  0.023726278           15 
 2967000   0.78590833   -6.8059091    850.58647  0.023890194   0.02371966           19 
 2968000   0.78365972    -6.851113    850.97335  0.023893007  0.023713029           18 
 2969000   0.77232205   -6.8154184    853.00292  0.023941925  0.023706386           12 
 2970000   0.78139239   -6.8284921    851.86882  0.023902043   0.02369977           24 
 2971000   0.76469002   -6.7990651    850.22805  0.023847976   0.02369316           11 
 2972000   0.79664177   -6.7960467    851.01417  0.023861994  0.023686562           10 
 2973000   0.76723111    -6.810473    853.81019  0.023932341  0.023679989           11 
 2974000   0.77941794   -6.8060731    852.84006   0.02389711  0.023673406           25 
 2975000   0.76319274   -6.8082538    851.66328  0.023856114  0.023666819           20 
 2976000   0.78354994   -6.8064283    850.63913   0.02381942  0.023660264           20 
 2977000   0.75851052   -6.8130755    848.73797  0.023758201  0.023653671           27 
 2978000   0.77846263   -6.8277449    854.15037  0.023901678  0.023647094           12 
 2979000   0.78692654   -6.8531986    849.50102  0.023763596  0.023640464           26 
 2980000   0.76884971   -6.8147166    853.38409  0.023864208  0.023633864           49 
 2981000   0.76310477   -6.8201874    851.84753  0.023813249  0.023627296           15 
 2982000   0.77770166   -6.8359863    850.78297  0.023775513  0.023620701           12 
 2983000   0.75985181   -6.8255455    852.06454  0.023803345  0.023614107            9 
 2984000   0.77118901   -6.8202514    851.09013  0.023768156  0.023607531           11 
 2985000   0.77643806   -6.8174131    852.65732  0.023803945   0.02360099            7 
 2986000   0.77074158   -6.8241867    851.39294  0.023760687  0.023594387            7 
 2987000   0.76300877   -6.8252026    851.84362  0.023765306  0.023587808           13 
 2988000   0.77579472   -6.8172862    849.55181  0.023693435  0.023581213           21 
 2989000   0.77813072   -6.8551916    851.43121  0.023737906  0.023574603           20 
 2990000   0.77862935    -6.820554    849.91321  0.023687659  0.023568004           19 
 2991000   0.77201006   -6.8366583    852.17579  0.023742778   0.02356145           21 
 2992000   0.76824195   -6.8136281    851.83576  0.023725372  0.023554925           11 
 2993000   0.77127857   -6.8127681    853.28624  0.023757831  0.023548381           14 
 2994000   0.77652996   -6.8324517    854.17752  0.023774703  0.023541854           13 
 2995000   0.78366115    -6.810432    853.27419   0.02374163  0.023535316           13 
 2996000   0.78819861   -6.8301525    852.94901  0.023724661  0.023528759           20 
 2997000   0.79443601   -6.8230997    853.79809  0.023740354  0.023522246           17 
 2998000   0.75735008   -6.8397921    853.35907  0.023720232  0.023515699           19 
 2999000   0.75668723   -6.8273705       854.11  0.023733189  0.023509196           18 
 3000000   0.76560877   -6.8415354    852.28746  0.023674652  0.023502665           22 
 3001000   0.75935425   -6.8178523    854.72147  0.023734352  0.023496134           22 
 3002000   0.76583277   -6.8144124     854.0108  0.023706718  0.023489636           25 
 3003000   0.77271438    -6.801483    854.05453  0.023700037  0.023483145           12 
 3004000    0.7694481   -6.8073958    855.39802  0.023729417  0.023476703           18 
 3005000   0.77409764   -6.8321128    856.00494  0.023738351  0.023470232           12 
 3006000   0.75678708     -6.81863    856.02454  0.023730998  0.023463776           15 
 3007000    0.7552663   -6.8401601    855.23831  0.023701317  0.023457315           40 
 3008000   0.78647196   -6.8199141    855.19141  0.023692138  0.023450841           18 
 3009000   0.79120313   -6.8328123    853.50673  0.023637607  0.023444354           25 
 3010000   0.79726747   -6.8284167    854.93015  0.023669163  0.023437854           38 
 3011000    0.7809215   -6.8413499    855.67961  0.023682044  0.023431389           25 
 3012000   0.78372817   -6.7982338    854.96892  0.023654519  0.023424931           17 
 3013000   0.77015646   -6.8206183    856.18445  0.023680287  0.023418461           20 
 3014000   0.75858603   -6.8019129    855.61052  0.023656562  0.023412006           19 
 3015000   0.78489942   -6.8213963    857.09757  0.023689817  0.023405577           14 
 3016000   0.77423023   -6.8325852    854.37236  0.023606663  0.023399109           17 
 3017000   0.78408681   -6.8328249    854.98772  0.023615836   0.02339262           24 
 3018000   0.78274754   -6.8318935    855.56018  0.023623818  0.023386158           13 
 3019000   0.76710849   -6.8288208    855.80828  0.023622841  0.023379709           41 
 3020000    0.7804155   -6.8297886    856.51723  0.023634581  0.023373256           36 
 3021000   0.76958595   -6.8352725    858.22007   0.02367373  0.023366832           37 
 3022000   0.76579099   -6.8296384    857.52993  0.023646865  0.023360393           21 
 3023000   0.76910825   -6.8213596    853.97662  0.023541091  0.023353967           17 
 3024000   0.77028369   -6.8282661     856.6633  0.023607344  0.023347543            7 
 3025000   0.77624631   -6.8114401     857.3405  0.023618196  0.023341133           20 
 3026000   0.76166602   -6.8591502    857.30412  0.023609389  0.023334693           27 
 3027000   0.75856383    -6.811813    857.24446  0.023599947  0.023328273           12 
 3028000   0.74280134   -6.8082501    857.81836  0.023607947  0.023321904           13 
 3029000   0.75611097    -6.832513    856.56857  0.023565769  0.023315503           13 
 3030000   0.76945309   -6.8077606    855.82928  0.023537659  0.023309092            8 
 3031000   0.77570715   -6.8311675    857.15652  0.023566384  0.023302683           25 
 3032000   0.74589009   -6.8262598    856.09017  0.023529303  0.023296269           24 
 3033000   0.76792029   -6.8159932    857.50446  0.023560404  0.023289876           15 
 3034000   0.76740128   -6.8063935    859.12986  0.023597283  0.023283461           27 
 3035000   0.75235231   -6.8040079    856.71904  0.023523312  0.023277025           34 
 3036000   0.76435213   -6.8257001    858.75552  0.023571462  0.023270627           14 
 3037000   0.75625735   -6.8414078    854.98071  0.023460123  0.023264212           20 
 3038000   0.76089568   -6.8459483    856.08747  0.023482759  0.023257772           31 
 3039000   0.77279845   -6.8410694    856.12225  0.023475986  0.023251344           36 
 3040000   0.75901223   -6.8132652    858.44498  0.023531935  0.023244901           10 
 3041000   0.76325395   -6.8375209    856.16025  0.023461588  0.023238455           12 
 3042000   0.77448803   -6.8719684    857.59846  0.023493274  0.023232003           13 
 3043000   0.75477575   -6.8331466    856.59713  0.023458132  0.023225527           13 
 3044000   0.76202731   -6.8640319      854.751  0.023399885  0.023219058           19 
 3045000   0.76408343    -6.848466    857.41457  0.023465095   0.02321261            5 
 3046000   0.77293601    -6.848817    855.24388  0.023398005  0.023206142           24 
 3047000   0.77330157   -6.8606082    855.81834  0.023406037  0.023199665           10 
 3048000   0.76759415   -6.8339611    855.91988  0.023401134  0.023193215           20 
 3049000   0.77721245   -6.8499542     858.8396  0.023473259  0.023186783            9 
 3050000   0.75722423     -6.84256    857.13274  0.023418927  0.023180301           38 
 3051000   0.75821404   -6.8311443    856.72746  0.023400182  0.023173821           20 
 3052000   0.77092444   -6.8359737    855.74047  0.023365565  0.023167371           20 
 3053000   0.78006305   -6.8531419    856.68444  0.023383678  0.023160904           28 
 3054000   0.76678452    -6.843111    856.96059  0.023383557  0.023154444           19 
 3055000   0.77739432   -6.8501372    856.58639  0.023365695  0.023147989           13 
 3056000   0.77601082   -6.8541785    857.78578  0.023390755  0.023141502           68 
 3057000   0.76495069   -6.8433315    856.28123   0.02334209  0.023135042           18 
 3058000   0.74880786   -6.8661137    856.33274   0.02333586  0.023128585           14 
 3059000   0.77573491   -6.8086861     858.8123   0.02339578  0.023122134           15 
 3060000   0.77393122   -6.8533884     860.0894  0.023422914  0.023115717           24 
 3061000   0.75601433   -6.8540144    858.18188  0.023363331  0.023109288           27 
 3062000   0.74744285   -6.8695247    858.41908  0.023362157  0.023102842           20 
 3063000   0.77063334    -6.854125    857.97423  0.023342427  0.023096375           36 
 3064000   0.76061279   -6.8807388    857.61124  0.023324936  0.023089941           34 
 3065000   0.75184726   -6.8532588    858.58582  0.023343823  0.023083493           36 
 3066000   0.76014433   -6.8674244    859.09246   0.02334998  0.023077015           19 
 3067000    0.7590708   -6.8750299    858.38854  0.023323241  0.023070544           31 
 3068000   0.76208423   -6.8691646    858.06666  0.023306895  0.023064056           20 
 3069000   0.76435032   -6.8286953    857.25079  0.023277148  0.023057586           27 
 3070000   0.75610525   -6.8656206    858.93775  0.023315357  0.023051101           26 
 3071000   0.75674012   -6.8559587    859.90439  0.023333995  0.023044632           22 
 3072000   0.75959923   -6.8515078    858.53702  0.023289307  0.023038182           66 
 3073000   0.76535203   -6.8452511    857.61393  0.023256696  0.023031755           14 
 3074000   0.76855219   -6.8630523    857.21115  0.023238212  0.023025297           34 
 3075000   0.77713528   -6.8814544    859.04279  0.023280293  0.023018845           26 
 3076000   0.76351159   -6.8536601    857.18923  0.023222508  0.023012408           43 
 3077000   0.76256192   -6.8405189    858.55411  0.023251926  0.023005956           40 
 3078000   0.76081167   -6.8556243    859.39484  0.023267133   0.02299949           14 
 3079000   0.75393747   -6.8555576    857.78951  0.023216128  0.022993027           28 
 3080000   0.75855639    -6.890937    856.61488  0.023176809  0.022986545           28 
 3081000   0.76324252   -6.8690635    858.17301  0.023211431  0.022980066           56 
 3082000   0.76538233   -6.8469522    858.39327  0.023209855  0.022973619           56 
 3083000   0.77295157   -6.8355664    859.95677  0.023244588    0.0229672           25 
 3084000   0.76082559   -6.8703211    860.41001  0.023249298  0.022960783           16 
 3085000    0.7527223   -6.8188045     859.9688  0.023229843  0.022954377           17 
 3086000   0.75885947    -6.836645     860.3328  0.023232145  0.022947939           14 
 3087000   0.75698286   -6.8446906    860.13158  0.023219187  0.022941495           26 
 3088000   0.74687174   -6.8801946    859.50808  0.023194842  0.022935043           23 
 3089000   0.77390549   -6.8588786    858.73891  0.023166583  0.022928567           15 
 3090000   0.75718074   -6.8362069    859.28429  0.023173794  0.022922105           13 
 3091000   0.76546316   -6.8373188    858.56761  0.023146975  0.022915672           40 
 3092000   0.75920861   -6.8566121    859.98575   0.02317771  0.022909246           33 
 3093000   0.75351474   -6.8443016    861.05823  0.023199112  0.022902818           42 
 3094000   0.76236074   -6.8738998    859.28852  0.023143948  0.022896388           17 
 3095000   0.76052814   -6.8531855    858.72563  0.023121315  0.022889945           16 
 3096000   0.76368011   -6.8753652     860.1755  0.023152872  0.022883531           12 
 3097000    0.7556647   -6.8710882    860.34865  0.023150055  0.022877112           19 
 3098000   0.76209171   -6.8639471    861.31764  0.023168647  0.022870715           14 
 3099000   0.76495062   -6.8212412    861.96325  0.023178532  0.022864358           20 
 3100000   0.75113587   -6.8466338    860.78236  0.023139311  0.022857992           24 
 3101000   0.76869396   -6.8648538     859.3219  0.023092602    0.0228516           30 
 3102000   0.75294834   -6.8832241    859.56513  0.023091692  0.022845158           15 
 3103000   0.74712826   -6.8913178    860.79899  0.023117386  0.022838717           14 
 3104000   0.75120899   -6.8604082    861.03866  0.023116373  0.022832313           23 
 3105000   0.75748208   -6.8664818    860.92245  0.023105809  0.022825908           30 
 3106000   0.73923852    -6.880668    860.38856  0.023084046  0.022819486           27 
 3107000   0.74489802   -6.8712852    860.19488  0.023071421  0.022813037           49 
 3108000   0.75358705    -6.860718     860.3924  0.023069294  0.022806644           72 
 3109000   0.76227723   -6.8662119    861.53534  0.023092509  0.022800269           42 
 3110000   0.76376385   -6.8839118    860.22029  0.023049847  0.022793886           39 
 3111000   0.76087039   -6.8585348    861.71131  0.023082377  0.022787484           35 
 3112000   0.75141152   -6.8653741    862.02335  0.023083316  0.022781089           11 
 3113000   0.75919128   -6.8476659    861.00691  0.023048691  0.022774734           18 
 3114000   0.76105618   -6.8413527    862.99785  0.023094569   0.02276835           28 
 3115000   0.77237636   -6.8466337    860.92582  0.023031724  0.022761967           16 
 3116000   0.75145338   -6.8647911    860.71192  0.023018611  0.022755614            9 
 3117000   0.75698613   -6.8608268    859.56094  0.022980455  0.022749242           14 
 3118000   0.74570185   -6.8679656    862.28208  0.023045811   0.02274287           15 
 3119000    0.7507396   -6.8881371    860.94072  0.023002584  0.022736509           18 
 3120000   0.74817059    -6.883749    861.60343  0.023012912   0.02273015           24 
 3121000   0.75522127   -6.8782105    862.88415  0.023039735  0.022723752           33 
 3122000     0.736098   -6.8788031    860.20164  0.022960753  0.022717355           42 
 3123000   0.73822495   -6.8344517    862.00546  0.023001533  0.022711004           39 
 3124000   0.75592615    -6.884567    861.13988  0.022971081  0.022704654           20 
 3125000   0.73559149   -6.8696392    861.53487  0.022974263   0.02269829           31 
 3126000   0.75589523   -6.8674307    861.83261  0.022974851  0.022691929           30 
 3127000   0.76061854   -6.8613027    862.48058  0.022984772   0.02268559           25 
 3128000   0.73994606   -6.9010414    864.65157  0.023035261  0.022679232            9 
 3129000   0.75579192   -6.8555349    863.83367  0.023006117  0.022672903           23 
 3130000   0.73711421   -6.8690467    864.56159  0.023018147  0.022666577           28 
 3131000   0.75994077   -6.8566701    863.30432  0.022977332  0.022660262           23 
 3132000   0.74062567    -6.880807    863.56151  0.022976839  0.022653941           36 
 3133000   0.75148545   -6.8910261    863.81523  0.022976254  0.022647646           71 
 3134000    0.7497974   -6.8697766    863.07005  0.022949108  0.022641367           20 
 3135000   0.72576872   -6.8841155    863.63773  0.022956877  0.022635059           35 
 3136000   0.73950281    -6.875904    863.98884  0.022958887  0.022628736           53 
 3137000   0.76029866   -6.8660061    864.03023  0.022952668  0.022622435           40 
 3138000   0.76192597   -6.8670415    863.88151  0.022941404   0.02261613           36 
 3139000   0.77401344   -6.8725886    862.81819  0.022905867  0.022609856           21 
 3140000   0.72413144   -6.8550352    863.12191  0.022906632   0.02260356           20 
 3141000   0.74878821   -6.8825503    861.53489  0.022857235  0.022597225           18 
 3142000   0.75956814   -6.8725489    863.21522  0.022894526  0.022590888           16 
 3143000   0.75062068   -6.8675696    862.58373  0.022870499  0.022584549           16 
 3144000     0.733806   -6.8857345    862.98835  0.022873949  0.022578223           29 
 3145000   0.75252694   -6.9107594    862.58667  0.022856032  0.022571896           43 
 3146000   0.74308484   -6.8596182    865.57304  0.022927872  0.022565588           65 
 3147000   0.74596085   -6.8656717    863.22956  0.022858531  0.022559299           71 
 3148000   0.75744354   -6.8501541     863.9336  0.022869907  0.022552993           39 
 3149000   0.74693244   -6.8694278     864.1124  0.022867376  0.022546665           18 
 3150000   0.76991253   -6.8820529    862.75863  0.022824302  0.022540327           43 
 3151000   0.75237166   -6.8752911    862.57705  0.022812257  0.022533981           23 
 3152000   0.74993035   -6.8961433    863.72916  0.022835479  0.022527668           26 
 3153000   0.74537952   -6.8598691    863.26925  0.022816081  0.022521321           17 
 3154000   0.74822265    -6.889089    864.56022  0.022842957  0.022514997           38 
 3155000   0.75925647   -6.8802397     865.4705   0.02285976   0.02250866           36 
 3156000   0.74953231   -6.8950518    861.72664  0.022753661  0.022502297           63 
 3157000   0.75949166   -6.8921157     864.5862  0.022821935  0.022495952           56 
 3158000   0.74774037   -6.9077968    863.47129  0.022785288  0.022489599           51 
 3159000   0.74554503    -6.872502    864.18539  0.022796913  0.022483271           50 
 3160000   0.74631359   -6.8557057    863.06594  0.022760178  0.022476978           93 
 3161000   0.75834781   -6.8692875     862.9255  0.022749275  0.022470638           55 
 3162000   0.73189439   -6.8788396    862.01287  0.022718028  0.022464289           81 
 3163000   0.73931721   -6.9136416    862.11076  0.022713425  0.022457933           73 
 3164000   0.73630877   -6.8956399    862.82124  0.022724959   0.02245156           54 
 3165000   0.75220635   -6.8802527    863.73193  0.022741757  0.022445193           25 
 3166000   0.74746639   -6.8855064    863.08691  0.022717596  0.022438843           28 
 3167000   0.74237955   -6.8855962    864.83169  0.022756333    0.0224325           75 
 3168000   0.73831448   -6.8732669    863.89772  0.022724582  0.022426155           65 
 3169000   0.75495085   -6.8888945    864.35834  0.022729524  0.022419782           48 
 3170000   0.73786197   -6.8872408    864.90033  0.022736602   0.02241341           34 
 3171000   0.74359629   -6.8957729     864.5183  0.022719392  0.022407057           29 
 3172000   0.72852146   -6.9024758    861.65254  0.022636941  0.022400678           52 
 3173000   0.72481674   -6.8961234    862.20577  0.022644337  0.022394306           26 
 3174000   0.76168692   -6.8845112    863.66555  0.022675529  0.022387928           19 
 3175000   0.74788583   -6.8934582    863.70244  0.022669355  0.022381538           24 
 3176000   0.74606135   -6.8921539    864.65592  0.022687236  0.022375173           34 
 3177000    0.7454276   -6.8909531    862.70444  0.022628907  0.022368798           49 
 3178000    0.7389674   -6.8860723     863.5026  0.022642716  0.022362424           31 
 3179000   0.73888653   -6.8789741    864.30344  0.022656586  0.022356063           15 
 3180000   0.73482786   -6.8664089    863.28404  0.022622747  0.022349711           32 
 3181000   0.73218552    -6.882519    863.56231  0.022622926  0.022343373           66 
 3182000   0.74486184   -6.8696749    863.33765  0.022609932  0.022337042          139 
 3183000   0.73491614   -6.8964712    866.83982  0.022694518  0.022330715           36 
 3184000   0.72681874   -6.8694489    864.30687  0.022621097  0.022324396           30 
 3185000   0.72904265   -6.8539951    864.14558  0.022609774  0.022318088           50 
 3186000   0.74191035   -6.8693937    864.38116   0.02260884  0.022311761           45 
 3187000   0.74514714   -6.8876318    863.37997  0.022575567  0.022305419           40 
 3188000   0.74211118   -6.9018264    866.49595  0.022649936  0.022299095           29 
 3189000    0.7337245    -6.877529    865.92363  0.022627878  0.022292791           21 
 3190000   0.74273789   -6.9129356    862.92077   0.02254234  0.022286479           16 
 3191000   0.73840622   -6.8811533    865.29026  0.022597155  0.022280165           21 
 3192000   0.74794576   -6.8757345     866.1875    0.0226135   0.02227386           29 
 3193000   0.73965164   -6.8923331    864.42051  0.022560301  0.022267555           21 
 3194000   0.73704253   -6.8832655     867.2527  0.022627132  0.022261269           40 
 3195000   0.73904536   -6.8695854    865.87445  0.022584102  0.022255002           27 
 3196000   0.73298177   -6.9161419    865.52823  0.022568008  0.022248707           21 
 3197000   0.72891613   -6.8803571    866.56604     0.022588  0.022242397           28 
 3198000   0.74185915   -6.8867052    866.35613  0.022575467  0.022236106           15 
 3199000    0.7343838   -6.8770876     865.5415  0.022547189  0.022229825           22 
 3200000   0.73149445   -6.8817223    867.42998  0.022589322  0.022223555           20 
 3201000   0.74076498   -6.9000773    864.42372  0.022504002  0.022217271           28 
 3202000   0.73101438   -6.8950324     866.0345  0.022538895  0.022210976           13 
 3203000   0.75148857   -6.8957062    866.47677  0.022543365  0.022204689           16 
 3204000   0.73666491   -6.8880522    865.88028  0.022520815  0.022198436           16 
 3205000    0.7288309   -6.8674097    866.47884  0.022529351  0.022192184           12 
 3206000   0.75385615   -6.8816936    866.65917  0.022527011  0.022185901           21 
 3207000   0.74439562   -6.8738386    867.45974  0.022540789   0.02217961           27 
 3208000   0.72622509   -6.9040608    865.89105  0.022493014  0.022173312           17 
 3209000   0.74805554   -6.8945657    865.66369    0.0224801  0.022167055           23 
 3210000   0.74103662   -6.8967641    866.79709  0.022502521   0.02216077           30 
 3211000    0.7497169   -6.9029027    867.61256  0.022516676  0.022154508           29 
 3212000   0.74454111    -6.899117    864.95525  0.022440724  0.022148237           22 
 3213000   0.73835539   -6.8822699    869.11211  0.022541553  0.022141989           75 
 3214000   0.72824731   -6.8911291     867.8709  0.022502357   0.02213573           49 
 3215000   0.73846695   -6.9057934    866.51998  0.022460342  0.022129485           24 
 3216000   0.74037804   -6.8812191    866.66204  0.022457039  0.022123247           38 
 3217000   0.72931622   -6.8802793    866.79531   0.02245351  0.022116995           22 
 3218000   0.72212068   -6.9397585    867.00401  0.022451937  0.022110742           18 
 3219000   0.74287709   -6.9173979    867.73184  0.022463805   0.02210449          134 
 3220000   0.74556814    -6.923061    869.07527  0.022491596  0.022098191           80 
 3221000   0.73022872   -6.8870562    865.84402  0.022401015  0.022091934           71 
 3222000   0.73296519   -6.9061389    867.19101  0.022428901   0.02208567          100 
 3223000   0.73820949   -6.9226464    865.44568  0.022376814  0.022079382          138 
 3224000   0.73098727   -6.8962691    867.28746   0.02241748  0.022073127          176 
 3225000   0.72179567   -6.9083258    866.09712   0.02237977  0.022066883          186 
 3226000   0.74441467   -6.9066008    866.27508   0.02237743  0.022060638          123 
 3227000   0.74273656   -6.8929888    866.06887  0.022365171  0.022054366           98 
 3228000   0.74017186   -6.8839507     868.0232  0.022408695   0.02204813           63 
 3229000   0.73085089   -6.9179843    866.77291  0.022369488  0.022041886           52 
 3230000   0.74968073   -6.9272556    866.95661  0.022367301   0.02203563          117 
 3231000   0.73940325   -6.9004802    868.55444   0.02240159  0.022029362           64 
 3232000   0.75411268   -6.9082246    866.81747  0.022349873  0.022023071           77 
 3233000   0.73876118   -6.9020668    867.32332  0.022355999  0.022016791          159 
 3234000   0.74005332   -6.9053908    868.04423  0.022367662  0.022010514           85 
 3235000    0.7257058   -6.9239222    866.18656  0.022312894   0.02200424          195 
 3236000   0.71656458   -6.9175932    866.61955  0.022317149  0.021997937          178 
 3237000   0.74071777   -6.9464843    865.16554  0.022272823  0.021991614           80 
 3238000   0.74540784   -6.9083755    865.20989  0.022267086  0.021985325           60 
 3239000   0.73813898   -6.9216994     866.0169  0.022280974   0.02197905           57 
 3240000   0.74481366   -6.9047607    868.01556  0.022325503  0.021972792           56 
 3241000   0.73175388   -6.8929325    869.75028  0.022363218  0.021966549           66 
 3242000   0.72270288   -6.8956307    867.21738  0.022291214  0.021960329           77 
 3243000   0.72689391   -6.8842528    869.29625   0.02233776  0.021954132           37 
 3244000   0.72979594   -6.8734372    868.64177  0.022314061  0.021947957           56 
 3245000   0.73251733   -6.9200371    870.64831  0.022358714  0.021941799           18 
 3246000   0.73471159   -6.8874473    869.88036   0.02233211   0.02193562           33 
 3247000    0.7336067   -6.8937886    868.65458  0.022293773  0.021929437           44 
 3248000   0.73661014   -6.9189102    870.08988  0.022323735   0.02192327           29 
 3249000   0.72174324   -6.9064067    866.21261  0.022217416  0.021917065           31 
 3250000   0.73627668   -6.9051076    869.16847  0.022286371   0.02191085           18 
 3251000   0.72579531   -6.9189249    868.95003  0.022273917  0.021904619           13 
 3252000   0.73321097   -6.9069715     868.4794  0.022255007  0.021898393           18 
 3253000   0.72194321   -6.8990029    868.87154  0.022258211  0.021892185           32 
 3254000    0.7271804   -6.9130902    870.07224  0.022282121  0.021885973          101 
 3255000   0.72452823   -6.9273008    868.72255  0.022240721   0.02187975           31 
 3256000   0.72813316   -6.9167824    870.61737  0.022282386  0.021873548           54 
 3257000   0.72931755   -6.8975776    869.90802  0.022257395  0.021867364           41 
 3258000   0.74052843   -6.9039191     869.0192  0.022227829   0.02186119           17 
 3259000   0.73447758   -6.9140623    868.77002  0.022214637  0.021854993           24 
 3260000   0.73603151   -6.9219805    868.30562  0.022195951  0.021848771           30 
 3261000   0.72424582   -6.9037825     871.7368  0.022276827  0.021842604           38 
 3262000   0.73301086   -6.9099134    869.87402   0.02222241  0.021836421           34 
 3263000   0.74612316   -6.9237004    868.45606  0.022179386  0.021830239           53 
 3264000   0.73030201    -6.911156    870.03951  0.022213019  0.021824053           24 
 3265000   0.73944273   -6.9082563    869.62201  0.022195559  0.021817853           28 
 3266000    0.7408924   -6.9322425    867.86909  0.022144037  0.021811667           50 
 3267000   0.72248762   -6.9136597    868.91763  0.022164005  0.021805475           44 
 3268000   0.72108315   -6.9115323    869.45167   0.02217084  0.021799287           39 
 3269000    0.7521394   -6.8995646    869.62236  0.022168409  0.021793082           23 
 3270000   0.72681659    -6.910898    870.27452   0.02217825  0.021786904           32 
 3271000   0.73696975   -6.9183879    870.53982  0.022178228  0.021780724           48 
 3272000   0.70857716    -6.921542    866.84523  0.022077354  0.021774528           12 
 3273000   0.73068115   -6.9327785      868.734  0.022118698  0.021768315           18 
 3274000   0.72032959   -6.9217971    870.90764  0.022167268  0.021762104           35 
 3275000   0.73921027   -6.9247123    868.46752   0.02209841  0.021755913           81 
 3276000   0.71739895   -6.9005608     868.5875  0.022094717  0.021749705           81 
 3277000   0.72826665    -6.925813    869.56823  0.022112914   0.02174349           52 
 3278000     0.730244   -6.9199768    869.11495  0.022094645  0.021737295           69 
 3279000   0.75175482   -6.9156562    869.80314  0.022105396  0.021731114           36 
 3280000   0.73425668   -6.9042124    870.05372  0.022105023  0.021724935           36 
 3281000   0.72635705   -6.9405226    869.94809  0.022095603  0.021718756           34 
 3282000   0.72078632   -6.9099756     871.1021  0.022118172  0.021712568           38 
 3283000    0.7402462   -6.8982455    869.83731  0.022079331  0.021706374           81 
 3284000   0.71288762   -6.9288506    870.31119  0.022084632  0.021700212           63 
 3285000   0.71786764   -6.9370516    867.46037   0.02200559  0.021694033           94 
 3286000   0.72864383   -6.9217417    871.90631  0.022111643  0.021687855           47 
 3287000   0.73167113   -6.9264895    871.18727  0.022086687  0.021681697           70 
 3288000   0.73028185    -6.929565    870.21131  0.022055234  0.021675532           70 
 3289000   0.74438125   -6.9013743    870.91938  0.022066468   0.02166942           90 
 3290000   0.72936099   -6.9065405    872.76768  0.022106577  0.021663284           55 
 3291000   0.72542611   -6.9450411    871.50897  0.022067988  0.021657146           87 
 3292000   0.72351508   -6.9013161    868.16408  0.021976612  0.021651002           61 
 3293000   0.72320722   -6.9373565    871.13473  0.022045114  0.021644852          141 
 3294000   0.70509213   -6.9453165    871.25558  0.022041479  0.021638689          164 
 3295000   0.72444799   -6.9203741    871.91356   0.02205143  0.021632552          100 
 3296000    0.7231143   -6.9300284    871.32601  0.022029885  0.021626427           64 
 3297000   0.73685368   -6.9477411    869.73464   0.02198298  0.021620295           57 
 3298000   0.71758528   -6.9418392     871.1005  0.022010827   0.02161414          101 
 3299000   0.72396509    -6.946298    871.91151  0.022024642  0.021607989           70 
 3300000   0.71342548   -6.9356684    871.90015  0.022017681  0.021601856           60 
 3301000   0.72593394   -6.9588973    871.06641  0.021989963    0.0215957           65 
 3302000   0.72782137   -6.9382015    873.16919  0.022036372  0.021589547           91 
 3303000   0.71086279   -6.9328615    871.43877  0.021986042  0.021583409           94 
 3304000   0.70827833   -6.9317883    872.89912  0.022016221   0.02157727          129 
 3305000   0.72110496   -6.9127926    870.76688  0.021955796  0.021571139           75 
 3306000   0.73652965   -6.9367442    869.74131  0.021923304  0.021564981          126 
 3307000   0.70541361   -6.9385181    868.67727  0.021889862  0.021558817           86 
 3308000   0.71400308   -6.9193414    870.99991  0.021941755  0.021552659          154 
 3309000   0.72501093   -6.9523607    868.81846  0.021880187  0.021546524          170 
 3310000   0.73166967   -6.9158632    872.37271  0.021963059  0.021540372          153 
 3311000   0.72221529   -6.9443749    870.22159  0.021902285  0.021534209          153 
 3312000   0.72834178   -6.9839984    871.41832  0.021925783   0.02152803          197 
 3313000   0.72008742   -6.9213513    872.41859  0.021944325  0.021521891          215 
 3314000    0.7375197   -6.9441338    870.47515  0.021888834  0.021515754          249 
 3315000   0.72837341   -6.9376719     870.8411   0.02189143  0.021509608          200 
 3316000   0.71841448   -6.9348488    872.47812  0.021925968  0.021503463          231 
 3317000   0.71203988   -6.9535348    871.21641   0.02188766  0.021497329          235 
 3318000   0.72503707   -6.9552779    870.49566  0.021862961   0.02149118          213 
 3319000   0.73095273   -6.9470175    871.10247   0.02187161  0.021485016          207 
 3320000   0.72467633   -6.9495394    870.48843  0.021849609  0.021478852          289 
 3321000   0.72732198   -6.9192609    870.52859  0.021844038  0.021472693          237 
 3322000   0.71267712   -6.9551158    868.82316  0.021794681  0.021466547          236 
 3323000   0.72893226   -6.9474598    870.44106  0.021828695  0.021460389          203 
 3324000   0.73295459   -6.9533248    870.71861  0.021829087  0.021454221          191 
 3325000   0.71439849    -6.952334    868.89067  0.021776709   0.02144807          174 
 3326000   0.71770118   -6.9269698    873.14434  0.021876737  0.021441923          188 
 3327000   0.72221758   -6.9697091    870.33987  0.021799917  0.021435766          180 
 3328000   0.72997825   -6.9397684    872.24384  0.021841042  0.021429612          158 
 3329000   0.71348377   -6.9572456    871.75179  0.021822163   0.02142347          286 
 3330000   0.72531957   -6.9444657    872.02796  0.021822521  0.021417332          237 
 3331000   0.69764554   -6.9550995    872.16118  0.021819303  0.021411211          144 
 3332000   0.71960295   -6.9316417    872.79934  0.021828715  0.021405079          179 
 3333000    0.7309156   -6.9647771    872.14586  0.021805827  0.021398965          173 
 3334000   0.73158547   -6.9636189    871.96987  0.021794888  0.021392869          104 
 3335000   0.71634214   -6.9608417    871.28992  0.021771362  0.021386756          215 
 3336000   0.70322773   -6.9396538    871.91483  0.021780446  0.021380658          130 
 3337000   0.70788351   -6.9653043     870.4805  0.021738101  0.021374545          133 
 3338000    0.7245304   -6.9700409    871.58441  0.021759147  0.021368438          173 
 3339000   0.70834144   -6.9190409    871.91724  0.021760937  0.021362345          200 
 3340000   0.70491599    -6.926896    872.82874  0.021777164  0.021356242          166 
 3341000    0.7221701   -6.9323011    871.72507  0.021743118  0.021350155          150 
 3342000   0.72835831   -6.9467513     872.2646  0.021750065  0.021344076          262 
 3343000   0.73120024   -6.9414855    873.36205  0.021770916   0.02133802          244 
 3344000   0.70307156   -6.9328333    870.37199  0.021689892  0.021331937          238 
 3345000   0.70588446   -6.9541504    871.25116   0.02170531  0.021325857          290 
 3346000   0.73227389    -6.944673    873.33173  0.021750641  0.021319782          301 
 3347000   0.71565003   -6.9631648    871.62788   0.02170172  0.021313709          348 
 3348000   0.69907346   -6.9477213    870.98719  0.021679291  0.021307604          328 
 3349000   0.68948057   -6.9586998    872.46228  0.021709522  0.021301509          317 
 3350000   0.71701564    -6.927099    872.71808  0.021709405   0.02129543          397 
 3351000   0.71849862    -6.942449        872.3  0.021692529  0.021289374          357 
 3352000   0.71588788   -6.9368601    872.90646  0.021701135  0.021283314          340 
 3353000   0.70439608   -6.9897312    873.52777  0.021710105  0.021277227          312 
 3354000   0.72788403   -6.9888522    874.22868  0.021721047  0.021271121          378 
 3355000   0.73562431   -6.9648195    874.47586  0.021720712   0.02126504          322 
 3356000   0.69665369   -6.9539123    871.41029  0.021638118  0.021258944          360 
 3357000   0.71961284   -7.0083967    872.07115  0.021648077   0.02125285          382 
 3358000   0.70384305   -6.9601831    873.58776  0.021679268  0.021246755          297 
 3359000   0.71227061     -6.97615    871.08173  0.021610641  0.021240671          389 
 3360000   0.71827001   -6.9661788    873.26697  0.021658407  0.021234577          386 
 3361000   0.70928168   -7.0108256    871.78471  0.021615211  0.021228472          432 
 3362000   0.70709077   -7.0008611     873.0893  0.021641119  0.021222366          456 
 3363000   0.70205674   -6.9800482    874.24009    0.0216632  0.021216265          489 
 3364000   0.69638249   -6.9874457    871.36538  0.021585547  0.021210153          458 
 3365000    0.6935915     -6.98301    873.60965  0.021634711  0.021204045          435 
 3366000   0.70687033   -6.9980719    873.09281  0.021615488  0.021197918          518 
 3367000   0.70336781   -6.9841972    873.82565  0.021627206  0.021191803          510 
 3368000   0.70283772     -7.01308    872.23789    0.0215815  0.021185684          516 
 3369000   0.70472218   -6.9861129    873.73975  0.021612243  0.021179566          581 
 3370000    0.7135861   -6.9603324    871.71249    0.0215557  0.021173449          606 
 3371000   0.70935265   -7.0043619    872.62861  0.021571952  0.021167319          610 
 3372000   0.69619713   -6.9956937     871.4072   0.02153537  0.021161179          596 
 3373000   0.70695178    -7.008152    871.48833   0.02153099  0.021155051          632 
 3374000   0.72222087   -7.0001183     872.4096  0.021547362  0.021148921          681 
 3375000   0.70825005   -7.0181798    872.01413  0.021531213  0.021142807          719 
 3376000   0.71337764   -6.9949997    873.04242  0.021550218  0.021136692          642 
 3377000   0.70679484   -6.9938467    872.79493  0.021537729  0.021130554          638 
 3378000   0.69880588   -6.9967146    872.54228   0.02152512  0.021124434          692 
 3379000   0.73392253   -7.0067139    873.85526  0.021551131  0.021118311          703 
 3380000   0.71003752   -7.0010977    874.46703  0.021559838  0.021112202          609 
 3381000   0.69881358   -7.0266923    872.19727  0.021497517  0.021106074          662 
 3382000   0.70496641   -7.0186588    872.47077    0.0214979  0.021099952          699 
 3383000   0.70221256   -7.0210818    873.24028  0.021510501  0.021093827          668 
 3384000   0.70800806   -7.0240405    871.14854  0.021452633  0.021087679          756 
 3385000   0.72412033   -7.0010664    871.27291  0.021449358  0.021081516          844 
 3386000   0.70383121   -7.0161521    871.26139   0.02144274  0.021075364          876 
 3387000   0.70194321   -7.0356262    869.69535  0.021397878  0.021069192          855 
 3388000   0.70765328   -7.0202647    870.30192  0.021406482   0.02106303          861 
 3389000   0.71453133   -7.0186927    870.77758  0.021411861  0.021056885          890 
 3390000   0.70181825   -7.0284446    871.40842  0.021421053  0.021050729          904 
 3391000    0.6936562   -7.0125938    873.05572  0.021455218  0.021044585          851 
 3392000     0.709461   -7.0195145    871.15598   0.02140222  0.021038459          867 
 3393000   0.71316123   -7.0399432     869.4714  0.021354539  0.021032316          873 
 3394000   0.71439694   -7.0211217    871.14987  0.021389459  0.021026155          966 
 3395000    0.7143937   -7.0323021    870.62626  0.021370306  0.021019989          981 
 3396000   0.71884354   -7.0548991    870.49297  0.021360742  0.021013816         1012 
 3397000   0.70692881   -7.0584521    870.88608  0.021364098  0.021007628         1030 
 3398000   0.71558494   -7.0488491    869.61661  0.021326678  0.021001428         1063 
 3399000   0.69989156   -7.0564295    870.21673  0.021335116   0.02099521         1089 
 3400000    0.7024255   -7.0653709     870.6655  0.021339841  0.020988981         1080 
 3401000    0.6963523   -7.0695565     869.4151  0.021302928  0.020982763         1146 
 3402000   0.70297497     -7.06267    869.82427  0.021306689  0.020976537         1198 
 3403000   0.69590123   -7.0851441     869.9221  0.021302823  0.020970312         1222 
 3404000   0.68664371    -7.060421    869.42666  0.021284436  0.020964093         1278 
 3405000   0.71516736   -7.0793809    867.77608   0.02123779  0.020957829         1301 
 3406000   0.72294271   -7.1010563    869.01628  0.021261898  0.020951561         1321 
 3407000    0.6929112   -7.0956077    868.00682  0.021230966  0.020945283         1408 
 3408000   0.72310964   -7.0987334    867.36626  0.021209073  0.020939005         1434 
 3409000   0.70429963   -7.1155161    867.53102  0.021206879   0.02093271         1446 
 3410000   0.69316536   -7.0754123    866.19555  0.021168024  0.020926413         1456 
 3411000   0.71640021   -7.1143573    868.39519  0.021215557  0.020920125         1454 
 3412000   0.70390682    -7.109917    868.12531  0.021202748  0.020913809         1493 
 3413000    0.6993092   -7.1009372    868.47542  0.021205084  0.020907503         1476 
 3414000   0.72067397   -7.1344623    866.73309  0.021156344  0.020901192         1581 
 3415000   0.72266055   -7.0970262    868.95332  0.021204327  0.020894867         1621 
 3416000   0.69749415   -7.1068621    865.85963  0.021122649  0.020888543         1727 
 3417000   0.70001098   -7.1263721     867.0768  0.021146151  0.020882216         1721 
 3418000   0.70162989   -7.1268376    867.93855  0.021160975  0.020875887         1784 
 3419000   0.70171801   -7.1391623    865.59144  0.021097578  0.020869549         1870 
 3420000   0.69703686   -7.1551895    865.64255  0.021092655   0.02086318         1969 
 3421000   0.70387076   -7.1564322    868.01038  0.021144168  0.020856807         2087 
 3422000   0.69305035   -7.1674444     865.9655  0.021088192   0.02085042         2107 
 3423000   0.71247414   -7.1684034    866.40056  0.021092622  0.020844005         2121 
 3424000   0.70500036   -7.1840286    865.51634  0.021064942  0.020837588         2089 
 3425000   0.69521999   -7.1868256    865.67908  0.021062751  0.020831166         2135 
 3426000   0.70613693   -7.2066759    863.11703  0.020994285   0.02082473         2194 
 3427000   0.71167975   -7.1573062    865.49029  0.021045868  0.020818312         2080 
 3428000   0.71075146    -7.192977     865.1972  0.021032604  0.020811887         2177 
 3429000   0.69607169   -7.1979571    863.90595   0.02099509  0.020805452         2218 
 3430000   0.70237839   -7.1735802    866.23186  0.021045478  0.020799026         2234 
 3431000   0.68918203     -7.18109    865.41523  0.021019509   0.02079259         2180 
 3432000    0.7097562   -7.2246653    864.54554  0.020992267  0.020786126         2318 
 3433000   0.69878093   -7.2077456     866.5161  0.021033986  0.020779681         2300 
 3434000   0.69634535    -7.220765    864.26645  0.020973268  0.020773223         2351 
 3435000   0.71165495   -7.2184191    863.39005  0.020945901  0.020766722         2479 
 3436000   0.69969627   -7.2180745    863.46626  0.020941653  0.020760226         2468 
 3437000   0.70618276   -7.2005695    863.66259  0.020940321   0.02075373         2437 
 3438000   0.70018623    -7.235259    861.80013  0.020889086  0.020747228         2532 
 3439000   0.70477806   -7.2416498    861.98367  0.020887459  0.020740712         2565 
 3440000   0.69927259   -7.2463436    864.04818    0.0209314  0.020734183         2597 
 3441000   0.69030551    -7.250097    861.17223  0.020855668  0.020727632         2605 
 3442000   0.70220545   -7.2608306    860.97606  0.020844859  0.020721067         2732 
 3443000   0.71430871   -7.2681833    861.27223  0.020845973  0.020714494         2742 
 3444000   0.71041608   -7.2510811     861.0827  0.020835334  0.020707921         2771 
 3445000   0.69321001    -7.271764     862.0916  0.020853691  0.020701334         2783 
 3446000   0.69690356    -7.267352    860.24688   0.02080303  0.020694741         2844 
 3447000   0.70813129   -7.2631261    859.93833  0.020789535  0.020688133         2890 
 3448000   0.69491315   -7.2776252    859.91696  0.020782989   0.02068154         2898 
 3449000   0.69971073   -7.2733322    860.08221  0.020780956  0.020674943         2891 
 3450000   0.69724142   -7.2895846    860.93931  0.020795636   0.02066832         2872 
 3451000   0.70135705   -7.2939605    861.67808  0.020807449  0.020661699         2906 
 3452000    0.7051865   -7.2863049    859.63158  0.020752018  0.020655082         2931 
 3453000   0.71780818   -7.2819148    859.35301  0.020739285  0.020648479         2955 
 3454000   0.68976759   -7.2967933    859.99478  0.020748764  0.020641852         2943 
 3455000   0.69276013   -7.2753303    860.89713  0.020764523  0.020635241         2917 
 3456000   0.70177494   -7.2777945    860.36562  0.020745699  0.020628616         2960 
 3457000   0.69978702   -7.3214194    858.83623  0.020702831  0.020621991         2964 
 3458000    0.6913772   -7.2686405    860.91599  0.020746963  0.020615366         2935 
 3459000   0.71251361   -7.2944651    859.09295  0.020697045  0.020608738         2942 
 3460000    0.7237158   -7.3115688    859.18698  0.020693328  0.020602113         2961 
 3461000   0.69784736   -7.2762525    859.35568  0.020691411  0.020595478         2931 
 3462000   0.70523569   -7.2957705    859.57024  0.020690599  0.020588845         2980 
 3463000   0.69779848   -7.2885316    859.48969  0.020682686  0.020582212         2965 
 3464000   0.69217161   -7.3013881    860.22866  0.020694492  0.020575578         3003 
 3465000   0.70852442   -7.3015655     857.9463  0.020633629  0.020568926         3030 
 3466000   0.69711095   -7.3063505    859.28355  0.020659828  0.020562286         3007 
 3467000   0.70149058   -7.3229704    859.42411  0.020657247  0.020555647         3000 
 3468000   0.72614836   -7.3149705    858.27674   0.02062372  0.020549006         2983 
 3469000   0.68936609   -7.3122709    860.63799  0.020674498  0.020542364         2947 
 3470000   0.68932041    -7.314501    859.32558  0.020637022  0.020535735         3006 
 3471000   0.68924297   -7.2977635    861.66131  0.020687153  0.020529109         2888 
 3472000   0.69098761   -7.3132788    859.45219  0.020628173  0.020522481         2994 
 3473000   0.69379685   -7.3235351    860.54582  0.020648475  0.020515852         2976 
 3474000   0.69646407   -7.3128043    857.41843  0.020567512   0.02050921         2970 
 3475000   0.69453978   -7.3438881    858.27437  0.020582119  0.020502556         3027 
 3476000   0.69355557   -7.3253133    858.21485  0.020574771  0.020495902         3049 
 3477000    0.6903786   -7.3209755    857.45529  0.020550649  0.020489262         2971 
 3478000   0.70607608   -7.2914059    858.81317  0.020577275  0.020482625         3016 
 3479000   0.71397231    -7.329041    857.83227  0.020547865  0.020475981         3049 
 3480000    0.6728366   -7.3231287    860.23971   0.02059961  0.020469337         2959 
 3481000   0.70444434   -7.3337888    858.81654  0.020559622  0.020462684         3030 
 3482000   0.70930909   -7.3531379    858.67349  0.020550294  0.020456016         3053 
 3483000   0.68277791   -7.3264201    858.07512  0.020530077  0.020449356         3058 
 3484000   0.69897101   -7.3368495    858.23767  0.020528073  0.020442698         3060 
 3485000   0.69456726   -7.3364699    857.81017   0.02051196  0.020436035         3073 
 3486000   0.69632941   -7.3585822    859.09234  0.020536726  0.020429367         3123 
 3487000   0.67594961   -7.3317063    858.20907  0.020509728  0.020422695         3094 
 3488000   0.69282683   -7.3539267    857.30275  0.020482195   0.02041603         3067 
 3489000   0.68956199   -7.3402187    858.68044   0.02050923  0.020409355         3143 
 3490000   0.67635237   -7.3383674    858.84091  0.020507185  0.020402688         3080 
 3491000   0.70509398   -7.3165104    856.22542  0.020438877  0.020396014         3118 
 3492000    0.7014676   -7.3364658    857.96765    0.0204746  0.020389349         3118 
 3493000   0.69334431   -7.3504499    858.31126  0.020476936   0.02038268         3136 
 3494000   0.70962006   -7.3450328    858.43195  0.020473954  0.020376003         3108 
 3495000   0.70174033   -7.3628857    856.67711  0.020426255  0.020369308         3143 
 3496000   0.67411793   -7.3665651    856.68548  0.020420611  0.020362614         3211 
 3497000   0.68587682   -7.3481051    856.62609  0.020413357  0.020355918         3163 
 3498000   0.70437259   -7.3532596    858.07434  0.020442023  0.020349232         3122 
 3499000   0.67909448   -7.3409904    857.10682  0.020413138  0.020342543         3193 
 3500000   0.68323642   -7.3456233     857.3062  0.020412052  0.020335858         3123 
 3501000   0.69247953   -7.3564874    857.80282  0.020418043  0.020329178         3095 
 3502000   0.69173802   -7.3579367    856.80177  0.020388392  0.020322502         3100 
 3503000   0.70588349   -7.3427666    856.81646  0.020382921  0.020315827         3047 
 3504000    0.6874312   -7.3417137    857.99605  0.020405157  0.020309161         3165 
 3505000   0.67680255   -7.3464067    856.39108  0.020361176  0.020302477         3106 
 3506000   0.68899403   -7.3744581    857.94734  0.020392359  0.020295796         3086 
 3507000   0.69265533   -7.3388015     856.4377  0.020350672  0.020289114         3087 
 3508000   0.68541668   -7.3586899    858.67259  0.020397962  0.020282438         3139 
 3509000   0.67425411   -7.3805163    854.76507  0.020299351  0.020275731         3175 
 3510000   0.70134477   -7.3462184    857.31912  0.020354205  0.020269037         3166 
 3511000   0.69118623   -7.3811154    856.10327   0.02031955   0.02026234         3164 
 3512000   0.68614089   -7.3665797    853.94662  0.020262591  0.020255659         3127 
 3513000   0.70707223    -7.367268    856.62484  0.020320354  0.020248974         3155 
 3514000   0.70779424   -7.3638696    856.97196  0.020322803  0.020242285         3119 
 3515000   0.69318984   -7.3767203    856.25412  0.020300003  0.020235602         3191 
 3516000   0.68513836   -7.3605866    856.63942  0.020303361  0.020228902         3162 
 3517000   0.67587169   -7.3920713    854.23363  0.020240584  0.020222208         3227 
 3518000   0.69906598   -7.3373332    855.72727  0.020270212  0.020215515         3233 
 3519000   0.68527817    -7.371854    856.77983  0.020289377   0.02020883         3245 
 3520000   0.68722637   -7.3600258    858.44043  0.020322927  0.020202134         3210 
 3521000   0.69573666   -7.4129947    856.95345  0.020281962   0.02019544         3242 
 3522000   0.69009257   -7.3688009    855.35249  0.020238323  0.020188739         3236 
 3523000   0.70241834   -7.3867516    856.39996  0.020257355  0.020182041         3239 
 3524000   0.68939612   -7.3727059    854.07316  0.020196584  0.020175356         3259 
 3525000   0.68543565   -7.3485224    856.04427  0.020237453  0.020168658         3245 
 3526000   0.70223893   -7.4043175    854.32434  0.020191065  0.020161966         3264 
 3527000   0.69648049   -7.3732296    855.19684  0.020205955  0.020155278         3256 
 3528000   0.67724073     -7.37312    854.48423  0.020183395  0.020148588         3244 
 3529000   0.69005865   -7.3515509    856.73293  0.020230777  0.020141899         3188 
 3530000   0.68825577   -7.3949185    855.99225   0.02020756  0.020135204         3209 
 3531000   0.69173348   -7.3717348    856.69662  0.020218461  0.020128525         3203 
 3532000   0.68017183   -7.3653139    856.40202  0.020205786  0.020121826         3220 
 3533000   0.67636956   -7.3911268    855.64315  0.020182167  0.020115142         3224 
 3534000   0.69458732   -7.4014366    855.07952  0.020163165  0.020108452         3245 
 3535000   0.67911329   -7.3667833    854.21512  0.020137084  0.020101775         3287 
 3536000   0.69212924   -7.3890852    855.80821  0.020168934  0.020095095         3267 
 3537000   0.68952787   -7.3884193    857.90196  0.020212561   0.02008841         3268 
 3538000   0.68769296   -7.3958377    855.02483  0.020139081  0.020081719         3334 
 3539000    0.6799637    -7.389676     854.7842  0.020127724  0.020075028         3274 
 3540000   0.69730942   -7.3795744    856.21623  0.020155749  0.020068343         3310 
 3541000   0.68087766    -7.364737    855.44392  0.020131882  0.020061646         3320 
 3542000   0.67446992   -7.3750201    856.33755  0.020147223   0.02005495         3286 
 3543000   0.67946218   -7.4028188    854.72956  0.020103715  0.020048254         3278 
 3544000   0.68172673   -7.3999877    855.57631  0.020117953  0.020041561         3324 
 3545000   0.70756926   -7.3901509    854.78093  0.020093581  0.020034883         3311 
 3546000   0.67968808    -7.390102    855.22429  0.020098334  0.020028189         3312 
 3547000   0.66591557   -7.4010729    855.87267    0.0201079  0.020021508         3321 
 3548000   0.68673591   -7.3917999    855.92911  0.020103559  0.020014805         3253 
 3549000    0.6896641   -7.3834197      853.849  0.020049051  0.020008122         3248 
 3550000   0.68616076   -7.4129818    854.59946   0.02006102  0.020001444         3279 
 3551000   0.67998953   -7.3951792    856.06563  0.020089778  0.019994769         3330 
 3552000   0.68651619   -7.3962493    854.90703   0.02005694  0.019988082         3273 
 3553000   0.68401734   -7.3989046    854.49295  0.020041583  0.019981407         3314 
 3554000   0.68362911   -7.3873228    855.61261  0.020062198  0.019974726         3264 
 3555000   0.68292628    -7.393732    853.59602  0.020009283  0.019968048         3313 
 3556000   0.70172401   -7.3780907     855.1372  0.020039773  0.019961374         3269 
 3557000   0.69018093   -7.3992356    853.18063  0.019988301    0.0199547         3298 
 3558000   0.69536506   -7.3760973    855.89947  0.020046362  0.019948032         3311 
 3559000   0.69288738    -7.415526    854.24643  0.020002024  0.019941354         3278 
 3560000   0.68814712    -7.404792    855.16231  0.020017844  0.019934676         3285 
 3561000   0.68615251   -7.3969105    854.34233  0.019993034  0.019927995         3297 
 3562000   0.67162183   -7.3722024    854.94608  0.020001546  0.019921332         3255 
 3563000    0.6703679   -7.4020224    854.65241  0.019989064  0.019914669         3291 
 3564000   0.69148625   -7.4175429    854.00504  0.019968318  0.019908003         3327 
 3565000   0.67684216   -7.3918842    855.98307  0.020008954  0.019901335         3271 
 3566000   0.68438561   -7.4104115    855.92846  0.020002067  0.019894665         3307 
 3567000   0.67586106   -7.3967599    854.42842  0.019961415  0.019887995         3281 
 3568000   0.66509812   -7.4055007    853.99364  0.019945666  0.019881326         3322 
 3569000   0.67172196   -7.4021737    854.85123  0.019960102  0.019874652         3274 
 3570000   0.67181367   -7.3962172    855.41948  0.019967775  0.019867988         3280 
 3571000   0.68101767   -7.4193494    854.20359  0.019933809  0.019861307         3271 
 3572000   0.67862297   -7.4276007    854.02324  0.019924021  0.019854634         3305 
 3573000   0.67182116   -7.4004365    852.79807   0.01988987  0.019847953         3281 
 3574000   0.67870219   -7.4059975    854.65529  0.019927609  0.019841274         3317 
 3575000   0.68977103    -7.401684    854.84645  0.019926491  0.019834607         3314 
 3576000      0.68168   -7.3926985     854.4085  0.019910713   0.01982794         3282 
 3577000   0.69709297   -7.4115412    854.79634  0.019914182  0.019821278         3298 
 3578000   0.67687611   -7.4156048    854.10689  0.019892558  0.019814616         3301 
 3579000   0.68460123   -7.3864585    855.40057  0.019917122  0.019807959         3294 
 3580000   0.69072327   -7.3875028    853.79961  0.019874293  0.019801304         3268 
 3581000   0.68371097   -7.4214056    855.39511  0.019905872  0.019794648         3301 
 3582000   0.68280063   -7.4045274    854.09669  0.019870107  0.019787999         3356 
 3583000   0.66824872   -7.4027689    851.62355  0.019807041  0.019781346         3332 
 3584000   0.66964778   -7.3950962     854.6286  0.019871387  0.019774696         3296 
 3585000   0.67998605   -7.4274352    854.05704  0.019852558  0.019768038         3310 
 3586000   0.67327551    -7.431081     854.4613  0.019856416  0.019761382         3328 
 3587000   0.67354467   -7.4237369    853.91352  0.019838154   0.01975472         3348 
 3588000    0.6782765   -7.4342686    854.56327  0.019847716   0.01974807         3332 
 3589000   0.67632798   -7.4041067    851.77468  0.019777438   0.01974142         3305 
 3590000   0.67094362   -7.4229796    853.20297  0.019805083   0.01973477         3347 
 3591000   0.70601437   -7.4131947    855.62201  0.019855704  0.019728129         3355 
 3592000   0.67168574   -7.4231133    854.01983  0.019813007   0.01972148         3357 
 3593000   0.68795256   -7.4194639    854.55776  0.019819969  0.019714827         3307 
 3594000   0.66564894   -7.4305312      854.907  0.019822552  0.019708188         3332 
 3595000   0.68211167   -7.4217565    852.39929  0.019758908  0.019701537         3349 
 3596000    0.6813709   -7.4161051    853.35472  0.019775554   0.01969488         3343 
 3597000   0.68053407   -7.4173975    853.35968  0.019770171  0.019688242         3254 
 3598000    0.6722971   -7.4105084    853.44555  0.019766665  0.019681605         3337 
 3599000   0.66069248   -7.4343364    854.01254  0.019774302  0.019674964         3341 
 3600000   0.67601408   -7.4275726    852.84665  0.019741821  0.019668322         3346 
 3601000   0.67678466   -7.4117528    854.38741  0.019771994  0.019661685         3375 
 3602000   0.67863142   -7.4068296    854.02723  0.019758172  0.019655041         3360 
 3603000   0.67156465   -7.4320645    854.51611  0.019763996  0.019648402         3316 
 3604000   0.66407635   -7.4126423    853.03511  0.019724267  0.019641765         3329 
 3605000   0.67147012   -7.4049743    854.08126  0.019742979  0.019635125         3397 
 3606000   0.67556634   -7.4024676    853.89503    0.0197332  0.019628486         3351 
 3607000   0.67534199   -7.4454758    854.11663  0.019732849   0.01962185         3403 
 3608000   0.66335887   -7.4135058    853.70265  0.019717818  0.019615229         3362 
 3609000    0.6777476   -7.4318604    855.74984  0.019759625    0.0196086         3368 
 3610000   0.67689128   -7.4124747    854.88887  0.019734277  0.019601971         3348 
 3611000   0.67270246   -7.4262124    852.59017  0.019675763  0.019595354         3338 
 3612000   0.68433073   -7.4123596    854.01159   0.01970311  0.019588727         3330 
 3613000   0.67608977   -7.4239584    851.90581  0.019649087  0.019582108         3352 
 3614000    0.6895203   -7.4411024     854.4888   0.01970321  0.019575489         3372 
 3615000   0.66517888   -7.4079804    852.32738  0.019647934  0.019568871         3380 
 3616000   0.66550733   -7.4218659    853.68883  0.019673876  0.019562253         3403 
 3617000   0.68424359   -7.4197214    852.31027  0.019636676  0.019555633         3396 
 3618000   0.67357331   -7.4224161    853.75676  0.019664565  0.019549018         3400 
 3619000   0.66296785   -7.4418228    851.87523  0.019615806  0.019542391         3414 
 3620000   0.65190782   -7.4133758    852.98913   0.01963603  0.019535775         3389 
 3621000   0.67890962   -7.4442071    851.95372  0.019606778  0.019529152         3392 
 3622000   0.67445782   -7.4340249    853.31473  0.019632678  0.019522545         3410 
 3623000   0.67385423   -7.4452602    854.30684  0.019650079  0.019515929         3439 
 3624000   0.65416846   -7.4364292    851.78271  0.019586615   0.01950932         3400 
 3625000    0.6805829   -7.4383261    853.86496   0.01962908  0.019502715         3410 
 3626000   0.68737422   -7.4334046    855.06381  0.019651218  0.019496109         3427 
 3627000   0.66322053   -7.4362278    852.21086  0.019580251    0.0194895         3401 
 3628000   0.66656145   -7.4056305    852.91595   0.01959105  0.019482892         3375 
 3629000   0.67501525   -7.4271892    852.85176  0.019584178  0.019476283         3389 
 3630000   0.67699781   -7.4362874    851.89527  0.019556824  0.019469676         3389 
 3631000    0.6520803   -7.4108255    853.22138  0.019581873  0.019463067         3366 
 3632000   0.68008289   -7.4424783    854.37788  0.019603017  0.019456462         3416 
 3633000   0.67264734   -7.4522093    852.40217  0.019552302  0.019449852         3381 
 3634000   0.65867349   -7.4321911    853.39068   0.01956959  0.019443251         3412 
 3635000   0.66165356   -7.4376864    852.72743  0.019549001  0.019436652         3409 
 3636000   0.68195455   -7.4134876    853.53854  0.019562214  0.019430051         3426 
 3637000   0.67604876   -7.4376919    853.31936  0.019551814  0.019423455         3404 
 3638000   0.67102204   -7.4211985    851.92075  0.019514402  0.019416863         3403 
 3639000   0.65175479   -7.4214074    853.98404  0.019556289  0.019410263         3397 
 3640000   0.64888952   -7.4594941    852.90921   0.01952631  0.019403667         3386 
 3641000   0.65957013   -7.4437044    853.75544  0.019540315  0.019397081         3420 
 3642000   0.67045813   -7.4379414    853.77416  0.019535378  0.019390494         3449 
 3643000   0.67443386   -7.4235552    852.20893  0.019494211  0.019383907         3435 
 3644000   0.66909424   -7.4338737    853.93331  0.019528296  0.019377321         3457 
 3645000   0.67763187   -7.4558869    854.12502  0.019527321  0.019370741         3410 
 3646000   0.66654338   -7.4359139    852.36068  0.019481639  0.019364152         3419 
 3647000   0.66992565   -7.4466725    851.53492  0.019457429  0.019357562         3435 
 3648000   0.65827145   -7.4519558    853.31038  0.019492653  0.019350982         3465 
 3649000    0.6745681   -7.4225309    852.62956  0.019471763  0.019344405         3422 
 3650000   0.67677795   -7.4443728    852.89804  0.019472558  0.019337828         3428 
 3651000   0.67764634   -7.4356616    852.72093  0.019463182  0.019331254         3421 
 3652000   0.66728615   -7.4415419    854.67611  0.019502467  0.019324678         3432 
 3653000    0.6492207   -7.4418417    853.03729  0.019459743  0.019318106         3455 
 3654000   0.66835587   -7.4303506    852.38495   0.01943954  0.019311539         3388 
 3655000   0.67483499   -7.4258572    852.42663  0.019435172  0.019304965         3411 
 3656000   0.67176145   -7.4460272     853.3079  0.019449943  0.019298396         3430 
 3657000   0.66129868   -7.4373913    851.56776  0.019404971  0.019291835         3426 
 3658000   0.65209065    -7.438067    852.78841  0.019427474  0.019285262         3424 
 3659000   0.66093464   -7.4354471    853.46036  0.019437468  0.019278695         3426 
 3660000   0.66567998   -7.4511526    851.88402  0.019396266  0.019272134         3423 
 3661000   0.66239521   -7.4293035    853.99416     0.019439   0.01926558         3408 
 3662000   0.67338912   -7.4304154    853.20238  0.019415674  0.019259027         3421 
 3663000   0.68121072   -7.4562356    851.91476   0.01938108   0.01925247         3397 
 3664000   0.66590298   -7.4640423    852.34521  0.019385581  0.019245918         3448 
 3665000   0.65701605   -7.4523283    853.21712  0.019400116  0.019239365         3411 
 3666000   0.67843984   -7.4346304    852.58137  0.019380373  0.019232816         3439 
 3667000   0.66451807   -7.4426892    853.62588  0.019398825  0.019226259         3445 
 3668000   0.65360692   -7.4144158    852.33168  0.019364133  0.019219716         3401 
 3669000   0.65631871   -7.4414761    851.89483  0.019348933  0.019213173         3393 
 3670000   0.65235236   -7.4393242    850.77125  0.019318148  0.019206635         3388 
 3671000   0.67378189   -7.4460949    852.45245   0.01935105   0.01920009         3447 
 3672000   0.66699234   -7.4425865    853.28436  0.019364659  0.019193559         3417 
 3673000   0.66799275   -7.4299921    853.07701  0.019354683  0.019187028         3389 
 3674000   0.67161016    -7.455376    852.87637  0.019344864  0.019180495         3467 
 3675000   0.66934594   -7.4583891    851.56478  0.019309859   0.01917396         3408 
 3676000   0.65980421     -7.43899    852.66284  0.019329498  0.019167428         3437 
 3677000   0.67086221   -7.4658143    853.14172  0.019335095  0.019160901         3414 
 3678000   0.66454593   -7.4483973    853.61138  0.019340479  0.019154372         3431 
 3679000   0.65857538   -7.4383907    851.97624  0.019298184  0.019147842         3428 
 3680000   0.67530744   -7.4422941    853.08979  0.019318156  0.019141318         3400 
 3681000   0.66827053   -7.4547893    852.60418  0.019301915  0.019134797         3427 
 3682000   0.67483632    -7.449584     853.6419  0.019320159  0.019128273         3413 
 3683000   0.65974678   -7.4410892     852.4933  0.019288924  0.019121754         3407 
 3684000   0.65897858   -7.4438537    851.58435  0.019263128   0.01911524         3424 
 3685000   0.65973061   -7.4382291    851.74069  0.019261436  0.019108726         3417 
 3686000   0.67892362   -7.4500775    852.24466  0.019267604  0.019102209         3419 
 3687000    0.6723957   -7.4539461     852.2022  0.019261419  0.019095697         3437 
 3688000   0.66440702   -7.4342941    851.48425  0.019239973  0.019089182         3436 
 3689000   0.67740637   -7.4523107    853.29221  0.019275599  0.019082669         3454 
 3690000   0.67283536   -7.4471118    852.06383  0.019242634  0.019076159         3445 
 3691000   0.67005324    -7.455266    850.47381  0.019201522  0.019069649         3478 
 3692000   0.65856306   -7.4511288    851.78124  0.019225832  0.019063137         3450 
 3693000   0.66824858   -7.4786367    852.67034  0.019240688  0.019056624         3425 
 3694000   0.66643425   -7.4722702     851.5305  0.019209766   0.01905012         3478 
 3695000    0.6565368   -7.4712324    851.08016   0.01919441  0.019043612         3431 
 3696000   0.65998445   -7.4583101    851.83639  0.019206268  0.019037106         3475 
 3697000   0.66938431   -7.4622321    852.86838  0.019224335  0.019030602         3464 
 3698000   0.65780886   -7.4656521    853.70603  0.019238012  0.019024094         3421 
 3699000   0.64930803   -7.4650774    852.25753  0.019200179   0.01901759         3449 
 3700000   0.63327348   -7.4625863     852.1051  0.019191556  0.019011091         3452 
 3701000    0.6604465   -7.4452355    852.79876   0.01920199  0.019004602         3443 
 3702000   0.65742962   -7.4504355    850.89644  0.019153981  0.018998112         3439 
 3703000   0.67353145   -7.4614359    853.21367  0.019200956  0.018991612         3404 
 3704000   0.64982964   -7.4363591    851.04805  0.019147049  0.018985122         3413 
 3705000   0.65853744   -7.4374254    852.95782  0.019184836   0.01897864         3416 
 3706000   0.66196679   -7.4655787    852.10001  0.019160371  0.018972157         3402 
 3707000   0.65757243   -7.4548242    850.14587  0.019111273  0.018965672         3463 
 3708000   0.66476923   -7.4604719    851.77101  0.019142642  0.018959191         3453 
 3709000   0.65926128   -7.4562425    853.69204  0.019180643  0.018952711         3466 
 3710000   0.65947004   -7.4387086    850.74047  0.019109175   0.01894623         3469 
 3711000   0.66152363   -7.4545298     851.5102   0.01912131  0.018939755         3478 
 3712000   0.65751542   -7.4575591    851.30957  0.019111655  0.018933273         3440 
 3713000   0.65779054   -7.4459282    852.97201  0.019143819  0.018926799         3415 
 3714000    0.6710108   -7.4442725    852.94428  0.019138043  0.018920338         3452 
 3715000   0.65468051   -7.4524283    852.78516  0.019129322  0.018913876         3418 
 3716000   0.66206449   -7.4619841    853.03266  0.019129724  0.018907411         3468 
 3717000   0.65362937   -7.4542208    851.83647   0.01909776  0.018900951         3437 
 3718000   0.64786064   -7.4738626    849.94957  0.019050331  0.018894485         3455 
 3719000   0.66185433   -7.4767471    851.71914   0.01908486  0.018888026         3415 
 3720000   0.64731318   -7.4548331    853.42027  0.019117838  0.018881569         3466 
 3721000   0.66661526   -7.4599486    850.82489  0.019054575  0.018875109         3458 
 3722000    0.6550395    -7.486719    850.68984  0.019046432  0.018868654         3447 
 3723000   0.66394745    -7.475559    851.05184  0.019049419  0.018862202         3432 
 3724000   0.66440636   -7.4686168    850.74347  0.019037403  0.018855756         3431 
 3725000    0.6485273   -7.4454739    852.59567  0.019073729  0.018849308         3460 
 3726000   0.65434715   -7.4449826    852.18316  0.019059384  0.018842858         3480 
 3727000    0.6530743   -7.4875914    853.92038  0.019093113  0.018836418         3437 
 3728000    0.6645096    -7.468917    852.44857  0.019055091  0.018829973         3434 
 3729000   0.66126417   -7.4649321    852.36236  0.019048055  0.018823529         3456 
 3730000   0.64469232   -7.4561928    851.76159  0.019029526  0.018817089         3446 
 3731000   0.65956114   -7.4574991    852.28731  0.019036168  0.018810648         3452 
 3732000   0.64015155   -7.4791179    851.21498  0.019007123  0.018804208         3463 
 3733000   0.64973334   -7.4939806    852.00718  0.019019716  0.018797762         3445 
 3734000   0.66049664   -7.4614601     853.5091  0.019048141  0.018791324         3463 
 3735000   0.66897823   -7.4507724    852.73171  0.019025696   0.01878489         3426 
 3736000   0.65847396   -7.4533395    851.67262   0.01899698  0.018778458         3414 
 3737000   0.65787004   -7.4677699    852.20797  0.019003835  0.018772025         3446 
 3738000   0.65936728   -7.4673513    852.55665  0.019006524  0.018765592         3451 
 3739000   0.65483626   -7.4559721    851.69847  0.018982314  0.018759165         3476 
 3740000   0.66169883   -7.4617589    850.58684   0.01895247  0.018752739         3453 
 3741000   0.66181605   -7.4461605    851.75351  0.018973392   0.01874631         3447 
 3742000    0.6498944   -7.4820775    853.33185  0.019003471  0.018739893         3477 
 3743000   0.64943676   -7.4702589    851.97133  0.018968103   0.01873347         3422 
 3744000   0.65996172   -7.4713957    850.09985  0.018921382   0.01872706         3477 
 3745000   0.65965302     -7.46695    851.55861   0.01894879  0.018720648         3471 
 3746000   0.65393133   -7.4817643    851.60369  0.018944734  0.018714237         3460 
 3747000   0.65723613   -7.4616412    850.85811  0.018923096  0.018707827         3454 
 3748000   0.66062688   -7.4706829    852.79404  0.018961091  0.018701422         3483 
 3749000   0.65839451   -7.4788612    850.59947  0.018907252  0.018695018         3496 
 3750000   0.65020451   -7.4578136    852.07112  0.018934914  0.018688605         3478 
 3751000   0.64621561   -7.4674816    851.95679  0.018927326  0.018682194         3470 
 3752000    0.6466049   -7.4650978    852.83219  0.018941724  0.018675786         3432 
 3753000   0.64936581   -7.4698838    850.55952  0.018886214  0.018669381         3449 
 3754000   0.64777425   -7.4668767    849.52248  0.018858162  0.018662983         3419 
 3755000   0.64386133   -7.4806821    849.52895  0.018853283  0.018656584         3487 
 3756000   0.64118985   -7.5032732    851.85009  0.018899762   0.01865019         3470 
 3757000   0.63528032   -7.4526021    851.90627  0.018895978  0.018643787         3478 
 3758000   0.64015626   -7.4724214    849.41798  0.018835772  0.018637382         3472 
 3759000   0.64616898   -7.4693122    850.39907  0.018852511  0.018630988         3472 
 3760000   0.64818666   -7.4697819    852.53794  0.018894901    0.0186246         3461 
 3761000   0.65169277   -7.5044165    851.08957  0.018857785  0.018618213         3458 
 3762000    0.6478631    -7.462872    850.42928  0.018838146  0.018611824         3480 
 3763000   0.64536935   -7.4579807    851.46235  0.018856018  0.018605435         3451 
 3764000    0.6626019   -7.4948234    850.83978  0.018837225  0.018599052         3450 
 3765000   0.64408054   -7.4855514    851.05775  0.018837046  0.018592676         3438 
 3766000   0.66096919   -7.4780548    850.20236  0.018813117  0.018586293         3460 
 3767000   0.64799365   -7.4686846    851.64826  0.018840108  0.018579918         3444 
 3768000   0.64057608   -7.4714041    850.49593  0.018809623  0.018573538         3453 
 3769000   0.65371237   -7.4711406    852.46949  0.018848269  0.018567163         3465 
 3770000   0.64896144   -7.4751403     851.7822  0.018828077  0.018560784         3441 
 3771000   0.64829618   -7.4795406    850.90003  0.018803589  0.018554411         3497 
 3772000   0.65386435   -7.4770439    852.22362  0.018827846  0.018548034         3492 
 3773000   0.65616574   -7.4662048    851.74269  0.018812234   0.01854167         3475 
 3774000    0.6385827   -7.4677543    850.89524  0.018788536  0.018535295         3452 
 3775000   0.65048356   -7.4642293    851.39569  0.018794607  0.018528936         3460 
 3776000   0.63910903   -7.4696218    851.50006  0.018791933  0.018522576         3434 
 3777000   0.64688048   -7.4904754    853.79804  0.018837659  0.018516222         3475 
 3778000   0.65634422   -7.4754048    852.06619  0.018794472  0.018509867         3476 
 3779000   0.65190649   -7.4661738    851.64037  0.018780109  0.018503516         3472 
 3780000   0.65854475   -7.4777804    852.97258   0.01880451  0.018497161         3479 
 3781000   0.63351278   -7.4874781    853.18653  0.018804252  0.018490815         3465 
 3782000   0.65033535   -7.4966939    851.79001  0.018768509  0.018484469         3454 
 3783000   0.64483903   -7.4918979    850.78299  0.018741365  0.018478119         3464 
 3784000   0.65208473   -7.4828346     851.3548  0.018749005  0.018471775         3489 
 3785000   0.64529291   -7.4871474    851.66652  0.018750914  0.018465436         3483 
 3786000   0.64543344   -7.4854155    851.49774  0.018742246  0.018459093         3465 
 3787000   0.66119161   -7.4906485    851.11188  0.018728806  0.018452741         3466 
 3788000    0.6328384   -7.4559547    851.96557  0.018742643  0.018446406         3454 
 3789000   0.64517931   -7.4895869    849.80348  0.018690144  0.018440064         3482 
 3790000   0.62782789   -7.4903961    852.62393  0.018747228  0.018433725         3481 
 3791000   0.63755786   -7.4960397    850.40725  0.018693556   0.01842739         3491 
 3792000   0.65385441   -7.4987709    850.59908  0.018692842  0.018421047         3444 
 3793000    0.6580025   -7.4960466    851.16154  0.018700271  0.018414716         3498 
 3794000   0.65163024   -7.4752147    852.91295  0.018733811  0.018408393         3460 
 3795000   0.64707488    -7.491429    850.89348   0.01868453   0.01840207         3475 
 3796000   0.65793948   -7.4675623    851.07733  0.018683644  0.018395746         3433 
 3797000   0.65264919   -7.4740405    850.64954  0.018669334  0.018389427         3461 
 3798000   0.64545595   -7.4872671    853.19313  0.018720228  0.018383107         3464 
 3799000   0.64542876   -7.4664815    851.10892  0.018669582  0.018376788         3443 
 3800000     0.636607   -7.4768894    850.35358  0.018648105  0.018370481         3499 
 3801000   0.64268072   -7.4869179    850.52656  0.018646991  0.018364168         3456 
 3802000   0.64668991   -7.4724051    851.07912  0.018654198  0.018357866         3465 
 3803000   0.63569254   -7.4841723    850.01894  0.018626061  0.018351549         3481 
 3804000   0.65039747    -7.487914    850.04507  0.018621737  0.018345235         3488 
 3805000   0.61690365    -7.493981    851.19678  0.018642067  0.018338933         3455 
 3806000   0.63896862   -7.4677021    851.52753  0.018644411  0.018332623         3498 
 3807000   0.63234782   -7.4751608    850.58952  0.018618981  0.018326315         3474 
 3808000   0.63696496   -7.5077387    851.92336  0.018643281  0.018320012         3496 
 3809000   0.64843446   -7.4746077     851.1809  0.018622143  0.018313705         3473 
 3810000   0.65998586   -7.4860825    849.94908  0.018590312  0.018307405         3491 
 3811000   0.65535758   -7.4868757    852.40462  0.018639128   0.01830111         3498 
 3812000   0.63444759    -7.488138    850.17578  0.018585515  0.018294809         3506 
 3813000   0.61977327   -7.4908277    849.80218  0.018572475  0.018288512         3471 
 3814000    0.6414851   -7.4843687     849.8673  0.018569029  0.018282224         3518 
 3815000   0.62547797   -7.4722025    851.46082  0.018598969   0.01827593         3485 
 3816000   0.63460275   -7.4762274    851.86055  0.018602825  0.018269651         3460 
 3817000   0.64268649    -7.483063    851.03712  0.018579974  0.018263362         3473 
 3818000   0.63158014   -7.4659596    850.26852  0.018558332  0.018257079         3473 
 3819000   0.64364872   -7.4802331    849.01358  0.018526088  0.018250795         3488 
 3820000   0.62812513   -7.4972527    852.27809  0.018592454  0.018244519         3499 
 3821000   0.63953963    -7.496602    850.87464   0.01855698   0.01823824         3460 
 3822000   0.65698893   -7.4704717    849.49393   0.01852202  0.018231965         3473 
 3823000   0.64025167   -7.4801169    850.96909  0.018549331  0.018225699         3439 
 3824000   0.64613849   -7.4742607    850.04923  0.018524434  0.018219427         3479 
 3825000    0.6355658   -7.4833772    851.34349  0.018547788  0.018213156         3447 
 3826000   0.65689064   -7.5095719     851.4765  0.018545838  0.018206896         3507 
 3827000   0.63560343   -7.4914306    849.38946  0.018495546   0.01820063         3484 
 3828000   0.64643352   -7.4774163    850.24585  0.018509357  0.018194365         3517 
 3829000   0.64345476   -7.5025142    849.64245  0.018491391    0.0181881         3501 
 3830000   0.63641771   -7.4932637    849.73631  0.018488605  0.018181842         3495 
 3831000   0.64158074   -7.4796028    850.36709    0.0184975   0.01817558         3456 
 3832000   0.63809316   -7.4803141    849.81577  0.018480684  0.018169321         3489 
 3833000   0.62790805   -7.5049165    850.97437  0.018501052  0.018163071         3480 
 3834000   0.62961709   -7.5182299    850.57716  0.018487593  0.018156812         3458 
 3835000   0.63850223   -7.4860687    849.82482  0.018466424  0.018150558         3475 
 3836000   0.64030634   -7.4858356    849.54918  0.018455622  0.018144301         3436 
 3837000   0.63849541   -7.4902675    850.35157  0.018468238  0.018138054         3477 
 3838000   0.62374768   -7.5068679     851.4432  0.018487129  0.018131815         3459 
 3839000   0.62637926   -7.5017947    848.48407  0.018418079  0.018125572         3479 
 3840000   0.65619334   -7.4793081    850.96916  0.018467213  0.018119338         3493 
 3841000   0.63387252   -7.4900957    850.21982  0.018446147  0.018113098         3431 
 3842000   0.64324275   -7.5033104    850.40856   0.01844544  0.018106859         3487 
 3843000   0.63717008   -7.4978421    850.66752  0.018446255  0.018100618         3470 
 3844000   0.63777712   -7.5176125    848.94967  0.018404216  0.018094381         3485 
 3845000   0.64249136   -7.4968731    849.51115  0.018411598  0.018088151         3497 
 3846000   0.63752036   -7.4891139    849.86185   0.01841441  0.018081925         3476 
 3847000   0.63613064   -7.4984753    850.31633  0.018419468  0.018075694         3446 
 3848000   0.64666818   -7.5011013    849.32566  0.018393227   0.01806947         3454 
 3849000   0.62614069   -7.4940541    850.36731  0.018411001  0.018063244         3451 
 3850000   0.62636927   -7.5078346    849.52744   0.01838804  0.018057028         3480 
 3851000   0.63929156   -7.4976026    850.85837  0.018412065  0.018050806         3464 
 3852000   0.63244197   -7.4952196    850.67641  0.018403349  0.018044588         3456 
 3853000   0.62938759   -7.4910735    850.14237  0.018387022  0.018038371         3480 
 3854000    0.6336934    -7.512072    851.28171  0.018406887  0.018032156         3502 
 3855000   0.63678663   -7.4957551    850.96294  0.018395221  0.018025945         3450 
 3856000   0.63628963   -7.4933522    850.11194   0.01837206  0.018019743         3479 
 3857000   0.62996935   -7.4840363    850.47201  0.018375076  0.018013536         3462 
 3858000   0.63889798   -7.4818886    849.45027  0.018348243  0.018007331         3451 
 3859000   0.63384784   -7.4881273    850.35692  0.018363067  0.018001133         3518 
 3860000   0.64596977   -7.4778186    848.93101  0.018327526  0.017994937         3490 
 3861000   0.63885147   -7.5008784    848.83645  0.018320738  0.017988745         3498 
 3862000   0.63083061   -7.5004289    851.80253  0.018379996  0.017982547         3465 
 3863000   0.62874645    -7.506046    850.79157  0.018353429  0.017976355         3473 
 3864000   0.62964185   -7.4925867    850.05934  0.018332888  0.017970167         3535 
 3865000   0.64026493   -7.5099652    849.95655  0.018325928  0.017963979         3490 
 3866000   0.61221558   -7.4917963    851.65109  0.018357714  0.017957798         3488 
 3867000    0.6361996   -7.4898526    850.63489  0.018331068  0.017951606         3501 
 3868000   0.62529011   -7.5073993     850.1531  0.018315949  0.017945421         3468 
 3869000   0.63663991   -7.4978321     850.1359  0.018310845  0.017939235         3496 
 3870000   0.62925357   -7.5095347    849.90174  0.018301071  0.017933055         3494 
 3871000   0.64250024   -7.5127128    849.34976  0.018284461  0.017926872         3518 
 3872000   0.63600881   -7.4931909     851.0189  0.018315662  0.017920695         3476 
 3873000   0.62884545   -7.4984844    850.57328  0.018301344  0.017914522         3510 
 3874000   0.62090885    -7.519713     850.0855  0.018286128  0.017908342         3485 
 3875000   0.65149829   -7.5022128    850.34417  0.018286971  0.017902174         3478 
 3876000   0.62359376   -7.5190599    850.65435  0.018288922  0.017896003         3511 
 3877000   0.62922598   -7.5129038    850.50313  0.018280955  0.017889835         3483 
 3878000   0.64096309   -7.4852877    850.11865  0.018267978   0.01788367         3517 
 3879000   0.63535626   -7.4886342    849.90415  0.018258661  0.017877508         3477 
 3880000   0.63798964   -7.5318129    850.81601   0.01827354   0.01787135         3470 
 3881000   0.65156468   -7.5238565    848.87104  0.018227069  0.017865185         3514 
 3882000   0.64200996   -7.5054976    850.22703  0.018251482  0.017859023         3519 
 3883000   0.63007277   -7.4966487    850.16116  0.018245368  0.017852869         3482 
 3884000   0.64542701   -7.5065947    850.98381  0.018258321  0.017846719         3492 
 3885000   0.61666923   -7.5310879    849.19065  0.018215158   0.01784057         3499 
 3886000   0.61961434   -7.5064702    850.04382  0.018228766  0.017834422         3484 
 3887000   0.62957554   -7.5036995     847.9484  0.018179153  0.017828274         3514 
 3888000   0.63525936   -7.5094503    848.88239  0.018194496  0.017822125         3509 
 3889000   0.62549513   -7.4921165    848.90266  0.018190252  0.017815975         3553 
 3890000   0.63243003   -7.5264709    848.80384  0.018183458   0.01780983         3520 
 3891000   0.62921135   -7.5169027      849.718  0.018198364   0.01780368         3510 
 3892000   0.62778541   -7.5003628    850.82029  0.018217289  0.017797538         3472 
 3893000   0.62758283   -7.4921777    848.84552  0.018170338  0.017791405         3450 
 3894000   0.62227379   -7.5331031    851.17019  0.018215421  0.017785272         3448 
 3895000   0.61386616   -7.5058737    850.68012  0.018200259  0.017779139         3484 
 3896000   0.63262635   -7.5118847    850.18784  0.018185058   0.01777301         3474 
 3897000   0.63154952   -7.4949734    850.13716  0.018179308   0.01776688         3455 
 3898000   0.63673463   -7.5225314    849.16225  0.018153802   0.01776075         3469 
 3899000   0.62702614   -7.5088907    849.16038  0.018149106  0.017754624         3478 
 3900000    0.6289167   -7.5140104     848.8573  0.018137976    0.0177485         3504 
 3901000   0.62296295   -7.5119665    849.40728  0.018145076  0.017742383         3495 
 3902000     0.632797   -7.5008267    850.13365  0.018155938  0.017736268         3474 
 3903000   0.62942441    -7.485285    849.53238  0.018138449  0.017730151         3488 
 3904000   0.63852572   -7.5291957    849.51075  0.018133341  0.017724035         3499 
 3905000   0.63578465   -7.5351949    849.37447  0.018125789  0.017717916         3503 
 3906000   0.62587796   -7.5079246     849.8289  0.018130844  0.017711802         3500 
 3907000   0.64287422   -7.5384483     849.9019   0.01812776  0.017705691         3507 
 3908000   0.63464983   -7.5204143    849.83736  0.018121745  0.017699576         3509 
 3909000   0.62202402   -7.4845411    850.15086  0.018123792  0.017693466         3506 
 3910000    0.6160689   -7.5036248    848.60258  0.018086159  0.017687356         3472 
 3911000   0.62007067   -7.5250168    848.67295  0.018083034  0.017681251         3501 
 3912000    0.6311239   -7.5343064    848.76766  0.018080429  0.017675141         3499 
 3913000   0.62713824   -7.5099265    848.35342  0.018066987   0.01766903         3505 
 3914000   0.62927999   -7.5211359    848.77886  0.018071429  0.017662927         3500 
 3915000   0.62364984   -7.5206791    849.91135  0.018090919  0.017656833         3503 
 3916000   0.62416199   -7.5128545    849.12759   0.01806962  0.017650736         3484 
 3917000   0.62117625     -7.52137    847.64112  0.018033383  0.017644641         3461 
 3918000   0.62971203   -7.5032617    848.86898  0.018054896   0.01763855         3508 
 3919000    0.6362757   -7.4989353    849.86365  0.018071439  0.017632462         3525 
 3920000    0.6383794   -7.5128186    849.56556  0.018060492  0.017626378         3456 
 3921000   0.63310153   -7.5288027    850.38058  0.018073208  0.017620293         3500 
 3922000   0.61818679   -7.4948592     849.2991  0.018045621  0.017614211         3494 
 3923000   0.63252701   -7.5267779    849.55339  0.018046423  0.017608137         3495 
 3924000   0.61492293    -7.498282    847.97753  0.018008357  0.017602063         3518 
 3925000   0.62103122   -7.5104894    848.50316  0.018014929   0.01759599         3514 
 3926000   0.60858234    -7.504346    846.62545  0.017970484  0.017589914         3492 
 3927000   0.61881762   -7.5301893    850.16159  0.018040947  0.017583839         3515 
 3928000   0.62104469   -7.5174333    848.90229  0.018009638  0.017577766         3537 
 3929000   0.62885638   -7.5315115    848.40845   0.01799458  0.017571702         3529 
 3930000   0.62507482   -7.5349615    849.99679  0.018023681  0.017565632         3538 
 3931000   0.62359873   -7.5091021     848.6757   0.01799109  0.017559577         3490 
 3932000   0.62903749    -7.512845    851.22744  0.018040595  0.017553518         3467 
 3933000   0.62476969   -7.5282379    848.93399  0.017987414  0.017547461         3535 
 3934000   0.61115246   -7.5055525    849.54851  0.017995859  0.017541404         3483 
 3935000   0.62223233   -7.5068557    849.32452  0.017986542  0.017535355         3462 
 3936000   0.62776069   -7.5058529    846.49168  0.017921995  0.017529302         3482 
 3937000   0.61226067   -7.5219586    848.01858  0.017949763   0.01752325         3514 
 3938000   0.62363433    -7.519228    848.71823   0.01796001  0.017517202         3500 
 3939000   0.61524016   -7.5087195    850.88749  0.018001343  0.017511153         3477 
 3940000   0.62568581   -7.5337996    849.43918  0.017966142  0.017505111         3481 
 3941000   0.62663847   -7.5203127    849.80044  0.017969222  0.017499066         3521 
 3942000   0.62217415   -7.5184033    848.07524  0.017928193  0.017493026         3491 
 3943000   0.61939718   -7.5365584    849.14898  0.017946339   0.01748699         3463 
 3944000   0.61339377   -7.5253083    848.78267  0.017934049  0.017480954         3547 
 3945000   0.63396636   -7.5232986    847.49946  0.017902397  0.017474925         3533 
 3946000   0.62142214   -7.5294958    848.22218  0.017913122  0.017468892         3526 
 3947000   0.62269296   -7.5169395      848.426  0.017912887  0.017462857         3463 
 3948000   0.61584525   -7.5009626    848.37078  0.017907185  0.017456825         3495 
 3949000   0.61571264   -7.5183007    849.60424  0.017928679  0.017450806         3511 
 3950000   0.62175143   -7.5112906    848.18086  0.017894111  0.017444778         3508 
 3951000   0.62442752   -7.5019404    848.60651   0.01789856  0.017438754         3478 
 3952000   0.61171213   -7.5321652    848.34603  0.017888538  0.017432734         3511 
 3953000   0.62822586   -7.5254824    848.61577  0.017889699  0.017426718         3532 
 3954000   0.62170917   -7.5446724    848.23006  0.017877046  0.017420702         3521 
 3955000   0.62363689   -7.5243377     848.7739  0.017883984  0.017414685         3476 
 3956000   0.60443669   -7.5282607    849.40119  0.017892677  0.017408675         3486 
 3957000   0.62600973   -7.5330855    847.69492  0.017852222  0.017402665         3504 
 3958000   0.61293487   -7.5222895    847.62517  0.017846243  0.017396663         3518 
 3959000   0.61827484   -7.5137539    847.74801  0.017844321  0.017390657         3530 
 3960000   0.60659224   -7.5130226    847.80352  0.017840983  0.017384653         3520 
 3961000   0.61067288   -7.5292366    848.68419  0.017855007  0.017378652         3553 
 3962000   0.61277299   -7.5118903    849.17459  0.017860815  0.017372654         3493 
 3963000    0.6212751   -7.5248757    847.60222  0.017823245  0.017366658         3523 
 3964000   0.62589175   -7.5312148    846.78036  0.017801471  0.017360664         3532 
 3965000   0.62380544   -7.4954475    850.62843  0.017877857  0.017354678         3493 
 3966000   0.60304896    -7.563234    850.02533  0.017860677  0.017348685         3496 
 3967000   0.60875678   -7.5211403    848.32224  0.017820398  0.017342694         3545 
 3968000   0.60363867   -7.5217974    848.24487  0.017814282   0.01733671         3507 
 3969000   0.62260127   -7.5235635    849.61376  0.017838535  0.017330719         3517 
 3970000   0.63010927   -7.5324699    848.95382  0.017820189  0.017324737         3468 
 3971000   0.62216215   -7.5271591    846.41269  0.017762375  0.017318755         3483 
 3972000   0.61528724   -7.5244528    848.14664  0.017794282  0.017312774         3511 
 3973000   0.61657383   -7.5230691    848.93914  0.017806425  0.017306797         3517 
 3974000   0.62980499   -7.5237598    849.50432  0.017813796  0.017300819         3499 
 3975000   0.60445436   -7.5416128    848.47674  0.017787772  0.017294845         3509 
 3976000   0.61861978   -7.5350824    850.21926   0.01781982  0.017288874         3501 
 3977000   0.62972247   -7.5407809    848.42222  0.017777685  0.017282901         3520 
 3978000   0.60940378   -7.5179231     847.4629  0.017753119   0.01727693         3497 
 3979000   0.60055522   -7.5425535    847.43244   0.01774802  0.017270962         3548 
 3980000   0.61141074   -7.5330985    848.71814   0.01777048  0.017264997         3498 
 3981000   0.61803441   -7.5352689     847.5032  0.017740585  0.017259038         3505 
 3982000   0.61916699   -7.5392451    848.37954  0.017754469  0.017253079         3516 
 3983000   0.60069114   -7.5332892    847.07944   0.01772281  0.017247119         3521 
 3984000   0.60583446   -7.5391779    848.14405   0.01774063  0.017241162         3513 
 3985000   0.60544196   -7.5466529    848.50767  0.017743782  0.017235214         3520 
 3986000   0.60839562   -7.5275905    848.04544  0.017729667  0.017229264         3500 
 3987000   0.61966948   -7.5228397    847.81854  0.017720478  0.017223314         3521 
 3988000   0.61486308   -7.5438514    849.30172  0.017747027  0.017217366         3528 
 3989000   0.63539656   -7.5314594    848.61061   0.01772814  0.017211424         3504 
 3990000   0.62944898   -7.5311781    849.44517  0.017741127  0.017205485         3508 
 3991000   0.61936035     -7.52357    848.21198  0.017710933  0.017199544         3502 
 3992000   0.61600028   -7.5213319    848.49381  0.017712379  0.017193607         3526 
 3993000   0.60536548   -7.5661357    849.46446  0.017728201  0.017187675         3511 
 3994000    0.6077693   -7.5604057    848.98942   0.01771385  0.017181744         3515 
 3995000   0.61744468   -7.5358473    848.53695  0.017699978  0.017175809         3529 
 3996000   0.61437225   -7.5367121    849.56227  0.017716931  0.017169884         3504 
 3997000   0.61223368   -7.5615928    848.07249  0.017681438  0.017163953         3502 
 3998000   0.60861975   -7.5349451    849.48988  0.017706559  0.017158029         3487 
 3999000   0.61543653   -7.5388402    850.53559  0.017723923  0.017152108         3514 
 4000000   0.61403189   -7.5524982    848.54754  0.017678074  0.017146192         3519 
 4001000   0.61990888   -7.5310214    847.71792  0.017656376  0.017140277         3494 
 4002000   0.61697859   -7.5722028    846.90336  0.017635002  0.017134356         3525 
 4003000    0.6219294   -7.5258215    847.72958  0.017647797  0.017128442         3482 
 4004000   0.60987884   -7.5208951     847.3133  0.017634726   0.01712253         3485 
 4005000   0.62621122   -7.5288483     850.3853  0.017694243  0.017116615         3504 
 4006000   0.60947012   -7.5432878    847.57075  0.017631277    0.0171107         3509 
 4007000   0.62897523   -7.5468222    848.52379  0.017646697  0.017104797         3498 
 4008000   0.62650707   -7.5488046     848.2728  0.017637076  0.017098896         3491 
 4009000   0.61450526   -7.5395984    848.39273  0.017635169  0.017092994         3527 
 4010000   0.60930022   -7.5339596     847.7316  0.017617032   0.01708709         3515 
 4011000   0.60224458   -7.5652398    849.53112  0.017650027  0.017081197         3504 
 4012000   0.62433357   -7.5545163    847.74837  0.017608599  0.017075302         3493 
 4013000   0.61299336   -7.5522404    848.82818  0.017626634  0.017069409         3512 
 4014000   0.61627809   -7.5358927    848.20169  0.017609236   0.01706352         3503 
 4015000   0.61154759   -7.5396056    848.28275  0.017606533  0.017057632         3486 
 4016000   0.61014162    -7.541989     848.2402  0.017601266  0.017051741         3484 
 4017000   0.59882644   -7.5246437    846.89694  0.017569018  0.017045862         3526 
 4018000   0.61842504   -7.5371134    846.39576  0.017554251  0.017039981         3532 
 4019000   0.61723707    -7.544424    848.27662  0.017588882  0.017034094         3540 
 4020000   0.60634091   -7.5246143    848.11105  0.017581075  0.017028213         3532 
 4021000   0.60968718   -7.5519537    847.22799  0.017558401  0.017022341         3520 
 4022000   0.61718816   -7.5441254    847.02057  0.017549738  0.017016463         3503 
 4023000   0.60222592   -7.5288922    847.76411  0.017560778   0.01701059         3487 
 4024000    0.6102071   -7.5295527    849.78429   0.01759825  0.017004725         3503 
 4025000   0.60330779    -7.540839    848.90943  0.017575765  0.016998854         3482 
 4026000   0.60173931   -7.5461127    847.80549  0.017548549  0.016992987         3515 
 4027000   0.60973865   -7.5573508      848.755   0.01756384  0.016987129         3504 
 4028000   0.59747186   -7.5358646    848.09805  0.017545888  0.016981268         3534 
 4029000   0.61004709   -7.5477682    848.98771  0.017559934  0.016975412         3524 
 4030000   0.61256011   -7.5290016    848.62532  0.017548084  0.016969555         3482 
 4031000   0.60168841   -7.5447948    848.00836  0.017530976    0.0169637         3534 
 4032000   0.61478424   -7.5681185    848.74542  0.017541861  0.016957846         3508 
 4033000   0.59179159   -7.5394599    849.82057  0.017559727  0.016951993         3451 
 4034000   0.61501834   -7.5171848    848.34439   0.01752488  0.016946149         3521 
 4035000   0.60988493   -7.5580989    847.40952  0.017501229  0.016940302         3522 
 4036000   0.60705648    -7.564278    848.16023  0.017512393  0.016934459         3497 
 4037000   0.60915467   -7.5508477     847.7869  0.017500349  0.016928606         3527 
 4038000   0.61617862   -7.5319137    847.46516  0.017489375  0.016922764         3494 
 4039000   0.59392277   -7.5387853    848.06172  0.017497353  0.016916927         3531 
 4040000   0.59913661   -7.5549319    846.89954   0.01746905  0.016911086         3526 
 4041000   0.61358886   -7.5370621    847.72012  0.017481649  0.016905251         3521 
 4042000   0.60591489   -7.5456137    846.36741  0.017449435  0.016899419         3525 
 4043000   0.60368841   -7.5521731    846.44317  0.017446681  0.016893592         3530 
 4044000   0.60841393   -7.5354879    847.21221  0.017458214   0.01688776         3546 
 4045000   0.60737611   -7.5349224    848.30897  0.017476493  0.016881934         3520 
 4046000   0.60217839   -7.5649168    849.02288  0.017486877  0.016876107         3490 
 4047000   0.61836584   -7.5310353     849.1969   0.01748614  0.016870286         3536 
 4048000   0.59964734   -7.5503473    846.85884  0.017433688  0.016864466         3487 
 4049000   0.59761841   -7.5400128    847.44587  0.017441464  0.016858651         3466 
 4050000   0.60800502   -7.5307336    848.26893  0.017454093  0.016852845         3483 
 4051000   0.60132728   -7.5615126    847.60129  0.017436051  0.016847032         3502 
 4052000   0.60858535    -7.572224    848.83479  0.017457116  0.016841227         3516 
 4053000   0.60551262   -7.5612213    848.04344  0.017436537  0.016835421         3511 
 4054000   0.60540296   -7.5389113    848.59235   0.01744352  0.016829616         3480 
 4055000   0.60634346   -7.5508881     847.2054  0.017410715  0.016823815         3514 
 4056000   0.60062922   -7.5329685    848.97775  0.017442837  0.016818016         3506 
 4057000   0.61107271   -7.5440646    847.51777  0.017408548  0.016812217         3515 
 4058000    0.6068449   -7.5602434    846.30032  0.017379258  0.016806423         3491 
 4059000   0.60217421   -7.5608205    847.78836  0.017405526   0.01680063         3520 
 4060000   0.58739785   -7.5496903    847.90965  0.017403729  0.016794841         3506 
 4061000   0.59794956   -7.5563802    847.68314  0.017394795  0.016789047         3516 
 4062000   0.59593713   -7.5615016    847.58354  0.017388469  0.016783259         3521 
 4063000   0.59635164    -7.555003    847.07889  0.017373839  0.016777475         3516 
 4064000   0.61475272   -7.5364413    847.97502  0.017387939  0.016771687         3493 
 4065000   0.61372448   -7.5719952    847.34853  0.017370819  0.016765906         3510 
 4066000   0.59928838   -7.5677608    847.69053  0.017373556  0.016760123         3539 
 4067000   0.60955193   -7.5346716    845.97002   0.01733403  0.016754345         3524 
 4068000   0.60253787   -7.5335332    847.78998  0.017367051  0.016748572         3550 
 4069000   0.58457188   -7.5571747    847.11015   0.01734886  0.016742798         3481 
 4070000   0.58208845   -7.5453768    846.78128  0.017337864  0.016737028         3509 
 4071000   0.58919171   -7.5556838    847.99709  0.017358493  0.016731258         3536 
 4072000   0.59797165   -7.5643473    847.17098  0.017337324  0.016725493         3518 
 4073000   0.58875406   -7.5450323    847.96498  0.017349312  0.016719731         3523 
 4074000   0.61122814   -7.5768983    848.06954  0.017347192  0.016713973         3531 
 4075000   0.60225857   -7.5588137    848.11367  0.017343838  0.016708219         3481 
 4076000   0.60232871   -7.5531454    846.79324  0.017312587  0.016702461         3510 
 4077000   0.60687748   -7.5633528    849.15829  0.017356682  0.016696703         3503 
 4078000   0.60659129   -7.5638115    847.86585  0.017326015   0.01669095         3522 
 4079000   0.59603406   -7.5675393    848.89224  0.017342736  0.016685205         3527 
 4080000   0.59731316   -7.5436469    848.74764  0.017335532  0.016679456         3505 
 4081000   0.60199575   -7.5442776    846.90213  0.017293599  0.016673703         3484 
 4082000   0.60157199   -7.5468009    847.41028  0.017299736  0.016667963         3512 
 4083000   0.59545416   -7.5534652    847.35779  0.017294428   0.01666222         3529 
 4084000   0.59573746   -7.5422917     847.0225  0.017283352  0.016656483         3500 
 4085000    0.6007502   -7.5468593     847.8255  0.017295502  0.016650747         3507 
 4086000   0.61356468   -7.5698649     846.8592  0.017271561  0.016645009         3555 
 4087000   0.59701066   -7.5479802    847.19282  0.017274138  0.016639278         3510 
 4088000   0.59662598   -7.5614679    848.13009  0.017289018   0.01663355         3495 
 4089000   0.60059977   -7.5597236    848.18542  0.017285918  0.016627821         3472 
 4090000   0.60484816   -7.5539904    848.01352  0.017278189  0.016622094         3515 
 4091000   0.59355653   -7.5549571    848.50534  0.017283984  0.016616368         3515 
 4092000   0.58414372   -7.5331938    847.46713  0.017258617  0.016610642         3485 
 4093000   0.59593987    -7.557859    847.07462  0.017246409  0.016604923         3513 
 4094000   0.61481201   -7.5432399    847.00598  0.017240799  0.016599209         3461 
 4095000   0.58081786   -7.5457055    847.57215  0.017248111  0.016593494         3532 
 4096000   0.60000539   -7.5550781    848.44832  0.017261725  0.016587778         3534 
 4097000   0.58839703   -7.5810901    849.15586  0.017271903  0.016582068         3525 
 4098000   0.59983614   -7.5521304    846.89891  0.017221793  0.016576359         3522 
 4099000   0.59808845   -7.5473313    847.94956  0.017238952  0.016570653         3479 
 4100000    0.5957081    -7.558528     847.6673   0.01722901  0.016564951         3512 
 4101000   0.60027315   -7.5592671    846.39887  0.017199034  0.016559252         3489 
 4102000      0.59581   -7.5615657    847.50515  0.017217316  0.016553558         3526 
 4103000   0.59544507   -7.5670782    848.43592  0.017232024   0.01654787         3466 
 4104000   0.60011146   -7.5508279    846.92572   0.01719716  0.016542178         3524 
 4105000   0.59862501   -7.5532987    846.82516  0.017190929  0.016536491         3492 
 4106000   0.58713778   -7.5546784    847.18786  0.017194103  0.016530803         3482 
 4107000   0.59193342    -7.552989     846.7787  0.017181615  0.016525113         3511 
 4108000   0.59614998   -7.5763838    847.20343  0.017186048  0.016519427         3512 
 4109000   0.58772328   -7.5586079    848.07733  0.017199589  0.016513745         3506 
 4110000   0.59176827    -7.558234    846.75332  0.017168559  0.016508069         3514 
 4111000   0.60592552   -7.5524889    844.57172   0.01712016  0.016502386         3509 
 4112000   0.59854639   -7.5435543    847.01706  0.017165553  0.016496711         3512 
 4113000   0.58567467   -7.5466131    848.29013  0.017187173  0.016491037         3491 
 4114000   0.57586708   -7.5572971     847.2846  0.017162628  0.016485361         3542 
 4115000   0.60004185   -7.5679741    846.48065  0.017142176  0.016479683         3504 
 4116000    0.5896814   -7.5533351    846.67198  0.017141885  0.016474009         3519 
 4117000   0.59992824   -7.5595917    847.38109  0.017152075  0.016468334         3499 
 4118000    0.5941203   -7.5671537    846.88384  0.017137847   0.01646266         3490 
 4119000   0.58318279   -7.5499995    847.37574  0.017143638  0.016456997         3471 
 4120000    0.5963349   -7.5479824    845.89276  0.017109481  0.016451338         3548 
 4121000   0.59715942   -7.5832065    846.08121   0.01710914  0.016445673         3509 
 4122000   0.60093629   -7.5582702    845.79392  0.017099182  0.016440014         3509 
 4123000   0.58945447   -7.5643837    847.63181  0.017132181  0.016434355         3541 
 4124000   0.58481576   -7.5650438    848.87256  0.017153099  0.016428696         3487 
 4125000   0.58788859   -7.5626031    846.95531  0.017110208  0.016423039         3515 
 4126000   0.59264999   -7.5605791    847.95951  0.017126343  0.016417393         3506 
 4127000   0.59177994   -7.5735691    848.09574  0.017124944  0.016411744         3482 
 4128000   0.58863859    -7.562852    848.08199  0.017120518  0.016406088         3500 
 4129000   0.58750669   -7.5622271    846.89723  0.017092461  0.016400441         3523 
 4130000    0.5984927    -7.557347    846.41891   0.01707867  0.016394794         3467 
 4131000   0.60765912   -7.5656515    847.33197  0.017092955  0.016389154         3535 
 4132000   0.58724331   -7.5621993    846.50396  0.017072119   0.01638351         3513 
 4133000   0.59334517    -7.569143    847.29348  0.017083908  0.016377876         3502 
 4134000   0.58448842   -7.5601466    846.65366  0.017066877  0.016372243         3501 
 4135000   0.58517567   -7.5637823    846.84422   0.01706659  0.016366616         3484 
 4136000   0.60122244   -7.5807618    846.00482  0.017045552  0.016360988         3470 
 4137000   0.59629936   -7.5734356    848.09356  0.017083506  0.016355362         3456 
 4138000   0.59121218   -7.5898392    847.39716  0.017065353  0.016349739         3515 
 4139000   0.60097548   -7.5555422    846.36759  0.017040501  0.016344114         3498 
 4140000    0.5934328   -7.5637796    847.10996  0.017051328  0.016338496         3520 
 4141000    0.5990277   -7.5634831    845.44814  0.017013768  0.016332879         3493 
 4142000   0.59827627   -7.5623123     846.2688  0.017026171  0.016327263         3514 
 4143000    0.5936774   -7.5698018    848.18242  0.017060552  0.016321643         3516 
 4144000   0.60170901   -7.5761561    847.71753  0.017047087   0.01631603         3509 
 4145000   0.60378976    -7.558892    847.36124  0.017035811  0.016310419         3517 
 4146000   0.58811408   -7.5911343    847.01647  0.017024772   0.01630481         3533 
 4147000   0.58283888    -7.563321     847.6186  0.017032767  0.016299203         3528 
 4148000   0.57721511    -7.565809    847.52469  0.017026774  0.016293592         3518 
 4149000   0.59266801   -7.5737077    845.76268   0.01698728  0.016287987         3538 
 4150000   0.58645349   -7.5677579    845.14097  0.016970702  0.016282382         3480 
 4151000   0.59449533   -7.5603421    848.06259  0.017025267  0.016276781         3502 
 4152000   0.59853551   -7.5779418     845.0654  0.016961011  0.016271183         3533 
 4153000   0.58033368   -7.5694448    846.44469  0.016984603  0.016265583         3560 
 4154000   0.57047068   -7.5632355    846.14182  0.016974439   0.01625999         3541 
 4155000   0.59329657   -7.5489029    848.77508  0.017023166    0.0162544         3533 
 4156000   0.59019204   -7.5698996    848.27027  0.017008948  0.016248808         3503 
 4157000    0.5901424   -7.5699012    845.91639   0.01695767  0.016243216         3495 
 4158000   0.58656763   -7.5739472    847.36204  0.016982565  0.016237628         3524 
 4159000   0.58357633   -7.5715241     846.4607  0.016960421  0.016232044         3517 
 4160000    0.5902397   -7.5876018    846.36296  0.016954386   0.01622646         3518 
 4161000   0.58176861   -7.5768845    846.59002  0.016954859  0.016220879         3530 
 4162000    0.5775526   -7.5678186    846.75716  0.016954132  0.016215299         3532 
 4163000   0.57559013   -7.5755297    847.81968  0.016971328  0.016209729         3499 
 4164000   0.58180557    -7.578237    846.50165  0.016940875  0.016204154         3515 
 4165000   0.58398454   -7.5773855    847.01784  0.016947136  0.016198576         3510 
 4166000   0.58095451   -7.5684824    845.53022  0.016913311  0.016193002         3524 
 4167000   0.57617609    -7.559315    846.75805  0.016933806  0.016187431         3530 
 4168000   0.59519682   -7.5910173    845.58146  0.016906219  0.016181862         3517 
 4169000   0.59201724   -7.5787624    846.98421  0.016930203    0.0161763         3558 
 4170000   0.59045103   -7.5698901    845.29553  0.016892397  0.016170735         3538 
 4171000   0.58735379   -7.5891473    846.23713  0.016907159  0.016165175         3551 
 4172000   0.58168113    -7.567878    846.98073   0.01691796  0.016159619         3530 
 4173000   0.57784813   -7.5726919    844.64522  0.016867266  0.016154059         3519 
 4174000   0.59889256   -7.5757661    847.26389  0.016915507  0.016148509         3521 
 4175000   0.57967482   -7.5640387    846.67379  0.016899677  0.016142961         3515 
 4176000   0.58091916   -7.5795864    847.33583  0.016908841  0.016137412         3522 
 4177000   0.59547248   -7.5624621     846.7076  0.016892259  0.016131868         3517 
 4178000   0.58475657   -7.5646807    847.27631  0.016899559  0.016126328         3487 
 4179000   0.58008195   -7.5828608     846.2149   0.01687435  0.016120786         3533 
 4180000   0.58836117   -7.5532548    846.91048   0.01688418  0.016115246         3510 
 4181000   0.58048478   -7.5510628    845.88122  0.016859627  0.016109713         3511 
 4182000   0.59545497   -7.5821397    847.61901  0.016890224  0.016104176         3508 
 4183000   0.58661749    -7.576758    844.97379  0.016833489  0.016098643         3530 
 4184000   0.58117647   -7.5644963    845.79926  0.016845906  0.016093107         3517 
 4185000   0.57889814   -7.5762008    846.18744   0.01684961  0.016087581         3502 
 4186000   0.57776118   -7.5548265    847.12149   0.01686418  0.016082052         3521 
 4187000   0.59020056   -7.5768161    847.17651  0.016861247  0.016076521         3538 
 4188000   0.57759359   -7.5617348    846.17328  0.016837259  0.016070995         3542 
 4189000   0.57657919   -7.5526685    846.06149  0.016831015  0.016065467         3512 
 4190000   0.57004941    -7.579046    846.54205  0.016836556  0.016059945         3529 
 4191000    0.5829126    -7.586329    847.58357  0.016853248  0.016054426         3524 
 4192000    0.5722149   -7.5880048    846.68356  0.016831337  0.016048904         3524 
 4193000   0.58750191   -7.6015578    845.56399  0.016805072  0.016043388         3544 
 4194000   0.56877968   -7.5821759    846.14238  0.016812557  0.016037875         3549 
 4195000   0.57658495   -7.5909214    845.96537  0.016805033  0.016032361         3513 
 4196000   0.57876418   -7.5849068    845.80173  0.016797778  0.016026852         3520 
 4197000   0.57848603   -7.5651204    844.79113   0.01677371  0.016021348         3539 
 4198000   0.58404137   -7.5690711    846.45032   0.01680265  0.016015842         3536 
 4199000   0.57958192   -7.5703228    845.51626  0.016780112  0.016010339         3505 
 4200000   0.57176526   -7.5809461    847.55017  0.016816472  0.016004836         3540 
 4201000   0.57569612   -7.5868708    845.84717  0.016778687  0.015999332         3550 
 4202000   0.57315162   -7.5877958    847.20776  0.016801677  0.015993835         3555 
 4203000   0.57945891   -7.5838871    847.38787  0.016801251  0.015988342         3541 
 4204000   0.58238613   -7.5877053    847.05353  0.016790627  0.015982853         3514 
 4205000   0.57288253   -7.5975096    845.43538  0.016754566   0.01597736         3551 
 4206000   0.58081069   -7.5987681    846.20162  0.016765764  0.015971871         3539 
 4207000   0.57073016   -7.5757312    846.54066  0.016768494  0.015966388         3534 
 4208000   0.57592081   -7.5892679    847.19976  0.016777562  0.015960905         3517 
 4209000   0.58614339   -7.5778167    845.95448  0.016748921  0.015955423         3521 
 4210000   0.58255888   -7.5741647    846.28006  0.016751387  0.015949942         3537 
 4211000   0.57421842   -7.5878863    847.47065   0.01677097  0.015944468         3519 
 4212000   0.58143037   -7.5868254    845.98198  0.016737535  0.015938993         3519 
 4213000   0.59105071   -7.5817078     845.1079  0.016716273  0.015933522         3491 
 4214000   0.57557884   -7.5802141    846.89158  0.016747579  0.015928051         3502 
 4215000   0.57065791   -7.5766906    846.03359  0.016726643  0.015922587         3490 
 4216000   0.57288433    -7.582353    846.36241  0.016729175  0.015917123         3510 
 4217000   0.57961207   -7.5858179    845.67985  0.016711719  0.015911662         3528 
 4218000   0.58114703   -7.5836018    845.86271   0.01671137  0.015906197         3578 
 4219000     0.566344   -7.5920646    845.86493  0.016707453   0.01590074         3507 
 4220000    0.5669102   -7.5904385    845.74978   0.01670122  0.015895279         3544 
 4221000   0.56856235   -7.5945209    847.21877  0.016726265  0.015889827         3564 
 4222000   0.56935185   -7.5895298    845.94206  0.016697104  0.015884369         3539 
 4223000   0.58296098   -7.5916842    845.70697  0.016688511  0.015878916         3532 
 4224000   0.58655728   -7.5769624    846.13689  0.016693042  0.015873465         3514 
 4225000   0.57253271   -7.5968243    845.17404  0.016670099  0.015868024         3521 
 4226000   0.58278792   -7.5984545    846.28131  0.016687989  0.015862582         3525 
 4227000   0.57859099   -7.5774147    845.27908  0.016664283  0.015857139         3528 
 4228000   0.57734037   -7.5991834    845.92211  0.016673015  0.015851697         3487 
 4229000   0.56936252   -7.5872084    846.47411   0.01667995  0.015846257         3512 
 4230000   0.57965369   -7.5869884     846.5703  0.016677902  0.015840823         3531 
 4231000   0.58905266   -7.5687309    845.59424  0.016654736  0.015835394         3508 
 4232000   0.59089373   -7.5918528    845.81274  0.016655103  0.015829957         3527 
 4233000   0.56715376   -7.5878893    845.92877  0.016653452   0.01582453         3529 
 4234000    0.5791259   -7.5807376    845.42322  0.016639569  0.015819099         3503 
 4235000   0.57707898    -7.574688    845.10911  0.016629459  0.015813673         3511 
 4236000   0.57780943   -7.6071461    847.13312  0.016665351   0.01580825         3527 
 4237000    0.5759293   -7.5915191    845.26081  0.016624593  0.015802827         3511 
 4238000   0.57600563   -7.5816897    846.01904   0.01663558  0.015797405         3509 
 4239000   0.56210955    -7.585518    846.03275  0.016631925  0.015791988         3533 
 4240000   0.55891884    -7.602954    845.99593  0.016627279  0.015786572         3496 
 4241000   0.56865436   -7.6011116    845.63163    0.0166162  0.015781162         3526 
 4242000   0.56946158   -7.5741184    846.25591  0.016624546  0.015775752         3562 
 4243000   0.56281668   -7.5814159    846.34681  0.016622414  0.015770345         3516 
 4244000   0.55676483   -7.5910316    846.48863  0.016621282  0.015764935         3541 
 4245000   0.58562956   -7.5919413    847.08277   0.01662903  0.015759531         3540 
 4246000   0.56299813   -7.5938218    846.01186  0.016604095  0.015754125         3553 
 4247000   0.57098927   -7.5914049    845.63335  0.016592759  0.015748721         3562 
 4248000   0.56392679    -7.612271    845.18309   0.01658002  0.015743318         3549 
 4249000   0.56569244   -7.5937166    846.54181  0.016602766  0.015737917         3517 
 4250000   0.57729135   -7.6016097    846.16924  0.016591554  0.015732519         3538 
 4251000   0.57907711   -7.5838009    845.03245  0.016565366   0.01572713         3508 
 4252000   0.56275858   -7.5896884    844.53103  0.016551643  0.015721737         3536 
 4253000   0.57720211   -7.6080191    846.03396    0.0165772  0.015716349         3531 
 4254000   0.56439309   -7.5923406    844.60652   0.01654534  0.015710959         3535 
 4255000   0.58204393   -7.6043616    845.27341  0.016554512  0.015705582         3519 
 4256000    0.5857388   -7.5955052     845.5663  0.016556358  0.015700198         3534 
 4257000   0.56078974   -7.5921917    846.35825  0.016567971   0.01569482         3533 
 4258000   0.57483557    -7.611469    845.85127  0.016554158  0.015689441         3570 
 4259000   0.56879494   -7.5859748    844.66974  0.016527153  0.015684067         3509 
 4260000   0.55748171   -7.5870514    845.68409  0.016543116   0.01567869         3546 
 4261000    0.5772966   -7.6017206     844.4356  0.016514816  0.015673316         3528 
 4262000    0.5786002   -7.5969597    846.23791  0.016546182  0.015667947         3470 
 4263000   0.56434807    -7.591448    847.33719  0.016563789  0.015662578         3523 
 4264000   0.57180962   -7.6013204    846.77363  0.016548891  0.015657213         3518 
 4265000   0.57988251   -7.6012185     846.7557   0.01654466  0.015651846         3546 
 4266000   0.57095721   -7.6149848    845.28502  0.016512053  0.015646484         3502 
 4267000   0.58980732   -7.5829281     843.4745  0.016472824  0.015641122         3512 
 4268000   0.56281282   -7.5924384    846.59445  0.016529882  0.015635768         3521 
 4269000   0.57319834   -7.6081407    846.11247  0.016516602  0.015630411         3556 
 4270000   0.57564548   -7.6055341    845.89849  0.016508558  0.015625056         3514 
 4271000   0.55713046   -7.5989463     846.1515  0.016509629  0.015619706         3511 
 4272000   0.56724369   -7.5928773     846.8005  0.016518424  0.015614358         3475 
 4273000   0.58123093   -7.6042435    845.97065  0.016498375  0.015609016         3508 
 4274000   0.55906146    -7.593046    845.07549  0.016477061  0.015603668         3522 
 4275000    0.5612231   -7.6004904     844.6053  0.016464041  0.015598326         3548 
 4276000   0.56823732    -7.597279    844.24519  0.016453173  0.015592985         3487 
 4277000   0.55693681   -7.5999624    844.58668  0.016455979  0.015587645         3516 
 4278000    0.5704506   -7.6023713    845.66991  0.016473233  0.015582304         3503 
 4279000   0.57202938   -7.6010434    845.39618  0.016464053  0.015576969         3512 
 4280000   0.57910512   -7.5853825    845.81952  0.016468449  0.015571639         3487 
 4281000   0.57214439   -7.6168944    843.70398  0.016423421  0.015566306         3504 
 4282000    0.5600078   -7.6069501    845.69138  0.016458263  0.015560976         3531 
 4283000   0.56318129   -7.5957285    844.16566  0.016424735  0.015555649         3496 
 4284000   0.56819435   -7.6030601     843.8638  0.016415029  0.015550323         3540 
 4285000   0.56833534   -7.5999242    846.22834  0.016457183  0.015544999         3544 
 4286000   0.57207342   -7.6020049    844.54141  0.016420544  0.015539676         3532 
 4287000   0.56071134   -7.6099784    844.08859  0.016407911  0.015534357         3526 
 4288000   0.57277652   -7.5935697    844.20533  0.016406354  0.015529043         3524 
 4289000   0.55053181   -7.5829017    842.96661  0.016378461  0.015523726         3518 
 4290000   0.57240884   -7.5828709    846.12746  0.016436042  0.015518415         3512 
 4291000   0.56595461   -7.6069157    844.63493  0.016403226  0.015513103         3534 
 4292000   0.56710111   -7.6060103    845.60413  0.016418223  0.015507793         3509 
 4293000    0.5730615   -7.6024879    845.58237  0.016413976  0.015502487         3516 
 4294000   0.56885639   -7.5929097    844.83784  0.016395704  0.015497183         3531 
 4295000   0.55781164   -7.6105292    844.09386  0.016377452  0.015491879         3506 
 4296000   0.56314074   -7.6145137    845.46493  0.016400235  0.015486573         3517 
 4297000   0.55517282    -7.598442     845.3273  0.016393749  0.015481279         3508 
 4298000     0.564912   -7.6135793    844.72839  0.016378323  0.015475981         3529 
 4299000   0.55354813   -7.6021849     845.5759  0.016390942  0.015470686         3511 
 4300000   0.57122769   -7.6076285    845.72796  0.016390077   0.01546539         3503 
 4301000   0.56981628    -7.601453    845.30686  0.016378107  0.015460094         3528 
 4302000   0.55517061   -7.6113748    845.51634  0.016378358  0.015454804         3513 
 4303000   0.56280638   -7.6136949    844.46903  0.016354269  0.015449517         3524 
 4304000   0.56282707   -7.6075218    844.98053  0.016360373  0.015444235         3532 
 4305000   0.55873353   -7.6084958    845.25447  0.016361875   0.01543895         3495 
 4306000    0.5663838   -7.6144539    845.45139  0.016361886  0.015433668         3490 
 4307000   0.55448357   -7.6005629    845.05713  0.016350459  0.015428392         3531 
 4308000   0.56334621   -7.6121859    843.66866  0.016319805  0.015423114         3494 
 4309000   0.56880168   -7.5913893    845.34404  0.016348419  0.015417842         3484 
 4310000   0.55505746   -7.5896897    843.54044  0.016309753  0.015412572         3538 
 4311000   0.55297145   -7.6160575    844.80137  0.016330344  0.015407302         3535 
 4312000   0.56854946   -7.5945289    844.54187  0.016321542  0.015402035         3510 
 4313000   0.57098547   -7.6182215     845.7154  0.016340432  0.015396767         3533 
 4314000   0.55421106   -7.6017342     845.2077  0.016326837  0.015391502         3534 
 4315000   0.56163809   -7.6030218    843.97229  0.016299195  0.015386241         3491 
 4316000   0.56422772    -7.612509    845.15311  0.016318217  0.015380984         3527 
 4317000   0.56284646   -7.5968159    845.72761  0.016325527  0.015375726         3530 
 4318000   0.56149126   -7.6122516    844.55662  0.016299147  0.015370473         3516 
 4319000   0.55932962   -7.6171537    845.98423  0.016322919  0.015365221         3496 
 4320000   0.55147274   -7.5848194    845.27354  0.016305431   0.01535997         3506 
 4321000   0.56500192    -7.625833    845.28654  0.016301908   0.01535472         3510 
 4322000   0.56027328   -7.5874795    846.21383  0.016316015  0.015349475         3521 
 4323000   0.54801207   -7.6202999    844.70827  0.016283219  0.015344231         3515 
 4324000   0.55729135   -7.6099313    843.62533  0.016258582  0.015338988         3507 
 4325000   0.55558185   -7.6154688    845.85511  0.016297786  0.015333749         3529 
 4326000   0.55261621   -7.5767809    845.78652  0.016292698  0.015328508         3503 
 4327000   0.55501001   -7.6134783    844.84313  0.016270764  0.015323274         3535 
 4328000   0.55642075   -7.6085277     845.4315  0.016278333  0.015318043         3544 
 4329000   0.56116512   -7.6228746    844.22788  0.016251403   0.01531281         3526 
 4330000   0.56970869   -7.6096447    844.32963  0.016249608  0.015307579         3488 
 4331000   0.56056797   -7.6025501    846.32508  0.016284251  0.015302354         3528 
 4332000   0.54949923   -7.6142523     844.0332  0.016236404  0.015297125         3509 
 4333000   0.55506941   -7.5998733    845.31426  0.016257294  0.015291904         3501 
 4334000   0.55333697   -7.6133684    845.96776  0.016266108   0.01528668         3507 
 4335000   0.55855415   -7.6063645    843.34441  0.016211926  0.015281464         3515 
 4336000   0.55862967   -7.6122567    843.87691  0.016218422  0.015276246         3523 
 4337000   0.56242732   -7.6034928    844.66352  0.016229796  0.015271028         3474 
 4338000   0.54871809   -7.6032987    845.31986  0.016238663  0.015265814         3498 
 4339000   0.56460431   -7.6106566    846.22943   0.01625239  0.015260601         3498 
 4340000   0.55513721   -7.6121292    843.75575  0.016201147  0.015255388         3512 
 4341000   0.55627494   -7.6150121    844.20875  0.016206111  0.015250183         3512 
 4342000   0.54939084   -7.6134349    845.57481  0.016228597  0.015244977         3527 
 4343000   0.55787242   -7.6176923     845.7883  0.016228957  0.015239772         3534 
 4344000   0.55323278   -7.6050057    844.90097  0.016208198  0.015234568         3503 
 4345000   0.55241323   -7.6190581    843.84161  0.016184151  0.015229373         3516 
 4346000   0.55278781   -7.6160311     844.2318  0.016187908   0.01522418         3542 
 4347000    0.5536374    -7.616625     845.6051  0.016210511  0.015218991         3521 
 4348000   0.55372737   -7.6024049    845.88361  0.016212121  0.015213802         3525 
 4349000   0.54463127   -7.6161184    845.59328   0.01620283  0.015208616         3494 
 4350000   0.56325235   -7.6050054     845.0259  0.016188236  0.015203428         3493 
 4351000   0.56117984   -7.6068767    843.58524  0.016156922  0.015198241         3539 
 4352000   0.55192024   -7.6229599    844.30924  0.016167073  0.015193061         3511 
 4353000    0.5396288   -7.6215995    846.27047  0.016200905  0.015187881         3517 
 4354000   0.55584423    -7.595861    843.81096   0.01615011  0.015182701         3495 
 4355000   0.56025459   -7.6222615    844.62197  0.016161921  0.015177522         3500 
 4356000   0.54722465   -7.5986473    844.32663   0.01615256  0.015172346         3529 
 4357000   0.56394627   -7.6145405    842.87313  0.016121053  0.015167172         3502 
 4358000   0.55891373   -7.6157461    845.07885  0.016159531  0.015161999         3558 
 4359000   0.54937163    -7.614682    845.53042  0.016164457  0.015156825         3499 
 4360000   0.54488433   -7.6217616    844.07432  0.016132919  0.015151663         3517 
 4361000   0.56249358   -7.6271829    845.09596  0.016148742  0.015146498         3535 
 4362000   0.55030424   -7.6377627    845.75277  0.016157588  0.015141335         3539 
 4363000   0.56254448   -7.6242295    845.17479  0.016142845  0.015136176         3523 
 4364000   0.55396989   -7.6050702     843.7377  0.016111704  0.015131018         3517 
 4365000   0.55232743   -7.6012687    844.16279  0.016116128   0.01512586         3545 
 4366000   0.56131785    -7.615098    844.79962  0.016124592  0.015120704         3502 
 4367000   0.55413902   -7.6250946      843.645  0.016098867  0.015115556         3532 
 4368000   0.55785047   -7.6181099    844.10189  0.016103897  0.015110406         3507 
 4369000   0.55826174   -7.5993376     845.9385  0.016135243  0.015105262         3498 
 4370000   0.54007686   -7.6090674     843.3166  0.016081552  0.015100119         3486 
 4371000   0.54981179   -7.6064833    844.73146  0.016104847  0.015094978         3504 
 4372000   0.56309881    -7.622733    844.07172  0.016088589  0.015089837         3520 
 4373000   0.55052425   -7.6305767    843.84804  0.016080647  0.015084698         3512 
 4374000   0.55630449   -7.6227986    843.38068  0.016068067  0.015079563         3535 
 4375000   0.54867342   -7.6140857    843.90882  0.016074454  0.015074427         3524 
 4376000   0.54347883   -7.6242749    844.16599  0.016075678  0.015069296         3510 
 4377000   0.55946474   -7.6200983    843.59452  0.016061125   0.01506417         3525 
 4378000   0.55640182   -7.6231195    845.49443   0.01609362  0.015059045         3539 
 4379000   0.56500294   -7.6240281    843.10736  0.016044519  0.015053915         3539 
 4380000   0.55618624   -7.6124203    843.50001  0.016048326  0.015048792         3515 
 4381000   0.54597368   -7.6131445    843.52453  0.016045129  0.015043667         3521 
 4382000   0.55538699   -7.6210753    844.61167  0.016062142  0.015038545         3522 
 4383000   0.55047962   -7.6241251    843.59508  0.016039149  0.015033423         3509 
 4384000   0.55027036   -7.6060508    845.21999  0.016066378  0.015028309         3478 
 4385000   0.55621821   -7.6215929    844.06302  0.016040726  0.015023193         3507 
 4386000   0.55942764    -7.638581    843.38268  0.016024143  0.015018075         3505 
 4387000   0.56233281   -7.6232987    844.68474  0.016045223  0.015012966         3513 
 4388000   0.56919062   -7.6285283    844.42913  0.016036712  0.015007857         3525 
 4389000   0.54647608   -7.6184976    844.08903  0.016026601  0.015002747         3546 
 4390000   0.54334906   -7.6246838    843.82682  0.016017973  0.014997638         3535 
 4391000   0.56049169   -7.6093061    844.37671  0.016024761  0.014992534         3528 
 4392000   0.54653161    -7.629448    844.68765  0.016027012  0.014987432         3543 
 4393000   0.54399049   -7.6257685    844.06755  0.016011601  0.014982332         3531 
 4394000   0.56208596   -7.6218176    844.90954  0.016023925  0.014977232         3528 
 4395000    0.5507951   -7.6178929    844.69074  0.016016131  0.014972136         3510 
 4396000   0.55033379   -7.6234335    844.19064  0.016003007  0.014967045         3533 
 4397000   0.56251194   -7.6109542    843.58145  0.015987822  0.014961947         3535 
 4398000   0.54212621     -7.61917    843.80719  0.015988464  0.014956861         3513 
 4399000   0.54766718   -7.6162764    845.09204   0.01600917  0.014951773         3522 
 4400000   0.55677952   -7.6259883    844.00548  0.015984952  0.014946685         3524 
 4401000    0.5563892   -7.6184138    844.57861  0.015992172  0.014941603         3549 
 4402000   0.54406756   -7.6346868    844.78327  0.015992414  0.014936522         3504 
 4403000   0.54338541    -7.623997     844.6194   0.01598568  0.014931441         3539 
 4404000   0.55004383   -7.6092835     845.7638  0.016003705   0.01492636         3544 
 4405000   0.54595706   -7.6106515    843.85416  0.015963945  0.014921286         3516 
 4406000   0.55333732   -7.6182304    843.48444   0.01595333  0.014916211         3500 
 4407000   0.54432367   -7.6178549    844.95053  0.015977432  0.014911141         3501 
 4408000   0.54451525   -7.6339603    844.78959  0.015970765  0.014906072         3514 
 4409000   0.55512726   -7.6318299    843.77877  0.015948037  0.014901006         3514 
 4410000   0.53478189   -7.6424356    843.88089  0.015946351  0.014895945         3527 
 4411000   0.54518339   -7.6325894    843.78294  0.015940885  0.014890884         3513 
 4412000   0.53965614   -7.6308855    845.39156  0.015967656  0.014885825         3530 
 4413000   0.54436708   -7.6247688    843.64755  0.015931104  0.014880769         3532 
 4414000   0.53789971   -7.6022057    842.89616  0.015913309  0.014875713         3538 
 4415000   0.54803977   -7.6061422    842.77425  0.015907404  0.014870656         3548 
 4416000   0.53872314    -7.634964    843.32815  0.015914254  0.014865604         3529 
 4417000   0.54685488   -7.6330394    844.17556  0.015926639  0.014860555         3522 
 4418000   0.55800126   -7.6278795    844.24029  0.015924255  0.014855508         3501 
 4419000   0.53904179   -7.6410171    844.13494  0.015918665  0.014850463         3510 
 4420000   0.54685592   -7.6170088    844.16764  0.015915679  0.014845416         3532 
 4421000   0.55190197   -7.6111043    843.53688   0.01590019  0.014840374         3539 
 4422000   0.55447166   -7.6218695    844.89199  0.015922132  0.014835334         3515 
 4423000   0.54290995   -7.6286362    843.60051  0.015894199  0.014830297         3494 
 4424000   0.54776369   -7.6205272    844.61415    0.0159097  0.014825261         3523 
 4425000   0.54892538   -7.6100775    844.65796  0.015906929  0.014820226         3518 
 4426000   0.54822253   -7.6328272    844.63686  0.015902938  0.014815196         3505 
 4427000    0.5448759   -7.6395014    843.99658  0.015887293  0.014810165         3520 
 4428000   0.53943804    -7.647767     843.5533  0.015875363  0.014805137         3545 
 4429000    0.5401549   -7.6200538    844.02875  0.015880725  0.014800108         3532 
 4430000   0.54425697   -7.6296094    844.00751   0.01587674  0.014795079         3542 
 4431000   0.54390755   -7.6229236    843.92643  0.015871632  0.014790051         3538 
 4432000   0.52926065   -7.6326646    842.61527  0.015843398  0.014785028         3524 
 4433000   0.54431662   -7.6313018    843.62336  0.015858774  0.014780005         3527 
 4434000   0.55245097   -7.6123215    844.00396  0.015862351  0.014774988         3570 
 4435000   0.54351009    -7.620689    844.43401  0.015866855  0.014769971         3536 
 4436000   0.54563786   -7.6148547    844.77923  0.015869763  0.014764956         3496 
 4437000    0.5398331   -7.6315541     844.3441  0.015858014  0.014759947         3537 
 4438000   0.56362551   -7.6396895    843.74489  0.015843189   0.01475494         3525 
 4439000   0.54797658   -7.6164045    843.13465  0.015828164  0.014749932         3531 
 4440000   0.54507541   -7.6332734    842.31771  0.015809266  0.014744926         3526 
 4441000   0.55311165    -7.639566    843.23885  0.015822991  0.014739927         3556 
 4442000   0.53535428   -7.6271136      843.364  0.015821777  0.014734927         3561 
 4443000    0.5363902   -7.6262065    843.60402  0.015822718   0.01472993         3564 
 4444000   0.53190283    -7.619325    842.90687  0.015806084  0.014724928         3512 
 4445000    0.5371143   -7.6352118    842.31484  0.015791429   0.01471993         3540 
 4446000   0.53788431   -7.6454989    843.29326  0.015806216  0.014714936         3555 
 4447000   0.54108231   -7.6189864    843.43227  0.015805267  0.014709945         3538 
 4448000   0.54191282   -7.6346882    844.78554  0.015827067  0.014704956         3540 
 4449000   0.54798269   -7.6369851    844.69243  0.015821766  0.014699971         3530 
 4450000   0.54065614    -7.636791    842.60112  0.015779047  0.014694985         3539 
 4451000   0.53584245   -7.6325949    843.45405  0.015791471  0.014690004         3538 
 4452000   0.52511423   -7.6276338    843.83284  0.015795014  0.014685026         3520 
 4453000   0.53438316   -7.6438698    844.51256  0.015804187  0.014680048         3544 
 4454000   0.52674509   -7.6443283    843.38291  0.015779504  0.014675065         3529 
 4455000   0.55939395   -7.6442589    844.08094  0.015789019   0.01467009         3535 
 4456000   0.53070528   -7.6396731    843.05817  0.015766348  0.014665115         3515 
 4457000   0.53321982    -7.625723    843.39792  0.015769163  0.014660139         3536 
 4458000   0.54022707    -7.645124    842.71047  0.015752775  0.014655169         3535 
 4459000   0.55261481   -7.6244124    844.31869  0.015779298  0.014650203         3516 
 4460000    0.5191342   -7.6314753    843.12303   0.01575342  0.014645235         3559 
 4461000   0.54455765    -7.635372    842.30337  0.015734577  0.014640269         3543 
 4462000   0.53756413   -7.6457219    843.64353   0.01575608   0.01463531         3533 
 4463000    0.5502284   -7.6475688    844.69993  0.015772274  0.014630356         3584 
 4464000    0.5488486   -7.6268911    844.22484  0.015759872    0.0146254         3553 
 4465000    0.5292968   -7.6349506    843.12842  0.015735879  0.014620446         3518 
 4466000   0.54380924   -7.6539312    844.26683  0.015753598  0.014615493         3531 
 4467000   0.53457808    -7.637104    843.78781  0.015741135  0.014610542         3548 
 4468000   0.52643912   -7.6359387    843.01537  0.015723205  0.014605588         3524 
 4469000   0.52817975    -7.615444    843.70678   0.01573258  0.014600641         3549 
 4470000   0.54646421   -7.6235698    843.69531  0.015728846  0.014595697         3530 
 4471000   0.53537116   -7.6354033    844.10379  0.015732942  0.014590755         3544 
 4472000   0.53436436   -7.6309652    843.73984  0.015722642  0.014585813         3536 
 4473000   0.53348367   -7.6496639    842.07572  0.015688124  0.014580875         3516 
 4474000   0.53892598   -7.6603118    843.59675  0.015712948  0.014575937         3515 
 4475000   0.52428179   -7.6415783    844.45479  0.015725415  0.014570999         3512 
 4476000   0.53690125   -7.6346049     843.3169  0.015700717  0.014566069         3536 
 4477000   0.53048624   -7.6437867     843.8295  0.015706751  0.014561137         3542 
 4478000   0.52585495   -7.6338965    842.25354  0.015673916  0.014556209         3545 
 4479000   0.53601265   -7.6499983    843.47442  0.015693131  0.014551283         3541 
 4480000   0.52565272   -7.6566631    842.38809  0.015669421  0.014546355         3560 
 4481000   0.53800801   -7.6318292    842.20381  0.015662497   0.01454143         3542 
 4482000   0.54569815   -7.6488821    843.41093  0.015681447  0.014536507         3521 
 4483000   0.53225149   -7.6441734     843.5653  0.015680818  0.014531584         3549 
 4484000   0.53499806   -7.6458416    841.58465  0.015640512  0.014526661         3526 
 4485000   0.54456392   -7.6396787    843.21377  0.015667294  0.014521744         3511 
 4486000   0.53194909   -7.6402193    843.95042  0.015677486  0.014516831         3495 
 4487000   0.53806425    -7.656366    844.15194  0.015677735  0.014511916         3541 
 4488000   0.52897251   -7.6279718    842.65046  0.015646362  0.014507006         3549 
 4489000   0.53631678   -7.6399964    842.00555  0.015630904  0.014502096         3537 
 4490000   0.53693188   -7.6471103    843.79857  0.015660701  0.014497189         3521 
 4491000   0.54134493   -7.6414133    843.20871  0.015646269  0.014492284         3537 
 4492000   0.52767709   -7.6427147    843.82598  0.015654237  0.014487382         3530 
 4493000   0.53289979   -7.6393948    844.25522  0.015658714   0.01448248         3513 
 4494000   0.53106484   -7.6579572    843.04991  0.015632879  0.014477582         3545 
 4495000    0.5305013   -7.6524753    844.07319  0.015648372  0.014472686         3539 
 4496000   0.52819807   -7.6428669    842.99477  0.015624903  0.014467791         3550 
 4497000   0.53948594   -7.6484413    843.34489  0.015627916    0.0144629         3526 
 4498000   0.53493487   -7.6190256    843.72066  0.015631404  0.014458011         3512 
 4499000   0.54211022   -7.6453827    842.57452    0.0156067   0.01445312         3540 
 4500000   0.53540091   -7.6368922    843.05244  0.015612082  0.014448233         3517 
 4501000   0.54355526   -7.6296306    842.94817  0.015606683  0.014443349         3536 
 4502000   0.54696555    -7.646597    843.24383  0.015608689  0.014438467         3521 
 4503000   0.53001717   -7.6625594    843.89188  0.015617216  0.014433585         3535 
 4504000     0.541789     -7.65271    844.04571  0.015616595  0.014428704         3517 
 4505000   0.53119343   -7.6494102    843.13298  0.015596244  0.014423827         3571 
 4506000    0.5334795    -7.641753    843.22198  0.015594429  0.014418951         3554 
 4507000   0.54024781    -7.644935    843.19835  0.015590532  0.014414076         3538 
 4508000   0.52474341   -7.6568728    842.62586  0.015576491  0.014409205         3524 
 4509000    0.5227724   -7.6466303    843.85509  0.015595755  0.014404334         3523 
 4510000   0.53890228   -7.6544887    842.90614  0.015574762  0.014399467         3530 
 4511000   0.53480928   -7.6589081    842.22345  0.015558698  0.014394599         3526 
 4512000   0.53648027    -7.639206    842.71884  0.015564399  0.014389732         3525 
 4513000   0.52090781   -7.6298269    843.38019  0.015573163  0.014384866         3495 
 4514000   0.53242781   -7.6528026    841.88183  0.015542051  0.014380005         3508 
 4515000   0.54230352   -7.6609617    842.96389   0.01555858  0.014375146         3548 
 4516000   0.52400462   -7.6600562    843.89908  0.015572392   0.01437029         3512 
 4517000   0.53349433   -7.6416514    843.37499  0.015559276  0.014365434         3526 
 4518000   0.52538281   -7.6578913    842.43185  0.015538436  0.014360582         3529 
 4519000   0.52304292   -7.6442556    843.60009  0.015556541  0.014355732         3536 
 4520000   0.53209874   -7.6581509    842.31255  0.015529361  0.014350885         3528 
 4521000   0.51744924   -7.6644122     844.4812    0.0155659  0.014346039         3505 
 4522000   0.53174689   -7.6575125    843.45648  0.015543574    0.0143412         3518 
 4523000   0.52816517   -7.6536833    843.11792  0.015533899  0.014336356         3554 
 4524000    0.5322613   -7.6464058    843.03929  0.015529017  0.014331515         3505 
 4525000   0.53550962   -7.6663251    841.93717  0.015505289  0.014326675         3498 
 4526000   0.52707292   -7.6507969    841.69579  0.015497418  0.014321839         3547 
 4527000   0.53777686   -7.6571294    842.78379  0.015514023  0.014317002         3549 
 4528000    0.5180674   -7.6585888    842.20363   0.01549992  0.014312172         3555 
 4529000   0.52755861   -7.6366746    844.54908  0.015539653  0.014307342         3537 
 4530000   0.52009862   -7.6384259    844.41859  0.015533823  0.014302513         3523 
 4531000   0.53388734   -7.6687915    841.88709  0.015483835  0.014297685         3526 
 4532000   0.52010174   -7.6464335    842.66012  0.015494633  0.014292857         3546 
 4533000   0.52706122   -7.6640176    842.87193  0.015495109  0.014288035         3538 
 4534000   0.52767391   -7.6512945    843.60345  0.015505136  0.014283214         3515 
 4535000   0.52719633    -7.650204    841.71787  0.015467069  0.014278393         3491 
 4536000   0.52343013   -7.6525102    842.19341  0.015472395  0.014273577         3527 
 4537000   0.52499347   -7.6688729     843.4924  0.015492844  0.014268763         3514 
 4538000   0.53030636   -7.6583082    842.14163  0.015464625  0.014263949         3522 
 4539000   0.52876261    -7.671375     843.0898  0.015478626  0.014259136         3540 
 4540000   0.53595123   -7.6545888    842.42828  0.015463074  0.014254329         3555 
 4541000   0.53005059   -7.6668492    843.60166  0.015481202   0.01424952         3530 
 4542000   0.51132462   -7.6666201    842.75406  0.015462242  0.014244713         3532 
 4543000   0.52871848   -7.6469483    841.42277  0.015434419  0.014239909         3517 
 4544000   0.53075236   -7.6505761     842.9381  0.015458812  0.014235111         3543 
 4545000   0.51936979   -7.6597823    842.04169  0.015438975  0.014230314         3520 
 4546000   0.53547279   -7.6613054     841.8086  0.015431306  0.014225515         3516 
 4547000    0.5257607   -7.6755331    844.49801  0.015477201  0.014220719         3497 
 4548000   0.51904902   -7.6546747    842.71623   0.01544115  0.014215922         3505 
 4549000   0.53239602   -7.6629305    842.85704  0.015440336  0.014211129         3525 
 4550000   0.52078708   -7.6629499    843.45843  0.015447957   0.01420634         3546 
 4551000   0.52347376   -7.6577681    842.88901  0.015434135  0.014201551         3545 
 4552000   0.53308965   -7.6543772    843.38242  0.015439778  0.014196766         3531 
 4553000   0.52009791   -7.6551874    841.62379  0.015404199  0.014191981         3517 
 4554000   0.51393234    -7.670482    842.35055  0.015414115    0.0141872         3559 
 4555000   0.53559656    -7.657119    842.56826  0.015414714  0.014182418         3531 
 4556000   0.53803122   -7.6557225    843.20421  0.015422963  0.014177641         3514 
 4557000   0.52473441   -7.6574778    842.18723  0.015400981  0.014172865         3533 
 4558000   0.52037708    -7.650826    841.82391  0.015390959   0.01416809         3554 
 4559000    0.5178889   -7.6558216    843.79197  0.015423557  0.014163321         3530 
 4560000   0.52045183    -7.644126    841.42055  0.015376838  0.014158549         3525 
 4561000   0.51071834    -7.658913    842.21677  0.015388014  0.014153781         3521 
 4562000   0.51386132   -7.6446373    842.94981  0.015398031  0.014149012         3506 
 4563000   0.51260692   -7.6610439    842.67996  0.015389728  0.014144249         3506 
 4564000   0.52243554    -7.648555     841.2066  0.015359454  0.014139485         3529 
 4565000   0.50900298    -7.665065     840.7148  0.015347112  0.014134718         3520 
 4566000   0.52413549    -7.655282    842.46864   0.01537576  0.014129957         3528 
 4567000    0.5250923    -7.657417    842.94664  0.015381115  0.014125199         3548 
 4568000   0.51559766   -7.6692317    841.18898  0.015345683  0.014120444         3580 
 4569000   0.52483986   -7.6641727    842.11359  0.015359189  0.014115686         3542 
 4570000   0.52247694   -7.6724844    843.91934  0.015388755  0.014110932         3513 
 4571000   0.52584714   -7.6571693     843.4117  0.015376134  0.014106182         3519 
 4572000   0.52541819   -7.6650889    842.50989  0.015356334  0.014101434         3521 
 4573000   0.51329479   -7.6732273    842.08353  0.015345206  0.014096688         3549 
 4574000   0.52149623   -7.6602297    842.52219  0.015349843  0.014091948         3504 
 4575000   0.51910211   -7.6586318    841.79356  0.015333216  0.014087205         3527 
 4576000    0.5170172   -7.6681449    841.45518  0.015323703  0.014082465         3524 
 4577000   0.52204566   -7.6597199    841.46564  0.015320545  0.014077728         3546 
 4578000   0.52750373   -7.6537849    841.85817  0.015324344  0.014072992         3527 
 4579000   0.52143764    -7.667348    841.67361  0.015317639  0.014068255         3506 
 4580000    0.5288763   -7.6748386     841.1209  0.015304238  0.014063521         3527 
 4581000   0.52463024   -7.6797197    842.57271  0.015327307  0.014058793         3530 
 4582000   0.52338958   -7.6659475    842.24447  0.015317992   0.01405406         3547 
 4583000   0.52266867   -7.6474725    841.36362  0.015298633  0.014049332         3534 
 4584000    0.5112286   -7.6594354    842.59767   0.01531773  0.014044611         3514 
 4585000   0.53136424   -7.6602366    842.43065  0.015311353  0.014039881         3521 
 4586000   0.51697057   -7.6695189    842.47502  0.015308821  0.014035159         3521 
 4587000   0.51645976   -7.6760628    841.36829  0.015285377  0.014030438         3533 
 4588000   0.51750143   -7.6532278    842.28616  0.015298717  0.014025722         3545 
 4589000   0.52421449   -7.6687226    842.64786  0.015301951  0.014021005         3506 
 4590000   0.51761928   -7.6628435    841.57255  0.015279095   0.01401629         3534 
 4591000   0.52460247   -7.6648647    841.55401   0.01527543  0.014011578         3539 
 4592000   0.51664243   -7.6776889    841.61816  0.015273268  0.014006868         3562 
 4593000   0.52569065    -7.646694    842.33212  0.015282896  0.014002161         3539 
 4594000   0.52739767   -7.6564748    842.76008  0.015287333  0.013997457         3545 
 4595000   0.50490173   -7.6799845    842.46843  0.015278717  0.013992754         3531 
 4596000   0.52114893   -7.6825256     842.0791  0.015268333  0.013988053         3514 
 4597000    0.5208103   -7.6601838     841.3178  0.015251211  0.013983355         3558 
 4598000    0.5063133   -7.6757745     841.6484  0.015253886  0.013978653         3509 
 4599000   0.50971185    -7.675648    842.61305  0.015268048  0.013973956         3504 
 4600000   0.51247435    -7.675331    842.68383  0.015266011  0.013969263         3542 
 4601000   0.50682286   -7.6601863    841.97483  0.015249852  0.013964573         3514 
 4602000    0.5235881   -7.6766584    842.29156  0.015252274  0.013959883         3536 
 4603000   0.51899274     -7.66041    842.44934  0.015251817  0.013955195         3520 
 4604000   0.51258677    -7.664281    842.01946  0.015240723  0.013950511         3516 
 4605000    0.5152665   -7.6675924     841.8681  0.015234674  0.013945825         3540 
 4606000   0.51972565   -7.6760606    842.95159   0.01525097  0.013941139         3534 
 4607000   0.51833252   -7.6619729    841.96584  0.015229828   0.01393646         3499 
 4608000   0.50944592   -7.6805495    842.80868  0.015241766   0.01393178         3536 
 4609000   0.52229504   -7.6784368    841.39216  0.015212847  0.013927101         3574 
 4610000   0.50309746   -7.6764287    841.99038  0.015220361  0.013922424         3552 
 4611000   0.50951866   -7.6765697     841.7802  0.015213262  0.013917751         3541 
 4612000   0.51439607   -7.6859984    841.41477   0.01520336  0.013913079         3579 
 4613000   0.52532956   -7.6623926    840.88537  0.015190501  0.013908411         3548 
 4614000   0.51420967   -7.6782106    841.44023   0.01519723  0.013903745         3526 
 4615000   0.50955312   -7.6682966    842.59235  0.015214741  0.013899082         3545 
 4616000   0.51644495   -7.6741693    842.43304  0.015208569   0.01389442         3534 
 4617000   0.52164174   -7.6634793    842.09269  0.015199132  0.013889759         3496 
 4618000    0.5250997   -7.6855058     841.0471  0.015176972  0.013885098         3540 
 4619000   0.52091338   -7.6648974    841.19708  0.015176392  0.013880441         3551 
 4620000   0.51229031   -7.6851997    842.46222  0.015195928  0.013875786         3508 
 4621000   0.51635459   -7.6534079    842.50937  0.015193489  0.013871132         3538 
 4622000   0.51372655   -7.6859984    843.63064  0.015210418  0.013866481         3519 
 4623000   0.50167951   -7.6608644    841.66077   0.01517162  0.013861829         3527 
 4624000   0.52319228   -7.6658978    841.40932  0.015163807  0.013857179         3547 
 4625000   0.52410929   -7.6853877    842.05795  0.015172215  0.013852536         3549 
 4626000   0.51240755   -7.6679761    841.19904  0.015153463  0.013847889         3538 
 4627000   0.51965412   -7.6718354    842.09183  0.015166267  0.013843248         3538 
 4628000   0.50539349   -7.6614427    841.05904  0.015144394  0.013838609         3523 
 4629000   0.50554888   -7.6783029    841.76783  0.015153882  0.013833972         3528 
 4630000    0.5164641   -7.6700965    841.60134  0.015147612  0.013829337         3544 
 4631000   0.50242964   -7.6752522    841.64901  0.015145199  0.013824701         3518 
 4632000    0.5050098   -7.6790883     841.6733  0.015142366  0.013820069         3500 
 4633000   0.50134986   -7.6780412     840.2838  0.015114105  0.013815434         3551 
 4634000   0.51384866   -7.6644048    842.09199  0.015143361  0.013810806         3529 
 4635000   0.50891846   -7.6711351    840.82033   0.01511723  0.013806177         3525 
 4636000   0.50068989   -7.6868363    842.40891  0.015142524  0.013801552         3508 
 4637000   0.51061626   -7.6835833    840.96116  0.015113241  0.013796927         3523 
 4638000   0.50838884   -7.6827361    842.02459  0.015129089  0.013792305         3553 
 4639000   0.51839921   -7.6706248    841.45162  0.015115535   0.01378769         3507 
 4640000   0.50908344   -7.6912063    842.75729  0.015135727  0.013783073         3526 
 4641000    0.5130743   -7.6924854    842.24141  0.015123203  0.013778456         3525 
 4642000   0.51778561   -7.6745807     841.2346  0.015101871  0.013773839         3533 
 4643000   0.50803243    -7.686088    841.11196  0.015096417  0.013769225         3544 
 4644000   0.50474384   -7.6669286    840.74132  0.015086515  0.013764611         3501 
 4645000   0.51423361   -7.6736057    840.65928  0.015081795  0.013760002         3557 
 4646000   0.51122913   -7.6845871    842.73551   0.01511579  0.013755396         3555 
 4647000   0.51576476   -7.6690059    841.90549  0.015097652  0.013750793         3549 
 4648000   0.51104595   -7.6887696    841.90757  0.015094441   0.01374619         3530 
 4649000   0.50331083    -7.673144    841.45549  0.015083091  0.013741585         3565 
 4650000   0.50948263   -7.6817705    841.30031  0.015077067  0.013736985         3537 
 4651000   0.51038706   -7.6821495    840.85186   0.01506579  0.013732387         3527 
 4652000   0.51663103   -7.6857224    841.32249  0.015070982  0.013727791         3553 
 4653000   0.50210971   -7.6648528    841.76925  0.015075744  0.013723197         3539 
 4654000   0.50911898   -7.6903113    841.26928  0.015063553  0.013718605         3575 
 4655000   0.50211027   -7.6494942    840.38079  0.015044411  0.013714015         3534 
 4656000    0.5144535   -7.6805138    840.69665  0.015046833  0.013709426         3533 
 4657000   0.50557148   -7.6770907    841.63858  0.015060457   0.01370484         3546 
 4658000    0.5094437   -7.6849884    841.84564  0.015060928  0.013700258         3543 
 4659000   0.51161341   -7.6688416    841.17082  0.015045625  0.013695679         3510 
 4660000   0.51528607   -7.6764882    840.86183  0.015036871  0.013691101         3534 
 4661000     0.497773   -7.6594078    840.09138   0.01501987  0.013686522         3531 
 4662000   0.50536055   -7.6864111    842.56764  0.015060912  0.013681947         3524 
 4663000   0.51201506   -7.6819157    841.74042  0.015042898  0.013677374         3538 
 4664000    0.5051513   -7.6866759    842.36904  0.015050905  0.013672801         3550 
 4665000   0.50410439   -7.6853608    842.07466   0.01504242  0.013668231         3543 
 4666000   0.50240818   -7.6905317    840.74039  0.015015366  0.013663661         3498 
 4667000   0.49798893   -7.6917336    840.63332  0.015010237  0.013659094         3546 
 4668000   0.50403295   -7.6583973    840.61527  0.015006699  0.013654528         3517 
 4669000   0.50633149   -7.6883942    841.96691   0.01502761  0.013649965         3545 
 4670000   0.51349175   -7.6835977    840.83842  0.015004255    0.0136454         3538 
 4671000   0.50669911   -7.7052537    841.09322  0.015005588   0.01364084         3540 
 4672000   0.50272808   -7.6746138     841.3789  0.015007472  0.013636285         3534 
 4673000   0.50158878   -7.6713712    841.12938  0.014999811  0.013631729         3558 
 4674000   0.50444519     -7.69061    840.98384  0.014994007  0.013627174         3527 
 4675000   0.50807293   -7.6838207    842.47723  0.015017419  0.013622623         3545 
 4676000   0.50657227   -7.6809624    841.46402  0.014996151  0.013618072         3540 
 4677000   0.50026524   -7.7063151    840.80612  0.014981222  0.013613522         3535 
 4678000    0.5080359   -7.6880355    840.76769  0.014977335  0.013608973         3553 
 4679000   0.50933287   -7.6752517    841.54738  0.014988021   0.01360443         3518 
 4680000   0.49046541   -7.6870236    841.62249  0.014986155  0.013599885         3550 
 4681000   0.49430082   -7.6916812    841.64109  0.014983285  0.013595345         3531 
 4682000   0.50278102   -7.6789744    840.33066  0.014956761  0.013590804         3535 
 4683000   0.50098733   -7.6874447    840.96175  0.014964797  0.013586265         3542 
 4684000    0.5047217    -7.685425     840.9072  0.014960632  0.013581729         3576 
 4685000   0.49502001   -7.6845733    839.96593  0.014940696  0.013577196         3553 
 4686000   0.50884623    -7.685737    840.51349  0.014947245  0.013572664         3575 
 4687000   0.49758044   -7.6933391    841.98876  0.014970286  0.013568133         3523 
 4688000   0.50451082   -7.6912068    840.85871  0.014947005  0.013563605         3550 
 4689000   0.50457405   -7.6822003    841.51553   0.01495549   0.01355908         3516 
 4690000   0.49391826   -7.6753737    841.90986  0.014959308  0.013554553         3545 
 4691000    0.5049581   -7.6787221    839.33481  0.014910375  0.013550035         3543 
 4692000   0.50751767   -7.6856477     841.1209  0.014938919  0.013545515         3554 
 4693000   0.50212017   -7.6904852     840.7518  0.014929182  0.013540995         3572 
 4694000   0.49896258   -7.6728047    840.61219  0.014923523  0.013536478         3509 
 4695000   0.50495064   -7.7001605    841.47607  0.014935677  0.013531963         3573 
 4696000   0.50932898    -7.679743     841.8025   0.01493829  0.013527451         3567 
 4697000   0.49194101   -7.6660748    840.90802   0.01491924  0.013522943         3548 
 4698000   0.49946287   -7.6968473    842.40402    0.0149426  0.013518434         3563 
 4699000   0.48985948   -7.6862852    840.87589   0.01491232  0.013513926         3555 
 4700000   0.50318435   -7.6811595    840.08967  0.014895207   0.01350942         3540 
 4701000   0.50544493   -7.6732195    840.01774  0.014890763  0.013504916         3545 
 4702000   0.50336182   -7.6758439    840.90501  0.014903321  0.013500417         3541 
 4703000   0.49659232   -7.6847267    840.39618  0.014891137  0.013495918         3570 
 4704000   0.49625717   -7.6848511    840.68607  0.014893106  0.013491418         3541 
 4705000   0.49888567     -7.69106     841.1997  0.014899038  0.013486924         3554 
 4706000    0.5053686   -7.6849455    841.41934  0.014899762  0.013482427         3521 
 4707000   0.51318809   -7.6864008    840.69098  0.014883701  0.013477932         3525 
 4708000   0.48980096   -7.6990547    840.79723   0.01488242  0.013473439         3561 
 4709000    0.5023099   -7.6909754    840.21341  0.014868929  0.013468952         3564 
 4710000     0.491781    -7.693058    839.90026  0.014860231  0.013464463         3539 
 4711000   0.49854144   -7.6742211    841.11391  0.014878545  0.013459979         3521 
 4712000   0.50040538   -7.6908575    842.53498   0.01490052  0.013455495         3528 
 4713000   0.50621137   -7.6852302    840.75485  0.014865882  0.013451014         3527 
 4714000   0.50430173   -7.6911724    841.08186   0.01486851  0.013446535         3555 
 4715000   0.49480917   -7.6821863    840.76689   0.01485979  0.013442057         3588 
 4716000   0.49948328    -7.689825    840.92128  0.014859367   0.01343758         3547 
 4717000   0.49242511   -7.6882585    841.17515  0.014860702   0.01343311         3526 
 4718000   0.48887499   -7.6812228    841.03475  0.014855072  0.013428638         3557 
 4719000   0.48601819   -7.6972445    840.63227  0.014844816  0.013424169         3565 
 4720000      0.49994   -7.7063796    842.45115  0.014873785  0.013419703         3565 
 4721000   0.48876149   -7.6839804    840.52828  0.014836692  0.013415232         3534 
 4722000    0.4851945    -7.694423    841.89718  0.014857708   0.01341077         3494 
 4723000   0.50642178   -7.6970083    841.99623   0.01485631  0.013406307         3551 
 4724000   0.49166537   -7.7014791    840.85056  0.014832955  0.013401846         3540 
 4725000   0.50781227   -7.6909442    841.06492  0.014833597  0.013397386         3537 
 4726000   0.48550692   -7.7080297    841.46458  0.014837505  0.013392932         3577 
 4727000   0.49967696   -7.6822147    840.19763  0.014812031  0.013388477         3559 
 4728000   0.50696795   -7.6925245    840.79029  0.014819344  0.013384023         3546 
 4729000    0.5057743   -7.6825895    841.30421  0.014825266  0.013379574         3549 
 4730000   0.49552902   -7.6891552    840.00229  0.014799195  0.013375128         3545 
 4731000     0.508137   -7.6867028    841.81264  0.014827955  0.013370682         3557 
 4732000   0.49009771   -7.6973294    840.41081  0.014800134  0.013366237         3549 
 4733000   0.50294038   -7.6946933    840.66467  0.014801477   0.01336179         3557 
 4734000   0.50324462   -7.6913723    841.04302   0.01480501  0.013357347         3557 
 4735000   0.49424016    -7.685716    839.61035  0.014776669  0.013352906         3567 
 4736000   0.49194686   -7.6852792    840.79492  0.014794393  0.013348467         3540 
 4737000   0.50804979   -7.6893581    841.01531  0.014795147  0.013344029         3541 
 4738000    0.4922413   -7.7020646    842.17709  0.014812458  0.013339594         3564 
 4739000   0.49584357   -7.6922189    839.99686  0.014770994  0.013335159         3526 
 4740000   0.48879502   -7.7033121    840.71913  0.014780575  0.013330727         3551 
 4741000   0.49413294   -7.7002968     840.7819  0.014778561  0.013326293         3533 
 4742000   0.49256112   -7.6978875    840.50172  0.014770521  0.013321865         3538 
 4743000   0.48898517   -7.7125684    841.80139  0.014790242  0.013317437         3544 
 4744000   0.49954005   -7.7018468    840.22958  0.014759513  0.013313015         3543 
 4745000   0.49293496   -7.7073314    841.21099  0.014773639   0.01330859         3549 
 4746000   0.49195099   -7.6985271    841.01302   0.01476705  0.013304171         3547 
 4747000   0.50172711   -7.6967275    841.50484  0.014772573  0.013299753         3518 
 4748000   0.48974728   -7.6995794    840.33548  0.014748938  0.013295334         3527 
 4749000   0.49580707   -7.7118719    841.14546  0.014760045  0.013290916         3523 
 4750000   0.49522724   -7.7127346    840.82619  0.014751337  0.013286501         3525 
 4751000   0.48040336   -7.7089961    840.20402  0.014737319  0.013282088         3531 
 4752000   0.49026015   -7.6996983    839.78487  0.014726867  0.013277677         3547 
 4753000    0.4801609   -7.7004567    840.82068  0.014741929  0.013273269         3531 
 4754000   0.49293017   -7.7048952    840.94961  0.014741088  0.013268864         3536 
 4755000   0.48832361   -7.6987873    840.32642  0.014727067  0.013264458         3507 
 4756000   0.49048941   -7.7153527    840.56794  0.014728202  0.013260055         3535 
 4757000    0.4799047   -7.6944126    839.42767  0.014705131  0.013255653         3557 
 4758000   0.48717291   -7.6973581    840.11471  0.014714073  0.013251255         3518 
 4759000   0.49585669   -7.7107116    840.45092  0.014716868  0.013246862         3523 
 4760000   0.47547948   -7.7201173    839.47856  0.014696753  0.013242467         3552 
 4761000   0.49663617   -7.6963933    840.83318  0.014717377  0.013238074         3539 
 4762000   0.49653069   -7.7034002    840.31233  0.014705172  0.013233684         3548 
 4763000   0.49779724    -7.698974    839.89922  0.014694856  0.013229294         3551 
 4764000   0.50106429   -7.7023234     840.9095  0.014709444  0.013224905         3551 
 4765000   0.48829114   -7.6932731    839.86183  0.014688035  0.013220521         3515 
 4766000   0.49149921   -7.6930135    839.58975  0.014680196  0.013216136         3537 
 4767000   0.49375778   -7.7056088    841.07505  0.014703081  0.013211752         3513 
 4768000   0.48699496   -7.7062913    839.97262   0.01468073  0.013207369         3539 
 4769000   0.48791109   -7.6894193    840.14777  0.014680712  0.013202993         3545 
 4770000   0.49208736   -7.6929159    838.80545  0.014654183  0.013198617         3548 
 4771000   0.48867819    -7.693973    839.85044  0.014669364  0.013194244         3564 
 4772000   0.48742634   -7.7043724    840.36483  0.014675273  0.013189871         3551 
 4773000   0.49183754   -7.6971343     839.9406  0.014664791  0.013185501         3555 
 4774000   0.48452393   -7.7005938     839.9326   0.01466158   0.01318113         3519 
 4775000   0.48815031   -7.7154812    840.65159  0.014671057  0.013176761         3549 
 4776000   0.48497357   -7.7158179     839.7561  0.014652361  0.013172392         3572 
 4777000   0.48127114   -7.7063235    840.74098  0.014666474  0.013168028         3547 
 4778000   0.48127091   -7.6970279    840.76916  0.014663896  0.013163662         3539 
 4779000   0.48206257   -7.7111139    840.78234  0.014661058  0.013159301         3568 
 4780000   0.49303157   -7.6996007    840.09433  0.014645996  0.013154941         3531 
 4781000   0.47740354   -7.6942694     839.0927  0.014625474  0.013150582         3575 
 4782000   0.49702614   -7.6899956    839.68243  0.014632693  0.013146228         3542 
 4783000   0.49366339   -7.7055102    839.62608  0.014628651  0.013141876         3533 
 4784000   0.48784318   -7.7032773    841.24757  0.014653839  0.013137525         3513 
 4785000   0.50202319   -7.7062804    839.72067  0.014624184  0.013133175         3536 
 4786000     0.480211   -7.6952121    838.96393  0.014607953  0.013128826         3528 
 4787000   0.48449203   -7.6996736    840.57793  0.014632998  0.013124477         3534 
 4788000    0.4935761   -7.6976232    839.06365  0.014603586  0.013120133         3556 
 4789000   0.48164463   -7.7076094    840.28426  0.014621777  0.013115792         3537 
 4790000   0.48286069   -7.7171713    840.00956  0.014613945  0.013111451         3552 
 4791000   0.48392074   -7.7167124     840.8575  0.014625643   0.01310711         3566 
 4792000   0.48531816   -7.6798229     839.4059  0.014597348  0.013102773         3527 
 4793000   0.49231369   -7.7027421    839.92013  0.014603243  0.013098437         3550 
 4794000   0.48403846   -7.7191174      840.301  0.014606818  0.013094104         3537 
 4795000   0.49175604   -7.7108064    840.45122  0.014606382  0.013089771         3523 
 4796000   0.48869361   -7.7150709    838.89992  0.014576382  0.013085444         3551 
 4797000   0.48650369   -7.7048785    839.31991  0.014580639  0.013081119         3557 
 4798000   0.48466814   -7.7136796    840.83263  0.014603874  0.013076792         3527 
 4799000   0.47840307   -7.7074857    839.74837  0.014582003  0.013072467         3529 
 4800000   0.49126895   -7.6946707     838.8577  0.014563502  0.013068144         3551 
 4801000   0.49159621   -7.7065401    840.03396  0.014580885  0.013063824         3547 
 4802000   0.48315655   -7.7062785    840.62223  0.014588058  0.013059505         3525 
 4803000   0.49553272     -7.70807    839.68251  0.014568716  0.013055186         3547 
 4804000    0.4780299   -7.7176781    839.32434   0.01455947  0.013050871         3538 
 4805000   0.48434208   -7.7152492     840.7679  0.014581476  0.013046554         3520 
 4806000    0.4914202   -7.7105108    840.70721   0.01457739   0.01304224         3562 
 4807000   0.49660571   -7.7080615      839.835  0.014559236  0.013037929         3540 
 4808000   0.48538273   -7.7220607    841.57896  0.014586435  0.013033621         3549 
 4809000   0.48734191    -7.708273    839.99663  0.014555982  0.013029311         3543 
 4810000    0.4782833   -7.7262742    841.88005  0.014585586  0.013025005         3532 
 4811000   0.47532251   -7.7066409    840.83187  0.014564399    0.0130207         3531 
 4812000   0.48585616   -7.7118956    840.03908  0.014547643  0.013016397         3542 
 4813000   0.48068373   -7.7054544    839.96667  0.014543366  0.013012097         3516 
 4814000   0.47544469   -7.7232037    839.81148  0.014537659  0.013007798         3543 
 4815000    0.4848435   -7.7098497    839.65722   0.01453197  0.013003504         3563 
 4816000   0.48643469   -7.7047316    839.00842  0.014517726  0.012999208         3548 
 4817000   0.48937537    -7.702559    839.63272  0.014525512  0.012994915         3558 
 4818000   0.48111286   -7.7075353    839.53694  0.014520841  0.012990624         3532 
 4819000   0.48186167   -7.7127714    838.46078  0.014499218  0.012986332         3519 
 4820000   0.48666366   -7.7087713    840.49868  0.014531443  0.012982047         3525 
 4821000   0.48250956   -7.7197075    840.33785  0.014525649  0.012977764         3532 
 4822000   0.47416115    -7.725633    840.08993  0.014518352  0.012973477         3558 
 4823000   0.47962381    -7.711329    840.10907  0.014515673  0.012969194         3575 
 4824000   0.47306807    -7.707067    840.48467  0.014519152  0.012964915         3554 
 4825000   0.48023774   -7.7065541    839.66598  0.014502003  0.012960633         3536 
 4826000   0.49307176   -7.6999673    838.66008  0.014481629  0.012956354         3539 
 4827000   0.48064677   -7.7039546    840.25672  0.014506193  0.012952077         3553 
 4828000   0.48074684   -7.7070256     839.8824  0.014496727  0.012947803         3538 
 4829000   0.48259952   -7.7035262    839.32216  0.014484057  0.012943531         3545 
 4830000   0.47346536   -7.7045811    839.39008  0.014482231  0.012939259         3535 
 4831000   0.46762256   -7.7288736    840.80798  0.014503691  0.012934988         3552 
 4832000   0.47147214   -7.7244714    839.51901   0.01447846   0.01293072         3546 
 4833000   0.47497486   -7.7108389    838.80366  0.014463129  0.012926453         3564 
 4834000   0.47740112   -7.7228876    840.19423   0.01448411  0.012922186         3541 
 4835000   0.48219886   -7.7049475    840.03117  0.014478304  0.012917926         3567 
 4836000   0.47308599   -7.7109182    839.30631  0.014462819  0.012913667         3578 
 4837000   0.47743489    -7.710771    839.75722  0.014467597  0.012909408         3528 
 4838000   0.48047482   -7.7169536    839.46661  0.014459601  0.012905154         3566 
 4839000   0.47831824    -7.703994    838.64801  0.014442516  0.012900898         3517 
 4840000    0.4755389   -7.7154534    838.78042  0.014441812  0.012896644         3523 
 4841000   0.47204214   -7.7297722    840.27806  0.014464609  0.012892394         3544 
 4842000   0.47742268   -7.7225938    840.24668  0.014461082  0.012888144         3539 
 4843000    0.4759491   -7.7144259     839.4484   0.01444436  0.012883898         3545 
 4844000   0.48174999   -7.7081991    839.42836  0.014441033  0.012879651         3557 
 4845000   0.48163826   -7.7294828    838.88434  0.014428695  0.012875405         3547 
 4846000     0.480884   -7.7194939    840.28804  0.014449856  0.012871163         3545 
 4847000   0.47339356   -7.7087901    839.56473  0.014434439  0.012866922         3522 
 4848000   0.46774855   -7.7388396    839.71984  0.014434128  0.012862681         3556 
 4849000    0.4643886   -7.7213371    840.05272  0.014436872  0.012858443         3536 
 4850000    0.4808529   -7.7286009    838.41704  0.014405791  0.012854207         3555 
 4851000   0.47756943   -7.7179336    838.16516  0.014398495  0.012849974         3551 
 4852000   0.47706807   -7.7176064    838.86478  0.014407543  0.012845743         3532 
 4853000   0.47124427   -7.7248598    838.86717  0.014404615  0.012841513         3547 
 4854000   0.48060279   -7.7234635    840.06185  0.014422158  0.012837285         3564 
 4855000   0.46807645   -7.7137263    837.80354  0.014380425  0.012833058         3540 
 4856000   0.48009294   -7.7055061    839.53431  0.014407165  0.012828836         3558 
 4857000   0.47828157   -7.7314356    839.52183  0.014403984  0.012824615         3563 
 4858000   0.47924436   -7.7181925     839.4283  0.014399415  0.012820392         3533 
 4859000   0.47350262   -7.7357398    838.87657  0.014386989  0.012816174         3587 
 4860000   0.47436114   -7.7253063    839.53086  0.014395248  0.012811957         3548 
 4861000   0.47662958   -7.7157566    839.40822  0.014390184   0.01280774         3544 
 4862000   0.47331227   -7.7202725      838.637  0.014374006  0.012803526         3549 
 4863000   0.47698516   -7.7228187    840.03834  0.014395064  0.012799312         3532 
 4864000    0.4733794   -7.7234828     839.9712  0.014390954  0.012795101         3544 
 4865000   0.47847518   -7.7272874    838.56835  0.014363966  0.012790893         3540 
 4866000    0.4617772   -7.7266706    839.28055  0.014373211  0.012786685         3575 
 4867000   0.45972144   -7.7315258    838.91567  0.014364011   0.01278248         3541 
 4868000   0.46060612   -7.7352627    839.67415  0.014374044  0.012778274         3522 
 4869000   0.47087547   -7.7235354    839.48515  0.014367857  0.012774071         3584 
 4870000   0.46936936    -7.716231     838.7332   0.01435204  0.012769871         3553 
 4871000   0.46777184   -7.7304269    839.30104  0.014358808  0.012765676         3560 
 4872000   0.48418136    -7.717962    839.84979  0.014365247  0.012761479         3547 
 4873000   0.46623078   -7.7238035    839.60024  0.014358031  0.012757286         3546 
 4874000   0.46973146   -7.7163159    840.12215  0.014364009  0.012753091         3538 
 4875000   0.46682636   -7.7137383    839.03875  0.014342543  0.012748901         3542 
 4876000   0.48027412   -7.7180208    839.61169  0.014349393  0.012744713         3548 
 4877000   0.46440842   -7.7187793    839.84006  0.014350353  0.012740527         3542 
 4878000   0.47567546   -7.7219155    839.15113  0.014335642  0.012736343         3534 
 4879000   0.47822888   -7.7202109    839.11615  0.014332106   0.01273216         3541 
 4880000   0.47051565   -7.7180062    840.31707  0.014349677  0.012727975         3548 
 4881000   0.48034783   -7.7422304    840.56756  0.014351014  0.012723794         3538 
 4882000   0.47528204   -7.7129433    838.05381  0.014305165  0.012719613         3545 
 4883000   0.46816468   -7.7249499    838.36446  0.014307537  0.012715434         3569 
 4884000   0.47148834   -7.7298492    838.73472  0.014310926  0.012711259         3515 
 4885000   0.46889726   -7.7336594    839.70911  0.014324618  0.012707084         3561 
 4886000   0.46760386   -7.7243194    839.73531  0.014322133  0.012702911         3555 
 4887000   0.47246654   -7.7266953     838.4575  0.014297413  0.012698741         3526 
 4888000   0.46551009   -7.7391278    839.77484  0.014316947  0.012694572         3532 
 4889000   0.47003531   -7.7353203    838.49137  0.014292142  0.012690402         3587 
 4890000   0.46263563   -7.7284339    839.53824  0.014307059  0.012686237         3547 
 4891000   0.46361766   -7.7104684    839.90212  0.014310334  0.012682074         3537 
 4892000   0.47473539   -7.7308821    838.28978  0.014279943  0.012677911         3553 
 4893000   0.46676219   -7.7204938     838.6318   0.01428285  0.012673751         3552 
 4894000   0.47547541    -7.731117    838.52948  0.014278189  0.012669595         3552 
 4895000   0.46552422   -7.7263336    839.16877  0.014286155  0.012665437         3536 
 4896000   0.45909285   -7.7426971    840.44509  0.014304961  0.012661281         3549 
 4897000   0.46283973   -7.7421302    839.62972  0.014288165  0.012657127         3554 
 4898000   0.47307082   -7.7170974    839.26691  0.014279075  0.012652975         3556 
 4899000    0.4740019   -7.7371793    839.70945  0.014283688  0.012648826         3560 
 4900000   0.46581982   -7.7111077    838.24441  0.014255857  0.012644678         3549 
 4901000   0.47472587   -7.7279311    839.00868  0.014265944  0.012640532         3556 
 4902000   0.46472235   -7.7248289    838.48846   0.01425419  0.012636387         3569 
 4903000    0.4597059   -7.7431768    838.36239   0.01424914  0.012632245         3565 
 4904000   0.46057681   -7.7232717    838.19416  0.014243375  0.012628103         3495 
 4905000   0.47040343   -7.7457528    839.33501  0.014259854  0.012623964         3557 
 4906000   0.46457664   -7.7115592    838.06104  0.014235308  0.012619825         3538 
 4907000   0.46200333   -7.7311952    839.30405  0.014253516   0.01261569         3555 
 4908000   0.47084475   -7.7280848    839.89569  0.014260658  0.012611555         3524 
 4909000   0.46175352   -7.7429519    840.41439  0.014266558  0.012607423         3566 
 4910000    0.4758959   -7.7327877    838.99882  0.014239627   0.01260329         3570 
 4911000    0.4635081   -7.7218652    837.50327   0.01421135  0.012599162         3519 
 4912000   0.45677611   -7.7372728     839.7201  0.014246066  0.012595036         3553 
 4913000   0.46493592   -7.7390321    839.65924  0.014242134  0.012590909         3557 
 4914000   0.46083926   -7.7363046    839.76889  0.014241095  0.012586783         3556 
 4915000   0.47699571   -7.7355458    837.99297  0.014208087  0.012582657         3567 
 4916000   0.46915654   -7.7156725    838.50419  0.014213863  0.012578538         3556 
 4917000   0.46390578    -7.732267    839.47692  0.014227458  0.012574419         3565 
 4918000   0.46290257   -7.7522018    838.53149  0.014208545  0.012570301         3565 
 4919000   0.46335906   -7.7281452    839.00723  0.014213716  0.012566183         3559 
 4920000   0.46379579   -7.7236568      838.702  0.014205657  0.012562071         3574 
 4921000   0.45907212   -7.7376354    839.41543  0.014214852  0.012557958         3568 
 4922000   0.47051185   -7.7401803    838.01729  0.014188292   0.01255385         3565 
 4923000   0.47241881   -7.7212528    838.57921  0.014194922  0.012549742         3558 
 4924000   0.46066894   -7.7173096    837.83112  0.014179379  0.012545633         3558 
 4925000   0.47082981   -7.7328067    838.21636  0.014183018  0.012541529         3552 
 4926000   0.45289893   -7.7302175    839.34622  0.014199253  0.012537426         3558 
 4927000   0.46294826   -7.7555504    839.60234  0.014200703  0.012533322         3567 
 4928000   0.46575435   -7.7205129    839.15554  0.014190265  0.012529221         3564 
 4929000   0.46596661   -7.7347926    840.40687  0.014208542  0.012525124         3550 
 4930000   0.46509572   -7.7363789    839.04005  0.014182557  0.012521029         3551 
 4931000   0.46453907   -7.7498554    839.15751  0.014181665  0.012516935         3531 
 4932000   0.46452822   -7.7364336    840.31377  0.014198327  0.012512842         3536 
 4933000    0.4571896   -7.7356671    838.21728  0.014160032  0.012508748         3559 
 4934000   0.47540384   -7.7410654    837.33873  0.014142324   0.01250466         3511 
 4935000   0.47045115   -7.7166181    839.10573  0.014169296  0.012500576         3546 
 4936000   0.46375877   -7.7330624    839.51699  0.014173369  0.012496492         3542 
 4937000   0.47653677   -7.7406198    839.72202  0.014173959  0.012492409         3491 
 4938000   0.45944859   -7.7220251    838.29673  0.014147035  0.012488328         3555 
 4939000   0.46637653   -7.7354585     838.4605  0.014146934  0.012484248         3560 
 4940000   0.46314758   -7.7326625    839.45569  0.014160858  0.012480169         3535 
 4941000   0.46439364   -7.7356809    839.44826  0.014157867  0.012476094         3556 
 4942000   0.46143145   -7.7296213    839.01816   0.01414775   0.01247202         3533 
 4943000   0.47701884     -7.73877    838.20554  0.014131188  0.012467949         3558 
 4944000   0.47037706    -7.740325    840.11867  0.014160576  0.012463879         3570 
 4945000   0.46413223   -7.7375497    839.57012  0.014148469  0.012459812         3548 
 4946000   0.46382172   -7.7390851    839.36884  0.014142217  0.012455743         3538 
 4947000    0.4684105   -7.7490642    838.48719  0.014124506  0.012451676         3540 
 4948000   0.47352529    -7.731481    838.31699  0.014118785   0.01244761         3579 
 4949000   0.45595142   -7.7541992    838.36512  0.014116743  0.012443545         3532 
 4950000   0.44880302   -7.7250582    838.77563  0.014120802   0.01243948         3531 
 4951000    0.4652084   -7.7475041     838.5318  0.014113846  0.012435418         3561 
 4952000   0.45434673   -7.7385933    838.78272  0.014115218  0.012431358         3556 
 4953000   0.45974545   -7.7454747    837.82179  0.014096201  0.012427302         3564 
 4954000   0.46032846   -7.7374127    837.97875  0.014095996  0.012423247         3557 
 4955000   0.45577506   -7.7378112    839.14938  0.014112839  0.012419194         3530 
 4956000   0.45731538   -7.7376484    838.88518  0.014105549  0.012415143         3555 
 4957000   0.45747903   -7.7394633    838.68626  0.014099359  0.012411092         3562 
 4958000    0.4605617   -7.7321903    837.53133  0.014077103  0.012407043         3533 
 4959000   0.45486617   -7.7470389    838.39097   0.01408871  0.012402996         3560 
 4960000    0.4541592   -7.7386181    837.69986  0.014074258   0.01239895         3539 
 4961000   0.45419259   -7.7486224    838.96621  0.014092693  0.012394905         3552 
 4962000   0.45265656   -7.7382531    838.99024  0.014090257  0.012390862         3574 
 4963000   0.44494871    -7.747511    838.52174  0.014079551  0.012386821         3578 
 4964000   0.45793315   -7.7518248    838.77336  0.014080939  0.012382781         3540 
 4965000   0.45476443   -7.7473051    837.72929  0.014060579  0.012378743         3522 
 4966000   0.45040027   -7.7411324    838.21423  0.014065885  0.012374707         3568 
 4967000   0.46886337     -7.73137    839.44956  0.014083779  0.012370676         3544 
 4968000   0.46291384   -7.7397048    838.58002  0.014066358  0.012366644         3538 
 4969000   0.46825631   -7.7388527    838.11379  0.014055709  0.012362616         3566 
 4970000   0.46343174   -7.7427066    839.31271  0.014072983  0.012358588         3544 
 4971000   0.45161707   -7.7459275    838.24842   0.01405231   0.01235456         3558 
 4972000   0.46396185   -7.7361952    838.10216  0.014047033  0.012350535         3544 
 4973000   0.45697465   -7.7490816    838.15688  0.014045125  0.012346512         3560 
 4974000   0.45720241   -7.7341855    838.42256  0.014046753  0.012342489         3566 
 4975000   0.46163996   -7.7525492     838.7506  0.014049424  0.012338469         3560 
 4976000   0.46183258   -7.7305729    839.01001  0.014050945   0.01233445         3547 
 4977000   0.44983571    -7.749125    838.91991  0.014046613  0.012330434         3578 
 4978000   0.46368091   -7.7602667    838.23671  0.014032354  0.012326421         3520 
 4979000   0.45372521    -7.735491    838.14917  0.014028071  0.012322406         3537 
 4980000   0.44649862   -7.7570235    839.23687  0.014043455  0.012318393         3539 
 4981000   0.45310821   -7.7476333    838.92343  0.014035392  0.012314381         3540 
 4982000   0.44706553   -7.7331453    838.33416  0.014022718  0.012310376         3529 
 4983000   0.45002256    -7.745641    838.13804  0.014016624  0.012306367         3563 
 4984000   0.44926222   -7.7406756    839.05535  0.014029149  0.012302363         3561 
 4985000   0.45494553   -7.7428081    837.85508   0.01400627  0.012298359         3546 
 4986000   0.45582394   -7.7200411    837.41391  0.013996087  0.012294357         3536 
 4987000   0.46093624   -7.7598613    838.23356  0.014006977  0.012290359         3540 
 4988000    0.4568553   -7.7394901    838.00334  0.014000323   0.01228636         3559 
 4989000   0.46222026   -7.7483143    838.60424  0.014007554  0.012282363         3549 
 4990000   0.45584215   -7.7473536    839.23009  0.014015199  0.012278367         3552 
 4991000   0.45639155   -7.7446807    837.93036  0.013990689  0.012274375         3542 
 4992000   0.46305896   -7.7415805    838.10975  0.013990881  0.012270381         3547 
 4993000   0.45139787   -7.7436755    838.02136  0.013986604  0.012266391         3561 
 4994000   0.45057484    -7.751555    838.81988  0.013997128  0.012262401         3553 
 4995000   0.45545288   -7.7559612     838.7074  0.013992449  0.012258413         3564 
 4996000   0.45867273   -7.7481332    839.26667  0.013998977  0.012254428         3551 
 4997000   0.45057879   -7.7379471    838.32217  0.013980424  0.012250443         3548 
 4998000   0.44990252   -7.7398017    839.16132  0.013991619  0.012246459         3556 
 4999000   0.44738292    -7.736427    838.39672  0.013976074  0.012242477         3569 
 5000000   0.44681785   -7.7423018    839.11898  0.013985316  0.012238498         3556 
 5001000   0.46025818   -7.7408319    838.53181  0.013972736  0.012234517         3535 
 5002000   0.46277412    -7.768175    839.03103  0.013978259  0.012230541         3557 
 5003000    0.4553072   -7.7487675    838.53741  0.013967243   0.01222657         3539 
 5004000   0.44970286   -7.7487577    837.99645  0.013955443  0.012222596         3553 
 5005000   0.45285581   -7.7430824    838.13719  0.013954998  0.012218626         3570 
 5006000   0.45274532   -7.7355896    838.39825  0.013956556  0.012214659         3564 
 5007000   0.45152234   -7.7417122    837.87827  0.013945115   0.01221069         3548 
 5008000   0.45277143   -7.7564188    838.90425  0.013959402  0.012206723         3589 
 5009000     0.455037   -7.7432811    837.39868  0.013931568  0.012202757         3578 
 5010000   0.44288929   -7.7444398    838.10572  0.013940547  0.012198794         3577 
 5011000   0.44945092   -7.7504609    838.92413  0.013951376  0.012194834         3556 
 5012000   0.44214989   -7.7609588    838.32529  0.013938635  0.012190875         3576 
Loop time of 10646.3 on 48 procs for 5000000 steps with 4000 atoms

Performance: 81154.616 tau/day, 469.645 timesteps/s
99.4% CPU use with 48 MPI tasks x no OpenMP threads

MPI task timing breakdown:
Section |  min time  |  avg time  |  max time  |%varavg| %total
---------------------------------------------------------------
Pair    | 687.73     | 710.2      | 743.65     |  47.1 |  6.67
Neigh   | 66.614     | 67.725     | 69.268     |   7.6 |  0.64
Comm    | 568.36     | 603.55     | 624.16     |  48.1 |  5.67
Output  | 15.345     | 15.351     | 15.432     |   0.3 |  0.14
Modify  | 9089.4     | 9135.6     | 9173.5     |  21.4 | 85.81
Other   |            | 113.9      |            |       |  1.07

Nlocal:        83.3333 ave          91 max          75 min
Histogram: 2 1 1 8 7 12 11 3 1 2
Nghost:        1761.85 ave        1780 max        1745 min
Histogram: 4 0 13 2 6 8 4 4 5 2
Neighs:        10608.4 ave       11567 max        9354 min
Histogram: 1 2 1 3 7 14 8 7 3 2
FullNghs:      21215.7 ave       23084 max       18784 min
Histogram: 2 0 3 3 9 12 6 6 5 2

Total # of neighbors = 1018353
Ave neighs/atom = 254.58825
Neighbor list builds = 269861
Dangerous builds = 3

#clear
#
#next RN
#
#jump SELF
Total wall time: 2:57:29
