
units lj                  # Use reduced LJ style units
atom_style atomic         # Uncharged point particles
atom_modify map hash      # Needed for indexing of clusters etc
                          # Used to be able to find where atoms are in relation to each other.

lattice fcc 1.0 spacing 1 1 1
Lattice spacing in x,y,z = 1.5874011 1.5874011 1.5874011
region box block 0 10 0 10 0 10 units lattice
create_box 2 box
Created orthogonal box = (0.0000000 0.0000000 0.0000000) to (15.874011 15.874011 15.874011)
  3 by 4 by 4 MPI processor grid
create_atoms 1 box
Created 4000 atoms
  using lattice units in orthogonal box = (0.0000000 0.0000000 0.0000000) to (15.874011 15.874011 15.874011)
  create_atoms CPU = 0.003 seconds
set type 1 type/fraction 2 0.57 78393
Setting atom values ...
  2292 settings made for type/fraction
mass 1 1.0
mass 2 1.0
pair_style lj/cut  3.5
pair_modify tail  yes
pair_coeff 1  1  1.0  1.0   # Intearaction between 1 and 1 set with epsilon = 1 and sigma = 1
pair_coeff 1  2  1.5  0.8
pair_coeff 2  2  0.5  0.88

write_data data.0
System init for write_data ...
Neighbor list info ...
  update every 1 steps, delay 10 steps, check yes
  max neighbors/atom: 2000, page size: 100000
  master list distance cutoff = 3.8
  ghost atom cutoff = 3.8
  binsize = 1.9, bins = 9 9 9
  1 neighbor lists, perpetual/occasional/extra = 1 0 0
  (1) pair lj/cut, perpetual
      attributes: half, newton on
      pair build: half/bin/atomonly/newton
      stencil: half/bin/3d
      bin: standard
WARNING: Not all mixed pair coeffs generated from mixing. Use write_data with 'pair ij' option to store all pair coeffs. (../write_data.cpp:312)


#############################
#   M E L T   S Y S T E M   #
#############################

velocity all create 2.4 9622624 mom yes dist gaussian # Assign velocities
                                                    # Temperature 2.4, random number seed, zero linear momentum
                                                                                # Gaussian distribution

timestep 0.002   # simulation timestep
thermo 1000       # output thermodynamic data every 1000 steps bf 100

# Define a fix  in this case with index 1 applied to all
# particles in the simulation. This fix is for simulations
# in the anisotropic NPT ensemble. Note that we use the MTK
# correction.
fix 1 all npt temp 2.4 2.4 0.1 iso 5.68 5.68 0.5 mtk yes tchain 5 pchain 5 # Use NPT ensemble
                                                                         # Set temperature and pressure and damping
                                                                         # Numbers of thermostats in chain and in barostat
run 10000          # run for 10000 steps
Per MPI rank memory allocation (min/avg/max) = 3.642 | 3.644 | 3.648 Mbytes
Step Temp E_pair E_mol TotEng Press Volume 
       0          2.4   -4.8904957            0   -1.2913957   -4.1230707         4000 
    1000    2.4069404    -4.605173            0  -0.99566502    5.5801235    3637.7473 
    2000    2.4000861   -4.5844677            0  -0.98523865    5.7087232    3638.9801 
    3000    2.3761433   -4.5956312            0   -1.0323073     5.430075    3662.6534 
    4000    2.3703637   -4.6106167            0   -1.0559601    5.6219016    3631.1258 
    5000     2.429607   -4.5541747            0  -0.91067541    5.9239396    3636.8506 
    6000    2.4263319   -4.5748914            0  -0.93630344    5.5938674    3649.5321 
    7000    2.4280308   -4.6942927            0    -1.053157    5.3897781    3621.1506 
    8000    2.3603661   -4.6780003            0   -1.1383363    5.8872251    3588.4439 
    9000    2.3811056   -4.6195415            0   -1.0487759    5.4395953    3652.8436 
   10000       2.3903    -4.640603            0   -1.0560493    5.4594322    3638.0692 
Loop time of 2.65454 on 48 procs for 10000 steps with 4000 atoms

Performance: 650961.241 tau/day, 3767.137 timesteps/s
99.6% CPU use with 48 MPI tasks x no OpenMP threads

MPI task timing breakdown:
Section |  min time  |  avg time  |  max time  |%varavg| %total
---------------------------------------------------------------
Pair    | 1.2065     | 1.2765     | 1.3557     |   2.8 | 48.09
Neigh   | 0.21815    | 0.22403    | 0.23137    |   0.7 |  8.44
Comm    | 0.82025    | 0.89296    | 0.96345    |   3.2 | 33.64
Output  | 0.00025426 | 0.00025895 | 0.00032833 |   0.0 |  0.01
Modify  | 0.21743    | 0.24449    | 0.26309    |   2.5 |  9.21
Other   |            | 0.01629    |            |       |  0.61

Nlocal:        83.3333 ave          90 max          77 min
Histogram: 3 4 7 5 5 7 6 5 4 2
Nghost:        1748.04 ave        1782 max        1714 min
Histogram: 4 2 3 5 8 8 9 7 1 1
Neighs:        10479.5 ave       11733 max        9551 min
Histogram: 2 6 6 11 5 7 3 7 0 1

Total # of neighbors = 503014
Ave neighs/atom = 125.75350
Neighbor list builds = 901
Dangerous builds = 180

# Equilibrate just above the melting temperature to avoid step fn in T

fix 1 all npt temp 1.25 1.25 0.1 iso 5.68 5.68 0.5 mtk yes tchain 5 pchain 5
run 2000
Per MPI rank memory allocation (min/avg/max) = 3.644 | 3.646 | 3.650 Mbytes
Step Temp E_pair E_mol TotEng Press Volume 
   10000       2.3903    -4.640603            0   -1.0560493    5.4594322    3638.0692 
   11000    1.2458028   -6.6880832            0   -4.8198462    5.7813326    2794.1743 
   12000    1.2321765    -6.811217            0   -4.9634143    5.5483012    2772.9573 
Loop time of 0.657899 on 48 procs for 2000 steps with 4000 atoms

Performance: 525308.471 tau/day, 3039.980 timesteps/s
99.6% CPU use with 48 MPI tasks x no OpenMP threads

MPI task timing breakdown:
Section |  min time  |  avg time  |  max time  |%varavg| %total
---------------------------------------------------------------
Pair    | 0.29582    | 0.32697    | 0.34895    |   2.1 | 49.70
Neigh   | 0.042107   | 0.044149   | 0.046324   |   0.5 |  6.71
Comm    | 0.2104     | 0.23652    | 0.27034    |   2.8 | 35.95
Output  | 5.2594e-05 | 5.4021e-05 | 6.9232e-05 |   0.0 |  0.01
Modify  | 0.041994   | 0.045189   | 0.048597   |   1.0 |  6.87
Other   |            | 0.005019   |            |       |  0.76

Nlocal:        83.3333 ave          90 max          76 min
Histogram: 2 2 7 4 4 9 7 7 3 3
Nghost:        2106.81 ave        2121 max        2086 min
Histogram: 2 4 5 3 2 4 7 7 4 10
Neighs:        13800.8 ave       15401 max       12375 min
Histogram: 5 3 2 7 8 9 5 4 2 3

Total # of neighbors = 662440
Ave neighs/atom = 165.61000
Neighbor list builds = 143
Dangerous builds = 11

#############################
# L I N E A R  Q U E N C H  #
#############################

# Define solid atoms. This closely follows ten Wolde  Ruiz-Montero and Frenkel  Faraday Discuss  1996  104  93-110
# Compute components of the per-atom q6 vector
compute q6 all orientorder/atom degrees 1 6 components 6 nnn NULL cutoff 1.3 # compute the Q6 parameter.
                                                                             # Use all neighbours within 1.3 unit cell.

# get number of connections
compute coord_number all coord/atom orientorder q6 0.5

# An atom is solid if it has 8 or more connections (of a possible 14)
variable is_solid atom c_coord_number>=8
group solid dynamic all var is_solid    # Must be dynamic to update
dynamic group solid defined

# do clustering
compute cluster solid cluster/atom 1.3 # Create a cluster where all atoms within are solid and max 1.3 units from another member

# define chunks one chunk per cluster
compute clus_chunks solid chunk/atom c_cluster nchunk every compress yes  # Says which atoms are in which chunk

# count the size of each chunk
compute size_chunks solid property/chunk clus_chunks count


# Find the maximum entry in the vector of chunk sizes
variable max_n equal max(c_size_chunks)


# Thermo style which includes this variable
# thermo_style custom step temp pe vol v_max_n

thermo ${N}  # Print the thermo information every 100 steps
thermo 1000  

# Reset the npt fix at a lower temperature (below freezing)
fix 1  all npt temp  ${temp} ${temp}  0.1  iso  5.68  5.68  0.5  mtk yes tchain  5  pchain  5
fix 1  all npt temp  0.45 ${temp}  0.1  iso  5.68  5.68  0.5  mtk yes tchain  5  pchain  5
fix 1  all npt temp  0.45 0.45  0.1  iso  5.68  5.68  0.5  mtk yes tchain  5  pchain  5

dump dmp2 all dcd ${N} traj.dcd
dump dmp2 all dcd 1000 traj.dcd


compute msd all msd com yes
variable twopoint equal c_msd[4]/6/(step*dt+1.0e-6)
fix 9 all vector 10 c_msd[4]
variable fit equal slope(f_9)/6/(10*dt)
thermo_style custom step temp pe c_msd[4] v_twopoint v_fit v_max_n

fix 1 all npt temp 1.25 ${temp} 0.1 iso 5.68 5.68 0.5 mtk yes tchain 5 pchain 5
fix 1 all npt temp 1.25 0.45 0.1 iso 5.68 5.68 0.5 mtk yes tchain 5 pchain 5
run 2000000 # 5000000  # Run for this many steps
Neighbor list info ...
  update every 1 steps, delay 10 steps, check yes
  max neighbors/atom: 2000, page size: 100000
  master list distance cutoff = 3.8
  ghost atom cutoff = 3.8
  binsize = 1.9, bins = 8 8 8
  4 neighbor lists, perpetual/occasional/extra = 1 3 0
  (1) pair lj/cut, perpetual
      attributes: half, newton on
      pair build: half/bin/atomonly/newton
      stencil: half/bin/3d
      bin: standard
  (2) compute orientorder/atom, occasional
      attributes: full, newton on
      pair build: full/bin/atomonly
      stencil: full/bin/3d
      bin: standard
  (3) compute coord/atom, occasional
      attributes: full, newton on
      pair build: full/bin/atomonly
      stencil: full/bin/3d
      bin: standard
  (4) compute cluster/atom, occasional
      attributes: full, newton on
      pair build: full/bin/atomonly
      stencil: full/bin/3d
      bin: standard
Per MPI rank memory allocation (min/avg/max) = 9.845 | 9.850 | 9.855 Mbytes
Step Temp PotEng c_msd[4] v_twopoint v_fit v_max_n 
   12000    1.2321765    -6.811217 2.906558e-30 2.018443e-32 8.3333333e+20            4 
   13000     1.257895   -6.8163481   0.46605921 0.0029875589   0.03801951            4 
   14000    1.2730204   -6.8686752   0.89036188 0.0052997729  0.036669163            6 
   15000    1.2418327   -6.8570594    1.3248607 0.0073603371  0.035680674            2 
   16000     1.243347    -6.820307    1.7372299 0.0090480719  0.035614876            2 
   17000    1.2314834   -6.8401147    2.1557213  0.010567261  0.035153266            1 
   18000    1.2590392   -6.7980361    2.5432968  0.011774522  0.034990216            6 
   19000    1.2418426   -6.8592866    2.9029395  0.012732191  0.034558958            2 
   20000    1.2524558   -6.8199951    3.3388295  0.013911789  0.034180882            3 
   21000    1.2470151   -6.8250697    3.7367391  0.014828329  0.034066921            6 
   22000    1.2407803   -6.8653978    4.2032882  0.015921546  0.034179542            2 
   23000    1.2284347   -6.8957457    4.5855545  0.016614328  0.034278093            2 
   24000    1.2446744   -6.8281538    4.9244894  0.017098921  0.034149833            4 
   25000    1.2703099   -6.8240855    5.3987495  0.017995831  0.034086641            2 
   26000    1.2585514   -6.8507366     5.816808  0.018643615  0.034118357            3 
   27000    1.2277418   -6.8625305    6.1838143  0.019085846  0.034096416            1 
   28000    1.2331089   -6.8486946    6.6240392  0.019714402  0.034083528            2 
   29000     1.231388   -6.8603686    7.0596779   0.02028643  0.034070806            1 
   30000    1.2309908   -6.8492957    7.4289375  0.020635937  0.034078867            3 
   31000    1.2401421   -6.8775343    7.7819853  0.020919315  0.034032036            2 
   32000    1.2182198   -6.9045378    8.1207175  0.021147702  0.033949343            1 
   33000    1.2403054   -6.8358688    8.5535974  0.021599993  0.033843645            2 
   34000    1.2407364    -6.821534    9.0374331  0.022150571    0.0337921            1 
   35000    1.2374395   -6.9041769    9.3581814  0.022281384  0.033774817            1 
   36000    1.2369625   -6.8656167    9.7011526  0.022456371  0.033694495            3 
   37000     1.248446   -6.8594642    10.149757  0.022859813  0.033643452            2 
   38000     1.236541   -6.8636308    10.593408  0.023231158  0.033621804            2 
   39000    1.2239095   -6.9027154    10.992861  0.023489018  0.033581645            4 
   40000    1.2439692   -6.8802651    11.506333  0.023971526  0.033599019            1 
   41000    1.2575044   -6.8147368    12.057209  0.024506522  0.033696006            4 
   42000    1.2461248   -6.8792487    12.401871  0.024606887  0.033797977            1 
   43000    1.2125428   -6.8631423    12.844088  0.024891642  0.033884739            1 
   44000     1.234394   -6.8648938    13.173696  0.024950182  0.033943309            1 
   45000    1.2428965    -6.826497    13.528239  0.025052294   0.03395353            3 
   46000    1.2288726   -6.9337916    13.859186   0.02510722  0.033946848            2 
   47000    1.2168686      -6.8388    14.454697  0.025628894  0.033957015            1 
   48000    1.2305514   -6.8540932    14.817877  0.025725481  0.033987862            5 
   49000    1.2285407   -6.8694416    15.332769  0.026076138  0.034032222            3 
   50000    1.2383879   -6.8446047    15.783793  0.026306321  0.034075941            2 
   51000    1.2374673   -6.8283866    16.186957  0.026449277  0.034121516            1 
   52000    1.2044305   -6.8348577    16.627749  0.026647034   0.03416261            5 
   53000    1.2315255   -6.8939232    16.901671  0.026574954  0.034189445            2 
   54000    1.2427947   -6.8568022    17.315351   0.02672122  0.034199149            1 
   55000    1.2461848   -6.8945886    17.706978  0.026828754  0.034209722            1 
   56000    1.2403693   -6.8763404     18.10845  0.026947098  0.034221153            3 
   57000    1.2431564   -6.9209605    18.475441  0.027010878  0.034224311            3 
   58000    1.2466015   -6.8923982    18.801367  0.027013458  0.034210317            4 
   59000    1.2329767    -6.883404    19.179814  0.027090132  0.034172194            2 
   60000    1.2278482   -6.8976351    19.514708  0.027103761  0.034141301            2 
   61000    1.2091417   -6.8442801     20.05085  0.027391871  0.034107701            2 
   62000    1.2274461   -6.8855131    20.425323  0.027453391  0.034079849            2 
   63000    1.2314118   -6.8216108    20.914384  0.027664529  0.034072809            2 
   64000    1.2240653   -6.8588885    21.154463  0.027544874  0.034057792            6 
   65000    1.2535518   -6.8663373    21.597788  0.027689471  0.034028749            1 
   66000    1.2566858   -6.8785212    21.927304   0.02768599  0.034001143            2 
   67000    1.2103199   -6.9104098    22.258871  0.027685162  0.033970488            2 
   68000    1.1983005   -6.9162721    22.699555  0.027818082  0.033946078            3 
   69000    1.2417396   -6.8665208    23.286938  0.028124321  0.033933519            1 
   70000    1.2223331   -6.9321665     23.53872  0.028022285  0.033922416            2 
   71000    1.1959768    -6.879112    24.045865  0.028222846  0.033913117            1 
   72000    1.2305209   -6.8930065    24.427051  0.028272049  0.033904977            1 
   73000    1.2410207   -6.8715887    24.852847   0.02837083   0.03388948            3 
   74000    1.1991498   -6.8922261    25.283126  0.028471989  0.033878357            2 
   75000    1.2256598   -6.9405122     25.58037  0.028422633  0.033861773            2 
   76000    1.2159691   -6.8836018    26.051238  0.028564954  0.033845817            4 
   77000    1.2181143   -6.8940802    26.394851  0.028565856  0.033832144            4 
   78000    1.2388481   -6.8955485    26.881426  0.028719472   0.03382104            2 
   79000    1.2386343   -6.9188308    27.264687  0.028760218  0.033810747            5 
   80000    1.2002355   -6.8741624    27.738303  0.028894065  0.033811564            2 
   81000    1.2362022   -6.8744067    28.267489  0.029081778  0.033820841            1 
   82000    1.2227722     -6.89347    28.770972  0.029238793  0.033833227            3 
   83000    1.2333366    -6.905979     28.94665  0.029062901  0.033850664            2 
   84000    1.2395729   -6.8816596    29.508352  0.029274158  0.033859123            5 
   85000    1.2256637   -6.8936868    29.736959  0.029153881  0.033860746            5 
   86000     1.213816   -6.9128781    30.044877  0.029113252  0.033845903            2 
   87000    1.2145385   -6.9153867    30.358658  0.029079174  0.033830299            2 
   88000    1.2198223   -6.9178248    30.813893  0.029179823  0.033820342            2 
   89000    1.2162144   -6.9516052     31.03799  0.029061788  0.033800476            2 
   90000      1.20304   -6.9220669    31.267651  0.028951529  0.033771321            3 
   91000    1.2294273   -6.8848575    31.713193  0.029041385  0.033736725            1 
   92000    1.2024545   -6.9464955    31.850135   0.02884976  0.033689918            2 
   93000    1.2251902   -6.9398691    32.343726  0.028981833  0.033646695            3 
   94000    1.2079593     -6.89188    32.861151  0.029132226  0.033613116            2 
   95000    1.2287576   -6.8928978    33.040904  0.028983249   0.03357138            3 
   96000    1.2153953   -6.8497367    33.368491  0.028965704  0.033523057            1 
   97000    1.2303229   -6.9235393    33.664848  0.028921691  0.033478815            1 
   98000    1.2355599   -7.0100486    33.883437  0.028812446  0.033428121            1 
   99000    1.2101613   -6.9234145    34.145077  0.028741647  0.033364987            4 
  100000    1.2372361   -6.9412651    34.532881  0.028777401  0.033304912            2 
  101000     1.240501   -6.8979902    34.913834  0.028806793  0.033241509            4 
  102000    1.2298569   -6.9036041    35.377978  0.028903577  0.033188394            2 
  103000    1.2026559   -6.9152407     35.59204  0.028796149  0.033133568            3 
  104000    1.1911024   -6.9510842    35.996811  0.028843598  0.033077722            1 
  105000    1.2047744   -6.8840853     36.36065  0.028857659  0.033023925            1 
  106000    1.1746093   -6.9101899     36.62104  0.028790126  0.032971309            2 
  107000    1.2249363   -6.9551701    36.912988  0.028748433  0.032917116            1 
  108000    1.2114869   -6.9910339    37.183611  0.028691058   0.03286126            3 
  109000    1.2171043   -6.9356057    37.589932   0.02873848  0.032803688            1 
  110000    1.2322985   -6.9608744    37.885933  0.028701464  0.032746046            3 
  111000    1.2094315   -6.9459321    38.403216  0.028831243  0.032689928            5 
  112000    1.1974993   -6.9611538    38.821771  0.028885246  0.032641379            3 
  113000     1.221031   -6.8984755    39.263585  0.028955446  0.032598888            3 
  114000    1.2265579   -6.9457234    39.617994  0.028960522  0.032556187            2 
  115000    1.1774702    -6.926971     39.69186  0.028762217  0.032510496            2 
  116000    1.2146363   -6.9263488    40.168642  0.028856783  0.032463508            3 
  117000    1.1862294   -6.9345611    40.338426  0.028731073  0.032419073            1 
  118000    1.2275157   -6.9726674    40.802801  0.028815537   0.03237315            3 
  119000    1.2158283   -6.9238545    41.209117  0.028857925  0.032329025            2 
  120000    1.2269142    -6.903615     41.63375  0.028912326   0.03228896            3 
  121000    1.1929674   -6.9311872    41.941774  0.028885519  0.032251542            5 
  122000    1.2011977   -6.9004855    42.386916  0.028952811   0.03221581            2 
  123000    1.1810602   -6.9238133    42.701104  0.028930287  0.032178551            2 
  124000    1.2107244   -6.8820983    42.903761  0.028833173  0.032136552            2 
  125000    1.2256214    -6.931735    43.174102  0.028782735  0.032096929            4 
  126000    1.2194738   -6.9279057     43.45306  0.028738797  0.032054475            5 
  127000    1.1734777   -6.9820689    43.768741  0.028719647  0.032010825            2 
  128000    1.1802509   -6.9535519     44.28449  0.028831048  0.031967978            2 
  129000    1.2113178   -6.9394171      44.5036  0.028749095  0.031925923            4 
  130000    1.2207535   -6.9349728    45.016956  0.028857023  0.031882226            3 
  131000    1.1843862   -6.9576626    45.236091  0.028776139  0.031841128            6 
  132000    1.2271092    -6.967367    45.655842  0.028823133  0.031804986            2 
  133000    1.2301315   -6.9103636    46.261563  0.028985942  0.031774036            2 
  134000    1.2122886   -6.9519935    46.400197  0.028855844  0.031742428            1 
  135000    1.1900688   -6.9098646    46.990373  0.029006403  0.031712715            2 
  136000    1.1932975   -6.9552283    47.263841  0.028960687  0.031687388            2 
  137000    1.1957683   -6.9699312    47.618417  0.028964974  0.031659476            2 
  138000    1.2191812   -6.9786751    48.075809  0.029031285  0.031635586            3 
  139000    1.1879565   -6.9515109    48.453156  0.029048655  0.031611819            5 
  140000    1.1866645   -6.9832595    48.866791  0.029087376  0.031591882            5 
  141000    1.1760878   -6.9841946    49.001174  0.028960505  0.031569408            2 
  142000    1.1827241   -6.9954698    49.384965  0.028981787  0.031545081            4 
  143000    1.1962228   -6.9144392    49.936725  0.029100656  0.031520941            1 
  144000    1.2031617   -6.9575263    50.115041   0.02900176  0.031499422            3 
  145000    1.1760244    -6.964933    50.421383  0.028977806  0.031475761            2 
  146000    1.2162751   -6.9898964    50.885138  0.029044029   0.03145215            3 
  147000     1.181742   -6.9587279    51.337891  0.029103112  0.031432171            1 
  148000    1.1680768   -6.9920186     51.39334  0.028937691  0.031410107            2 
  149000    1.2122022   -7.0091879    51.679181  0.028903345   0.03138601            2 
  150000     1.194759    -6.983318    52.199816  0.028999898  0.031362282            2 
  151000    1.2017261   -7.0093442    52.633995  0.029047458  0.031343017            2 
  152000    1.1934237   -6.9809012     52.98011  0.029046113  0.031322878            1 
  153000    1.1936276   -6.9808941    53.171469  0.028960495  0.031302143            2 
  154000    1.2271973   -6.9775104    53.303374  0.028843817  0.031276972            2 
  155000    1.2335959   -6.9999367    53.733239  0.028888838  0.031247764            1 
  156000    1.1657886   -6.9490463    54.084638  0.028891366  0.031219517            6 
  157000    1.1843824    -6.949529    54.289773  0.028816228  0.031192483            4 
  158000    1.2264569   -6.9919726    54.665072  0.028831789  0.031164296            3 
  159000    1.2175491   -6.9762963    55.066526  0.028860862  0.031135105            1 
  160000    1.2043639   -6.9729836    55.267309  0.028785057  0.031105976            6 
  161000    1.1769402   -6.9848326    55.415551  0.028682997  0.031074507            5 
  162000    1.2150395   -7.0156467    55.697305  0.028650877  0.031040347            2 
  163000    1.1743062   -6.9881598    56.115431  0.028688871   0.03100605            1 
  164000    1.1770516   -6.9964363    56.408238  0.028662723  0.030975955            2 
  165000    1.2145988   -6.9849606    56.549315   0.02856026  0.030946029            5 
  166000    1.1929081   -7.0135952    56.933118  0.028580882   0.03091393            1 
  167000    1.1829619   -6.9555223    57.620614  0.028752802  0.030884465            6 
  168000    1.1826095   -6.9376624    57.668567   0.02860544  0.030854012            4 
  169000    1.1968594   -6.9578062    57.942818  0.028571409  0.030820936            2 
  170000    1.1719304   -6.9701348    58.008969  0.028435769  0.030788331            3 
  171000    1.1779036    -6.900398    58.753409  0.028632265  0.030755671            2 
  172000    1.2239653   -7.0204135    58.544152  0.028364414  0.030724217            3 
  173000     1.193283   -7.0304701    59.068001  0.028452794  0.030692204            2 
  174000    1.1835603   -6.9567756    59.626489  0.028556748  0.030660639            2 
  175000    1.1545497    -7.009587    59.876455  0.028512598  0.030632971            2 
  176000    1.1872027   -7.0132266    60.374501  0.028586412  0.030603571            5 
  177000    1.1632981   -7.0234255    60.719005  0.028587102  0.030579232            3 
  178000    1.1935323   -6.9928502    61.254279  0.028677097  0.030554364            2 
  179000    1.1819197   -7.0027298      61.2755  0.028526769  0.030527856            2 
  180000    1.1912395   -6.9694006    61.642761  0.028538315  0.030499096            7 
  181000    1.1842523   -7.0428063    61.965661   0.02852931   0.03047324            4 
  182000    1.1697148   -6.9708431    62.516331  0.028624694  0.030450645            1 
  183000    1.1634524    -7.046111    62.444413  0.028435525  0.030426575            2 
  184000    1.1885397    -7.027069    63.251032    0.0286463   0.03040337            3 
  185000    1.1841921   -7.0452483    63.500111  0.028603653  0.030382834            3 
  186000    1.1664501   -7.0128483    63.969688  0.028660254  0.030362572            2 
  187000    1.1842277   -6.9924494    64.364215  0.028682805  0.030344187            1 
  188000    1.1727955   -6.9486836    64.802965  0.028724718  0.030326418            2 
  189000    1.1681746   -6.9760217    65.170394  0.028734742  0.030308375            4 
  190000    1.1902935   -7.0528157    65.226972  0.028608321  0.030289173            4 
  191000    1.1879022    -7.013263    65.806346   0.02871132  0.030271264            4 
  192000    1.1711736   -7.0060863    66.150609  0.028711202  0.030255157            2 
  193000    1.1884664   -7.0446158    66.393666  0.028667386  0.030238663            2 
  194000    1.1594144   -7.0186439    66.982284  0.028772459  0.030226316            2 
  195000    1.1860807   -6.9939351     67.29937  0.028760414  0.030213716            2 
  196000    1.1672198   -7.0438656    67.852347  0.028848787  0.030202783            2 
  197000    1.2000436   -7.0360052    67.968069  0.028751298  0.030190528            3 
  198000    1.1873167   -6.9928895    68.551283   0.02885155  0.030180116            5 
  199000    1.1465587   -6.9810192    69.028701  0.028906491  0.030169436            2 
  200000    1.1782648   -7.0562572    68.979209  0.028741337  0.030157784            4 
  201000    1.1522867   -7.0595367    69.500327  0.028814398  0.030147401            4 
  202000    1.2171029   -7.0116996    69.850431  0.028816184  0.030138127            2 
  203000    1.1786716   -7.0597163    70.106901  0.028779516  0.030130142            3 
  204000    1.1387161   -6.9816076    70.780773  0.028913714  0.030121972            1 
  205000    1.1811335   -7.0620846    71.194506  0.028940856  0.030113668            4 
  206000    1.1768175   -7.0346555    71.712799  0.029010032  0.030107584            3 
  207000    1.1851996   -7.0460718    72.041934  0.029002389  0.030102503            4 
  208000    1.1500208   -7.0238279    72.636748  0.029101261  0.030098112            2 
  209000    1.1752179   -7.0233662    73.056646  0.029129444  0.030094497            3 
  210000     1.155146    -7.011705    73.007614  0.028971275   0.03008833            1 
  211000    1.1790915   -7.0311065     73.11056  0.028874629  0.030080673            4 
  212000    1.1865576   -7.0433949    73.459959   0.02887577  0.030073567            3 
  213000    1.1780287   -7.0368275    74.009093  0.028955044  0.030065526            3 
  214000     1.158957   -7.0632369    73.936366   0.02879142  0.030055426            2 
  215000    1.1635946   -7.0521902    74.036135  0.028696176  0.030042554            2 
  216000    1.1589496   -7.0515172    74.485578   0.02873672  0.030028776            2 
  217000    1.1860755   -7.0134303    74.724967  0.028696224  0.030015051            3 
  218000    1.1874032    -7.054443    74.720943  0.028563052  0.030000432            5 
  219000    1.1736373   -7.0765298    75.173527  0.028604843  0.029984531            1 
  220000    1.1414285   -7.0542257    75.275224  0.028513342  0.029968248            6 
  221000    1.1767638   -7.0613873    75.251815  0.028375496   0.02994878            1 
  222000    1.1838888   -7.0841317    75.484878  0.028335164  0.029926804            2 
  223000     1.154471   -7.0471458    75.925329  0.028372694  0.029905978            3 
  224000    1.1546202   -7.0736105    76.284471  0.028379639  0.029885442            4 
  225000    1.1599909   -7.0875033    76.577026  0.028361861   0.02986534            2 
  226000    1.1843059   -7.0409832    76.988197  0.028387978   0.02984569            3 
  227000    1.1527327   -7.0356335    77.314354  0.028382656  0.029826214            2 
  228000    1.1819159   -7.0550813    77.260341  0.028238429  0.029803616            2 
  229000    1.1429492   -7.0711417    77.769845  0.028300526   0.02978102           10 
  230000    1.1603012   -7.0145497    78.124973   0.02830615  0.029760185            2 
  231000    1.1763786   -7.0207929    78.235729  0.028223568  0.029739301            2 
  232000    1.1782177    -7.061385    78.987825  0.028372063  0.029719161            1 
  233000    1.1931736   -7.0663611    78.988928   0.02825069  0.029699475            1 
  234000    1.1565051   -7.0758538    79.485346  0.028306747  0.029680362            2 
  235000    1.1506915   -7.0229427    79.971932  0.028358841  0.029661322            2 
  236000    1.1453483   -7.0452792    79.940094  0.028227434  0.029642107            6 
  237000    1.1793432   -7.0425164    80.466256  0.028293339  0.029623397            4 
  238000    1.1694656   -7.0903015    80.798126   0.02829066  0.029603786            8 
  239000     1.137054   -7.0905986    81.184139  0.028306882  0.029587246            4 
  240000    1.1784717   -7.0640079    81.292568  0.028226586  0.029568465            1 
  241000    1.1452575   -7.0328466    81.630821  0.028226425  0.029548363            5 
  242000    1.1842357   -7.0584743     81.98012  0.028230069  0.029529634            2 
  243000    1.1545484   -7.0765079    82.094436  0.028153099  0.029511262            3 
  244000    1.1586284   -7.0953046    82.376754  0.028134137  0.029491787            3 
  245000    1.1584143   -7.0772683    82.719122  0.028135756  0.029471619            2 
  246000    1.1605772   -7.0813619    83.247379  0.028200331  0.029451926            2 
  247000     1.142333   -7.0913886    83.645439  0.028220458  0.029432382            3 
  248000    1.1515196   -7.0635425    83.932575   0.02820315  0.029413597            2 
  249000    1.1598767   -7.0419708    84.430948  0.028256676  0.029396524            2 
  250000    1.1643066   -7.0707328    84.410547  0.028136849  0.029379691            4 
  251000    1.1431199   -7.0677569    84.761182  0.028141162  0.029362359            2 
  252000    1.1495585    -7.105361    85.131017  0.028151791  0.029344475            2 
  253000    1.1514257   -7.0866249     85.43013  0.028139042  0.029325998            3 
  254000     1.160166   -7.0773462    85.707666  0.028119313  0.029308421            7 
  255000    1.1477834    -7.118149    86.280266  0.028196165  0.029291242            9 
  256000    1.1578129   -7.0828509    86.361116  0.028112342  0.029274821            3 
  257000    1.1372219   -7.1418574    86.603088  0.028081416    0.0292578            2 
  258000    1.1688483   -7.1191806    87.308972  0.028200572  0.029242654            1 
  259000    1.1827454   -7.0951453    87.874549  0.028273664  0.029228599            1 
  260000    1.1573824   -7.0865522    87.578588   0.02807006  0.029214395            5 
  261000    1.1692661   -7.1103563    88.074748  0.028120929  0.029200286            2 
  262000    1.1573707   -7.1007595    88.336411  0.028096823   0.02918522            1 
  263000    1.1454671   -7.1059904    88.503972  0.028043083   0.02917028            2 
  264000     1.144647   -7.1042747    89.185312  0.028151929  0.029155462            4 
  265000    1.1564104   -7.0864071    89.312889  0.028085814  0.029140565            4 
  266000    1.1305644   -7.1057509     89.87194   0.02815537  0.029126398            2 
  267000     1.178325   -7.1127214    90.169954  0.028142932   0.02911205            5 
  268000    1.1421966   -7.1412932    90.288734  0.028074855  0.029097142            4 
  269000    1.1529759   -7.1165587    90.492009   0.02803346  0.029081135            2 
  270000    1.1368916   -7.1124237    91.029463  0.028095513   0.02906506            1 
  271000     1.155029   -7.1173276    91.012373  0.027986585  0.029049328            2 
  272000    1.1259609   -7.1211834    91.246035   0.02795528  0.029031842            3 
  273000    1.1648351   -7.0954073    91.491028  0.027927664   0.02901515            4 
  274000    1.1543715   -7.0902498    91.968879   0.02797107   0.02899847            6 
  275000    1.1404966   -7.1046778    92.119138   0.02791489  0.028981484            2 
  276000    1.1493005   -7.0660648    92.746426  0.028003148  0.028965997            4 
  277000    1.1646329   -7.1480497    92.710812  0.027891339  0.028949579            2 
  278000    1.1693896   -7.1475868    93.147365  0.027921872  0.028933854            2 
  279000    1.1468513   -7.1013576    93.719337  0.027992633   0.02891915            1 
  280000    1.1625095   -7.0506992    94.068051  0.027996444  0.028905983            4 
  281000    1.1215035   -7.1344497     94.09253  0.027904072  0.028892261            6 
  282000    1.1499762   -7.1175047    94.149134  0.027821848  0.028875912            4 
  283000    1.1388622   -7.1457145    94.721717  0.027892143  0.028860719            5 
  284000    1.1367618   -7.1335856    94.698969  0.027787256  0.028844816            5 
  285000    1.1390996   -7.0875158    95.030302  0.027786638  0.028828897            1 
  286000    1.1314713   -7.1237681    95.353969   0.02778379  0.028813574            2 
  287000    1.1200347     -7.09013     95.89256  0.027843368  0.028796902            4 
  288000    1.1663125      -7.0754    96.078792  0.027800576  0.028779866            2 
  289000    1.1561735   -7.0997971    96.241219  0.027751217  0.028763208            4 
  290000    1.1455718   -7.0734157    97.006194  0.027875343  0.028745931            8 
  291000    1.1372186   -7.0709215    97.273823  0.027856192   0.02873055            2 
  292000    1.1498021     -7.12823    97.266908  0.027758821  0.028713864            2 
  293000    1.1323747    -7.091352    97.232876  0.027654402  0.028697085            2 
  294000    1.1072122   -7.1310074    97.283608  0.027574719  0.028679845            3 
  295000    1.1354591   -7.1476881    97.660201  0.027587627  0.028660804            2 
  296000    1.1347934    -7.178229    97.997226  0.027589309  0.028641814            2 
  297000    1.1234177   -7.1339189    98.668433  0.027684746  0.028623832            2 
  298000    1.1141976   -7.1195692    98.834959  0.027638411   0.02860675            2 
  299000    1.1095415   -7.0904948    99.070211  0.027611542  0.028588905            3 
  300000    1.1420669   -7.1263628    98.702381  0.027417328  0.028569896            3 
  301000    1.1207581   -7.1683796    99.291508  0.027489343   0.02854981            6 
  302000    1.1454782   -7.1677541    99.790227  0.027535935  0.028531308            3 
  303000    1.1194302    -7.125027    100.21343  0.027561449  0.028513336            2 
  304000    1.1535882   -7.1205983    100.16835   0.02745843  0.028495194            2 
  305000    1.1381225   -7.0723576      100.782  0.027536066  0.028477326            2 
  306000    1.1242906   -7.1645241    100.61828  0.027401493   0.02845936            4 
  307000    1.1353084   -7.1079036    101.11853  0.027448026  0.028440455            2 
  308000    1.1516374   -7.1241563    101.73624   0.02752604  0.028422245            6 
  309000    1.1331334   -7.1481095    101.64365  0.027411987  0.028404585            3 
  310000    1.1303416     -7.13392    101.83633  0.027375358  0.028385592            2 
  311000    1.1435556   -7.1225296     102.0656  0.027348766   0.02836694            5 
  312000    1.1302762   -7.1279098    102.23172  0.027305482  0.028348406            5 
  313000    1.1173973   -7.1436515    102.47436  0.027282843  0.028330197            4 
  314000    1.1214511   -7.1265042    102.70935  0.027258319  0.028311901            1 
  315000    1.1569626   -7.1465342    103.39719  0.027353753  0.028292942            3 
  316000    1.1317302   -7.1795732    103.16928  0.027207089  0.028273656            6 
  317000    1.1493398    -7.145853    103.74558  0.027272761  0.028253771            4 
  318000    1.1367368   -7.1471531     103.6799  0.027169786  0.028234989            2 
  319000    1.1569431   -7.1858859    103.93053  0.027150085  0.028215693            4 
  320000    1.1282826   -7.1583611    104.64053  0.027250137  0.028197911            4 
  321000    1.1331467   -7.1643956    104.87703  0.027226644   0.02818011            2 
  322000    1.1575297   -7.1457929    105.36386   0.02726808  0.028162393            3 
  323000    1.1061534   -7.1499373    105.77555  0.027289872  0.028144618            3 
  324000    1.1244215   -7.1615332    105.30117  0.027083633  0.028125156            2 
  325000    1.1470079   -7.1465178    105.70019  0.027102614   0.02810506            2 
  326000    1.1295831   -7.1846904    105.78677  0.027041608  0.028084856            4 
  327000    1.0990211   -7.1412473    106.24514  0.027075724  0.028064881            4 
  328000    1.1109024   -7.1656943    106.38154  0.027027829  0.028044644            4 
  329000    1.1136214   -7.1522934    106.89178   0.02707492  0.028024495            4 
  330000    1.1104339   -7.1777213     107.2586  0.027085506  0.028005221            3 
  331000    1.1189567   -7.2177845    107.69117   0.02711258  0.027986998            3 
  332000    1.1466955   -7.2030905    107.71344  0.027036505  0.027968712            6 
  333000    1.1016169   -7.1635723    107.93333  0.027010343  0.027950674            3 
  334000    1.1154004   -7.1953365    108.36404  0.027036937  0.027932686            4 
  335000    1.1370438   -7.1798923    108.63414  0.027023418  0.027914422            3 
  336000    1.1318402   -7.1515285    109.12685   0.02706519  0.027896426            3 
  337000    1.1221577   -7.1905907    108.78846  0.026901201   0.02787817            3 
  338000    1.1074295   -7.1927623    109.22026  0.026928072  0.027859076            2 
  339000    1.1146207   -7.2078106    109.49538  0.026916269  0.027840668            2 
  340000    1.1441873   -7.2220679     109.6666  0.026879068  0.027821819            5 
  341000    1.1672031   -7.1578543    110.20846  0.026932664  0.027803605            1 
  342000    1.1297503   -7.2009651    110.19513  0.026850665  0.027786578            3 
  343000    1.1160012   -7.2020647    110.81884  0.026923916  0.027768397            2 
  344000    1.1004213   -7.2040907    111.14778  0.026925335  0.027751143            1 
  345000    1.1254171   -7.2036235    111.19721  0.026859229  0.027733773            3 
  346000    1.0990253   -7.1909254    111.72573  0.026908895  0.027716026            3 
  347000    1.1198051   -7.1919145    112.27819  0.026964022  0.027699188            5 
  348000    1.1097342   -7.2027941    112.52237  0.026945011  0.027682114            3 
  349000    1.1178488   -7.2092157    112.23767  0.026799825  0.027664679            3 
  350000    1.1287474   -7.1669325    112.72728  0.026839829  0.027646748            2 
  351000    1.1096924    -7.197939     112.9395  0.026813746  0.027628941            3 
  352000    1.1218639   -7.1772115     113.7828  0.026937216  0.027611816            4 
  353000    1.1196192   -7.2240837    113.47298  0.026787767  0.027594887            4 
  354000    1.1142716   -7.2166802    114.25553  0.026896311   0.02757847            8 
  355000    1.1150281   -7.1854705    114.26362  0.026822446  0.027562621            6 
  356000    1.1243954    -7.207154    114.61334  0.026828965  0.027547655            3 
  357000    1.0831113   -7.1505896    115.31628  0.026917899  0.027532683            2 
  358000    1.1069987   -7.1777702    115.93778  0.026987379   0.02751848            4 
  359000    1.0993976    -7.243321    115.36838  0.026780032   0.02750405            2 
  360000     1.111165   -7.2550237    115.55215  0.026748183  0.027488205            4 
  361000    1.1108209   -7.2354451    116.12716  0.026806825  0.027472782            1 
  362000    1.0952076   -7.1664685    116.64101  0.026851062  0.027457672            3 
  363000     1.114841   -7.1997727    116.92247  0.026841705  0.027442653            5 
  364000    1.1338306   -7.1504831    117.41332  0.026880338  0.027428497            2 
  365000    1.1019821   -7.2183716    117.34765  0.026791702  0.027413685            2 
  366000    1.1194094   -7.2181847    117.84738  0.026832281  0.027399407            3 
  367000    1.0934215   -7.1885516    118.16517  0.026831328  0.027385613            1 
  368000    1.0926747   -7.2239271    118.14788  0.026754501   0.02737108            6 
  369000    1.0929348   -7.1521707    118.68023   0.02680222  0.027357226            3 
  370000    1.1276641   -7.2275584    118.46471  0.026681241  0.027343765            3 
  371000    1.1209551   -7.1835214    119.25692  0.026787268  0.027329753            2 
  372000     1.112944    -7.191484    119.15987  0.026693519  0.027315362            4 
  373000    1.1185836   -7.2194656    119.36675  0.026668175  0.027301209            6 
  374000    1.1262397    -7.242355    119.46403  0.026618546  0.027287194            3 
  375000    1.1049648   -7.1859853    120.34004  0.026742231   0.02727266            4 
  376000    1.0960086   -7.1897617    120.49261  0.026704923  0.027257783            4 
  377000    1.1088947   -7.1741944     120.7625  0.026693745  0.027242948            5 
  378000    1.0903839   -7.2266173    120.52454  0.026570665  0.027228025            3 
  379000    1.0703792   -7.1855193    121.04511   0.02661502  0.027213725            2 
  380000    1.1049239   -7.1991104    121.80453   0.02671152  0.027199219            4 
  381000    1.0941532   -7.2115269    121.25066  0.026520267  0.027184132            3 
  382000    1.0789852   -7.1974641    122.04929  0.026625064  0.027168583            1 
  383000    1.1016091   -7.2335388    121.57954  0.026453337  0.027152872            3 
  384000    1.0957414   -7.2574835    121.89696  0.026453334  0.027136826            4 
  385000    1.1161677   -7.2284182    122.27717   0.02646692  0.027121302            4 
  386000    1.0976014   -7.1821562    122.83229  0.026518197  0.027107203            3 
  387000    1.1084258   -7.2295202    123.23896  0.026537243  0.027092755            3 
  388000    1.1119027   -7.2104575    123.68255  0.026564122  0.027078148            2 
  389000     1.092558   -7.2270176    123.37201  0.026429307  0.027063044            2 
  390000    1.0972523   -7.1771157    123.95616  0.026486359  0.027048844            3 
  391000     1.088316   -7.2014242    124.37531  0.026507951  0.027033894            2 
  392000    1.0704941   -7.2199385    124.01137  0.026362961  0.027019529            2 
  393000    1.1357534   -7.2278258    124.29629  0.026356295  0.027004147            9 
  394000    1.1030116   -7.2432276    124.52095  0.026336918  0.026988496            2 
  395000    1.1221142   -7.2191318    124.93613  0.026357833  0.026972026            4 
  396000    1.0906496   -7.1918864    125.55174  0.026420822   0.02695621            1 
  397000    1.1149643   -7.2831812    125.12401  0.026264487  0.026940593            3 
  398000    1.0956036   -7.2577344    125.35528  0.026246918     0.026924            3 
  399000    1.0754968    -7.263667    125.93466  0.026302143  0.026907667            2 
  400000    1.0951607   -7.2591734    125.84884  0.026218509  0.026891117            4 
  401000    1.0962324   -7.2671467    126.06223  0.026197471   0.02687395            2 
  402000     1.100146   -7.2597907    126.52184  0.026227578   0.02685674            3 
  403000    1.1081664   -7.2393222    127.08245  0.026278421   0.02684193            3 
  404000    1.1042915   -7.2342194    127.31939  0.026262251  0.026827112            5 
  405000     1.099805   -7.2226166    127.62506  0.026260301  0.026812359            4 
  406000     1.109827   -7.2249095    127.45602  0.026160924  0.026797899            4 
  407000     1.075458   -7.2390018    128.13796  0.026236274  0.026782489            4 
  408000    1.1073618   -7.2676737    127.72127  0.026086861  0.026766364            4 
  409000    1.0906109   -7.2252704    128.21354  0.026123378  0.026750411            4 
  410000    1.0822128   -7.2282032    128.41421   0.02610045  0.026734124            4 
  411000    1.1007257   -7.2784228    128.25268  0.026004194  0.026717148            8 
  412000    1.1021903   -7.2819315     128.7149  0.026034567   0.02669989            2 
  413000    1.0849518   -7.2974999    128.75581  0.025979784  0.026682701            2 
  414000    1.0837789   -7.3048836    128.62649  0.025891001  0.026665543            5 
  415000    1.0982549   -7.2678439    128.98545  0.025900693  0.026648182           10 
  416000    1.0971675   -7.2655345    129.73239  0.025988059  0.026631656            3 
  417000    1.0758969   -7.2618336    130.51138   0.02608141   0.02661509            2 
  418000    1.1138829   -7.2348899    130.81467  0.026079479   0.02659902            3 
  419000    1.0818295   -7.2700046    130.41434  0.025937618  0.026583125            2 
  420000    1.0865612   -7.2259485    130.78511  0.025949426   0.02656663            2 
  421000    1.0807801   -7.2499143    130.64075  0.025859214  0.026549759            3 
  422000    1.0895628   -7.2418526    131.47693  0.025963059  0.026532421            1 
  423000    1.0626335   -7.2535206    131.10301  0.025828016  0.026515459            3 
  424000    1.0729245   -7.3101433     131.3556  0.025816746  0.026498322            6 
  425000     1.060395   -7.2558423    131.52634  0.025789478  0.026480286            2 
  426000    1.0576703   -7.2426619    132.15581  0.025852076  0.026462216            4 
  427000    1.1084543   -7.2538023    132.27722  0.025815227  0.026444119           13 
  428000    1.0956317   -7.3003767    131.90332  0.025682111   0.02642678            2 
  429000    1.0879937   -7.2690559    132.52205  0.025742433  0.026408573            5 
  430000    1.1014031    -7.298623    132.51662  0.025681516   0.02639049            5 
  431000    1.1016262   -7.2760041    132.73292  0.025663751  0.026372542            4 
  432000    1.0933424   -7.3409239    132.82522  0.025622149  0.026354629            3 
  433000    1.0731119   -7.3355869    132.77529  0.025553365  0.026336128            5 
  434000    1.1094972   -7.3115116    132.98205  0.025534187  0.026317671            8 
  435000    1.0763077   -7.2965917    133.12323  0.025502535  0.026298738            5 
  436000    1.0871306   -7.3008431    133.43911  0.025504416  0.026279967            3 
  437000    1.0798863   -7.3227086    133.72395  0.025500372  0.026261031            3 
  438000    1.0697495   -7.2806182    133.45602  0.025391175  0.026241515            2 
  439000    1.0866558   -7.3009958    133.51311  0.025344174  0.026221773           11 
  440000    1.0624346   -7.2438926    134.54297  0.025481623  0.026202175            4 
  441000    1.0720449   -7.2823346    134.47125  0.025410289  0.026182878            3 
  442000    1.0567254   -7.3130217    134.73384  0.025402308  0.026163851            5 
  443000    1.0950658   -7.3174711     135.1294  0.025419375  0.026144249            3 
  444000    1.0721902   -7.3199957    135.51694  0.025434861  0.026125227            4 
  445000    1.0807702    -7.299221    135.57983  0.025389481  0.026107138            3 
  446000    1.0565607   -7.3189889    135.68017  0.025351303   0.02608834            3 
  447000    1.0960549   -7.2809587    136.59779  0.025465658  0.026070863            4 
  448000    1.0714737   -7.3106921    136.86352  0.025458244  0.026053187            6 
  449000    1.1049298   -7.2832895    137.12194  0.025449507  0.026035744            3 
  450000    1.0967029   -7.3214718    136.80546  0.025334345  0.026017711            3 
  451000    1.0656884   -7.2874385    137.01489  0.025316868  0.025999254            5 
  452000    1.0592602   -7.3336186    137.05482  0.025268219  0.025980723            1 
  453000    1.0683126   -7.2633965     137.5076  0.025295731   0.02596234            3 
  454000    1.0654024   -7.3121776    137.58735  0.025254652  0.025944013            4 
  455000     1.066042   -7.3215062    138.07387  0.025288255  0.025925341            2 
  456000     1.053006     -7.30107    137.87476   0.02519641  0.025906307            2 
  457000    1.0685448    -7.303694    137.71713  0.025112533  0.025887381            3 
  458000    1.0611634   -7.2567525    138.81343  0.025257175  0.025869047            4 
  459000    1.0638317    -7.324211    138.66629  0.025175434  0.025850948            1 
  460000    1.0665348   -7.3307448    138.28934  0.025052417  0.025832523            2 
  461000    1.0589967   -7.3352736    138.87264  0.025103514  0.025813395            6 
  462000    1.0466331   -7.3358379    138.94861  0.025062881  0.025794033            5 
  463000    1.0965855   -7.3354234    139.37836  0.025086098  0.025775277            5 
  464000    1.0852764   -7.3162737    139.61277  0.025074132  0.025756265            5 
  465000    1.0445554   -7.3443832    140.09236  0.025106158  0.025737516            3 
  466000     1.082596   -7.3519523    140.15765  0.025063957   0.02571922            4 
  467000    1.1048433   -7.3236028    141.14519  0.025186508  0.025701073            3 
  468000    1.0723521   -7.2919679    140.98362  0.025103921  0.025683262            2 
  469000    1.0897698   -7.3562433    141.12318  0.025075192  0.025666165            1 
  470000    1.0569285    -7.287658     141.6977  0.025123706   0.02564916            4 
  471000    1.0787127   -7.3057129    142.09267  0.025140246  0.025632611            3 
  472000    1.0936407   -7.3342114    141.89692  0.025052422  0.025615786            7 
  473000    1.0759021   -7.3182114    142.64659  0.025131534  0.025599177            1 
  474000    1.0436599   -7.3371816    143.06015  0.025151221  0.025582685            3 
  475000    1.0765138   -7.3143774    142.93413  0.025076163  0.025566369            4 
  476000    1.0525122   -7.3041743    142.67182   0.02497756  0.025550075            3 
  477000     1.077001   -7.3304324    143.26783  0.025029321  0.025533953            3 
  478000    1.0643861   -7.3210966    143.56769  0.025029234  0.025517607            3 
  479000    1.0566731   -7.3205114    144.43153  0.025127267  0.025502037            4 
  480000    1.0720675   -7.3528484    143.83202  0.024970837  0.025485848            8 
  481000    1.0759653   -7.3304197    144.67908  0.025065676  0.025469942            3 
  482000    1.0830195   -7.3425224    144.87989  0.025048391  0.025454031            3 
  483000    1.0717899   -7.3050646    144.60454  0.024949024  0.025437966            2 
  484000    1.0577431   -7.2837723    145.32786  0.025022014  0.025422443            2 
  485000    1.0390426   -7.3403991     145.2795  0.024962114  0.025406694            4 
  486000     1.044094   -7.3383855    145.83325  0.025005701  0.025390809            4 
  487000    1.0539128   -7.3258852    146.17773  0.025013302  0.025375619            1 
  488000    1.0461638   -7.3132638    146.62206   0.02503792  0.025361179            5 
  489000    1.0502866   -7.3332049    147.37882  0.025115682  0.025346568            3 
  490000    1.0382117    -7.327874    146.90516  0.024983871  0.025331716            4 
  491000    1.0588739   -7.3173175    146.88902  0.024930247  0.025317167            1 
  492000    1.0676986   -7.3689916    147.19917  0.024932108  0.025301925            3 
  493000    1.0795149    -7.336323    147.72668  0.024970703   0.02528688            2 
  494000    1.0961466   -7.3440164    147.54667  0.024889788  0.025271941            1 
  495000    1.0625996   -7.3041938    147.93601  0.024905052  0.025257185            2 
  496000    1.0518275    -7.308016    148.63379  0.024972076   0.02524318            3 
  497000    1.0571538    -7.360204    148.37939  0.024879174  0.025228506            3 
  498000    1.0503567   -7.3439392    148.38317  0.024829848  0.025213291            3 
  499000    1.0746351    -7.368145    148.61504  0.024818811  0.025197822            3 
  500000    1.0827401   -7.3578158    148.70407  0.024784011  0.025182229            3 
  501000    1.0530729   -7.3519753    148.72671  0.024738308  0.025166619            4 
  502000    1.0594633   -7.3176032     149.5822  0.024831043  0.025151245            1 
  503000    1.0675931    -7.341743    149.05866   0.02469494  0.025135816            3 
  504000    1.0772319    -7.362181    149.66817  0.024746721  0.025120045            3 
  505000    1.0561062   -7.3734492     149.6412  0.024693268  0.025104666            4 
  506000     1.057708   -7.4018452    149.70641  0.024655206   0.02508888            4 
  507000    1.0539101   -7.3847303    150.31517  0.024706636  0.025073232            5 
  508000    1.0436647   -7.3553514    150.62277  0.024708459  0.025057813            4 
  509000    1.0467707   -7.3289172    150.91397  0.024707592  0.025042915            3 
  510000    1.0529809   -7.3593271     150.9675  0.024667892  0.025027066            5 
  511000    1.0520111   -7.3967752    150.58043  0.024556496  0.025010937            4 
  512000    1.0539547    -7.353054    151.28789   0.02462368  0.024995141            6 
  513000    1.0747685   -7.3667468    151.10877  0.024546584  0.024979499            3 
  514000    1.0641554   -7.3697763     151.3492  0.024537808   0.02496342            5 
  515000    1.0386634    -7.344611    151.43747  0.024504445  0.024947111            5 
  516000    1.0536694   -7.3968713    151.32903  0.024439444  0.024930786            4 
  517000    1.0411856   -7.3619327    151.80484  0.024468866  0.024914453            4 
  518000    1.0352734   -7.3756635    152.25338  0.024493787  0.024898208            3 
  519000    1.0539717   -7.3637362    153.00729  0.024567644   0.02488256            5 
  520000    1.0521913   -7.4105165    152.35166   0.02441533   0.02486681            3 
  521000    1.0437049   -7.3649476    153.29139  0.024518776  0.024851062            4 
  522000    1.0495677   -7.3878164    153.31626  0.024475776  0.024835756           10 
  523000    1.0513136   -7.4262681    153.67469  0.024486089   0.02482026            4 
  524000    1.0263942   -7.4007065    153.27642  0.024376021  0.024804687            3 
  525000    1.0668174   -7.3514005    154.08832  0.024458464  0.024789473            5 
  526000    1.0067917   -7.3683153    153.96166  0.024391897  0.024774028            8 
  527000    1.0274767   -7.4246391    154.16958  0.024378492  0.024758302            6 
  528000    1.0406898   -7.3522719    155.20642  0.024495963  0.024742932            1 
  529000    1.0344417   -7.3898815    154.73605   0.02437556  0.024727261            4 
  530000    1.0465563   -7.4089613    154.79828  0.024339352  0.024711469            3 
  531000    1.0361604   -7.3937685    154.59204  0.024261149   0.02469599            6 
  532000    1.0229653   -7.3903958    155.57752  0.024369912  0.024680484            7 
  533000    1.0523431   -7.3873137    155.33493  0.024286261  0.024664881            5 
  534000    1.0156104   -7.4042205    155.85638  0.024322157  0.024649099            4 
  535000     1.053098   -7.3987885    155.58387  0.024234247  0.024633226            2 
  536000    1.0426986   -7.4043967    155.76139  0.024216634  0.024617247            3 
  537000    1.0312053    -7.385528    156.12996  0.024228733  0.024601312            6 
  538000    1.0308008   -7.4136939    156.25355  0.024202842  0.024584823            2 
  539000    1.0332686   -7.4079742    155.73116  0.024077174  0.024567929            2 
  540000    1.0337442    -7.342759     156.4871  0.024149244  0.024551178            2 
  541000    1.0312966   -7.3642573     156.6546  0.024130407   0.02453507            5 
  542000    1.0369172    -7.394334    156.93198  0.024128534  0.024518588            4 
  543000      1.04335   -7.3830972    156.94916  0.024086735  0.024502055            7 
  544000    1.0500349   -7.3913993    157.06476  0.024060165  0.024485207            4 
  545000    1.0495938   -7.3943626    157.02528  0.024009982  0.024468631           10 
  546000    1.0226668   -7.3948277    157.72129  0.024072235    0.0244517            2 
  547000    1.0319422   -7.3898091    157.96778   0.02406578  0.024435102            5 
  548000    1.0525774   -7.3819312     158.0201  0.024029821  0.024418181            6 
  549000    1.0606684   -7.3778435    157.71858  0.023940283  0.024401322            6 
  550000    1.0349952   -7.3462269    158.74041  0.024051577  0.024384848            7 
  551000    1.0624654   -7.4095595    158.32507  0.023945111   0.02436819            6 
  552000    1.0473421    -7.423912    158.17703  0.023879382  0.024351323            5 
  553000    1.0657649   -7.3980676    158.58841  0.023898193  0.024334685            4 
  554000    1.0495943   -7.3669022    158.81305  0.023888847  0.024317536            4 
  555000     1.036026   -7.3798687    159.17043  0.023899465  0.024300674            3 
  556000    1.0092503    -7.439674    158.92919  0.023820322  0.024283571            5 
  557000    1.0202461   -7.4158163      159.169  0.023813435  0.024266528            3 
  558000    1.0508987   -7.4544088     159.0564  0.023753943  0.024249369            4 
  559000    1.0304175   -7.4529244    158.92804  0.023692314  0.024231676            4 
  560000    1.0153383   -7.4255094    159.55464   0.02374325  0.024214349            3 
  561000    1.0348278   -7.4198078    159.51913  0.023695651  0.024197123            3 
  562000    1.0466938   -7.4175394    159.57626   0.02366196  0.024179401            3 
  563000    1.0309391   -7.4069212    160.33698  0.023732531  0.024162202            4 
  564000    1.0189001   -7.4297511    160.36788  0.023695018  0.024145121            3 
  565000    1.0439591   -7.3894657    160.89515  0.023730848  0.024128224            2 
  566000    1.0278537   -7.4741478    160.19994  0.023586563  0.024110939           10 
  567000    1.0323313   -7.4476857    160.56186  0.023598157   0.02409347            4 
  568000    1.0418701   -7.4324173    160.82704  0.023595516   0.02407606            2 
  569000    1.0310424   -7.4745807    160.87341  0.023560839  0.024058586            4 
  570000    1.0176716   -7.5003589    161.21912  0.023570047  0.024041119            3 
  571000    1.0377945   -7.4281271    161.77428   0.02360979  0.024023961            6 
  572000    1.0718726   -7.4466065    161.79433  0.023571435  0.024007012            6 
  573000    1.0027985   -7.4670575    161.81068  0.023532676  0.023990185            3 
  574000    1.0086684   -7.4245549    162.39791  0.023576933  0.023973223            3 
  575000    1.0450167   -7.4213502     162.4129  0.023538102  0.023956038            4 
  576000    1.0244558   -7.4140682    161.99586    0.0234369  0.023938422            2 
  577000    1.0181635   -7.4376735    162.63876  0.023489134  0.023920615            2 
  578000    1.0089241   -7.4602855    162.41351  0.023416019  0.023903041            5 
  579000    1.0450624   -7.4234767    162.60185  0.023402684  0.023885236            5 
  580000    1.0396979   -7.4322303     163.5884  0.023504081  0.023867821            4 
  581000    1.0266814   -7.4536327    163.02119   0.02338227  0.023850552            4 
  582000    1.0232054   -7.5069951    163.28214  0.023379458  0.023833475            4 
  583000    1.0259308   -7.4430442    163.93315  0.023432411  0.023816498            3 
  584000    1.0239187   -7.4435619    163.87839  0.023384473  0.023799772            2 
  585000    1.0039342   -7.4211032    163.87664   0.02334425  0.023782577            2 
  586000    0.9962492   -7.4520145    164.16195  0.023344987  0.023765498            2 
  587000     1.004667   -7.4352394    164.25656  0.023318648  0.023748487            3 
  588000    1.0216662    -7.427649    164.35695  0.023293219  0.023730952           11 
  589000    1.0056511   -7.4713922    163.92108  0.023192003   0.02371301            4 
  590000    1.0290898   -7.4259648    164.22653  0.023195837  0.023694994            3 
  591000    1.0468296   -7.4462003    164.61865  0.023211879  0.023677288            3 
  592000    1.0073303   -7.4421394    164.61977  0.023172828  0.023659892            3 
  593000    1.0328447   -7.4495271    164.91324  0.023174992  0.023642254            6 
  594000     1.026338   -7.4683834    164.79883  0.023119925   0.02362464            2 
  595000    1.0291583   -7.4505118    165.55195  0.023186548  0.023607072            6 
  596000     1.017365   -7.4976018    164.99314  0.023069511  0.023589267            3 
  597000    1.0159078   -7.4409887    165.25479   0.02306739  0.023571403            2 
  598000    1.0158328   -7.4686271    165.41291  0.023050851   0.02355325            3 
  599000    1.0003268   -7.4781162    165.17092  0.022978704  0.023534969            4 
  600000    1.0400451   -7.4936595    165.66983  0.023009698  0.023516808            4 
  601000    1.0054396   -7.4765976    166.15837  0.023039153  0.023498975            3 
  602000    1.0155593   -7.4433176    166.28065  0.023017809  0.023481379            6 
  603000   0.99809657   -7.4586197    166.97485  0.023075574  0.023463786            6 
  604000    1.0111974   -7.4490073    167.33769  0.023087429  0.023446613            3 
  605000    1.0076926   -7.4892938    166.74384  0.022967471  0.023429185            5 
  606000    0.9958312    -7.426734    167.69981   0.02306103  0.023411811            5 
  607000   0.98236905   -7.4915767    166.96625  0.022922329  0.023394277            9 
  608000    1.0009695   -7.4809796    167.56627  0.022966868  0.023376592            4 
  609000    1.0161603   -7.4966333    167.64832  0.022940383  0.023359373            3 
  610000   0.98333159   -7.4513277    167.68886  0.022908315  0.023342101            5 
  611000   0.99341822   -7.4476171    167.91006   0.02290099  0.023324439            2 
  612000    1.0128063   -7.4833654    167.57156  0.022817478  0.023306414            3 
  613000    1.0260497    -7.497914    167.53768  0.022775649   0.02328833            4 
  614000    1.0148189   -7.4690595    168.42783  0.022859369  0.023270554            3 
  615000    0.9984225    -7.439283    168.33617  0.022809778  0.023253073            4 
  616000      1.00024   -7.5100562    168.42653  0.022784975   0.02323535            7 
  617000    1.0053553   -7.4491458     168.9699  0.022821434   0.02321758            3 
  618000    1.0088513   -7.4270128    168.73708  0.022753112  0.023199835            3 
  619000   0.99394406   -7.4511513    168.83939  0.022730128   0.02318223            4 
  620000   0.99666392   -7.4894858    169.32112  0.022758216  0.023164738            4 
  621000    1.0027255   -7.5153451    168.86507  0.022660368   0.02314723            3 
  622000   0.98912124   -7.4822135    169.11051  0.022656821  0.023129556           10 
  623000    0.9979698   -7.5210293    168.85938  0.022586862  0.023111514            4 
  624000    1.0184281   -7.4563304    169.64709  0.022655862  0.023093738            3 
  625000    1.0075952   -7.4857766    169.65283  0.022620377  0.023075887            4 
  626000   0.99913365   -7.5310121    169.48789  0.022562285  0.023057602            6 
  627000    1.0142929   -7.5217137    169.81308  0.022569522  0.023039176            4 
  628000    1.0087075   -7.5456116    169.45867  0.022486554  0.023021233            3 
  629000   0.98693063   -7.5042464    170.11907  0.022538297  0.023003152            5 
  630000   0.97662035   -7.4757704    170.31422  0.022528336  0.022985079            3 
  631000   0.99159188   -7.5092687    170.34385  0.022496547   0.02296701            7 
  632000   0.98863627   -7.5102329    170.56586  0.022490224  0.022949091            6 
  633000    1.0105219   -7.4802375    170.94804  0.022505008  0.022931134            3 
  634000   0.99721521    -7.483291    171.43822   0.02253394   0.02291317            3 
  635000    1.0147551    -7.505202    170.58097  0.022385954  0.022895118            3 
  636000   0.99114894   -7.4717797    171.31647  0.022447126  0.022877184            5 
  637000    1.0222033   -7.4810708    171.52004  0.022438518  0.022859211            3 
  638000    0.9948127   -7.5099383     171.4273  0.022391236  0.022841067            4 
  639000   0.97163512   -7.5325469        171.1   0.02231351  0.022822949            3 
  640000   0.97193761   -7.5141714    171.32771  0.022308295  0.022804691            7 
  641000    1.0175796   -7.4985941    172.21483  0.022388823  0.022786583           10 
  642000   0.99767658   -7.5078099    171.62282  0.022277106   0.02276841            4 
  643000    1.0193757   -7.5234909    171.70749  0.022253433  0.022750554            2 
  644000   0.99043123   -7.5261548    172.09431  0.022268933  0.022732616            5 
  645000   0.99179583   -7.5396013    171.99532  0.022221617  0.022714668            3 
  646000    1.0049915   -7.5451097    172.62174  0.022268026  0.022696624            3 
  647000    1.0018916   -7.4913169    173.37262  0.022330322  0.022678993            7 
  648000   0.99507669   -7.5303979    173.23144  0.022277706  0.022661046            4 
  649000    1.0015435   -7.5017257    173.35026  0.022258637  0.022643226            4 
  650000    1.0119014   -7.5366756    172.82155  0.022156609  0.022625263            3 
  651000    1.0170455    -7.539463    172.98964  0.022144091  0.022607056            2 
  652000    1.0016511   -7.5713504    172.68394  0.022071055  0.022588829            5 
  653000   0.98680027   -7.5113304    173.50119   0.02214155  0.022570627            9 
  654000   0.98849667   -7.5434128    173.12901  0.022060272  0.022552358            4 
  655000   0.98677257   -7.5737291     173.3877  0.022059504  0.022534036            8 
  656000    1.0026223    -7.570972    172.89951  0.021963861  0.022515625            2 
  657000   0.99952067   -7.5745908    173.51344    0.0220083  0.022497183            9 
  658000   0.98558054     -7.55608    173.53106  0.021977085  0.022478614            7 
  659000   0.98966826   -7.5211373    173.81288  0.021979372   0.02246003            4 
  660000   0.96431084   -7.5572284    173.96559  0.021965352  0.022441552            6 
  661000    1.0163476   -7.5558658    173.85058  0.021917623  0.022423043            6 
  662000   0.98416808   -7.5242604     174.4467  0.021959555  0.022404751            3 
  663000   0.99146865   -7.5693018    174.19013  0.021894184  0.022386447            4 
  664000   0.97293062   -7.5166853    174.88985  0.021949027  0.022368176            5 
  665000   0.97457121    -7.525533    174.91491  0.021919162  0.022350017            5 
  666000   0.98858149   -7.5911168    174.35273  0.021815908  0.022331431            5 
  667000   0.98190306   -7.4941378    175.16794  0.021885051  0.022312934            3 
  668000   0.97829796   -7.5128698    175.14993  0.021850041  0.022294727            5 
  669000   0.98551736   -7.5532771    175.45347  0.021855191  0.022276811            6 
  670000   0.99424482   -7.5805158    174.85599  0.021748258  0.022258294            5 
  671000    1.0094247   -7.4850617     175.7033  0.021821076   0.02223978            2 
  672000    0.9811129   -7.5906573    174.96458  0.021696996   0.02222116            5 
  673000   0.99673023   -7.5523961    174.91491  0.021658607  0.022202624            8 
  674000   0.99848743   -7.5336123    175.82442  0.021738924  0.022183857            5 
  675000   0.97019517   -7.5590545    175.55794  0.021673819  0.022165143            9 
  676000   0.97722903   -7.5507642    175.66987  0.021655557  0.022146736            4 
  677000   0.97727211   -7.5179739    176.42782  0.021716866  0.022128414            3 
  678000   0.97168697   -7.5475671    176.56865  0.021702144  0.022110028            5 
  679000   0.99728369   -7.5350349    176.42783    0.0216529  0.022091773            9 
  680000   0.97784804   -7.5716237    176.28164  0.021603142  0.022073559            3 
  681000    1.0015634   -7.5371727    176.73772  0.021627229  0.022055276            3 
  682000   0.99291831    -7.513054    176.78833  0.021601702  0.022036969           10 
  683000   0.97129541   -7.5733015     177.0293  0.021599475  0.022018588            3 
  684000   0.98478534   -7.5296445    176.97423  0.021561188  0.022000432            5 
  685000   0.97414903   -7.5225616    177.67996  0.021615567  0.021982433            5 
  686000   0.96369924     -7.54334     177.6506   0.02158049  0.021964555            9 
  687000   0.97565547    -7.587832    176.92175  0.021460669  0.021946364            4 
  688000   0.96739376   -7.5962534    176.55888  0.021385523  0.021927944            4 
  689000   0.96913817   -7.5634121    177.68665  0.021490886  0.021909505            3 
  690000   0.97047111   -7.5700255    177.66297   0.02145688  0.021891436            2 
  691000   0.97366462   -7.5552247    178.30749  0.021503556  0.021873532            6 
  692000   0.98361415    -7.606818    177.87496  0.021420395  0.021855528            7 
  693000   0.97535679   -7.6173119    178.15801  0.021423523  0.021837665            3 
  694000   0.96940143   -7.6014102    178.26077  0.021404992  0.021819412            3 
  695000   0.97935803   -7.6125559    178.68488  0.021425046  0.021801339            4 
  696000   0.99032688   -7.5160461    179.51044  0.021493108  0.021783488            4 
  697000   0.96243801   -7.6043773    179.13816  0.021417762  0.021765944            5 
  698000   0.98327204   -7.5709705    179.60713  0.021443068  0.021748626            4 
  699000   0.97382853   -7.5425492    179.50959  0.021400762  0.021731656            6 
  700000   0.97863816   -7.5902011    179.76619  0.021400737  0.021714695            2 
  701000    0.9829977   -7.5584027     180.2998  0.021433643   0.02169782           11 
  702000   0.96786048   -7.5938774    179.99251  0.021366632  0.021680769            2 
  703000   0.98141482    -7.572584    180.77519  0.021429017  0.021663956            4 
  704000   0.95745128   -7.5712612    180.20664  0.021331279  0.021646779            3 
  705000   0.98218513   -7.5921807     179.8871  0.021263251  0.021629495            3 
  706000   0.97130742   -7.6325793    180.05304  0.021252719  0.021612056            7 
  707000   0.99959212   -7.6567429    180.10322  0.021228573   0.02159455           13 
  708000   0.97033937   -7.5912517    181.37817  0.021348655  0.021577159            4 
  709000   0.97655681   -7.6701376    180.17981  0.021177693  0.021559634            3 
  710000   0.99569464   -7.5933385    180.72072  0.021211352   0.02154202            3 
  711000   0.96645186   -7.5815292    181.06911  0.021222353  0.021524548           11 
  712000   0.99576653    -7.566764    181.13163  0.021199863  0.021507087            9 
  713000   0.95796507   -7.5772501    181.43841  0.021205985  0.021489629            8 
  714000   0.96822755   -7.5485967    181.41043  0.021173019  0.021472371            7 
  715000   0.98225801   -7.6357291     180.9538  0.021090187  0.021454804            4 
  716000   0.96275332   -7.6019052    181.17512   0.02108649  0.021436896            2 
  717000   0.94068851   -7.5869199    181.16646  0.021056074  0.021419184            3 
  718000   0.98156829   -7.6221939     181.3491  0.021047946  0.021401302            5 
  719000    0.9806345   -7.6410509    181.20475  0.021001942  0.021383133           11 
  720000   0.97495063   -7.6400031    181.58741  0.021017061  0.021365244            3 
  721000   0.97466755   -7.5934525    181.86055  0.021019481  0.021347123            5 
  722000   0.95197658   -7.5726609    181.74952  0.020977553  0.021329401            6 
  723000    0.9580197   -7.6098341    181.25071  0.020891046  0.021311413            2 
  724000   0.95480532   -7.6137538    182.07893   0.02095752  0.021293545            4 
  725000   0.96933458   -7.6262245    181.85787  0.020903204  0.021275613            5 
  726000   0.97488627   -7.6203907    181.64299  0.020849746  0.021257593            4 
  727000   0.95139094   -7.6129118    182.18822  0.020883565  0.021239675            3 
  728000   0.97801643   -7.6167842    182.16149  0.020851819  0.021221698            7 
  729000   0.95985457   -7.6388987    182.00513  0.020805342  0.021203829            4 
  730000   0.94229349   -7.6329558    182.46141  0.020828928  0.021186114            5 
  731000   0.96268628   -7.6284991    182.79188  0.020838107  0.021168308            5 
  732000   0.93419991   -7.6092271    183.14057  0.020849336  0.021150467            4 
  733000   0.96476488   -7.6158839    182.92384  0.020796253  0.021132783            4 
  734000   0.97585625   -7.6228988    183.17989   0.02079699  0.021115106           13 
  735000   0.96250116   -7.6288141     182.4334  0.020684059  0.021097442            4 
  736000   0.95683569   -7.6340277    182.66996   0.02068274  0.021079666            6 
  737000   0.95487513    -7.621265    182.93633  0.020684796  0.021061846           13 
  738000   0.95558836   -7.6297166    183.46781  0.020716781  0.021043816            9 
  739000    0.9689618   -7.6197988    183.67805  0.020712454  0.021026031            7 
  740000   0.98019828   -7.6339444    183.76412  0.020694158  0.021008068            8 
  741000   0.96419553    -7.610822    183.89147  0.020680552  0.020990239           12 
  742000   0.95578287   -7.6565676    183.69791  0.020630942  0.020972401            6 
  743000   0.94127895   -7.6528388    183.45562  0.020576001  0.020954546            5 
  744000   0.95359281   -7.6620426    183.65427  0.020570595  0.020936559            4 
  745000   0.95751556   -7.6526964     183.9425  0.020575224  0.020918367           11 
  746000   0.94813272   -7.6710036    183.54377  0.020503102   0.02090011            7 
  747000   0.95765135   -7.6348816    184.21203  0.020550204  0.020882105            5 
  748000   0.96434962   -7.5879014    184.58537  0.020564324  0.020864338            2 
  749000   0.96546306   -7.6309149    184.24619  0.020499131  0.020846514            7 
  750000   0.95796133   -7.6280613    184.86886  0.020540985  0.020828962            3 
  751000   0.96238319     -7.62691    185.06898  0.020535839  0.020811339            8 
  752000   0.94462914   -7.6788525    184.65693  0.020462869  0.020793797            8 
  753000   0.94721616   -7.6450505    185.00914  0.020474672   0.02077609            8 
  754000   0.97668043    -7.629645    185.26143  0.020475401    0.0207585            4 
  755000    0.9549988   -7.6609095    184.82764  0.020400401  0.020741038            4 
  756000   0.95521761   -7.6288283    185.45292  0.020442342  0.020723493            6 
  757000   0.97452579   -7.6360201    185.29111  0.020397524  0.020705852            3 
  758000   0.93955906   -7.6375237     185.4678   0.02039004  0.020687962            3 
  759000   0.95154876    -7.625127    185.73138  0.020392115  0.020670401            9 
  760000   0.95250752   -7.6671601    185.45738  0.020335239   0.02065279           19 
  761000   0.96592131   -7.6478735    185.61998  0.020326323  0.020635014            5 
  762000   0.97334332   -7.6441957    185.73642  0.020312382  0.020617217            9 
  763000   0.94987139      -7.6873    185.58344  0.020269052  0.020599297            3 
  764000    0.9527831    -7.662949     185.7336    0.0202589  0.020581423            3 
  765000    0.9542089   -7.6699589     186.2006   0.02028329  0.020563604            5 
  766000   0.95105561   -7.6537993    185.68601  0.020200828  0.020545741            8 
  767000   0.94315235   -7.6803593    185.33935  0.020136826   0.02052792            7 
  768000    0.9757403   -7.6889024    186.16748  0.020200464  0.020510087            9 
  769000   0.96213597   -7.6695581    185.92157  0.020147548  0.020492249            8 
  770000   0.91489128   -7.6838496    186.16223  0.020147428  0.020474282            4 
  771000   0.95689871   -7.6597976    186.38993  0.020145907  0.020456376            4 
  772000   0.95772911   -7.6670598    186.08274  0.020086652  0.020438483            3 
  773000   0.94826126   -7.6993949    186.94896  0.020154049  0.020420674            4 
  774000   0.94772053    -7.616845    186.41053   0.02007004  0.020402663            3 
  775000   0.94751942   -7.6828946     186.5161  0.020055494  0.020384567            8 
  776000   0.94500034   -7.6805525    186.40704  0.020017938  0.020366475           23 
  777000   0.92574847   -7.6750735    186.65701  0.020018984   0.02034842            4 
  778000   0.94380572   -7.6707326    186.87619   0.02001673  0.020330426            8 
  779000   0.96187619    -7.703174    186.37213  0.019937112  0.020312189            6 
  780000   0.96393391    -7.703481     186.2364  0.019897051  0.020293847            7 
  781000   0.95212708    -7.683729    187.03577  0.019956869  0.020275585            7 
  782000   0.91761469   -7.7012307    186.69519  0.019895054  0.020257438            3 
  783000   0.92294393   -7.6774896    186.96345  0.019898197  0.020239297            3 
  784000   0.94096296   -7.6548911    187.37204  0.019916245  0.020221265            3 
  785000   0.94607596   -7.6924328    186.88376   0.01983904   0.02020304            5 
  786000   0.92984164   -7.7121992    187.11977  0.019838822  0.020184926            9 
  787000   0.92934336   -7.7330885    186.79663  0.019779398  0.020166612            8 
  788000    0.9376012   -7.7098688    187.38596   0.01981662  0.020148499            8 
  789000   0.95690518    -7.735915    186.84176  0.019734026  0.020130297            6 
  790000   0.92812606   -7.7140168    187.50069  0.019778554  0.020111932            6 
  791000   0.93080898   -7.7107904      187.082  0.019709439  0.020093476            4 
  792000   0.94246087   -7.7734341    186.61997  0.019635939  0.020074903            5 
  793000   0.92352504   -7.7157889    187.11799  0.019663513  0.020056091            4 
  794000   0.93993517     -7.68543    187.34149  0.019662205  0.020037533            4 
  795000   0.95479811   -7.7247061    186.99624  0.019601284  0.020018837           17 
  796000   0.92920503   -7.7000281    187.66993  0.019647187  0.020000298            3 
  797000   0.93514098   -7.7515849    187.01902  0.019554477  0.019981803            6 
  798000     0.930429   -7.7008454    187.44085  0.019574024  0.019963238            5 
  799000   0.90780333   -7.7407482      187.541  0.019559971  0.019944906            5 
  800000   0.93850425   -7.7268314    187.99294  0.019582598  0.019926471            6 
  801000   0.94170831     -7.71986    188.21135  0.019580872  0.019908223            9 
  802000   0.91472083   -7.7428168    188.20982  0.019556299  0.019890008            8 
  803000   0.92361129   -7.7305003    188.71017   0.01958387    0.0198719            7 
  804000   0.94272248   -7.7610581     188.0081  0.019486743  0.019853767           19 
  805000   0.95754453   -7.7186115    188.77912  0.019542352  0.019835784            6 
  806000   0.93695617   -7.7201509    188.77033  0.019517197  0.019817783            9 
  807000   0.94589186   -7.7155895    188.99086  0.019515785  0.019799843            4 
  808000   0.90743415   -7.7676933    188.67355  0.019458906  0.019781852            6 
  809000   0.94837702   -7.7579783    188.97398    0.0194658  0.019763889            7 
  810000   0.93431896   -7.7332738    189.01556  0.019446045  0.019745884            6 
  811000   0.94225399   -7.7428389    189.57407  0.019479456  0.019728128            7 
  812000   0.92449253   -7.7242903    189.76899  0.019475471  0.019710386            8 
  813000   0.92424336   -7.7189117    189.45598  0.019419432  0.019692808            9 
  814000   0.92985672   -7.7264159    189.15317  0.019364575  0.019675284           10 
  815000   0.92868155   -7.7346551    190.49139  0.019477647  0.019657777            5 
  816000   0.90851655   -7.7509762    189.75287  0.019378357  0.019640155            6 
  817000   0.93607561     -7.72389    189.83983  0.019363508  0.019622643            8 
  818000   0.92135685   -7.7554652    190.20257   0.01937679  0.019605046           21 
  819000   0.92504329   -7.7620675    189.96483  0.019328941  0.019587475            7 
  820000   0.93388859   -7.7185725    190.46481   0.01935618  0.019569862            7 
  821000   0.91201103   -7.7366092    189.95612  0.019280971  0.019552481            8 
  822000   0.92336845   -7.7637966    190.11313  0.019273432  0.019535059            5 
  823000   0.93401094   -7.7666003    190.16153  0.019254914  0.019517659            6 
  824000   0.90659539   -7.7637672    191.06763  0.019323183  0.019500334            8 
  825000    0.9117593   -7.7582594    190.42746  0.019235097  0.019483055            6 
  826000   0.91452082   -7.7387619    190.88649  0.019258121  0.019465758            9 
  827000   0.92307557   -7.7329851    191.07126  0.019253452  0.019448414           12 
  828000   0.92567214   -7.7362215    191.13499  0.019236613  0.019431142            9 
  829000   0.92340907   -7.7334798     191.4645  0.019246532  0.019413979           24 
  830000   0.92221081   -7.7453993    191.06643  0.019183376  0.019396562           14 
  831000   0.91405533   -7.7448158    191.07902  0.019161554   0.01937924           21 
  832000   0.91285463   -7.7458875    191.57785  0.019188487  0.019361917           17 
  833000   0.90353603   -7.7848761    190.99769  0.019107412  0.019344574           13 
  834000   0.89942919   -7.7552522    191.11578  0.019096301   0.01932711           28 
  835000   0.92876408   -7.7977829     191.2267  0.019084501   0.01930972           22 
  836000   0.94157854   -7.7705779    191.46231  0.019085159  0.019292273           21 
  837000   0.91952132   -7.7950843    191.01239  0.019017562  0.019274928           17 
  838000   0.92482972   -7.7404558    191.86482  0.019079636  0.019257716           11 
  839000   0.91489151   -7.7627135    191.42953   0.01901366  0.019240542            6 
  840000   0.91750264   -7.7764148     191.9584  0.019043492  0.019223466            8 
  841000   0.91737387   -7.7335929    192.10213   0.01903509  0.019206298            8 
  842000   0.92732364   -7.7773607    191.90415  0.018992889  0.019189145           10 
  843000    0.9218158   -7.7391995    192.06614  0.018986372  0.019172073            7 
  844000   0.90986663   -7.7648724    191.77744  0.018935371  0.019155016            6 
  845000   0.92453894   -7.7388524    192.04309  0.018939161    0.0191379           14 
  846000   0.91682007   -7.7523728     192.2372  0.018935894  0.019120882           19 
  847000   0.90253161   -7.7650053    192.55543  0.018944848  0.019103742            9 
  848000   0.92180233   -7.7722699    192.09992  0.018877743  0.019086528            9 
  849000    0.9114713   -7.7681702    192.54971  0.018899657  0.019069223            6 
  850000   0.91228407   -7.7658438    192.51398  0.018873919  0.019051858            6 
  851000     0.926877    -7.773341    192.08338  0.018809575  0.019034563            7 
  852000   0.91831584    -7.787776    192.46802  0.018825119  0.019017175            8 
  853000   0.91219195   -7.7903946     192.1739  0.018774316  0.018999759            9 
  854000   0.90515439   -7.7932891    191.99921  0.018735286  0.018982157            6 
  855000   0.92011875   -7.7802841    192.65286  0.018777081  0.018964718            7 
  856000   0.92564465     -7.74422    192.56438  0.018746532  0.018947198            8 
  857000   0.90988568   -7.7621963    192.91274  0.018758532  0.018929807            7 
  858000   0.90994057    -7.761742    192.76208  0.018722035  0.018912256           11 
  859000   0.91949222   -7.8032077    193.02674  0.018725916  0.018894748           10 
  860000   0.91620959   -7.8142772    192.64115  0.018666778  0.018877414            7 
  861000   0.90525302   -7.7967673    192.70759  0.018651529  0.018860083            6 
  862000   0.89861269   -7.7790442    193.11471  0.018669249  0.018842809            7 
  863000   0.90496246   -7.7917905    193.17358  0.018653301  0.018825359            5 
  864000   0.92744113   -7.7504155    193.29958  0.018643864  0.018808142            7 
  865000   0.89798813   -7.8015682     192.9111  0.018584885  0.018790973           15 
  866000   0.93218441   -7.7813288    193.45951  0.018616196  0.018773915            8 
  867000    0.9075722   -7.8241119    193.47155  0.018595881  0.018756828            9 
  868000   0.90329145   -7.8031462    193.99776  0.018624977  0.018739654            6 
  869000   0.91945852   -7.7803403     193.7268   0.01857756   0.01872255            4 
  870000   0.89709911   -7.7979782    193.77161  0.018560499  0.018705592            4 
  871000   0.91739417   -7.7732264     193.5817   0.01852102  0.018688584            5 
  872000   0.89405195   -7.7440472    194.36674  0.018574803   0.01867151           12 
  873000   0.91441942   -7.7971289    193.81339  0.018500705  0.018654441            5 
  874000   0.89935734    -7.776472    193.77931  0.018476288  0.018637546            3 
  875000    0.8867043   -7.7776778    194.37384  0.018511794   0.01862085            4 
  876000   0.88394166   -7.8251315    193.93351  0.018448773  0.018603885            9 
  877000   0.90795512   -7.8235201    194.36326  0.018468573  0.018587079            6 
  878000   0.90723052   -7.7909609    194.19783  0.018431836  0.018570304            4 
  879000   0.90645987   -7.8109067    194.44958  0.018434734  0.018553494            8 
  880000   0.90406719     -7.81331    194.57197  0.018425376  0.018536714           10 
  881000   0.88165248   -7.8079972    195.27051  0.018470536  0.018519928           10 
  882000   0.88977503   -7.8419408    194.60713  0.018386917    0.0185032            5 
  883000   0.89840759   -7.8335997    194.73378  0.018378046   0.01848644           12 
  884000   0.89009245   -7.8205366    194.97713  0.018380197   0.01846973            5 
  885000   0.89848461   -7.8506163    194.63934  0.018327621  0.018452952            9 
  886000   0.90425451   -7.8583901    195.00854  0.018341661  0.018436112            5 
  887000   0.88922273   -7.8192179    194.54268  0.018277215  0.018419205           10 
  888000   0.87743093   -7.7954479    194.74403  0.018275528   0.01840247           19 
  889000   0.88831424   -7.8107237      195.084  0.018286839   0.01838581            4 
  890000    0.9063662   -7.8342348    194.76427  0.018236355  0.018369118            6 
  891000   0.89553649   -7.8310898    195.66437  0.018300072   0.01835244            6 
  892000    0.8971876   -7.8202909    195.15994  0.018232431  0.018335877           11 
  893000   0.90099608   -7.8227989    195.38091  0.018232634  0.018319129            7 
  894000   0.90976411   -7.8462538    195.50923  0.018224201  0.018302515            7 
  895000   0.89839934   -7.8440966    195.24655  0.018179381  0.018285894            7 
  896000   0.90100634   -7.8280362    195.19924  0.018154691  0.018269142            5 
  897000   0.91614754   -7.8644169    195.88584  0.018198239  0.018252536            6 
  898000   0.90803663   -7.8352365    195.91553  0.018180728  0.018235959            7 
  899000    0.8860295   -7.8114183    195.88077  0.018157283  0.018219461            7 
  900000   0.90181575   -7.8160907    196.47601  0.018192223  0.018202954            8 
  901000   0.88484754   -7.8563814    195.54395  0.018085826  0.018186376            6 
  902000   0.89741129   -7.8478942    196.03879  0.018111492  0.018169757           14 
  903000   0.89604792   -7.8759031    196.12761  0.018099631  0.018153022            4 
  904000   0.88497131   -7.8992224    195.25338  0.017999021  0.018136334           11 
  905000   0.91388724   -7.8844592    195.49851  0.018001705  0.018119674            4 
  906000   0.89542293   -7.8752229     195.8159  0.018011029  0.018103105            5 
  907000    0.9099022   -7.8842307     196.1832  0.018024917  0.018086551           19 
  908000   0.89173685   -7.8807313    196.13804  0.018000922  0.018070019            4 
  909000   0.90395404   -7.8815026    196.63419  0.018026604  0.018053494           13 
  910000   0.90785943   -7.8534335    196.54741  0.017998847  0.018037001           10 
  911000   0.87846225   -7.8709926    196.59065  0.017983045  0.018020632           32 
  912000   0.91787645   -7.8673573    196.72764  0.017975845  0.018004197           33 
  913000   0.89268915   -7.8549396    196.90904  0.017972713  0.017987815           11 
  914000   0.90338495   -7.8826642    196.27137  0.017894909  0.017971507           15 
  915000   0.87926172   -7.8422603     197.2483  0.017964326   0.01795512           12 
  916000   0.88791982   -7.8265082    197.26764  0.017946474  0.017938792           12 
  917000   0.87927745   -7.8670082    196.54115  0.017860882  0.017922323           15 
  918000   0.90378199   -7.8681942    196.77168  0.017862353  0.017905934            4 
  919000   0.87575959   -7.8678071    196.81756  0.017847076  0.017889444            8 
  920000   0.88765326   -7.8697566    196.64063  0.017811651  0.017872839            6 
  921000   0.88738198     -7.87026    196.97994  0.017823013  0.017856216           17 
  922000   0.90507563   -7.8933983    196.50751  0.017760982  0.017839564           10 
  923000   0.89068503   -7.9245304    196.53821  0.017744512  0.017822838           22 
  924000   0.88296549   -7.8888251    196.49935  0.017721803  0.017806167           10 
  925000   0.88214295   -7.9001153    196.53468  0.017705827  0.017789457           14 
  926000   0.88501313   -7.9038412    196.56783  0.017689689  0.017772738           29 
  927000   0.90285311   -7.8954115    196.60755  0.017674178  0.017756139           11 
  928000   0.89823961   -7.9236688    196.27347  0.017625132  0.017739514           10 
  929000   0.87717144   -7.8918312    197.00531  0.017671807  0.017722886            5 
  930000   0.88637485   -7.8646057    197.09917  0.017661216  0.017706418           16 
  931000   0.86168654   -7.9019656    197.25962  0.017656608  0.017690015           28 
  932000   0.86530834   -7.8770296    197.16673  0.017629357    0.0176737           16 
  933000   0.87864643   -7.8619059    197.78557  0.017665735  0.017657597           14 
  934000   0.86866376   -7.8822999    197.59967  0.017630235   0.01764142           10 
  935000   0.89091184   -7.8764289    197.55971  0.017607817  0.017625222           21 
  936000   0.88157458   -7.8544185    198.10157  0.017637248  0.017609066           12 
  937000   0.87303454   -7.8967775    197.16841  0.017535433   0.01759287           34 
  938000   0.86506681   -7.8933793    197.66383  0.017560752   0.01757657           13 
  939000   0.88313632   -7.9409785    197.34491  0.017513748  0.017560327            4 
  940000   0.88711411   -7.9002635    198.08003  0.017560287  0.017544051            3 
  941000   0.88274159    -7.913212    197.61353  0.017500312  0.017527789            7 
  942000   0.86746933   -7.8848694    198.09568  0.017524387  0.017511424           14 
  943000   0.87647277   -7.9024535    197.86214  0.017485166  0.017495121           11 
  944000   0.87360425    -7.908502    197.81335  0.017462337  0.017478907           21 
  945000   0.89151467   -7.8671291    198.12352   0.01747121  0.017462695            6 
  946000   0.86419713     -7.88828    198.42029  0.017478883  0.017446691            6 
  947000   0.87446446   -7.8809304    198.10482  0.017432667  0.017430631            4 
  948000   0.86654808   -7.9260272    198.14198  0.017417544  0.017414562            5 
  949000   0.87375234   -7.8928953    198.14279  0.017399262  0.017398511           19 
  950000   0.88139031   -7.9104987    198.39517  0.017403085  0.017382543            5 
  951000   0.89030052   -7.8782278    198.52479  0.017396144  0.017366567           11 
  952000   0.86151492    -7.880675    198.38541  0.017365669  0.017350586            6 
  953000   0.89900131   -7.9034167    199.14596  0.017413952  0.017334602           11 
  954000   0.87630718   -7.8917975    198.40198  0.017330711  0.017318632            5 
  955000   0.88360212   -7.9053119    198.48358  0.017319684  0.017302609           13 
  956000   0.85875072   -7.9356166    198.19584  0.017276486  0.017286709            9 
  957000   0.88986534   -7.9222624    198.60938  0.017294443  0.017270819            4 
  958000   0.87857284   -7.9721859    198.58063  0.017273889   0.01725481           22 
  959000   0.85879496   -7.9530595    198.48289  0.017247384  0.017238761           40 
  960000   0.86742053   -7.9574964    198.42601   0.01722448   0.01722275            7 
  961000     0.870786   -7.8847175    198.90549  0.017248135  0.017206789            7 
  962000   0.86312167   -7.9404818    199.34154  0.017267978  0.017190919           11 
  963000   0.88810699   -7.9240393    198.64516  0.017189786  0.017174969            8 
  964000   0.85394725    -7.942541    198.41134  0.017151741  0.017158975           15 
  965000   0.85381098   -7.9395319    199.34137  0.017214281  0.017142995            7 
  966000   0.86893757   -7.8782092    199.27213  0.017190487  0.017127048           12 
  967000   0.85644053   -7.9242231    199.14414   0.01716168  0.017111207            9 
  968000   0.88852505   -7.8803264    199.91768  0.017210544  0.017095467            9 
  969000   0.86203852   -7.9024745    199.56726  0.017162647  0.017079704            6 
  970000   0.87668854   -7.9424592    199.30581  0.017122493  0.017063839            5 
  971000   0.86224315   -7.8841928    199.91405  0.017157059  0.017048063           12 
  972000   0.85679446   -7.9188183    199.10333  0.017069901   0.01703239           14 
  973000   0.86631065   -7.9460015    199.18509   0.01705936  0.017016649            7 
  974000   0.85647956   -7.9138373    199.37696  0.017058261  0.017000963           10 
  975000   0.86609634   -7.9213546    199.77452  0.017074746  0.016985337           14 
  976000   0.85296178   -7.9211346    199.61533  0.017043659  0.016969736            9 
  977000    0.8737529   -7.9644265    199.91803  0.017052033   0.01695405            8 
  978000   0.87787605   -7.9275726    199.63297  0.017010308  0.016938358           18 
  979000   0.87921345   -7.9324751    199.44367  0.016976819  0.016922558            9 
  980000   0.85764307   -7.9184093    200.13771  0.017018513  0.016906798            9 
  981000    0.8613174   -7.9273483    200.06367  0.016994875  0.016891134           10 
  982000   0.88044148   -7.9382313    199.31725  0.016914227  0.016875431            7 
  983000   0.84903875   -7.9686204    199.90804  0.016947104  0.016859676            7 
  984000    0.8561063   -7.9687448    199.45045  0.016891129  0.016843984            8 
  985000   0.86818191   -7.9106783    199.88784  0.016910985  0.016828178            8 
  986000   0.83227726    -7.941728    199.77743  0.016884502  0.016812514           17 
  987000   0.86873191   -7.9491795    199.77056  0.016866815  0.016796848            6 
  988000   0.86300333   -7.9477567    199.84236    0.0168558  0.016781207            6 
  989000   0.85897993   -7.9583056    199.65124  0.016822652  0.016765447            7 
  990000   0.86596386   -7.9490286     200.0676  0.016840707  0.016749804           16 
  991000   0.86556493   -7.9447459    199.37386  0.016765376  0.016734178            7 
  992000   0.86475001   -7.9489677    200.41139  0.016835634  0.016718519           19 
  993000   0.87187125   -7.9217611    200.14827  0.016796599  0.016702837           25 
  994000   0.85621598   -7.9495087    200.13711  0.016778765  0.016687336           13 
  995000   0.83272168   -7.9457342     200.2757  0.016773509   0.01667182           16 
  996000   0.84094042   -7.9767884    199.90044  0.016725271  0.016656195            9 
  997000   0.84488738   -7.9848481    200.47771  0.016756746  0.016640578           40 
  998000   0.86288694   -7.9309791    200.25322  0.016721211  0.016624974           32 
  999000   0.83145568   -7.9555734    200.19951  0.016699992   0.01660938           33 
 1000000   0.85009242   -7.9665866    199.97455  0.016664546  0.016593828           19 
 1001000   0.85034043   -7.9709461    200.28171  0.016673469  0.016578263           11 
 1002000   0.85352598   -7.9356901     200.5427  0.016678535  0.016562731            8 
 1003000   0.85053106   -7.9561142    200.39838  0.016649915  0.016547283           33 
 1004000   0.83887198   -7.9316866    201.07585  0.016689563  0.016531824           20 
 1005000   0.88238931   -7.9699498    200.39775  0.016616729  0.016516374           25 
 1006000   0.85940051   -8.0001344    200.62851  0.016619327  0.016500894           14 
 1007000   0.87246285   -7.9885858    200.63255  0.016603157  0.016485497            6 
 1008000   0.84535321   -7.9618832    200.68245  0.016590811    0.0164701           19 
 1009000   0.86080222   -7.9851661    200.99463  0.016600151  0.016454775           11 
 1010000   0.84455221   -7.9544193    200.66857  0.016556813  0.016439427           15 
 1011000   0.84185872   -7.9783972    200.68534  0.016541818  0.016424101           21 
 1012000   0.84382273   -7.9915615    200.97113  0.016549006   0.01640882           28 
 1013000    0.8436657   -7.9594076     201.2471  0.016555372  0.016393525           16 
 1014000   0.85341554   -7.9832079    200.77049  0.016499876  0.016378257            9 
 1015000   0.85902417   -7.9708961     201.1332  0.016513399   0.01636291           20 
 1016000   0.83563789   -7.9898151    200.88785  0.016477022  0.016347685           13 
 1017000   0.83705406   -8.0032407    201.30922  0.016495348  0.016332421           30 
 1018000   0.85050028   -7.9743297    201.35261  0.016482696   0.01631719           34 
 1019000   0.86367012   -7.9582306    201.67056  0.016492522  0.016301928           46 
 1020000   0.85208126   -8.0291511    200.76404  0.016402291  0.016286636           20 
 1021000   0.84058045   -8.0270875    201.19347  0.016421276   0.01627135           18 
 1022000   0.85858874    -8.033847    200.75095  0.016369125  0.016255986           32 
 1023000   0.86765421    -8.057057    200.70688  0.016349534  0.016240567           29 
 1024000   0.82519333   -8.0177852    201.52953  0.016400515  0.016225225           35 
 1025000   0.83454827   -8.0391269    201.27646   0.01636394  0.016209949           50 
 1026000   0.84266921   -8.0241824    201.43597  0.016360946   0.01619463           45 
 1027000   0.84112789   -8.0267634    201.13905  0.016320923  0.016179322           46 
 1028000   0.81995353   -7.9938089    201.04404  0.016297344  0.016164136           21 
 1029000   0.84728622   -8.0239122    201.37011  0.016307913  0.016148934           41 
 1030000   0.84996561   -8.0258997    201.42017   0.01629613  0.016133637           13 
 1031000   0.82652473   -7.9881905    201.37066  0.016276322  0.016118339           23 
 1032000   0.83437371   -8.0043362    201.45907   0.01626769  0.016103098           39 
 1033000   0.83452809   -8.0399368    201.40674   0.01624772  0.016087887           12 
 1034000   0.83911954   -8.0301206    201.18169  0.016213869  0.016072694           24 
 1035000    0.8403559   -7.9896354    201.72208  0.016241714  0.016057552           25 
 1036000   0.82998156   -8.0123111    201.87355   0.01623822  0.016042459           22 
 1037000   0.85502036   -8.0011833    201.69166  0.016207944   0.01602728           23 
 1038000   0.83807923   -8.0145645    202.26409  0.016238286  0.016012104            8 
 1039000   0.84906934   -7.9785452    201.89336  0.016192923  0.015996991           10 
 1040000   0.82666274   -8.0217189     201.2367  0.016124735  0.015981754           14 
 1041000   0.83522476   -8.0103626    201.22922  0.016108647  0.015966509           23 
 1042000   0.83377274   -8.0638551    200.82177  0.016060602  0.015951209            7 
 1043000     0.833631   -8.0284177    201.35414  0.016087739  0.015935908           11 
 1044000   0.82830511   -8.0225402    201.64312  0.016095396    0.0159207            9 
 1045000   0.81458446   -8.0197598    201.09856  0.016036568  0.015905452            8 
 1046000   0.83756146   -8.0154595    201.36057  0.016042111  0.015890213            8 
 1047000   0.83276871   -7.9959888    201.30184  0.016022114  0.015874931            9 
 1048000   0.82194183   -8.0508241    200.93465  0.015977628  0.015859656           13 
 1049000   0.81646385   -8.0338458    201.04532  0.015971189  0.015844355           19 
 1050000   0.84375108   -8.0240082    201.61321  0.016001048  0.015829131           11 
 1051000   0.82994815   -8.0303256    201.60868  0.015985465  0.015813869           15 
 1052000   0.82029084   -8.0504805    201.36441   0.01595092  0.015798704           10 
 1053000   0.85497914   -8.0572798    201.00122  0.015907029  0.015783519           11 
 1054000     0.832455    -8.041625    201.94622  0.015966652  0.015768407           12 
 1055000   0.84527397   -8.0513685    201.78492  0.015938777  0.015753337           12 
 1056000   0.82645798   -8.0303879    201.44606  0.015896943  0.015738212            8 
 1057000   0.84184415   -8.0277628    201.33257  0.015872956  0.015723133            8 
 1058000   0.83707467   -8.0518051    201.61325   0.01588006  0.015707972           24 
 1059000   0.81329499   -8.0584553    201.72356  0.015873746  0.015692911           15 
 1060000   0.84011363    -8.003853    202.12279  0.015890156  0.015677859           19 
 1061000   0.83845875   -8.0575154    201.77701  0.015848022  0.015662869            3 
 1062000   0.83381101   -8.0179579    201.83978  0.015838024  0.015647849            7 
 1063000    0.8156817   -8.0426942     201.7653  0.015817286  0.015632924           11 
 1064000   0.84174609   -8.0358127    201.56851  0.015787008  0.015617991            6 
 1065000   0.82154161   -7.9979177    202.19837  0.015821468  0.015603021            7 
 1066000   0.82140488   -8.0306531    201.66496  0.015764928  0.015588076           19 
 1067000   0.84424358   -8.0534924    201.90762  0.015769105  0.015573123           19 
 1068000   0.83076075   -8.0082716    202.46271  0.015797652  0.015558186            9 
 1069000   0.84090044   -8.0192153    202.17807  0.015760685  0.015543298            8 
 1070000   0.83156715   -8.0219212    202.24154  0.015750899   0.01552848           10 
 1071000   0.82686059   -8.0375198    201.98734  0.015716413    0.0155137           16 
 1072000   0.83533763   -8.0348367    202.36751  0.015731306  0.015498843            9 
 1073000   0.83583337   -8.0571241    202.21288  0.015704635   0.01548397           18 
 1074000   0.81756099   -8.0705218    201.68515  0.015649065  0.015469086           16 
 1075000   0.81693191   -8.0381329    202.06826  0.015664206  0.015454207           31 
 1076000   0.81208692   -8.0736048    202.14168  0.015655335  0.015439421           33 
 1077000   0.81871762    -8.061446    201.87958  0.015620519  0.015424563           29 
 1078000   0.83989634   -8.0511118    202.64411  0.015665129  0.015409718           17 
 1079000   0.82774099   -8.0547265    202.11668  0.015609876  0.015394901           15 
 1080000   0.81374593   -8.0638289    202.63336   0.01563529  0.015380064           15 
 1081000   0.83792097   -8.0403733    202.44771  0.015606515  0.015365306            7 
 1082000   0.81976005    -8.082887    202.40098  0.015588492  0.015350598           23 
 1083000   0.82551749    -8.046876    202.31651  0.015567598  0.015335837           39 
 1084000   0.83888181   -8.0830949    201.74479  0.015509286  0.015321107           26 
 1085000   0.83050598   -8.0616361    202.25686  0.015534321  0.015306347           41 
 1086000   0.81193904   -8.0611098    202.23276  0.015518168  0.015291583           43 
 1087000   0.81520583   -8.0882904     202.3126  0.015510012  0.015276802           44 
 1088000   0.80403685   -8.1071404     202.2013  0.015487232  0.015261965           43 
 1089000   0.80973137   -8.0844727    202.36179  0.015485292  0.015247106           35 
 1090000   0.82023293   -8.0892043    202.16757  0.015456236  0.015232294           67 
 1091000   0.82670952   -8.0941087    201.97575  0.015427418  0.015217549           36 
 1092000   0.82595847   -8.0766941    202.43338  0.015448212  0.015202794           39 
 1093000    0.8107037   -8.1130266    201.68296  0.015376865  0.015187963           16 
 1094000   0.80606428   -8.0874484    202.46255  0.015422193  0.015173261           54 
 1095000   0.81240353   -8.1270548    201.86478  0.015362616  0.015158533           55 
 1096000   0.81260661   -8.0982775    202.90762  0.015427891  0.015143838           98 
 1097000   0.81938786   -8.1320887    202.26636  0.015365114  0.015129115           79 
 1098000   0.82416291   -8.1283464    202.85449  0.015395756  0.015114324           84 
 1099000   0.80911076    -8.106815     202.2675  0.015337238  0.015099548           73 
 1100000   0.79611072   -8.1061499    202.45412  0.015337433  0.015084861           61 
 1101000   0.81909453   -8.1068778    202.44958  0.015323159  0.015070158          101 
 1102000   0.82357894    -8.098691    202.74913  0.015331906  0.015055476          109 
 1103000   0.81838572   -8.1236212    201.98427   0.01526022  0.015040788          144 
 1104000   0.80890865   -8.1181559    202.24072  0.015265755  0.015026129          107 
 1105000   0.80152262   -8.1349753    202.33796  0.015259273  0.015011447          140 
 1106000   0.81911161   -8.1708873    202.01093  0.015220836  0.014996717          147 
 1107000   0.80605799   -8.1283444    202.46559  0.015241312  0.014981978          172 
 1108000   0.81217783   -8.1480659    201.93644  0.015187759  0.014967254          148 
 1109000   0.79457427   -8.1652789    202.09794  0.015186199  0.014952494          135 
 1110000   0.79938463   -8.1406899      202.098  0.015172522  0.014937779          130 
 1111000   0.81531371   -8.1442708    202.41908  0.015182949  0.014923014          144 
 1112000    0.8038932   -8.1619096    201.76768  0.015120479  0.014908283          153 
 1113000   0.80226721   -8.1444034    202.07262  0.015129726  0.014893507          168 
 1114000   0.78724733   -8.1249491     202.1835  0.015124439  0.014878772          188 
 1115000   0.80773362   -8.1262239    202.25923  0.015116534  0.014864115          168 
 1116000   0.80057354   -8.1499173    202.08105  0.015089684  0.014849539          189 
 1117000   0.80073035   -8.1733832     202.3196  0.015093972  0.014834869          168 
 1118000   0.82512253   -8.1550463    202.28863  0.015078162  0.014820219          176 
 1119000   0.80679516   -8.1599485    201.76902  0.015025992  0.014805568          223 
 1120000   0.80626249   -8.1763533    201.85014  0.015018611  0.014790883          227 
 1121000   0.81636707   -8.1592037    202.42577  0.015048006  0.014776213          232 
 1122000   0.80060203   -8.1527509    202.74528  0.015058325  0.014761569          209 
 1123000   0.81407382   -8.1482458     202.3049  0.015012237  0.014747007          178 
 1124000   0.80563454   -8.1723671    202.44151  0.015009009  0.014732438          230 
 1125000   0.80105234   -8.1731591    202.61721  0.015008682  0.014717867          234 
 1126000    0.8096957   -8.2002346    202.19104  0.014963813  0.014703229          232 
 1127000   0.81798214   -8.1740473    202.41736   0.01496727  0.014688644          240 
 1128000   0.80631342   -8.1947672    201.55615  0.014890378  0.014674009          241 
 1129000   0.79823624   -8.1835322    202.01341  0.014910939  0.014659345          295 
 1130000   0.79526828   -8.1858458     202.1936  0.014911032   0.01464472          296 
 1131000   0.80707732   -8.2049213    201.92377  0.014877967   0.01463008          312 
 1132000   0.81735052   -8.1603329    202.34971   0.01489618   0.01461551          290 
 1133000   0.79928819    -8.193878    201.99886  0.014857227  0.014600959          365 
 1134000   0.81055729     -8.20855    202.06135  0.014848717  0.014586321          322 
 1135000   0.80828905   -8.1973986    202.20267  0.014846011  0.014571653          413 
 1136000   0.80474857   -8.2017845    201.93333  0.014813184  0.014557005          406 
 1137000   0.79662993   -8.2279871    202.16636  0.014817236  0.014542427          463 
 1138000   0.80840149   -8.1916154    202.17397  0.014804772  0.014527794          382 
 1139000   0.79955883   -8.2119786    201.71346  0.014758082  0.014513186          418 
 1140000   0.79358847   -8.1898473    202.01704  0.014767327  0.014498645          426 
 1141000   0.79484883   -8.2203804    202.44853  0.014785899   0.01448414          539 
 1142000   0.80213459   -8.1802106    202.03425  0.014742721  0.014469632          450 
 1143000   0.80049873   -8.1922373    201.92949  0.014722185   0.01445511          536 
 1144000   0.80089522   -8.2109261    201.97345  0.014712519  0.014440598          483 
 1145000   0.80018636   -8.2278712    202.26269   0.01472072  0.014426083          480 
 1146000   0.81273295   -8.2322407    201.72419  0.014668717  0.014411531          478 
 1147000   0.80402972   -8.2471617    201.60126  0.014646997  0.014397087          520 
 1148000   0.79133487   -8.1909399    202.44419  0.014695426   0.01438267          514 
 1149000   0.80562453   -8.2184025    202.30773   0.01467274  0.014368283          593 
 1150000   0.79277591   -8.2466894    202.30086  0.014659482  0.014353857          639 
 1151000   0.80279237   -8.2357034    202.06519  0.014629684  0.014339395          683 
 1152000   0.78910486   -8.2484938     202.3383  0.014636741  0.014324944          647 
 1153000   0.77277014   -8.2567906    202.40744  0.014629043  0.014310512          715 
 1154000    0.7989967   -8.2764099    201.85009  0.014576118   0.01429606          704 
 1155000   0.79265828   -8.2328156    202.03884  0.014577117  0.014281652          680 
 1156000   0.78703438    -8.296945    202.01626  0.014562879  0.014267176          716 
 1157000   0.79473273   -8.2743593    201.49309  0.014512611   0.01425262          777 
 1158000   0.79624097    -8.285408    201.35739  0.014490313   0.01423811          761 
 1159000   0.78520961   -8.2838736    201.53638   0.01449068  0.014223616          737 
 1160000   0.79411178   -8.3192234    201.28838  0.014460372  0.014209129          800 
 1161000   0.78372545   -8.2822378    201.65522  0.014474247  0.014194678          764 
 1162000   0.79329488   -8.3319973    201.18839  0.014428313  0.014180193          904 
 1163000   0.79527915   -8.3230118    201.62666   0.01444731  0.014165637          947 
 1164000   0.79425555   -8.3573785    201.26958  0.014409334  0.014151118          932 
 1165000   0.80099066   -8.3372299    201.25499  0.014395922  0.014136557         1017 
 1166000   0.79617605   -8.3293929    201.56566  0.014405779  0.014122006         1010 
 1167000   0.76592017   -8.3361989    201.49792  0.014388597  0.014107485         1022 
 1168000   0.78997075   -8.3324625    201.21609  0.014356171  0.014092935         1032 
 1169000   0.80254982   -8.3106335    201.53383   0.01436654  0.014078442         1117 
 1170000   0.77610029   -8.3347844    201.34119  0.014340541   0.01406393         1101 
 1171000   0.77367994   -8.3229331    201.69036  0.014353143   0.01404942         1131 
 1172000   0.80490101   -8.3225984    201.03804  0.014294514  0.014034915         1122 
 1173000   0.77944486   -8.3625725    201.20659  0.014294302  0.014020366         1178 
 1174000   0.80624976   -8.3623196    201.29226  0.014288207  0.014005776         1257 
 1175000   0.80601652   -8.3921885    200.60759  0.014227489  0.013991166         1255 
 1176000   0.78374208   -8.3887529    201.04463   0.01424636  0.013976567         1407 
 1177000   0.77302475   -8.4022615    200.66602  0.014207449  0.013961936         1376 
 1178000   0.79827458    -8.417082     200.7706  0.014202788  0.013947285         1400 
 1179000   0.76827468   -8.4144815    201.04891  0.014210412  0.013932663         1479 
 1180000   0.78450788   -8.4127659    200.65862  0.014170807  0.013918045         1508 
 1181000   0.78122461   -8.4101093    200.75523  0.014165624  0.013903454         1503 
 1182000   0.77750366   -8.4283333    200.68434  0.014148642  0.013888866         1577 
 1183000   0.78721559   -8.4276287    200.70324  0.014138014  0.013874246         1557 
 1184000   0.77591325   -8.4274522     200.7712  0.014130856  0.013859645         1579 
 1185000   0.78991369   -8.4670439    200.02053  0.014066141  0.013844987         1660 
 1186000   0.77755729   -8.4333843    200.38882  0.014080159  0.013830329         1720 
 1187000   0.77265112   -8.4271372    200.29263  0.014061544  0.013815682         1780 
 1188000    0.7956511   -8.4836185    200.23334  0.014045548  0.013801077         1758 
 1189000   0.79185942   -8.4774428    200.55144   0.01405603  0.013786496         1788 
 1190000   0.79648282   -8.4758568    200.59197  0.014047057  0.013771914         1819 
 1191000    0.7714376   -8.4701052    200.51976   0.01403021   0.01375732         1869 
 1192000   0.77154594   -8.4864397    200.56974  0.014021934  0.013742703         1885 
 1193000   0.76444875   -8.5020907    199.82647  0.013958262  0.013728092         1987 
 1194000   0.77658886   -8.4963506    199.96451  0.013956205  0.013713444         1920 
 1195000   0.77737538   -8.4995624     200.4299   0.01397698  0.013698851         1969 
 1196000   0.76665522   -8.5265871    199.84034  0.013924215  0.013684234         2081 
 1197000   0.77847005   -8.5497287    199.92291  0.013918331  0.013669621         2214 
 1198000   0.77739347   -8.5031448    200.11755  0.013920252  0.013655025         2053 
 1199000   0.77062124   -8.5442507    199.69435  0.013879229  0.013640447         2138 
 1200000   0.78034647   -8.5322671    199.74474  0.013871162  0.013625874         2203 
 1201000   0.76992543   -8.5552665    199.55004  0.013846104  0.013611301         2281 
 1202000   0.77448247   -8.5545561    199.67199  0.013843039  0.013596664         2186 
 1203000   0.75767698   -8.5606291    199.10438  0.013792213  0.013582033         2255 
 1204000   0.77602961   -8.5517815    200.12332  0.013851281  0.013567414         2302 
 1205000   0.76530765   -8.5599257      199.484  0.013795574  0.013552768         2343 
 1206000   0.79606691   -8.5980718    198.96536  0.013748298  0.013538108         2436 
 1207000   0.77768867   -8.5646129    199.63901  0.013783417   0.01352342         2449 
 1208000   0.78880926    -8.583066    199.66675  0.013773921  0.013508744         2545 
 1209000   0.77895438   -8.6040678    198.98924  0.013715829  0.013494037         2613 
 1210000    0.7692982   -8.5625804    199.59562  0.013746255  0.013479311         2613 
 1211000   0.76135755   -8.6392542    198.87547  0.013685347  0.013464589         2733 
 1212000   0.77127179    -8.606108    199.11334  0.013690411  0.013449864         2771 
 1213000   0.77571748   -8.6336429    199.07776   0.01367668  0.013435135         2779 
 1214000   0.77968789    -8.631063    198.78234  0.013645136  0.013420399         2722 
 1215000   0.77455886   -8.6535343    198.73499  0.013630658  0.013405678         2776 
 1216000   0.78402496   -8.6528595    198.63142  0.013612351  0.013390953         2753 
 1217000   0.75943306   -8.6465532     198.4886  0.013591386  0.013376232         2834 
 1218000   0.76010576   -8.6651245    198.73725  0.013597239  0.013361484         2831 
 1219000   0.76145816   -8.6437274    198.59057  0.013576057  0.013346731         2941 
 1220000   0.75930035   -8.6991923    198.22904  0.013540235  0.013331997         2911 
 1221000   0.77767149    -8.702531    198.52385  0.013549266  0.013317253         3001 
 1222000   0.75257367   -8.6830808    198.50258  0.013536728  0.013302496         3055 
 1223000   0.77002513   -8.6861763    198.39538  0.013518355  0.013287742         2979 
 1224000   0.76185016    -8.686061    198.30351  0.013501056  0.013272989         2998 
 1225000   0.75727774   -8.7204679    198.54326  0.013506344  0.013258232         3014 
 1226000    0.7650527   -8.7011411    197.95885  0.013455605  0.013243477         3021 
 1227000   0.75683142   -8.7248671    197.86594  0.013438328  0.013228719         3093 
 1228000    0.7657306   -8.6980557    197.91275  0.013430561  0.013213977         3080 
 1229000   0.77320331   -8.7007643    198.02427  0.013427195  0.013199255         3146 
 1230000   0.75000454   -8.7048016    198.04925  0.013417971  0.013184537         3141 
 1231000   0.75466791   -8.6886257    198.06699  0.013408272   0.01316983         3146 
 1232000    0.7647146   -8.7308424     197.8093  0.013379958  0.013155143         3208 
 1233000   0.75147145   -8.7198678    197.92662  0.013377036  0.013140442         3178 
 1234000   0.76025542   -8.7748206    197.67383  0.013349124  0.013125721         3211 
 1235000   0.77220263   -8.7141186    198.35024  0.013383957  0.013111021         3172 
 1236000   0.76653549   -8.7252062    197.88605  0.013341832  0.013096314         3185 
 1237000   0.75845431   -8.7522026    197.58089  0.013310488   0.01308163         3282 
 1238000   0.76684952   -8.7783497    197.25133  0.013277553  0.013066956         3269 
 1239000     0.752308   -8.7754485    197.41381  0.013277765  0.013052268         3347 
 1240000    0.7588458   -8.7634383    197.92374  0.013301327    0.0130376         3290 
 1241000   0.73877593   -8.7622437    197.31083  0.013249452   0.01302295         3393 
 1242000   0.76563203    -8.748949    197.64457  0.013261176  0.013008303         3340 
 1243000   0.75151363   -8.7414826    198.09456  0.013280676  0.012993692         3330 
 1244000   0.75352847   -8.7632271     197.4915  0.013229602  0.012979119         3346 
 1245000   0.75722871    -8.758302    197.21795  0.013200666  0.012964549         3293 
 1246000   0.76805403   -8.7595724    197.86706  0.013233485  0.012950002         3409 
 1247000   0.73825486   -8.7518789    197.83366   0.01322064  0.012935465         3333 
 1248000   0.75006029   -8.7488464    197.27581  0.013172797  0.012920939         3301 
 1249000    0.7672965   -8.7632851    197.53748  0.013179709  0.012906456         3342 
 1250000   0.74397016   -8.7592817    197.45505   0.01316367  0.012891981         3278 
 1251000   0.75868123   -8.7620241    197.24881  0.013139409   0.01287753         3427 
 1252000     0.764318   -8.7503868    197.98728  0.013178067  0.012863065         3371 
 1253000   0.73526799   -8.7964739    196.95504  0.013098898  0.012848632         3394 
 1254000     0.760544   -8.7655946    197.23319  0.013106937  0.012834185         3379 
 1255000   0.75561035   -8.7761938    197.26038  0.013098299   0.01281977         3400 
 1256000   0.74348837   -8.7745854    197.31578  0.013091546  0.012805338         3444 
 1257000   0.76346759   -8.7716216    197.33173  0.013082189  0.012790941         3485 
 1258000   0.74916889   -8.8105268    196.95117   0.01304658  0.012776507         3527 
 1259000   0.75402662   -8.7885053    197.31702  0.013060433   0.01276212         3525 
 1260000   0.75555099   -8.7933909    197.62301  0.013070305  0.012747759         3541 
 1261000   0.76211799     -8.78962    197.10324  0.013025591  0.012733391         3492 
 1262000   0.75219462    -8.798527    197.07599   0.01301347  0.012719058         3505 
 1263000    0.7591729   -8.7962468    197.64264  0.013040554  0.012704734         3447 
 1264000   0.74499433   -8.7905761    197.68446  0.013032995  0.012690419         3480 
 1265000   0.73728932   -8.8055174    197.11818  0.012985387  0.012676127         3511 
 1266000   0.73396556    -8.785763    197.24964  0.012983783  0.012661844         3430 
 1267000   0.75233055   -8.7894392    197.06264  0.012961237  0.012647603         3450 
 1268000   0.76359711   -8.7999953    196.77212  0.012931922  0.012633356         3491 
 1269000   0.75131074   -8.8284846    196.87161  0.012928264  0.012619126         3518 
 1270000   0.75158487   -8.8001867    197.06916  0.012931048  0.012604907         3456 
 1271000   0.75586707   -8.8231487    196.78853  0.012902474  0.012590701         3465 
 1272000   0.73473607   -8.8169119    197.16728  0.012917144  0.012576526         3429 
 1273000   0.74569558   -8.8165967    196.72572  0.012878091  0.012562353         3498 
 1274000   0.73397881   -8.8196883    197.15582  0.012896116   0.01254819         3395 
 1275000   0.75068139   -8.8122464    197.29724  0.012895244  0.012534057         3471 
 1276000   0.74394919   -8.8225049    197.26554  0.012883068  0.012519939         3470 
 1277000    0.7506312   -8.8170854    196.91243  0.012849936  0.012505837         3492 
 1278000   0.73610528   -8.8306583    197.10825   0.01285265  0.012491782         3529 
 1279000    0.7443993   -8.8165184    197.14436  0.012844954  0.012477735         3441 
 1280000   0.75013448   -8.8024946    197.35157  0.012848409  0.012463692         3467 
 1281000   0.73501004   -8.8079171    196.91776  0.012810159  0.012449678         3465 
 1282000   0.75458795   -8.8106384    196.81611  0.012793559  0.012435682         3518 
 1283000   0.74561079   -8.8049944    197.05779  0.012799285  0.012421702         3491 
 1284000    0.7377704   -8.8169969    197.20573  0.012798918  0.012407741         3467 
 1285000   0.73805172   -8.8489451    196.72551  0.012757815  0.012393784         3490 
 1286000   0.73932231   -8.8540482    196.64481  0.012742665  0.012379847         3467 
 1287000   0.72197053   -8.8392777     196.8295  0.012744723   0.01236591         3463 
 1288000   0.73154228   -8.8323779      197.175  0.012757182  0.012351984         3579 
 1289000   0.74681142   -8.8387905    196.94241  0.012732248   0.01233809         3532 
 1290000   0.75562112   -8.8251028    196.81707  0.012714281  0.012324209         3581 
 1291000   0.73963966   -8.8525973    196.49641  0.012683734  0.012310315         3589 
 1292000   0.73796979   -8.8286878    197.02335  0.012707904  0.012296429         3576 
 1293000   0.73162734   -8.8490084    196.70062  0.012677277  0.012282569         3581 
 1294000   0.73265389   -8.8453709    196.60966  0.012661621  0.012268726         3506 
 1295000   0.73721303   -8.8419004    197.07918  0.012682058  0.012254896         3597 
 1296000   0.72904437   -8.8609367    196.70404  0.012648151  0.012241056         3545 
 1297000   0.72013898   -8.8826789    196.60116  0.012631789  0.012227232         3576 
 1298000   0.74718506   -8.8384967    196.98889   0.01264695   0.01221343         3547 
 1299000   0.73829138   -8.8447395    196.55095  0.012609119  0.012199638         3552 
 1300000   0.73696235   -8.8263464    196.85851  0.012619135  0.012185863         3606 
 1301000   0.73901416    -8.835295    197.43112  0.012646113  0.012172139         3515 
 1302000   0.74369095   -8.8513861    197.01741  0.012609921  0.012158407         3595 
 1303000   0.73232571   -8.8646075    196.60191  0.012573671  0.012144704         3629 
 1304000    0.7236261   -8.8476033     196.6907  0.012569702  0.012131001         3618 
 1305000   0.74009255   -8.8580312    196.74269   0.01256339  0.012117327         3596 
 1306000   0.73312189   -8.8411256    196.60013  0.012544674  0.012103667         3599 
 1307000   0.72691874     -8.86344    196.97194  0.012558782  0.012090027         3579 
 1308000   0.75043682   -8.8702038    196.46866  0.012517117  0.012076414         3611 
 1309000   0.72198061   -8.8541002    196.25693  0.012494075  0.012062817         3567 
 1310000   0.72635312   -8.8649701    196.58274  0.012505263  0.012049225         3611 
 1311000   0.74411431   -8.8805407    196.51969  0.012491717  0.012035655         3591 
 1312000   0.73234742   -8.8659529    195.96098  0.012446709   0.01202212         3615 
 1313000   0.73336197   -8.8527618    196.55451  0.012474899  0.012008583         3600 
 1314000   0.72628833   -8.8583929    196.62544  0.012469903  0.011995051         3586 
 1315000   0.74135645   -8.8679958    196.81838  0.012472648  0.011981534         3631 
 1316000   0.72923573   -8.8837022    196.40004  0.012436679  0.011968046         3605 
 1317000   0.74119403   -8.8619711      196.757  0.012449823  0.011954562         3585 
 1318000   0.71575924   -8.8596296    196.67308  0.012435071  0.011941092         3581 
 1319000   0.73009039   -8.8696417    196.68174   0.01242619  0.011927631         3585 
 1320000   0.73776247   -8.8783703    196.37813  0.012397609  0.011914182         3651 
 1321000   0.71102819   -8.8824161    196.02222  0.012365772  0.011900728         3619 
 1322000   0.70210416   -8.8572707    196.10349  0.012361541   0.01188731         3593 
 1323000   0.72886244   -8.8883208    196.36117  0.012368429  0.011873923         3602 
 1324000   0.72897358   -8.8855821    196.18552  0.012348031  0.011860544         3581 
 1325000   0.73037746   -8.8953168    196.26744  0.012343864  0.011847195         3589 
 1326000   0.73512171   -8.9016861     196.2218  0.012331687  0.011833848         3662 
 1327000   0.72951385   -8.8963735    196.15021  0.012317898   0.01182053         3649 
 1328000   0.71591538   -8.8826994    196.20152  0.012311842  0.011807231         3658 
 1329000   0.72081302   -8.8880451     196.4273  0.012316736  0.011793945         3675 
 1330000   0.71813746   -8.8937453    196.70688  0.012324993  0.011780699         3607 
 1331000   0.71965731   -8.8854437    196.67424  0.012313689  0.011767452         3656 
 1332000   0.71611463   -8.8644103    196.42561   0.01228889  0.011754221         3596 
 1333000   0.72096068   -8.8936352    195.98252   0.01225197  0.011741015         3647 
 1334000   0.72575412   -8.8901305    195.99395    0.0122435  0.011727793         3635 
 1335000   0.71803175   -8.8926975    196.40781  0.012260163  0.011714614         3665 
 1336000   0.72298345   -8.9093848    196.66431  0.012266985  0.011701443         3629 
 1337000   0.72754884   -8.9111346    196.39987  0.012241328  0.011688277         3681 
 1338000    0.7202387   -8.8950652     196.0144  0.012208171  0.011675149         3663 
 1339000   0.72559352   -8.8913716    196.21916  0.012211797  0.011662027         3599 
 1340000   0.71756025   -8.8831417    196.40122  0.012214006  0.011648931         3646 
 1341000   0.72241371    -8.893844    196.23375  0.012194491  0.011635859         3685 
 1342000   0.71132696   -8.9022418    196.12919  0.012178911  0.011622801         3674 
 1343000   0.72043172   -8.9070296    195.86033   0.01215316  0.011609746         3705 
 1344000   0.70730235   -8.9048145    196.38761  0.012176811  0.011596714         3636 
 1345000   0.71005188   -8.8841773     196.3988  0.012168451  0.011583708         3630 
 1346000   0.72205517   -8.9047257     196.4343  0.012161609  0.011570724         3683 
 1347000   0.70581338   -8.8997626    196.16541  0.012135944  0.011557768         3668 
 1348000    0.7327175   -8.9117642    196.06439  0.012120696  0.011544801         3707 
 1349000   0.71490719   -8.9006724    196.27794  0.012124903  0.011531851         3649 
 1350000   0.71802224   -8.9159248    196.08604  0.012104077  0.011518926         3688 
 1351000   0.70846802   -8.8783455    196.17956  0.012100886  0.011506009         3724 
 1352000   0.73507373   -8.9018248    196.35085  0.012102493  0.011493127         3704 
 1353000   0.72133764   -8.9180881    195.89794  0.012065653  0.011480245         3713 
 1354000   0.70111059   -8.9144204    196.27031   0.01207966  0.011467392         3713 
 1355000   0.71901257    -8.930137    196.14981  0.012063334  0.011454547         3669 
 1356000   0.71504439   -8.9178799    195.83741  0.012035239  0.011441724         3652 
 1357000   0.71919916   -8.9225926    195.95738  0.012033737   0.01142892         3675 
 1358000   0.71440426   -8.9213168    196.04605  0.012030317  0.011416135         3724 
 1359000   0.69812181   -8.9051957    195.79379  0.012005996  0.011403367         3663 
 1360000   0.72755607   -8.9157912    196.05395   0.01201311  0.011390601         3712 
 1361000    0.7058768   -8.9184098    196.08415  0.012006132  0.011377856         3673 
 1362000   0.70408378   -8.9233052    196.32752  0.012012208  0.011365127         3665 
 1363000   0.73378284   -8.9261855    195.95616   0.01198069   0.01135242         3748 
 1364000   0.70729333   -8.9324598    195.78342  0.011961352  0.011339726         3742 
 1365000   0.71245237   -8.9118202    196.30011  0.011984134  0.011327066         3707 
 1366000   0.70417734    -8.930109    195.99535  0.011956768  0.011314416         3733 
 1367000   0.71111564   -8.9376368    195.93695  0.011944462  0.011301788         3731 
 1368000   0.70941985    -8.914266    196.30207  0.011957972  0.011289166         3717 
 1369000   0.69839723   -8.9219593    195.81473  0.011919572  0.011276585         3743 
 1370000   0.67799158     -8.93269    195.83568  0.011912146  0.011264012         3718 
 1371000   0.69706844   -8.9219801    196.37484  0.011936229  0.011251442         3697 
 1372000   0.71392822   -8.9334483    195.91933  0.011899862   0.01123889         3717 
 1373000    0.7094274    -8.944693    195.67197  0.011876182  0.011226358         3706 
 1374000   0.71008451   -8.9373049    195.86759  0.011879403  0.011213847         3752 
 1375000   0.70930461   -8.9491757    196.17725   0.01188953  0.011201345         3756 
 1376000   0.69519876   -8.9478287    196.21259   0.01188303  0.011188854         3723 
 1377000   0.70192096   -8.9129754    196.17471  0.011872108  0.011176406         3762 
 1378000   0.71011674   -8.9139909    196.43968  0.011879516   0.01116396         3720 
 1379000   0.71702235   -8.9206858    195.89273   0.01183785   0.01115154         3704 
 1380000   0.68960752   -8.9584155    195.82633  0.011825262  0.011139118         3733 
 1381000   0.68811474   -8.9428122    196.36396  0.011849141  0.011126709         3791 
 1382000   0.71023061   -8.9197172    196.21262  0.011831441  0.011114327         3729 
 1383000   0.70004887   -8.9318004    195.87723  0.011802677  0.011101961         3761 
 1384000   0.71980956   -8.9329484    195.40493  0.011765711  0.011089597         3774 
 1385000     0.711368   -8.9393334     195.8386  0.011783309  0.011077254         3756 
 1386000   0.69717998   -8.9404988    196.03578  0.011786663  0.011064929         3744 
 1387000   0.69355111   -8.9354014     195.9884  0.011775319  0.011052612         3731 
 1388000   0.71141343   -8.9388167    196.05064  0.011770572  0.011040304         3765 
 1389000   0.69391506   -8.9499867    195.84693  0.011749876  0.011028008         3756 
 1390000   0.71390299   -8.9458674    195.71615  0.011733582  0.011015728         3794 
 1391000    0.7018681   -8.9632929    195.69486  0.011723871  0.011003474         3796 
 1392000   0.70027281   -8.9380448    195.80493  0.011722039  0.010991224         3788 
 1393000   0.68871554   -8.9570952    195.62156  0.011702653  0.010978996         3780 
 1394000   0.69723025   -8.9712812    195.60378  0.011693196  0.010966787         3778 
 1395000   0.70452836   -8.9465119    195.66494  0.011688467  0.010954576         3794 
 1396000   0.69571278   -8.9687662    195.57133  0.011674506  0.010942386         3778 
 1397000   0.70054348   -8.9659137    195.89696  0.011685574  0.010930211         3773 
 1398000    0.6958907   -8.9896116    195.41177  0.011648293  0.010918037         3783 
 1399000   0.69185331   -8.9921035    195.79002  0.011662498  0.010905885         3813 
 1400000   0.69867125   -8.9554159    195.48705  0.011636134  0.010893755         3810 
 1401000   0.68945406   -8.9477253    195.95139  0.011655448   0.01088164         3793 
 1402000   0.67568309    -8.952056    195.94404  0.011646697  0.010869557         3789 
 1403000   0.70542787   -8.9591295    195.86816  0.011633889  0.010857502         3756 
 1404000   0.68063096   -8.9842478    195.35572  0.011595187   0.01084544         3758 
 1405000   0.70025339   -8.9820712    195.65565  0.011604724  0.010833406         3736 
 1406000   0.67694118   -8.9404333    195.79268  0.011604592  0.010821379         3731 
 1407000   0.70259183   -8.9868924    195.68322  0.011589861  0.010809372         3788 
 1408000   0.68767998   -8.9746253    195.75977  0.011586161  0.010797385         3797 
 1409000    0.6990045   -8.9746043    195.57719  0.011567139   0.01078542         3805 
 1410000   0.69263737   -8.9676703    195.49357  0.011553994  0.010773463         3737 
 1411000   0.69615081   -8.9927571    195.52565    0.0115477  0.010761528         3781 
 1412000   0.69047213   -8.9800271    195.55325   0.01154115  0.010749612         3760 
 1413000   0.69608765   -8.9767008    195.31528  0.011518948  0.010737713         3784 
 1414000   0.68615028    -8.954167    195.47645    0.0115203   0.01072582         3780 
 1415000   0.68512445   -8.9847726    195.89157  0.011536606  0.010713953         3793 
 1416000   0.69668743   -8.9577645     195.7045   0.01151745  0.010702105         3784 
 1417000   0.70464137    -8.985141    195.45154  0.011494445   0.01069026         3773 
 1418000   0.70084295   -8.9890455    195.56456  0.011492981  0.010678425         3796 
 1419000   0.68257571   -8.9839081    195.38548  0.011474365  0.010666616         3762 
 1420000   0.69156606   -8.9785006    195.40101  0.011467195  0.010654816         3792 
 1421000   0.68412224   -8.9764976    195.49786  0.011464805  0.010643037         3787 
 1422000   0.68820939   -8.9624983    195.39477  0.011450701  0.010631267         3779 
 1423000   0.68142772    -8.990588    195.48633  0.011448017  0.010619509         3794 
 1424000   0.68731616   -8.9790709    195.68458  0.011451579  0.010607776         3808 
 1425000   0.69864715   -8.9914522    195.65789  0.011441982  0.010596052         3764 
 1426000   0.68246702   -8.9893179    195.11902  0.011402468  0.010584349         3814 
 1427000   0.69107673   -8.9711802    195.44034  0.011413241  0.010572664         3775 
 1428000   0.68896679    -8.992251    195.29884  0.011396991     0.010561         3783 
 1429000   0.68243303    -8.992225    195.51367  0.011401544  0.010549339         3790 
 1430000   0.67615548   -8.9868376    195.67144  0.011402764  0.010537695         3736 
 1431000   0.68080357   -9.0075668    195.55275  0.011387884  0.010526076         3841 
 1432000   0.68916066   -8.9916094    195.57989  0.011381512  0.010514466         3793 
 1433000   0.66524611   -8.9965711    195.43481  0.011365132  0.010502872         3762 
 1434000   0.68123058   -8.9718428    195.68017  0.011371465  0.010491306         3766 
 1435000   0.67234446    -8.987192    195.60492  0.011359171  0.010479735         3789 
 1436000   0.69154401   -8.9831762    195.37738  0.011338056  0.010468187         3826 
 1437000   0.67639287   -8.9883302    195.08307  0.011313098  0.010456651         3794 
 1438000   0.68709611   -8.9970991    195.53327   0.01133132  0.010445132         3792 
 1439000   0.67697418   -9.0081676    195.53899  0.011323778  0.010433648         3812 
 1440000   0.67272939   -8.9715962    195.26209  0.011299889  0.010422166         3815 
 1441000   0.67712434   -8.9972337    195.14968  0.011285547  0.010410704         3797 
 1442000   0.67708018   -9.0034511    195.20933  0.011281168  0.010399267         3821 
 1443000   0.69528177   -8.9913195    195.38916  0.011283735  0.010387831         3810 
 1444000   0.68774238   -9.0091086    195.34805  0.011273549  0.010376407         3806 
 1445000   0.68204674   -9.0040037    195.49752  0.011274367  0.010364994         3812 
 1446000   0.67499891   -8.9831216     195.5214  0.011267946  0.010353607         3783 
 1447000   0.67971011   -9.0038267    195.22441  0.011243055  0.010342235         3822 
 1448000   0.69087773   -8.9996899    195.16719  0.011231998  0.010330877         3824 
 1449000   0.68274826   -8.9735646     195.0774  0.011219082  0.010319538         3762 
 1450000   0.67209965   -9.0131259    195.49501  0.011235345  0.010308217         3807 
 1451000   0.67744999   -8.9880667     195.5811  0.011232547  0.010296922         3793 
 1452000   0.65964059   -9.0055662    195.18389  0.011202014  0.010285633         3792 
 1453000   0.67925788   -8.9920147    195.39069  0.011206165  0.010274344         3826 
 1454000   0.66667188   -8.9999804    195.64253  0.011212891  0.010263071         3818 
 1455000   0.67622246   -9.0077736    195.26456  0.011183537  0.010251817         3832 
 1456000    0.6748571   -9.0206504    195.19544    0.0111719  0.010240572         3810 
 1457000   0.67005767   -9.0228195    194.83279  0.011143491  0.010229361         3806 
 1458000   0.67575215   -9.0187389    195.16825  0.011155021  0.010218155         3814 
 1459000    0.6536113   -9.0289348    195.17956  0.011148021  0.010206966         3794 
 1460000   0.66849723   -8.9938014    195.32319  0.011148584  0.010195778         3823 
 1461000   0.67658606   -9.0227291    195.02595  0.011123999  0.010184618         3825 
 1462000   0.68085425   -9.0281671    194.97469  0.011113468  0.010173468         3799 
 1463000   0.68209052   -9.0120074    194.87991  0.011100474   0.01016234         3833 
 1464000   0.66131823   -9.0030625    195.14307  0.011107871  0.010151235         3772 
 1465000   0.66494461   -9.0349141    194.80093  0.011080827  0.010140139         3825 
 1466000   0.65909297   -9.0182581    195.06202   0.01108811  0.010129059         3814 
 1467000   0.65187833   -9.0071379    195.16799  0.011086571  0.010117993         3820 
 1468000   0.66333699   -9.0134895    194.80242  0.011058266  0.010106944         3832 
 1469000   0.67044252   -9.0054179    195.41274  0.011085361  0.010095913         3786 
 1470000   0.66160748    -9.039462    195.09369  0.011059733  0.010084891         3849 
 1471000   0.66882271   -9.0186667    194.99224  0.011046467  0.010073875         3820 
 1472000    0.6693537   -9.0195841    195.36337  0.011059974  0.010062884         3792 
 1473000   0.66112491   -8.9957285    195.38716  0.011053811  0.010051911         3760 
 1474000   0.64418218   -9.0313355    195.12374  0.011031419  0.010040947         3803 
 1475000   0.65470127   -9.0340984    195.15255  0.011025568  0.010029996         3814 
 1476000   0.67446146   -9.0185859    194.63103  0.010988653  0.010019063         3831 
 1477000     0.666915   -9.0090614    195.23057   0.01101504   0.01000815         3823 
 1478000   0.67515295   -9.0004152    195.21774  0.011006864  0.009997246         3810 
 1479000   0.66160766   -9.0255931    195.11889  0.010993852 0.0099863757         3823 
 1480000   0.68010873    -9.030592    194.92273  0.010975379 0.0099755105         3816 
 1481000    0.6581832   -9.0077667    194.97216  0.010970749 0.0099646561         3815 
 1482000   0.67455728   -9.0434501    194.99685  0.010964735 0.0099538045         3797 
 1483000   0.64841783    -9.030364    194.59098  0.010934534 0.0099429735         3830 
 1484000   0.65176961   -9.0228515      194.876  0.010943171 0.0099321711         3792 
 1485000   0.66238596   -9.0108731    195.03998  0.010945005  0.009921382         3801 
 1486000    0.6396869   -9.0396142    194.75811  0.010921832 0.0099106071         3806 
 1487000   0.65673949   -9.0450979    195.02463  0.010929423 0.0098998436         3791 
 1488000   0.64835648   -9.0109909    195.24029  0.010934156 0.0098890953         3828 
 1489000   0.66653087   -9.0326828    195.28221  0.010929159 0.0098783749         3776 
 1490000   0.65887049   -9.0282243    195.36126  0.010926245 0.0098676637         3827 
 1491000   0.64804341   -9.0374103    194.98772  0.010898039 0.0098569531         3805 
 1492000   0.66472442   -9.0325861    194.86029  0.010883618 0.0098462672         3848 
 1493000    0.6480676   -9.0409862    194.73984  0.010869605 0.0098356009         3837 
 1494000   0.65230312   -9.0366198    194.97591  0.010875497 0.0098249383         3822 
 1495000   0.66265358   -9.0352613    194.83682  0.010860469 0.0098142968         3818 
 1496000   0.65717934    -9.033915    195.08355  0.010866954 0.0098036729         3822 
 1497000    0.6511798   -9.0293555    195.15471  0.010863656 0.0097930672         3822 
 1498000   0.66409578   -9.0210505    195.08941  0.010852771  0.009782466         3794 
 1499000   0.64794396   -9.0355995    195.03728  0.010842633 0.0097718836         3804 
 1500000   0.64966248   -9.0599411    195.30268  0.010850149 0.0097613171         3794 
 1501000   0.64677405   -9.0513988    194.75191  0.010812343  0.009750757         3810 
 1502000   0.66106114   -9.0543947     195.2023  0.010830132 0.0097402154         3819 
 1503000   0.64801068   -9.0517571    195.16522   0.01082087 0.0097296911         3836 
 1504000   0.65418111   -9.0541035    195.06693   0.01080823 0.0097191789         3818 
 1505000    0.6497115   -9.0438219     194.9537  0.010794778 0.0097086719         3811 
 1506000   0.65826975   -9.0668943    194.68672  0.010772838 0.0096981836         3816 
 1507000   0.65715799   -9.0571241    194.84737  0.010774572 0.0096877045         3810 
 1508000   0.64116858   -9.0370797    194.91927  0.010771401 0.0096772495         3839 
 1509000    0.6459364   -9.0486595    194.78828  0.010757029 0.0096667987         3828 
 1510000   0.66386485   -9.0421142    194.70585  0.010745356 0.0096563535         3820 
 1511000   0.66978887   -9.0583249    194.94328  0.010751339  0.009645939         3812 
 1512000   0.66251629   -9.0438107    194.80449  0.010736579 0.0096355437         3843 
 1513000   0.64644248   -9.0441592    194.55154  0.010715551 0.0096251455         3835 
 1514000   0.64709179   -9.0636905    194.65604  0.010714225 0.0096147698         3824 
 1515000   0.64930065   -9.0369614    194.99215  0.010725641 0.0096044039         3834 
 1516000   0.64057086   -9.0619807    194.83328  0.010709833 0.0095940531         3838 
 1517000   0.64571567   -9.0433659    194.82914  0.010702546 0.0095837295         3825 
 1518000   0.65101198    -9.067607    194.47706  0.010676167 0.0095734109         3837 
 1519000   0.64158676   -9.0475259    194.87685  0.010691072 0.0095631079         3862 
 1520000   0.64391907   -9.0575756    194.76078  0.010677674 0.0095528225         3825 
 1521000   0.63929853   -9.0660815    194.83313  0.010674618 0.0095425519         3811 
 1522000   0.65123094   -9.0529485    194.69533  0.010660059 0.0095322938         3812 
 1523000   0.65163581   -9.0585701    194.63731  0.010649886 0.0095220494         3834 
 1524000   0.64321621   -9.0480485    194.56481  0.010638933 0.0095118061         3834 
 1525000   0.66067132   -9.0456919    194.57825  0.010632691 0.0095015829         3827 
 1526000   0.64778784   -9.0574721    194.84138  0.010640093 0.0094913768         3816 
 1527000   0.62411641   -9.0583043    194.72826  0.010626951 0.0094811787         3838 
 1528000   0.64508609   -9.0620406     194.5673  0.010611218 0.0094709925         3861 
 1529000   0.64768525   -9.0723667    194.82368  0.010618252  0.009460839         3853 
 1530000   0.64034479   -9.0877233    194.30664   0.01058315 0.0094506806         3811 
 1531000   0.64920072   -9.0745864    195.04061  0.010616188 0.0094405447         3828 
 1532000    0.6514347   -9.0770206    194.66261  0.010588697  0.009430417         3839 
 1533000   0.63435889   -9.0577096    194.77813  0.010588069 0.0094203224         3856 
 1534000   0.64199132   -9.0711952    194.51992   0.01056714 0.0094102297         3861 
 1535000    0.6379172   -9.0556069    194.59604  0.010564389 0.0094001509         3827 
 1536000   0.64628694   -9.0672105    194.11366   0.01053134 0.0093900789         3862 
 1537000   0.63353676   -9.0713574    194.59293  0.010550474 0.0093800247         3850 
 1538000   0.64181168   -9.0678295    194.32375  0.010529029 0.0093699807         3831 
 1539000     0.635844   -9.0901647    194.25711  0.010518579 0.0093599547         3840 
 1540000   0.63754351   -9.0703781    194.16934  0.010506999 0.0093499382         3870 
 1541000    0.6469918   -9.0630563    194.53275  0.010519833 0.0093399369         3832 
 1542000   0.63664251   -9.0785592    194.32516  0.010501792 0.0093299525         3834 
 1543000   0.63478401   -9.0780267    194.52996  0.010506047 0.0093199804         3850 
 1544000   0.64170214   -9.0778224    194.66321  0.010506434 0.0093100264         3845 
 1545000   0.64707733   -9.0563368    194.56036  0.010494086 0.0093000777         3870 
 1546000   0.63934136   -9.0620608    194.60702  0.010489814 0.0092901456         3833 
 1547000   0.63647513   -9.0753211    195.10433  0.010509822 0.0092802325         3872 
 1548000   0.62571115   -9.0838406    194.43894  0.010467213 0.0092703145         3867 
 1549000   0.62982851   -9.0822724    194.61582  0.010469971 0.0092604134         3839 
 1550000     0.630697   -9.1050204    194.43203  0.010453335 0.0092505267         3853 
 1551000   0.64795275   -9.0785212    194.62895  0.010457176  0.009240664         3815 
 1552000   0.63601774   -9.0735923    194.49061   0.01044301 0.0092308083         3841 
 1553000   0.63451522   -9.0612313    194.47207   0.01043529 0.0092209723         3867 
 1554000   0.62352101   -9.0792465    194.39807  0.010424607  0.009211147         3812 
 1555000    0.6435133   -9.0859035    194.57936  0.010427618 0.0092013457         3849 
 1556000   0.63293315   -9.0955468    194.36919  0.010409661 0.0091915567         3853 
 1557000   0.64929493   -9.0935216    194.26993  0.010397663 0.0091817783         3880 
 1558000   0.63947702   -9.0783474    194.64556  0.010411081 0.0091720061         3865 
 1559000   0.62649502   -9.0881937    194.36308  0.010389303  0.009162239         3827 
 1560000   0.63389661   -9.0845396    194.56232  0.010393286 0.0091524901         3855 
 1561000    0.6314469   -9.0880359    194.20828  0.010367728 0.0091427688         3822 
 1562000   0.63499072   -9.0818445    194.43855  0.010373376 0.0091330579         3842 
 1563000   0.61641378   -9.0896686     194.3457  0.010361788 0.0091233605         3850 
 1564000   0.62700734   -9.1100735    194.46453  0.010361495 0.0091136746         3838 
 1565000   0.62947885   -9.0708059    194.05927  0.010333294 0.0091039952         3853 
 1566000   0.63061564   -9.0900041    194.33289  0.010341256 0.0090943357         3814 
 1567000   0.63707759   -9.0811033    194.71221  0.010354829 0.0090846954         3812 
 1568000   0.62922141   -9.0987009    194.75644  0.010350576 0.0090750588         3827 
 1569000   0.62883837   -9.0926727    194.35081  0.010322435 0.0090654286         3857 
 1570000   0.62960884   -9.0777219    194.34969  0.010315801 0.0090558208         3828 
 1571000    0.6280602   -9.0845438    194.58869  0.010321912 0.0090462176         3861 
 1572000   0.62626352   -9.0740043    194.40381  0.010305545 0.0090366347         3860 
 1573000   0.62116725   -9.1040841    194.41758  0.010299723 0.0090270604         3861 
 1574000    0.6297433   -9.0924115    194.37798  0.010291083 0.0090175052         3867 
 1575000   0.63100741   -9.0785578    194.25801  0.010278202 0.0090079658         3830 
 1576000   0.62679457    -9.105741     194.0933  0.010262971 0.0089984416         3851 
 1577000   0.62839409   -9.0941728    194.17171  0.010260606 0.0089889328         3846 
 1578000   0.62299138   -9.0906588    194.68331  0.010281121 0.0089794421         3832 
 1579000   0.61987922   -9.1043753    194.60797  0.010270634 0.0089699535         3848 
 1580000   0.62061341   -9.1230868    194.14317  0.010239619 0.0089604667         3860 
 1581000   0.61858987   -9.1034021    194.12978  0.010232436 0.0089509963         3859 
 1582000   0.61591495   -9.0855565    194.52778  0.010246933 0.0089415378         3855 
 1583000   0.61543429   -9.1175331    194.42858  0.010235238 0.0089320939         3859 
 1584000    0.6206676   -9.1214933    193.89728  0.010200825 0.0089226647         3879 
 1585000   0.61304742   -9.0941563    194.07898  0.010203942 0.0089132619         3839 
 1586000    0.6187947   -9.0976229    194.22729  0.010205301 0.0089038587         3865 
 1587000   0.62481525   -9.1126882     194.3975  0.010207808 0.0088944644         3849 
 1588000   0.62132931   -9.1070822    194.49205  0.010206342  0.008885087         3840 
 1589000   0.62562098   -9.1002817    194.58637  0.010204865  0.008875719         3859 
 1590000   0.61310259   -9.0924137    194.51287  0.010194595 0.0088663668         3870 
 1591000   0.62498037   -9.1204732    194.21765  0.010172724 0.0088570333         3849 
 1592000   0.61706817   -9.1056361     194.1748  0.010164091 0.0088477132         3878 
 1593000   0.61635628   -9.1093906     194.3951  0.010169235 0.0088384035         3851 
 1594000   0.61975397   -9.1216863    194.29795  0.010157776 0.0088291004         3873 
 1595000   0.62105353    -9.075933    194.26577  0.010149727 0.0088198235         3840 
 1596000   0.62585663   -9.1262804    194.06394  0.010132829 0.0088105513         3848 
 1597000   0.60539362    -9.093926    193.97375  0.010121778 0.0088013028         3852 
 1598000   0.61927361   -9.1242988    194.09654  0.010121847 0.0087920561         3877 
 1599000   0.61467555   -9.1134395    193.79139  0.010099614 0.0087828319         3867 
 1600000   0.61794104   -9.0968656    193.97162  0.010102689 0.0087736191         3858 
 1601000   0.61691755   -9.1081444    194.07656  0.010101841 0.0087644136         3854 
 1602000   0.61263156   -9.1312065    194.30268  0.010107297 0.0087552227         3856 
 1603000   0.61195567   -9.1078785    194.42008  0.010107095 0.0087460395         3870 
 1604000   0.61802232   -9.1301747    194.30518  0.010094824 0.0087368699         3840 
 1605000   0.61046955   -9.1272508    194.13114  0.010079498 0.0087277157         3849 
 1606000   0.61610846    -9.128777    193.66533  0.010049052  0.008718579         3845 
 1607000   0.60726705   -9.1099485    194.06397  0.010063471 0.0087094445         3848 
 1608000   0.61800848   -9.0993016    194.29709  0.010069293 0.0087003287         3841 
 1609000   0.60966429   -9.1166737    194.08598  0.010052102 0.0086912228         3870 
 1610000   0.60097539    -9.145034    193.83392  0.010032812 0.0086821245         3851 
 1611000   0.61821216   -9.1153786    194.14824  0.010042843 0.0086730396         3841 
 1612000    0.6134357   -9.1266514    194.01057  0.010029496 0.0086639721         3870 
 1613000   0.60997938   -9.1282861    193.94654   0.01001997 0.0086549068         3861 
 1614000   0.62020664   -9.0979454     194.3069  0.010032368 0.0086458627         3851 
 1615000   0.61959431   -9.1414225    193.82008  0.010001036 0.0086368308         3858 
 1616000   0.61894456   -9.1380603    194.05185  0.010006799 0.0086278122         3883 
 1617000   0.60694556    -9.156306    194.08828  0.010002488 0.0086188002         3862 
 1618000   0.60449048   -9.1376367    194.39755  0.010012235 0.0086098082         3859 
 1619000   0.60300189   -9.1239782    194.25135 0.0099985251 0.0086008263         3875 
 1620000   0.58973871   -9.1287587    194.21071  0.009990263 0.0085918555         3859 
 1621000   0.60467204   -9.1378528    193.95471 0.0099709391 0.0085828942         3869 
 1622000   0.59758934   -9.1149036    193.98824 0.0099665147 0.0085739485         3846 
 1623000   0.60259206    -9.130369    194.17465  0.009969945 0.0085650219         3855 
 1624000   0.59506171    -9.122382    193.90868 0.0099501583 0.0085561009         3863 
 1625000   0.60015201   -9.1253718    193.90566 0.0099438798 0.0085471924         3880 
 1626000   0.60728744   -9.1517838    194.02801 0.0099440352 0.0085382979         3863 
 1627000   0.60375017   -9.1274375    193.90404 0.0099315733 0.0085294173         3861 
 1628000   0.59161685   -9.1077873    193.96289 0.0099284854 0.0085205453         3860 
 1629000   0.61023565    -9.150314    194.14473  0.009931693 0.0085116937         3874 
 1630000   0.60182815   -9.1634158     194.1615 0.0099264573 0.0085028515         3871 
 1631000   0.60937011   -9.1211256    194.13261 0.0099188949 0.0084940162         3867 
 1632000   0.60041512   -9.1616184    194.15527 0.0099139741 0.0084851986         3871 
 1633000   0.61324822   -9.1392791    194.05001 0.0099025316 0.0084763846         3885 
 1634000   0.59518224   -9.1393554    193.85388 0.0098864688 0.0084675899         3906 
 1635000   0.58078147   -9.1407277    194.29945 0.0099031321 0.0084588002         3873 
 1636000   0.59717666   -9.1534473    193.90304 0.0098768869 0.0084500169         3890 
 1637000   0.60079228   -9.1235532    193.67766 0.0098593798 0.0084412467         3878 
 1638000   0.59611587   -9.1560578    193.88132 0.0098637221 0.0084324932         3895 
 1639000   0.59987259   -9.1333388    193.49732 0.0098381799 0.0084237537         3867 
 1640000   0.60036909   -9.1363676    194.01661 0.0098585677 0.0084150224         3852 
 1641000    0.5933873   -9.1205033    193.97865 0.0098506324 0.0084062972         3883 
 1642000   0.60434172    -9.153987    193.62194 0.0098265296 0.0083975878         3880 
 1643000   0.60660423   -9.1299638    193.73486 0.0098262763 0.0083888948         3871 
 1644000   0.58774345   -9.1348652    193.84647 0.0098259567 0.0083802154         3845 
 1645000   0.60088231   -9.1442983    194.01246 0.0098283923 0.0083715438         3883 
 1646000   0.59557038   -9.1499093     194.0138  0.009822489 0.0083628813         3879 
 1647000   0.58665419   -9.1648177      193.872 0.0098093505 0.0083542297         3869 
 1648000   0.60225855   -9.1396945    193.91417 0.0098055302 0.0083455941         3873 
 1649000   0.58603464   -9.1339757    193.60797   0.00978411 0.0083369689         3855 
 1650000   0.60123258   -9.1447413     193.5388 0.0097746868 0.0083283573         3839 
 1651000   0.59947182   -9.1394928    194.04996 0.0097945668 0.0083197621         3882 
 1652000    0.6029172   -9.1509852    194.03529  0.009787898 0.0083111734         3889 
 1653000   0.59142849    -9.130553    193.98482 0.0097794325 0.0083026021         3851 
 1654000   0.59630757   -9.1514292     193.8962 0.0097690549 0.0082940397         3865 
 1655000   0.60637151   -9.1603185    193.71882 0.0097542205 0.0082854878         3864 
 1656000   0.59794064   -9.1498482     194.2321 0.0097741596 0.0082769526         3870 
 1657000   0.59602212   -9.1628003    193.86984 0.0097500423 0.0082684262         3858 
 1658000   0.59799122   -9.1617876    193.63353 0.0097322845 0.0082599104         3881 
 1659000   0.58805315   -9.1597045     193.9347 0.0097415464 0.0082514041         3866 
 1660000   0.58334942   -9.1444948    193.76035 0.0097269252  0.008242912         3870 
 1661000   0.58927052   -9.1657248    193.71961 0.0097190254 0.0082344315         3872 
 1662000   0.58169011   -9.1532155    193.91819 0.0097231343 0.0082259589         3866 
 1663000   0.59624198   -9.1647933     193.8582 0.0097142813 0.0082174981         3873 
 1664000   0.58941893   -9.1822577    193.83591 0.0097073271 0.0082090496         3883 
 1665000   0.59451158   -9.1454615    193.91819 0.0097056149 0.0082006062         3876 
 1666000   0.58309297   -9.1525979    193.60549 0.0096841479 0.0081921855         3842 
 1667000   0.59856315   -9.1706666    193.42105 0.0096691186  0.008183756         3875 
 1668000   0.60319876   -9.1538743    193.64128 0.0096743244 0.0081753601         3886 
 1669000    0.5712907   -9.1607924    193.61237 0.0096670844 0.0081669698         3861 
 1670000   0.57985199   -9.1413464    193.61057 0.0096612062 0.0081585974         3862 
 1671000   0.57678121    -9.175571    193.77041 0.0096633957 0.0081502281         3865 
 1672000   0.57991477   -9.1797368    193.81971 0.0096600731  0.008141871         3874 
 1673000   0.57564074    -9.165957    193.59153 0.0096429333 0.0081335205         3862 
 1674000   0.58114378   -9.1573507    193.91127 0.0096530901 0.0081251792         3862 
 1675000   0.58853712   -9.1674103    193.57047 0.0096303715 0.0081168542         3875 
 1676000   0.58081622    -9.152776    193.95116 0.0096435542 0.0081085428         3872 
 1677000   0.60132373   -9.1594774    193.82055 0.0096313134 0.0081002448         3885 
 1678000   0.59263001   -9.1551142    193.64104 0.0096166588 0.0080919616         3884 
 1679000   0.58067936   -9.1586142    193.42262 0.0096000905 0.0080836899         3874 
 1680000   0.59316009   -9.1559927    193.66803  0.009606549 0.0080754264         3893 
 1681000   0.58108968   -9.1679336    193.62662 0.0095987813 0.0080671707         3863 
 1682000   0.58318815   -9.1601446    194.04077 0.0096135934 0.0080589233         3862 
 1683000   0.58262768   -9.1688886    193.46071 0.0095791598 0.0080506778         3853 
 1684000   0.58806241   -9.1594207    193.64264 0.0095824742 0.0080424504         3883 
 1685000   0.58412716   -9.1685294    193.66492 0.0095778891 0.0080342435         3864 
 1686000   0.57172276   -9.1581787    193.58427 0.0095682223 0.0080260499         3893 
 1687000   0.57481861   -9.1764739    194.03876  0.009585001 0.0080178578         3872 
 1688000   0.57879556   -9.1619226    193.51296  0.009553365 0.0080096735         3896 
 1689000   0.58639558   -9.1731852    193.89237 0.0095664283 0.0080015063         3869 
 1690000    0.5793793    -9.173052    193.54551 0.0095436642 0.0079933501         3887 
 1691000    0.5774959   -9.1831866    193.68362 0.0095448267 0.0079852036         3863 
 1692000   0.57537185   -9.1790732    193.53466  0.009531849 0.0079770724         3885 
 1693000   0.56329922   -9.1733194    193.91213 0.0095447985 0.0079689493         3863 
 1694000   0.57922399   -9.1883887    193.54748  0.009521226 0.0079608361         3876 
 1695000   0.59085475   -9.1905042    193.64539 0.0095204224 0.0079527353         3885 
 1696000   0.57714705   -9.1614449    193.93947 0.0095292584 0.0079446444         3881 
 1697000   0.56276596   -9.1736173    193.65846 0.0095098437 0.0079365628         3881 
 1698000   0.57215493   -9.1728403     193.4011 0.0094916128 0.0079284911         3874 
 1699000   0.57067747   -9.1712277    193.54462 0.0094930653 0.0079204368         3873 
 1700000   0.57837443   -9.1886085    193.30465 0.0094757184  0.007912389         3857 
 1701000   0.57497697   -9.1888877     193.6136 0.0094852832 0.0079043477         3869 
 1702000    0.5709148   -9.1801037    193.41668 0.0094700688 0.0078963158         3878 
 1703000   0.57413256    -9.189436    193.49351 0.0094682673 0.0078882978         3863 
 1704000   0.56318344   -9.2019304    193.32551 0.0094544946 0.0078802946         3877 
 1705000   0.56151277   -9.1951001    193.53533 0.0094592049  0.007872304         3869 
 1706000   0.56441505   -9.1845591    193.38892 0.0094465086 0.0078643218         3867 
 1707000   0.57565865   -9.1652091    193.71155 0.0094567246 0.0078563554         3887 
 1708000   0.57284443   -9.1846134     193.6666 0.0094489949 0.0078483961         3886 
 1709000   0.56625683   -9.1609981    193.64219 0.0094422755 0.0078404448         3878 
 1710000   0.57042013   -9.1819749    193.58644 0.0094340372 0.0078325043         3876 
 1711000   0.56706864   -9.1812984    193.40116 0.0094194991 0.0078245818         3879 
 1712000   0.58180266    -9.185227    193.48655 0.0094181536 0.0078166685         3869 
 1713000   0.57612709   -9.1899199    193.48872 0.0094127613 0.0078087664         3896 
 1714000   0.56742591   -9.1775955    193.88946 0.0094267532 0.0078008711         3855 
 1715000   0.56098762   -9.1796864    193.64175 0.0094092199 0.0077929898         3878 
 1716000   0.56440861   -9.1906337    193.47014  0.009395403 0.0077851137         3887 
 1717000   0.56866055   -9.1899114    193.67211 0.0093997337 0.0077772463         3899 
 1718000   0.56372608   -9.1803448    193.51876 0.0093868237 0.0077693958         3883 
 1719000   0.56903032   -9.1997124     193.7092 0.0093905953 0.0077615569         3882 
 1720000   0.56293022   -9.1842347    193.37112 0.0093687559 0.0077537316         3865 
 1721000   0.57842767   -9.2088021    193.64551 0.0093765983 0.0077459145         3871 
 1722000   0.55636966   -9.1825228    193.25955 0.0093524751 0.0077381082         3889 
 1723000   0.57550343   -9.1760171     193.2093 0.0093446172 0.0077303097         3876 
 1724000   0.57140856   -9.1842977    193.12307 0.0093350287 0.0077225262         3879 
 1725000   0.57240532   -9.2092881    193.36474  0.009341292 0.0077147427         3861 
 1726000   0.57831333   -9.1773544    193.41691 0.0093383987 0.0077069776         3860 
 1727000   0.56893509    -9.205592    193.28324 0.0093265414 0.0076992272         3908 
 1728000   0.56837363   -9.1904078    193.68555 0.0093405452 0.0076914819         3866 
 1729000   0.57548694   -9.1762709    193.32553 0.0093177912 0.0076837377         3876 
 1730000   0.56647572   -9.2037035    193.48708 0.0093201867 0.0076760116         3881 
 1731000     0.568454   -9.1951939    193.41301 0.0093112365 0.0076682941         3899 
 1732000   0.56627431   -9.1841658    193.04181 0.0092880008 0.0076605837         3879 
 1733000   0.55369553   -9.2031527    193.15885 0.0092882695 0.0076528888         3853 
 1734000   0.57626703    -9.192849    193.53819 0.0093011431 0.0076452086         3893 
 1735000   0.56001181   -9.2224487    193.16503 0.0092778593 0.0076375343         3868 
 1736000   0.54857039   -9.2178399    193.08151 0.0092685057 0.0076298681         3909 
 1737000   0.56180195   -9.1972549    193.17292 0.0092675552 0.0076222108         3878 
 1738000   0.55432476   -9.1981038    193.27561 0.0092671467 0.0076145662         3886 
 1739000   0.55122241   -9.2108561    193.26762 0.0092614346 0.0076069303         3902 
 1740000   0.56576533   -9.2088364     193.2329  0.009254449 0.0075993171         3886 
 1741000   0.56730221   -9.1873202    193.24066 0.0092495051  0.007591701         3881 
 1742000   0.56847442    -9.210656    193.25888 0.0092450669 0.0075840964         3917 
 1743000   0.55568997   -9.2113398    193.19386 0.0092366544 0.0075765034         3856 
 1744000   0.55927703    -9.206359    193.60403 0.0092509572 0.0075689217         3889 
 1745000   0.55377802   -9.1924734    193.36654 0.0092343142 0.0075613469         3893 
 1746000   0.55448244   -9.2060271    193.36962 0.0092291722 0.0075537801         3890 
 1747000   0.53933198   -9.1902599    193.40859 0.0092257483 0.0075462315         3855 
 1748000   0.56247053   -9.1953524     193.9848 0.0092479403  0.007538688         3878 
 1749000   0.55495574   -9.2086242    193.52977 0.0092209723 0.0075311563         3867 
 1750000   0.56141328   -9.2093502    193.53326 0.0092158694 0.0075236376         3897 
 1751000   0.54823256   -9.2194935    193.05228 0.0091877154 0.0075161258         3866 
 1752000   0.54757944   -9.2070281    193.58693 0.0092079021  0.007508627         3878 
 1753000   0.56306169   -9.2224468    193.30228 0.0091891178 0.0075011369         3880 
 1754000   0.55352936   -9.2102643    193.02235 0.0091705793 0.0074936607         3872 
 1755000   0.55257521   -9.2177615    193.21441 0.0091744736 0.0074861919         3887 
 1756000   0.55418473   -9.2080196    193.44019 0.0091799635 0.0074787282         3877 
 1757000   0.54109772    -9.222777    193.30857 0.0091684962 0.0074712751         3899 
 1758000   0.55352183   -9.2256094    193.20462 0.0091583532 0.0074638292         3901 
 1759000   0.54380799   -9.2049671    193.42994 0.0091638214 0.0074563966         3890 
 1760000   0.55537007   -9.2099149    193.12909 0.0091443697  0.007448977         3871 
 1761000   0.55278019   -9.2264309    193.09604 0.0091376132  0.007441567         3878 
 1762000   0.55648425   -9.2144968    193.42725 0.0091480915 0.0074341657         3882 
 1763000    0.5459768   -9.2152377    193.43936 0.0091434754 0.0074267732         3875 
 1764000   0.55958349   -9.2137597    193.36756 0.0091348999 0.0074193867         3884 
 1765000   0.55134999   -9.2102762    193.17988 0.0091208633 0.0074120125         3875 
 1766000   0.54703723   -9.2280191    192.90243 0.0091026062 0.0074046507         3855 
 1767000   0.54193125   -9.2171622    193.03663 0.0091037837 0.0073973023         3871 
 1768000   0.55556254   -9.2086148    193.20708 0.0091066685 0.0073899646         3867 
 1769000   0.54018624   -9.2175693    193.18589 0.0091005226 0.0073826306         3878 
 1770000   0.54473551   -9.2190167    193.20178 0.0090961291 0.0073753087         3874 
 1771000   0.54221507    -9.204402    193.06159 0.0090843963 0.0073679975         3894 
 1772000   0.53786956   -9.2308998    193.24899 0.0090880827 0.0073606908         3887 
 1773000   0.56229889   -9.2204613    192.99274 0.0090709129 0.0073533932         3884 
 1774000   0.54392686   -9.2001355    193.16924 0.0090740905 0.0073461083         3890 
 1775000   0.54774855   -9.2211538    192.91078  0.009056844 0.0073388378         3878 
 1776000   0.53572885   -9.2220218    192.82829 0.0090478738 0.0073315747         3897 
 1777000   0.54107416   -9.1990055    192.89406 0.0090458668 0.0073243168         3875 
 1778000   0.54765158   -9.2231375      193.166 0.0090535243 0.0073170681         3875 
 1779000   0.53851114   -9.2233338    193.13358 0.0090469169 0.0073098336         3881 
 1780000   0.54417862   -9.2322863     193.4618 0.0090572002 0.0073026048         3880 
 1781000   0.54622572   -9.2314993    193.07237 0.0090338935 0.0072953826         3877 
 1782000   0.53394364   -9.2279114    193.00827 0.0090258263 0.0072881755         3885 
 1783000   0.53344146   -9.2308015     192.8552 0.0090136101 0.0072809795         3865 
 1784000   0.54980669   -9.2335041     193.1999 0.0090246588 0.0072737932         3838 
 1785000    0.5508161   -9.2208259     193.2931 0.0090239543 0.0072666134         3883 
 1786000   0.53579838   -9.2311455    193.22252 0.0090156082 0.0072594454         3879 
 1787000   0.54976922   -9.2384083    193.26878 0.0090127204 0.0072522864         3883 
 1788000   0.53459366   -9.2266667     193.0957 0.0089996131 0.0072451374         3889 
 1789000   0.53125959   -9.2405474    193.02416 0.0089912503 0.0072379962         3860 
 1790000   0.53914625    -9.222747    193.31893 0.0089999504 0.0072308635         3882 
 1791000   0.54350459   -9.2355483    193.08899 0.0089842264  0.007223743         3873 
 1792000   0.53801952   -9.2378435    193.11846 0.0089805831 0.0072166309         3888 
 1793000   0.54732527   -9.2249086    193.02394 0.0089711813 0.0072095331         3872 
 1794000   0.53607592   -9.2458061    193.22568  0.008975552 0.0072024446         3891 
 1795000   0.52811444   -9.2376608    193.09497 0.0089644834  0.007195358         3899 
 1796000   0.53510405   -9.2304875    193.16065 0.0089625392 0.0071882853         3873 
 1797000   0.53549451   -9.2226164    193.05869 0.0089528238 0.0071812198         3883 
 1798000   0.53442282   -9.2392221    193.37148 0.0089623415 0.0071741655         3868 
 1799000   0.53813496   -9.2296858    193.20366 0.0089495857  0.007167119         3890 
 1800000   0.53293344   -9.2244507    193.02421 0.0089363059 0.0071600836         3885 
 1801000   0.53831883   -9.2301027    192.92058 0.0089265489  0.007153059         3866 
 1802000   0.52680814    -9.227957    192.95853 0.0089233506 0.0071460353         3885 
 1803000   0.52374816   -9.2453744    193.13321 0.0089264749 0.0071390241         3903 
 1804000   0.53338891   -9.2401637    192.80674 0.0089064458 0.0071320227         3877 
 1805000   0.54388101    -9.225511    193.04682 0.0089125956 0.0071250293         3861 
 1806000   0.53411792   -9.2328982    192.75752 0.0088943113 0.0071180488         3897 
 1807000   0.52685223   -9.2596097    192.81656 0.0088921122 0.0071110747         3879 
 1808000   0.53568465   -9.2429893    192.85878 0.0088891401 0.0071041087         3870 
 1809000   0.53012437   -9.2496732    192.96044 0.0088889093 0.0070971541         3897 
 1810000   0.53472917   -9.2305777    193.04727 0.0088879957 0.0070902074         3874 
 1811000   0.53347609   -9.2362376    192.96033 0.0088790874 0.0070832649         3868 
 1812000   0.53878317   -9.2506186    192.74304 0.0088641943  0.007076336         3896 
 1813000   0.51794234   -9.2577029     192.9258 0.0088677053 0.0070694141         3904 
 1814000   0.52004897   -9.2544452    192.83908 0.0088588333 0.0070624991         3889 
 1815000   0.51842383   -9.2394986    192.94116  0.008858639 0.0070555934         3857 
 1816000   0.53492175   -9.2585861    192.64755 0.0088402875 0.0070486953         3894 
 1817000   0.52301213   -9.2478077    192.82772 0.0088436854 0.0070418202         3883 
 1818000   0.51504567   -9.2563539     192.8874 0.0088415568 0.0070349423         3898 
 1819000   0.51727162   -9.2559764    192.97763 0.0088408299 0.0070280724         3885 
 1820000   0.53649023   -9.2439546    192.81672 0.0088286042 0.0070212165         3902 
 1821000   0.52371159   -9.2614733    192.96919 0.0088307336 0.0070143755         3891 
 1822000   0.51878327   -9.2584063    192.79552 0.0088179437  0.007007535         3876 
 1823000   0.52228698    -9.266176    192.84961 0.0088155793 0.0070007023         3872 
 1824000   0.52849006   -9.2743528    192.84976 0.0088107531 0.0069938789         3882 
 1825000   0.51987069   -9.2620438    193.00656 0.0088130851 0.0069870643         3881 
 1826000    0.5202642   -9.2583886    192.72988 0.0087956317 0.0069802594         3912 
 1827000   0.53114442    -9.271585    192.78455 0.0087933111 0.0069734613         3888 
 1828000   0.51957195   -9.2671062    192.88065 0.0087928814 0.0069666799         3874 
 1829000   0.52949679   -9.2371727    193.01848  0.008794354 0.0069599015         3858 
 1830000   0.52885766   -9.2653836    192.76952 0.0087782115 0.0069531295         3872 
 1831000   0.51913348   -9.2460043    192.69715 0.0087701235  0.006946366         3900 
 1832000   0.51593805   -9.2690545    192.90314  0.008774706 0.0069396091         3894 
 1833000   0.52166836   -9.2489043    192.55646 0.0087541581 0.0069328625         3892 
 1834000    0.5188519   -9.2694375    192.37244 0.0087410233 0.0069261248         3874 
 1835000   0.52521361    -9.259545    192.73573 0.0087527579 0.0069193969         3884 
 1836000    0.5176577   -9.2714209    192.75205 0.0087487316 0.0069126819         3876 
 1837000   0.52069836   -9.2687007    193.21208 0.0087648376 0.0069059653         3911 
 1838000   0.51801838   -9.2569589       192.64 0.0087341313 0.0068992623         3889 
 1839000   0.51461633   -9.2626216    192.72462 0.0087332163  0.006892565         3905 
 1840000    0.5207244   -9.2734929    192.95815 0.0087390464 0.0068858866         3896 
 1841000   0.52302068   -9.2859924    192.59013 0.0087176411 0.0068792146         3866 
 1842000   0.51541169   -9.2623038    192.45086 0.0087066076 0.0068725489         3884 
 1843000   0.52526851   -9.2469085    193.32941 0.0087416082 0.0068659003         3884 
 1844000   0.52250101   -9.2771341    192.73445 0.0087099806 0.0068592514         3894 
 1845000   0.51993018   -9.2799648    192.73767  0.008705405 0.0068526158         3864 
 1846000   0.51562714   -9.2643655    192.93113 0.0087094225 0.0068459831         3905 
 1847000   0.51697245   -9.2636783    192.65679 0.0086923295 0.0068393636         3857 
 1848000   0.51867802   -9.2902191    192.74636 0.0086916647 0.0068327481         3894 
 1849000   0.50667365   -9.2702983    192.75297 0.0086872619 0.0068261428         3900 
 1850000   0.52328656   -9.2848831    192.45371 0.0086690863 0.0068195495         3884 
 1851000   0.51299877   -9.2540324    192.70779 0.0086758417 0.0068129657         3853 
 1852000   0.51878739   -9.2588452     192.7891 0.0086748157 0.0068063857         3887 
 1853000   0.52108568     -9.29305    192.40835  0.008653011 0.0067998176         3876 
 1854000   0.51067446   -9.2769286    192.90323 0.0086705876 0.0067932515         3889 
 1855000   0.50658924   -9.2894786    192.72313 0.0086578225 0.0067866945         3893 
 1856000   0.50656132   -9.2707556    192.82514 0.0086577381 0.0067801497         3893 
 1857000   0.51410311    -9.281289    192.87295  0.008655221 0.0067736134         3867 
 1858000   0.50785363   -9.2815352    192.82895 0.0086485896 0.0067670862         3894 
 1859000   0.50184169   -9.2741204    192.82662 0.0086438326 0.0067605641         3882 
 1860000   0.50054795   -9.2690619    192.64839 0.0086312004 0.0067540456         3904 
 1861000   0.50923302    -9.286332    192.55556 0.0086224054 0.0067475412         3885 
 1862000   0.50062298   -9.2916897    192.46758 0.0086138375 0.0067410427         3895 
 1863000   0.49892617    -9.270373    192.54942 0.0086128745 0.0067345529         3899 
 1864000   0.50987025   -9.2699451    192.59114 0.0086101187 0.0067280739         3897 
 1865000   0.51602048    -9.281579    192.27792 0.0085915069 0.0067216043         3892 
 1866000   0.50462338   -9.2747211    192.66144 0.0086040298 0.0067151465         3895 
 1867000   0.52311976   -9.2929546    192.70236 0.0086012482 0.0067086926         3903 
 1868000   0.49919569   -9.2852928    192.49488 0.0085873877  0.006702249         3888 
 1869000    0.5046506   -9.2980049    192.59889 0.0085874302 0.0066958133         3891 
 1870000   0.50513801   -9.2878517    192.33355 0.0085710139  0.006689386         3877 
 1871000   0.50676836   -9.2778264    192.23602 0.0085620891 0.0066829688         3882 
 1872000   0.51458699   -9.2684121    192.57714 0.0085727005 0.0066765611         3894 
 1873000   0.50205949   -9.3037343    192.43812 0.0085619381 0.0066701564         3876 
 1874000    0.5148818   -9.2753363     192.5817 0.0085637539 0.0066637599         3877 
 1875000   0.50280152   -9.2736786    192.78824 0.0085683661 0.0066573711         3884 
 1876000   0.51048404   -9.2741581    192.29396 0.0085418425 0.0066509925         3883 
 1877000   0.49719093   -9.2712782    192.77709 0.0085587413 0.0066446247         3897 
 1878000   0.50776329   -9.2863979    192.36098 0.0085357199 0.0066382615         3887 
 1879000   0.49621578   -9.2740231      192.236 0.0085256344 0.0066319041         3887 
 1880000   0.51034282    -9.294108    192.93931 0.0085522744 0.0066255608         3893 
 1881000   0.49517163   -9.2895217    192.56329 0.0085310689 0.0066192207         3877 
 1882000   0.50095978   -9.2892163    192.36106 0.0085175815 0.0066128912         3878 
 1883000   0.48522498    -9.303604    192.20288 0.0085060577 0.0066065655         3888 
 1884000   0.50284373   -9.2958265    192.65906 0.0085217206 0.0066002523         3896 
 1885000   0.50245294   -9.2835092    192.83335 0.0085249051 0.0065939493         3904 
 1886000   0.49178537   -9.2865564    192.47742 0.0085046582 0.0065876516         3887 
 1887000   0.50142084   -9.2952631    192.48308 0.0085004009 0.0065813649         3885 
 1888000   0.50361697   -9.3033812    192.41825  0.008493037 0.0065750841         3878 
 1889000     0.493724   -9.2990365    192.54387 0.0084940828  0.006568814         3905 
 1890000   0.50247236   -9.3049568    192.14696 0.0084720883 0.0065625492         3890 
 1891000   0.50227803   -9.2989666    192.27285 0.0084731557 0.0065562946         3886 
 1892000   0.48736105   -9.3012567    192.46959 0.0084773428  0.006550042         3900 
 1893000   0.50094149    -9.309201    192.73604  0.008484594 0.0065437989         3901 
 1894000   0.50283264   -9.3057823    192.56222 0.0084724666 0.0065375628         3898 
 1895000    0.4880266   -9.2976348    192.48601 0.0084646441  0.006531338         3892 
 1896000   0.49947217   -9.2934849    192.35199 0.0084542894 0.0065251231         3898 
 1897000   0.48971306   -9.2867308    192.41648 0.0084526657 0.0065189094         3895 
 1898000    0.4903995    -9.306671    192.30751 0.0084434279 0.0065127101         3895 
 1899000   0.50137342   -9.2950859    192.61086 0.0084522933 0.0065065162         3898 
 1900000   0.47987302   -9.2962226    192.41232  0.008439137 0.0065003313         3911 
 1901000   0.49722799   -9.3293482    192.05831 0.0084191788 0.0064941535         3904 
 1902000    0.4947531   -9.3043199    192.21996 0.0084218349 0.0064879839         3898 
 1903000   0.51196853   -9.2955502    192.58736 0.0084334981 0.0064818266         3912 
 1904000   0.48892831   -9.2956133    192.54148 0.0084270606 0.0064756705         3896 
 1905000    0.4924798   -9.3041877    192.17887 0.0084067748  0.006469522         3875 
 1906000   0.49302909   -9.3219149    192.35721 0.0084101615  0.006463383         3890 
 1907000   0.49304035   -9.3037951    192.29193 0.0084028984 0.0064572535         3892 
 1908000    0.5012689   -9.3107379    192.13193 0.0083915062 0.0064511317         3887 
 1909000   0.49630142   -9.3136494    192.33923   0.00839616 0.0064450208         3896 
 1910000   0.50341647   -9.3229496    192.30122 0.0083901057 0.0064389124         3907 
 1911000   0.49556609   -9.3188044    192.15335 0.0083792671 0.0064328121         3900 
 1912000   0.49401735   -9.3294536     192.2939 0.0083810104 0.0064267237         3896 
 1913000   0.49261261   -9.3076967    192.30891  0.008377283 0.0064206393         3889 
 1914000   0.48336592   -9.3102962     192.1456  0.008365796   0.00641456         3894 
 1915000   0.48859124   -9.2980108    192.38703 0.0083719335 0.0064084973         3875 
 1916000    0.4882115   -9.3057144    192.46848 0.0083711063  0.006402434         3897 
 1917000   0.48373334   -9.3104871    192.35904 0.0083619823 0.0063963787         3894 
 1918000   0.48216756   -9.3045937    192.23536  0.008352249 0.0063903333         3898 
 1919000   0.48735173   -9.3046355    192.28997 0.0083502678 0.0063842939         3904 
 1920000   0.49060739   -9.3092901    192.53339 0.0083564839 0.0063782597         3900 
 1921000    0.4952546   -9.3293312    192.31912 0.0083428388 0.0063722333         3900 
 1922000   0.48168055   -9.3037811    192.21203 0.0083338547 0.0063662178         3894 
 1923000   0.48649031   -9.3159352    192.30911 0.0083337283 0.0063602099         3893 
 1924000   0.49232706   -9.3201697    192.31733 0.0083297525 0.0063542119         3892 
 1925000   0.47728817   -9.2987952    192.25819 0.0083228655 0.0063482178         3878 
 1926000     0.489813   -9.2928883    192.36877 0.0083233287 0.0063422304         3877 
 1927000   0.48685487   -9.3265463    192.34427 0.0083179496 0.0063362536         3890 
 1928000     0.477913   -9.3219874    192.21949 0.0083082421 0.0063302866         3901 
 1929000   0.48126477   -9.3182908    191.90325 0.0082902733 0.0063243231         3888 
 1930000   0.47955139   -9.3180371    192.15644 0.0082969102 0.0063183693         3912 
 1931000   0.48650073    -9.336983    192.00391  0.008286031 0.0063124225         3893 
 1932000   0.48936858    -9.307526    192.37673 0.0082978232 0.0063064826         3894 
 1933000   0.46922952   -9.3177849    191.92873 0.0082742166 0.0063005501         3919 
 1934000    0.4843541   -9.3215473    192.30091 0.0082859753 0.0062946244         3914 
 1935000   0.47639082   -9.3220191    192.50342 0.0082904144 0.0062887094         3896 
 1936000   0.48160891   -9.3308704    192.21338 0.0082736477 0.0062827995         3891 
 1937000    0.4871416   -9.3166332    192.15352 0.0082668009 0.0062769005         3905 
 1938000   0.47154134   -9.3172532    191.97612 0.0082549073 0.0062710047         3890 
 1939000   0.47518346   -9.3268154    192.08223 0.0082552103 0.0062651168         3898 
 1940000   0.48095314   -9.3283063    192.34731 0.0082623414 0.0062592394         3882 
 1941000   0.48794489   -9.3199773    191.87603 0.0082378514 0.0062533621         3898 
 1942000   0.48240825   -9.3130238    192.39108 0.0082557106 0.0062475003         3912 
 1943000   0.47241907   -9.3220359    192.56139  0.008258766 0.0062416437         3909 
 1944000   0.48172515   -9.3089804    192.12991 0.0082360215 0.0062357917         3900 
 1945000   0.47949504   -9.3373691    192.14694 0.0082325165 0.0062299486         3892 
 1946000   0.46996524   -9.3380671    192.16544 0.0082290786 0.0062241089         3887 
 1947000   0.48526384   -9.3292255     191.9981 0.0082176895 0.0062182748         3894 
 1948000   0.46717398   -9.3285525    191.97533 0.0082124969 0.0062124548         3901 
 1949000   0.47607698    -9.333926    192.17532 0.0082168344 0.0062066412         3899 
 1950000   0.47466393   -9.3386015    192.03086 0.0082064472 0.0062008361         3910 
 1951000   0.47249252   -9.3464345    191.98156 0.0082001351 0.0061950367         3899 
 1952000   0.46474627     -9.32559    191.95552 0.0081948223 0.0061892437         3899 
 1953000   0.47149236   -9.3446253    191.91828 0.0081890375 0.0061834584         3910 
 1954000   0.47476795   -9.3271818    192.20613 0.0081971224 0.0061776761         3901 
 1955000   0.46361596   -9.3454125    191.98415 0.0081834676 0.0061719047         3881 
 1956000    0.4594094   -9.3256127    192.31749 0.0081934854 0.0061661405         3903 
 1957000   0.46812817    -9.344917    192.29073 0.0081881594 0.0061603842         3878 
 1958000   0.48087475   -9.3379385    192.22844 0.0081813264 0.0061546396         3894 
 1959000   0.47842196   -9.3430172    191.95093 0.0081653448 0.0061489004         3897 
 1960000   0.47693768   -9.3336676    191.81783 0.0081555199 0.0061431659         3899 
 1961000    0.4640882   -9.3338034    192.02413 0.0081601277 0.0061374401         3892 
 1962000    0.4719729   -9.3253135    191.85192 0.0081486546 0.0061317207         3886 
 1963000   0.46077448   -9.3193983    192.21232 0.0081598031 0.0061260108         3904 
 1964000    0.4671757   -9.3276232    192.20678 0.0081554131 0.0061203108         3891 
 1965000   0.47014124   -9.3380549    191.99574 0.0081423128 0.0061146118         3897 
 1966000   0.47021301   -9.3453995    192.18028 0.0081459937 0.0061089213         3888 
 1967000   0.47291723   -9.3397512    192.23691 0.0081442515 0.0061032422         3882 
 1968000   0.46527691   -9.3230477    192.19234 0.0081382257 0.0060975692         3888 
 1969000   0.47355712    -9.316632    191.65939 0.0081115369 0.0060919053         3883 
 1970000   0.46399555   -9.3320646    191.79757 0.0081132645 0.0060862463         3892 
 1971000   0.47047676   -9.3430707    192.08868 0.0081214562 0.0060805906         3897 
 1972000    0.4693815   -9.3595052    191.79347 0.0081048625 0.0060749437         3902 
 1973000   0.45168226     -9.33458    191.80772 0.0081013568 0.0060693018         3897 
 1974000   0.45742622   -9.3288569    192.28325 0.0081173274 0.0060636699         3872 
 1975000   0.46497514   -9.3379182    191.76586 0.0080913864 0.0060580459         3902 
 1976000    0.4665894   -9.3448507    191.73252 0.0080858857 0.0060524275         3880 
 1977000   0.45212557   -9.3412675    191.86015 0.0080871756 0.0060468201         3907 
 1978000   0.47109342   -9.3425752    191.90268 0.0080848785 0.0060412169         3901 
 1979000   0.46637581   -9.3269613    191.77756 0.0080755248 0.0060356207         3906 
 1980000   0.46073539   -9.3401313    192.20639 0.0080894947 0.0060300337         3901 
 1981000   0.45541174   -9.3314182    191.95506 0.0080748385 0.0060244502         3926 
 1982000   0.46949943   -9.3423696    192.05446 0.0080749438 0.0060188748         3890 
 1983000   0.46194549   -9.3498733    191.97676 0.0080676063 0.0060133077         3889 
 1984000   0.45155372   -9.3470836     191.7661 0.0080546918 0.0060077434         3881 
 1985000    0.4618797   -9.3399595    191.53436 0.0080409053 0.0060021873         3892 
 1986000   0.46127405   -9.3462014    191.84601 0.0080499334 0.0059966397         3916 
 1987000   0.46306801   -9.3602492    192.01783 0.0080530882 0.0059910967         3920 
 1988000   0.46404649    -9.364199    191.59257  0.008031211   0.00598556         3901 
 1989000   0.45003028   -9.3459057    191.94504 0.0080419408 0.0059800298         3902 
 1990000    0.4661105   -9.3583916     192.0234 0.0080411808  0.005974513         3892 
 1991000   0.46000351   -9.3573188    191.89144 0.0080316189 0.0059690033         3904 
 1992000   0.45325308   -9.3471828    191.97944 0.0080312684  0.005963498         3891 
 1993000   0.44568565   -9.3661925    191.93645  0.008025441 0.0059579937         3891 
 1994000   0.45795566   -9.3629069    192.00583 0.0080243157  0.005952498         3908 
 1995000   0.45676981    -9.353969    191.99286 0.0080197517 0.0059470083         3893 
 1996000   0.46306957   -9.3555089    191.56744 0.0079979725 0.0059415274         3907 
 1997000   0.45695443   -9.3576244    191.69129 0.0079991359 0.0059360542         3884 
 1998000   0.44616952   -9.3596013     192.2832 0.0080198198 0.0059305888         3902 
 1999000   0.46005066   -9.3558144    191.87802 0.0079989169 0.0059251264         3901 
 2000000   0.46048616   -9.3599585    191.81679 0.0079923664  0.005919675         3918 
 2001000   0.46112072   -9.3675037    191.81542  0.007988315 0.0059142281         3871 
 2002000   0.45586384   -9.3509552    191.47838 0.0079702953 0.0059087902         3889 
 2003000   0.45221478   -9.3657038    191.88506 0.0079832359 0.0059033548         3888 
 2004000   0.45944614   -9.3726902    191.99343 0.0079837588 0.0058979317         3907 
 2005000   0.45440386   -9.3653383     191.7511 0.0079697047 0.0058925152         3881 
 2006000    0.4581611   -9.3618898    191.70922 0.0079639921 0.0058871032         3901 
 2007000    0.4493339   -9.3486953    191.93216 0.0079692808 0.0058816996         3879 
 2008000   0.44916457   -9.3654478    192.00335 0.0079682664 0.0058763008         3909 
 2009000   0.45669733   -9.3518539    191.65035 0.0079496579 0.0058709104         3894 
 2010000   0.45120576   -9.3713829    191.89777 0.0079559608  0.005865523         3902 
 2011000   0.45696114   -9.3772666    191.81951 0.0079487615 0.0058601421         3908 
 2012000    0.4471212   -9.3597869    191.59035 0.0079353195 0.0058547688         3908 
Loop time of 5260.43 on 48 procs for 2000000 steps with 4000 atoms

Performance: 65698.082 tau/day, 380.197 timesteps/s
99.4% CPU use with 48 MPI tasks x no OpenMP threads

MPI task timing breakdown:
Section |  min time  |  avg time  |  max time  |%varavg| %total
---------------------------------------------------------------
Pair    | 400.11     | 431.96     | 471.88     |  88.9 |  8.21
Neigh   | 37.455     | 38.709     | 40.704     |  13.1 |  0.74
Comm    | 324.51     | 372.96     | 407.57     | 101.9 |  7.09
Output  | 5.7889     | 5.791      | 5.8351     |   0.3 |  0.11
Modify  | 4341.7     | 4360.4     | 4381.6     |  17.0 | 82.89
Other   |            | 50.58      |            |       |  0.96

Nlocal:        83.3333 ave          89 max          77 min
Histogram: 4 2 6 4 5 6 5 7 4 5
Nghost:        2449.21 ave        2482 max        2428 min
Histogram: 4 10 7 3 7 7 7 1 1 1
Neighs:        16980.3 ave       19901 max       15197 min
Histogram: 4 8 11 4 9 3 2 4 2 1
FullNghs:      33961.1 ave       36796 max       31136 min
Histogram: 3 5 5 6 4 3 8 6 6 2

Total # of neighbors = 1630133
Ave neighs/atom = 407.53325
Neighbor list builds = 106397
Dangerous builds = 0

#clear
#
#next RN
#
#jump SELF
Total wall time: 1:27:44
