
units lj                  # Use reduced LJ style units
atom_style atomic         # Uncharged point particles
atom_modify map hash      # Needed for indexing of clusters etc
                          # Used to be able to find where atoms are in relation to each other.

lattice fcc 1.0 spacing 1 1 1
Lattice spacing in x,y,z = 1.5874011 1.5874011 1.5874011
region box block 0 10 0 10 0 10 units lattice
create_box 2 box
Created orthogonal box = (0.0000000 0.0000000 0.0000000) to (15.874011 15.874011 15.874011)
  3 by 4 by 4 MPI processor grid
create_atoms 1 box
Created 4000 atoms
  using lattice units in orthogonal box = (0.0000000 0.0000000 0.0000000) to (15.874011 15.874011 15.874011)
  create_atoms CPU = 0.020 seconds
set type 1 type/fraction 2 0.69 78393
Setting atom values ...
  2781 settings made for type/fraction
mass 1 1.0
mass 2 1.0
pair_style lj/cut  3.5
pair_modify tail  yes
pair_coeff 1  1  1.0  1.0   # Intearaction between 1 and 1 set with epsilon = 1 and sigma = 1
pair_coeff 1  2  1.5  0.8
pair_coeff 2  2  0.5  0.88

write_data data.0
System init for write_data ...
Neighbor list info ...
  update every 1 steps, delay 10 steps, check yes
  max neighbors/atom: 2000, page size: 100000
  master list distance cutoff = 3.8
  ghost atom cutoff = 3.8
  binsize = 1.9, bins = 9 9 9
  1 neighbor lists, perpetual/occasional/extra = 1 0 0
  (1) pair lj/cut, perpetual
      attributes: half, newton on
      pair build: half/bin/atomonly/newton
      stencil: half/bin/3d
      bin: standard
WARNING: Not all mixed pair coeffs generated from mixing. Use write_data with 'pair ij' option to store all pair coeffs. (../write_data.cpp:312)


#############################
#   M E L T   S Y S T E M   #
#############################

velocity all create 2.4 6229865 mom yes dist gaussian # Assign velocities
                                                    # Temperature 2.4, random number seed, zero linear momentum
                                                                                # Gaussian distribution

timestep 0.002   # simulation timestep
thermo 1000       # output thermodynamic data every 1000 steps bf 100

# Define a fix  in this case with index 1 applied to all
# particles in the simulation. This fix is for simulations
# in the anisotropic NPT ensemble. Note that we use the MTK
# correction.
fix 1 all npt temp 2.4 2.4 0.1 iso 5.68 5.68 0.5 mtk yes tchain 5 pchain 5 # Use NPT ensemble
                                                                         # Set temperature and pressure and damping
                                                                         # Numbers of thermostats in chain and in barostat
run 10000          # run for 10000 steps
Per MPI rank memory allocation (min/avg/max) = 3.642 | 3.644 | 3.648 Mbytes
Step Temp E_pair E_mol TotEng Press Volume 
       0          2.4    -4.227286            0  -0.62818599   -3.7882121         4000 
    1000     2.371997    -3.895372            0  -0.33826607    5.3330198    3663.1689 
    2000    2.4054973   -3.8623726            0  -0.25502864    5.7344652     3648.343 
    3000    2.3275282   -3.8799415            0  -0.38952205    5.4113304    3650.5386 
    4000    2.4317259   -3.8592234            0  -0.21254641    6.3048838    3604.6156 
    5000    2.3847881   -3.8146183            0   -0.2383305    6.0220588    3648.9594 
    6000    2.4110779   -3.8393238            0  -0.22361118    5.6965398    3654.3584 
    7000    2.3876921    -3.855315            0  -0.27467226    5.9463047     3627.459 
    8000    2.4071081   -3.9119314            0  -0.30217187    5.2965394    3657.1588 
    9000    2.4117846   -3.8904959            0  -0.27372345    5.6491682     3637.543 
   10000    2.4277593   -3.9034725            0  -0.26274408    5.8157161    3621.4712 
Loop time of 2.65939 on 48 procs for 10000 steps with 4000 atoms

Performance: 649773.670 tau/day, 3760.264 timesteps/s
99.6% CPU use with 48 MPI tasks x no OpenMP threads

MPI task timing breakdown:
Section |  min time  |  avg time  |  max time  |%varavg| %total
---------------------------------------------------------------
Pair    | 1.1779     | 1.2618     | 1.3914     |   3.0 | 47.45
Neigh   | 0.21751    | 0.22458    | 0.24262    |   0.9 |  8.44
Comm    | 0.77576    | 0.8958     | 1.0114     |   4.5 | 33.68
Output  | 0.00024631 | 0.00025146 | 0.00032738 |   0.0 |  0.01
Modify  | 0.22504    | 0.26166    | 0.31433    |   5.2 |  9.84
Other   |            | 0.01531    |            |       |  0.58

Nlocal:        83.3333 ave          89 max          74 min
Histogram: 1 0 5 1 7 4 9 7 8 6
Nghost:        1756.40 ave        1789 max        1732 min
Histogram: 4 4 7 6 7 12 1 5 1 1
Neighs:        10546.8 ave       11572 max        9153 min
Histogram: 2 1 3 5 7 5 11 3 6 5

Total # of neighbors = 506245
Ave neighs/atom = 126.56125
Neighbor list builds = 912
Dangerous builds = 231

# Equilibrate just above the melting temperature to avoid step fn in T

fix 1 all npt temp 1.25 1.25 0.1 iso 5.68 5.68 0.5 mtk yes tchain 5 pchain 5
run 2000
Per MPI rank memory allocation (min/avg/max) = 3.644 | 3.646 | 3.650 Mbytes
Step Temp E_pair E_mol TotEng Press Volume 
   10000    2.4277593   -3.9034725            0  -0.26274408    5.8157161    3621.4712 
   11000    1.2870993   -5.6495517            0   -3.7193854    5.8959798     2794.615 
   12000    1.2565308   -5.7668913            0   -3.8825663    5.5185353    2771.4182 
Loop time of 0.670355 on 48 procs for 2000 steps with 4000 atoms

Performance: 515547.990 tau/day, 2983.495 timesteps/s
99.6% CPU use with 48 MPI tasks x no OpenMP threads

MPI task timing breakdown:
Section |  min time  |  avg time  |  max time  |%varavg| %total
---------------------------------------------------------------
Pair    | 0.29933    | 0.32292    | 0.37625    |   2.5 | 48.17
Neigh   | 0.041336   | 0.043625   | 0.049986   |   0.7 |  6.51
Comm    | 0.19603    | 0.25349    | 0.27823    |   3.2 | 37.81
Output  | 6.9971e-05 | 7.1619e-05 | 8.9225e-05 |   0.0 |  0.01
Modify  | 0.04024    | 0.045309   | 0.050232   |   1.3 |  6.76
Other   |            | 0.004937   |            |       |  0.74

Nlocal:        83.3333 ave          90 max          77 min
Histogram: 2 2 6 11 7 3 8 4 2 3
Nghost:        2108.29 ave        2132 max        2085 min
Histogram: 3 3 2 6 11 5 8 7 1 2
Neighs:        13778.5 ave       15182 max       12495 min
Histogram: 3 7 0 7 8 11 4 1 5 2

Total # of neighbors = 661369
Ave neighs/atom = 165.34225
Neighbor list builds = 143
Dangerous builds = 15

#############################
# L I N E A R  Q U E N C H  #
#############################

# Define solid atoms. This closely follows ten Wolde  Ruiz-Montero and Frenkel  Faraday Discuss  1996  104  93-110
# Compute components of the per-atom q6 vector
compute q6 all orientorder/atom degrees 1 6 components 6 nnn NULL cutoff 1.3 # compute the Q6 parameter.
                                                                             # Use all neighbours within 1.3 unit cell.

# get number of connections
compute coord_number all coord/atom orientorder q6 0.5

# An atom is solid if it has 8 or more connections (of a possible 14)
variable is_solid atom c_coord_number>=8
group solid dynamic all var is_solid    # Must be dynamic to update
dynamic group solid defined

# do clustering
compute cluster solid cluster/atom 1.3 # Create a cluster where all atoms within are solid and max 1.3 units from another member

# define chunks one chunk per cluster
compute clus_chunks solid chunk/atom c_cluster nchunk every compress yes  # Says which atoms are in which chunk

# count the size of each chunk
compute size_chunks solid property/chunk clus_chunks count


# Find the maximum entry in the vector of chunk sizes
variable max_n equal max(c_size_chunks)


# Thermo style which includes this variable
# thermo_style custom step temp pe vol v_max_n

thermo ${N}  # Print the thermo information every 100 steps
thermo 1000  

# Reset the npt fix at a lower temperature (below freezing)
fix 1  all npt temp  ${temp} ${temp}  0.1  iso  5.68  5.68  0.5  mtk yes tchain  5  pchain  5
fix 1  all npt temp  0.45 ${temp}  0.1  iso  5.68  5.68  0.5  mtk yes tchain  5  pchain  5
fix 1  all npt temp  0.45 0.45  0.1  iso  5.68  5.68  0.5  mtk yes tchain  5  pchain  5

dump dmp2 all dcd ${N} traj.dcd
dump dmp2 all dcd 1000 traj.dcd


compute msd all msd com yes
variable twopoint equal c_msd[4]/6/(step*dt+1.0e-6)
fix 9 all vector 10 c_msd[4]
variable fit equal slope(f_9)/6/(10*dt)
thermo_style custom step temp pe c_msd[4] v_twopoint v_fit v_max_n

fix 1 all npt temp 1.25 ${temp} 0.1 iso 5.68 5.68 0.5 mtk yes tchain 5 pchain 5
fix 1 all npt temp 1.25 0.45 0.1 iso 5.68 5.68 0.5 mtk yes tchain 5 pchain 5
run 5000000 # 5000000  # Run for this many steps
Neighbor list info ...
  update every 1 steps, delay 10 steps, check yes
  max neighbors/atom: 2000, page size: 100000
  master list distance cutoff = 3.8
  ghost atom cutoff = 3.8
  binsize = 1.9, bins = 8 8 8
  4 neighbor lists, perpetual/occasional/extra = 1 3 0
  (1) pair lj/cut, perpetual
      attributes: half, newton on
      pair build: half/bin/atomonly/newton
      stencil: half/bin/3d
      bin: standard
  (2) compute orientorder/atom, occasional
      attributes: full, newton on
      pair build: full/bin/atomonly
      stencil: full/bin/3d
      bin: standard
  (3) compute coord/atom, occasional
      attributes: full, newton on
      pair build: full/bin/atomonly
      stencil: full/bin/3d
      bin: standard
  (4) compute cluster/atom, occasional
      attributes: full, newton on
      pair build: full/bin/atomonly
      stencil: full/bin/3d
      bin: standard
Per MPI rank memory allocation (min/avg/max) = 9.847 | 9.851 | 9.853 Mbytes
Step Temp PotEng c_msd[4] v_twopoint v_fit v_max_n 
   12000    1.2565308   -5.7668913 4.1425058e-30  2.87674e-32 8.3333333e+20            1 
   13000    1.2385294   -5.6784602    0.6241594 0.0040010216  0.051404981            2 
   14000     1.244182   -5.7268155    1.2262568 0.0072991475   0.05127483            2 
   15000    1.2414172   -5.7621789    1.8556861  0.010309367   0.05113051            2 
   16000    1.2384724   -5.7798061    2.4401474  0.012709101  0.050915773            1 
   17000    1.2598667   -5.7317742    3.1021205  0.015206472  0.051172988            2 
   18000    1.2526841   -5.7532895    3.7260558  0.017250258   0.05161673            1 
   19000    1.2339196   -5.7593528    4.3211337   0.01895234  0.051734507            2 
   20000    1.2682327   -5.7800736    4.9113149  0.020463811  0.051542185            3 
   21000    1.2277734   -5.7657794     5.436812   0.02157465  0.050968408            1 
   22000    1.2416599   -5.7651736    6.0785285  0.023024729  0.050572081            1 
   23000    1.2438161   -5.7243301    6.6508694  0.024097352   0.05040692            3 
   24000     1.253226   -5.7821521    7.2749867   0.02526037  0.050229359            2 
   25000     1.266488   -5.7557139    7.8405889  0.026135296  0.050072937            3 
   26000    1.2323262   -5.7286047    8.3686006  0.026822437  0.049960866            5 
   27000    1.2614921   -5.7698308    8.9540651  0.027636003  0.049749506            4 
   28000    1.2679244   -5.7075673    9.4518578  0.028130529  0.049590242            2 
   29000     1.260098   -5.7220632    10.006464  0.028754206  0.049308668            1 
   30000    1.2407063   -5.7750007    10.593507  0.029426408    0.0490598            2 
   31000    1.2473614   -5.7707498     11.20659  0.030125242  0.048934413            4 
   32000    1.2327522   -5.7772108    11.868077   0.03090645  0.048883252            3 
   33000    1.2641437   -5.7671047    12.427084  0.031381524  0.048881295            1 
   34000    1.2641268   -5.7307346    13.058144  0.032005254  0.048906651            2 
   35000     1.247471   -5.7334085    13.695366  0.032608014  0.048966745            7 
   36000    1.2681889   -5.7757189    14.303498  0.033109949  0.049022532            3 
   37000    1.2465302   -5.7956862    14.785881  0.033301534  0.049014422            3 
   38000    1.2529466   -5.7376224    15.281589  0.033512257  0.048949655            3 
   39000    1.2455698   -5.7369994    15.891983  0.033957227  0.048894007            2 
   40000    1.2317352   -5.7026399    16.438052   0.03424594  0.048821791            1 
   41000     1.265554   -5.8053525    17.088454   0.03473263  0.048773184            4 
   42000    1.2620114   -5.7442049    17.743897  0.035206145  0.048774969            5 
   43000    1.2451459   -5.7523815    18.270104  0.035407178  0.048774325            3 
   44000    1.2589169   -5.8019962      18.6994   0.03541553  0.048734117            2 
   45000    1.2414142   -5.8117716    19.116058  0.035400107  0.048644821            2 
   46000    1.2511801   -5.7551474    19.810989  0.035889472  0.048537367            2 
   47000    1.2595955   -5.7852962    20.381026  0.036136571  0.048458514            2 
   48000    1.2356695   -5.7364127    21.010025  0.036475738  0.048400321            2 
   49000    1.2096154   -5.7504307    21.546148  0.036643108  0.048332717            5 
   50000    1.2349544    -5.725367    22.231039  0.037051731  0.048320872            3 
   51000    1.2355625   -5.7338117    22.788866  0.037236709  0.048289779            2 
   52000    1.2431848   -5.7624109    23.262819  0.037280159  0.048263873            4 
   53000    1.2594177   -5.7552235    23.808567  0.037434853  0.048202738            3 
   54000    1.2600975   -5.7489504    24.325818  0.037539843  0.048145944            2 
   55000    1.2439266   -5.7655063    24.743069  0.037489499  0.048084556            2 
   56000    1.2697361   -5.7922531    25.441734  0.037859723  0.048041757            2 
   57000    1.2441824   -5.7624673    26.030001  0.038055557  0.048013589            2 
   58000    1.2429555   -5.7787802    26.506739  0.038084395  0.047955079            4 
   59000    1.2606512   -5.6900366    27.252188   0.03849179  0.047911975            2 
   60000    1.2306881   -5.7500793    27.694298  0.038464302  0.047863212            2 
   61000    1.2419418   -5.7459999      28.2199  0.038551775  0.047820805            4 
   62000     1.221732   -5.7506161    29.055102  0.039052556  0.047803526            2 
   63000    1.2611847   -5.7499532    29.639166  0.039205246   0.04780789            1 
   64000    1.2216394   -5.7506526    30.255897  0.039395699  0.047813593            2 
   65000    1.2541963   -5.8152412     30.64297  0.039285858  0.047829113            3 
   66000    1.2357153   -5.7416305    31.299358  0.039519391   0.04783981            4 
   67000    1.2090787   -5.7566153    31.944953  0.039732529  0.047836987            4 
   68000    1.2452018   -5.7789757     32.33957  0.039631826  0.047824215            1 
   69000    1.2142371   -5.7712601    32.929241  0.039769614  0.047796199            1 
   70000    1.2351652   -5.7544397    33.193447  0.039516008  0.047760818            3 
   71000    1.2288737   -5.7669517    33.762254  0.039627058  0.047719977            2 
   72000    1.2534375   -5.7831503    34.290489  0.039688066  0.047671863            5 
   73000    1.2476573   -5.7578914    34.890652  0.039829512  0.047617715            4 
   74000    1.2236048   -5.7657431    35.328037  0.039783825  0.047564869            2 
   75000    1.2170504   -5.7708026    35.760143  0.039733492  0.047494751            2 
   76000    1.2346041   -5.7569302    36.375813  0.039885759  0.047439703            3 
   77000    1.2548688   -5.7801987    36.927139  0.039964435  0.047381672            2 
   78000    1.2480021   -5.7804293    37.154347  0.039694815  0.047313963            1 
   79000     1.274514   -5.7869152    37.813566  0.039887727   0.04723778            2 
   80000    1.2252637   -5.8019226     38.34542  0.039943146  0.047166283            2 
   81000    1.2338669   -5.7919606    38.883719  0.040003825  0.047095482            4 
   82000    1.2272316    -5.778025    39.366029  0.040006127   0.04703907            3 
   83000    1.2603738   -5.8062765    39.903795  0.040064051  0.046976052            4 
   84000    1.2219449   -5.7573479    40.907656  0.040582992  0.046942831            3 
   85000    1.2517657   -5.8068154    41.429663  0.040617316  0.046923122            7 
   86000    1.2408145   -5.7644315    41.989017  0.040687032  0.046907051            4 
   87000    1.2278661   -5.8008935    42.284273  0.040502177  0.046879512            5 
   88000    1.2635213   -5.7920712    42.911242  0.040635645  0.046854668            2 
   89000    1.2847698   -5.7513589    43.482741  0.040714177  0.046829575            2 
   90000    1.2315316   -5.7932494      44.2184  0.040942963  0.046812282            2 
   91000    1.2500722   -5.7497345      45.0075  0.041215659  0.046804989            2 
   92000     1.202745   -5.7752467    45.659051  0.041357836  0.046805372            2 
   93000    1.2314101   -5.7375345    46.054878  0.041267811  0.046801714            1 
   94000    1.2221772   -5.8024218    46.622674  0.041332158  0.046795976            2 
   95000    1.2233514   -5.7662126    47.427487  0.041603059  0.046798999            3 
   96000    1.2473604   -5.7541137    47.764452  0.041462198  0.046800104            7 
   97000    1.2198881   -5.7737729    48.206037  0.041414121  0.046795954            3 
   98000    1.1961296   -5.7502681    48.566674  0.041298192  0.046784975            1 
   99000    1.2192249   -5.7841002    48.985567  0.041233642  0.046759435            2 
  100000    1.2388479   -5.7881147    49.561148  0.041300957  0.046737467            2 
  101000    1.2331774   -5.8120397    49.991271  0.041246923    0.0467059            1 
  102000    1.2534249   -5.7586556    50.516844  0.041271931  0.046666782            2 
  103000    1.2556007   -5.7281463    51.083619  0.041329789  0.046625784            2 
  104000    1.2276388   -5.7813675    51.542179  0.041299823  0.046593007            2 
  105000    1.2357302   -5.7411664    52.257261  0.041474017  0.046563563            4 
  106000    1.2852328   -5.7975014    53.035354   0.04169446  0.046550299            4 
  107000    1.2250549   -5.8125983    53.356008  0.041554523  0.046534156            4 
  108000    1.2138069   -5.7885882    53.844602   0.04154676  0.046516517            2 
  109000    1.2254679   -5.7700477    54.423466  0.041608154  0.046494841            2 
  110000    1.2465468   -5.8020496    54.512109  0.041297052   0.04646873            3 
  111000    1.2455916   -5.7342763    55.384377  0.041579863  0.046436958            1 
  112000    1.2305073   -5.7607278    55.744483   0.04147655  0.046404273            2 
  113000    1.2390831   -5.7917813    56.257326  0.041487704  0.046378237            3 
  114000    1.2291837   -5.7942449    56.694427  0.041443294  0.046353229            2 
  115000    1.1882152   -5.7597472    57.612553  0.041748226  0.046323559            1 
  116000    1.2408681   -5.7918939    57.993659  0.041662111  0.046301609            3 
  117000    1.2676789   -5.8053363    58.627247  0.041757299  0.046281594            2 
  118000    1.2575966   -5.7866526    59.261963  0.041851669  0.046270413            9 
  119000     1.223871   -5.7831231    59.983773  0.042005443  0.046252302            3 
  120000    1.2217154   -5.7673386    60.424569  0.041961506  0.046234637            2 
  121000    1.2414769     -5.77809    60.712409  0.041812954  0.046212862            2 
  122000    1.2356173   -5.7981359    61.364538  0.041915668  0.046192883            4 
  123000    1.2510596    -5.778793    62.040081  0.042032575  0.046177087            3 
  124000    1.2259777   -5.7792069    62.472698   0.04198434  0.046164657            2 
  125000    1.2243956   -5.7758444    62.924137  0.041949424  0.046145391            2 
  126000    1.2369848   -5.7758798    63.481101  0.041984855    0.0461322            2 
  127000    1.2345303   -5.7714739    64.195244  0.042122864  0.046120323            2 
  128000    1.2062692   -5.7625906    64.820459  0.042200819  0.046106583            1 
  129000    1.2038654   -5.8188237    64.747433  0.041826507  0.046089223            2 
  130000    1.2406929   -5.7876712    65.558691  0.042024802  0.046065069            2 
  131000    1.2537381   -5.8081028    65.524992  0.041682565  0.046041395            2 
  132000    1.2327406   -5.7819462    66.287735  0.041848318   0.04601262            1 
  133000    1.2272901   -5.7686434    66.889643  0.041910804  0.045984995            2 
  134000    1.2340548   -5.7709266    67.486271  0.041969074  0.045956445            5 
  135000    1.2315803   -5.7984109    67.781764  0.041840595  0.045924894            2 
  136000    1.2174934   -5.7611435    68.638275  0.042057767  0.045899916            5 
  137000    1.1904341   -5.7590127    69.056941  0.042005438   0.04587839            3 
  138000    1.2107466   -5.7825188    69.671154  0.042071953  0.045862841            3 
  139000    1.2312809   -5.8332573    69.811879  0.041853645  0.045840132            3 
  140000    1.2131534   -5.7706486    70.836897   0.04216482  0.045819295            2 
  141000    1.2423305   -5.8292028    71.233452  0.042100149  0.045804172            3 
  142000    1.2512783   -5.8176928    71.871325  0.042178007  0.045793323            3 
  143000    1.1827361   -5.8580332    72.431302  0.042209383  0.045780387            1 
  144000    1.2271054   -5.7579535    73.224374  0.042375216   0.04577314            2 
  145000    1.2555336   -5.8403472    73.678171  0.042343777   0.04576741            3 
  146000    1.2345353   -5.8369467     74.52288   0.04253589  0.045767516            3 
  147000     1.223119   -5.7833863     75.35374  0.042717539  0.045774087            3 
  148000     1.236396   -5.7896503    75.881006  0.042725791  0.045778393            2 
  149000    1.2074165   -5.8240564    76.230311  0.042634402  0.045777548            2 
  150000    1.2285377   -5.7881184    76.826826   0.04268157  0.045779771            2 
  151000    1.2287261   -5.8224788    77.145175    0.0425746  0.045780804            2 
  152000    1.2193814   -5.7893528    77.844241  0.042677763  0.045773258            2 
  153000    1.2581746   -5.8059062    78.264894  0.042627938   0.04577045            4 
  154000    1.2419583   -5.7805028    79.028474  0.042764326  0.045771852            3 
  155000    1.2550226   -5.7629368    79.549812  0.042768716  0.045770696            1 
  156000    1.2466934    -5.771229    80.027506  0.042749736  0.045765742            3 
  157000     1.222592    -5.777419    80.709202  0.042839279  0.045760642            3 
  158000    1.2143398   -5.7722115    80.744514  0.042586769  0.045751285            3 
  159000    1.2306762   -5.8275516     81.21316  0.042564549  0.045737246            2 
  160000    1.2196009   -5.8242771    81.886277  0.042649102  0.045731239            3 
  161000    1.2040737    -5.796947    82.344886  0.042621577  0.045722684            2 
  162000    1.2219291   -5.7772594    83.326991  0.042863678  0.045712803            3 
  163000    1.2162659   -5.7649875    83.474567  0.042676159  0.045707239            2 
  164000    1.2399097   -5.8134693    84.087552  0.042727415  0.045704907            2 
  165000    1.2299382   -5.8433556    84.638455  0.042746694  0.045698864            3 
  166000    1.2088591   -5.8050756    85.348998  0.042845882  0.045694757            2 
  167000    1.2081894   -5.7740505    86.059916   0.04294407   0.04568997            1 
  168000    1.2256456   -5.7566459    86.916843  0.043113513  0.045687538            5 
  169000    1.2309642   -5.8306999    86.868622  0.042834626  0.045685028            1 
  170000    1.2030547   -5.7860137    87.583365  0.042933022  0.045683196            3 
  171000     1.203439    -5.850102     88.30127  0.043031808  0.045683225            4 
  172000    1.2166096   -5.7940716    89.251225  0.043241872    0.0456848            2 
  173000    1.2197091    -5.804285    89.880594  0.043295084  0.045694186            4 
  174000    1.2430072   -5.8027193    90.294028  0.043244266  0.045702331            1 
  175000    1.2322966   -5.7657127    91.039167  0.043351984  0.045711019            4 
  176000    1.2200476   -5.8360945    91.727954  0.043431796  0.045725755            1 
  177000    1.2200087   -5.7747003    92.429518  0.043516722  0.045737338            2 
  178000    1.2587433   -5.8152197    92.896646  0.043490939  0.045748378            2 
  179000    1.2455195   -5.8277551    92.629846  0.043123764  0.045753537            2 
  180000    1.2073973   -5.8040277    93.432255  0.043255673  0.045753482            2 
  181000    1.2194944   -5.8310422    93.818544  0.043194541   0.04575469            4 
  182000    1.2462046   -5.7892487    94.692108  0.043357192  0.045758173            3 
  183000    1.2391969   -5.7869158    95.234583  0.043367296  0.045762817            1 
  184000    1.2022464   -5.8184075    96.017417  0.043486149  0.045771176            3 
  185000    1.2039846   -5.7823109      96.4357  0.043439504   0.04577993            3 
  186000    1.2132917   -5.8152521    96.911905  0.043419312   0.04578536            2 
  187000    1.2334912   -5.7741362    97.664733  0.043522608   0.04579011            2 
  188000    1.2185285   -5.7766495    98.134081  0.043499149  0.045796377            2 
  189000    1.2060362   -5.7860479    98.707524  0.043521836  0.045803096            2 
  190000    1.2281179   -5.8123014    98.863615  0.043361234  0.045809575            1 
  191000    1.2237272   -5.8210331    99.714347  0.043505387  0.045813467            5 
  192000     1.233276   -5.8473456    100.45655  0.043600934   0.04581947            2 
  193000    1.2114285   -5.8039585    101.41376  0.043788326  0.045825948            8 
  194000    1.2455134   -5.8520679    101.37022  0.043543909  0.045834611            5 
  195000    1.2145596   -5.8343786    102.16508  0.043660292  0.045842952            1 
  196000     1.201506   -5.8272735    103.22171  0.043886783  0.045857676            1 
  197000    1.2458797    -5.785777    104.23319  0.044091873  0.045874341            4 
  198000    1.2471043   -5.7682553     104.9244  0.044160099  0.045893372            5 
  199000    1.2141016   -5.7977993    105.11928  0.044019798  0.045913381            4 
  200000     1.212136   -5.8065685    105.74948  0.044062282   0.04593033            3 
  201000    1.2197528   -5.8033508    106.60073  0.044195993  0.045951269            2 
  202000    1.1983193   -5.8065552    107.63191  0.044402601  0.045973532            3 
  203000    1.2220386   -5.7891146    107.92317  0.044303436  0.045995336            3 
  204000    1.2075639   -5.8017414    108.21158  0.044204076  0.046014354            2 
  205000    1.2077705   -5.7790224     109.0916  0.044346179  0.046032494            5 
  206000    1.2056225   -5.8127443    109.40765  0.044258758  0.046051669            1 
  207000    1.2020881   -5.8363424    109.81769  0.044210019  0.046069232            2 
  208000    1.2348076   -5.7881835    110.90146  0.044431673  0.046089219            3 
  209000    1.2188095   -5.8211406    111.53602  0.044472097   0.04610983            1 
  210000    1.2161103   -5.7768879    111.83664   0.04437962  0.046130223            5 
  211000    1.2356814   -5.7952694    112.44683  0.044410281  0.046149354            2 
  212000    1.2223268   -5.8075479      112.945  0.044396619   0.04617035            8 
  213000    1.2036016   -5.8436246    113.29648  0.044325698  0.046186865            1 
  214000    1.2193997   -5.8071605      113.972  0.044381618  0.046202592            5 
  215000    1.2294265   -5.7814975    114.82898  0.044507356  0.046222266            2 
  216000    1.2133562    -5.828567    114.95581  0.044350235  0.046237516            2 
  217000    1.2202006   -5.8251329    115.56438  0.044379562  0.046250192            3 
  218000    1.2220754   -5.7980069    115.92343  0.044313236  0.046262849            1 
  219000    1.2101663   -5.8103299    116.52509  0.044339837   0.04627513            2 
  220000    1.2483213   -5.8529133    116.60587  0.044168891  0.046286396            3 
  221000    1.1898981   -5.8146238    117.49033  0.044302537  0.046293324            2 
  222000    1.2036467   -5.8104636    117.90974  0.044260412  0.046300633            3 
  223000      1.23442    -5.873859    117.99411  0.044093462  0.046304912            3 
  224000    1.2329984   -5.8234191    118.91446   0.04423901  0.046308827            2 
  225000    1.1919558   -5.8297084    119.12785  0.044121425  0.046312397            3 
  226000    1.1746033   -5.8240495    119.97013  0.044236775  0.046316497            1 
  227000    1.2049047   -5.8124925    120.45178  0.044218715  0.046320529            4 
  228000    1.2106797   -5.8681458    120.61696  0.044085145  0.046320646            2 
  229000     1.212828   -5.8588274    120.93694  0.044009076  0.046320456            1 
  230000    1.1717229   -5.8189892    121.44039  0.044000142  0.046318796            3 
  231000    1.2050885   -5.8133932    122.30498  0.044121565   0.04631792            4 
  232000    1.2179363   -5.8093023    122.91668  0.044151105  0.046316969            2 
  233000    1.2369533   -5.8305375    123.43767  0.044147952  0.046316198            2 
  234000    1.2075972   -5.7816388    124.61621  0.044378991  0.046316513            2 
  235000    1.2171377   -5.8215362    124.42324  0.044121715  0.046319396            2 
  236000    1.2259197   -5.8520325    124.99691  0.044137328  0.046319647            4 
  237000    1.1916463   -5.8385943    125.25231  0.044040896  0.046319098            3 
  238000    1.1911173   -5.8479809    125.99381  0.044115481  0.046319816            2 
  239000    1.2127373   -5.7984427    126.79629  0.044210702  0.046322272            1 
  240000    1.2387037   -5.7840572    127.29978  0.044201314  0.046321679            3 
  241000     1.217429   -5.8373194    127.78753  0.044186561  0.046321397            3 
  242000    1.2015802   -5.8352669    128.22295  0.044153908  0.046319813            4 
  243000    1.2350536   -5.7834312     128.8256  0.044178875  0.046316237            4 
  244000     1.217524   -5.8168577    128.86822  0.044012369  0.046312508            1 
  245000    1.2069675   -5.8418102    129.04426  0.043892606  0.046303338            3 
  246000    1.1952403    -5.802849     130.4925  0.044204775  0.046299551            2 
  247000    1.2380505    -5.858302      130.253  0.043945006  0.046295473            1 
  248000    1.2159711   -5.8502411     130.9068    0.0439875  0.046291456            5 
  249000    1.2334234   -5.8315587    131.97827  0.044169436  0.046286696            2 
  250000    1.2078226   -5.7779291    132.43094  0.044143648  0.046280393            1 
  251000    1.2195116   -5.8192353    132.11197  0.043861876  0.046273584            4 
  252000    1.2327663   -5.8404033    132.97306  0.043972571  0.046264879            2 
  253000    1.1943315   -5.8361896    133.11778  0.043846437  0.046254319            3 
  254000    1.1976394   -5.8280443    133.37168  0.043757113  0.046242516            5 
  255000     1.209017   -5.8549422    134.02165  0.043797926  0.046227862            1 
  256000    1.2015318   -5.8342856    134.40101  0.043750327  0.046215191            1 
  257000    1.2275233   -5.8196088    135.06642  0.043795857  0.046202155            4 
  258000    1.2047182   -5.8004391    135.43502  0.043745161  0.046189121            2 
  259000    1.2115465   -5.8146122    135.48537  0.043592461  0.046175195            2 
  260000    1.2225983   -5.7989635    136.62458  0.043789931  0.046161533            3 
  261000    1.2345711   -5.8267586     137.2592  0.043824777  0.046147146            3 
  262000      1.20207   -5.8385886    137.62992   0.04377542   0.04613342            4 
  263000    1.1927471   -5.8465871    138.16252   0.04377773  0.046119456            3 
  264000    1.2290259   -5.8469247    138.66978  0.043772027  0.046106084            4 
  265000    1.2164108   -5.8577714    139.46262  0.043856171  0.046092825            3 
  266000     1.202734   -5.9078988    139.27206  0.043631597  0.046080818            2 
  267000    1.2204935   -5.8461912    140.36342  0.043808806  0.046068523            2 
  268000    1.2281072   -5.8407696    141.21605  0.043910463  0.046058374            4 
  269000    1.2229253   -5.8668574    141.38076  0.043798253  0.046050043            1 
  270000    1.2052956   -5.8247163    142.58722    0.0440084  0.046039884            3 
  271000    1.2078569   -5.8376179    142.60154  0.043850411  0.046032209            3 
  272000    1.2012752   -5.8484506    143.49813  0.043963887  0.046026886            3 
  273000    1.2049491   -5.8093798    144.96019  0.044249143  0.046023432            5 
  274000      1.20919   -5.8291105    145.59863  0.044281822  0.046022459            2 
  275000    1.2016797   -5.7907495    145.42929  0.044069482  0.046018647            2 
  276000    1.2152538   -5.8298298    146.36863  0.044193427  0.046014938            6 
  277000    1.2133392   -5.8687063    146.03064  0.043932202  0.046009439            4 
  278000    1.2047934     -5.82864    147.18278  0.044119538  0.046007417            3 
  279000     1.221998   -5.8454447     147.8445   0.04415905  0.046005188            2 
  280000    1.2535261   -5.7930545    148.55117  0.044211658  0.046001185            3 
  281000    1.1911144   -5.8766633    148.20757  0.043952423  0.045996008            4 
  282000    1.1958449   -5.8431096    149.52787  0.044186724  0.045992093            4 
  283000    1.1884811   -5.8120553    150.26952  0.044248975  0.045989092            3 
  284000    1.2141543   -5.8355943    150.71717  0.044224521  0.045985902            2 
  285000     1.189901    -5.856492    151.25635  0.044227002  0.045982587            2 
  286000    1.1950957   -5.8371774     152.0504  0.044303729  0.045978237            1 
  287000    1.1998477   -5.8314494    151.70164  0.044048094  0.045973015            3 
  288000    1.2261177    -5.873389    152.09149  0.044007954  0.045966626            1 
  289000    1.2131648   -5.8302721    153.35356  0.044219595  0.045960556            1 
  290000     1.166904   -5.8613622    152.74758  0.043892982  0.045955163            3 
  291000    1.2052151   -5.8122255    153.60377  0.043987334   0.04594805            2 
  292000    1.2014606   -5.8787076     153.8152  0.043897033  0.045939863            1 
  293000    1.2027994   -5.8275979      154.323  0.043891639   0.04592985            2 
  294000    1.2085114   -5.8250335    154.79464  0.043876032  0.045920721            3 
  295000    1.2253894   -5.7976059     156.0033  0.044068728  0.045910378            2 
  296000    1.1782732   -5.8610625    155.77724  0.043856204  0.045899577            3 
  297000    1.1949295   -5.8009373    156.67738  0.043961106  0.045888786            4 
  298000    1.2271464   -5.8729524    156.43568  0.043745996  0.045876459            1 
  299000    1.1829374   -5.8174457    156.84269  0.043713125  0.045862464            6 
  300000    1.2082429   -5.8387313    157.23275  0.043675763  0.045850415            2 
  301000    1.1907443   -5.8194486    158.38874  0.043850704  0.045837854            3 
  302000    1.1887847   -5.8620798    157.94691  0.043583585  0.045824662            3 
  303000    1.2212441   -5.8371761    158.49562  0.043590654  0.045809945            3 
  304000    1.2199965   -5.9003235    159.13364   0.04362216  0.045796048            2 
  305000    1.2030017   -5.8376844      160.167  0.043761475  0.045781902            3 
  306000     1.230296   -5.8557016    160.32335  0.043661043  0.045768975            6 
  307000    1.1743411   -5.8331364    161.36464  0.043801476  0.045758568            2 
  308000    1.1897457   -5.8804048    161.42006  0.043674258  0.045747587            4 
  309000     1.232989   -5.8423644    162.27622  0.043763814  0.045737232            3 
  310000    1.2311501   -5.8547238    163.18628   0.04386728  0.045725974            4 
  311000    1.2033679   -5.8407042    163.60023  0.043837147  0.045714803            4 
  312000    1.2137365   -5.8254731    164.24863  0.043869828  0.045703797            2 
  313000    1.2087696   -5.8937445    164.35962  0.043759217   0.04569322            2 
  314000    1.2171257   -5.8140428    165.57934  0.043943561  0.045682988            1 
  315000    1.2169389   -5.8385323    166.43861  0.044031379  0.045674876            1 
  316000    1.2099638   -5.8426686    166.82446  0.043993791  0.045668042            2 
  317000    1.2082573   -5.8745044    166.66383  0.043812785   0.04566093            1 
  318000    1.1903469   -5.8713321    166.78693  0.043707268   0.04565313            5 
  319000    1.2038351   -5.9040284     168.2001  0.043939419  0.045646208            2 
  320000    1.2253896   -5.8787893    168.43312  0.043862791  0.045637776            2 
  321000    1.2007514   -5.8661101    168.61662  0.043773785  0.045630139            3 
  322000     1.191722   -5.8539218    169.65033  0.043905364  0.045622032            2 
  323000    1.2234034   -5.8442557    170.52886  0.043996094    0.0456162            8 
  324000    1.1569392    -5.857535    171.04624  0.043993374  0.045609208            5 
  325000    1.1752698   -5.8203751    171.48449  0.043970382  0.045603587            2 
  326000    1.2017149   -5.8589588     172.2071   0.04402022  0.045598337            4 
  327000    1.2015713   -5.8475601    172.27301  0.043902398  0.045592408            2 
  328000    1.2317044   -5.8533728    172.65929  0.043866689    0.0455867            1 
  329000    1.1725827   -5.8198419    173.75145  0.044009992  0.045581347            2 
  330000    1.1928748   -5.8726791    173.39359   0.04378626  0.045573563            1 
  331000    1.1861127    -5.871222    174.82669  0.044014777  0.045566023            2 
  332000    1.2207412   -5.8814451    175.34782  0.044013006  0.045558823            3 
  333000    1.2291661   -5.9091014    175.19218  0.043841888   0.04555305            4 
  334000    1.2034637   -5.8287508     177.0366  0.044170808  0.045549827            2 
  335000    1.1998336    -5.877541    176.86983  0.043997469  0.045544945            2 
  336000    1.1924335   -5.8419381    177.81336  0.044100536  0.045538322           10 
  337000    1.1658685   -5.8864719    177.58312   0.04391274  0.045531133            4 
  338000    1.2171783   -5.8707312    178.05402  0.043898921   0.04552384            1 
  339000    1.1907465   -5.8623916    178.35419  0.043843214  0.045517427            2 
  340000    1.1711498   -5.8502562    179.21849  0.043926099  0.045509401            4 
  341000    1.1960151   -5.8748014    179.04358  0.043754539  0.045502309            7 
  342000    1.2094272   -5.8546776    180.36619  0.043948877  0.045494299            1 
  343000    1.1803083   -5.8895438    179.40045  0.043586115  0.045486229            2 
  344000    1.2102459   -5.8306648    181.02066  0.043851904   0.04547794            7 
  345000    1.1842613   -5.8871564    181.29151  0.043790219  0.045470064            4 
  346000    1.2125196   -5.8540994    182.13036  0.043865693  0.045461463            3 
  347000     1.172868   -5.8715438    182.48525  0.043824507  0.045452593            2 
  348000    1.1802599   -5.8565724    182.80996  0.043776331  0.045442658            3 
  349000    1.1944919   -5.8231176     183.3992  0.043791595  0.045432802            2 
  350000    1.2080691    -5.867239     183.7202  0.043742904  0.045423346            1 
  351000    1.1583582   -5.9049283    184.47624  0.043797779  0.045413409            3 
  352000    1.2058543   -5.8770509    184.40863  0.043657347  0.045403894            3 
  353000    1.1832438   -5.9007932    185.27016  0.043737054  0.045393685            1 
  354000    1.2061828   -5.8974112    185.57623  0.043685552  0.045385242            3 
  355000     1.185951   -5.8745609     186.7034  0.043827089  0.045375232            4 
  356000    1.2088479   -5.9072319    186.32635  0.043615718   0.04536565            2 
  357000    1.1657553   -5.8605732    187.16572  0.043689476  0.045355887            2 
  358000    1.1915722   -5.8655428    187.77568  0.043709423  0.045345569            2 
  359000    1.2301063   -5.8784855    187.12318  0.043436208    0.0453345            2 
  360000     1.162182   -5.8858361    188.86941   0.04371977  0.045323336            2 
  361000     1.184429   -5.8846528    188.87982  0.043601067  0.045313054            3 
  362000    1.2084563   -5.8755241    189.82734  0.043698742  0.045303598            3 
  363000      1.15811   -5.8956988    189.87913  0.043590251  0.045293752            4 
  364000    1.1814173   -5.8490292    190.79637  0.043680487  0.045283635            3 
  365000    1.1787138    -5.888359     191.1637  0.043644681    0.0452766            4 
  366000    1.1665938   -5.8893459    191.78707  0.043667365    0.0452677            4 
  367000    1.1896525   -5.9114504    191.38609  0.043457332  0.045258884            3 
  368000    1.2041856   -5.8825226    192.73786  0.043645348  0.045251249            3 
  369000    1.1881475   -5.9130091    192.89382   0.04356229   0.04524354            2 
  370000    1.2069715   -5.8704273    193.95359  0.043683241  0.045236321            4 
  371000    1.1842645    -5.874294    194.33858  0.043651971  0.045229676            2 
  372000    1.1730941   -5.9041543    194.75039   0.04362688  0.045221164            4 
  373000    1.2229066   -5.8390656    195.19851  0.043610033  0.045212545            4 
  374000    1.1798231   -5.8410914    196.49664  0.043782674  0.045204018            3 
  375000    1.1842659    -5.876272    196.20258  0.043600574  0.045196319            2 
  376000    1.1965229   -5.8795547    196.82001  0.043621456  0.045187738            2 
  377000    1.1712909   -5.8879985    197.29623  0.043611014  0.045179362            2 
  378000     1.202179   -5.8451349    197.98982  0.043648549  0.045170809            3 
  379000    1.1941223   -5.8582765    198.94918  0.043744323  0.045162597            3 
  380000    1.1959902   -5.9029705    199.30114  0.043706391  0.045154262            2 
  381000    1.2009132   -5.8790604    199.77085  0.043694411  0.045145928            1 
  382000    1.2123961   -5.8719991    199.88636  0.043605226  0.045138584            2 
  383000    1.1944674   -5.8977961    200.92252  0.043716824  0.045129327            5 
  384000    1.1794806   -5.8869159    201.26488  0.043677275  0.045121398            2 
  385000    1.1856804   -5.8066947    202.57199  0.043846751  0.045113693            2 
  386000    1.1746283   -5.8571855    202.60885  0.043741115  0.045104777            4 
  387000    1.1863003   -5.9140742    201.90032   0.04347552  0.045096406            3 
  388000     1.184633   -5.8683465    202.54092  0.043501056  0.045086016            4 
  389000    1.2017354   -5.9335909    202.74329  0.043432581  0.045075388            4 
  390000     1.196674    -5.912241    203.32073  0.043444601  0.045064162            3 
  391000    1.1705864   -5.8863836    203.51428  0.043374739  0.045053674            4 
  392000    1.1604546   -5.9114204     204.4737  0.043468048  0.045043944            2 
  393000    1.1896354   -5.8804884     204.9787  0.043464524  0.045033269            5 
  394000    1.2026433   -5.9060093    204.90653  0.043338944  0.045022455            3 
  395000    1.1595871   -5.8833413    205.53519  0.043361855  0.045010819            2 
  396000    1.2132534   -5.8764748    205.84565  0.043317687  0.044998365            2 
  397000    1.1940844   -5.8857053    206.34986  0.043314412  0.044985498            2 
  398000     1.185463   -5.8729863    207.68808  0.043485779  0.044973682            4 
  399000    1.1854485   -5.8888708    208.22702  0.043489353   0.04496228            4 
  400000    1.1706465   -5.8342254    208.26214  0.043387946  0.044951479            5 
  401000    1.1952686   -5.8558266    208.75369  0.043381896  0.044939801            5 
  402000    1.2114877   -5.9012351    208.07566  0.043133428  0.044928953            4 
  403000    1.1762296   -5.8339021    209.64673  0.043351267   0.04491621            2 
  404000    1.1879826   -5.8999801    209.72371  0.043259841  0.044905051            1 
  405000     1.210543   -5.9401121    209.79188  0.043167053  0.044893703            2 
  406000    1.2087352   -5.9251994    210.27213  0.043159304  0.044881112            1 
  407000    1.2161069   -5.8986556    211.21128  0.043245553  0.044868878            4 
  408000    1.1887773   -5.8449041    211.25909  0.043149324  0.044855893            3 
  409000    1.1867127    -5.905607    211.67891  0.043129361  0.044842322            3 
  410000    1.1749114   -5.8904006    212.69975  0.043231656   0.04482894            4 
  411000    1.1841071   -5.8850135    213.40178  0.043268812  0.044815252            2 
  412000     1.197183   -5.8615133    214.19234  0.043323693  0.044802981            4 
  413000    1.1812467   -5.8912332    214.48482  0.043277809  0.044791293            4 
  414000    1.1940331   -5.8844539    214.11689  0.043099214  0.044779504            3 
  415000    1.1736252   -5.8630985    215.18518  0.043209875  0.044767602            4 
  416000    1.1854014   -5.8492015    216.14522   0.04329832  0.044754478            4 
  417000    1.1770928   -5.8957661    216.47439   0.04326027  0.044742941            1 
  418000    1.2022049   -5.8673196    216.71206   0.04320416  0.044730629            4 
  419000    1.1956313   -5.9059149     216.4206  0.043043078  0.044716896            4 
  420000    1.1817967   -5.8829619    216.53682  0.042963655  0.044702741            4 
  421000    1.1913931    -5.874455    217.56147  0.043064424  0.044688085            2 
  422000      1.19124   -5.8804727    218.15058  0.043078709  0.044673841            2 
  423000    1.1978219   -5.8744193    218.13691  0.042974175  0.044661087            4 
  424000    1.1953801   -5.8908646    218.69105  0.042981732  0.044646817            2 
  425000    1.1621149   -5.9783721     218.1683  0.042778099  0.044631618            2 
  426000    1.1695818   -5.9271137    218.55877  0.042754062  0.044616197            1 
  427000    1.1751963   -5.8612704    219.86093  0.042908067  0.044600205            3 
  428000    1.1697602   -5.8896565    220.47596  0.042927562  0.044585268            4 
  429000    1.1840411   -5.9277681    220.97649  0.042924725  0.044571296            2 
  430000    1.1597004    -5.882936    221.59375  0.042944525   0.04455737            1 
  431000    1.1641002   -5.9386423    221.78936  0.042882707  0.044543327            2 
  432000    1.2019659   -5.8840427    223.02566  0.043021926  0.044529741            3 
  433000    1.2130565   -5.8704788    222.63112  0.042846637  0.044517265            3 
  434000    1.1806936   -5.8678074    223.45749  0.042906584  0.044503207            2 
  435000    1.1697346   -5.8986439    223.94928  0.042902161  0.044489771            4 
  436000    1.1748598   -5.9038754    224.19352  0.042850443  0.044476745            2 
  437000    1.1558731   -5.8838422    226.34965  0.043163549  0.044464191            2 
  438000    1.1821772    -5.878448     227.2465  0.043235635  0.044452818            2 
  439000    1.1880533   -5.8751432    226.66374  0.043026526  0.044441378            4 
  440000    1.1784069   -5.8997261    227.76638  0.043137571  0.044430214            2 
  441000    1.1944884   -5.9127574    227.42149  0.042974582  0.044418849            2 
  442000    1.1769208   -5.8992394    228.86061  0.043148682   0.04440768            4 
  443000    1.2007845    -5.958785    227.90759  0.042872008  0.044396697            2 
  444000     1.188626    -5.868122    229.67227  0.043106656  0.044386531            3 
  445000    1.1738359   -5.9263685    229.50618  0.042978686  0.044376082            2 
  446000    1.1737626   -5.9226717    230.93581  0.043149441  0.044367394            3 
  447000    1.1590374   -5.8921673    230.96107  0.043057619  0.044357536            1 
  448000    1.1877496   -5.8727256      231.648  0.043089286  0.044348203            2 
  449000    1.1652184   -5.9256763    232.06761  0.043071198  0.044338885            5 
  450000    1.1719205   -5.9278658    232.49242  0.043054152  0.044329405            3 
  451000    1.1774614   -5.8612075    234.59706  0.043347573  0.044320194            3 
  452000    1.1632501   -5.8606723    234.93184  0.043313392  0.044313171            5 
  453000    1.1844097   -5.9484689    233.84084  0.043017079  0.044305171            2 
  454000    1.1860985   -5.8990036    236.04063  0.043326106  0.044297639            5 
  455000    1.1835153   -5.8815674    236.50715  0.043316328  0.044291979            5 
  456000    1.1793638   -5.8646406    237.67795  0.043435298  0.044285751            3 
  457000    1.1716743   -5.9440713    236.69349  0.043160738  0.044279065            9 
  458000    1.1620254    -5.916132    237.92145   0.04328993  0.044272217            2 
  459000    1.1741184   -5.9452925    237.28109  0.043079355  0.044265301            2 
  460000    1.1773966   -5.8768878    239.27361  0.043346669   0.04425854            2 
  461000    1.1537774   -5.8947416    239.08833  0.043219148   0.04425191            2 
  462000    1.1957944   -5.9182879    239.31661  0.043166777   0.04424518            5 
  463000    1.1988701   -5.9033713    240.28036  0.043247005  0.044238041            2 
  464000    1.1926902   -5.8943896    240.73036   0.04323462  0.044231445            2 
  465000    1.1595891    -5.884382    241.12426  0.043212234  0.044225068            2 
  466000    1.1669597   -5.9188441    241.44946  0.043177658  0.044218607            2 
  467000    1.1674578   -5.9238559    241.58129  0.043108725  0.044211657            2 
  468000    1.1729111   -5.9280449    241.74822  0.043046335  0.044204227            3 
  469000    1.1705886   -5.8990217    242.60599  0.043106963  0.044197262            2 
  470000    1.1730845   -5.8868375    244.23073  0.043303322  0.044190252            2 
  471000    1.2040649   -5.9001397    244.39097  0.043239733  0.044183284            2 
  472000    1.1720466   -5.9339536    245.06681  0.043267445  0.044177328            3 
  473000    1.1483798   -5.8977006    245.29104  0.043215476  0.044170839            2 
  474000    1.1861972   -5.9251115    245.72551  0.043200688  0.044164586            3 
  475000    1.1687347   -5.9077109    246.94027  0.043322854  0.044158646            2 
  476000    1.1733452   -5.8806686    247.45537  0.043322019  0.044152059            1 
  477000    1.1580508   -5.9326737    247.23392  0.043192509  0.044145223            3 
  478000    1.1690694   -5.9015761    247.88422  0.043215519  0.044138933            1 
  479000    1.1676097   -5.9000861    248.70183  0.043267542  0.044132886            2 
  480000    1.1690867   -5.9461821    248.11263   0.04307511  0.044126211            3 
  481000     1.174848   -5.9040135    249.16631  0.043168107  0.044119028            1 
  482000    1.1820814   -5.9024047    248.68738  0.042995744  0.044112273            2 
  483000    1.1478935   -5.9119827     249.7159  0.043084178  0.044105728            1 
  484000    1.1969966    -5.884258     250.7769   0.04317784  0.044100141            6 
  485000    1.1852696   -5.9303206    250.88276  0.043107004  0.044094321            5 
  486000    1.1619251   -5.9350694     251.5062  0.043125206  0.044087335            2 
  487000     1.180861   -5.9089684    251.10432  0.042967885  0.044079973            4 
  488000    1.1891698   -5.8785857    252.29061  0.043082413  0.044072064            2 
  489000    1.1793066   -5.8962376    251.78609  0.042908332  0.044063438            1 
  490000    1.1490883   -5.9205115    252.46659  0.042936494  0.044054522            3 
  491000     1.191718   -5.9277166    252.95396  0.042931765  0.044045568            1 
  492000    1.1503116   -5.9458526    252.12263  0.042703697  0.044035917            4 
  493000    1.1746113   -5.9484405    253.22678  0.042803715  0.044026123            3 
  494000    1.1523383   -5.9068816    254.22729  0.042885845  0.044016278            6 
  495000     1.169282   -5.9336683    254.24543  0.042802261  0.044006451            4 
  496000    1.2058084   -5.9159006    255.31929  0.042896387  0.043997418            3 
  497000    1.1706224   -5.9389647     254.5613  0.042682981  0.043987621            3 
  498000    1.1791787    -5.892588    255.80713  0.042805744  0.043976729            3 
  499000     1.189992   -5.9602284     254.7328  0.042540548  0.043965222            2 
  500000    1.1630379   -5.9054927    256.03972  0.042673287  0.043954143            2 
  501000    1.1673437   -5.9219314    256.63485  0.042687101  0.043943945            2 
  502000    1.1848651   -5.9249349    257.99082  0.042827162  0.043933046            2 
  503000    1.1803914   -5.8948308    258.17095   0.04277186  0.043921665            3 
  504000    1.1816995   -5.9029317    258.21097  0.042693613  0.043910894            5 
  505000    1.1520307   -5.9094285     258.3832  0.042637491  0.043900971            3 
  506000    1.1766175   -5.9474469    258.57173  0.042584277  0.043889766            4 
  507000     1.181659    -5.916443     258.8672  0.042548849  0.043878825            2 
  508000    1.1903435   -5.9301432    260.21395  0.042686015  0.043868414            3 
  509000    1.1714791   -5.9441939    260.62867  0.042670051  0.043858382            6 
  510000    1.1723245   -5.9107686    261.30958  0.042697644    0.0438487            3 
  511000    1.1564512   -5.9445741    261.20272   0.04259666  0.043838622            2 
  512000    1.1616404   -5.9107492    262.38469  0.042705842  0.043827707            2 
  513000    1.1884009    -5.920259    262.15783  0.042585742  0.043816904            4 
  514000    1.1785977   -5.9383967    262.03911  0.042483643  0.043804847            5 
  515000    1.1703743   -5.9509014    262.52207  0.042479299   0.04379328            3 
  516000    1.1735321   -5.9014745    263.12637  0.042494569  0.043781745            2 
  517000    1.1862744   -5.9822831    262.36834   0.04229019  0.043769698            1 
  518000    1.1601072   -5.9231581    263.06942  0.042321336  0.043757623            4 
  519000    1.1778636   -5.9091352    264.21301  0.042423412  0.043744422            4 
  520000    1.1702059   -5.9190204    264.74129  0.042426489  0.043731562            3 
  521000    1.1543955   -5.9349965    264.90578  0.042371365  0.043718993            3 
  522000    1.1848501   -5.9350999    265.50267  0.042385483  0.043707127            3 
  523000    1.1931755    -5.938869    265.25942  0.042265682  0.043695448            2 
  524000    1.1436705   -5.9398919    267.13978  0.042484062  0.043682565            8 
  525000    1.1473758   -5.9232833     267.3857  0.042442175  0.043671119            6 
  526000    1.1675058   -5.9315223    267.41052  0.042365418  0.043659504            6 
  527000    1.1924928   -5.9312822    267.06176   0.04222988   0.04364738            2 
  528000    1.1626947   -5.8894276     268.3273  0.042349637   0.04363457            2 
  529000    1.1946675   -5.9387513    267.69057  0.042169276  0.043622195            2 
  530000    1.1715161   -5.9016585     270.2585  0.042493474  0.043610392            5 
  531000    1.1639715   -5.9419955    270.07925  0.042385319  0.043598835            2 
  532000    1.1648651   -5.9211287    270.64254  0.042393881  0.043587693            2 
  533000    1.1713581   -5.9422448    270.80919  0.042340398  0.043575788            3 
  534000     1.169601   -5.9208532    270.86648   0.04227005  0.043564779            3 
  535000    1.1838665   -5.9252919    271.96209  0.042361696  0.043553418            2 
  536000     1.172001   -5.9634062    272.60452  0.042382544  0.043541975            4 
  537000    1.1636453   -5.9289221    272.20618  0.042241803  0.043530829            2 
  538000    1.1750035    -5.930378    273.88728   0.04242368  0.043520101            1 
  539000    1.1912242   -5.9263186    273.97282  0.042358197  0.043508683            4 
  540000    1.1660106   -5.9498156    275.32192   0.04248795  0.043498195            3 
  541000    1.1562019   -5.9481457    274.18114  0.042233693  0.043486901            2 
  542000    1.1612367   -5.9587909     275.5744  0.042369987  0.043476398            4 
  543000    1.1748954   -5.9658638    275.54385   0.04228727  0.043465899            3 
  544000    1.1757024   -5.9417651    276.71976  0.042389669  0.043454675            2 
  545000    1.1920535   -5.9126746    278.16421  0.042532753   0.04344464            3 
  546000    1.1714061   -5.9218348    279.33527  0.042633588  0.043435493            2 
  547000    1.1699176   -5.9582058    278.88035  0.042486342   0.04342671            6 
  548000    1.1482643   -5.9743804    278.56116  0.042360273  0.043417997            3 
  549000    1.1697297   -5.9015213    281.14225  0.042674902   0.04341028            2 
  550000    1.1509172   -5.9239366    281.59208  0.042665466  0.043403055            4 
  551000    1.1568995   -5.9213447    283.03656  0.042806497     0.043396            7 
  552000    1.1512423   -5.9470094    281.24828  0.042458979  0.043388353            2 
  553000    1.1577022   -5.8994303    283.29282  0.042690299  0.043382006            2 
  554000    1.1542868    -5.918605    284.20989  0.042751186  0.043374661            5 
  555000     1.160614   -5.9198541     283.3423  0.042543889  0.043367848            3 
  556000    1.1537607   -5.9150764    284.25398  0.042604014  0.043360693            3 
  557000    1.1732779   -5.9513183     284.3908  0.042547996  0.043353599            2 
  558000    1.1742155   -5.9349945    283.59303  0.042352603  0.043345368            4 
  559000    1.1674949   -5.9047896    284.36997  0.042392661  0.043337039            2 
  560000    1.1545198   -5.9367125    284.33935  0.042312403  0.043328457            4 
  561000    1.1644293   -5.9414986    285.15316  0.042357866  0.043320241            2 
  562000    1.1900978   -5.9687109    285.53158  0.042338609  0.043312065            1 
  563000    1.1670196   -5.9221073    287.87289   0.04260996  0.043304048            2 
  564000    1.1588532   -5.9350476    286.77173  0.042371709  0.043296476            4 
  565000     1.179423    -5.947766    288.02537  0.042481617  0.043288861            3 
  566000    1.1732795   -5.9139156    289.14379   0.04257123  0.043281265            1 
  567000    1.1429157   -5.9721521    287.99165  0.042326815  0.043273061            3 
  568000    1.1603636   -5.9182441    289.57936  0.042485235  0.043264897            4 
  569000    1.1405153   -5.8994794    290.96569  0.042613604  0.043257494            2 
  570000    1.1410021   -5.9064024    290.34968  0.042448784  0.043250479            4 
  571000    1.1537957    -5.982776    289.48607  0.042248404  0.043242673            2 
  572000    1.1530297   -5.9533006    291.52353  0.042471377  0.043234195            4 
  573000    1.1593436   -5.9420328    292.04529  0.042473137  0.043226644            4 
  574000    1.1582947   -5.9644922    291.82541  0.042367219  0.043218684            2 
  575000    1.1756452   -5.9485365    291.62792  0.042264916  0.043209811            2 
  576000    1.1472484   -5.9327795    293.61937  0.042479654  0.043200938            3 
  577000    1.1555268   -5.9654517    292.33325  0.042220285  0.043192787            3 
  578000    1.1555907   -5.9571409    293.43162  0.042305597  0.043183387            4 
  579000    1.1573467   -5.9483499    294.24842  0.042350089  0.043174586            3 
  580000    1.1929478   -5.9297939    294.24397  0.042276433  0.043166041            3 
  581000    1.1314121    -5.957177    294.48938  0.042238867  0.043157785            1 
  582000    1.1607846    -5.960497    295.74074  0.042345467  0.043148522            3 
  583000     1.130028   -5.9586486     295.6296  0.042256946  0.043139696            4 
  584000    1.1437896   -5.9761899     295.9259  0.042226869  0.043130876            2 
  585000     1.161717   -5.9472993    297.04483  0.042314079  0.043122644            6 
  586000    1.1814461   -5.9259102    298.50168  0.042449044  0.043115121            2 
  587000    1.1832435   -5.9512184    298.38733  0.042360495  0.043107314            9 
  588000     1.130768    -6.009666    297.55407  0.042170362  0.043098944            3 
  589000    1.1577717   -5.9708497    298.48159  0.042229994  0.043090206            2 
  590000    1.1667198   -5.9283664    299.49151  0.042301061  0.043082157            3 
  591000     1.154874   -5.9908754    298.51099  0.042091228  0.043074248            3 
  592000    1.1720197   -6.0163458    299.08688  0.042101194  0.043066133            3 
  593000    1.1536427   -5.9403323    300.70114  0.042257047  0.043057723            2 
  594000    1.1616259   -5.9412145     300.8699  0.042209582  0.043049176            1 
  595000    1.1473707    -5.960935    301.49121   0.04222566  0.043040745            3 
  596000    1.1410608   -5.9821673    302.15461  0.042247569  0.043033007            1 
  597000    1.1567284   -5.9381049     302.4962  0.042224484  0.043025744            2 
  598000    1.1609561    -5.963991    303.06525  0.042233173  0.043019319            3 
  599000    1.1525717   -5.9702994     305.1162  0.042447996  0.043012775            6 
  600000     1.169927   -5.9807122    304.61048  0.042307012  0.043006015            2 
  601000    1.1164132   -5.9120337    306.57458  0.042508954  0.042999666            2 
  602000    1.1903177    -5.946714    305.34052  0.042267514  0.042994024            3 
  603000    1.1447456    -5.972565    307.79586  0.042536742  0.042988128            3 
  604000    1.1446135   -5.9493546    307.88168  0.042478157  0.042982389            3 
  605000    1.1574369   -5.9781658    307.96352  0.042419218  0.042976409            2 
  606000    1.1631155   -5.9785108    308.79493  0.042463549  0.042971423            2 
  607000    1.1530308   -5.9675169    309.79212  0.042530495  0.042966301            3 
  608000    1.1378753   -5.9237564    311.04001  0.042631581  0.042961767            5 
  609000    1.1479172   -5.9912824    309.71882  0.042380791  0.042956337            3 
  610000     1.149311   -5.9893019    308.94097  0.042205051  0.042951182            4 
  611000    1.1693817   -5.9655614    310.70999  0.042377248  0.042946006            2 
  612000    1.1625867   -5.9806162    310.42663  0.042269421  0.042939999            2 
  613000    1.1385337   -5.9770099     311.0852  0.042289994  0.042933376            5 
  614000    1.1539182   -5.9667518    312.18749  0.042370723  0.042926475            4 
  615000    1.1720404    -5.942374     311.9929  0.042275461  0.042920138            5 
  616000    1.1461334   -5.9393874    312.86098  0.042324266  0.042914387            3 
  617000    1.1558888   -5.9705941    312.12947  0.042156871  0.042908193            4 
  618000    1.1775328   -5.9680172    313.20484  0.042233662  0.042901967            7 
  619000    1.1675022    -5.930773    313.90974  0.042260332  0.042895235            2 
  620000    1.1431465   -5.9389531    314.96923  0.042334574  0.042888734            1 
  621000    1.1430197    -6.025547    314.20192  0.042163436  0.042881858            2 
  622000    1.1547328   -5.9827325    314.47603  0.042132373  0.042875484            3 
  623000    1.1807507   -5.9634501    316.85017  0.042382313  0.042869217            2 
  624000     1.127019   -5.9740032     316.2506  0.042234322   0.04286245            4 
  625000    1.1647075   -5.9644033    315.74479  0.042099306  0.042855938            4 
  626000    1.1554938   -5.9870854    317.29343  0.042238209  0.042849658            3 
  627000    1.1685982   -5.9954049    316.80606  0.042106068  0.042842861            3 
  628000    1.1343938   -6.0270913    316.93782  0.042056504  0.042835914            5 
  629000    1.1608866   -5.9888562    316.99845  0.041997675  0.042829082            1 
  630000    1.1534983   -5.9345473    320.43426  0.042385484  0.042823144            3 
  631000    1.1639448   -6.0095034    318.98193  0.042126509  0.042817046            2 
  632000    1.1628381   -6.0068706    319.31236  0.042103423  0.042810437            7 
  633000    1.1238738   -5.9781453    319.51208  0.042063202  0.042803786            1 
  634000    1.1659293   -5.9398978    320.87968  0.042176614   0.04279763           10 
  635000    1.1557998   -6.0089754    320.31293  0.042035817  0.042791467            2 
  636000    1.1567032   -5.9704212    322.25381  0.042224032  0.042785851            3 
  637000    1.1693505   -5.9859476    322.12031  0.042140282  0.042779497            1 
  638000    1.1584462   -5.9759301    323.94193  0.042312164  0.042772306            2 
  639000      1.15839   -5.9594205    323.30604  0.042163021  0.042765908            4 
  640000    1.1758567   -5.9829047    323.63572  0.042140068  0.042760025            4 
  641000    1.1285633   -5.9907925    324.34034   0.04216593  0.042753829            7 
  642000    1.1320063   -5.9680275    326.06555  0.042324189  0.042747686            4 
  643000    1.1716146   -5.9781488    325.95303  0.042243783  0.042741778            1 
  644000    1.1440068   -6.0157813    324.90481  0.042042548  0.042735643            2 
  645000     1.152581   -5.9886223     326.4008  0.042170646  0.042729779            5 
  646000    1.1671866   -6.0111172       326.81  0.042158152  0.042724218            3 
  647000    1.1736816   -6.0140171    327.03653   0.04212217  0.042719155            4 
  648000    1.1744888   -5.9179167    329.99147  0.042437175  0.042714064            5 
  649000    1.1588239   -5.9093241    331.03654  0.042505976  0.042709197            1 
  650000    1.1441911   -5.9881735    329.26452    0.0422134  0.042704525            4 
  651000    1.1383373   -5.9847203    329.06236  0.042122677  0.042698804            8 
  652000    1.1589725   -5.9518033    330.89512  0.042292321  0.042692937            3 
  653000    1.1273773   -5.9980447    329.12824  0.042002073  0.042687803            1 
  654000    1.1284769   -6.0068097    330.81566  0.042152861  0.042682876            6 
  655000    1.1431389   -5.9973721    331.40533  0.042163528  0.042676869            1 
  656000    1.1289045   -5.9652803    330.81868   0.04202473  0.042671529            4 
  657000    1.1422062    -6.007447    331.34754  0.042027847   0.04266573            3 
  658000    1.1439076   -6.0052217    332.17239  0.042068439   0.04265965            2 
  659000    1.1565176    -5.933258    332.93684   0.04210127  0.042653545            8 
  660000     1.141551   -5.9836977    332.58114  0.041992568  0.042646644            4 
  661000    1.1325167   -6.0041147    332.79008  0.041955381  0.042640006            9 
  662000    1.1247412   -6.0305524    331.89502  0.041779333  0.042632778            2 
  663000    1.1410119   -5.9956157    334.05359  0.041987631  0.042625851            3 
  664000    1.1381202   -5.9728105    334.36113  0.041962994  0.042619629            1 
  665000     1.117923   -5.9714162    335.85149  0.042086653  0.042613351            8 
  666000    1.1303616   -5.9751537    335.86583  0.042025253  0.042607098            2 
  667000    1.1529585   -6.0330292    334.36966  0.041775319  0.042600622            3 
  668000    1.1524962   -5.9815511     336.5581  0.041985791  0.042593921            3 
  669000    1.1451923   -5.9613556     338.5778  0.042174614  0.042587928            2 
  670000    1.1368307   -5.9382787    338.90672  0.042152577  0.042582503            3 
  671000    1.1308794   -5.9894029    338.01253  0.041978704  0.042576571            2 
  672000     1.146931    -5.994921      338.051  0.041921006  0.042570223            6 
  673000    1.1316534   -5.9951491     340.4303  0.042153331  0.042564057            2 
  674000    1.1360361   -5.9747387    340.11564  0.042051884  0.042558015            3 
  675000    1.1434064   -5.9840091    339.79593  0.041950115  0.042552321            6 
  676000    1.1480772   -5.9690118    339.98789  0.041911723  0.042545532            2 
  677000    1.1539112   -5.9920973    341.40704    0.0420245  0.042539523            2 
  678000    1.1393948   -6.0165343    340.54853  0.041856998   0.04253255            2 
  679000    1.1634275   -5.9876055    340.70214  0.041814204  0.042526292            2 
  680000    1.1505287   -5.9985903    341.04584  0.041794833  0.042519242            4 
  681000    1.1304219    -6.016571    341.94682  0.041843713  0.042511561            2 
  682000    1.1451158   -5.9731473    343.63136  0.041988192  0.042504638            5 
  683000    1.1612442   -5.9844973    343.06254  0.041857314  0.042497659            3 
  684000    1.1631932   -5.9479008     344.2017  0.041934904  0.042490196            6 
  685000    1.1432916    -5.964581    344.58582  0.041920416  0.042482827            4 
  686000     1.144675   -5.9854439      344.883  0.041895409  0.042475338            3 
  687000    1.1465528   -6.0100089    343.85327  0.041709519  0.042467143            3 
  688000    1.1459005   -6.0186093    343.50418  0.041606611   0.04245916            2 
  689000    1.1739302   -6.0042622    344.36658   0.04165053  0.042450907            3 
  690000    1.1645927   -6.0033502    345.53045   0.04173073  0.042442791            7 
  691000    1.1240173   -6.0276969    345.25646  0.041637296  0.042434618            6 
  692000    1.1286694   -5.9631302    347.53371  0.041851362  0.042426843            4 
  693000    1.1313991   -6.0079991    347.00816  0.041727773  0.042419788            4 
  694000    1.1262808   -5.9938127    347.84951  0.041768673  0.042412538            4 
  695000    1.1521854   -5.9982244    347.46466  0.041662429   0.04240505            3 
  696000    1.1697583   -5.9335355     350.1212  0.041920641  0.042397614            4 
  697000    1.1473259   -5.9554952    350.02757  0.041849303   0.04239064            4 
  698000     1.165521   -5.9715682     349.9466   0.04177968  0.042383339            2 
  699000    1.1414604   -5.9566998    350.98669  0.041843907  0.042376447            3 
  700000    1.1379926   -5.9567185    351.66837  0.041865282  0.042369139            2 
  701000    1.1423995   -5.9712864    352.05941  0.041852046  0.042362223            3 
  702000    1.1363341   -5.9743222    352.63995  0.041861343  0.042355736            2 
  703000    1.1264467   -5.9980752    352.49653  0.041784795   0.04234953            9 
  704000    1.1307357   -6.0528091    351.29018  0.041582644   0.04234268            4 
  705000    1.1390218   -6.0146324    353.28789  0.041759798  0.042335521            3 
  706000    1.1280028   -6.0106301    352.54617  0.041613098  0.042328463            2 
  707000     1.139596   -5.9794703    354.15798  0.041744222   0.04232215            5 
  708000    1.1381129   -5.9950963    354.65088  0.041743277  0.042315529            3 
  709000    1.1276841   -6.0121701     353.1334  0.041506041  0.042307995            3 
  710000    1.1445762   -5.9915202    355.85841   0.04176742  0.042300953            4 
  711000    1.1471402   -5.9807063    355.05567  0.041614589  0.042293828            2 
  712000    1.1320805   -5.9942286    355.71602  0.041633429  0.042286782            3 
  713000    1.1234884   -6.0140978    355.22478  0.041517623  0.042279289            5 
  714000    1.1436863   -5.9986794    356.56207  0.041615554  0.042270916            2 
  715000    1.1426046   -6.0162046    356.90565  0.041597395   0.04226363            2 
  716000    1.1260453   -6.0129968     357.4271  0.041599988  0.042256261            4 
  717000    1.1606329   -5.9818978    357.59973  0.041562033  0.042248936            2 
  718000     1.138191   -6.0475629     358.5172  0.041610631  0.042241472            2 
  719000    1.1197516   -5.9896335    358.63604  0.041566532  0.042233828            2 
  720000     1.121856   -5.9933195     358.3188  0.041472083  0.042225458            4 
  721000    1.1319256   -6.0271053    357.26909  0.041293237  0.042216722            2 
  722000        1.132   -5.9629668    360.36838  0.041593765  0.042207939            1 
  723000    1.1326467   -5.9955306    359.22542  0.041404497  0.042199774            2 
  724000    1.1270015   -5.9870703    359.90216  0.041425203  0.042190518            4 
  725000    1.1240807   -6.0315778     358.1442  0.041165999  0.042181215            4 
  726000    1.1478782   -6.0135827    361.19925  0.041459969  0.042172683            3 
  727000    1.1573987   -5.9804983    362.51277  0.041553504  0.042164686            2 
  728000      1.14239   -5.9989526    361.95174  0.041432205  0.042156359            1 
  729000    1.1263547   -6.0087249    362.47401  0.041435072  0.042147988            3 
  730000    1.0961383   -5.9818777    363.04628  0.041443639  0.042139245            3 
  731000    1.1206813   -6.0038745    364.03097  0.041499199  0.042131301            2 
  732000    1.1263719    -6.022415    363.24872  0.041353452  0.042122761            9 
  733000    1.1326576   -6.0331544    362.86745   0.04125369   0.04211465            5 
  734000    1.1265577   -6.0197029    363.76101  0.041298934  0.042106306            9 
  735000    1.1355747   -5.9646837    364.98967  0.041382049  0.042097786            4 
  736000    1.1378548   -6.0082928    366.46525  0.041492895   0.04208892            5 
  737000    1.1181343   -5.9831674    366.08758  0.041393892  0.042080473            7 
  738000    1.1107324   -5.9978946    365.70909  0.041295064  0.042071974            2 
  739000    1.1239103   -5.9780042    366.37462  0.041314233  0.042063708            2 
  740000    1.1676689   -5.9912886    366.64668   0.04128904  0.042055332            2 
  741000    1.1039524   -6.0202621    366.73484  0.041243234  0.042046428            2 
  742000    1.1401442   -5.9898553    366.94067  0.041210767   0.04203796            6 
  743000    1.1220434   -6.0335491    368.12996   0.04128869  0.042030077            3 
  744000    1.1238756   -5.9902362    368.95353   0.04132544  0.042021448            2 
  745000    1.1296722   -5.9170009    372.02104  0.041613091  0.042014015            1 
  746000    1.1219049   -6.0615631    368.94342  0.041213518  0.042005627            4 
  747000    1.1180742   -5.9482216    370.28166  0.041307637  0.041996911            1 
  748000    1.1374923   -5.9888274    370.07232  0.041229091  0.041988149            2 
  749000    1.1109019   -5.9895554    370.55245  0.041227465  0.041979264            2 
  750000    1.1113099   -6.0131954     370.9547  0.041217189  0.041969626            2 
  751000    1.1399623   -6.0433098    370.31626  0.041091463  0.041960308            2 
  752000     1.118928   -6.0347625    371.99111   0.04122242  0.041951273            5 
  753000     1.120249   -6.0179368    371.52905  0.041116539  0.041942286            3 
  754000    1.1247761   -5.9762746    373.89366  0.041323349  0.041933186            2 
  755000    1.1368584   -5.9891332    373.71452  0.041248843  0.041924464            3 
  756000    1.1465006   -5.9910996    373.78673  0.041202241  0.041915728            1 
  757000    1.1258179   -6.0143533    373.63135  0.041130707  0.041906514            3 
  758000    1.1224782    -6.021422    372.88544  0.040994442  0.041897388            1 
  759000     1.122042   -6.0205272    373.92885   0.04105499  0.041888101            4 
  760000    1.1610855   -6.0177426     375.6001  0.041184221  0.041878878            3 
  761000    1.1663783   -6.0145589     373.8245  0.040935666  0.041869366            2 
  762000    1.1479922   -5.9986844    375.30761   0.04104414  0.041859868            3 
  763000    1.1397996   -6.0121984    374.54117  0.040906637  0.041849964            2 
  764000    1.1017253   -6.0021575    376.64157  0.041082196    0.0418402            2 
  765000    1.1414863   -6.0316856    375.35475  0.040888317  0.041830525            4 
  766000    1.1264955   -6.0430402    375.10342  0.040807596  0.041820787            2 
  767000    1.1211686   -6.0026783    376.24844  0.040878796  0.041810658            4 
  768000    1.1291391   -6.0280371    377.18563   0.04092726  0.041800874            3 
  769000     1.122314   -6.0341777    377.59607  0.040918516  0.041790977            3 
  770000    1.1255892   -6.0056672      377.264  0.040829438  0.041780579            2 
  771000    1.1067485   -5.9810184    378.92562  0.040956077   0.04177023            4 
  772000    1.1525449   -6.0764021    376.94822  0.040689575   0.04175979            6 
  773000    1.1348704   -5.9753093    379.16992  0.040876447  0.041749667            4 
  774000    1.1448825   -5.9992088    380.80103  0.040999249  0.041739978            5 
  775000     1.117979   -6.0159036    378.15142  0.040661443  0.041729708            4 
  776000    1.1105243   -6.0540171    378.59108  0.040656259  0.041719634            5 
  777000    1.1398995   -6.0013296    379.73596  0.040726722  0.041709457            2 
  778000    1.1201165   -5.9646324    382.95047  0.041018688  0.041699078            2 
  779000    1.1223294   -6.0343857    380.97531   0.04075474  0.041689042            1 
  780000    1.1369614   -5.9735633    382.03085  0.040815261   0.04167926            3 
  781000    1.0920281   -6.0046351    382.98623  0.040864941  0.041669178            3 
  782000    1.1355062   -6.0122581    384.03377  0.040924315  0.041659631            3 
  783000    1.1475473   -5.9940759    383.25053   0.04078869  0.041650117            7 
  784000    1.1265944   -6.0269898    384.07316  0.040824103  0.041640525            5 
  785000    1.1315492   -6.0122416    384.07914  0.040772733  0.041630711            1 
  786000    1.1131135    -6.016212    384.88982  0.040806809  0.041621155            4 
  787000    1.1180769   -6.0312791    386.37753  0.040912487  0.041611577            4 
  788000    1.1456724   -5.9825938    386.28238  0.040850505  0.041602472            2 
  789000    1.1520259   -6.0404768    386.25054  0.040795367  0.041592275            4 
  790000    1.1361458   -5.9840934    387.39197  0.040864132   0.04158245            3 
  791000    1.1379394   -6.0098088    387.14054  0.040785982  0.041573366            4 
  792000    1.1150125   -6.0341743    387.52837  0.040775291  0.041563603            2 
  793000    1.1206153   -6.0238552    387.51716  0.040722694  0.041553853            4 
  794000    1.1502265   -6.0432454    387.64797  0.040685135   0.04154345            2 
  795000     1.133923   -6.0275057    389.62018  0.040840689  0.041533371            1 
  796000    1.1220966   -6.0147557    389.57472  0.040784624  0.041523407            2 
  797000    1.1213321   -6.0610507    387.59317  0.040526261  0.041513449            2 
  798000    1.1340064   -6.0126082    390.98128   0.04082929  0.041503939            4 
  799000    1.1189837    -6.027512     391.0569  0.040786076  0.041494366            2 
  800000    1.1303014   -6.0548754    389.98402  0.040623336  0.041484821            4 
  801000    1.1286186    -6.022126    392.42717  0.040826796  0.041474747            6 
  802000    1.1326483   -6.0252047    393.02957  0.040838484  0.041465311            4 
  803000    1.1254687   -6.0147446    392.72894  0.040756428  0.041456028            2 
  804000    1.1002972   -6.0590281    391.41283  0.040569323  0.041446484            4 
  805000    1.1308293   -5.9973353    393.86239  0.040772504  0.041437058            4 
  806000    1.1294367   -6.0320195    393.58036  0.040692758  0.041428022            3 
  807000    1.1181894   -6.0519381    393.54675  0.040638863  0.041418286            2 
  808000    1.1220355   -6.0244264    394.07958  0.040643521  0.041408758            2 
  809000     1.130096   -6.0452876    392.64116  0.040445113  0.041398885            3 
  810000    1.1212247    -6.009274    395.23795   0.04066234  0.041389423            3 
  811000    1.1197723   -6.0172915     394.7082  0.040557768  0.041379764            4 
  812000    1.1318421   -6.0614328    394.30253  0.040466188  0.041369866            3 
  813000    1.1045699   -6.0379777    396.17605  0.040608452  0.041359525            3 
  814000    1.1057131   -6.0122713    396.79783  0.040622218  0.041349274            3 
  815000    1.1377863   -6.0425046    394.94526  0.040382951  0.041338975            2 
  816000     1.118613   -6.0193428    396.20656  0.040462271  0.041328357            4 
  817000    1.1257754   -6.0521608    396.79797  0.040473069  0.041317985            5 
  818000    1.1086736   -6.0253697    397.74081  0.040519642  0.041308064            3 
  819000    1.0997881   -6.0651833    396.60542  0.040354642  0.041297975            4 
  820000    1.1150265   -6.0492377     398.0698  0.040454248  0.041287607            3 
  821000    1.1015404   -6.0821664    397.75591  0.040373113  0.041278003            3 
  822000    1.1046653   -6.0322689     400.1257  0.040564244  0.041268311            2 
  823000    1.1200793   -6.0406906    399.46663   0.04044822  0.041258874            4 
  824000    1.1224088   -6.0110489    400.98274  0.040552461  0.041249093            7 
  825000    1.1324345   -6.0132427     400.9505  0.040500051  0.041239497            2 
  826000     1.110291     -6.03906    400.65657  0.040421365  0.041229804            4 
  827000    1.1108494   -6.0515965    401.37648   0.04044503   0.04122027            2 
  828000    1.1394572    -6.080772    401.28288  0.040386764   0.04121003            3 
  829000    1.1256636   -6.0494307    402.18993  0.040429225  0.041200318            4 
  830000    1.1137161   -6.0169129    402.77128  0.040438883  0.041190519            4 
  831000    1.1049113    -6.058367    403.04109  0.040417277  0.041180615            3 
  832000     1.123925   -6.0613743    402.99633  0.040364215  0.041170853            3 
  833000    1.1185544   -5.9845894    403.90842  0.040407005  0.041161457            3 
  834000    1.1285195   -6.0564801    406.46954  0.040614462  0.041152279            2 
  835000    1.0924492   -6.0052694    406.41801   0.04056068  0.041142903            3 
  836000    1.1144003   -6.0392194    406.63421  0.040533713  0.041133554            3 
  837000    1.1193388   -6.0110825    405.09466  0.040332005  0.041124353            7 
  838000    1.1184929   -6.0666996    405.54167  0.040328329  0.041115192            5 
  839000    1.1234971   -6.0654451    406.21331  0.040346972  0.041105947            6 
  840000    1.1277163   -6.0740997    406.89109   0.04036618  0.041096294            4 
  841000    1.1325615   -6.0516696    407.93672  0.040421791  0.041086683            2 
  842000    1.1175307   -6.0513922     406.1813  0.040200049  0.041077348            4 
  843000    1.1080431   -6.0552481    407.97142  0.040329322  0.041068235            3 
  844000    1.1116714    -5.991338    410.37331  0.040518692  0.041059363            1 
  845000    1.1215398   -6.0373111    409.15526  0.040350617    0.0410503            4 
  846000    1.1585845   -6.0481229     409.3361  0.040320735  0.041041022            1 
  847000     1.137498   -6.0746549    409.90332  0.040328937  0.041031637            3 
  848000    1.1184641   -6.0549867    411.25537  0.040414246   0.04102289            2 
  849000    1.1326853   -6.0187012    411.15608  0.040356899  0.041013956            4 
  850000    1.1090796   -6.1143074    409.51034  0.040148072  0.041005019            1 
  851000    1.1390757   -6.0221696    411.37781  0.040283765  0.040995907            3 
  852000    1.0913454   -6.0468278    413.36629  0.040430976   0.04098681            5 
  853000    1.1401063   -6.0681653    411.37503  0.040189042  0.040977225            3 
  854000     1.116703    -6.046063    414.16772  0.040414493  0.040968481            2 
  855000    1.1142097   -6.0606531    413.97697  0.040348632  0.040960251            5 
  856000    1.1189807   -6.0970956    414.22842  0.040325976  0.040951197            3 
  857000    1.1297962   -6.0346845    416.04434  0.040455498  0.040943004            2 
  858000    1.1048562    -6.050395    414.91428   0.04029859  0.040934746            3 
  859000     1.111592   -6.0833413    414.56486  0.040217779  0.040925848            2 
  860000    1.1290439   -6.0471912    414.52649  0.040167295  0.040916637            3 
  861000    1.1089767   -6.0720879    415.87688  0.040251343  0.040907376            2 
  862000    1.1073729   -6.0388897    416.93323   0.04030677  0.040898373            4 
  863000    1.1078252   -6.0690638    416.17562  0.040186908  0.040889273            3 
  864000    1.1168789   -6.0367026    417.63317  0.040280977  0.040880414            3 
  865000    1.0909582    -6.088667    415.26128  0.040005903  0.040871076            3 
  866000    1.1086231   -6.0621323    416.77347  0.040105223  0.040861811            3 
  867000    1.1057235   -6.0816151    417.09046  0.040089433  0.040852826            3 
  868000    1.1010242    -6.025814    418.71682  0.040199388  0.040843406            3 
  869000    1.1242039   -6.0748343    418.57398  0.040139431  0.040833859            2 
  870000    1.1111171   -6.0446341    418.72346  0.040107611  0.040824306            3 
  871000    1.1147229   -6.0867733    418.76276  0.040065323  0.040814883            6 
  872000    1.1065592   -6.0559586    418.11099   0.03995709  0.040805009            3 
  873000    1.1036073   -6.0601789    418.98684  0.039994926  0.040795328            2 
  874000    1.0908719   -6.0284682    420.67412  0.040110042  0.040785615            4 
  875000    1.0931384   -6.0675459    422.10704   0.04020067  0.040776289            2 
  876000    1.1249572   -6.0570857    421.29946  0.040077955  0.040766874            5 
  877000    1.1135887   -6.0513729    421.98302  0.040097208  0.040757115            6 
  878000    1.1421303   -6.0618092    421.84922   0.04003884  0.040747798            2 
  879000    1.1114192    -6.091034    422.29563  0.040035612  0.040738725            3 
  880000    1.1128523   -6.0559874    421.88057  0.039950812  0.040729082            4 
  881000    1.0995377   -6.0594671    422.94094  0.040005765  0.040719412            4 
  882000    1.1145145    -6.057083    422.63179  0.039931197  0.040709733            2 
  883000     1.104077   -6.0597901    424.69179  0.040080388  0.040700241            3 
  884000    1.1108712   -6.0446588    424.81945  0.040047083  0.040690807            2 
  885000     1.115551   -6.0862463    423.07235  0.039837321  0.040681298            5 
  886000    1.1093688   -6.0643185    425.98416  0.040066231  0.040671529            7 
  887000    1.1113973   -6.0391232    426.41561  0.040061595  0.040661942            2 
  888000    1.0958631   -6.0667981     424.6847  0.039854045  0.040652278            2 
  889000    1.0994087   -6.0594564    425.59739  0.039894768   0.04064276            2 
  890000     1.112525   -6.0686615    427.32177  0.040011401  0.040632873            2 
  891000     1.096893   -6.0413162    427.54294  0.039987181   0.04062313            2 
  892000    1.1219369   -6.0831596    427.01064  0.039892624  0.040613475            7 
  893000    1.1125774   -6.0067022    427.24424   0.03986975  0.040603439            7 
  894000    1.1311893   -6.0594972    426.22862  0.039730482  0.040593707            5 
  895000    1.1141606   -6.0485916    426.58076  0.039718879  0.040583743            2 
  896000    1.1016167    -6.074986    425.64509  0.039587527  0.040573107            3 
  897000    1.0955682    -6.085289    426.94221  0.039663899   0.04056246            2 
  898000    1.0857426    -6.068852    428.67852  0.039780857  0.040552047            4 
  899000    1.1156921   -6.0741109    428.73762  0.039742086  0.040541691            4 
  900000    1.1172351   -6.0693142    428.65206  0.039690006  0.040531418            2 
  901000    1.1358128   -6.0548916    430.04869  0.039775128  0.040521512            2 
  902000    1.1108288   -6.0753115    429.39074  0.039670246  0.040511377            4 
  903000    1.1128285   -6.0653934    430.70183  0.039747308  0.040500901            2 
  904000    1.0886413   -6.0763265    430.57451  0.039691603  0.040490383            3 
  905000    1.0887342   -6.0991099     430.4418  0.039635525  0.040480336            3 
  906000    1.1095301   -6.0408143    432.50054  0.039781138   0.04047036            2 
  907000    1.0913138   -6.0831291    431.93033  0.039684888  0.040459968            3 
  908000    1.1186196   -6.0503953    433.18181   0.03975604  0.040449813            4 
  909000    1.1103301   -6.0683028    432.81386  0.039678572  0.040439795            4 
  910000    1.0884539    -6.089528    432.56805  0.039612458  0.040429537            3 
  911000    1.1055847   -6.0952777    432.58605  0.039570623  0.040419125            2 
  912000    1.1125901   -6.0925819    433.30746  0.039593152  0.040408723            2 
  913000    1.1020027   -6.0285613    436.58518  0.039848958  0.040398591            5 
  914000    1.1280252   -6.0599754    434.57309  0.039621908  0.040388411            4 
  915000    1.1133233   -6.0713766    434.18127   0.03954292  0.040378557            2 
  916000    1.0885471   -6.0681782    435.66527  0.039634759  0.040368495            5 
  917000    1.1116861   -6.0562357    435.46108   0.03957298  0.040358186            4 
  918000    1.0946319   -6.0385367    436.00769  0.039579492   0.04034753            3 
  919000    1.1008278   -6.0389903    438.02161  0.039719044  0.040337166            9 
  920000    1.0967882   -6.0575359    437.51026  0.039629553  0.040326795            2 
  921000    1.1057902   -6.0524785    438.73114  0.039696991   0.04031698            3 
  922000    1.1098536   -6.0769923    438.98055  0.039676478  0.040307017            3 
  923000    1.0992131   -6.0877779    437.83397  0.039529972  0.040296831            2 
  924000    1.0963425   -6.0878551    439.87632  0.039671386  0.040286446            2 
  925000    1.0976598    -6.052254    440.46086  0.039681159  0.040275923            1 
  926000     1.103015   -6.0883754    438.51446  0.039463144  0.040265402            2 
  927000    1.1023933   -6.0821275    438.72856  0.039439821  0.040254399            3 
  928000    1.0944035   -6.0863245     439.6856  0.039483262  0.040243739            3 
  929000    1.0812249    -6.076628    440.27496  0.039493627  0.040233197            3 
  930000    1.0883079   -6.1014195    438.73976  0.039313598  0.040222642            3 
  931000    1.1140196   -6.0892994    439.69984  0.039357308   0.04021191            7 
  932000    1.1181893   -6.0637417     440.5975  0.039395341   0.04020146            3 
  933000    1.1084553    -6.057794     443.3839  0.039601992  0.040191349            3 
  934000    1.0855802   -6.0630367    443.20817  0.039543912  0.040181112            4 
  935000    1.0930732   -6.0695363    443.34402  0.039513728  0.040170965            5 
  936000    1.0783635   -6.0671215    440.52627  0.039220644  0.040160986            3 
  937000    1.1107666   -6.0684948     443.5559  0.039448231  0.040151094            2 
  938000    1.1115733   -6.0485799    444.07854  0.039452607  0.040141263            4 
  939000    1.1003509   -6.0789878    443.84812  0.039390142  0.040131015            3 
  940000    1.1177993   -6.0757653    443.42384  0.039310624  0.040120374            2 
  941000    1.1173967   -6.1076349    442.95516  0.039227343  0.040109881            1 
  942000    1.0930798   -6.0812298    442.67051  0.039160519  0.040098926            2 
  943000    1.1038612   -6.0751054    445.43446  0.039363243  0.040088599            3 
  944000    1.1000851   -6.1036048    444.99315  0.039282587   0.04007796            3 
  945000     1.108725    -6.054793    446.03876  0.039333224  0.040067095            5 
  946000    1.1095406   -6.0564292    446.10585  0.039297555  0.040056538           10 
  947000    1.1023393   -6.0732666    444.78116   0.03913949  0.040045726            4 
  948000    1.1010716   -6.0979819    447.46467  0.039334096  0.040034836            2 
  949000    1.0895042   -6.1116126    446.54676  0.039212044  0.040024175            1 
  950000    1.1091414   -6.0972174     446.3894  0.039156965   0.04001305            2 
  951000    1.0896518   -6.0851215    448.95891  0.039340949   0.04000255            4 
  952000    1.1205406   -6.1100277    447.58966  0.039179767  0.039991961            4 
  953000     1.114202   -6.0584218    449.03831   0.03926533  0.039981384            4 
  954000    1.0864668    -6.081216    449.23697  0.039241524  0.039971089            2 
  955000    1.0967778   -6.1254951     448.8456  0.039166282  0.039960203            3 
  956000    1.0914712   -6.0520145    450.21416   0.03924461  0.039949643            4 
  957000    1.0891581    -6.073688    449.67586  0.039156728  0.039939233            1 
  958000    1.1177839   -6.0841128    450.71893  0.039206587  0.039929249            5 
  959000    1.1136947   -6.0684867    451.82708  0.039261999  0.039919234            4 
  960000    1.0796668   -6.0606838    452.07801  0.039242882  0.039908887            3 
  961000    1.0934965   -6.1067178    451.90474  0.039187022   0.03989849            2 
  962000    1.0950768   -6.0741002    453.93238  0.039321932  0.039888254            2 
  963000    1.0764983    -6.104766    451.75457  0.039092642  0.039877529            4 
  964000     1.070034    -6.108442    451.16112  0.039000789  0.039866797            2 
  965000    1.0643591   -6.0806719    453.45504  0.039158467  0.039856241            5 
  966000    1.1000152   -6.0861952    454.64821   0.03922086  0.039846032            2 
  967000    1.0928003   -6.0906587    454.90866  0.039202745  0.039835774            5 
  968000    1.0755636   -6.0812766    454.83382  0.039155804  0.039825442            4 
  969000    1.1030019   -6.0612857    456.15715  0.039229201  0.039815027            1 
  970000    1.0919125   -6.0584951    456.08788  0.039182808  0.039804748            2 
  971000    1.1099202   -6.1306749    453.97215  0.038960878  0.039794103            4 
  972000    1.0816229   -6.0956455    454.18671   0.03893919  0.039783562            4 
  973000     1.092251   -6.0674707    455.28029   0.03899283  0.039773288            3 
  974000     1.061737   -6.1530724    452.77582   0.03873852  0.039762434            4 
  975000    1.1242049   -6.0624067    456.82403  0.039044789  0.039751652            6 
  976000    1.1340687   -6.1285029    455.01485  0.038850312  0.039740964            2 
  977000    1.0711597   -6.0719051    456.06467  0.038900092  0.039730042            5 
  978000    1.1010218   -6.0720923    458.10912  0.039034519   0.03971935            5 
  979000     1.091066    -6.138557    456.99678  0.038899964  0.039708416            4 
  980000       1.1012   -6.0762866    458.85796  0.039018534  0.039698028            3 
  981000    1.0919902   -6.1091563    458.71148  0.038966317  0.039687389            4 
  982000     1.093479   -6.1085529    458.96969  0.038948548  0.039677055            8 
  983000    1.0670149   -6.0629262    459.69949  0.038970794  0.039666372            2 
  984000    1.0786243   -6.1255536    459.67933  0.038929482  0.039656171            4 
  985000    1.0763341    -6.099496    459.39744  0.038866111  0.039645856            4 
  986000    1.0954755   -6.0940222    459.73063  0.038854854  0.039635356            3 
  987000    1.0974873   -6.0946481     460.3504  0.038867815  0.039624521            3 
  988000    1.0986906   -6.1069996    462.42422  0.039003392  0.039614103            4 
  989000    1.0708816   -6.1301655    459.45506  0.038713773  0.039603719            4 
  990000    1.0728493   -6.0895019     462.9203  0.038966356   0.03959325            4 
  991000    1.1084143   -6.1220162    463.11041  0.038943022  0.039582976            3 
  992000    1.1031953   -6.1224987    462.40007  0.038844092  0.039572499            2 
  993000    1.0876965    -6.087962     461.6072  0.038738435  0.039562413            4 
  994000     1.105258   -6.0880484    463.78458  0.038882007  0.039552108            2 
  995000    1.1028336   -6.1432001     463.8219  0.038846055  0.039541746            2 
  996000     1.071473   -6.0922916    462.92944  0.038732383  0.039531186            5 
  997000    1.1014889    -6.148354    462.11471  0.038625435  0.039520593           16 
  998000    1.0770009   -6.1271376    462.96257  0.038657529  0.039509972            2 
  999000    1.1070207   -6.1142226    466.30201  0.038897399  0.039499843            2 
 1000000     1.077719   -6.1072764    466.23047  0.038852539  0.039490083            2 
 1001000    1.1073442   -6.1107261    467.23801  0.038897603  0.039480118            2 
 1002000     1.120024   -6.1355561    465.74835  0.038734892  0.039469758            4 
 1003000    1.1346587   -6.0960527    465.87286  0.038706618  0.039459512            4 
 1004000    1.0773332   -6.1260873    464.90937  0.038588095  0.039449188            4 
 1005000    1.0884319   -6.1096634    467.02312  0.038724968  0.039438753            3 
 1006000    1.0982445   -6.0879491    466.28495  0.038625327  0.039428315            3 
 1007000    1.0871837   -6.1135011    468.57294  0.038776311  0.039418569            3 
 1008000    1.0941168   -6.1359871    468.12069  0.038700454  0.039408505            3 
 1009000    1.1106566   -6.0750273    470.69658  0.038874841  0.039398753            2 
 1010000    1.1116063   -6.1352588    470.45121  0.038816106  0.039388819            2 
 1011000    1.0959741   -6.0946683    471.31305  0.038848751  0.039379124            1 
 1012000    1.0974067   -6.1265591    469.10315  0.038628388  0.039369458           10 
 1013000    1.0848689   -6.0906002    470.10311  0.038672516  0.039359665            7 
 1014000    1.1027918   -6.0835511    470.56894  0.038672661  0.039349556            5 
 1015000    1.0832733   -6.1073953    471.96539  0.038749211  0.039339191            3 
 1016000    1.0692451   -6.0774603     471.4882  0.038671932  0.039328961            2 
 1017000    1.0922233   -6.1504799    470.18674  0.038527265   0.03931888            6 
 1018000    1.0757378   -6.0954039    473.18701  0.038735021  0.039308594            2 
 1019000    1.0729689   -6.0809017    472.05054  0.038604068  0.039298006            4 
 1020000    1.1149396   -6.0967977    474.02918  0.038727874  0.039287607            4 
 1021000    1.0867848   -6.1476857    472.75815  0.038586203  0.039277182            3 
 1022000    1.0950265   -6.0913573    473.03043  0.038570648  0.039266756            2 
 1023000    1.0748142   -6.1132492     471.2363  0.038386795  0.039255991            5 
 1024000    1.0658294   -6.0972505    474.30448  0.038598998  0.039245517            5 
 1025000    1.1009887   -6.0678036    475.30799  0.038642926  0.039235142            3 
 1026000    1.0991507   -6.1157551    474.83554  0.038566889  0.039225093            5 
 1027000    1.1169094   -6.1220426    474.77065  0.038524071  0.039214779            3 
 1028000    1.0782026   -6.1113437    475.47175   0.03854343  0.039204261            4 
 1029000    1.0789463   -6.1031537    476.54807  0.038593138  0.039194002            4 
 1030000     1.100226   -6.1630336    474.90915  0.038423071  0.039183433            2 
 1031000    1.0975666   -6.1064723    476.50472  0.038514769  0.039173312            2 
 1032000    1.0868749   -6.0794894    476.22883   0.03845517  0.039163294            3 
 1033000    1.0691046   -6.0735993    479.05424  0.038645873  0.039153266            2 
 1034000     1.081805   -6.1109093    478.01002  0.038524341  0.039143172            3 
 1035000    1.0943662   -6.1131554    476.91327  0.038398814  0.039132719            4 
 1036000    1.0806502   -6.1752863    476.56945  0.038334093  0.039122017            6 
 1037000     1.064948    -6.184403    477.27648  0.038353944  0.039111174            5 
 1038000    1.0517201   -6.1260405    477.01216  0.038295774  0.039100521            6 
 1039000    1.0892437   -6.1580644    478.75048  0.038398338  0.039090093            2 
 1040000    1.0807881   -6.1356498    479.66207  0.038434461  0.039079766            3 
 1041000     1.065296   -6.0883959     481.9947   0.03858427  0.039069529            3 
 1042000    1.0877435   -6.1156075    480.11005  0.038396517   0.03905969            2 
 1043000    1.0712966   -6.1511961    480.04166  0.038354239  0.039049768            4 
 1044000    1.0706664   -6.1046385    480.96955  0.038391567  0.039039447            3 
 1045000    1.0856071   -6.1401041    479.34751  0.038225479  0.039029096            4 
 1046000    1.0719804   -6.1055145    482.20748  0.038416785  0.039018861            4 
 1047000     1.096408   -6.1083411    482.15952  0.038376275  0.039008629            2 
 1048000    1.0815775   -6.1853033    480.35072  0.038195827  0.038998096            3 
 1049000    1.0727045   -6.1261572    482.35145  0.038318354  0.038987634            6 
 1050000     1.109577   -6.1502701    481.62763  0.038224415  0.038977286            2 
 1051000    1.0825145   -6.1185088    482.31374  0.038242447  0.038967341            4 
 1052000     1.066738   -6.0899242    484.75732  0.038399661  0.038957533            3 
 1053000     1.080702   -6.1192599    484.86461  0.038371685  0.038947413            3 
 1054000     1.094735   -6.1114164    485.48835  0.038384594  0.038937305            2 
 1055000    1.0689596   -6.1907749    483.47751  0.038189377  0.038927248            3 
 1056000     1.076051   -6.1359179    485.85218  0.038340607  0.038917156            2 
 1057000    1.0854031   -6.1082823    486.99378  0.038394338  0.038907023            3 
 1058000    1.0680293   -6.1502841    484.92356  0.038194988  0.038897239            3 
 1059000    1.0663132   -6.1273453    487.99909  0.038400936  0.038887361            3 
 1060000    1.0927215   -6.0726367    487.36138  0.038314574  0.038877684            3 
 1061000    1.0773911   -6.0963097    486.48841  0.038209897  0.038868064            4 
 1062000    1.0628711   -6.1460383     489.4596  0.038407062  0.038858409            6 
 1063000    1.1087463   -6.1354407    487.88448  0.038247451  0.038848665            2 
 1064000    1.0817847   -6.0916892    489.86886  0.038366922  0.038838916            4 
 1065000    1.0843752   -6.1238039    490.75761  0.038400439  0.038829284            4 
 1066000    1.1221682   -6.1276588    491.18933  0.038398166  0.038820278            4 
 1067000     1.065299   -6.1312952    490.19826  0.038284775   0.03881087            2 
 1068000    1.0599557   -6.0849756    491.96987  0.038387162  0.038802039            3 
 1069000     1.121457    -6.094311     491.6067  0.038322942  0.038792751            1 
 1070000     1.076571   -6.1052319    491.26296  0.038260355  0.038783324            2 
 1071000    1.0902862   -6.1204803    492.69427     0.038336  0.038774132            1 
 1072000    1.0851099   -6.1560213    491.50485  0.038207777  0.038764816            3 
 1073000    1.0730001   -6.1040714    493.63064  0.038337266  0.038755286            8 
 1074000    1.0778944   -6.1534836    492.91975  0.038246412  0.038745907            4 
 1075000    1.0956428   -6.1459431    492.61133  0.038186925  0.038736537            3 
 1076000    1.0990879   -6.1409382    493.86167  0.038248271   0.03872734            3 
 1077000    1.0730742   -6.1097046     494.4927  0.038261583  0.038718118            5 
 1078000    1.0716096   -6.1298327    495.15122  0.038276996  0.038709224            3 
 1079000    1.0618967   -6.1319315    495.30011   0.03825302  0.038699983            6 
 1080000    1.1086833   -6.0881201    497.70599   0.03840324  0.038691359            5 
 1081000    1.0638983    -6.087609    496.86031  0.038302522  0.038682558            2 
 1082000    1.0592763   -6.1541599    495.76959  0.038183117  0.038673506            3 
 1083000    1.1007649   -6.1064178    495.84964  0.038154019  0.038664222            3 
 1084000    1.0677221   -6.1213531    499.10075  0.038368754  0.038655077            2 
 1085000    1.0919224   -6.1350978     500.0845  0.038408948  0.038646398            4 
 1086000    1.0798103   -6.1562714    498.17557  0.038227101  0.038637522            2 
 1087000    1.0738829   -6.0941674    499.66248  0.038305925   0.03862883            6 
 1088000    1.0758038   -6.1137045    501.25421  0.038392632  0.038620707            5 
 1089000    1.0616712   -6.0981774    500.84288  0.038325902  0.038612563            3 
 1090000    1.0747795   -6.1462224    499.14057  0.038160594   0.03860425            4 
 1091000    1.0812948    -6.139727     500.6315  0.038239497  0.038595552            3 
 1092000    1.0646522   -6.1478435    500.66803  0.038207267   0.03858666            3 
 1093000    1.0967218   -6.1385156    499.97397  0.038119394  0.038577606            4 
 1094000    1.0800166   -6.1433417    499.27526  0.038031327  0.038568626            3 
 1095000    1.1083885   -6.1251531    499.45207  0.038010051  0.038559575            7 
 1096000    1.0824911   -6.1454571      500.574  0.038060675  0.038550707            3 
 1097000    1.0814765   -6.1445365    500.76351  0.038040376  0.038541291            8 
 1098000    1.0794697    -6.141189      501.415  0.038055176  0.038532056            3 
 1099000    1.0754843   -6.1257281    500.24231  0.037931628  0.038522581            4 
 1100000    1.0633652   -6.1522175    503.50805  0.038144549  0.038512766            2 
 1101000    1.0606989   -6.1469554    502.58697  0.038040188  0.038503585            4 
 1102000    1.0506734   -6.1561978    501.08945  0.037892427  0.038494184            8 
 1103000    1.0779028   -6.1532864    502.69117  0.037979085   0.03848444            3 
 1104000    1.0901945   -6.1568362    501.68366  0.037868634  0.038474851            8 
 1105000    1.0790007   -6.1715569    502.43415  0.037890961  0.038464951            2 
 1106000    1.0849564    -6.100506    504.95498  0.038046638  0.038455419            3 
 1107000    1.0607621   -6.1368528    505.15518  0.038027339  0.038446133            5 
 1108000    1.0712442   -6.1808793    504.36032  0.037933237  0.038436483            3 
 1109000    1.0633353   -6.1371328    505.43838  0.037980041  0.038427143            4 
 1110000    1.0709204   -6.1367802    505.74092  0.037968537  0.038417745            3 
 1111000    1.0594952    -6.129841    508.35353  0.038130328  0.038408467            3 
 1112000    1.0837176   -6.1351318    507.31212  0.038017995  0.038399409            4 
 1113000    1.0783766   -6.1341165    506.68675  0.037937013  0.038389967            2 
 1114000    1.0756162   -6.1647862    506.76437  0.037908765  0.038380862            9 
 1115000    1.0778599   -6.1870632    504.55056  0.037709309  0.038371421            4 
 1116000    1.0903498   -6.1346851    505.96428  0.037781084  0.038361561            5 
 1117000    1.0812386   -6.1688341    505.40174  0.037705293  0.038351909            2 
 1118000    1.0750995   -6.1182547    508.84837  0.037928471  0.038342146            7 
 1119000     1.067046   -6.1819832    506.24763  0.037700896  0.038332268            5 
 1120000      1.05817   -6.1493384    507.41053   0.03775376  0.038322378            3 
 1121000    1.0585242   -6.1436164    508.59717  0.037808294  0.038312324            1 
 1122000    1.0747262   -6.1469352    508.05282  0.037734167  0.038302739            6 
 1123000    1.0840987   -6.1908274    508.13768  0.037706863  0.038292875            3 
 1124000    1.0606706    -6.154739    508.93152  0.037732171  0.038283289            9 
 1125000    1.0872985   -6.1586434    508.76452  0.037686261  0.038273596            6 
 1126000    1.0596275    -6.110854    511.32818  0.037842524  0.038264295            2 
 1127000    1.0787322   -6.1238148    512.35295  0.037884719   0.03825521            2 
 1128000    1.0704258   -6.1522944    511.61825  0.037796857  0.038245731            5 
 1129000    1.0756154   -6.1603379    511.16752  0.037730109  0.038236216            4 
 1130000    1.0547762   -6.1631007    512.11991  0.037766955  0.038226982            2 
 1131000    1.0575518   -6.1662808    510.87468  0.037641813  0.038217437            3 
 1132000    1.0732387   -6.0997032    514.40721  0.037868611  0.038208225            3 
 1133000    1.0683452   -6.1734349     513.4452  0.037764431  0.038199074            5 
 1134000    1.0917657   -6.1406421    515.50085   0.03788219  0.038189995            3 
 1135000    1.0679783   -6.1297652    515.45427  0.037845394  0.038181056            3 
 1136000    1.0808092   -6.1410086    514.82585  0.037765981  0.038171683            4 
 1137000    1.0577383   -6.1570246    515.57543  0.037787704  0.038162719            2 
 1138000    1.0897409   -6.1716202    515.23974  0.037729917   0.03815358            6 
 1139000    1.0665084   -6.1053002    516.32105  0.037775904  0.038144345            3 
 1140000    1.0844631   -6.1747072    514.96506  0.037643645  0.038135259            3 
 1141000     1.073545   -6.1679969    515.20711  0.037628331  0.038125669            4 
 1142000    1.0961165   -6.1797912    515.27319  0.037600203  0.038115965            5 
 1143000    1.0600241   -6.1769923    514.12429  0.037483544  0.038106574            6 
 1144000    1.0403802   -6.1549306    516.46127  0.037621014  0.038096882            2 
 1145000    1.1054826   -6.1629928    517.59973  0.037671014  0.038087562            3 
 1146000    1.0854935   -6.1580775    518.93382  0.037735152  0.038078824            5 
 1147000    1.0442863    -6.124349     519.6433    0.0377538  0.038069936            5 
 1148000    1.0510998   -6.1681574    517.72556  0.037581704  0.038060919            3 
 1149000    1.0512414   -6.1671888    518.55924   0.03760946  0.038051695            2 
 1150000    1.0676906    -6.151935    519.77654  0.037664966  0.038042495            6 
 1151000    1.0509069   -6.1740551    519.16205  0.037587753  0.038033307            5 
 1152000    1.0500423   -6.1569653    521.36107  0.037714198  0.038024479            2 
 1153000    1.0763702   -6.1526601    519.64584   0.03755752  0.038015582            2 
 1154000    1.0672918   -6.1988669    519.03046  0.037480536   0.03800685            6 
 1155000    1.0515183   -6.1463781     522.7234  0.037714531  0.037997721            2 
 1156000    1.0807423    -6.184474    521.33212  0.037581612  0.037988775            5 
 1157000      1.07984   -6.1925806    521.59864  0.037568326  0.037979808            3 
 1158000    1.0713674   -6.1588602    523.57919   0.03767841  0.037971238            3 
 1159000    1.0348563   -6.1676786      523.775   0.03765998   0.03796282            2 
 1160000    1.0648825   -6.1516269     525.2848  0.037735977  0.037954212            5 
 1161000    1.0612747   -6.1756265    525.02068  0.037684516  0.037945543            7 
 1162000    1.0571283   -6.1847391    524.52189  0.037616315  0.037936857            3 
 1163000    1.0932897   -6.1914612    523.26028  0.037493571  0.037928385            8 
 1164000    1.0755709   -6.1487568    526.29986   0.03767897  0.037919529            4 
 1165000    1.0821548   -6.1498648    526.78824  0.037681562   0.03791092            3 
 1166000    1.0903309   -6.1296253    526.15158  0.037603744   0.03790231           10 
 1167000    1.0674028   -6.1571251    526.53217  0.037598698  0.037893757            3 
 1168000    1.0754565   -6.1341585     526.3585  0.037554117  0.037885271            5 
 1169000     1.061488   -6.0965229     528.8245  0.037697783  0.037876739            3 
 1170000     1.062638   -6.1545266    526.90731   0.03752901  0.037868092            1 
 1171000    1.0661721   -6.1478452    527.69893  0.037553297   0.03785933            3 
 1172000    1.0740574   -6.1957048    527.33682  0.037495508  0.037850627            9 
 1173000    1.0822217   -6.1870095    527.42829  0.037470041  0.037841935            8 
 1174000    1.0748072   -6.2113298     527.7627  0.037461861  0.037833241            5 
 1175000    1.0760288   -6.1735261    529.07027  0.037522714  0.037824417            7 
 1176000    1.0876677   -6.1780472    527.65048  0.037390198  0.037815913            3 
 1177000    1.0842865   -6.1669871    529.16754  0.037465841  0.037806902            4 
 1178000    1.0670846   -6.1190493     530.1456  0.037503226  0.037797813            2 
 1179000    1.0578982   -6.1658637    529.58652    0.0374319  0.037789192            2 
 1180000      1.08254    -6.158614    530.02596  0.037431212  0.037780275            5 
 1181000    1.0529281   -6.1548689    531.12951  0.037477386  0.037771259            3 
 1182000    1.0753044   -6.1846389    529.87567  0.037357281  0.037762408            7 
 1183000    1.0775068   -6.2090775    528.92979  0.037259072  0.037753448            3 
 1184000    1.0614615   -6.1672179    532.54194  0.037481837   0.03774452            4 
 1185000    1.0647383   -6.1654269    532.01486  0.037413141  0.037735506            4 
 1186000    1.0732501   -6.1269512    533.13625  0.037460388  0.037726569            4 
 1187000    1.0563715   -6.1967288    531.08983  0.037285161  0.037717455            6 
 1188000    1.0696098   -6.1808956    529.93962  0.037173093  0.037708177            5 
 1189000    1.0405843   -6.1821863     532.6525  0.037331967  0.037699125            3 
 1190000    1.0642211   -6.1728751    533.50215  0.037360095  0.037690123            4 
 1191000    1.0410525   -6.1978756    532.16444  0.037235128  0.037680864            2 
 1192000    1.0565242   -6.2077743    533.44385  0.037293334   0.03767153            2 
 1193000    1.0663533   -6.1963574    532.35593  0.037186081  0.037662072            5 
 1194000    1.0654825   -6.2212986    532.79253  0.037185409  0.037652849            3 
 1195000    1.0565459   -6.2083761    531.76268  0.037082474  0.037643525            3 
 1196000    1.0740127   -6.1638947     533.2913  0.037157978  0.037634163            3 
 1197000    1.0547891   -6.1839603     533.8565  0.037166284  0.037624736            2 
 1198000    1.0405354   -6.1856844    534.24495  0.037162281  0.037615148            6 
 1199000    1.0517634   -6.2034351    533.21854  0.037059948  0.037605634            2 
 1200000    1.0576888   -6.2267501    533.65033  0.037059051  0.037595983            4 
 1201000    1.0379785   -6.2003499    535.29011  0.037141972  0.037586255            4 
 1202000    1.0532358   -6.2187453    534.84299  0.037080074  0.037576512            3 
 1203000    1.0477022   -6.1796935    536.94273  0.037194702  0.037566879            2 
 1204000    1.0489011   -6.1558538    536.22527  0.037114152   0.03755748            2 
 1205000    1.0455633   -6.1955154    535.98574  0.037066787  0.037548203            4 
 1206000    1.0727558   -6.1861555    534.98398  0.036966831  0.037538847            2 
 1207000    1.0878583   -6.1929057    537.47337  0.037108076  0.037529298            5 
 1208000    1.0557197   -6.1448876    539.31034   0.03720408  0.037519686            3 
 1209000    1.0380863   -6.1701184    539.69915  0.037200107  0.037510199            3 
 1210000    1.0639696   -6.1246871    539.92379  0.037184834  0.037500785            8 
 1211000    1.0449121   -6.2049196    537.46689   0.03698506  0.037491471            1 
 1212000    1.0624271   -6.1672053    539.11416  0.037067805  0.037481859            7 
 1213000    1.0583269   -6.1645478    539.96014  0.037095366   0.03747237            5 
 1214000    1.0511501   -6.1665676     540.6355  0.037111168  0.037462988            1 
 1215000    1.0491676    -6.178429    539.45153  0.036999419  0.037453768            5 
 1216000     1.048464   -6.2354332    540.17726  0.037018726  0.037444161            4 
 1217000    1.0594576   -6.1839577     539.6173  0.036949966  0.037434739            5 
 1218000    1.0343813   -6.2134957    538.62852  0.036851979  0.037424829            2 
 1219000    1.0456274   -6.1535071    540.73792   0.03696595  0.037415321            7 
 1220000    1.0516596   -6.1488842    540.46868   0.03691726  0.037405903            1 
 1221000    1.0742555   -6.1862049    541.62117  0.036965682  0.037396461            6 
 1222000    1.0745895   -6.1958564    542.44414  0.036991553  0.037386913            3 
 1223000    1.0554598   -6.2094061    541.05399  0.036866584  0.037377276            4 
 1224000    1.0478668   -6.1673076    541.25346  0.036850045  0.037367584            5 
 1225000    1.0670114   -6.1735133    541.07267  0.036807664   0.03735808            5 
 1226000    1.0605789   -6.2226213    542.04348   0.03684363  0.037348272            6 
 1227000    1.0349599   -6.1727081    544.06936  0.036951193  0.037338596            1 
 1228000    1.0501242   -6.2045026     542.8897  0.036841049   0.03732895            7 
 1229000    1.0429798   -6.2037472    543.62524  0.036860947  0.037319299            6 
 1230000    1.0476692   -6.1927908    543.88028  0.036848257  0.037309661            3 
 1231000    1.0574436   -6.2121314     544.6016  0.036867154  0.037300072            3 
 1232000    1.0446162   -6.1773981    545.07735  0.036869409  0.037290385            4 
 1233000    1.0363223   -6.1974107    545.19034  0.036847143   0.03728072            3 
 1234000    1.0610803    -6.175089    544.07959  0.036742274  0.037270981            2 
 1235000    1.0537066   -6.2167501    544.19358  0.036720214   0.03726132            4 
 1236000    1.0653394   -6.2016388    544.63741  0.036720429   0.03725174            3 
 1237000    1.0522677   -6.2195844    545.59189  0.036755045  0.037242015            5 
 1238000    1.0482263   -6.2070146    545.40318  0.036712653  0.037232255            6 
 1239000    1.0668189   -6.1976697    546.68909  0.036769511  0.037222833            4 
 1240000    1.0398522   -6.1936185    546.02921  0.036695511   0.03721333            3 
 1241000    1.0487499   -6.1903629    545.14597  0.036606633  0.037203316            3 
 1242000    1.0243092   -6.1541957    547.99398  0.036768249  0.037193713            2 
 1243000    1.0527192   -6.2293731    545.75588  0.036588622  0.037183816            2 
 1244000    1.0532936   -6.1963458    548.68872  0.036755675  0.037173862            4 
 1245000    1.0640768   -6.2025189    546.05801  0.036550068    0.0371637            5 
 1246000    1.0325596   -6.1650977     546.8088  0.036570947  0.037153519            2 
 1247000    1.0696322   -6.2021516    547.09092  0.036560473  0.037143347            3 
 1248000    1.0547259   -6.2016467    548.53021  0.036627284  0.037133388            4 
 1249000    1.0552199   -6.1926287    550.19013  0.036708709  0.037123551            4 
 1250000    1.0603876   -6.2234413    547.72213  0.036514808  0.037113528            2 
 1251000     1.069823   -6.2321035    547.18811  0.036450047  0.037103402            2 
 1252000     1.053688   -6.2220381    548.63628  0.036517324  0.037093146            5 
 1253000    1.0441108   -6.2044968    550.54487  0.036615115  0.037083042            5 
 1254000     1.035395   -6.1997701    551.16036  0.036626818  0.037072933            5 
 1255000    1.0331798   -6.2128431    548.25377  0.036404633  0.037062952            8 
 1256000    1.0461426   -6.1838379    551.48268   0.03658988  0.037053083            5 
 1257000     1.040666   -6.2214494    551.06323  0.036532964  0.037043041            2 
 1258000    1.0565604   -6.2151631    549.79521  0.036419926  0.037033033           10 
 1259000    1.0422562   -6.1917605    551.76971  0.036521691  0.037023005            5 
 1260000    1.0457461   -6.2044916    553.16355  0.036584891  0.037013368            3 
 1261000    1.0532742   -6.1849888    552.55685  0.036515784  0.037003499            5 
 1262000    1.0568647   -6.2045013    552.14969  0.036459964  0.036993791            3 
 1263000    1.0797534   -6.1889715    553.69106  0.036532797  0.036983808            2 
 1264000    1.0600573   -6.2055492    555.62041  0.036631092   0.03697436            4 
 1265000    1.0596277   -6.2201318    552.92801   0.03642477  0.036964379            3 
 1266000    1.0683511    -6.214862    555.04905  0.036535614  0.036954577           11 
 1267000    1.0527228   -6.2319383    553.91613  0.036432263  0.036944818            3 
 1268000    1.0714876   -6.1779294    556.55994  0.036577283   0.03693536            4 
 1269000    1.0468201   -6.2383241    554.15358  0.036390438  0.036925864            5 
 1270000    1.0535588   -6.2534699     553.8283   0.03634044   0.03691627            4 
 1271000    1.0551879   -6.2048667    556.79812  0.036506565  0.036906746            4 
 1272000    1.0431217    -6.202696    557.09578  0.036497365  0.036897266            4 
 1273000    1.0427079   -6.1968054    557.11207  0.036469761  0.036887747            3 
 1274000    1.0689164   -6.1911578    554.43886  0.036266278  0.036878167            6 
 1275000    1.0429968    -6.202183    557.32884  0.036426721  0.036868364            2 
 1276000    1.0333007   -6.2484914    557.17566   0.03638817  0.036858795            7 
 1277000    1.0241811   -6.2048608     558.1444  0.036422892  0.036848886            5 
 1278000    1.0546011   -6.1797181    558.24003  0.036400628  0.036839185            2 
 1279000     1.038158   -6.1729663    560.31517  0.036507374  0.036829522            3 
 1280000    1.0559254   -6.2349005    558.44813    0.0363573  0.036819613            5 
 1281000    1.0523401   -6.2259584    557.58503  0.036272771  0.036809689            2 
 1282000    1.0665128   -6.2079369    557.06097  0.036210412  0.036799617            6 
 1283000    1.0496616   -6.2263686    557.72632  0.036225404    0.0367894            8 
 1284000    1.0402288   -6.1983624    558.38273  0.036239793  0.036779175            9 
 1285000    1.0333964    -6.193496    557.69213  0.036166805  0.036768892            3 
 1286000    1.0384482   -6.2338492    557.11841  0.036101504   0.03675862            5 
 1287000     1.061825   -6.2134583    556.50492  0.036033729  0.036748069            3 
 1288000    1.0328847   -6.1956573    560.43674  0.036260141  0.036737752            2 
 1289000    1.0367813   -6.2230905    561.00623  0.036268828  0.036727621            2 
 1290000    1.0293903   -6.1679342    561.33223  0.036261772  0.036717571            3 
 1291000    1.0501155   -6.2285236      560.357  0.036170733  0.036707767            6 
 1292000    1.0431967   -6.1900481    561.26639  0.036201393   0.03669779            2 
 1293000    1.0269598   -6.2407597    560.61088  0.036131147  0.036687662            5 
 1294000    1.0382017   -6.2213941    562.99102  0.036256506   0.03667766            6 
 1295000     1.041967   -6.2227392    562.07626  0.036169644  0.036667756            2 
 1296000    1.0217348   -6.2590308    560.83979  0.036062229  0.036657754            4 
 1297000    1.0437002   -6.2012811    562.67252  0.036152179  0.036647731            3 
 1298000    1.0338671   -6.2071034    562.78715  0.036131687  0.036637785            5 
 1299000     1.049121   -6.2325256    562.37042  0.036077137  0.036627976            5 
 1300000    1.0193601   -6.2451275    561.86768  0.036017159  0.036617866            5 
 1301000    1.0403116   -6.1970288    564.34065  0.036147876  0.036607807            3 
 1302000    1.0506214   -6.2741422    562.50277  0.036002481  0.036597784            3 
 1303000    1.0632712   -6.2068793    564.13828   0.03607945  0.036587705            4 
 1304000    1.0412758   -6.2628747    564.27739  0.036060671  0.036577725            4 
 1305000    1.0417712   -6.1878102    564.25076  0.036031338  0.036567698            8 
 1306000    1.0470478   -6.2208863    565.59027  0.036089221  0.036557575            2 
 1307000    1.0631282   -6.1962599    565.79461  0.036074637  0.036547572            4 
 1308000    1.0442776   -6.2177238    565.55385  0.036031718  0.036537681            3 
 1309000    1.0573354   -6.2138779    566.75466  0.036080638  0.036527954            3 
 1310000    1.0332919   -6.2390644    564.98265  0.035940372  0.036518091            4 
 1311000     1.043845   -6.2188596     567.7004   0.03608571  0.036508162            5 
 1312000    1.0638613   -6.2284747    566.40368  0.035975844  0.036498098            5 
 1313000    1.0375497   -6.2562225    565.57123   0.03589561  0.036487869            4 
 1314000    1.0423164   -6.2125302    568.79386   0.03607267  0.036477655            5 
 1315000    1.0429861   -6.1886684    568.78238  0.036044511  0.036467693            3 
 1316000    1.0708143   -6.2288931    566.53882  0.035875052  0.036457637            6 
 1317000    1.0337785   -6.2269083    567.81151  0.035928341   0.03644756            2 
 1318000    1.0608733    -6.181306     569.2033  0.035989081  0.036437828            3 
 1319000    1.0420786   -6.1919775    568.94845  0.035945694  0.036428033            5 
 1320000    1.0339723   -6.2188615    569.01622  0.035922741  0.036418048            2 
 1321000     1.039458   -6.2548245    567.19628  0.035780739  0.036407876            5 
 1322000    1.0624045   -6.2526708    569.25812  0.035883643  0.036397692            6 
 1323000    1.0461115    -6.241432    568.13717  0.035785914  0.036387624            4 
 1324000    1.0567671   -6.2114583    569.79447  0.035863196  0.036377677            8 
 1325000    1.0296619   -6.2493905    569.24989   0.03580188  0.036367569            4 
 1326000    1.0376657   -6.2321486    569.37314  0.035782625  0.036357421            1 
 1327000    1.0420605   -6.2120751     571.7711  0.035906249  0.036347299            7 
 1328000    1.0665641   -6.2093842    571.86154  0.035884886  0.036337279            5 
 1329000    1.0298536   -6.2205188     572.5379  0.035900295  0.036327453            3 
 1330000    1.0478005   -6.2666172    572.11351  0.035846711   0.03631771            3 
 1331000    1.0389022   -6.2280394    573.19061  0.035887216  0.036307758            8 
 1332000    1.0394053    -6.227365    572.81727  0.035836916  0.036298019            2 
 1333000    1.0364575   -6.2237034     572.9956   0.03582118  0.036288255            5 
 1334000    1.0530533   -6.2540585    572.74435  0.035778633  0.036278386            2 
 1335000    1.0417313   -6.2383541    572.57224  0.035741088  0.036268467            7 
 1336000    1.0484963   -6.2146368     575.6507  0.035906356  0.036258598            8 
 1337000    1.0181929   -6.2394196     573.1893  0.035726085  0.036248555            2 
 1338000    1.0273534   -6.2605174    574.51366  0.035781867  0.036238422            6 
 1339000    1.0360817   -6.2396224     575.7845  0.035834236  0.036228583            3 
 1340000    1.0397778   -6.2087485    573.69691  0.035677668  0.036218743            2 
 1341000    1.0200981   -6.2422737    575.80105   0.03578182  0.036208837            4 
 1342000    1.0380606   -6.2128716    576.12348  0.035775179  0.036198932            2 
 1343000    1.0232033   -6.2170142    574.83175  0.035668388  0.036189122            4 
 1344000    1.0363289   -6.1953054    577.65749  0.035817057  0.036179174            5 
 1345000    1.0340309   -6.2095843     577.5737  0.035785235  0.036169274            3 
 1346000    1.0294517   -6.2556488    577.82063  0.035773937   0.03615939            3 
 1347000    1.0577837   -6.2613618    576.13517  0.035643106  0.036149343            5 
 1348000    1.0484961   -6.2741305    575.04827  0.035549472    0.0361394            6 
 1349000    1.0356178   -6.2690917    575.74025  0.035565866  0.036129564            2 
 1350000    1.0347832   -6.2689005    575.84416  0.035545936  0.036119801            3 
 1351000    1.0432377   -6.2342702     578.9686  0.035712349  0.036109893            3 
 1352000    1.0379516   -6.2256968    577.43624  0.035591484  0.036100036            4 
 1353000    1.0369509   -6.2571903    578.85752  0.035652718  0.036090098            3 
 1354000    1.0471407   -6.2366812    579.10351  0.035641526  0.036080521            3 
 1355000    1.0201409   -6.2587677    580.72215  0.035714769  0.036071093            7 
 1356000    1.0394273   -6.2126722    581.48526  0.035735328  0.036061544            2 
 1357000    1.0414559   -6.2728901    580.92845    0.0356748  0.036051993            6 
 1358000    1.0218357   -6.2494991    580.64072  0.035630874  0.036042357            1 
 1359000    1.0321839   -6.2604197    581.43296  0.035653235   0.03603247            6 
 1360000    1.0338284   -6.2400686    579.92267  0.035534477  0.036022661            6 
 1361000    1.0246037   -6.2673369    581.43842  0.035601177  0.036013076            5 
 1362000    1.0215688   -6.2357279    582.86231  0.035662158  0.036003551            2 
 1363000    1.0220919   -6.2675008    581.90466  0.035577443  0.035993923            4 
 1364000    1.0332901   -6.2547545    581.76224  0.035542659  0.035984304            7 
 1365000    1.0375906   -6.2181724    583.60741  0.035629268   0.03597457            4 
 1366000    1.0308424   -6.2403783    582.02555  0.035506683  0.035964884            2 
 1367000    1.0144989   -6.2442436    582.37664  0.035502112  0.035955009            7 
 1368000    1.0212791   -6.2654685    584.72829  0.035619413  0.035945138            2 
 1369000    1.0192615   -6.2634459    582.89927  0.035482059  0.035935369            3 
 1370000    1.0314203   -6.2246904    582.70839  0.035444549  0.035925661            3 
 1371000    1.0266302   -6.2441163    584.65227  0.035536851   0.03591587            3 
 1372000    1.0236335   -6.2529457    583.38325  0.035433871  0.035906032            3 
 1373000    1.0496582   -6.2633507     583.8265  0.035434966  0.035896287            4 
 1374000    1.0262009   -6.2403806    586.40267  0.035565421  0.035886612            4 
 1375000    1.0315009   -6.2272137    586.34546  0.035536089   0.03587704            5 
 1376000    1.0202999    -6.264661    584.85003  0.035419697  0.035867279            6 
 1377000    1.0393338   -6.2676347    587.70188  0.035566563  0.035857992            4 
 1378000     1.052788   -6.2382219    587.01561  0.035499251  0.035848412            3 
 1379000    1.0253408   -6.2339182    587.20151  0.035484742  0.035838904            6 
 1380000     1.017566    -6.253167    587.39957  0.035470989  0.035829482            3 
 1381000     1.061347   -6.2762714    588.38439  0.035504731  0.035820022            6 
 1382000    1.0293991   -6.2659788    586.88161  0.035388423  0.035810655            5 
 1383000     1.017901   -6.2199728    589.74499   0.03553537  0.035801356            6 
 1384000    1.0135367   -6.2501068    587.32244  0.035363827  0.035792004            3 
 1385000     1.039191   -6.2752469    588.66199  0.035418892  0.035782577            2 
 1386000    1.0317058   -6.2699208    588.87668  0.035406246  0.035772998            7 
 1387000    1.0224767   -6.2768432    589.13514  0.035396248    0.0357635            3 
 1388000    1.0638216   -6.2440234    590.92305  0.035478089  0.035754095            4 
 1389000    1.0407653   -6.2572427    590.68901  0.035438505  0.035744684            3 
 1390000    1.0089483   -6.2643273    589.61095  0.035348378  0.035735385            3 
 1391000    1.0434056    -6.202439    592.76435  0.035511883  0.035726169            2 
 1392000    1.0385309   -6.2742258    590.30523  0.035339154  0.035716971            4 
 1393000    1.0369124   -6.2849381     591.7929  0.035402781   0.03570755            5 
 1394000    1.0075095   -6.2878523    589.65752  0.035249732  0.035698252            5 
 1395000    1.0295698   -6.2498114    592.41935  0.035389447  0.035688901            3 
 1396000    1.0428551   -6.2350071    592.70517  0.035381159  0.035679849            4 
 1397000    1.0420998   -6.2382339    593.49522   0.03540296  0.035670736            3 
 1398000    1.0085171   -6.2487117    592.31432  0.035307244   0.03566159            5 
 1399000    1.0397112   -6.2798494    592.17291  0.035273583  0.035652339            3 
 1400000    1.0211294   -6.2616579    594.77804  0.035403455  0.035643135            4 
 1401000    1.0148507    -6.219996    595.72903  0.035434751  0.035634032            3 
 1402000    1.0327314   -6.2126953    596.55339  0.035458476  0.035624956            5 
 1403000    1.0168504     -6.28649    594.66309  0.035320925  0.035615562            5 
 1404000     1.068792   -6.2515023    595.26755  0.035331645   0.03560635            3 
 1405000     1.027739   -6.2487558    595.11468   0.03529743  0.035597159            3 
 1406000    1.0249925   -6.2579696    593.01653  0.035147969  0.035587902            6 
 1407000    1.0228395   -6.2343856    595.31653  0.035259212   0.03557845            3 
 1408000    1.0067444   -6.2656563    593.80854  0.035144918  0.035569286            6 
 1409000    1.0190058   -6.2813482    596.10304   0.03525568   0.03556009            6 
 1410000    1.0170773   -6.2539594    598.63912  0.035380563  0.035550674            3 
 1411000    1.0270245   -6.2516842    597.01097  0.035259329  0.035541554            6 
 1412000    1.0502926   -6.2347228    597.21593  0.035246455  0.035532516            4 
 1413000    1.0323842   -6.2686213     598.0395  0.035270082   0.03552359            3 
 1414000    1.0279029   -6.2263883    599.23332  0.035315495  0.035514659            2 
 1415000     1.030247   -6.2491023    597.58872  0.035193682  0.035505654            5 
 1416000    1.0418052   -6.2671608    597.54263  0.035166115  0.035496255            4 
 1417000    1.0252615   -6.2512118    599.16251  0.035236563   0.03548711            2 
 1418000    0.9960938   -6.2588671    599.92875  0.035256744  0.035477965            2 
 1419000    1.0183726   -6.2965904    598.93884  0.035173763  0.035468736            3 
 1420000    1.0375809   -6.2402431    600.49618  0.035240386  0.035459461            3 
 1421000    1.0051332   -6.2588897    600.01052  0.035187105  0.035450506            3 
 1422000    1.0348499   -6.2516644     600.3662  0.035183204  0.035441398            3 
 1423000    1.0193006   -6.2520591    603.70633  0.035354084  0.035432387            2 
 1424000    1.0216081   -6.2479643    603.60566  0.035323365  0.035423335            3 
 1425000    1.0265043   -6.2721317    599.15574  0.035038348  0.035414304            6 
 1426000    1.0228292   -6.2684204    600.37384   0.03508496  0.035405173            6 
 1427000    1.0231903   -6.2684723    599.61438  0.035016023  0.035396045            4 
 1428000     1.038039   -6.2967745    601.31024  0.035090467  0.035387005            4 
 1429000    1.0321027   -6.2500127    603.01407  0.035165271  0.035377938            2 
 1430000   0.98249036   -6.2674249    601.70423  0.035064349  0.035368922            4 
 1431000    1.0477533   -6.2327883    604.73962   0.03521661  0.035359738            4 
 1432000    1.0241416   -6.2906274    601.09472  0.034979907  0.035350626            3 
 1433000    1.0501378   -6.2640181    602.32327  0.035026941  0.035341556            1 
 1434000    1.0275822   -6.2481986    604.21799  0.035112621  0.035332411            2 
 1435000    1.0169076   -6.2566615    604.84168  0.035124372  0.035323417            3 
 1436000    1.0155207   -6.3086088    603.51953  0.035023185  0.035314518            3 
 1437000    1.0344745   -6.2357777    606.10559  0.035148782  0.035305512            2 
 1438000    1.0193462   -6.2902398    606.83653  0.035166697  0.035296532            6 
 1439000    1.0314824   -6.2557281     605.3818  0.035058015  0.035287555            4 
 1440000    1.0416628   -6.2538713    606.01694  0.035070425    0.0352787            4 
 1441000    1.0239941   -6.2630451    605.64391  0.035024515  0.035269888            3 
 1442000    1.0165894   -6.2617381    606.15458  0.035029737  0.035260824            8 
 1443000    1.0237973   -6.2579645    607.85283  0.035103536  0.035252015            7 
 1444000    1.0254536   -6.2768779    607.35247   0.03505035  0.035242919            3 
 1445000    1.0045559   -6.2625934    608.00147  0.035063522  0.035234177            3 
 1446000    1.0318722   -6.3005335    605.80165  0.034912497  0.035225088            4 
 1447000    1.0132672   -6.2623974    607.08481  0.034962267  0.035215986            2 
 1448000    1.0302575   -6.2457515      609.455  0.035074528  0.035207051            5 
 1449000    1.0365693   -6.2911285    607.36019  0.034929847   0.03519822            5 
 1450000    1.0299074   -6.2814912    607.88907  0.034936154  0.035189386            5 
 1451000     1.032153   -6.2496487    610.01636   0.03503425   0.03518059            7 
 1452000    1.0191666   -6.2805635     609.8217  0.034998949   0.03517167           12 
 1453000    1.0212919   -6.2856773    609.18871  0.034938559  0.035162701            4 
 1454000    1.0418747   -6.2929439    608.32605  0.034865087  0.035153576            4 
 1455000      1.02739   -6.2946382    608.83568  0.034870314  0.035144575            2 
 1456000    1.0222833   -6.2899122    608.85131  0.034847259  0.035135378            4 
 1457000    1.0319902   -6.2700092    612.24118  0.035017226  0.035126444            5 
 1458000    1.0171737   -6.2960202    610.07517  0.034869409  0.035117394            2 
 1459000    1.0232247   -6.2938737    608.23262  0.034740269  0.035108477            3 
 1460000    1.0254872   -6.3120978    611.15638  0.034883355  0.035099689            5 
 1461000    1.0176104   -6.2975033    611.21653   0.03486291  0.035090804            4 
 1462000    1.0082144   -6.3099738    611.54849  0.034857985  0.035081866            3 
 1463000   0.99445378   -6.2872352    612.89476  0.034910843  0.035073137            5 
 1464000    1.0097329   -6.2392367    614.75305  0.034992774  0.035064532            8 
 1465000    1.0017606   -6.2802371    614.94134  0.034979598   0.03505594            4 
 1466000    1.0277394   -6.2990867    613.08327  0.034850118   0.03504721            2 
 1467000    1.0260075   -6.3400065     613.1314  0.034829096  0.035038604            3 
 1468000    1.0194492   -6.2996286     613.1898  0.034808685  0.035029886            3 
 1469000     1.016061   -6.2825699    612.74123  0.034759543  0.035020953            2 
 1470000   0.99483519   -6.3187414    613.91112  0.034802218  0.035012214           10 
 1471000    1.0181895   -6.3166867    614.53464  0.034813882  0.035003482            4 
 1472000    1.0170334   -6.2793727    616.87735  0.034922857  0.034994735            8 
 1473000    1.0261395   -6.2719381    616.36053   0.03486991  0.034986098            1 
 1474000    1.0181418   -6.2910858    616.03106  0.034827627  0.034977429            2 
 1475000   0.99441202   -6.2696486    615.39012  0.034767804  0.034968659            2 
 1476000    1.0143474   -6.3181179    615.16543  0.034731562  0.034959952            3 
 1477000    1.0140005   -6.2560492    616.57242  0.034787431  0.034951455            5 
 1478000     1.021303   -6.2781622    619.16684  0.034910174  0.034942925            3 
 1479000    1.0180268   -6.2820215    619.11227  0.034883495  0.034934454            3 
 1480000     1.001483   -6.3046299     618.6908  0.034836194  0.034925887            4 
 1481000    1.0064198   -6.2897358    620.43576  0.034910858  0.034917323            6 
 1482000    1.0104946   -6.3076952    619.67319  0.034844421  0.034908829            3 
 1483000   0.98616605   -6.2776057     621.0748  0.034899685  0.034900407            2 
 1484000     1.019868   -6.2941156    619.78491  0.034803735  0.034891953            3 
 1485000    1.0322011   -6.2768835    620.00477  0.034792636  0.034883436            4 
 1486000    1.0173661   -6.3024679     620.1376  0.034776671  0.034875047            5 
 1487000    1.0297096   -6.2825704    619.96318  0.034743509  0.034866568            5 
 1488000    1.0055747   -6.3035818    619.71166  0.034706074  0.034858086            4 
 1489000    1.0031577   -6.3057465     620.2698  0.034714003  0.034849634            2 
 1490000    1.0461959   -6.3135398    619.17285  0.034629354  0.034841148            3 
 1491000    1.0020826   -6.3249045    618.94005  0.034593117  0.034832606            4 
 1492000    1.0389979   -6.3327759    620.53055  0.034658766  0.034823918            4 
 1493000   0.99582321    -6.309986    621.33797  0.034680619  0.034815433            2 
 1494000   0.99413134   -6.2829246    621.78812  0.034682514  0.034806799            9 
 1495000   0.99699262   -6.3041758    621.74955  0.034657165   0.03479837            4 
 1496000     1.033513   -6.2911889    623.24352   0.03471722  0.034789847            6 
 1497000    1.0193099   -6.2818414    622.28642  0.034640749  0.034781486            6 
 1498000     1.026337   -6.2639057    625.52774  0.034797938  0.034773199           14 
 1499000    1.0236866   -6.2751514    624.56339  0.034721114  0.034764963            2 
 1500000    1.0070439   -6.2876789    626.33757  0.034796532  0.034756759            4 
 1501000   0.99112131   -6.2799481    625.86337  0.034747023  0.034748443           10 
 1502000   0.99911497   -6.3134137    624.31177  0.034637804  0.034740053            2 
 1503000    1.0018521   -6.2714347    627.08553  0.034768548  0.034731846            6 
 1504000    1.0114841   -6.2910133    625.55778  0.034660781  0.034723777            4 
 1505000    1.0204384   -6.3229192    624.33833  0.034570229  0.034715659            9 
 1506000    1.0055179   -6.3401181    625.31842  0.034601506  0.034707255            7 
 1507000    1.0153753   -6.2972291    625.33197  0.034579295   0.03469898            2 
 1508000    1.0231194   -6.2862086    628.53102  0.034733147  0.034690862            5 
 1509000    1.0095767   -6.3183151    624.80513   0.03450437  0.034682671            6 
 1510000    1.0171428   -6.2818031    627.34764  0.034621834   0.03467455            6 
 1511000    1.0179396   -6.3060251    628.35658  0.034654565  0.034666445            1 
 1512000    1.0011383   -6.2641511    629.81184  0.034711852  0.034658302            9 
 1513000    1.0054878   -6.3170392    628.88377  0.034637793  0.034650331            6 
 1514000    1.0022976   -6.3126619    628.95956  0.034619086  0.034642093            2 
 1515000    1.0103672    -6.333011    628.36592  0.034563582  0.034633863            4 
 1516000    1.0122595   -6.3180595    629.42328  0.034598905  0.034625604            6 
 1517000    1.0191534   -6.2993595    630.43249  0.034631537  0.034617432            2 
 1518000    1.0273126   -6.2903328    630.48442  0.034611573   0.03460938            8 
 1519000    1.0032428     -6.29263    632.46467  0.034697425  0.034601135            2 
 1520000    1.0216176   -6.3179913    629.80339  0.034528694  0.034592963            3 
 1521000    1.0233571   -6.3379176    630.09414  0.034521923  0.034584803            8 
 1522000   0.98470357   -6.3239408    630.34794  0.034513137  0.034576656            7 
 1523000    1.0019568   -6.3049355    631.22924  0.034538698  0.034568426            5 
 1524000     1.022904   -6.3361822    630.57441  0.034480228   0.03456022            6 
 1525000    1.0025428   -6.2914918    632.32145  0.034553085  0.034551943            3 
 1526000    1.0299699   -6.3058619    632.67602  0.034549805  0.034543724            3 
 1527000    1.0222713    -6.272402    633.37564  0.034565359  0.034535559            3 
 1528000     1.004011   -6.3083273    633.86483  0.034569417  0.034527387            4 
 1529000    1.0071936   -6.2865849    632.89249  0.034493813  0.034519147            2 
 1530000    1.0106533   -6.3540228    631.82825  0.034413304  0.034510951            8 
 1531000    1.0147964   -6.2660072    635.23354  0.034576178  0.034502807            3 
 1532000   0.98357905   -6.3289207    634.30635  0.034503174  0.034494529            4 
 1533000    1.0022919   -6.3416722    633.74622  0.034450218   0.03448631            4 
 1534000    1.0170777   -6.2781411    635.89341  0.034544405  0.034478177            3 
 1535000   0.99944201   -6.3153094    634.90178  0.034468066  0.034470137            6 
 1536000     1.014775   -6.3026268    634.47985  0.034422735     0.034462            1 
 1537000     1.006574   -6.3169319    635.19321  0.034439016  0.034453754           12 
 1538000    1.0017598   -6.2983681    635.50494  0.034433515  0.034445482            5 
 1539000    1.0062327   -6.3150019    636.95943  0.034489898   0.03443722            2 
 1540000   0.98563509   -6.3219915    634.91139  0.034356677  0.034428906            4 
 1541000    1.0212132   -6.3200697    636.38204  0.034413911  0.034420592            4 
 1542000    1.0188461   -6.3073228     635.5914  0.034348865  0.034412241            4 
 1543000   0.99085506   -6.3885072    634.24976  0.034254146  0.034403819            4 
 1544000    1.0235447   -6.3315194    636.92945  0.034376589  0.034395519            4 
 1545000    1.0017489    -6.274993    636.20901   0.03431548  0.034387258            4 
 1546000    1.0019447   -6.3426848    634.96553  0.034226258  0.034378929            8 
 1547000    1.0166042   -6.3016925      634.235  0.034164781  0.034370632            4 
 1548000    1.0058071   -6.3331462    635.77504  0.034225616  0.034362327            5 
 1549000    1.0043926   -6.3119521     637.7822  0.034311502  0.034353998            3 
 1550000    1.0024013   -6.3300424    636.60963  0.034226324  0.034345473            3 
 1551000   0.99566412   -6.3106716    637.72627  0.034264253   0.03433707            7 
 1552000    1.0129114   -6.2890766     638.2638  0.034271038  0.034328578            6 
 1553000    1.0185983   -6.3223882    637.41158   0.03420324  0.034320184            6 
 1554000   0.99328439   -6.2958292    639.53504  0.034295101  0.034311852            4 
 1555000    1.0014681   -6.3235105    636.96661  0.034135402  0.034303342            3 
 1556000    1.0109018   -6.3112349    638.56563  0.034199102  0.034294846            6 
 1557000   0.98956193   -6.2916476    640.52776  0.034282154  0.034286335            3 
 1558000    1.0149994   -6.3363991    638.49194  0.034151259  0.034277799            3 
 1559000   0.98765054   -6.3276579    637.46537   0.03407448  0.034269215            5 
 1560000   0.99844811   -6.3143516    638.19804  0.034091776  0.034260635            3 
 1561000   0.97625257   -6.3236933    638.45632  0.034083724  0.034252142            4 
 1562000    1.0058411   -6.3578659    638.59482  0.034069292  0.034243593            6 
 1563000    1.0217386   -6.3485553    637.35743  0.033981522    0.0342349            3 
 1564000    1.0010608   -6.3186517    638.21232  0.034005345  0.034226283            6 
 1565000    1.0064978   -6.3098492     640.6966    0.0341159   0.03421777            2 
 1566000   0.98912222   -6.3081668    641.77862  0.034151694  0.034209202            4 
 1567000    1.0062511   -6.3227285    640.56413  0.034065312  0.034200475            4 
 1568000   0.99310081   -6.3608312    641.99935  0.034119863  0.034191788            4 
 1569000   0.98602704   -6.3090884    642.89623  0.034145752  0.034183129            3 
 1570000   0.97481387   -6.3400338    641.80164  0.034065905  0.034174591            2 
 1571000    1.0124387   -6.3018639    642.62079  0.034087672  0.034166225            3 
 1572000    1.0122099    -6.303502    643.04205  0.034088319   0.03415769            3 
 1573000     1.012519   -6.3230998    640.99439  0.033958169  0.034149204            4 
 1574000   0.98732061   -6.3325358    642.67362  0.034025499  0.034140756            8 
 1575000     1.016835   -6.3476928     641.6998   0.03395237   0.03413213            4 
 1576000     1.009036   -6.3032977    645.43037  0.034128087  0.034123754            7 
 1577000    1.0065276   -6.3257919    642.71276  0.033962839  0.034115114            3 
 1578000   0.99078323   -6.3390982    644.15285  0.034017366  0.034106657            6 
 1579000   0.99351838   -6.3486368    645.17434  0.034049733  0.034098187            8 
 1580000   0.97076084   -6.3276279    644.74337  0.034005452   0.03408987            4 
 1581000    1.0157023   -6.3230543    643.83612  0.033936123   0.03408144            7 
 1582000    1.0020578   -6.3379339    644.02529  0.033924636  0.034072978            3 
 1583000    1.0047996   -6.3283544    647.97679  0.034111223  0.034064661            6 
 1584000   0.99903592   -6.3552576    644.82105  0.033923666  0.034056322            9 
 1585000   0.96627143   -6.3282041    646.11634  0.033970365  0.034047894            5 
 1586000    1.0030925   -6.3457921    647.04183  0.033997574  0.034039393            4 
 1587000    1.0237737   -6.2525083    649.59133  0.034110026  0.034031316            2 
 1588000   0.99129336   -6.3208454    649.22895  0.034069529  0.034023135            4 
 1589000   0.99939449   -6.3295627     646.8172  0.033921607  0.034014689            5 
 1590000   0.98999624    -6.352678    646.62738  0.033890324   0.03400632            3 
 1591000      1.04236   -6.3016155    648.90308  0.033988219  0.033998215            2 
 1592000    1.0057596   -6.3701698    648.20009  0.033930072  0.033990043            2 
 1593000    0.9927193   -6.3410657      648.594  0.033929379   0.03398179            4 
 1594000   0.99034091   -6.3541565    651.37496   0.03405348  0.033973499            3 
 1595000    1.0127307   -6.3481153      649.471  0.033932654  0.033965283            5 
 1596000   0.99989126   -6.3216146    650.51671  0.033965994  0.033957126            2 
 1597000   0.99283425   -6.3542561    648.56197  0.033842724  0.033948942            2 
 1598000   0.97989581   -6.3483024     651.2101  0.033959642  0.033940759            3 
 1599000    0.9970068   -6.3520967    649.98084   0.03387434   0.03393271            5 
 1600000   0.99022018   -6.3114037    653.12631  0.034016995  0.033924673            4 
 1601000   0.98033672   -6.3834064    652.05706  0.033940093  0.033916623            3 
 1602000    1.0068878   -6.3709568    652.39395  0.033936431  0.033908367            3 
 1603000   0.97371059   -6.3436883     654.1578  0.034006956  0.033900341            4 
 1604000   0.97278562   -6.3295751    652.87287  0.033918998  0.033892421            7 
 1605000   0.99971959   -6.3325636    653.95445  0.033954021  0.033884529            3 
 1606000   0.99501789   -6.3462484    654.60122  0.033966439  0.033876815            2 
 1607000    1.0050464   -6.3279885    655.77144  0.034005986  0.033869289            9 
 1608000   0.96926392   -6.3635971    654.22936  0.033904921  0.033861573            7 
 1609000   0.98881213   -6.3521006    655.94157  0.033972528  0.033853682            4 
 1610000    1.0007281   -6.3509363    654.51291   0.03387748  0.033845998            4 
 1611000   0.99364474   -6.3260748    654.66296  0.033864213  0.033838084            3 
 1612000   0.99632912   -6.3994148    655.11978  0.033866821  0.033830139            5 
 1613000   0.98674514   -6.3221051    657.26219  0.033956509  0.033822205            3 
 1614000    1.0122722   -6.3543897    655.91918  0.033866129  0.033814222            3 
 1615000   0.98873668    -6.346464    655.91934  0.033845167  0.033806277            6 
 1616000   0.97605062   -6.3746161    655.93195  0.033824874  0.033798215            5 
 1617000   0.97053721   -6.3575812    655.55223  0.033784386  0.033790112            1 
 1618000   0.99671032   -6.3231656    658.63068  0.033922058  0.033782327            7 
 1619000   0.99992097   -6.3426675    656.55138   0.03379408  0.033774443            5 
 1620000   0.98978757   -6.3520557    658.02383  0.033848963  0.033766446            4 
 1621000   0.97057162    -6.354913    659.55288  0.033906687    0.0337584            5 
 1622000   0.99710423    -6.336836    659.26031  0.033870752  0.033750384            4 
 1623000   0.99864944   -6.3686159    656.28726   0.03369723  0.033742334            4 
 1624000   0.97546757   -6.3268306    657.57708  0.033742666  0.033734127            4 
 1625000   0.99505341   -6.3579524    657.87544  0.033737202  0.033726048            4 
 1626000   0.96453494   -6.3447974    658.21705  0.033733961  0.033717918            4 
 1627000    1.0014982   -6.3408764    658.22042    0.0337134  0.033709817            4 
 1628000   0.99607758    -6.363804    659.62341  0.033764507  0.033701761            7 
 1629000   0.97201199   -6.3447076    658.89663  0.033706601  0.033693435            5 
 1630000   0.99916039   -6.3828016    656.29018  0.033552667  0.033685213            4 
 1631000   0.98454552   -6.3396484    660.16179  0.033729909  0.033677075            5 
 1632000   0.99259743   -6.3119663    659.34313  0.033667439  0.033668996            4 
 1633000   0.97741596   -6.3465234    660.14386  0.033687684  0.033660879            4 
 1634000   0.99656374   -6.3443734    661.42292  0.033732299  0.033652809            6 
 1635000   0.98490848   -6.4288777    657.83392  0.033528742  0.033644496            6 
 1636000   0.98699527   -6.3395626    661.63942  0.033702089  0.033636228            5 
 1637000    1.0014907   -6.3897581     658.1424  0.033503482  0.033627995            5 
 1638000   0.98930889   -6.3546222    661.64936  0.033661445  0.033619733            3 
 1639000   0.96355884   -6.3452237    661.34797  0.033625583  0.033611708            4 
 1640000   0.96627783   -6.3905043    659.59422  0.033515966  0.033603559            7 
 1641000   0.98425118   -6.3823657    659.53713  0.033492643  0.033595379            6 
 1642000   0.98384187   -6.3512086    663.64777  0.033680865  0.033587415            3 
 1643000   0.99439755   -6.3494234    663.29683  0.033642566   0.03357936           10 
 1644000   0.98709244   -6.3141714    664.60251  0.033688286  0.033571473            3 
 1645000   0.98709958   -6.3313772    664.03793  0.033639206  0.033563545            4 
 1646000    1.0108244   -6.3052586    665.97985  0.033717084  0.033555501            3 
 1647000   0.97681432   -6.3663456    662.54627  0.033522884  0.033547475            6 
 1648000   0.99491949   -6.3935093    661.77865  0.033463726   0.03353939            4 
 1649000   0.98482206   -6.2984307    664.41471  0.033576648  0.033531248            5 
 1650000   0.99879078   -6.3575906    664.11056  0.033540937  0.033523099            5 
 1651000   0.97712302   -6.3719435    664.22474  0.033526385  0.033514894            2 
 1652000   0.97183319   -6.3525724    665.46437  0.033568622  0.033506816            8 
 1653000   0.98407203   -6.3907801    662.69226  0.033408563  0.033498562            3 
 1654000   0.97509378    -6.408223    660.51737  0.033278788  0.033490265            6 
 1655000   0.99997855   -6.4090708    661.87971  0.033327276  0.033481932            4 
 1656000    1.0081501   -6.3950812    664.21439  0.033424637  0.033473633            3 
 1657000   0.99084097   -6.3624369    665.63754  0.033476038  0.033465527            4 
 1658000   0.98320393    -6.382386    666.26996  0.033487634  0.033457397            2 
 1659000   0.98811819   -6.3527417    667.90735  0.033549696  0.033449308            5 
 1660000   0.97561679   -6.3848133    665.29552  0.033398369    0.0334414            3 
 1661000   0.98692776   -6.3435403    666.82689  0.033455092  0.033433433            3 
 1662000   0.98876353   -6.3854248    666.03061  0.033395037  0.033425398            6 
 1663000   0.97187034   -6.3491983    667.44039    0.0334456   0.03341723            4 
 1664000   0.98384873   -6.3802762    670.16748  0.033562073  0.033409358            3 
 1665000   0.97384995   -6.4023496    667.33361  0.033400081  0.033401342            2 
 1666000    1.0014611   -6.4057033    666.48808  0.033337739  0.033393268            6 
 1667000   0.99767118   -6.3527232    671.16055  0.033551317  0.033385248            5 
 1668000    1.0159114   -6.3869294    668.96574   0.03342155  0.033377257            7 
 1669000    1.0014328   -6.3743135    670.19965  0.033463134  0.033369282            5 
 1670000   0.97856033   -6.3867127    669.50384  0.033408375  0.033361414            3 
 1671000    1.0109047   -6.4161787    667.35219  0.033281078  0.033353428            3 
 1672000   0.97628936   -6.3585535    669.63896  0.033375147  0.033345477            6 
 1673000    1.0189849   -6.3406184    671.33117  0.033439489  0.033337523           12 
 1674000   0.95929471   -6.3486908    672.39839   0.03347264  0.033329606            8 
 1675000   0.97717888   -6.3881185    669.52848  0.033309875  0.033321668            5 
 1676000   0.99373818   -6.3841361    670.26941   0.03332684  0.033313699            5 
 1677000   0.97134435   -6.3997219    669.52075  0.033269765   0.03330577            5 
 1678000   0.97570004   -6.3741574    673.29488   0.03343737  0.033297821            5 
 1679000   0.97331087   -6.3815185    671.08763  0.033307903  0.033289768            4 
 1680000   0.96509032   -6.3876522    672.06034  0.033336326  0.033281757            3 
 1681000   0.97762649   -6.3532573    673.08196   0.03336714  0.033273688            3 
 1682000   0.98215414   -6.3558936    673.09141  0.033347771  0.033265724            6 
 1683000    0.9813653   -6.3603165    672.13835  0.033280766   0.03325769            3 
 1684000   0.99101175   -6.3682515    674.57455  0.033381559  0.033249908            4 
 1685000   0.99967433   -6.3994507    672.51481  0.033259882  0.033242086            5 
 1686000   0.98786085   -6.3901234     673.4207   0.03328493  0.033234185            5 
 1687000   0.98622328   -6.3984753    672.36023  0.033212815  0.033226236            3 
 1688000   0.97750576   -6.3724807     673.5034  0.033249576    0.0332183            4 
 1689000   0.98816616   -6.3893788    675.99485  0.033352815  0.033210445            2 
 1690000    0.9849636   -6.3824233    675.44683  0.033306057  0.033202687            5 
 1691000   0.98133854   -6.3758403    676.66041  0.033346166  0.033194977            4 
 1692000   0.99516239   -6.3561716    678.49897   0.03341701  0.033187365            6 
 1693000    1.0014825   -6.3564684    677.73971  0.033359899    0.0331798            4 
 1694000    1.0194853   -6.3299559     678.0601  0.033355967   0.03317223            4 
 1695000   0.95607533   -6.3557619    678.13108  0.033339778  0.033164602            3 
 1696000   0.98090075   -6.3386119    678.74253  0.033350163  0.033156974            5 
 1697000   0.98013699   -6.4122208     674.7212  0.033133039  0.033149175            2 
 1698000   0.97091191   -6.3970936    675.32729  0.033143271  0.033141348            5 
 1699000   0.96665711   -6.3760199    680.67876  0.033386245   0.03313349            9 
 1700000   0.98067354   -6.4038905    675.85985  0.033130385   0.03312578            5 
 1701000   0.98534732   -6.3951648    676.97711  0.033165643  0.033117994            4 
 1702000   0.97183454     -6.35393    680.53812  0.033320511  0.033110322            4 
 1703000    0.9781792   -6.3579078    680.10651  0.033279825  0.033102816            3 
 1704000   0.96972896   -6.3685317    680.31443  0.033270463  0.033095283            2 
 1705000   0.96374108   -6.4103615    679.87802   0.03322962  0.033087763            5 
 1706000   0.96086926   -6.3825942    681.51764  0.033290232   0.03308018            6 
 1707000   0.97383949   -6.3640941     682.6895  0.033327939  0.033072603            3 
 1708000   0.95759068   -6.3924485    680.11839  0.033182981  0.033065124            7 
 1709000   0.98414548   -6.3948689     679.4773  0.033132305  0.033057527            4 
 1710000   0.98861856   -6.4071249    681.50014  0.033211508  0.033049741           11 
 1711000   0.96993159   -6.3611609    683.17927  0.033273878  0.033042054            5 
 1712000   0.98533297   -6.3511053    682.51582  0.033222148  0.033034447            3 
 1713000   0.97502732   -6.3320132    683.64021  0.033257453  0.033026827            3 
 1714000   0.98034938   -6.3802766    682.14393  0.033165302  0.033019201            8 
 1715000    0.9825733   -6.3995442    682.77255  0.033176509  0.033011564            7 
 1716000   0.96533783   -6.3845798     682.3591  0.033137097  0.033003904            8 
 1717000   0.99603631   -6.4024428    680.76849  0.033040599  0.032996144            7 
 1718000   0.97170227   -6.3992389    681.57972  0.033060716  0.032988226            6 
 1719000   0.98523407   -6.3935419    682.49517  0.033085863  0.032980175            8 
 1720000   0.95732338   -6.3929849    682.64232  0.033073756  0.032972356            5 
 1721000   0.98529686   -6.4045025    682.31744  0.033038807  0.032964696            6 
 1722000   0.97264988   -6.3807445    682.85132  0.033045457  0.032957069            4 
 1723000    1.0050787   -6.4302254    683.73836   0.03306918  0.032949443            5 
 1724000   0.97351974   -6.4098455    684.62144  0.033092684  0.032941885            2 
 1725000   0.96453069   -6.3761819    685.39821  0.033111025  0.032934335            6 
 1726000   0.95448105   -6.4074102    685.02613  0.033073876  0.032926755            3 
 1727000   0.99017093   -6.3738102    685.46157  0.033075737  0.032919192            4 
 1728000    0.9668922   -6.4120246    686.78091  0.033120221   0.03291171            8 
 1729000   0.94549227   -6.3876309    686.01997   0.03306439  0.032904151            8 
 1730000   0.96406898   -6.3871057     686.6868  0.033077399  0.032896514            3 
 1731000   0.97949044   -6.4021796    686.26213  0.033037845  0.032888941            5 
 1732000   0.98724848   -6.3651407    687.99268  0.033102034  0.032881296            3 
 1733000   0.96559705   -6.3672291    689.24861  0.033143326  0.032873658            6 
 1734000   0.98766939   -6.4138335    685.60497  0.032949104  0.032865999            5 
 1735000   0.98747812   -6.3923908    684.63184  0.032883374    0.0328584            4 
 1736000    0.9685522   -6.3810155     687.7862  0.033015851  0.032850581            4 
 1737000   0.97426052   -6.3796752    687.17793  0.032967661  0.032843033            5 
 1738000   0.99686539   -6.3936025    688.75335  0.033024231  0.032835263            5 
 1739000    0.9755666   -6.3719784    688.61653  0.032998684  0.032827582            5 
 1740000   0.96229543   -6.4101742    689.19628  0.033007485  0.032819832            3 
 1741000   0.97198455   -6.3963814    690.10631  0.033032085  0.032812221            3 
 1742000   0.98979052   -6.4235498    687.59356  0.032892918  0.032804725            8 
 1743000   0.97453769    -6.382865    689.13519  0.032947752  0.032797162            4 
 1744000     0.986584   -6.3818431    689.68426  0.032955097  0.032789557            7 
 1745000   0.97091894   -6.3673585    690.17148  0.032959479  0.032782095            4 
 1746000   0.96133398   -6.3534279     692.6852  0.033060576  0.032774648            6 
 1747000   0.98195301    -6.403712    688.79084  0.032855888  0.032767105            3 
 1748000   0.97178878   -6.3718198    690.55333  0.032921116  0.032759583            3 
 1749000    0.9802286   -6.4160169    688.89602  0.032823328  0.032751922           11 
 1750000   0.97014724   -6.3994261    688.67743  0.032794163   0.03274423            3 
 1751000   0.98151666   -6.3885021    692.96654  0.032979561  0.032736584            6 
 1752000   0.96241463   -6.4066065    688.70548  0.032758061   0.03272902            8 
 1753000    0.9906191   -6.4088908    689.42978  0.032773806   0.03272143            3 
 1754000   0.96486551   -6.4175302      692.287  0.032890869  0.032713632            3 
 1755000   0.99363583   -6.4041739     690.3046  0.032777996  0.032706095            3 
 1756000    0.9728031   -6.4104883    691.99354  0.032839481  0.032698319            4 
 1757000   0.96822412   -6.4307644    692.75069  0.032856701  0.032690416            6 
 1758000   0.96913704   -6.3885797    692.99945  0.032849803  0.032682731            6 
 1759000   0.97479548   -6.4095455    694.60575  0.032907227   0.03267505            7 
 1760000   0.96961132   -6.3884949    695.31808  0.032922257  0.032667421            2 
 1761000     0.975445   -6.4304884    692.24415  0.032758099  0.032659638            5 
 1762000   0.98516768   -6.4203695    692.14369  0.032734756  0.032651889            8 
 1763000   0.97190697   -6.4444004    693.53391  0.032781902  0.032644138            3 
 1764000   0.93800169   -6.4366059    692.33582  0.032706719  0.032636463            8 
 1765000   0.98486903   -6.3989278    693.29311  0.032733386  0.032628736            4 
 1766000   0.97344701    -6.396662    693.69925  0.032734015  0.032620999            4 
 1767000   0.95053012   -6.4333904    690.58819   0.03256877  0.032613177            3 
 1768000   0.96908337   -6.4162467    692.35216  0.032633492  0.032605291            4 
 1769000   0.99645856   -6.4193362    692.87329  0.032639594  0.032597369            6 
 1770000   0.99086774   -6.4218541    692.51561  0.032604313  0.032589606            3 
 1771000   0.98288832   -6.4059148    693.06694  0.032611845  0.032581671            4 
 1772000   0.96011277   -6.4163993    695.02617   0.03268558  0.032573842            4 
 1773000   0.97451977   -6.3968103    694.37706  0.032636635  0.032565922           10 
 1774000   0.98261874   -6.3974119    692.96882  0.032552087  0.032558059            4 
 1775000   0.94953016   -6.4250789    691.43878  0.032461914  0.032550171            4 
 1776000   0.95168387   -6.4164822    692.89445  0.032511939   0.03254218            9 
 1777000   0.98250692   -6.4271515    695.42064   0.03261211  0.032534086            4 
 1778000   0.99764242   -6.3820764    696.45544  0.032642268  0.032525983            4 
 1779000   0.96000743   -6.4195613    694.58676  0.032536386  0.032518071            4 
 1780000   0.96381927   -6.4088332    693.14112  0.032450427  0.032510004            2 
 1781000    0.9783419   -6.4157508    694.66315  0.032503423  0.032501936            4 
 1782000   0.97330324   -6.3944082    697.17829  0.032602801   0.03249398            3 
 1783000   0.98001062    -6.425171    694.83739  0.032475107  0.032486033            4 
 1784000    0.9558503   -6.4126959    697.38109  0.032575723  0.032478167            3 
 1785000   0.95616192   -6.4075577    697.42549  0.032559547  0.032470517            4 
 1786000   0.96526281   -6.4329708    699.23182  0.032625598  0.032462759            6 
 1787000   0.96994003   -6.4443147    697.11466  0.032508611  0.032454942            6 
 1788000   0.96435853   -6.4300245    696.08098  0.032442253  0.032447056            4 
 1789000   0.96601733   -6.4364088    697.96306  0.032511788  0.032439188            5 
 1790000   0.96239507   -6.4366355    696.72703  0.032436082  0.032431129            4 
 1791000   0.96727433   -6.3929185    702.05793  0.032666012  0.032423175            4 
 1792000   0.98764248   -6.4083698    699.07289   0.03250897  0.032415416            7 
 1793000   0.95831702   -6.3890279    700.09147  0.032538179  0.032407844            4 
 1794000   0.94890581   -6.4149015    700.12667  0.032521677  0.032400206            7 
 1795000   0.96387846   -6.4248078    700.96205  0.032542342  0.032392476            5 
 1796000    1.0116735   -6.4112899     700.6664  0.032510505  0.032384761            4 
 1797000   0.94520042   -6.4177446    700.11853  0.032467006  0.032377054            3 
 1798000   0.95041507   -6.4117699    700.30677  0.032457674  0.032369354            7 
 1799000   0.96500854   -6.4207662    700.71112  0.032458362  0.032361613            8 
 1800000   0.97602228   -6.4272964    699.86014  0.032400932   0.03235382            4 
 1801000   0.97955456   -6.3956797    702.04201  0.032483898  0.032345922            5 
 1802000   0.96631903   -6.4359138    700.01918  0.032372326  0.032337965           13 
 1803000   0.98153658   -6.3810263    700.99689   0.03239956  0.032330168            3 
 1804000   0.94221331   -6.4523237    698.82702  0.032281367  0.032322369            4 
 1805000   0.97160403   -6.4085339    703.06793  0.032459276  0.032314484            7 
 1806000    0.9585345     -6.44475    701.14642   0.03235264  0.032306638            3 
 1807000   0.94537983   -6.4164598    704.11769  0.032471762  0.032298624            5 
 1808000   0.96433109   -6.4268323    706.24883  0.032552029   0.03229082            4 
 1809000   0.95904061   -6.4327523    702.57856   0.03236496  0.032283115            7 
 1810000   0.96390825   -6.4502953    700.87981  0.032268868  0.032275422           11 
 1811000    0.9728137   -6.4213217    703.91506  0.032390717  0.032267573            8 
 1812000   0.97513693   -6.4500065    702.67724  0.032315914  0.032259678            4 
 1813000   0.95458396   -6.4433995    703.37053  0.032329956  0.032251878            4 
 1814000   0.95712238   -6.4077788    702.43366  0.032269095  0.032244052            3 
 1815000   0.96126101   -6.4336225    704.09663  0.032327669  0.032236196            4 
 1816000   0.97658945   -6.4167661    703.01029  0.032260017  0.032228319            2 
 1817000   0.97248572   -6.4380704    703.65584  0.032271869  0.032220379            4 
 1818000   0.95929097   -6.4207794    703.03362  0.032225597  0.032212456            3 
 1819000   0.97682614   -6.4213109    704.08569  0.032256079  0.032204552            7 
 1820000   0.95828763   -6.4080762    705.40574  0.032298798  0.032196686            4 
 1821000   0.95300585   -6.4418759     705.0084  0.032262877  0.032188726           13 
 1822000   0.96078495   -6.4283651    706.05304  0.032292949  0.032180824            7 
 1823000    0.9723994   -6.4472921    703.66747  0.032166185  0.032172889            4 
 1824000   0.97169824   -6.4160103     705.3403  0.032224977  0.032165037            3 
 1825000   0.95124867   -6.4606081    704.58726  0.032172934  0.032157286            5 
 1826000   0.95669941   -6.4255034    708.02169  0.032312052  0.032149548            6 
 1827000   0.97011985   -6.4266295    706.10261  0.032206833  0.032141886            6 
 1828000    0.9653886   -6.4466775    707.41978  0.032249261  0.032134114            5 
 1829000   0.95115083   -6.4307255    707.23227  0.032223085  0.032126326            9 
 1830000   0.97615013   -6.4277379    707.51907  0.032218537  0.032118561           12 
 1831000   0.95093506   -6.4571678    708.00487  0.032223051  0.032110954            3 
 1832000   0.93895425   -6.4281613    708.51929  0.032228861  0.032103204            6 
 1833000   0.94043777   -6.4406579    707.19318   0.03215099  0.032095392            7 
 1834000   0.96034276   -6.4799498    707.46504  0.032145812  0.032087536            5 
 1835000   0.94107771   -6.4018725    710.36802  0.032260128  0.032079849            5 
 1836000   0.95612387   -6.4336432    710.60526  0.032253325  0.032072185            5 
 1837000   0.96895024   -6.4671582    708.83066  0.032155265  0.032064645            6 
 1838000   0.95679543   -6.4307442    710.29426  0.032204128  0.032057025            2 
 1839000   0.95359489   -6.4599489    708.30566  0.032096505   0.03204936            3 
 1840000   0.96304292   -6.4113677    708.61347  0.032093001  0.032041727            3 
 1841000   0.96921068   -6.4515715    710.19251  0.032147045  0.032034135            5 
 1842000   0.95540436   -6.4309892     709.6311  0.032104194   0.03202642            6 
 1843000   0.97689099    -6.438429    710.07021  0.032106629  0.032018738            6 
 1844000   0.95645294   -6.4622324    711.18607  0.032139645  0.032010916            4 
 1845000   0.95712759   -6.4146144    710.82158  0.032105762  0.032003181            9 
 1846000   0.95611494   -6.4748256    711.09583  0.032100751  0.031995529           11 
 1847000   0.95520856   -6.4569923    713.18186  0.032177489   0.03198774            3 
 1848000   0.94386208   -6.4750451    712.09034  0.032110856  0.031979929            5 
 1849000   0.95392395    -6.483654    711.49476  0.032066647  0.031972123            3 
 1850000   0.94380967    -6.460593    713.74484  0.032150668  0.031964407            4 
 1851000   0.95197286   -6.4543202    711.24203  0.032020621  0.031956661            5 
 1852000   0.96109597   -6.4468846    712.83789  0.032075139  0.031949035           15 
 1853000   0.97339183   -6.4302189    714.28678  0.032122989  0.031941242            6 
 1854000   0.94943914    -6.426671    716.65621  0.032212163  0.031933643            7 
 1855000    0.9425078   -6.4504252    714.40684  0.032093748  0.031926053            5 
 1856000   0.96196874   -6.4651254    713.81477  0.032049873  0.031918327           11 
 1857000   0.94379351    -6.452016    713.86615   0.03203492  0.031910537            4 
 1858000   0.95134537   -6.4699437    712.81939   0.03197073  0.031902612            6 
 1859000   0.94135673    -6.448988     714.5552  0.032031343  0.031894969            4 
 1860000    0.9313146   -6.4567968    712.74115  0.031932847  0.031887252            4 
 1861000    0.9714273   -6.4399547    716.20952  0.032070998  0.031879562            7 
 1862000   0.96648106   -6.4452766    714.67202  0.031984963  0.031871837            4 
 1863000   0.95259544   -6.4609452    714.17131  0.031945397  0.031864117            4 
 1864000     0.972202   -6.4821147    713.44401  0.031895744  0.031856401            6 
 1865000    0.9822291   -6.4549627    714.94092  0.031945528  0.031848603            7 
 1866000   0.95151981   -6.4312274    715.96737  0.031974249   0.03184078            5 
 1867000   0.94906661   -6.4123818    718.27631  0.032060182  0.031832973            4 
 1868000   0.97338085   -6.4685958    714.75464  0.031885914  0.031825157            4 
 1869000   0.95727911   -6.4755249    715.76297  0.031913812  0.031817292            5 
 1870000   0.94208585    -6.458765    714.43793  0.031837697  0.031809426            8 
 1871000   0.96639884   -6.4530148    715.50064  0.031868013  0.031801613            9 
 1872000   0.95292281   -6.4751201    713.35206  0.031755345  0.031793593            3 
 1873000    0.9528933   -6.3961029    717.69814  0.031931756  0.031785657            4 
 1874000   0.94692287   -6.4508069    716.25073  0.031850353  0.031777882           10 
 1875000   0.93807133   -6.4426538    717.80051  0.031902245  0.031769918            4 
 1876000   0.94441883   -6.4456425    716.68802  0.031835822  0.031761816            5 
 1877000    0.9260609   -6.4623507    714.23404  0.031709911  0.031753863           11 
 1878000    0.9515367   -6.4844444    715.07808  0.031730479  0.031745769            6 
 1879000   0.94534293   -6.4616123    714.74204  0.031698689   0.03173752            9 
 1880000   0.95658021   -6.4356323    716.57042  0.031762873  0.031729534           11 
 1881000    0.9770444   -6.4587848    715.57173  0.031701742  0.031721377            8 
 1882000   0.95100529   -6.4445017    715.97271  0.031702653  0.031713285            4 
 1883000   0.94432232    -6.478168    713.65071  0.031583055  0.031705201            2 
 1884000   0.94716613   -6.4302854      718.028  0.031759908  0.031697089            6 
 1885000   0.97772952    -6.476486     714.9316  0.031606172  0.031688834            3 
 1886000   0.96535651   -6.4275528    718.68938  0.031755451   0.03168068            4 
 1887000   0.95902057   -6.4572508    716.08569   0.03162364  0.031672524            7 
 1888000   0.94588166   -6.4730688    717.54076  0.031671114  0.031664298            3 
 1889000   0.94288062   -6.4706767    716.82362  0.031622711  0.031656151           10 
 1890000   0.95240546   -6.4485964    716.65019  0.031598333   0.03164796            5 
 1891000   0.93443039   -6.4377418    720.69526  0.031759883  0.031639928            6 
 1892000   0.96480717    -6.494315    717.17562  0.031588073  0.031631837            6 
 1893000   0.92933134   -6.4365094    719.28175  0.031664103  0.031623694            9 
 1894000   0.93913433    -6.448312    721.65027  0.031751596  0.031615645            3 
 1895000   0.94852454   -6.4585101    717.87256  0.031568714  0.031607664            3 
 1896000   0.92773557   -6.4873533    721.48236  0.031710723   0.03159953            5 
 1897000   0.93301806   -6.4978088    719.54694  0.031608985  0.031591386            4 
 1898000   0.92330984   -6.4663781    718.72237  0.031556128  0.031583383            3 
 1899000   0.97206366    -6.491075     718.4421  0.031527212  0.031575447            6 
 1900000   0.94363311   -6.4683284    719.64705  0.031563467  0.031567402            8 
 1901000   0.95429077   -6.4769973     720.6116  0.031589146  0.031559312            4 
 1902000    0.9573518   -6.5121232    719.44876  0.031521589  0.031551193            4 
 1903000   0.95897555   -6.4677389    721.20458  0.031581914  0.031543056            4 
 1904000   0.94400097   -6.4641612    720.36014  0.031528368  0.031535142            3 
 1905000   0.95859861   -6.4522355    719.53219  0.031475599  0.031526948            4 
 1906000   0.94216364   -6.4900079    721.34782  0.031538467  0.031518754            7 
 1907000    0.9303365   -6.4267165     721.6369  0.031534561    0.0315107            7 
 1908000   0.94788536   -6.4413332    722.34902  0.031549136  0.031502564            3 
 1909000   0.92918703   -6.4616385    719.38678  0.031403299  0.031494375            3 
 1910000   0.92807403   -6.4782777     721.0535  0.031459577  0.031486165            3 
 1911000   0.93247196   -6.4091589    723.28275  0.031540326  0.031478004            7 
 1912000   0.93604361    -6.429163    725.21894  0.031608217  0.031469964            6 
 1913000   0.94184406   -6.4674952    721.48052  0.031428843   0.03146172           10 
 1914000   0.94963793   -6.4994135    719.07128  0.031307527  0.031453443            3 
 1915000   0.95598215   -6.4431886    721.51998  0.031397736  0.031445051            4 
 1916000   0.92811818   -6.4606292    722.08358  0.031405862  0.031436766            3 
 1917000   0.94639432   -6.4308613    724.25985  0.031484083  0.031428536            7 
 1918000   0.95553294   -6.4844093     721.5048  0.031347966  0.031420383            6 
 1919000   0.95365214   -6.4962889    722.46205    0.0313732   0.03141212            3 
 1920000    0.9537949   -6.4690065    723.51417  0.031402525  0.031403796            7 
 1921000   0.93832792   -6.4636416    719.97864  0.031232806    0.0313954            8 
 1922000   0.93957324   -6.4956004    721.69166  0.031290828  0.031387075           10 
 1923000   0.94557848   -6.4552239     722.5053  0.031309815  0.031378696            3 
 1924000    0.9599931   -6.4920038    720.26483  0.031196501   0.03137029            3 
 1925000   0.93344488   -6.4711983    724.59696  0.031367834  0.031361888            4 
 1926000   0.94940138   -6.4733229    723.82009  0.031317934  0.031353484            4 
 1927000   0.94086643   -6.4873336     721.0774  0.031183074  0.031345189            3 
 1928000   0.92746654   -6.4794435    721.91815   0.03120324  0.031336731            2 
 1929000   0.95203151   -6.5079505    721.48456  0.031168332   0.03132819            5 
 1930000   0.96222471   -6.5006268    721.68215  0.031160714  0.031319635            5 
 1931000   0.94267575   -6.5045698    722.20857  0.031167295  0.031311208            6 
 1932000   0.92458175    -6.435662    725.66364  0.031300192  0.031302878            6 
 1933000   0.93409143    -6.479081    723.48224  0.031189957  0.031294623            6 
 1934000   0.92599703   -6.4632169     723.5924  0.031178576  0.031286362            6 
 1935000   0.94354672   -6.4742705    723.21176  0.031146071  0.031277903            6 
 1936000   0.91811364   -6.4655155    722.51662  0.031100061  0.031269552            8 
 1937000   0.94143307   -6.4675554    724.96369  0.031189283   0.03126124            4 
 1938000   0.92329369   -6.4758191    726.39127  0.031234575  0.031252832            8 
 1939000    0.9316991   -6.4553541    726.28788  0.031214023   0.03124471            3 
 1940000   0.93286064    -6.529194    724.62182  0.031126367  0.031236373            8 
 1941000   0.92856858   -6.4868913    724.70072  0.031113718  0.031228059           10 
 1942000   0.92463393   -6.4791715    729.62844  0.031309151  0.031219839            5 
 1943000   0.93257539   -6.4652219    726.93117  0.031177353  0.031211673            4 
 1944000   0.93948902   -6.4983244    725.47768  0.031099009  0.031203375            4 
 1945000   0.94111669   -6.5089779    726.24543  0.031115914  0.031195008            4 
 1946000   0.93859996   -6.4759415    726.31553  0.031102926  0.031186605           10 
 1947000   0.93684557   -6.4781945    725.88811  0.031068657  0.031178221            5 
 1948000   0.94328179   -6.4723532    726.93096   0.03109732  0.031169896            5 
 1949000   0.93441185   -6.4923659    728.12871  0.031132577  0.031161694            3 
 1950000   0.93594667   -6.4914847     726.9279  0.031065295  0.031153431            5 
 1951000   0.94004659   -6.5159525    726.87837  0.031047256  0.031145134            5 
 1952000   0.92187417   -6.4883565     729.0449  0.031123843   0.03113682            4 
 1953000   0.92677276   -6.4761236    728.19651  0.031071706  0.031128378            2 
 1954000   0.92578153    -6.479438    726.72919  0.030993227   0.03112009            6 
 1955000   0.93736305    -6.496705     727.1418  0.030994962  0.031111714            5 
 1956000   0.93882396   -6.4780644    728.96911  0.031056966  0.031103346            7 
 1957000   0.92808864   -6.4646701    731.12078  0.031132719  0.031095216            3 
 1958000   0.96585193    -6.535077    728.41577  0.031001693  0.031086948            3 
 1959000   0.95444283   -6.4730704    729.72665   0.03104163  0.031078713            7 
 1960000   0.92133966   -6.4835352    731.44043  0.031098658   0.03107039            5 
 1961000   0.96267692   -6.4960361    732.05916  0.031109092  0.031062145            3 
 1962000   0.94289698   -6.4802959    729.89416  0.031001281  0.031053866            6 
 1963000   0.91685827   -6.4583424    730.03232  0.030991353   0.03104573            7 
 1964000      0.93311   -6.4821107    729.51089  0.030953449  0.031037443            2 
 1965000   0.93691779   -6.5178781    729.99202  0.030958101   0.03102904            3 
 1966000   0.93072627   -6.5157241    729.89357  0.030938181  0.031020738            5 
 1967000    0.9417255   -6.5230473    729.88647  0.030922152  0.031012406            6 
 1968000   0.92090448   -6.4753762    729.92423  0.030908038  0.031004025            7 
 1969000   0.91227849   -6.5023387    730.03251  0.030896923  0.030995575            6 
 1970000   0.92578963   -6.4895979    731.19663  0.030930484  0.030987125            5 
 1971000   0.93726811   -6.4983008    730.09036  0.030868018  0.030978735            8 
 1972000   0.92393435   -6.4346693    732.38767  0.030949445  0.030970349            5 
 1973000   0.95167831   -6.5142068    730.79337   0.03086642  0.030962054            4 
 1974000   0.94851955   -6.4676842    729.91047  0.030813512  0.030953593            5 
 1975000   0.93368157   -6.4590135    734.75578  0.031002353  0.030945163            4 
 1976000   0.94822144   -6.4965398    731.94316  0.030868048  0.030936817            6 
 1977000   0.93691727   -6.5095235    731.79375  0.030846137  0.030928516            5 
 1978000    0.9303541   -6.4717067    732.50169  0.030860368  0.030920155            4 
 1979000   0.93473619   -6.4882184    732.58578  0.030848315  0.030911788            6 
 1980000   0.93012598   -6.4835117    731.70918  0.030795841  0.030903411            2 
 1981000   0.93711625   -6.4788656    732.47762  0.030812621  0.030895003            8 
 1982000   0.94844308   -6.5189049    733.53405  0.030841492  0.030886521            5 
 1983000    0.9437461   -6.4994726     732.7986  0.030795033  0.030878047            5 
 1984000    0.9358235   -6.4533778     732.2125  0.030754893  0.030869609            5 
 1985000   0.93708602   -6.4874596    734.16314   0.03082129   0.03086117            4 
 1986000   0.93951163   -6.5139903    732.52566  0.030737062  0.030852633            4 
 1987000    0.9327001   -6.4954007    733.27965  0.030753214   0.03084419            5 
 1988000   0.91876491   -6.4818947    731.51059  0.030663589  0.030835706            5 
 1989000   0.91643629   -6.4903732    732.69438   0.03069777  0.030827265            5 
 1990000   0.92417305   -6.4831716    731.42609  0.030629233  0.030818775            5 
 1991000   0.93742767   -6.5120013    732.58729  0.030662451  0.030810196            4 
 1992000   0.94011488   -6.5184873     732.9248  0.030661178  0.030801654            6 
 1993000   0.93871335   -6.4890691    733.30328  0.030661619  0.030793061            4 
 1994000   0.95334139   -6.5093366    732.34347   0.03060613   0.03078448            9 
 1995000   0.93592229   -6.5250029    731.84347  0.030569903  0.030775907            7 
 1996000   0.92436603   -6.5065164    732.83226  0.030595869  0.030767233            4 
 1997000   0.94117903   -6.4993934    734.31354  0.030642361  0.030758549            5 
 1998000   0.93758304   -6.5066593    734.72764  0.030644296  0.030749935            8 
 1999000   0.92834579   -6.5117637    734.65729  0.030626033  0.030741418            5 
 2000000   0.95908847   -6.5197582    734.74239  0.030614266  0.030732657            8 
 2001000    0.9454342    -6.508924    733.00507  0.030526615  0.030724015            6 
 2002000   0.94363346   -6.4758161    735.10333  0.030598707  0.030715523            4 
 2003000   0.92014616   -6.4797814    737.91598  0.030700449  0.030707142            5 
 2004000   0.92370681   -6.4804153    735.36204  0.030578927  0.030698624            8 
 2005000   0.97354207   -6.5090711    735.33028  0.030562356  0.030690068            5 
 2006000   0.92565248   -6.5208723    733.80293  0.030483671  0.030681487            3 
 2007000   0.93355011    -6.477797    735.25263  0.030528676  0.030673037            5 
 2008000    0.9449867   -6.5257767     736.6903  0.030573136  0.030664567            7 
 2009000    0.9430039   -6.5524545    734.77813  0.030478602  0.030656016            5 
 2010000   0.92710384   -6.5308282    734.33628  0.030445119  0.030647415            3 
 2011000   0.89543107   -6.4963586    733.94998  0.030413972  0.030638777            5 
 2012000   0.94568092   -6.4927898    738.95011  0.030605952  0.030630237            4 
 2013000   0.92842732   -6.4870218    737.03531   0.03051148  0.030621734            4 
 2014000   0.92744814   -6.5195039    737.67317  0.030522723  0.030613227            5 
 2015000   0.94085383   -6.5092151    738.46094  0.030540155  0.030604564            3 
 2016000   0.92813862   -6.5277673     736.5333  0.030445325  0.030595995            2 
 2017000   0.92967605   -6.5095841    738.14491  0.030496815  0.030587525           13 
 2018000    0.9193741   -6.4868036    737.57711  0.030458255  0.030578954           13 
 2019000   0.93360611   -6.5083391     738.4359  0.030478616  0.030570434           10 
 2020000    0.9297828   -6.4799258    738.26906  0.030456644   0.03056185            4 
 2021000   0.92200635   -6.4981459    739.29787  0.030483996  0.030553455            4 
 2022000   0.93330066   -6.5191347    737.75442  0.030405309  0.030545036            6 
 2023000   0.92418421   -6.5549135    735.90382  0.030314048  0.030536598            4 
 2024000   0.94033601   -6.5135713    742.06028  0.030552548  0.030528199            5 
 2025000   0.92836637   -6.5103089    738.32202  0.030383622  0.030519883            2 
 2026000    0.9234765   -6.5038186    740.82662  0.030471645  0.030511425            7 
 2027000   0.95126653   -6.5034986    740.23006  0.030432086  0.030503122            4 
 2028000   0.91700299   -6.4947688    744.11449  0.030576697  0.030494799            5 
 2029000   0.92578209   -6.5421361     739.5844  0.030375571  0.030486347           10 
 2030000   0.92903777   -6.5385831    738.17201  0.030302628  0.030477923            3 
 2031000   0.93327408   -6.5346872    738.76391  0.030311994  0.030469387            5 
 2032000   0.92058494   -6.5008327    740.90942  0.030385065  0.030460901            7 
 2033000   0.92752007   -6.5378126    739.18394  0.030299391  0.030452309            3 
 2034000   0.91676983   -6.5185017    739.35042  0.030291315  0.030443707           10 
 2035000   0.93290125   -6.5272392    739.28742   0.03027385  0.030435118            3 
 2036000    0.9340658   -6.5195195    740.61162   0.03031318  0.030426422            3 
 2037000   0.92508056   -6.5238862     739.4555  0.030251002  0.030417781            2 
 2038000   0.94849992   -6.5019087    741.74448  0.030329755  0.030409268            9 
 2039000   0.93235809   -6.5050899    740.25585   0.03025404   0.03040084            5 
 2040000   0.91480327   -6.5396314    741.23986  0.030279406  0.030392344            7 
 2041000   0.90393268   -6.5343002    740.85818  0.030248986  0.030383692            4 
 2042000   0.90035621   -6.5301838    738.74691  0.030148013  0.030374998            3 
 2043000   0.93824927   -6.5377511    738.60329  0.030127398  0.030366393            9 
 2044000    0.9158137   -6.5531763    740.53624  0.030191464  0.030357777            4 
 2045000   0.92261772   -6.5020948    742.36138  0.030251075  0.030349213            3 
 2046000     0.920563   -6.5359217    742.57364  0.030244935  0.030340525            8 
 2047000   0.92611284   -6.5267455    742.25707  0.030217272  0.030331983            5 
 2048000   0.93508121   -6.5181027    741.12657  0.030156517  0.030323329            7 
 2049000   0.92792549   -6.5271511     741.7108  0.030165561  0.030314748            4 
 2050000   0.92881893   -6.5463212    741.23638   0.03013156  0.030306056            3 
 2051000   0.92437273   -6.5392561    739.95328  0.030064736  0.030297339            5 
 2052000   0.92386479   -6.5612868      737.441  0.029948059  0.030288599           11 
 2053000   0.92509007   -6.5533792    741.21261  0.030086565  0.030279865            6 
 2054000   0.91525638   -6.5528349    741.77952  0.030094917  0.030271165            3 
 2055000   0.93646638   -6.5079342    742.81252  0.030122162  0.030262544            4 
 2056000    0.9260209   -6.5213953    743.51957  0.030136169  0.030253901            7 
 2057000   0.92003313   -6.5131797    741.53121  0.030040966   0.03024528            9 
 2058000   0.93069824   -6.5574725    741.10853  0.030009254  0.030236585            5 
 2059000   0.89865567   -6.5226137    742.11617  0.030035461  0.030228074            3 
 2060000   0.91431047   -6.5011816    746.28986  0.030189719   0.03021952            5 
 2061000   0.93361861   -6.4925497    745.48401  0.030142488  0.030211041            4 
 2062000   0.90569121   -6.5385951    743.86788  0.030062556  0.030202578           15 
 2063000    0.9090165   -6.5666674     745.5743  0.030116913  0.030194128            6 
 2064000   0.91535914   -6.5341712    745.37941  0.030094453  0.030185518            6 
 2065000   0.92054505    -6.550364    743.57675  0.030007133  0.030177053            5 
 2066000   0.90932191   -6.5005657    747.77801  0.030162069   0.03016865            2 
 2067000   0.91970984   -6.5474198     744.2055  0.030003447  0.030160249            5 
 2068000   0.92437964   -6.5322771    743.58563   0.02996396  0.030151705            3 
 2069000   0.92159393    -6.530537     744.9626  0.030004938   0.03014317            4 
 2070000   0.92062503   -6.5050593     748.0526  0.030114839  0.030134661            7 
 2071000   0.94787996   -6.5292756     745.5052  0.029997795  0.030126158            5 
 2072000   0.90106823   -6.5460029    745.52209  0.029983997  0.030117694            6 
 2073000   0.90681413   -6.5319663    747.59313  0.030052787  0.030109221            4 
 2074000   0.93459216   -6.5333276    746.42193  0.029991238   0.03010077            4 
 2075000   0.92475364   -6.5365163    747.06347  0.030002549  0.030092282            3 
 2076000   0.92860312   -6.5219854     747.6643  0.030012215  0.030083797            4 
 2077000   0.92463592   -6.5602764    744.57841  0.029873953  0.030075345            6 
 2078000   0.94235461   -6.4954689    747.96983  0.029995582  0.030066808            8 
 2079000   0.89862307   -6.5321113    747.42989  0.029959512  0.030058334            6 
 2080000   0.91353541   -6.5820585    744.71715  0.029836424    0.0300498           18 
 2081000   0.92159699   -6.5147475    748.22858  0.029962701  0.030041312            6 
 2082000   0.94209797   -6.5398203     746.7695   0.02988991  0.030032789            9 
 2083000   0.92255364   -6.5728596    745.77986  0.029835968   0.03002424            6 
 2084000   0.92279784   -6.5442372    749.04988   0.02995241  0.030015663            3 
 2085000   0.92037209   -6.5154943    748.06199  0.029898561   0.03000713            5 
 2086000   0.93814391   -6.5599421     746.9353  0.029839218    0.0299986           11 
 2087000   0.89983868   -6.5848534    750.70564  0.029975469   0.02999009            4 
 2088000   0.90069962   -6.5371986    750.00126     0.029933  0.029981551            2 
 2089000   0.91754214   -6.5352012    748.00647  0.029839096  0.029972965            4 
 2090000   0.93322611   -6.5566286    748.11181  0.029829019  0.029964475            6 
 2091000    0.9058711   -6.5584856    750.52022  0.029910737  0.029956068            7 
 2092000   0.91342855   -6.5288527    749.38025   0.02985103  0.029947686            7 
 2093000   0.92734482   -6.5320573    752.21853  0.029949774  0.029939427            3 
 2094000   0.91431183   -6.5628156    750.46438  0.029865663  0.029931127            7 
 2095000   0.90527141   -6.5455395    750.75302  0.029862889  0.029922736            7 
 2096000   0.91448973   -6.5760673    751.01975  0.029859246  0.029914504            7 
 2097000   0.92509578   -6.5425038    750.69482  0.029832094  0.029906166            5 
 2098000   0.90677664   -6.5337996    750.74764  0.029819973  0.029897898            8 
 2099000   0.93984097   -6.5255844    752.10293  0.029859573  0.029889494            3 
 2100000   0.91088481   -6.5588985    750.45135  0.029779815  0.029881104            5 
 2101000   0.92433431   -6.5164498    753.01022  0.029867135  0.029872642            7 
 2102000   0.89466824   -6.5441245    754.46324  0.029910531  0.029864241            6 
 2103000   0.91616525   -6.5422108    751.86745  0.029793448  0.029855834            8 
 2104000   0.91617287   -6.5325239    753.36191  0.029838479  0.029847489            3 
 2105000   0.90383499   -6.5531609    750.66646  0.029717596  0.029839092            3 
 2106000   0.92359829   -6.5655827    752.55951  0.029778391   0.02983078            4 
 2107000   0.90445629   -6.5524656     753.0441  0.029783424  0.029822498            6 
 2108000     0.905262   -6.5162685    752.71069  0.029756115  0.029814243            4 
 2109000   0.90379141   -6.5432708    752.75223  0.029743647  0.029805984           11 
 2110000   0.90398269    -6.550575    754.69793  0.029806395  0.029797761            7 
 2111000   0.90586254   -6.5365088    753.57851  0.029748086  0.029789476           10 
 2112000    0.9188807   -6.5644193    754.30251  0.029762567   0.02978106            5 
 2113000   0.92363597   -6.5528903     753.9639  0.029735128  0.029772653            6 
 2114000   0.90563672   -6.5918493    752.95429  0.029681264  0.029764271            5 
 2115000   0.90634574   -6.5484302    754.64524  0.029733855   0.02975597            5 
 2116000    0.9014833   -6.5193116    754.61438  0.029718588  0.029747677            7 
 2117000   0.92210471   -6.5026311    754.75943  0.029710259  0.029739336            7 
 2118000   0.92513987   -6.5755275    753.93559  0.029663818  0.029730842            4 
 2119000   0.91062123   -6.5658414    753.90415  0.029648582  0.029722306            8 
 2120000   0.91894684   -6.5965452    752.99078  0.029598694  0.029713779            4 
 2121000   0.91403858   -6.5665205     754.7029  0.029652008  0.029705327            4 
 2122000   0.92722404   -6.5910411     753.8327   0.02960386  0.029696903            3 
 2123000   0.92043872   -6.5351075    755.97927  0.029674174  0.029688526            6 
 2124000   0.90422069   -6.5418176      754.143  0.029588159  0.029680262            3 
 2125000    0.8949323   -6.5329455    757.48325  0.029705226  0.029671936            4 
 2126000    0.9135852   -6.5492062    754.58874  0.029577796  0.029663699            4 
 2127000   0.89751701    -6.535796    757.37743  0.029673148  0.029655464            4 
 2128000    0.8975013   -6.5273782    755.59599  0.029589442  0.029647125            9 
 2129000   0.93756907   -6.5433136    753.84692  0.029507081  0.029638838            9 
 2130000   0.91849182   -6.5353152    754.37065  0.029513719  0.029630599            5 
 2131000   0.93208377   -6.5148103    758.16124  0.029648101  0.029622296            6 
 2132000   0.92133666   -6.5983258    754.47676   0.02949018  0.029613932            4 
 2133000   0.92754367   -6.5421983    758.38922  0.029629208  0.029605582            3 
 2134000   0.89522825   -6.5611537    756.28993  0.029533346  0.029597187            8 
 2135000   0.90797814   -6.5800811    756.11652  0.029512745  0.029588826            8 
 2136000   0.91062979   -6.5792089    755.70803  0.029482991  0.029580409            7 
 2137000    0.9259688   -6.5802336    754.01588  0.029403208  0.029572015            5 
 2138000   0.89495782   -6.5431736    758.38398  0.029559712  0.029563591            4 
 2139000    0.9183064   -6.5255604    757.27694  0.029502764  0.029555266            4 
 2140000   0.90884431   -6.5937948    756.44487  0.029456576  0.029546931            2 
 2141000   0.89648487   -6.5815873    755.41418  0.029402701  0.029538499            4 
 2142000   0.92161776   -6.5601809    756.85625  0.029445076  0.029530072           10 
 2143000   0.90739924    -6.562072    757.17943  0.029443904  0.029521653            7 
 2144000    0.9114478   -6.5308786    758.68905  0.029488847  0.029513187            7 
 2145000   0.90593974   -6.5714168    758.60873  0.029471979  0.029504724            6 
 2146000   0.91637319   -6.5611969    757.13485  0.029401012   0.02949627            6 
 2147000   0.90628598   -6.5847765    757.01261  0.029382573  0.029487845            6 
 2148000   0.90738535   -6.5879407    759.15826  0.029452136  0.029479526            7 
 2149000   0.90497117   -6.5588705    758.45915  0.029411321  0.029471236           11 
 2150000    0.9004716   -6.5610512    759.32124  0.029431056  0.029462849           10 
 2151000   0.89834385   -6.5663388    758.15921  0.029372354   0.02945444           14 
 2152000   0.92737942   -6.6020337    757.40432  0.029329473  0.029446025            4 
 2153000   0.88758745   -6.5340609    759.41398  0.029393636  0.029437571            5 
 2154000   0.91681162   -6.5437394    759.83668  0.029396343  0.029429263            6 
 2155000   0.91630204   -6.5772093    756.94002  0.029270689  0.029420891            4 
 2156000   0.90119135   -6.5879487    760.58601  0.029398037  0.029412586            4 
 2157000   0.89547898   -6.5673514    760.51602  0.029381704  0.029404168            4 
 2158000   0.90349503   -6.5919634    756.74326    0.0292224  0.029395702           10 
 2159000   0.90673959   -6.5669168    760.91381   0.02936984  0.029387236            4 
 2160000   0.91428022   -6.5835057    757.72015   0.02923303  0.029378937            5 
 2161000   0.90631543   -6.5571276    759.73887   0.02929735  0.029370655            4 
 2162000   0.92041834   -6.5564592    761.02179  0.029333248  0.029362363            8 
 2163000   0.88871211   -6.5582792    759.27351  0.029252331  0.029353982            5 
 2164000   0.92579344   -6.5585653    759.29188  0.029239521  0.029345663            2 
 2165000   0.90712715   -6.5741765     759.5709  0.029236755  0.029337247            5 
 2166000   0.90195283   -6.5789036    760.41732  0.029255822   0.02932878           12 
 2167000   0.88622705   -6.5919562    758.80907  0.029180475  0.029320333            5 
 2168000   0.90476578   -6.5759313    761.21003  0.029259303  0.029311862            6 
 2169000   0.92640293   -6.5428148    761.45324  0.029255158   0.02930348            3 
 2170000   0.89238864   -6.5590955    762.35896  0.029276458  0.029295077            5 
 2171000   0.90842511   -6.5924094    759.62432  0.029158004  0.029286566            5 
 2172000   0.89201337   -6.5586649    760.54288  0.029179822  0.029278045            9 
 2173000   0.91239125   -6.5863219    758.25242  0.029078556  0.029269548            7 
 2174000   0.89931438   -6.5525013    762.18594  0.029215959  0.029261046            8 
 2175000   0.89658111   -6.5496469    761.11822  0.029161618  0.029252603            6 
 2176000   0.90951863   -6.5635978    762.27031  0.029192337  0.029244147           12 
 2177000   0.90122077   -6.5731356    760.34963  0.029105406  0.029235658            7 
 2178000   0.92297457    -6.583183    760.69781  0.029105365  0.029227272            7 
 2179000   0.90061146   -6.5452545      764.368   0.02923237  0.029218899            4 
 2180000   0.90487228   -6.5781018    762.99444  0.029166454  0.029210519            5 
 2181000   0.90858726   -6.6000196    761.58948  0.029099399  0.029201952            5 
 2182000    0.9214978    -6.611681    760.50147  0.029044511  0.029193393            8 
 2183000   0.90671513   -6.6237193    759.17482  0.028980563  0.029184897            8 
 2184000   0.88689096   -6.5998974    760.61791  0.029022356  0.029176293            2 
 2185000   0.89212269   -6.5809774    763.64201  0.029124409  0.029167867            5 
 2186000   0.88601738    -6.569914    761.29186  0.029021495  0.029159411            3 
 2187000    0.9091005   -6.5927676     762.9967  0.029073186  0.029150959            5 
 2188000    0.9023843   -6.5908886    763.95073  0.029096234  0.029142521            7 
 2189000   0.89301992   -6.5722628    763.02469  0.029047689   0.02913411            4 
 2190000   0.88776216   -6.5631626    761.96929  0.028994265  0.029125701            7 
 2191000   0.89195722   -6.5648237    764.63425  0.029082392  0.029117361            7 
 2192000   0.90701119   -6.5983548    764.08943  0.029048412  0.029108967            9 
 2193000    0.8953452   -6.5750424     763.7811  0.029023449  0.029100743            7 
 2194000   0.88432273   -6.6089843    765.84631  0.029088663  0.029092413           11 
 2195000   0.89804359   -6.5741319    765.39073  0.029058114  0.029084033            9 
 2196000   0.90876438   -6.5728808    765.47366  0.029048029  0.029075685            9 
 2197000   0.90823282   -6.5553449    766.67446  0.029080354  0.029067345           11 
 2198000   0.90897447   -6.5926966    764.19637  0.028973171   0.02905893            8 
 2199000   0.91694296   -6.5626338    766.60223  0.029051168  0.029050572           10 
 2200000   0.89432638   -6.6070814    764.50567  0.028958548  0.029042163           10 
 2201000   0.91002765   -6.5612801    766.31048  0.029013724  0.029033683            3 
 2202000   0.88918881   -6.5959895    765.35534  0.028964401  0.029025259            6 
 2203000   0.90064679   -6.5555164    767.30574  0.029025032  0.029016857            5 
 2204000    0.8892138    -6.572408    767.64222  0.029024585  0.029008635            6 
 2205000   0.89176411    -6.599119    765.01284   0.02891205  0.029000326            5 
 2206000    0.8930916   -6.5561161     765.8064  0.028928921  0.028991973            3 
 2207000   0.90464571   -6.6043001     765.8736  0.028918351  0.028983627            4 
 2208000   0.91673944   -6.5921938    768.61999  0.029008907  0.028975318            7 
 2209000   0.89045873   -6.6164088    767.58112  0.028956584  0.028967091            7 
 2210000   0.90479078   -6.5881188    769.42621  0.029013055  0.028958787            5 
 2211000   0.88694366   -6.5980509    765.80037  0.028863274  0.028950566            5 
 2212000   0.88424118    -6.587824    766.11319   0.02886201  0.028942288            3 
 2213000   0.87838809   -6.5806906    767.43794  0.028898853  0.028933986            5 
 2214000   0.90591084   -6.5986924    767.31423  0.028881144  0.028925664            8 
 2215000   0.90817869   -6.5849908    767.06411  0.028858695  0.028917358            9 
 2216000   0.91701487   -6.5783809    769.14714  0.028924005  0.028909079           10 
 2217000   0.90844975   -6.5758328    768.07496  0.028870657  0.028900789            6 
 2218000   0.88616626   -6.5785094     768.7137  0.028881639  0.028892438            6 
 2219000   0.87602548   -6.5753315    768.81513  0.028872432  0.028884256            4 
 2220000   0.88336301   -6.6035258    767.69707  0.028817458   0.02887589            5 
 2221000    0.9067609    -6.609684     766.7156  0.028767657  0.028867576            7 
 2222000   0.88685601   -6.6363306    767.70274  0.028791732  0.028859239            5 
 2223000    0.8847441   -6.6113642    767.85438  0.028784465  0.028850844            5 
 2224000   0.88175003   -6.5874005    768.55591  0.028797808  0.028842556            6 
 2225000   0.90252746   -6.6209007    769.03928  0.028802969  0.028834225            5 
 2226000   0.89076757   -6.5876617    769.25644   0.02879816   0.02882602            7 
 2227000   0.89066601   -6.6074666    770.85093  0.028844893  0.028817754            5 
 2228000   0.89883272   -6.6233621    769.57504  0.028784225  0.028809418            6 
 2229000   0.87289912    -6.600993     771.4116  0.028839973  0.028801105            5 
 2230000   0.89382891   -6.5749158    771.40094  0.028826642  0.028792951            4 
 2231000   0.89262266   -6.5772597    771.85318  0.028830613   0.02878475            4 
 2232000   0.89199452   -6.5716782    772.42763  0.028839144  0.028776512            6 
 2233000   0.89042166   -6.6312668      769.908  0.028732199  0.028768333           18 
 2234000   0.87974619   -6.6012572    771.55489   0.02878077  0.028760096            4 
 2235000   0.90709807   -6.6269134    768.57963  0.028656958  0.028751861            4 
 2236000   0.89236001   -6.6002427    772.93701  0.028806537  0.028743648            8 
 2237000   0.89768696   -6.6289357    770.94182  0.028719335  0.028735459           10 
 2238000   0.90675381   -6.5926135    771.90245  0.028742272  0.028727199            6 
 2239000   0.90108201   -6.5914087    772.01693  0.028733696  0.028718911           11 
 2240000   0.89936251   -6.6494329     770.2425  0.028654855  0.028710553           13 
 2241000   0.87753813   -6.6075448    770.89909  0.028666484  0.028702231            7 
 2242000   0.90364772   -6.5852703    773.53427  0.028751646  0.028694116            8 
 2243000   0.87556239   -6.6152738     773.0575  0.028721114  0.028685938           17 
 2244000   0.87824333   -6.5969212    772.74333  0.028696648  0.028677758            6 
 2245000   0.88470199   -6.5704723    773.44859  0.028710044  0.028669615            8 
 2246000    0.8776193   -6.6095445    769.48094   0.02855005  0.028661351            6 
 2247000   0.89977157    -6.601967    770.20144  0.028564065  0.028653044            4 
 2248000   0.87374425   -6.6201373    770.99614  0.028580818  0.028644716            4 
 2249000   0.89489976   -6.6347665     770.6106  0.028553824  0.028636467            7 
 2250000   0.89734278   -6.6370626    770.97946  0.028554795   0.02862817            6 
 2251000   0.89340706   -6.5740894    776.18401  0.028734785  0.028619937           10 
 2252000   0.87765373   -6.5896944    774.12149  0.028645703  0.028611652            3 
 2253000   0.88885309   -6.6342515    773.18779  0.028598454  0.028603374            8 
 2254000    0.9119494   -6.5907214    774.00562  0.028616002   0.02859514            4 
 2255000   0.89352738   -6.6157985    773.28348  0.028576625  0.028587004            7 
 2256000   0.90123062   -6.5761253    776.15847  0.028670156   0.02857891            3 
 2257000   0.90843022   -6.6049015     773.7287  0.028567741  0.028570764            2 
 2258000   0.89924519   -6.6059571    774.19059  0.028572136  0.028562572            7 
 2259000   0.89022202   -6.6334568    773.08307  0.028518632  0.028554379            9 
 2260000   0.87764106    -6.641196    771.62237  0.028452152  0.028546173            7 
 2261000   0.90752644   -6.5987729    775.12739  0.028568752  0.028537996            5 
 2262000    0.8705613   -6.6249956    775.26554  0.028561212  0.028529911            7 
 2263000   0.88078397   -6.6413378     775.9977  0.028575552  0.028521846            3 
 2264000   0.88842619   -6.6207001    775.41822  0.028541601  0.028513725            6 
 2265000    0.8763355   -6.6128002    775.58531  0.028535147  0.028505647            4 
 2266000   0.88772444   -6.6159049    775.33262  0.028513262  0.028497535            5 
 2267000    0.9044333   -6.6016414     776.7223  0.028551768  0.028489425            5 
 2268000   0.85854656   -6.6034511     775.2767  0.028486063  0.028481332            6 
 2269000   0.86359929   -6.6208318    774.91659  0.028460283  0.028473161            2 
 2270000   0.88769985   -6.5978123    776.21205  0.028495303  0.028465045            4 
 2271000   0.89199829   -6.6407917    775.13955  0.028443401  0.028456957            4 
 2272000   0.86999388   -6.6263019    775.16845  0.028431941  0.028448837            4 
 2273000   0.89481408   -6.6274565    777.76594  0.028514663  0.028440754            8 
 2274000   0.89371052   -6.6361948    775.58151  0.028422072  0.028432586            4 
 2275000   0.88665668   -6.6309634    777.23775  0.028470247  0.028424437            4 
 2276000   0.89027411   -6.6063997    776.55143   0.02843261   0.02841637            6 
 2277000   0.88981089   -6.6214111    776.57959  0.028421153  0.028408263            4 
 2278000   0.87657264   -6.6231598    776.91447  0.028420927  0.028400138            5 
 2279000   0.89029069    -6.646805    776.98233  0.028410938  0.028392045            7 
 2280000   0.86723932   -6.6342313    778.33499  0.028447916  0.028384019           13 
 2281000    0.8995968   -6.6063488    779.80224  0.028489048  0.028376001            4 
 2282000   0.90452291   -6.6337901    779.24236  0.028456119  0.028367984            4 
 2283000   0.88676463   -6.6232046    779.62285  0.028457543  0.028359954            4 
 2284000   0.88401988   -6.6380115    778.29695  0.028396707  0.028351928            6 
 2285000   0.89223576   -6.6218655    779.99805  0.028446318  0.028343887           11 
 2286000   0.88549363   -6.6359399    779.82132  0.028427432  0.028335872            9 
 2287000   0.87526406   -6.6154083    780.74457  0.028448643  0.028327782           11 
 2288000   0.88675199     -6.61464    780.75767  0.028436687  0.028319866            9 
 2289000   0.90398069   -6.6352581    780.58527  0.028417987   0.02831187           12 
 2290000   0.89310248   -6.6122311    780.18757  0.028391105  0.028303961            9 
 2291000    0.8955012   -6.5959477    783.40008  0.028495565   0.02829611            6 
 2292000   0.86912984   -6.5956555    783.48348  0.028486165  0.028288313            3 
 2293000   0.87285051   -6.6384961    780.66603  0.028371349  0.028280449           13 
 2294000   0.89585054    -6.621657    780.40855  0.028349628  0.028272543           11 
 2295000   0.89726163   -6.6222728    780.05135  0.028324305  0.028264656           12 
 2296000    0.8838663   -6.5902008    781.68972  0.028371433  0.028256755            4 
 2297000   0.88542083   -6.6416063    782.31182  0.028381651  0.028248841            7 
 2298000   0.88993973    -6.625609    782.39945  0.028372478   0.02824103            6 
 2299000   0.87617448   -6.6389712    781.21412  0.028317171  0.028233154           13 
 2300000   0.88862538   -6.6296183    783.80991   0.02839891  0.028225352            6 
 2301000   0.89186889   -6.6086207    783.35356  0.028370041  0.028217503            5 
 2302000   0.86641878   -6.6676266    781.03465  0.028273771  0.028209529            5 
 2303000   0.89961615   -6.6374684    781.61524  0.028282503  0.028201522           13 
 2304000   0.89404798   -6.6335967    781.16431  0.028253917  0.028193558            3 
 2305000   0.88766537   -6.6525982    781.74274  0.028262572  0.028185569            3 
 2306000   0.90331363   -6.6614316    782.00963  0.028259961  0.028177579            5 
 2307000   0.87327624   -6.5835495     785.9816  0.028391186  0.028169653            5 
 2308000   0.87611629   -6.6293745    782.77301  0.028263035  0.028161785            4 
 2309000   0.87357003   -6.6339964    785.02574  0.028332097  0.028153945           17 
 2310000   0.88953197   -6.6512331    784.14909  0.028288207   0.02814611            3 
 2311000   0.88754737   -6.6344353    784.68984  0.028295465  0.028138153            8 
 2312000   0.86872236   -6.6374872     785.2531  0.028303529  0.028130267            4 
 2313000   0.87630383   -6.6282667    785.47156  0.028299163  0.028122435            6 
 2314000   0.86385446   -6.6597843    782.40047  0.028176335  0.028114568            6 
 2315000   0.87865003   -6.6323465    787.38209  0.028343488  0.028106692            5 
 2316000   0.88144582   -6.6158168    784.94821  0.028243675  0.028098895            6 
 2317000   0.87335305    -6.634404    783.91767  0.028194421  0.028091067            6 
 2318000   0.86506418   -6.6141838     790.3222  0.028412504  0.028083277            7 
 2319000   0.88847446   -6.5964193    787.63982   0.02830386  0.028075503           12 
 2320000   0.88228262   -6.6217005    786.40883  0.028247444  0.028067652            3 
 2321000   0.87016108   -6.6310298    784.35365  0.028161484  0.028059763            6 
 2322000   0.88477287    -6.634293    785.48593  0.028189992  0.028051943            7 
 2323000   0.86465916   -6.6496469    785.11691  0.028164619  0.028044049           10 
 2324000    0.8582402   -6.6195631    785.54239  0.028167756  0.028036231            4 
 2325000   0.87915497    -6.610992    786.59885  0.028193507  0.028028467            5 
 2326000   0.89859617   -6.6672857    784.07416  0.028090934  0.028020658            4 
 2327000   0.90212862   -6.7065719    784.96947  0.028110925  0.028012784            8 
 2328000   0.90121992   -6.6465384    785.32733   0.02811166  0.028004856            3 
 2329000   0.87324809   -6.6560103    785.34681  0.028100287   0.02799704           10 
 2330000   0.88524366   -6.6610804    785.88661  0.028107532   0.02798921            7 
 2331000   0.88252758   -6.6676444    786.64217  0.028122486  0.027981315            4 
 2332000   0.86676078   -6.6486756    785.89488  0.028083722  0.027973519            8 
 2333000   0.88370836   -6.6488504    785.71986  0.028065433  0.027965664            7 
 2334000   0.87508511   -6.6293128    787.98512  0.028134287  0.027957755            8 
 2335000   0.89306057   -6.6531867    785.84397  0.028045823  0.027949864            7 
 2336000    0.8835553   -6.6403657    786.99268  0.028074796  0.027941984           11 
 2337000   0.87672691   -6.6145362    786.97019  0.028061981  0.027934072            5 
 2338000   0.87797885   -6.6362182    787.32516   0.02806263  0.027926161            8 
 2339000   0.88242639   -6.6494917    785.86977   0.02799878  0.027918248            7 
 2340000   0.88576157   -6.6223452    787.51154  0.028045283  0.027910234            7 
 2341000   0.85892677   -6.6541193    788.05827  0.028052765  0.027902352           16 
 2342000   0.87170374   -6.6452938    787.02665  0.028004079  0.027894398           13 
 2343000    0.8902165   -6.6568907    786.78051  0.027983373  0.027886463            4 
 2344000   0.86363361   -6.6328395    787.52585  0.027997933  0.027878533           11 
 2345000    0.8850645   -6.6644561    785.71609  0.027921681  0.027870562           10 
 2346000   0.89137456   -6.6657984    785.59399  0.027905441  0.027862545           10 
 2347000    0.8674445   -6.6869683    785.70733  0.027897576  0.027854411            9 
 2348000   0.86946084   -6.6930798    787.74359  0.027957964  0.027846245            7 
 2349000   0.88804856   -6.6563913    788.29616  0.027965665  0.027838267           16 
 2350000   0.85642593   -6.6865088    787.61014  0.027929437  0.027830308            3 
 2351000    0.8648534    -6.672959    786.63458  0.027882978  0.027822288            7 
 2352000   0.89124127   -6.6836555     786.2458  0.027857348  0.027814278            8 
 2353000   0.86636995   -6.6646871    789.07684  0.027945773  0.027806237            5 
 2354000   0.86214111   -6.6778625    788.34054  0.027907836  0.027798233            5 
 2355000   0.86465199   -6.6594734    788.30427  0.027894702  0.027790259            3 
 2356000   0.87296042   -6.6200316    787.49497  0.027854236  0.027782317           14 
 2357000   0.85795631   -6.5997535    791.47445  0.027983116  0.027774378            3 
 2358000    0.8914767   -6.6445714    788.67402  0.027872279  0.027766567            8 
 2359000    0.8657481   -6.6690483    785.90174  0.027762531  0.027758633            4 
 2360000   0.87892985   -6.6652568    787.93828  0.027822679  0.027750658            5 
 2361000   0.86304714   -6.7007003    788.15741  0.027818629  0.027742741            9 
 2362000   0.89294872   -6.6452733    792.56759  0.027962447  0.027734914           21 
 2363000   0.86682883   -6.6555348    789.83437  0.027854224  0.027727098           12 
 2364000   0.85581251    -6.656262     790.3338  0.027860047  0.027719257            4 
 2365000   0.87495301   -6.6768029    789.14914  0.027806524  0.027711328            5 
 2366000   0.86720255   -6.6386036    790.85576   0.02785488  0.027703427            9 
 2367000   0.86754954   -6.6629362    788.87328  0.027773316  0.027695582            5 
 2368000   0.85808512   -6.6481114    791.22605  0.027844385  0.027687724            7 
 2369000   0.87510604   -6.6786077    791.39003    0.0278384   0.02767978            6 
 2370000   0.88070433   -6.6199278    792.53529  0.027866923  0.027671887           10 
 2371000   0.87949831   -6.6871162    790.27149  0.027775604  0.027664054            5 
 2372000   0.86454069   -6.6690494    790.22473  0.027762252  0.027656165            8 
 2373000   0.84663618   -6.6569723    791.74378  0.027803897  0.027648375            7 
 2374000    0.8765197   -6.6648886    793.02342  0.027837104   0.02764056            7 
 2375000   0.87974173   -6.6779077    792.61398  0.027811017   0.02763266            3 
 2376000   0.87329138    -6.658928    793.68027   0.02783671  0.027624737            8 
 2377000   0.85677085   -6.6397872    792.28915  0.027776229  0.027616834            8 
 2378000   0.87936756   -6.6685514    792.15851   0.02775997   0.02760893            5 
 2379000   0.86755122   -6.6808166    790.53111  0.027691296  0.027601105            7 
 2380000   0.88496461   -6.6595383    794.33938  0.027813003  0.027593356            4 
 2381000   0.87876147   -6.6344009    791.01777  0.027685068  0.027585671            5 
 2382000   0.87028317   -6.6616651    792.72075  0.027733024  0.027577942            4 
 2383000   0.87776929   -6.6907201    792.47286  0.027712717  0.027570114            4 
 2384000   0.86932995   -6.6544106    792.24922  0.027693275  0.027562207           12 
 2385000   0.88575135   -6.6499826    792.69673    0.0276973  0.027554403           10 
 2386000   0.86482691   -6.7199249    791.09645  0.027629801  0.027546556           11 
 2387000    0.8679871    -6.657769    793.84423  0.027714154  0.027538732            8 
 2388000   0.87416935   -6.6587593    792.06595  0.027640492  0.027530869            4 
 2389000   0.86255528   -6.6784051    790.12717  0.027561294  0.027522946           11 
 2390000   0.88331185   -6.6675886    793.00141  0.027649979  0.027515122            5 
 2391000   0.85691293   -6.6712179    793.63824   0.02766061  0.027507296            6 
 2392000   0.87640504   -6.6699816    793.01774  0.027627429  0.027499467            3 
 2393000   0.84763527   -6.6573455    794.55779  0.027669515  0.027491688            5 
 2394000   0.87618779    -6.665982    793.59649  0.027624495  0.027483872            4 
 2395000   0.86603739   -6.6660486    793.14063  0.027597099  0.027476006           12 
 2396000   0.84922308   -6.6676866     794.3167  0.027626485  0.027468213            4 
 2397000   0.86085429   -6.6612432    795.10559  0.027642386  0.027460372            6 
 2398000   0.85547131   -6.6992789    792.33301  0.027534508  0.027452596            6 
 2399000   0.87946623    -6.666744    793.22483   0.02755401  0.027444831            4 
 2400000   0.86373593   -6.6298067    797.82923  0.027702404  0.027437098            8 
 2401000   0.87458246   -6.6668175    795.12713  0.027597082  0.027429412            9 
 2402000   0.88080854   -6.6671364    796.42038   0.02763046   0.02742172            7 
 2403000   0.86005334   -6.6733426     796.4829   0.02762113  0.027413973            3 
 2404000   0.86638835   -6.7069837    795.42765   0.02757306  0.027406219            4 
 2405000   0.86937581   -6.6933315    795.15071     0.027552  0.027398466            4 
 2406000   0.86363889   -6.6428351    797.22852  0.027612515  0.027390747            5 
 2407000   0.87050433    -6.683161    796.59205  0.027579007  0.027382974            4 
 2408000   0.88301323   -6.7016913    793.96291  0.027476568  0.027375187            9 
 2409000   0.86650879   -6.7081386    796.44474  0.027551015   0.02736729           11 
 2410000   0.86587906   -6.6680307    795.24452  0.027498082  0.027359443            3 
 2411000   0.85751982   -6.6797488    796.20658  0.027519929  0.027351638            6 
 2412000   0.87193178   -6.6713046    796.77245   0.02752807  0.027343865            4 
 2413000   0.85869985   -6.6963206    794.64139  0.027443065   0.02733605            5 
 2414000   0.89692679   -6.6930762    795.35926  0.027456478  0.027328181            6 
 2415000   0.85519318   -6.6598487    798.65227   0.02755874  0.027320284            8 
 2416000   0.85099364   -6.7011912    794.30572   0.02739741  0.027312454           11 
 2417000   0.86875994   -6.6901273     797.4513  0.027494528  0.027304637            4 
 2418000   0.86689443   -6.6937151    797.49552  0.027484682  0.027296773            6 
 2419000   0.87022587    -6.644623    799.37998  0.027538238  0.027288849            6 
 2420000   0.86160709   -6.6722012    794.32669  0.027352847  0.027280967            3 
 2421000   0.88630997   -6.6952063    795.02874  0.027365714  0.027273045            5 
 2422000   0.86504189   -6.6627468    796.87885  0.027418072  0.027265123            3 
 2423000    0.8809126   -6.6592621    798.33876  0.027456967  0.027257353            6 
 2424000   0.86188889   -6.6619146    797.01261  0.027400049  0.027249548            3 
 2425000   0.86534669   -6.7153036    792.85516  0.027245882  0.027241624            7 
 2426000   0.86946952   -6.6836267    795.86958  0.027338196  0.027233777            4 
 2427000   0.86109911   -6.7004023    795.75157   0.02732288  0.027225849            8 
 2428000   0.87650979   -6.6551801    799.35212  0.027435204  0.027217991            5 
 2429000   0.86376117   -6.7151582    796.82864  0.027337335  0.027210127           10 
 2430000   0.86222407   -6.7070627    795.76812  0.027289716  0.027202212            4 
 2431000   0.85253843   -6.7122112      796.786  0.027313383  0.027194308            9 
 2432000   0.85987761   -6.7286289     795.0786  0.027243647  0.027186448            5 
 2433000   0.85648506   -6.6696243     798.3589  0.027344804  0.027178583            4 
 2434000    0.8629921   -6.6944392    798.35167  0.027333322   0.02717078            8 
 2435000   0.85792755   -6.6864262    798.43482  0.027324943  0.027162987            5 
 2436000     0.886158   -6.6710549    798.05858  0.027300855  0.027155229            4 
 2437000   0.87882896   -6.6696122    797.11606  0.027257423  0.027147425            5 
 2438000   0.87434259   -6.6992031    797.05098  0.027244018  0.027139654            6 
 2439000   0.86720812   -6.6744217    799.08052  0.027302191   0.02713189            9 
 2440000   0.85565197   -6.6908474     797.8232   0.02724806  0.027124093            5 
 2441000   0.86035383   -6.6436094    800.91321  0.027342387  0.027116339            9 
 2442000   0.85930005   -6.6831756    797.81838  0.027225579  0.027108536            7 
 2443000   0.85446471   -6.6593922    799.30398  0.027265111  0.027100774            7 
 2444000   0.87220856   -6.6646331    799.56143  0.027262733  0.027092933            5 
 2445000   0.85326298   -6.6779487    798.59507  0.027218646  0.027085073           12 
 2446000   0.87380828   -6.6771638    800.41457  0.027269507  0.027077244            4 
 2447000   0.85236786   -6.6852087    798.40908  0.027190065   0.02706942            4 
 2448000   0.85804013   -6.7109402    798.39145  0.027178358  0.027061591            6 
 2449000   0.88327118   -6.6894448    800.95517  0.027254498  0.027053748            7 
 2450000   0.87126706   -6.7487091    796.55938  0.027093857  0.027045849           11 
 2451000   0.86374368   -6.7100961    798.37497  0.027144532  0.027037914           13 
 2452000   0.84993026   -6.7432066    797.66585  0.027109361  0.027029951           14 
 2453000   0.86850553   -6.7286808    800.26273  0.027186531  0.027022022            8 
 2454000   0.85180119   -6.7031519    801.72317  0.027225047  0.027014122            7 
 2455000   0.86578897   -6.7120287    800.73487   0.02718041  0.027006217            3 
 2456000   0.85146912   -6.7026733    800.22013  0.027151877   0.02699837            7 
 2457000   0.85185086   -6.7131141    800.79527  0.027160333  0.026990597            8 
 2458000   0.86717947   -6.6883184    802.31419   0.02720078  0.026982842            4 
 2459000   0.85388596   -6.7067205    801.72061  0.027169602  0.026975145           10 
 2460000   0.84628691   -6.6599994    803.30488  0.027212225  0.026967379           10 
 2461000   0.87504173   -6.6790495    802.32619  0.027168028  0.026959634            6 
 2462000   0.85016635   -6.6995396     800.4682  0.027094104  0.026951876            4 
 2463000   0.88019801   -6.7097729    801.63938  0.027122729  0.026944072            7 
 2464000   0.86444216   -6.7042862     803.5711  0.027177053  0.026936338            9 
 2465000   0.86115346   -6.6898065    804.15892    0.0271859  0.026928593           12 
 2466000   0.86723281   -6.6726502    801.45182  0.027083395   0.02692076            9 
 2467000   0.84012739   -6.7023442    800.33512  0.027034695  0.026912933            6 
 2468000   0.86338986   -6.7156001    800.72639  0.027036953  0.026905169            9 
 2469000   0.85205591   -6.6888509    801.81215  0.027062649  0.026897415           11 
 2470000   0.85863222   -6.7261041    799.53911  0.026975004   0.02688958           13 
 2471000   0.85716034   -6.6777739    804.11543  0.027118421  0.026881769            8 
 2472000   0.83452244   -6.7124304    800.45274  0.026983979  0.026873927           18 
 2473000   0.86107326   -6.7494801    799.87259  0.026953518  0.026866011            8 
 2474000   0.87305526   -6.7058064     804.4728  0.027097575  0.026858111           25 
 2475000   0.86826053    -6.749182    800.72018  0.026960275  0.026850271            8 
 2476000   0.85442857   -6.7097237    802.54591  0.027010834  0.026842408           19 
 2477000   0.85847078   -6.7240619     800.9053  0.026944735  0.026834516            9 
 2478000   0.85375445   -6.7536858    800.70852  0.026927244  0.026826583           10 
 2479000   0.87245764   -6.7121652    801.74843  0.026951339  0.026818624           10 
 2480000   0.84398781   -6.7159891    799.20987   0.02685517  0.026810689           10 
 2481000   0.85152706   -6.6936411    801.78368  0.026930797  0.026802726           10 
 2482000   0.86010377   -6.6995245    800.57206  0.026879266  0.026794789            8 
 2483000   0.87699122   -6.6604716    803.65306  0.026971844  0.026786901            7 
 2484000   0.85448458   -6.7319392    799.39314  0.026818074  0.026778991            8 
 2485000   0.85498569   -6.6896292    803.73646  0.026952933  0.026771047            9 
 2486000   0.87716759   -6.7034201    804.26978  0.026959969  0.026763227            5 
 2487000   0.84763948   -6.6924687    803.99196  0.026939819  0.026755372            7 
 2488000   0.84822965   -6.7131983    800.31539  0.026805848  0.026747562           15 
 2489000   0.86514107   -6.7153758    801.87045  0.026847143  0.026739657           10 
 2490000   0.86722675   -6.6785954    802.50879  0.026857724  0.026731734            5 
 2491000   0.83973126   -6.7347192    801.73313  0.026820993  0.026723825            8 
 2492000   0.85799895   -6.7194939    802.88959  0.026848903  0.026715919           11 
 2493000    0.8568454   -6.7184251    800.35767  0.026753499  0.026707986            6 
 2494000   0.83386261   -6.7106993    804.09689  0.026867712  0.026700164            6 
 2495000   0.85576019   -6.7016971    801.57676  0.026772771  0.026692338           13 
 2496000   0.87900069   -6.7145755    804.61429  0.026863458   0.02668455            5 
 2497000   0.85003147   -6.7143373    803.55259  0.026817267  0.026676678            4 
 2498000   0.84292008   -6.7086934     803.4917    0.0268045  0.026668773            4 
 2499000   0.86351302   -6.7336278    801.52488  0.026728187  0.026660849            4 
 2500000   0.86238583   -6.7590626    802.86351  0.026762117  0.026652892            8 
 2501000   0.86030107   -6.7288922    804.53475  0.026807102  0.026644961           11 
 2502000   0.83459574   -6.7097129    805.57078  0.026830894  0.026637107           18 
 2503000   0.84636084   -6.7272935    805.50341  0.026817932  0.026629238            9 
 2504000   0.84873534   -6.7280571    801.56432  0.026676129  0.026621347            4 
 2505000   0.85192598   -6.7051166    802.55344  0.026698385  0.026613477            6 
 2506000   0.84475641   -6.7234848    804.57159  0.026754841  0.026605586            4 
 2507000   0.86798042   -6.7334272    804.77013  0.026750769  0.026597783            9 
 2508000   0.86372584   -6.7009071    803.45885  0.026696533  0.026589885            5 
 2509000   0.84518778   -6.7389481    803.96914  0.026702841  0.026582002            7 
 2510000     0.866393   -6.7432651     802.6441  0.026648211  0.026574083            8 
 2511000   0.84553872   -6.7136953    804.46715    0.0266981   0.02656622            3 
 2512000   0.85527124   -6.6997783    804.97599  0.026704352  0.026558341            8 
 2513000   0.85737813   -6.7129556    807.08353  0.026763613  0.026550534            9 
 2514000   0.85565204   -6.7014193    807.96903   0.02678232  0.026542698            6 
 2515000   0.85954287    -6.709975    807.23879  0.026747475  0.026534939           12 
 2516000   0.85457742   -6.7046392    807.45166  0.026743894   0.02652723            9 
 2517000   0.86858799   -6.7239016    805.00936  0.026652409  0.026519484           15 
 2518000   0.85764918   -6.7185227    807.49912  0.026724223  0.026511743           10 
 2519000   0.84378056    -6.727771    806.67868  0.026686472  0.026503945            6 
 2520000   0.84648485   -6.7338899    805.11369   0.02662413   0.02649615            8 
 2521000   0.84999118   -6.7192127     805.4244   0.02662384  0.026488324            7 
 2522000   0.83986786   -6.7267573    806.66635   0.02665432  0.026480458           11 
 2523000   0.84302933   -6.7542969    803.82255  0.026549827  0.026472628            7 
 2524000   0.85582993    -6.734233     805.5118  0.026595081  0.026464728            7 
 2525000    0.8578854   -6.7303401    805.77433  0.026593212  0.026456827            6 
 2526000   0.84237086    -6.732305    804.56136  0.026542668   0.02644892           12 
 2527000   0.85491669   -6.7220282    806.73374  0.026603804  0.026441036            6 
 2528000   0.84630227   -6.7285142    806.68582    0.0265917   0.02643316            3 
 2529000   0.83426134   -6.7416112    806.59221  0.026578101  0.026425223            5 
 2530000   0.84973412   -6.7458501    804.43457  0.026496527   0.02641731            9 
 2531000   0.84809808   -6.7318218    804.49908  0.026488182  0.026409402           16 
 2532000   0.84890313   -6.7219372     806.9465  0.026558271  0.026401537            8 
 2533000   0.85264754    -6.725183    809.18655  0.026621481  0.026393639            3 
 2534000   0.86134196   -6.7285038    808.15581  0.026577079  0.026385844            4 
 2535000   0.84162073   -6.7258569    805.52463    0.0264801  0.026377958            3 
 2536000   0.83465774   -6.7596202    807.64812  0.026539436  0.026370071            5 
 2537000   0.84255769   -6.7466504    808.02801  0.026541453   0.02636216            5 
 2538000   0.84761422     -6.71254    807.40353  0.026510491  0.026354351            7 
 2539000   0.84349353    -6.710264    809.33456  0.026563429  0.026346547            3 
 2540000   0.84925458   -6.7481096    805.56766  0.026429385  0.026338737            4 
 2541000   0.84509356   -6.7576318    805.77978  0.026425941  0.026330927            5 
 2542000   0.85753292   -6.7428358    806.41252  0.026436288  0.026323096            6 
 2543000   0.83301588   -6.7092365    808.54438  0.026495752  0.026315282            6 
 2544000   0.84830881   -6.7350789    806.66929  0.026423915  0.026307505            9 
 2545000   0.86001444   -6.7542463    807.63401  0.026445122  0.026299689            8 
 2546000   0.83563181   -6.7550137     807.2467  0.026422057  0.026291835            5 
 2547000   0.83077601   -6.7651146     805.8569  0.026366212  0.026283918           12 
 2548000   0.83637309   -6.7681509    807.26201  0.026401819  0.026276039            6 
 2549000   0.85094554   -6.7916633     805.8147  0.026344145  0.026268068            8 
 2550000   0.85009219   -6.7698644     807.2252  0.026379908  0.026260142            7 
 2551000   0.84962392   -6.7671444    807.33875  0.026373277  0.026252218           10 
 2552000   0.83088297    -6.767601    806.17745  0.026325021  0.026244325            8 
 2553000   0.82416345   -6.7594344    807.97087  0.026373249  0.026236452            9 
 2554000   0.86063577   -6.7690908    807.84866  0.026358936  0.026228587            3 
 2555000   0.84468348   -6.7335276    810.18929   0.02642496   0.02622078            7 
 2556000   0.84060298   -6.7215413    808.46816  0.026358508  0.026212992            8 
 2557000   0.84446236   -6.7187313    811.86467  0.026458893  0.026205195            9 
 2558000   0.84018988   -6.7189457    807.96843  0.026321619  0.026197364            9 
 2559000   0.85756825    -6.741198    807.63484   0.02630047  0.026189493            6 
 2560000   0.85652283   -6.7243458    807.14317  0.026274192  0.026181623            5 
 2561000   0.84236969   -6.7200202    809.22734   0.02633175  0.026173797            4 
 2562000   0.84563145   -6.7641977    806.45615  0.026231334  0.026165939           21 
 2563000    0.8370433   -6.7077983    809.96288  0.026335118  0.026158108            7 
 2564000   0.84753507   -6.6990972    809.12938  0.026297757  0.026150355            5 
 2565000   0.83276494   -6.7343553    808.51252  0.026267463  0.026142504            6 
 2566000   0.85993131    -6.733426    809.04883  0.026274644  0.026134657            6 
 2567000   0.84851992   -6.7673291    808.57445  0.026249008  0.026126747           10 
 2568000   0.82841643   -6.7531583    805.78229  0.026148179  0.026118758            4 
 2569000     0.830985   -6.7915099     807.9586  0.026208596  0.026110791            7 
 2570000    0.8447755   -6.7192139    808.68331  0.026221897  0.026102806            5 
 2571000   0.84082439   -6.7115707    811.04572  0.026288271  0.026094924            5 
 2572000   0.84612814   -6.7180441    808.71391  0.026202498  0.026087063            7 
 2573000   0.84125701   -6.7554573    808.18101  0.026175056   0.02607918            6 
 2574000   0.84091204   -6.7652426    807.65658  0.026147908  0.026071305            6 
 2575000   0.84371112   -6.7350383    809.93992  0.026211648  0.026063392            9 
 2576000   0.84135759   -6.7353029    808.53001  0.026155862  0.026055496            7 
 2577000   0.84420347   -6.7697659    807.11367  0.026099912  0.026047634            7 
 2578000   0.84919255   -6.7604845    808.27341  0.026127276  0.026039706            5 
 2579000   0.85076549   -6.7441876     810.2242   0.02618018  0.026031788           12 
 2580000   0.82706176   -6.7598979    807.63578  0.026086427   0.02602385            6 
 2581000   0.83809902    -6.751591     806.9627  0.026054588  0.026015897            9 
 2582000   0.83850643   -6.7172399     810.6134  0.026162323  0.026007951            5 
 2583000   0.82890231   -6.7583041     808.4389   0.02608204  0.026000021           23 
 2584000   0.83908116   -6.7610185    809.32009  0.026100364  0.025992093            6 
 2585000   0.82905389   -6.7750269    807.73962  0.026039317  0.025984123           12 
 2586000   0.82991755   -6.7737587    807.23324   0.02601293  0.025976138            9 
 2587000    0.8300174   -6.7693259    808.76058  0.026052074  0.025968153            8 
 2588000   0.82876397   -6.7457317    808.61282   0.02603725  0.025960164           13 
 2589000   0.83421178   -6.7781593    808.28318  0.026016582    0.0259522            8 
 2590000   0.83109309   -6.7870321    808.33905  0.026008335  0.025944245            7 
 2591000   0.82682415   -6.7944437    809.68796  0.026041682  0.025936233           20 
 2592000   0.83755808   -6.7841895    808.78392   0.02600257  0.025928244            7 
 2593000   0.83198576   -6.7726027    808.87437  0.025995448   0.02592024            4 
 2594000   0.85208669   -6.7781762    808.14879  0.025962117  0.025912252           10 
 2595000   0.83982874   -6.7463223    810.72049  0.026034698  0.025904345            5 
 2596000    0.8345124   -6.7679322    810.29352  0.026010963  0.025896441            4 
 2597000   0.83448313   -6.7620258    811.05399   0.02602535  0.025888529           10 
 2598000   0.82775634   -6.7511133      809.105  0.025952816  0.025880591            7 
 2599000   0.82219036   -6.7825502    808.81636  0.025933576  0.025872637            9 
 2600000   0.84535943   -6.7720566    812.42654  0.026039312  0.025864733            6 
 2601000   0.85207146    -6.805102    807.01804  0.025856018  0.025856799           13 
 2602000   0.84296801   -6.7808215    809.84191   0.02593652  0.025848865            6 
 2603000   0.83714853   -6.7790776    811.43185  0.025977457  0.025840943            8 
 2604000    0.8552534   -6.7711299    809.34166  0.025900591  0.025832973            7 
 2605000   0.83012589   -6.7602878     812.0298  0.025976641  0.025825042            9 
 2606000   0.82366885   -6.7546889    811.29858  0.025943291  0.025817129            7 
 2607000   0.83669624   -6.7478335    813.86992  0.026015532  0.025809319            7 
 2608000   0.84844117   -6.7960165     808.8895  0.025846418  0.025801415           13 
 2609000   0.83686634    -6.747958    810.53599  0.025889102  0.025793563            6 
 2610000   0.85277363   -6.8071561    810.92665  0.025891656  0.025785631            8 
 2611000   0.83570732   -6.8175001    809.73717  0.025843775  0.025777665            6 
 2612000   0.83801689   -6.7651865    808.35088  0.025789653  0.025769757            3 
 2613000   0.84136106   -6.7682801    812.40892  0.025909201  0.025761857            4 
 2614000   0.83683211   -6.7713544    812.48335  0.025901663   0.02575395           11 
 2615000   0.83802123   -6.7413027    811.13795  0.025848883  0.025746033           10 
 2616000   0.85154702   -6.8151557    810.65572   0.02582364  0.025738101           10 
 2617000   0.82841436   -6.7946768    810.94959   0.02582313  0.025730076           12 
 2618000   0.86019539   -6.7943832    810.59791  0.025802073  0.025722204           12 
 2619000   0.84197148   -6.7831328    812.27957  0.025845729  0.025714282           15 
 2620000   0.83371579   -6.7626275    813.69512  0.025880888  0.025706395            6 
 2621000   0.83857507   -6.7641562    812.75185  0.025841023  0.025698574            7 
 2622000   0.82361349   -6.7828876    814.26411   0.02587923  0.025690677            9 
 2623000   0.83981906    -6.770889    813.61659  0.025848792  0.025682783            7 
 2624000   0.81942418    -6.801728    814.21784  0.025858036  0.025674859            8 
 2625000   0.81769602   -6.7660695    812.32232   0.02578801  0.025666977            8 
 2626000   0.82049619   -6.8045558    811.71398  0.025758885  0.025659101           15 
 2627000   0.83310916   -6.8125847    813.37564   0.02580179  0.025651249            5 
 2628000   0.83724511   -6.7956281    812.50057  0.025764224  0.025643364            7 
 2629000   0.83847418   -6.7651886    813.87591  0.025798019   0.02563548            6 
 2630000   0.82012839   -6.7844784    812.87481  0.025756489  0.025627594            5 
 2631000   0.81937434   -6.7907374    813.37815  0.025762642  0.025619741            6 
 2632000    0.8436055    -6.757878    813.97298  0.025771688  0.025611874           10 
 2633000   0.83344512   -6.7938384    812.12535  0.025703423  0.025604007            6 
 2634000   0.82724573   -6.7679349    813.11458  0.025724961  0.025596091            9 
 2635000   0.83944709   -6.8047436    810.17581  0.025622258   0.02558818           17 
 2636000   0.82485275   -6.7761753    813.85018  0.025728698  0.025580254            9 
 2637000   0.85232047   -6.7655055    813.49537  0.025707729  0.025572373            9 
 2638000   0.85788641   -6.7855377    814.37507  0.025725773  0.025564517            8 
 2639000   0.81889125   -6.8144664    810.33519  0.025588455  0.025556585           10 
 2640000   0.83983957   -6.8079154    812.37511  0.025643154  0.025548671           10 
 2641000   0.83086421   -6.7995236    814.01249  0.025685109  0.025540738           16 
 2642000   0.83372533   -6.7945403    814.35001  0.025686034  0.025532878           11 
 2643000   0.82907259   -6.7909264     815.3227  0.025706984  0.025525001            3 
 2644000   0.82605381    -6.784385     813.2588  0.025632211  0.025517146           13 
 2645000   0.83670495   -6.7543411    814.79566  0.025670941  0.025509315            4 
 2646000   0.82396892     -6.75239    816.13496  0.025703419  0.025501525            7 
 2647000   0.83075586   -6.7461281    816.15528  0.025694348  0.025493765            3 
 2648000   0.82828047   -6.7627537    814.73493  0.025639946  0.025485941            4 
 2649000   0.81919784   -6.7859834    814.06301  0.025609129  0.025478133           17 
 2650000     0.815634   -6.8109383    813.26067  0.025574235   0.02547025           33 
 2651000   0.83192863   -6.7932221    815.68844  0.025640904  0.025462431            8 
 2652000   0.81959667   -6.7929703    814.98954  0.025609274  0.025454586            6 
 2653000   0.83739577   -6.8049459    813.67727  0.025558402  0.025446751            6 
 2654000   0.84321655   -6.8076894    814.66296  0.025579721  0.025438847            5 
 2655000   0.82926011   -6.8076237    815.01347  0.025581088  0.025431041            8 
 2656000   0.83617407   -6.7847455    815.17497  0.025576524  0.025423235            4 
 2657000      0.82852   -6.8106139    814.06348  0.025532037  0.025415413            7 
 2658000   0.83436043   -6.7968618    814.97704  0.025551074  0.025407605            8 
 2659000   0.83214933   -6.8002273     813.9483  0.025509223  0.025399752           10 
 2660000   0.82539415   -6.8066802    814.59156  0.025519786  0.025391942            8 
 2661000   0.82092074   -6.8197746    814.26423  0.025499944  0.025384147            8 
 2662000   0.84555433   -6.8427682    814.76591   0.02550607  0.025376236            6 
 2663000   0.82787725   -6.7968276    815.24116  0.025511364  0.025368373           15 
 2664000   0.83571392   -6.7886887    818.06056  0.025589982  0.025360575           11 
 2665000   0.81967669   -6.7668014     816.8693   0.02554313  0.025352759           11 
 2666000   0.82406818   -6.7656062    815.82174  0.025500804  0.025344982           12 
 2667000   0.82941217   -6.7726519    814.86421  0.025461324    0.0253372            7 
 2668000   0.81830715   -6.7642521    815.62988  0.025475696  0.025329433           13 
 2669000   0.80327997   -6.8007534    814.63195  0.025434993  0.025321581            9 
 2670000   0.83981767   -6.7711249    817.54315  0.025516328  0.025313736            7 
 2671000   0.82082974   -6.7821744    816.43967  0.025472347  0.025305936            7 
 2672000   0.81317648   -6.8017843    816.42742  0.025462432  0.025298103            7 
 2673000   0.81870961   -6.8003046    815.09377  0.025411328  0.025290234            7 
 2674000   0.80484343   -6.7924774    816.18511  0.025435836  0.025282361            8 
 2675000   0.82462016   -6.8041069    814.92362  0.025387029  0.025274491            4 
 2676000   0.80075982   -6.7816476    816.26245  0.025419234  0.025266654            5 
 2677000   0.82329451   -6.7895129    817.50052  0.025448279  0.025258791            5 
 2678000   0.83370623   -6.8024752    814.38987   0.02534198  0.025250985            8 
 2679000   0.80936051   -6.7780363    814.73504  0.025343257  0.025243082           13 
 2680000   0.81864985   -6.8070511    815.84927  0.025368447  0.025235222            5 
 2681000   0.81569669   -6.8001554    815.40025  0.025345028  0.025227323            6 
 2682000   0.79680027   -6.7996849    815.77862  0.025347335  0.025219423            8 
 2683000   0.82613047   -6.8466623    813.93404  0.025280595  0.025211487           10 
 2684000   0.83070329   -6.8184054    817.07641  0.025368741  0.025203629            6 
 2685000   0.81910173   -6.7800035     814.9818  0.025294283  0.025195816            5 
 2686000   0.81449761   -6.7792263    817.11434  0.025351028  0.025187989           13 
 2687000   0.81808374   -6.7967662    817.99487  0.025368902  0.025180157           10 
 2688000   0.81710242    -6.784435     815.3849   0.02527855  0.025172343            8 
 2689000   0.82359517   -6.7665667    815.78215   0.02528146  0.025164531            8 
 2690000   0.81147527   -6.7673324    816.91765  0.025307238  0.025156731            5 
 2691000      0.82463   -6.8042823    815.72456  0.025260887  0.025148865            9 
 2692000   0.81005975   -6.8304717    816.46778   0.02527451  0.025140932           17 
 2693000   0.81572568   -6.7944328    816.21454  0.025257289  0.025133058            6 
 2694000   0.83464631   -6.8279444    817.45338  0.025286234  0.025125194            5 
 2695000   0.81396381   -6.8082999    814.87099     0.025197  0.025117353           15 
 2696000   0.80896257   -6.7720455    819.89015  0.025342797  0.025109548            7 
 2697000    0.8023038   -6.7885304    818.38815   0.02528699  0.025101732            5 
 2698000   0.82404098   -6.7849282    816.74311  0.025226807  0.025093891            8 
 2699000   0.80581772   -6.7783529    818.06916  0.025258403  0.025086089            9 
 2700000   0.83065671   -6.7912859    817.66287  0.025236508  0.025078304            6 
 2701000   0.82092261    -6.779879    820.29069   0.02530824  0.025070497            7 
 2702000   0.80651681   -6.7919907    818.47237  0.025242794  0.025062703            3 
 2703000   0.82053606   -6.7941355    817.87856  0.025215149  0.025054945            7 
 2704000   0.82036954   -6.7662405    818.54798  0.025226454  0.025047178            5 
 2705000   0.80310787   -6.8318465    816.76134  0.025162087  0.025039384           11 
 2706000   0.83433938   -6.8305877    816.10848  0.025132683  0.025031537            9 
 2707000   0.81192357   -6.8037203    819.67375  0.025233153  0.025023748            8 
 2708000    0.8212435   -6.7891547    821.47391  0.025279232  0.025015918            6 
 2709000   0.82398128   -6.8407065      818.277  0.025171558   0.02500817            8 
 2710000   0.82156914   -6.8313839    817.14547  0.025127474   0.02500038           16 
 2711000   0.81796038   -6.8279183    818.38871  0.025156422  0.024992589           18 
 2712000   0.82756519   -6.8335994    819.39555  0.025178083  0.024984817           10 
 2713000   0.82266253   -6.7956244    820.37612  0.025198922  0.024977071            9 
 2714000    0.8035725   -6.7951704    819.50964  0.025163032  0.024969304           11 
 2715000   0.82050803   -6.8418982    818.19047  0.025113274  0.024961529            9 
 2716000   0.81650101   -6.8484578    817.14268  0.025071879  0.024953693            4 
 2717000   0.80535107   -6.8200845    818.55615  0.025106004  0.024945903           13 
 2718000   0.82570409   -6.8235166    817.22563  0.025055974  0.024938111            6 
 2719000   0.80594522   -6.8418999    818.20803  0.025076867  0.024930258           11 
 2720000   0.81175867   -6.8155696    820.79452  0.025146891   0.02492246            9 
 2721000   0.81569838   -6.7820915    819.66898  0.025103178  0.024914707            3 
 2722000   0.80849361   -6.8098771    818.74888  0.025065787  0.024906899            7 
 2723000    0.8241553   -6.8005423     818.2191  0.025040369    0.0248991            7 
 2724000   0.81802273   -6.8061522    817.63376   0.02501327   0.02489134            8 
 2725000   0.80864352   -6.8086606    821.88125  0.025133983  0.024883582           12 
 2726000   0.80599838   -6.7942996    819.50335  0.025052071  0.024875865           11 
 2727000    0.8165851   -6.8367052    818.98031  0.025026901  0.024868141           11 
 2728000   0.81006205   -6.8357272     820.7848  0.025072849  0.024860411            8 
 2729000   0.79318968   -6.8295836    818.89857  0.025006064   0.02485268            7 
 2730000    0.8115775   -6.8506071    819.42663  0.025013023  0.024844927            5 
 2731000   0.81306451   -6.8358585    822.04558  0.025083778   0.02483717            7 
 2732000   0.81462791   -6.8434476    821.49657  0.025057851  0.024829474            8 
 2733000   0.81638164   -6.8254253    820.29956  0.025012183  0.024821703           12 
 2734000   0.81693336   -6.8139843    818.03514  0.024934014  0.024814012            6 
 2735000   0.82686811   -6.8235213    818.19868  0.024929881  0.024806299           14 
 2736000   0.79933989   -6.7704458    821.52507  0.025022084  0.024798562            8 
 2737000   0.81810094   -6.8453733    819.64474  0.024955692  0.024790851            9 
 2738000   0.81102231   -6.8389995    820.36309  0.024968441  0.024783101            6 
 2739000   0.81112023   -6.8459336    820.04649  0.024949692   0.02477536            8 
 2740000   0.81560928   -6.8361845    820.88224  0.024966005  0.024767593           26 
 2741000   0.81602115   -6.8546666    820.06936  0.024932183  0.024759799           14 
 2742000   0.81748036   -6.8487732    822.53592  0.024998053  0.024752067           11 
 2743000   0.81068955   -6.8241073    822.00817  0.024972906  0.024744369            8 
 2744000   0.82614403   -6.8105183    822.15865  0.024968375  0.024736695           16 
 2745000   0.80112771    -6.821414    818.67496   0.02485352  0.024729019           10 
 2746000   0.81952406   -6.8204202     822.0847  0.024947946  0.024721365           12 
 2747000   0.81780748   -6.8204426    821.45366   0.02491972  0.024713699            6 
 2748000   0.81125368    -6.801588    822.56597  0.024944383   0.02470603            7 
 2749000   0.81251309   -6.8632733    820.08616  0.024860136  0.024698345            8 
 2750000   0.81745152   -6.8233731    821.38643  0.024890498  0.024690688           26 
 2751000   0.79641133   -6.8505944     818.0245  0.024779611  0.024682956            6 
 2752000   0.81743255   -6.8212487    821.44451  0.024874167  0.024675253            8 
 2753000   0.82994943   -6.8093161    823.53842  0.024928515   0.02466756            5 
 2754000   0.81782773   -6.8286975    822.48699  0.024887648  0.024659878            9 
 2755000   0.82335907   -6.8221174    820.96768  0.024832658  0.024652161           18 
 2756000   0.80087849   -6.8139071    823.67059  0.024905376  0.024644487           17 
 2757000   0.81566104   -6.8309364    823.01421  0.024876503  0.024636774           15 
 2758000   0.80432678    -6.824259    821.86644  0.024832803  0.024629096            5 
 2759000   0.82105987   -6.8111414    820.94198  0.024795879    0.0246214           11 
 2760000   0.81212552   -6.8144773    819.73381  0.024750417  0.024613679            8 
 2761000   0.81248922   -6.8494048     821.3164  0.024789219  0.024606035           11 
 2762000   0.81688124   -6.8279584    823.30369  0.024840203   0.02459837           10 
 2763000   0.80071913   -6.8429976    823.82791  0.024847024  0.024590708            7 
 2764000   0.79084623   -6.8211386    820.02278  0.024723311  0.024582942            8 
 2765000   0.79059264   -6.8262715    823.23434  0.024811162  0.024575229            5 
 2766000   0.81187138   -6.8468804    821.80884  0.024759244  0.024567555            9 
 2767000   0.81366713   -6.8328061    822.31846  0.024765644  0.024559874            6 
 2768000   0.80983136   -6.8226772    820.83511   0.02471204  0.024552138            7 
 2769000   0.81044129   -6.8133805    822.80656  0.024762446   0.02454443           12 
 2770000   0.81158448   -6.8456395    822.64896  0.024748765  0.024536742           11 
 2771000   0.81329901    -6.868396    820.67316  0.024680415  0.024528997            6 
 2772000   0.79744968   -6.8729304     821.6971  0.024702294  0.024521281           14 
 2773000   0.79645359   -6.8424387    823.04512  0.024733896   0.02451358            6 
 2774000    0.8026117   -6.8451662    823.88335  0.024750161   0.02450589            8 
 2775000   0.80393739   -6.8561646    822.46013  0.024698503  0.024498207            8 
 2776000   0.80924039   -6.8490579    824.13826  0.024739981  0.024490558            5 
 2777000   0.79718675   -6.8718217    823.96045  0.024725737  0.024482882            6 
 2778000   0.82058128   -6.8220142    824.49768  0.024732952   0.02447525           12 
 2779000   0.81959478   -6.8393764    822.65403  0.024668767  0.024467623           13 
 2780000   0.80269549   -6.8511505    822.66667  0.024660272  0.024459964            8 
 2781000   0.79793829     -6.83149    824.95361  0.024719933  0.024452336           19 
 2782000   0.80749698   -6.8144973    824.18932  0.024688153  0.024444719           12 
 2783000    0.8146363   -6.8485151    823.18551  0.024649225   0.02443711            9 
 2784000   0.81262194   -6.8324207    821.90244  0.024601965  0.024429493           14 
 2785000   0.80250283   -6.8475581    824.07782  0.024658223  0.024421862            6 
 2786000   0.77967089   -6.8721504    825.47316  0.024691109  0.024414235            8 
 2787000   0.80198392   -6.8286743    826.41317  0.024710357  0.024406637            8 
 2788000      0.79888   -6.8526774    824.52541  0.024645068  0.024399053           14 
 2789000   0.80671641   -6.8376234    826.46079   0.02469406  0.024391467            8 
 2790000   0.81911787   -6.8421086    823.79304  0.024605527   0.02438393            7 
 2791000    0.8048144   -6.8456485    825.67243  0.024652825   0.02437634            7 
 2792000   0.80504885   -6.8486097    826.50757  0.024668922  0.024368766            9 
 2793000   0.80755883   -6.8783043    823.65993  0.024575126  0.024361157           14 
 2794000   0.79948817   -6.8518706    824.21192  0.024582794  0.024353587            8 
 2795000   0.79944953   -6.8837144    823.68622  0.024558325  0.024345968           13 
 2796000    0.7950874   -6.8716484    825.39084  0.024600347  0.024338356            9 
 2797000   0.80629529   -6.8929209    823.03981  0.024521506  0.024330735           10 
 2798000   0.79030832   -6.8864351    824.70207  0.024562249  0.024323132           14 
 2799000   0.80379873   -6.8311886    826.30102  0.024601078  0.024315595            8 
 2800000   0.80419446   -6.8666568    825.46882  0.024567524  0.024308054           15 
 2801000   0.78149355   -6.8353194    824.80877  0.024539116  0.024300501            7 
 2802000   0.79086043   -6.8644447    825.70075  0.024556887  0.024292963            7 
 2803000   0.80131678   -6.8639219    825.36886  0.024538258  0.024285361            7 
 2804000   0.81179821   -6.8463692     825.1099  0.024521811  0.024277856           11 
 2805000   0.81093221   -6.8661331    825.20171  0.024515797   0.02427034            9 
 2806000   0.79157384   -6.8397329     827.8506  0.024585727  0.024262879           19 
 2807000    0.7853365   -6.8269972    825.63483  0.024511187  0.024255374           11 
 2808000    0.8193504   -6.8218093    828.42054   0.02458513  0.024247902           12 
 2809000   0.80966666   -6.8342012    826.47997  0.024518808  0.024240432            7 
 2810000   0.78268413   -6.8556818    826.85865  0.024521312  0.024232945            6 
 2811000   0.81515588   -6.8482764    827.27715  0.024524996  0.024225457           18 
 2812000   0.79346687   -6.8473658    827.12164  0.024511666  0.024217934            7 
 2813000   0.79928008   -6.8468905    826.69575  0.024490335  0.024210413           11 
 2814000   0.81806791   -6.8554497    829.02766  0.024550689  0.024202922           16 
 2815000     0.790806   -6.8510407    827.00808  0.024482181  0.024195448            8 
 2816000   0.78783797   -6.8481552    827.57803  0.024490354  0.024188019            8 
 2817000   0.80573704   -6.8610032    828.31784  0.024503545  0.024180543           10 
 2818000   0.81463346    -6.855616     825.9848  0.024425858  0.024173056           12 
 2819000   0.79523154   -6.8780953    827.70541  0.024468056  0.024165567            8 
 2820000    0.7835285   -6.8593531    828.24674  0.024475376  0.024158081            9 
 2821000   0.79077175   -6.8368762    828.74327  0.024481368  0.024150588           11 
 2822000   0.81115178   -6.8420175    828.76498  0.024473334  0.024143101           12 
 2823000    0.7786294    -6.863687    827.61884  0.024430831  0.024135636            7 
 2824000   0.80101085   -6.8795825    828.84065  0.024458235  0.024128171            6 
 2825000   0.82553477    -6.862491    828.57769   0.02444182  0.024120732           11 
 2826000   0.79997234    -6.877346    827.86934  0.024412283  0.024113279           10 
 2827000   0.78630816   -6.8364774    831.69419  0.024516395  0.024105838           12 
 2828000   0.80773627   -6.8746934      828.601  0.024416578  0.024098377            5 
 2829000   0.78086419   -6.8501913    825.58356  0.024319063  0.024090868            7 
 2830000   0.81093138   -6.8503917    829.13862  0.024415154  0.024083417           12 
 2831000   0.80144587   -6.8571885     825.8973  0.024311118  0.024075967           15 
 2832000   0.79774393   -6.8641585    827.29926  0.024343787   0.02406853            7 
 2833000   0.79935593    -6.868068    828.49741  0.024370438  0.024061082           11 
 2834000   0.78888062   -6.8591992     827.1245  0.024321468  0.024053637            9 
 2835000   0.81939463   -6.8438151    830.34131  0.024407446  0.024046232            6 
 2836000   0.80303771   -6.8767236    826.73412  0.024292846  0.024038806            5 
 2837000   0.81190893   -6.8945536    826.18367  0.024268114  0.024031343           12 
 2838000   0.80102996   -6.8887883    825.60083  0.024242449  0.024023834            8 
 2839000   0.79820039   -6.8646467    828.98114  0.024333132  0.024016382            8 
 2840000   0.79619281   -6.8414134    832.22989  0.024419891  0.024008942           13 
 2841000   0.79203568   -6.8700084    829.58933  0.024333842  0.024001511           11 
 2842000   0.80686726    -6.879248    830.87614  0.024363011  0.023994094            7 
 2843000   0.78463318    -6.884457    826.51021  0.024226469   0.02398665            9 
 2844000   0.81018076   -6.8584779    828.58271  0.024278678  0.023979241           10 
 2845000   0.78987357   -6.8547676    830.76655  0.024334111  0.023971898           23 
 2846000   0.80967093    -6.881948    830.94043  0.024330652   0.02396455           13 
 2847000   0.79206614   -6.8759133     830.0102  0.024294878   0.02395718           10 
 2848000   0.80510036   -6.8493879    831.02842  0.024316141  0.023949828           12 
 2849000   0.80917109   -6.8607628    830.09477  0.024280296  0.023942411            9 
 2850000    0.7876603    -6.878787    829.92801  0.024266901  0.023935006           17 
 2851000   0.81456435   -6.8566214    830.21283  0.024266714   0.02392762           10 
 2852000   0.79300351   -6.9098749    828.09161  0.024196225   0.02392023            8 
 2853000   0.80417243   -6.8948234    828.86774  0.024210414  0.023912797            9 
 2854000   0.81220785   -6.8760654    831.40879  0.024276127  0.023905395           12 
 2855000   0.77929832    -6.876164    827.29919   0.02414767  0.023897975            3 
 2856000   0.79717056   -6.8581237    829.91926  0.024215665  0.023890578            9 
 2857000   0.78461755   -6.8907102    829.89844  0.024206582  0.023883179            7 
 2858000    0.7886712   -6.8994891    827.68552  0.024133588  0.023875778           16 
 2859000   0.79699783   -6.8639214     829.8383  0.024187895  0.023868387            6 
 2860000   0.80740271   -6.8730585    831.76408   0.02423555  0.023861011            5 
 2861000   0.77696164   -6.8371875    832.73238  0.024255283  0.023853646           12 
 2862000   0.79068688   -6.8796366    831.91333   0.02422296  0.023846244           15 
 2863000   0.79361208   -6.8833969    830.03725  0.024159892  0.023838825            7 
 2864000   0.79354502   -6.8794587    828.24576   0.02409933    0.0238314            7 
 2865000   0.77817393   -6.8633565    831.57862   0.02418786  0.023823999            8 
 2866000   0.80445069   -6.8877879    831.24752  0.024169793  0.023816581            8 
 2867000     0.795073   -6.8670232    830.97491  0.024153439  0.023809161           11 
 2868000   0.79191401   -6.8911952    832.54105  0.024190523  0.023801772            7 
 2869000   0.78825499   -6.8902541    829.35918   0.02408967   0.02379433           15 
 2870000   0.78925053   -6.8623617    830.47006  0.024113532   0.02378692           13 
 2871000   0.79995923   -6.9055759    830.39436  0.024102936  0.023779514           13 
 2872000   0.77926424   -6.8502672     830.8294  0.024107167  0.023772085           16 
 2873000   0.78520075    -6.896636    828.39683  0.024028218  0.023764655            8 
 2874000   0.78245589   -6.8535787    831.50724  0.024110045  0.023757212           11 
 2875000   0.78803836   -6.9380867    830.26954  0.024065784  0.023749771            8 
 2876000   0.79420443   -6.9205657    828.90759  0.024017953  0.023742265            7 
 2877000   0.79630345   -6.8885682    831.17776  0.024075361  0.023734788           18 
 2878000     0.774114   -6.8741519     831.6937  0.024081935   0.02372738            8 
 2879000   0.77674574    -6.896699    830.85353  0.024049251  0.023719978            8 
 2880000    0.7869639   -6.8488847    830.85782  0.024041025  0.023712553           12 
 2881000   0.78847162    -6.881835    832.69212  0.024085738  0.023705148            7 
 2882000   0.77575609    -6.847866    832.95887  0.024085093  0.023697756           11 
 2883000   0.80316674   -6.9024948    833.07484  0.024080091  0.023690367            9 
 2884000   0.78419257   -6.8688912    831.91002  0.024038084  0.023682958            6 
 2885000    0.7811608    -6.871201    835.17958  0.024124194  0.023675618           15 
 2886000   0.78834746    -6.915741    830.48431  0.023980258  0.023668265           13 
 2887000   0.79891538   -6.9205981    831.95122  0.024014294  0.023660849           12 
 2888000    0.7839575    -6.883971    832.61674  0.024025183  0.023653539            7 
 2889000   0.77612938   -6.8702307    831.96903  0.023998184  0.023646243           16 
 2890000   0.79198129    -6.869974    832.55107  0.024006663  0.023638907            8 
 2891000   0.78362811   -6.8668555    829.46225  0.023909323  0.023631584            9 
 2892000   0.79463529   -6.8818105    830.31022   0.02392549  0.023624215           18 
 2893000    0.7884665   -6.9052195    831.79199  0.023959903  0.023616878           14 
 2894000   0.77505459   -6.9063541    832.13411  0.023961475  0.023609497           16 
 2895000   0.80327924   -6.9148522    832.67386  0.023968735  0.023602123           14 
 2896000   0.78204888   -6.9097817    832.00548  0.023941226  0.023594725           12 
 2897000   0.78584991   -6.9007168    830.76795  0.023897364  0.023587327           11 
 2898000   0.80337859   -6.9105369    829.13657  0.023842206  0.023579934           14 
 2899000   0.79392896   -6.9020214     832.6767  0.023935745  0.023572506           15 
 2900000   0.80773334   -6.9291446    831.38496  0.023890373    0.0235651           11 
 2901000   0.79430007   -6.9152681    830.85529  0.023866922  0.023557708           12 
 2902000   0.78410704   -6.9251229    834.23802  0.023955836  0.023550335            8 
 2903000   0.79489898    -6.906958    833.50205  0.023926457  0.023542934           17 
 2904000   0.79792975    -6.898293    832.73191  0.023896118   0.02353563           12 
 2905000   0.78101575    -6.910345    832.21277     0.023873   0.02352832           15 
 2906000   0.79513978   -6.9151864    832.38569  0.023869743  0.023520951            8 
 2907000   0.78088009   -6.9014289    833.72541  0.023899937  0.023513582           16 
 2908000   0.80393485   -6.9109645    833.18092  0.023876115  0.023506253           13 
 2909000   0.77508525   -6.9139598    833.07738  0.023864942  0.023498901           12 
 2910000   0.79457607   -6.8894611    834.09019  0.023885744  0.023491534            6 
 2911000   0.78549285   -6.8842014    832.35522  0.023827872  0.023484217            7 
 2912000   0.79877153   -6.9157304    831.34701  0.023790837  0.023476895            9 
 2913000   0.78846466   -6.8693018    833.54453  0.023845535  0.023469592            6 
 2914000   0.78606241   -6.8891687    835.21279   0.02388506  0.023462297           12 
 2915000   0.78389405    -6.907773    834.31566  0.023851219  0.023455005            9 
 2916000   0.77809638   -6.8902347    833.88014  0.023830594   0.02344769           22 
 2917000   0.77953075   -6.9090364    833.36143  0.023807606  0.023440351            9 
 2918000   0.77737269   -6.8817465    834.03542  0.023818695   0.02343308           16 
 2919000   0.79130782   -6.8880662    833.28765  0.023789187  0.023425827           16 
 2920000   0.77428754   -6.9092332    835.16216  0.023834536  0.023418563           12 
 2921000   0.77085979   -6.8954667    835.33583  0.023831332  0.023411339           11 
 2922000   0.77925417   -6.8751201    834.70815  0.023805275  0.023404121           13 
 2923000    0.7662325   -6.9120124    833.25149  0.023755602  0.023396911            6 
 2924000   0.79128817   -6.8808646    836.30056  0.023834375  0.023389665            6 
 2925000   0.78741673   -6.9267336    834.34174   0.02377042  0.023382421           22 
 2926000   0.77518459   -6.8887006    835.30994  0.023789871  0.023375163           13 
 2927000   0.78837694   -6.8977961    834.23423  0.023751117   0.02336793           15 
 2928000   0.78743364   -6.8964958    833.40073  0.023719283  0.023360681           18 
 2929000    0.7868371   -6.9287832    833.48578  0.023713605  0.023353434           21 
 2930000   0.77765022   -6.9066923     834.5758  0.023736513  0.023346139           15 
 2931000   0.76869532   -6.9341112     835.5228   0.02375534  0.023338822           27 
 2932000   0.78960055   -6.9069117    834.20012  0.023709644  0.023331548           22 
 2933000   0.76441264   -6.9287369    833.66982  0.023686493   0.02332427           29 
 2934000   0.78798281   -6.9287556    834.91338  0.023713741   0.02331699            9 
 2935000   0.79686117   -6.9559493     832.9983  0.023651286  0.023309673           12 
 2936000   0.77900708   -6.9236815    835.77733  0.023722109  0.023302373           11 
 2937000   0.77403787   -6.9108753    835.79624  0.023714568  0.023295104            7 
 2938000   0.75678728   -6.9036319    837.94086  0.023767326  0.023287895           12 
 2939000   0.77161162   -6.9056832    836.25255  0.023711369  0.023280686           11 
 2940000   0.80514696   -6.9648982     836.2915  0.023704407  0.023273402           15 
 2941000   0.79179099    -6.934248    834.03288   0.02363235  0.023266122           14 
 2942000   0.76682518   -6.9143974    837.30038   0.02371687  0.023258869           16 
 2943000   0.78716451    -6.943127    834.48857  0.023629193  0.023251574           11 
 2944000   0.79641721   -6.9449711     835.2961  0.023644025    0.0232443           13 
 2945000   0.76851291   -6.9446847    834.74807  0.023620489   0.02323706           13 
 2946000   0.78373755   -6.9295974    835.14868  0.023623803  0.023229819           12 
 2947000   0.76676319   -6.9290301    835.34894   0.02362145  0.023222566           13 
 2948000   0.77308317   -6.9437136    832.75925  0.023540232   0.02321531           13 
 2949000    0.7787877   -6.9372056    834.93155  0.023593635  0.023208015           19 
 2950000   0.78042116   -6.9206846    835.44441  0.023600125  0.023200745           11 
 2951000   0.79448353   -6.9332148    835.86479  0.023603998  0.023193533           11 
 2952000   0.78350831   -6.9007791    834.15343  0.023547692  0.023186366            4 
 2953000   0.80370043   -6.9324915    835.43574  0.023575904  0.023179167           17 
 2954000   0.78203211   -6.9395431    836.00052  0.023583856   0.02317193           11 
 2955000   0.77650891   -6.9325428    837.67101  0.023622984  0.023164715           14 
 2956000   0.79458909   -6.9069902    836.91924  0.023593799  0.023157549           11 
 2957000   0.77392347   -6.9350595    837.37854  0.023598764  0.023150386           10 
 2958000   0.77619225   -6.9144099    837.30501  0.023588714  0.023143176           13 
 2959000   0.79020476   -6.9213002    836.94703  0.023570661  0.023136031           13 
 2960000   0.77029337   -6.9079892    836.47268  0.023549343  0.023128927           10 
 2961000   0.77769216   -6.9086099    837.14087  0.023560196   0.02312176           12 
 2962000   0.78058904   -6.9051104    839.83447  0.023628023  0.023114586           10 
 2963000   0.77341176   -6.9471638    837.18257  0.023545466  0.023107389            9 
 2964000   0.78322577   -6.9446725    838.31403  0.023569333  0.023100213            7 
 2965000   0.76739646   -6.9430612    835.04063  0.023469383   0.02309305           14 
 2966000   0.78538532   -6.9166968    837.95378  0.023543318  0.023085897           12 
 2967000   0.77597115   -6.8965011    837.79521  0.023530929  0.023078741            6 
 2968000   0.78011988   -6.9283264    837.87406  0.023525215  0.023071564            8 
 2969000   0.77814949   -6.9032241    837.31359   0.02350156  0.023064369            8 
 2970000    0.7749923   -6.9093024    836.99425  0.023484687  0.023057203           15 
 2971000   0.79151983   -6.9041202    838.65063  0.023523242  0.023050063           11 
 2972000   0.77308039   -6.9613359    836.80405   0.02346355  0.023042911           12 
 2973000   0.77338451   -6.9146499    837.60439  0.023478091  0.023035716           12 
 2974000   0.78197834   -6.9469378    837.89702  0.023478397   0.02302853           17 
 2975000   0.77545038   -6.9550414     837.7114  0.023465305  0.023021326           16 
 2976000   0.77414556   -6.9230147    837.02611  0.023438231   0.02301412           14 
 2977000   0.75758797   -6.9388656    838.00332  0.023457712  0.023006952           17 
 2978000   0.78090135   -6.9383033    837.03898   0.02342285  0.022999771           16 
 2979000   0.77475872   -6.9398601    835.78467    0.0233799  0.022992577           11 
 2980000   0.77366342   -6.9238423    838.33333  0.023443326  0.022985381           17 
 2981000   0.76365694   -6.9654639    837.00225  0.023398251   0.02297817            5 
 2982000   0.75926147   -6.9643018    836.48471  0.023375942  0.022970942           17 
 2983000   0.77851055   -6.9487155    837.05578  0.023384059  0.022963729            7 
 2984000   0.78622502   -6.9583323      834.752  0.023311885  0.022956531            7 
 2985000   0.78920551   -6.9451834    836.79263  0.023361045  0.022949289           12 
 2986000   0.77001784   -6.9096517    839.36631  0.023425048  0.022942111            9 
 2987000    0.7671927   -6.9641093    834.23817  0.023274137  0.022934891            7 
 2988000   0.77570372    -6.954485     837.6918  0.023362667  0.022927687           11 
 2989000   0.76704084   -6.9478997    835.90209  0.023304954  0.022920503           11 
 2990000   0.76285564   -6.9301619    837.21019  0.023333617  0.022913317           17 
 2991000   0.77544664   -6.9122889    839.10186  0.023378521   0.02290618            8 
 2992000   0.77266991   -6.9422346    836.50924  0.023298497  0.022899046           17 
 2993000   0.78523773   -6.9170021     837.8002  0.023326657  0.022891866           12 
 2994000   0.77769601   -6.9464007    838.19317  0.023329803  0.022884669           10 
 2995000   0.75599267   -6.9208907    838.21103  0.023322511  0.022877513            7 
 2996000   0.77394818   -6.9138955    837.61913  0.023298262  0.022870316           14 
 2997000   0.76521924   -6.9194814    837.95579  0.023299849  0.022863098           13 
 2998000   0.78074918   -6.9362763    837.63988  0.023283297  0.022855887           19 
 2999000   0.76523178    -6.963131    835.52406  0.023216741  0.022848649            7 
 3000000   0.77442668   -6.9321125    837.87059  0.023274183  0.022841404           16 
 3001000   0.77891364   -6.9456564    836.84029  0.023237818  0.022834161            7 
 3002000   0.77466549   -6.9482805    837.50012  0.023248393  0.022826908           11 
 3003000   0.76243178   -6.9769444    835.72359  0.023191353   0.02281966           10 
 3004000   0.76992513   -6.9380175     836.5145  0.023205573  0.022812413            6 
 3005000   0.76646772   -6.9049847    837.69489  0.023230585  0.022805144           11 
 3006000   0.76819472   -6.9533615    836.35512  0.023185715  0.022797861           11 
 3007000   0.75872848   -6.9416561    837.63875  0.023213578  0.022790595           17 
 3008000   0.76373183   -6.9776326    835.92855  0.023158482  0.022783337           10 
 3009000    0.7593812   -6.9431561    836.57405  0.023168662  0.022776076           12 
 3010000    0.7737584   -6.9560511     836.2034  0.023150703  0.022768867           17 
 3011000   0.76835223   -6.9605349    835.59654  0.023126219  0.022761597            8 
 3012000   0.77060504   -6.9374661    838.27409  0.023192621   0.02275437           11 
 3013000   0.76022027   -6.9392185    836.23193  0.023128442   0.02274713            7 
 3014000   0.77999281     -6.93561    837.34837  0.023151636  0.022739855           17 
 3015000   0.76531532   -6.9617403    838.54002  0.023176894  0.022732651           12 
 3016000   0.77155235   -6.9506664    836.30531  0.023107463  0.022725427           15 
 3017000   0.77098771    -6.926122    839.53619  0.023189045  0.022718196           16 
 3018000   0.77612193   -6.9454036    838.17083  0.023143661  0.022710971           14 
 3019000   0.76512742   -6.9178924    838.07553  0.023133364  0.022703754           11 
 3020000   0.75462882    -6.920307    838.19906  0.023129113  0.022696574            9 
 3021000   0.75876745   -6.9397836    837.32225  0.023097271   0.02268937           16 
 3022000   0.76160591   -6.9487098    838.40218  0.023119407  0.022682129            9 
 3023000   0.76336224   -6.9708411    836.53928  0.023060406  0.022674915           26 
 3024000   0.78660518   -6.9908027    836.50905  0.023051947  0.022667678           21 
 3025000   0.76626347   -6.9913964    836.58891  0.023046527  0.022660413           29 
 3026000   0.75772058   -6.9708509    836.57849  0.023038623  0.022653193           42 
 3027000   0.78078113   -6.9578502    838.63679  0.023087677  0.022645949           30 
 3028000   0.77486584   -6.9453205    839.57774  0.023105948  0.022638728           14 
 3029000   0.76639105   -6.9598956    835.82124  0.022994972  0.022631485           26 
 3030000   0.75780526   -6.9583592    835.34462  0.022974274  0.022624245           17 
 3031000   0.76322621   -6.9728767     836.2049  0.022990347  0.022617018           15 
 3032000   0.76152598   -6.9310858    837.83973  0.023027697  0.022609772           11 
 3033000   0.77942315     -6.97801    834.89112   0.02293909   0.02260256           13 
 3034000    0.7428795    -6.969469    836.93338  0.022987623  0.022595343           29 
 3035000   0.76065861   -6.9716041    837.77312  0.023003106  0.022588101            9 
 3036000   0.75438416   -6.9801303    837.86817  0.022998138  0.022580872           14 
 3037000   0.76816973   -6.9803482    836.64844  0.022957097   0.02257363            6 
 3038000   0.78289806    -6.968141    836.41124  0.022943034  0.022566428           17 
 3039000      0.75856   -6.9442306    838.19211  0.022984318  0.022559198            7 
 3040000   0.75664001   -6.9414943    839.91981  0.023024118  0.022552024           11 
 3041000   0.75346127   -6.9404658    838.99292  0.022991146   0.02254487           11 
 3042000   0.76154788   -6.9423695    838.29467  0.022964461  0.022537721            5 
 3043000   0.75743876   -6.9129516     839.9984  0.023003571  0.022530519            9 
 3044000   0.75390361   -6.9557115     835.4053  0.022870272  0.022523326           10 
 3045000   0.75830285    -6.990025     837.2835  0.022914162  0.022516079           12 
 3046000   0.75698699   -6.9676363    838.40096  0.022937212  0.022508811           15 
 3047000   0.76193436   -6.9717576    837.39813  0.022902257  0.022501574            8 
 3048000   0.75457453   -6.9794464    836.74256   0.02287682  0.022494318           12 
 3049000    0.7720484   -6.9757058    837.76718  0.022897321  0.022487089           20 
 3050000   0.76731203   -6.9457319    838.46193  0.022908796  0.022479893           11 
 3051000    0.7789022   -6.9605599    838.13942  0.022892478  0.022472688            8 
 3052000     0.763029   -6.9449681    838.13741  0.022884923   0.02246547           12 
 3053000   0.77123032    -6.984357    838.51441  0.022887717   0.02245824           11 
 3054000   0.76938578    -6.995413    834.59569  0.022773294  0.022451018           13 
 3055000   0.76003064   -6.9644946    837.05177  0.022832836  0.022443762           27 
 3056000   0.77010075   -6.9747078    836.29848  0.022804823  0.022436545            9 
 3057000   0.76873862   -6.9877997    838.11724  0.022846942  0.022429322           13 
 3058000   0.76869595   -6.9757748    839.18378  0.022868536  0.022422143           17 
 3059000    0.7611482   -6.9697307    838.43896  0.022840769  0.022414983            8 
 3060000   0.76282237   -6.9919931    836.62539  0.022783916  0.022407832           18 
 3061000   0.76050668    -6.967451    837.01645  0.022787119  0.022400692           12 
 3062000   0.77961888   -6.9822431    836.41738  0.022763373  0.022393536           13 
 3063000   0.75509551   -6.9913297    837.27728  0.022779336  0.022386373            9 
 3064000   0.76993747   -6.9839511    838.54507  0.022806383  0.022379189           10 
 3065000   0.75108262   -6.9915303    837.57844   0.02277266   0.02237202           10 
 3066000   0.76085773   -7.0055841    837.43689  0.022761385  0.022364797           17 
 3067000   0.77040765   -6.9848023    839.70995  0.022815725  0.022357597           25 
 3068000   0.75098287   -6.9698496    840.06851  0.022818028  0.022350409           12 
 3069000   0.75781361   -6.9882036     838.7666  0.022775242  0.022343241           23 
 3070000   0.78289603   -6.9501166    839.00169  0.022774204  0.022336097           12 
 3071000   0.76249523   -6.9546893    840.26064  0.022800951  0.022328935           18 
 3072000   0.76068351   -6.9497321    839.32897  0.022768256  0.022321749           18 
 3073000   0.75311145   -6.9912876    837.93301  0.022722991  0.022314584           15 
 3074000   0.74891407   -6.9839159     840.6906  0.022790355  0.022307441           15 
 3075000   0.75197425   -6.9955096    836.88616  0.022679842  0.022300291           10 
 3076000   0.76125819   -6.9972303    838.14216  0.022706496  0.022293096           13 
 3077000   0.76652392   -6.9927745    838.78579  0.022716547  0.022285927            6 
 3078000   0.76193784   -6.9953879    835.66786  0.022624753  0.022278729            7 
 3079000   0.77320944    -7.005575    837.67658  0.022671771  0.022271545            8 
 3080000    0.7604858   -6.9665665    841.87915  0.022778116  0.022264392           10 
 3081000   0.76058797   -6.9990096    837.78421  0.022659964  0.022257246            7 
 3082000   0.77342745   -6.9718685     838.6901  0.022677106  0.022250115           21 
 3083000   0.75759439   -6.9697835    839.84449  0.022700954  0.022243014           34 
 3084000   0.78004739   -6.9575858    839.89863  0.022695056  0.022235891           45 
 3085000   0.73711033   -6.9835247     839.4606  0.022675867  0.022228763           18 
 3086000   0.73657926   -6.9675385    838.69001   0.02264771  0.022221581            9 
 3087000   0.76238497   -6.9869296    838.11921  0.022624965  0.022214413           15 
 3088000   0.76802907   -6.9456631    841.76295  0.022715969  0.022207292           10 
 3089000   0.78214024    -6.985118     837.9621  0.022606078  0.022200144           12 
 3090000   0.74026227   -6.9847097    840.01038  0.022654002  0.022192987           30 
 3091000   0.74936918   -6.9469056    841.87024  0.022696814  0.022185871           10 
 3092000   0.74759245   -6.9823307    840.22828  0.022645221  0.022178782           10 
 3093000   0.75773896   -6.9665702    841.22833  0.022664843  0.022171707            8 
 3094000   0.74735164   -6.9901602    838.14375  0.022574438   0.02216463           12 
 3095000   0.74711975   -6.9882609     838.6953  0.022581995  0.022157545            8 
 3096000   0.75387228   -6.9580611    838.70012  0.022574831   0.02215043           10 
 3097000   0.74126934   -6.9726989    840.50207  0.022616028  0.022143319           10 
 3098000   0.76347491   -6.9908282    838.81721  0.022563407  0.022136211           22 
 3099000   0.77000936   -6.9987607    839.57455  0.022576491  0.022129068           15 
 3100000   0.75314684   -6.9808064    840.23629  0.022586997  0.022121953           35 
 3101000   0.75024539   -6.9884254    840.49203  0.022586586  0.022114865           29 
 3102000    0.7615679   -6.9741319    841.42652  0.022604409  0.022107807           29 
 3103000   0.77611559   -6.9825363    840.56039  0.022573864  0.022100765           10 
 3104000   0.77006293   -6.9946043    841.90305  0.022602638  0.022093703            8 
 3105000   0.76003082   -6.9812345    840.92613  0.022569139  0.022086673            8 
 3106000   0.76305171   -6.9727673     841.2971  0.022571826  0.022079646           11 
 3107000   0.75795709   -7.0064955    838.74771  0.022496184  0.022072602           14 
 3108000   0.76690187   -7.0091215    838.33084  0.022477768  0.022065518           18 
 3109000   0.75136201   -6.9988062    840.72179  0.022534625  0.022058467           20 
 3110000   0.74468137   -7.0125529    839.13073  0.022484746  0.022051414           14 
 3111000   0.74488365   -6.9902643    841.67569   0.02254569  0.022044329           24 
 3112000   0.75052767   -6.9966945    842.23745  0.022553488    0.0220373           21 
 3113000   0.75475501   -7.0146888    840.62999  0.022503212  0.022030276           12 
 3114000   0.75119002   -7.0260804    840.86058  0.022502156  0.022023231           33 
 3115000   0.76224955   -6.9971031    842.06762  0.022527224  0.022016174           18 
 3116000   0.73875384   -6.9873889    842.28514  0.022525811  0.022009132           25 
 3117000   0.76473086   -6.9724087    844.16278  0.022568784  0.022002119           15 
 3118000   0.74385792   -6.9938317    843.18565   0.02253543  0.021995129            7 
 3119000   0.75150437   -6.9866193    841.04884  0.022471114  0.021988134            8 
 3120000    0.7498765    -6.990777    842.86711  0.022512476  0.021981137            9 
 3121000   0.74545081   -6.9847295    840.20015  0.022434053  0.021974125            9 
 3122000   0.73907599   -6.9873068    841.56306  0.022463246  0.021967112           12 
 3123000   0.75742446   -7.0128085    839.74538  0.022407551  0.021960095           17 
 3124000   0.74256868   -6.9862899    842.84562  0.022483078  0.021953101           11 
 3125000    0.7564136   -7.0148549     839.3545  0.022382787  0.021946086           12 
 3126000   0.74711803   -7.0492451    837.99256   0.02233932   0.02193905           17 
 3127000   0.75017082   -7.0120707    840.52107  0.022399559  0.021932001           15 
 3128000    0.7446862    -7.017681    841.52941  0.022419262  0.021924963           15 
 3129000   0.74710485    -7.039455    839.39445  0.022355237  0.021917943           14 
 3130000   0.73870805   -6.9854462    842.35338  0.022426874  0.021910918           16 
 3131000   0.74266077   -6.9942888    842.72105  0.022429497  0.021903905           36 
 3132000   0.75929447   -7.0001335    841.91259  0.022400824  0.021896883           22 
 3133000   0.75207783   -6.9960797    841.22699  0.022375439  0.021889878           12 
 3134000    0.7526937   -7.0041924    841.84323  0.022384685   0.02188286           12 
 3135000   0.76725223    -7.002541    841.15851  0.022359344  0.021875856           34 
 3136000   0.75880413   -6.9994085    841.23274  0.022354186  0.021868864           18 
 3137000   0.75543056   -7.0063369    842.79549  0.022388574  0.021861854           44 
 3138000   0.74182986   -7.0063561    842.19939  0.022365609  0.021854885           27 
 3139000   0.75934855   -6.9812866    844.64241  0.022423341  0.021847898           10 
 3140000   0.72905469   -6.9866784    843.21144  0.022378223  0.021840921           13 
 3141000   0.76212854   -7.0082285    841.27273  0.022319663  0.021833925           25 
 3142000    0.7555033   -6.9912145    840.24886  0.022285404   0.02182691            8 
 3143000   0.73864737   -7.0069085    838.97386  0.022244508  0.021819903           10 
 3144000   0.73936608   -7.0192461    842.91121  0.022341794  0.021812887           27 
 3145000   0.75523636   -7.0109506    841.92163  0.022308469  0.021805868           12 
 3146000   0.73889347   -6.9984422    840.58245  0.022265905  0.021798876           11 
 3147000    0.7613135   -6.9991737    842.84457  0.022318731  0.021791845            8 
 3148000   0.73619494    -7.014367    840.50035  0.022249586  0.021784859            9 
 3149000   0.74273044   -6.9880733    842.76761   0.02230252  0.021777845            9 
 3150000   0.74945355   -6.9993884    842.10693  0.022277961  0.021770826           15 
 3151000    0.7417751   -6.9981634    840.10737  0.022218009  0.021763817            8 
 3152000   0.73737438   -7.0116616    840.33346  0.022216938  0.021756806           12 
 3153000   0.74333589   -6.9956708    842.62029  0.022270332  0.021749777           12 
 3154000   0.73418809   -6.9999949    841.12037  0.022223641  0.021742791            8 
 3155000   0.73692707   -6.9924357    840.65913  0.022204414  0.021735799           16 
 3156000   0.72916895   -6.9976902    841.73697  0.022225839   0.02172878            6 
 3157000   0.72564605   -7.0272524    841.47404  0.022211858  0.021721766           10 
 3158000   0.74094631   -6.9983163    841.53048  0.022206314   0.02171476           17 
 3159000   0.73503589   -6.9736634    843.78736   0.02225882  0.021707805           16 
 3160000   0.72405079   -7.0367218    840.74961  0.022171667  0.021700794            7 
 3161000   0.72994498   -7.0178195    842.25045  0.022204219  0.021693785           11 
 3162000   0.74951463   -7.0038151    842.61186  0.022206722  0.021686751           10 
 3163000   0.75286579   -7.0217725    843.05658  0.022211418  0.021679752           20 
 3164000   0.76003622   -7.0101848    844.49499  0.022242283  0.021672796           13 
 3165000   0.74356509   -7.0042942    842.82248  0.022191218  0.021665825           29 
 3166000   0.73334525    -7.038985    840.68574  0.022127967  0.021658852           17 
 3167000   0.73362716    -7.022113    843.69303  0.022200111  0.021651881           28 
 3168000   0.73779381   -7.0295049    843.77548  0.022195273  0.021644947           23 
 3169000   0.74284892   -7.0216833    842.91072  0.022165529  0.021638014           20 
 3170000   0.74678603   -6.9849173    845.14287  0.022217215  0.021631102           15 
 3171000   0.74673631   -7.0322927    843.22396   0.02215978  0.021624148           16 
 3172000   0.75932856   -7.0130129    841.71162  0.022113063  0.021617212           14 
 3173000   0.75705954   -7.0351783    841.73623   0.02210674  0.021610286           13 
 3174000   0.74945676   -7.0332868    844.41375  0.022170073  0.021603359            8 
 3175000   0.75116323   -7.0361278    842.39739  0.022110168  0.021596437           24 
 3176000    0.7569603   -7.0367229    841.95257  0.022091535  0.021589466           17 
 3177000   0.74024766   -7.0521189    840.31516  0.022041632  0.021582477           25 
 3178000   0.74547289    -7.026989    844.55295  0.022145819  0.021575534           13 
 3179000   0.73696199   -7.0142238    844.28972  0.022131952  0.021568575           28 
 3180000   0.76022136   -7.0502417    842.43123   0.02207629  0.021561608           13 
 3181000   0.75913206   -7.0323377    844.27321  0.022117605  0.021554648           55 
 3182000   0.73824869   -7.0275909    843.27553  0.022084526  0.021547655           22 
 3183000   0.74258369   -7.0491898    843.69774  0.022088641  0.021540658           27 
 3184000   0.75420735    -7.065382    841.41391   0.02202193  0.021533674           22 
 3185000   0.73880944   -7.0237102    843.20042  0.022061759  0.021526725           25 
 3186000   0.75739566   -7.0408704    843.27827   0.02205687  0.021519762           24 
 3187000   0.72987165    -7.056639    842.54748  0.022030841  0.021512813           12 
 3188000   0.74612287   -7.0447908     840.9601  0.021982437  0.021505857           19 
 3189000   0.73820737   -7.0424507    844.10816  0.022057807  0.021498892           21 
 3190000    0.7373959   -7.0471792    843.80222    0.0220429  0.021491953           30 
 3191000   0.74168043    -7.031591    843.56032  0.022029675  0.021484994           19 
 3192000   0.73403571   -7.0116848    843.57558  0.022023172   0.02147803           10 
 3193000   0.73326135   -7.0061295    845.23982  0.022059709  0.021471121           12 
 3194000   0.74955396   -7.0444438    843.05211  0.021995724  0.021464211           14 
 3195000   0.74940514   -7.0335432    842.51662  0.021974873  0.021457298            9 
 3196000   0.73764831    -7.035771    842.73177  0.021973607   0.02145039           10 
 3197000   0.71856956   -7.0162313    845.03423   0.02202675  0.021443509           14 
 3198000   0.73065566    -7.026533    843.90629   0.02199047  0.021436631           13 
 3199000   0.72341883   -7.0431326    843.27154  0.021967061  0.021429726           14 
 3200000    0.7539772   -7.0657774    843.51029  0.021966414  0.021422813           15 
 3201000    0.7400543   -7.0197986    843.67382  0.021963809  0.021415903           14 
 3202000   0.73846753   -7.0480473    843.38536  0.021949442  0.021408996           24 
 3203000   0.74343366   -7.0277352     843.6771   0.02195018  0.021402072           12 
 3204000    0.7462365    -7.015553    845.67312  0.021995243  0.021395162           15 
 3205000   0.73598515   -7.0504865    843.95777   0.02194378  0.021388263           20 
 3206000   0.74491528   -7.0441102    844.65757  0.021955125  0.021381329           13 
 3207000   0.74933886   -7.0380092    843.01705   0.02190565  0.021374401           13 
 3208000   0.74527192   -7.0521349    843.19279  0.021903387   0.02136752           12 
 3209000   0.73844705   -7.0472905    842.03731  0.021866555  0.021360642           11 
 3210000   0.73067704   -7.0395805    843.17564  0.021889295  0.021353719           19 
 3211000   0.73909325   -7.0562841    844.11583  0.021906878  0.021346818            8 
 3212000   0.73782231   -7.0155597    844.41895  0.021907922  0.021339927           19 
 3213000   0.75330896   -7.0420628    841.54253    0.0218265  0.021333071           12 
 3214000   0.74390669   -7.0420254    845.36309  0.021918769  0.021326195           16 
 3215000   0.74035961   -7.0587614    842.07523   0.02182673  0.021319315           14 
 3216000   0.74413608   -7.0448252    844.81324   0.02189089  0.021312445           14 
 3217000     0.743884   -7.0227319    844.60744  0.021878755  0.021305591           12 
 3218000   0.74807057    -7.041997    843.96787  0.021855393  0.021298729           13 
 3219000    0.7382776   -7.0599409    844.40577   0.02185994   0.02129183           17 
 3220000    0.7309746    -7.021786    844.12961  0.021846004  0.021284906           21 
 3221000   0.74333566   -7.0676159    844.96831  0.021860921  0.021278019            8 
 3222000   0.73584526   -7.0460071     843.8292  0.021824674  0.021271129           20 
 3223000   0.73655737   -7.0490261    845.30292  0.021856007  0.021264244            7 
 3224000   0.73773991   -7.0531648    845.44304  0.021852849  0.021257379            6 
 3225000   0.71834866   -7.0835332    843.81494  0.021804004  0.021250535           39 
 3226000   0.73091404   -7.0592644    845.11695  0.021830878  0.021243664           10 
 3227000   0.72326707   -7.0478088    844.64283   0.02181187  0.021236814           21 
 3228000   0.72161972   -7.0492262    845.15432  0.021818317   0.02122995           14 
 3229000   0.72800917   -7.0550723    844.60972  0.021797505  0.021223105           16 
 3230000   0.73731519   -7.0628411    844.83663  0.021796611  0.021216274           15 
 3231000   0.73005302   -7.0707262    844.46345   0.02178024  0.021209435            7 
 3232000   0.72220351   -7.0701788     846.5765  0.021827983  0.021202608           13 
 3233000   0.71997712    -7.035175    845.10668  0.021783346  0.021195784           23 
 3234000    0.7324119   -7.0477159    844.90134  0.021771319  0.021188978           22 
 3235000   0.74435389   -7.0809177    844.18899  0.021746239  0.021182126           22 
 3236000    0.7400015   -7.0265105    845.57128  0.021775115  0.021175283            5 
 3237000   0.73881944   -7.0638374     846.2967  0.021787064  0.021168467           19 
 3238000   0.73046995   -7.0679693    844.30502  0.021729077  0.021161655           31 
 3239000   0.73960863   -7.0757088    846.04747  0.021767199  0.021154836           21 
 3240000   0.74227166   -7.0671117    846.27652  0.021766371  0.021147951           12 
 3241000   0.74030186    -7.070889    845.10431  0.021729515    0.0211411           15 
 3242000   0.73259675   -7.0477161    846.66377  0.021762898  0.021134282           19 
 3243000   0.73274067   -7.0612509    844.27022  0.021694681  0.021127464           34 
 3244000   0.72064602   -7.0491409    845.89724  0.021729789   0.02112063           11 
 3245000    0.7195178   -7.0801698    843.79396   0.02166908  0.021113796           17 
 3246000    0.7241904   -7.0837922    844.06635  0.021669397  0.021106957           33 
 3247000   0.74315679   -7.1124185     844.1835   0.02166573  0.021100082           43 
 3248000   0.72618788   -7.0704848    842.91043  0.021626397  0.021093205           38 
 3249000   0.71705953   -7.1032541    842.58244  0.021611328  0.021086335           38 
 3250000   0.73451251   -7.0736663    841.79825  0.021584571  0.021079441           70 
 3251000   0.72314578   -7.0928172    843.82022   0.02162976  0.021072566           99 
 3252000   0.72762496   -7.0825614    844.53198  0.021641348  0.021065727           63 
 3253000   0.73931384   -7.0737231    844.79677  0.021641479  0.021058908           81 
 3254000   0.73339554   -7.0942993    844.22313  0.021620138  0.021052075           28 
 3255000   0.72785669   -7.0618567    845.92323  0.021657021  0.021045263           25 
 3256000   0.73994281   -7.0800066     846.1091  0.021655126  0.021038423           33 
 3257000   0.72340917   -7.0996841    843.64709  0.021585485  0.021031586           35 
 3258000   0.75244684   -7.0439362    844.77441  0.021607694  0.021024799           29 
 3259000   0.73835686   -7.0776006    845.62084  0.021622707  0.021017993           57 
 3260000   0.73093713   -7.0358422    847.74998    0.0216705  0.021011214           13 
 3261000   0.74141022    -7.032203    844.52507  0.021581444  0.021004434           20 
 3262000   0.71882196   -7.0481419    847.00019  0.021638059  0.020997669            9 
 3263000   0.73243692   -7.0475756    846.36657  0.021615246  0.020990893           12 
 3264000   0.72794552   -7.0563077    845.78832   0.02159386  0.020984137           32 
 3265000   0.73066159   -7.0574399    844.25823  0.021548194  0.020977382           21 
 3266000   0.72077572   -7.0572013    844.99433  0.021560378  0.020970641           26 
 3267000   0.72601175   -7.0558438    845.29935  0.021561559  0.020963886           13 
 3268000   0.73197174   -7.0805212    845.86402   0.02156936  0.020957119           13 
 3269000    0.7189584   -7.0518984    846.50404  0.021579077  0.020950381           17 
 3270000   0.71648683   -7.0682201    844.30262  0.021516377  0.020943634           18 
 3271000   0.73818754    -7.086265    845.31156  0.021535503  0.020936846           27 
 3272000   0.74147011   -7.0932934    845.32416  0.021529242    0.0209301           11 
 3273000   0.73665896   -7.0838085    845.63651  0.021530617  0.020923353           10 
 3274000   0.74779347   -7.0855281    847.00439  0.021558857  0.020916571           11 
 3275000   0.73084041   -7.0963272    845.37315  0.021510767  0.020909797           12 
 3276000   0.72252753   -7.1012718    845.21349   0.02150014  0.020903007            9 
 3277000    0.7223622   -7.0743557    846.43234  0.021524574  0.020896225           10 
 3278000   0.71598007    -7.073476    846.73139   0.02152561   0.02088945           12 
 3279000   0.72458694   -7.0951763    846.64265   0.02151679  0.020882708           34 
 3280000   0.73193645   -7.0682095    848.26072  0.021551339  0.020875954            8 
 3281000   0.72993152   -7.0852562    846.43686  0.021498447  0.020869254           11 
 3282000   0.74458015    -7.086017    846.61443  0.021496406  0.020862492           13 
 3283000   0.71773598   -7.0863807    847.24789  0.021505937  0.020855735           32 
 3284000    0.7354473   -7.0898553    847.19645  0.021498083   0.02084902           27 
 3285000   0.73573091   -7.0830061      847.134  0.021489954  0.020842293           10 
 3286000   0.70284922   -7.0514914    844.97731  0.021428721  0.020835573           10 
 3287000   0.72055142   -7.0682786    847.26773  0.021480269  0.020828875           10 
 3288000   0.73985977   -7.0743882    845.78117   0.02143606  0.020822181           10 
 3289000   0.71494509   -7.1218933    846.11866  0.021438093  0.020815449           15 
 3290000   0.72944817    -7.107802    846.01299  0.021428901  0.020808702           35 
 3291000    0.7350583   -7.0845339    845.95027  0.021420801  0.020801953           15 
 3292000   0.72735031   -7.1053112      844.893   0.02138753  0.020795235           36 
 3293000   0.71585962   -7.0959148    844.88042  0.021380717  0.020788523           14 
 3294000   0.72737653   -7.1153669    845.29766  0.021384782  0.020781796           11 
 3295000   0.70740305   -7.0523086    847.03708  0.021422283  0.020775101           31 
 3296000   0.73945685   -7.0795202    847.71298  0.021432873  0.020768438           27 
 3297000   0.73407036   -7.0948461    846.72616  0.021401429  0.020761765           32 
 3298000   0.72557171   -7.0815113    846.03287  0.021377422  0.020755094           13 
 3299000   0.73253173   -7.1008288     846.9252  0.021393483  0.020748433            8 
 3300000   0.70824989   -7.0511145    847.57915  0.021403514  0.020741769            8 
 3301000   0.72372327    -7.070853    848.71408  0.021425681   0.02073513           11 
 3302000   0.73094995   -7.0758374    848.94735   0.02142508  0.020728478           21 
 3303000    0.7356201   -7.0953158    847.26243  0.021376083  0.020721829           16 
 3304000   0.73159913   -7.0916008    847.21222  0.021368347  0.020715178           18 
 3305000   0.70147976   -7.1093557    847.64916  0.021372899  0.020708529           29 
 3306000   0.70538261   -7.1035898    847.14076  0.021353619  0.020701854           41 
 3307000   0.73601779   -7.0973758    847.64175  0.021359786  0.020695185           23 
 3308000   0.72109735   -7.1168582    846.05192  0.021313279  0.020688517            9 
 3309000    0.7097513   -7.1023759     847.4511  0.021342075  0.020681857           29 
 3310000   0.71084972   -7.0646124     848.9032  0.021372185  0.020675218           17 
 3311000   0.74608076   -7.0707153    848.59472  0.021357966  0.020668592           22 
 3312000   0.71360232   -7.0581644    848.27369   0.02134344  0.020661958           11 
 3313000   0.72473672   -7.0687066    849.88025  0.021377409   0.02065532           34 
 3314000   0.70427472   -7.1186199    850.25032  0.021380264  0.020648684           25 
 3315000   0.72221529    -7.107517    847.36972  0.021301401  0.020641995           20 
 3316000   0.72864011   -7.1130984    849.11383  0.021338808  0.020635324           13 
 3317000    0.7267772   -7.0927531    848.72943  0.021322717  0.020628678           16 
 3318000   0.72638837   -7.1313211    844.63211  0.021213384  0.020622005           29 
 3319000   0.70343592   -7.1063889    848.06369  0.021293153  0.020615316           16 
 3320000   0.72192125   -7.0803812     848.5351  0.021298572  0.020608669           17 
 3321000   0.72290902     -7.10218    846.06881  0.021230272  0.020602019           32 
 3322000   0.72749119   -7.0849349    847.90421  0.021269923   0.02059539           26 
 3323000   0.72702153    -7.101834    849.32865  0.021299244  0.020588772           29 
 3324000    0.7205528   -7.0879576     848.9472  0.021283273  0.020582166           24 
 3325000   0.72977497   -7.0967186    848.39885  0.021263129  0.020575543           15 
 3326000   0.73430768   -7.1044489    848.12918  0.021249979  0.020568923           11 
 3327000   0.72532322   -7.0996343    849.40596  0.021275573  0.020562289           39 
 3328000   0.72227004   -7.0765624    849.37332  0.021268362  0.020555652           10 
 3329000   0.73890657   -7.0923303    848.24972  0.021233847  0.020549036           23 
 3330000   0.71409353    -7.115687    847.78291  0.021215789   0.02054239           38 
 3331000   0.71080742   -7.0828205    849.65578  0.021256274  0.020535765           31 
 3332000   0.71074635   -7.0988964    847.53543  0.021196864  0.020529169           15 
 3333000   0.72989005   -7.1021866     848.1322  0.021205426  0.020522576           11 
 3334000   0.72591821   -7.0889425    848.03706  0.021196687  0.020515975           22 
 3335000   0.72426599   -7.0952972    847.20563  0.021169556  0.020509371           18 
 3336000   0.72968031   -7.1066429    848.39518  0.021192925  0.020502801           29 
 3337000   0.71450227   -7.0894075    848.55389  0.021190538  0.020496237           13 
 3338000   0.70636947   -7.0659182    848.53752  0.021183781  0.020489686           32 
 3339000   0.72167279    -7.066007    848.97637  0.021188389   0.02048316           13 
 3340000   0.70357264   -7.0932625     851.2042   0.02123763   0.02047662           10 
 3341000    0.7128565   -7.0798357    848.63109  0.021167093  0.020470076           28 
 3342000   0.71334629   -7.0874542    849.30481  0.021177559  0.020463515           11 
 3343000   0.71218663   -7.1020828     848.5482  0.021152363  0.020456943           22 
 3344000   0.72437935    -7.090141    850.38665  0.021191852  0.020450383           18 
 3345000   0.70708635   -7.0604933    850.47406  0.021187694  0.020443844           30 
 3346000   0.71035955   -7.0843349    850.49982  0.021182004    0.0204373            8 
 3347000    0.7040588   -7.0830015    847.83958  0.021109441  0.020430753           16 
 3348000   0.70501645   -7.1106359    851.02011  0.021182301  0.020424229            6 
 3349000    0.7212097   -7.0724327    850.72528  0.021168639  0.020417705           11 
 3350000   0.71047722   -7.1263446     850.2816  0.021151284  0.020411176           14 
 3351000   0.72534368    -7.091688    849.83402  0.021133841  0.020404649           12 
 3352000   0.71843073   -7.0979512    848.78566  0.021101473  0.020398126           19 
 3353000   0.71017304   -7.1130959    848.90648  0.021098183   0.02039156           27 
 3354000   0.70886913   -7.1164018     848.4128  0.021079626  0.020384982           25 
 3355000   0.72264204   -7.1127883    847.31735  0.021046134  0.020378423           16 
 3356000     0.705509   -7.1068403    849.89646  0.021103905  0.020371831           20 
 3357000   0.72802225   -7.1200041    849.33002  0.021083557  0.020365266           16 
 3358000   0.71274786   -7.1606827    847.77984  0.021038809  0.020358695           23 
 3359000   0.72404447    -7.104192    850.15682  0.021091516  0.020352139           18 
 3360000   0.72909203   -7.1232281    849.62084  0.021071945  0.020345587           12 
 3361000   0.69249229   -7.1373632    849.33442  0.021058574  0.020339044           23 
 3362000   0.72588477    -7.114463    849.31131  0.021051738  0.020332524           31 
 3363000   0.71239586   -7.1142167    850.11317  0.021065348  0.020325993           24 
 3364000   0.70682439   -7.1092362    851.18673   0.02108568  0.020319467           12 
 3365000   0.72064091   -7.1333512    850.22167  0.021055514  0.020312956           17 
 3366000   0.71386372   -7.1363428    847.94684   0.02099294  0.020306411           17 
 3367000   0.71629577   -7.1308263    848.87853  0.021009765    0.0202999           46 
 3368000   0.71099698   -7.1244284    848.82513  0.021002205  0.020293371           12 
 3369000   0.71663978   -7.0909617    849.66126  0.021016653  0.020286833           34 
 3370000   0.72465032   -7.1027437    850.92499  0.021041666  0.020280283           22 
 3371000   0.70819103    -7.139432    848.94607  0.020986504   0.02027378           14 
 3372000   0.71995211   -7.1433029    850.71177  0.021023917  0.020267258           11 
 3373000   0.71720175   -7.1334697    851.55571  0.021038534  0.020260725           26 
 3374000   0.72257782   -7.1080941    849.67465  0.020985839  0.020254176           22 
 3375000   0.70901291   -7.1173497    850.10758  0.020990311  0.020247669           17 
 3376000   0.70836432   -7.1105263    849.68241  0.020973598  0.020241172           33 
 3377000   0.70162261   -7.1167504    850.06554  0.020976842  0.020234629           15 
 3378000   0.72159737   -7.1339088    847.82556  0.020915373  0.020228107           13 
 3379000   0.70777841   -7.1488166    846.69102  0.020881203  0.020221542           33 
 3380000   0.70180929   -7.1263447    848.59247  0.020921905  0.020214995           31 
 3381000      0.70375   -7.1606695    848.94363  0.020924372  0.020208432           40 
 3382000   0.72166305   -7.1190396    848.98196   0.02091913  0.020201896           20 
 3383000   0.68736027   -7.1079905    851.53711  0.020975887  0.020195404           33 
 3384000   0.70609357   -7.1331826    851.14316  0.020959987  0.020188919           25 
 3385000    0.7159162   -7.1370268    848.11943  0.020879356  0.020182416           25 
 3386000   0.71398652   -7.1182436    849.28513  0.020901879  0.020175903           20 
 3387000   0.71071325   -7.1269779     851.2928  0.020945104  0.020169393           19 
 3388000   0.69723272   -7.1215491    850.20757  0.020912229  0.020162911           30 
 3389000   0.71352702   -7.1222259    849.76045  0.020895064  0.020156435           19 
 3390000   0.70472447   -7.0953855     853.1642  0.020972571  0.020149979           28 
 3391000    0.6966016   -7.1465273    851.40524   0.02092316  0.020143527           43 
 3392000   0.70736504   -7.1345352    850.14164  0.020885948   0.02013706           20 
 3393000   0.70739891   -7.1182385    850.28917  0.020883416  0.020130567           26 
 3394000   0.69880811   -7.1003141    852.39305   0.02092892  0.020124128           10 
 3395000   0.71385021   -7.1000113     850.7267  0.020881853  0.020117696           25 
 3396000   0.71679197   -7.1380572    850.74659  0.020876192  0.020111257           39 
 3397000   0.71192341   -7.0996831    849.89679    0.0208492  0.020104803           22 
 3398000    0.7011198   -7.1339902     850.4456  0.020856523  0.020098361           21 
 3399000   0.70609083   -7.1493441    850.77624  0.020858494  0.020091921           28 
 3400000   0.72236465     -7.10379    852.44386  0.020893232  0.020085483            7 
 3401000   0.71772824    -7.107504    849.93738  0.020825673  0.020079057           12 
 3402000   0.71692387    -7.099546     850.3928  0.020830707  0.020072645           15 
 3403000   0.71094337   -7.1100413    850.56139  0.020828715  0.020066228           29 
 3404000   0.71186443   -7.1178932    850.84425   0.02082952  0.020059789           24 
 3405000   0.71865614   -7.1167248    852.02787  0.020852371   0.02005335           17 
 3406000     0.714107   -7.1700853    850.20474  0.020801643  0.020046861           19 
 3407000     0.699756   -7.1542327    850.50973  0.020802997  0.020040361           22 
 3408000   0.71335448   -7.1341351    850.69113  0.020801328  0.020033911           14 
 3409000   0.71596652   -7.1440337     850.6292  0.020793713  0.020027462           27 
 3410000   0.71048693   -7.1385485    849.17557  0.020752091  0.020021004           15 
 3411000   0.71072467   -7.1034649    851.20393  0.020795562  0.020014556           17 
 3412000   0.70882432   -7.1391637    851.37843  0.020793729   0.02000811           13 
 3413000   0.68426753   -7.1196154    850.56435  0.020767759   0.02000164           14 
 3414000   0.69989526   -7.1361379     850.9432  0.020770924  0.019995199           15 
 3415000   0.68568376   -7.1410418    851.89097  0.020787969  0.019988758           22 
 3416000   0.70237154   -7.1123025    849.19743  0.020716175   0.01998235           13 
 3417000   0.70727956   -7.1333615    852.35835    0.0207872  0.019975947           16 
 3418000   0.72451801   -7.1397963    849.55631  0.020712803  0.019969558           16 
 3419000   0.70058823   -7.1605252    849.38996   0.02070269  0.019963128           14 
 3420000   0.69627855   -7.1431577    850.24685  0.020717516  0.019956684           23 
 3421000   0.70183265   -7.1501637    850.19066  0.020710091  0.019950224           17 
 3422000   0.70621674   -7.1489507    851.04611  0.020724871  0.019943785           17 
 3423000   0.70647484   -7.1137478    850.31894  0.020701114  0.019937346           26 
 3424000   0.70149795   -7.1617474    848.31484  0.020646292  0.019930904           22 
 3425000   0.70758056   -7.1683577    850.44913  0.020692193  0.019924458           31 
 3426000   0.69172327   -7.1544014      849.433  0.020661437  0.019918024           91 
 3427000   0.70480122   -7.1698942    851.70696  0.020710703  0.019911584           57 
 3428000   0.70238437   -7.1421667    851.75288  0.020705778  0.019905175           52 
 3429000   0.71326038   -7.1600682    848.89889   0.02063038   0.01989875           20 
 3430000   0.71186047   -7.1644996    850.16959  0.020655238  0.019892334           23 
 3431000    0.7024515   -7.1508958    850.37105  0.020654111  0.019885895           53 
 3432000   0.69692484   -7.1657489    849.41414  0.020624858  0.019879465           31 
 3433000    0.7097807   -7.1599205    850.58134  0.020647183  0.019873016           53 
 3434000   0.69877992   -7.1725531    851.01546  0.020651705  0.019866573           36 
 3435000   0.70142448    -7.151321    850.60881  0.020635827  0.019860142           22 
 3436000    0.6862376   -7.1605504    850.66661  0.020631224  0.019853706           45 
 3437000   0.70177682   -7.1744621    850.80843  0.020628659   0.01984728           44 
 3438000   0.68638587   -7.1775144     848.7571  0.020572937  0.019840848           33 
 3439000   0.71778693   -7.1651814    849.97982  0.020596584  0.019834425           38 
 3440000   0.68511893   -7.1534014    849.93108  0.020589416  0.019827974           35 
 3441000   0.69927749   -7.1641278    849.26956  0.020567411  0.019821511           30 
 3442000   0.68328578   -7.1931227    850.54487  0.020592312  0.019815062           55 
 3443000   0.70790315   -7.1680387    850.43147  0.020583587  0.019808618           48 
 3444000    0.6970386   -7.2002957    847.69738  0.020511454   0.01980216           41 
 3445000   0.70881707   -7.1993826    849.41341   0.02054701  0.019795684           36 
 3446000   0.69922205   -7.1727187     850.1082   0.02055785  0.019789225           29 
 3447000    0.6977687   -7.1600346    849.14372  0.020528569  0.019782775           51 
 3448000   0.69222098   -7.1751581    849.21445  0.020524324  0.019776352           21 
 3449000   0.70865961   -7.1546616    849.89642  0.020534851  0.019769921           40 
 3450000    0.7091113   -7.1554861    849.74729  0.020525297  0.019763486           49 
 3451000   0.69077231   -7.1620126    850.01039  0.020525702  0.019757038           39 
 3452000   0.68951432   -7.1779859    850.26248  0.020525842   0.01975059           39 
 3453000   0.68945719    -7.159414    850.29716  0.020520735  0.019744172           45 
 3454000   0.70831795   -7.1980127    847.69432  0.020451996  0.019737763           22 
 3455000    0.6999778    -7.180661     848.6548  0.020469243   0.01973134           40 
 3456000   0.69756303   -7.1668315    849.46203  0.020482784  0.019724893           52 
 3457000   0.70279203   -7.1739957    847.59293  0.020431803  0.019718443           73 
 3458000   0.68247834   -7.1852414     848.7777  0.020454446  0.019712008           53 
 3459000    0.6872321   -7.1606803    849.44766  0.020464673  0.019705553           42 
 3460000   0.69347933   -7.1979725    849.01047  0.020448229  0.019699101           43 
 3461000      0.70171   -7.1713428     848.5792  0.020431937   0.01969266           58 
 3462000   0.70380476   -7.1806855    848.59368  0.020426384   0.01968623           57 
 3463000   0.66988111   -7.1802497    849.37159  0.020439205  0.019679817           43 
 3464000   0.69170069   -7.1622569    849.71263  0.020441509  0.019673411           30 
 3465000   0.69405332   -7.1707846    848.75744  0.020412637  0.019667004           49 
 3466000   0.69059798   -7.1920799    851.52341   0.02047325  0.019660585           44 
 3467000   0.71279066   -7.1845168    848.62051   0.02039757  0.019654176           62 
 3468000   0.69999497   -7.1785795    849.02447  0.020401395  0.019647765           35 
 3469000   0.70305117   -7.1701886    849.55196  0.020408186  0.019641337           89 
 3470000   0.68924535   -7.1848065    849.62221  0.020403992  0.019634908           17 
 3471000   0.68708369   -7.1992264    847.40103  0.020344786  0.019628466           54 
 3472000   0.70864109   -7.1861078     849.2278  0.020382772  0.019622003           43 
 3473000   0.70244743    -7.203922    846.91634   0.02032144  0.019615532           81 
 3474000   0.69136177    -7.215588    848.09646  0.020343899  0.019609049           49 
 3475000   0.70348328   -7.2164976    848.88751  0.020357015  0.019602597           62 
 3476000   0.68418005   -7.2027003      847.396  0.020315401  0.019596132           76 
 3477000   0.68786031   -7.1905554     849.0005  0.020348013  0.019589713           78 
 3478000   0.70798919   -7.1853425    847.51347  0.020306533  0.019583289          117 
 3479000   0.70106281   -7.1727336    849.93783  0.020358768  0.019576872           97 
 3480000   0.68941615   -7.1934531    846.90358  0.020280258  0.019570458          132 
 3481000   0.69225457   -7.2140096    848.41751  0.020310675  0.019564029          118 
 3482000   0.70088102   -7.2059893    846.83861  0.020267055  0.019557587          102 
 3483000   0.69623323   -7.2027269    849.05398   0.02031424  0.019551146          101 
 3484000   0.68489193   -7.2239455    847.73865  0.020276948  0.019544705          116 
 3485000   0.68864572   -7.1494858     850.5378  0.020338063  0.019538279          125 
 3486000   0.69383525   -7.2231883    846.30746  0.020231102  0.019531871          127 
 3487000   0.71422572   -7.1973855    847.39981  0.020251405  0.019525436          112 
 3488000   0.70316992   -7.1888053    848.50504  0.020272005  0.019519001           98 
 3489000   0.69912515    -7.221847    848.01504  0.020254491  0.019512572           87 
 3490000    0.6942519   -7.2075558    849.06161  0.020273677  0.019506141           90 
 3491000   0.69176849   -7.1923689    848.71427  0.020259579  0.019499717          136 
 3492000   0.68301804   -7.2110276    848.43441  0.020247098  0.019493299           81 
 3493000   0.69919284   -7.1959647    849.66443  0.020270647  0.019486898          118 
 3494000   0.69859421   -7.2304547    847.52437  0.020213804    0.0194805          141 
 3495000   0.68931189   -7.2334544    849.45458  0.020254043  0.019474089          142 
 3496000    0.6936221   -7.1850611    849.78912  0.020256224  0.019467681          140 
 3497000   0.68904441   -7.2074807    848.66425  0.020223626  0.019461301          101 
 3498000   0.68967978   -7.1989154    849.88649  0.020246962   0.01945495          129 
 3499000   0.68203788    -7.161067    852.21073  0.020296531  0.019448578          112 
 3500000   0.69212082   -7.2157114    848.26612  0.020196812  0.019442203          134 
 3501000   0.68950535   -7.2044441    850.28891  0.020239191    0.0194358          134 
 3502000   0.68948869   -7.2034732     848.8694  0.020199634  0.019429393          133 
 3503000   0.69858867   -7.2175598    848.14515  0.020176638  0.019422994          116 
 3504000    0.6878052   -7.2098838    852.42943   0.02027277  0.019416586          118 
 3505000   0.69468234   -7.2201472    848.10863  0.020164257   0.01941019          117 
 3506000   0.67383788    -7.192184    849.27892  0.020186321  0.019403786          127 
 3507000   0.68971901   -7.2351412    849.85254  0.020194196  0.019397374          113 
 3508000   0.69482975   -7.1998264    847.31506  0.020128161  0.019390967          148 
 3509000   0.69698628   -7.1822049     849.0887  0.020164546   0.01938456          142 
 3510000   0.70504271    -7.185161    848.38186   0.02014202  0.019378192          116 
 3511000   0.68470681   -7.1974423    848.49295  0.020138919   0.01937182          145 
 3512000   0.68740845   -7.2065199    847.46901  0.020108889  0.019365422          128 
 3513000   0.69118979    -7.195655    848.77267  0.020134089  0.019359042           90 
 3514000   0.69168158     -7.16694    849.94124  0.020156072  0.019352686          141 
 3515000   0.68687529     -7.20132    849.28541  0.020134789  0.019346298          126 
 3516000   0.69094629    -7.199279    850.19253  0.020150562  0.019339923          150 
 3517000    0.6964035   -7.1934423    850.49633  0.020152031  0.019333552          156 
 3518000   0.69287339   -7.1971449      849.207  0.020115762    0.0193272          137 
 3519000   0.67683489   -7.2208274    848.09542  0.020083722  0.019320821          135 
 3520000   0.69614241   -7.2157472    848.24203  0.020081487  0.019314458          167 
 3521000   0.68299312   -7.2006473    849.65948  0.020109332  0.019308067          115 
 3522000   0.68562928     -7.21571     848.0428   0.02006537  0.019301663          171 
 3523000   0.68716132   -7.2087225    849.45735  0.020093134  0.019295272          210 
 3524000   0.68391808   -7.2359244    847.13257  0.020032458  0.019288859          196 
 3525000   0.68404368   -7.2131718    847.90592  0.020045057  0.019282464          187 
 3526000   0.67844077   -7.2199819    847.73648  0.020035368  0.019276084          196 
 3527000   0.68714228   -7.2044245    849.11177  0.020062182  0.019269726          140 
 3528000   0.68317321   -7.1940453    848.97461  0.020053255  0.019263367          177 
 3529000    0.6888349   -7.2049834    849.04428  0.020049218  0.019257001          164 
 3530000   0.68424495   -7.1830083    849.54166   0.02005528  0.019250658          178 
 3531000   0.67636847   -7.2006151    849.41388  0.020046584  0.019244296          194 
 3532000    0.6926184   -7.2115884    849.10017  0.020033507  0.019237935          311 
 3533000   0.66713452   -7.2246202    849.38169  0.020034477  0.019231568          182 
 3534000   0.70298379   -7.2089289    849.04963  0.020020978  0.019225211          187 
 3535000   0.70219518   -7.2391136    847.39364  0.019976276   0.01921882          216 
 3536000   0.69100202   -7.2417133    849.35211  0.020016782  0.019212428          212 
 3537000   0.69655034   -7.1986375    848.31686  0.019986732  0.019206039          241 
 3538000   0.69026692   -7.2183542    847.99187  0.019973428  0.019199657          231 
 3539000   0.68908351   -7.2184773    845.75889  0.019915204  0.019193282          235 
 3540000   0.70770877   -7.2207818    848.13351  0.019965478  0.019186899          246 
 3541000   0.68453115   -7.2468027    847.39016  0.019942346  0.019180528          254 
 3542000   0.68252756   -7.2643682    846.41977  0.019913885  0.019174127          253 
 3543000   0.68973657   -7.2097367     848.2321  0.019950891  0.019167742          326 
 3544000   0.67552635   -7.2379088    847.39405  0.019925556  0.019161344          258 
 3545000   0.67035674   -7.2529699    848.46587  0.019945131  0.019154948          300 
 3546000   0.67257706   -7.2233528    847.47437  0.019916205  0.019148556          361 
 3547000   0.68178721    -7.222206    847.31351  0.019906811  0.019142178          362 
 3548000   0.68097003   -7.2452843    847.40128  0.019903262  0.019135786          331 
 3549000   0.67789161   -7.2517054    847.14813   0.01989171   0.01912937          330 
 3550000   0.68103981   -7.2602415      847.652  0.019897934  0.019122968          335 
 3551000   0.68500954   -7.2471557     847.3624  0.019885535  0.019116565          306 
 3552000   0.69347686   -7.2756422    846.27548  0.019854436  0.019110135          364 
 3553000   0.68986333   -7.2400569    847.25428  0.019871805  0.019103743          282 
 3554000   0.69220544   -7.2628825    846.59453  0.019850744  0.019097346          316 
 3555000   0.68622665   -7.2399769    846.77323  0.019849349  0.019090949          253 
 3556000   0.67296949   -7.2736904    846.53678  0.019838226  0.019084561          352 
 3557000   0.68027091    -7.270517    845.98994  0.019819837  0.019078173          304 
 3558000   0.69062547   -7.2635022    848.51294  0.019873359  0.019071784          358 
 3559000   0.68004295   -7.2417666    848.39393  0.019864989  0.019065414          306 
 3560000   0.68287319   -7.2764892    847.22167  0.019831968   0.01905904          399 
 3561000   0.68023207   -7.2210925    848.32749  0.019852277  0.019052665          331 
 3562000   0.68799151   -7.2649771    848.33167  0.019846801  0.019046277          302 
 3563000   0.69669507   -7.2405247    845.67708  0.019779144  0.019039906          378 
 3564000   0.68344064   -7.2571131    846.65402  0.019796437  0.019033522          307 
 3565000    0.6813325   -7.2549713    847.07048  0.019800619  0.019027143          317 
 3566000    0.6840743   -7.2138168    848.38673  0.019825826  0.019020793          297 
 3567000   0.67656468   -7.2528686    847.75853  0.019805591   0.01901446          269 
 3568000   0.66864082   -7.2555464    848.34349  0.019813703  0.019008113          350 
 3569000   0.67832464   -7.2802668    848.08666  0.019802154  0.019001752          337 
 3570000   0.67933524   -7.2675583    846.62972  0.019762598  0.018995376          348 
 3571000   0.69263127   -7.2329413     849.9465  0.019834465  0.018989014          338 
 3572000   0.69109991   -7.2470183    847.04667  0.019761261  0.018982641          431 
 3573000   0.67109342   -7.2667269    847.69547  0.019770862  0.018976283          306 
 3574000   0.68253995   -7.2420754    848.96331  0.019794892  0.018969925          338 
 3575000   0.66249589   -7.2811779    849.21842  0.019795301   0.01896358          308 
 3576000   0.67196114   -7.2408051    848.94613   0.01978342  0.018957244          375 
 3577000    0.6854841   -7.2485025    847.22555  0.019737805   0.01895089          319 
 3578000   0.66807543   -7.2460277    847.62055  0.019741488  0.018944554          334 
 3579000   0.66539528   -7.2898821    845.63868  0.019689827   0.01893822          448 
 3580000   0.67297003   -7.2545083    850.73848  0.019803037  0.018931886          414 
 3581000   0.68757172   -7.2477933    848.53773  0.019746294   0.01892554          373 
 3582000   0.68725845   -7.2845638    846.82939  0.019701037  0.018919192          363 
 3583000    0.6756747    -7.278292     846.6897   0.01969229  0.018912853          341 
 3584000   0.67444866    -7.272071    845.74787  0.019664897  0.018906505          302 
 3585000   0.67939854   -7.2649252    848.11829  0.019714512  0.018900163          422 
 3586000   0.69743342   -7.2529342    846.90457  0.019680809  0.018893813          511 
 3587000   0.67825895   -7.2765833    846.15111  0.019657818  0.018887471          466 
 3588000   0.68717248   -7.2743659     847.9372  0.019693822   0.01888115          547 
 3589000   0.67789532   -7.2687659    846.87347  0.019663636  0.018874813          453 
 3590000   0.67595187   -7.2750861    848.49863  0.019695883  0.018868483          446 
 3591000   0.67871492   -7.2915636    844.06781  0.019587576  0.018862145          469 
 3592000   0.69385457   -7.2928239    846.56809  0.019640128  0.018855838          462 
 3593000   0.68821284   -7.2647299    849.16451  0.019694881  0.018849542          434 
 3594000   0.69249759   -7.2682768    849.58858  0.019699234  0.018843238          489 
 3595000   0.67832399   -7.2914391    846.94463  0.019632467  0.018836929          510 
 3596000   0.66479331   -7.2682714    846.04421  0.019606141   0.01883063          512 
 3597000   0.67998769   -7.3011593    847.55299  0.019635645  0.018824336          541 
 3598000    0.6675973   -7.2344267    847.36013  0.019625721  0.018818041          572 
 3599000   0.67626989   -7.2811863     846.6306  0.019603376  0.018811749          550 
 3600000   0.66808907   -7.2817917    848.07255  0.019631309  0.018805458          584 
 3601000   0.68530265   -7.2962616    848.16484  0.019627993  0.018799155          517 
 3602000   0.67818737   -7.2900052    847.57691  0.019608942   0.01879285          523 
 3603000   0.67590506    -7.273925    848.52812    0.0196255  0.018786547          539 
 3604000   0.67385773   -7.2657957    846.78528  0.019579756   0.01878026          485 
 3605000   0.67603721    -7.274893    847.79447  0.019597653  0.018773968          507 
 3606000   0.68191238   -7.2655149    847.96805   0.01959623  0.018767689          485 
 3607000   0.67463304   -7.2647132    848.26738  0.019597712  0.018761411          485 
 3608000    0.6706084   -7.2566246    849.84789  0.019628785  0.018755144          493 
 3609000   0.68928718   -7.2896252    846.62093  0.019548835  0.018748844          470 
 3610000   0.67814186   -7.2976618    846.60649  0.019543086  0.018742558          590 
 3611000   0.67348549   -7.3142291    846.32558  0.019531191  0.018736277          542 
 3612000   0.67447976   -7.2724316    847.34253  0.019549246  0.018729989          520 
 3613000   0.68035619   -7.3100065    847.29398  0.019542716  0.018723699          521 
 3614000   0.68038254   -7.2992127      847.835  0.019549783  0.018717399          588 
 3615000    0.6798006   -7.2922902    847.39149  0.019534151  0.018711081          582 
 3616000   0.67731563   -7.2952223    848.36512  0.019551187  0.018704784          589 
 3617000   0.67335853   -7.3057144    845.82486  0.019487256  0.018698482          580 
 3618000   0.68391245   -7.3173991    845.74164  0.019479953  0.018692178          594 
 3619000   0.68029383   -7.2979331    847.26064  0.019509548  0.018685877          622 
 3620000   0.66635614   -7.2847387    846.72353  0.019491794  0.018679582          696 
 3621000   0.67139625   -7.3091734    845.75434  0.019464106    0.0186733          681 
 3622000   0.66060412   -7.3109034    845.64741  0.019456272  0.018666989          615 
 3623000   0.66841481   -7.3006753    846.52066  0.019470988  0.018660688          699 
 3624000   0.68594582    -7.300814    846.37245  0.019462207  0.018654393          706 
 3625000   0.67729653   -7.3107719    847.56064  0.019484153  0.018648097          652 
 3626000    0.6669284   -7.2947596    845.76453  0.019437501   0.01864179          660 
 3627000   0.68547096   -7.2960389    846.93515  0.019459037  0.018635477          655 
 3628000   0.67027558   -7.3101046    844.82652   0.01940524  0.018629155          712 
 3629000   0.68701511   -7.2928642    847.72256  0.019466395  0.018622822          604 
 3630000   0.66195023   -7.2997889    848.00773  0.019467579  0.018616525          680 
 3631000   0.68081216   -7.3075992    846.20027  0.019420735  0.018610221          675 
 3632000   0.67675617   -7.3055736    847.67792  0.019449292  0.018603929          606 
 3633000   0.68697168   -7.3063422    844.91036  0.019380456  0.018597645          633 
 3634000   0.66025917   -7.3085124     847.4428  0.019433196  0.018591361          691 
 3635000   0.68105031   -7.2935734    846.11254  0.019397353   0.01858509          644 
 3636000   0.68131242   -7.2909964    847.89515  0.019432874   0.01857882          698 
 3637000     0.668662   -7.2795935    846.30259  0.019391041  0.018572545          766 
 3638000   0.65899286     -7.30703    846.35791  0.019386978  0.018566273          742 
 3639000   0.66270404   -7.3072269    844.38498   0.01933647  0.018560003          708 
 3640000   0.68118934   -7.3122449     845.4748  0.019356108  0.018553708          788 
 3641000   0.67570506   -7.3140319    845.20772  0.019344679  0.018547404          753 
 3642000     0.663869   -7.3328674    845.95365  0.019356435   0.01854108          698 
 3643000   0.66176685   -7.3309505    843.25063  0.019289291  0.018534767          846 
 3644000   0.68495988    -7.319493    846.56213  0.019359727  0.018528478          700 
 3645000   0.68359741   -7.3292589    846.80601  0.019359991  0.018522187          775 
 3646000   0.67717921   -7.3152571    845.57389   0.01932652  0.018515914          813 
 3647000   0.66757117   -7.3238976    845.70147  0.019324136  0.018509621          738 
 3648000   0.65889225   -7.3268953    845.17095  0.019306719  0.018503324          788 
 3649000   0.66967141   -7.3304315     845.7516  0.019314689  0.018497011          762 
 3650000   0.66362405   -7.3333714     844.7877   0.01928739  0.018490709          705 
 3651000    0.6730742    -7.327656    844.14208  0.019267372  0.018484395          751 
 3652000   0.66577849   -7.3567508    843.46554  0.019246658  0.018478091          808 
 3653000    0.6642365   -7.3316296    844.65636  0.019268555  0.018471771          802 
 3654000   0.66436709   -7.3502924    845.76039   0.01928846   0.01846547          896 
 3655000     0.680352   -7.3439449    844.61654  0.019257103  0.018459157          930 
 3656000   0.67569325   -7.3192191    844.82216  0.019256522  0.018452864          826 
 3657000   0.67988497    -7.334283    843.64617  0.019224459  0.018446571          849 
 3658000   0.66207967   -7.3256167    845.43306  0.019259911  0.018440284          892 
 3659000   0.66572145   -7.3309365    844.42303  0.019231644  0.018433988          899 
 3660000   0.67120037   -7.3459382    844.54409  0.019229146  0.018427704          953 
 3661000   0.66368271   -7.3565245    843.88664  0.019208928  0.018421412         1002 
 3662000   0.65940033   -7.3361851    845.06258  0.019230443  0.018415111          953 
 3663000   0.66457118   -7.3350343    844.94009  0.019222406  0.018408823          976 
 3664000   0.66035472   -7.3390023    844.72854  0.019212348  0.018402541          961 
 3665000   0.66839895   -7.3396365    845.38853  0.019222113  0.018396262          915 
 3666000   0.67180317   -7.3483116    843.73139    0.0191792  0.018389969          981 
 3667000    0.6729869   -7.3442892    843.73101  0.019173962  0.018383678         1050 
 3668000    0.6720134   -7.3418839    844.81781  0.019193425  0.018377381         1017 
 3669000    0.6568761   -7.3267367     846.9878  0.019237481  0.018371112          828 
 3670000   0.67126378   -7.3487618    846.80652  0.019228123  0.018364845          911 
 3671000    0.6661126   -7.3487356    844.76937  0.019176641  0.018358566         1102 
 3672000   0.65680704   -7.3344713    844.47443  0.019164725  0.018352297          934 
 3673000   0.66711804   -7.3437915    844.11139   0.01915127  0.018346034         1048 
 3674000   0.65064293   -7.3549459    843.16648  0.019124625  0.018339766         1027 
 3675000   0.67736981   -7.3672041    845.00695  0.019161155  0.018333485         1020 
 3676000   0.65867241    -7.351844    845.23106  0.019161023  0.018327235         1038 
 3677000   0.65735462   -7.3562844    844.10199  0.019130224  0.018320949         1051 
 3678000   0.67076603   -7.3698778     842.9048  0.019097897  0.018314663         1094 
 3679000   0.66602024   -7.3568807    844.96927  0.019139469  0.018308367          982 
 3680000   0.65100037    -7.350134    844.25643  0.019118126  0.018302097         1000 
 3681000   0.67519797   -7.3628249     843.9829  0.019106739  0.018295838         1026 
 3682000   0.65735714   -7.3299851    845.42601  0.019134212  0.018289575         1079 
 3683000   0.65877481   -7.3322351     845.1724  0.019123278  0.018283326         1118 
 3684000   0.66058681   -7.3419406    844.60311   0.01910521  0.018277068         1132 
 3685000   0.66547067     -7.36209    842.63265  0.019055465  0.018270818         1168 
 3686000   0.66636462   -7.3562728     843.5217  0.019070395  0.018264561         1151 
 3687000   0.65728198   -7.3286477    843.96034  0.019075137  0.018258312         1187 
 3688000   0.65580306   -7.3430508    844.12225  0.019073623  0.018252056         1052 
 3689000   0.66900228   -7.3345394    844.68506  0.019081166    0.0182458         1232 
 3690000   0.66223524   -7.3762919     842.3673  0.019023652  0.018239529         1286 
 3691000   0.66442789   -7.3694108    844.85134  0.019074581  0.018233261         1252 
 3692000   0.66032645    -7.379444    843.13646  0.019030707  0.018226991         1231 
 3693000   0.65937431   -7.3828188    844.91501  0.019065688  0.018220717         1036 
 3694000   0.64909555   -7.3569243    843.90484  0.019037738   0.01821446         1119 
 3695000   0.66278117   -7.3350932    843.38615  0.019020887  0.018208209         1204 
 3696000   0.66828526   -7.3752565    844.80063  0.019047633  0.018201957         1167 
 3697000   0.64696923   -7.3707908    843.89141  0.019021987  0.018195719         1215 
 3698000   0.65659516   -7.3663082     843.0726  0.018998391  0.018189468         1190 
 3699000   0.65742018   -7.3686715    842.89774  0.018989316  0.018183211         1216 
 3700000   0.64675268   -7.3665525    842.07193  0.018965584  0.018176969         1247 
 3701000   0.65062688   -7.3736478    843.58131  0.018994445  0.018170718         1265 
 3702000   0.67199836   -7.3789688    842.45323  0.018963921  0.018164455         1201 
 3703000   0.65051587   -7.3637798     844.6627  0.019008522  0.018158192         1305 
 3704000   0.65238287   -7.3903248     842.7969  0.018961413  0.018151912         1355 
 3705000   0.66524082   -7.3763374    842.99488  0.018960749  0.018145653         1289 
 3706000   0.66852619   -7.4061595    841.40668   0.01891992  0.018139384         1335 
 3707000   0.66244623   -7.3840624    843.98918  0.018972871  0.018133115         1347 
 3708000   0.64772125   -7.3973224    841.34844  0.018908406  0.018126846         1437 
 3709000   0.63496143   -7.3974638    842.35909  0.018926015  0.018120579         1410 
 3710000   0.64485837   -7.3778964    841.64515  0.018904878  0.018114298         1398 
 3711000   0.65633338   -7.3845873    842.29282  0.018914327  0.018108021         1387 
 3712000   0.66657302      -7.4171    842.03307    0.0189034  0.018101733         1476 
 3713000   0.64900861   -7.4057553    841.97027    0.0188969   0.01809544         1449 
 3714000   0.66243345   -7.3919956    841.41163  0.018879277  0.018089153         1595 
 3715000    0.6614922   -7.4064649    841.87642  0.018884621  0.018082874         1500 
 3716000   0.66702271    -7.389904    842.58993   0.01889554  0.018076593         1537 
 3717000   0.65772563   -7.3949006    841.41972  0.018864221  0.018070321         1502 
 3718000   0.64571543   -7.3874089    843.26698  0.018900551  0.018064071         1509 
 3719000   0.64372156    -7.389183    841.78386  0.018862236   0.01805779         1576 
 3720000   0.67363717    -7.412642     842.5478  0.018874279  0.018051511         1555 
 3721000   0.64627498   -7.4003698    842.49343  0.018867989  0.018045237         1482 
 3722000   0.65275945   -7.4078617    842.14313  0.018855076  0.018038968         1657 
 3723000   0.66278838   -7.3955181    842.34295  0.018854485  0.018032697         1529 
 3724000   0.63915557   -7.3923349    842.42671  0.018851296  0.018026438         1610 
 3725000   0.65775008   -7.3984063    841.26244  0.018820189  0.018020172         1560 
 3726000   0.66249427   -7.4040595     840.0599  0.018788242  0.018013899         1692 
 3727000    0.6547981   -7.4316454     839.6347  0.018773694  0.018007631         1696 
 3728000   0.65654728   -7.3905306    841.72429  0.018815368  0.018001367         1623 
 3729000   0.64807593   -7.4096069    840.80146  0.018789699  0.017995099         1774 
 3730000   0.64882483   -7.4245905    842.08857  0.018813418  0.017988835         1816 
 3731000   0.65223673   -7.4089251    841.18441   0.01878818  0.017982569         1808 
 3732000   0.64482658   -7.4149028    839.99483  0.018756583  0.017976309         1718 
 3733000   0.64570842   -7.4239415    838.49732  0.018718129  0.017970051         1827 
 3734000   0.64846985   -7.4216505    841.74487  0.018785593  0.017963771         1918 
 3735000   0.66755997   -7.4228784    839.98308  0.018741256  0.017957486         1903 
 3736000   0.64776183   -7.4408425    841.33256   0.01876634  0.017951209         1951 
 3737000   0.64997172   -7.4303758    840.50037  0.018742761  0.017944916         1976 
 3738000   0.64620477   -7.4518998    840.58405  0.018739612  0.017938618         1947 
 3739000   0.64747442    -7.453817    839.20384  0.018703839  0.017932322         1861 
 3740000   0.66177627    -7.435138    840.74296  0.018733132  0.017926035         1960 
 3741000   0.65584976   -7.4422571    839.37595  0.018697673  0.017919734         1938 
 3742000   0.64464783   -7.4452434    838.84797  0.018680919  0.017913446         1912 
 3743000   0.65284161   -7.4505692    839.18986  0.018683539  0.017907149         1881 
 3744000   0.66205071   -7.4573031    838.87033  0.018671437  0.017900866         1942 
 3745000   0.66100998   -7.4470315    839.28908  0.018675769  0.017894587         1896 
 3746000   0.64297129   -7.4382878    841.45068  0.018718871  0.017888296         1813 
 3747000   0.65088934   -7.4358339    842.43077  0.018735672   0.01788202         1793 
 3748000   0.63439352   -7.4519581     839.3794  0.018662829  0.017875734         1902 
 3749000   0.67495994   -7.4323615    840.82672  0.018690022  0.017869462         1918 
 3750000   0.66095616   -7.4498034    840.11727  0.018669273  0.017863191         1870 
 3751000   0.64526862   -7.4483778    839.63608  0.018653605  0.017856918         1906 
 3752000   0.64217199   -7.4353224    840.43658  0.018666413  0.017850655         1942 
 3753000   0.65329916   -7.4813469    838.40223  0.018616268  0.017844377         2107 
 3754000   0.65573053   -7.4311718    839.48819  0.018635415  0.017838104         2094 
 3755000   0.64650857   -7.4528645    840.62196  0.018655614  0.017831822         2077 
 3756000   0.65638956   -7.4864959    838.24425  0.018597893  0.017825539         2103 
 3757000   0.66422163   -7.4648884    837.49501  0.018576324  0.017819268         1989 
 3758000   0.63874257   -7.4778061    838.44891  0.018592534  0.017813009         2057 
 3759000   0.63466826   -7.4416734    838.47125  0.018588083  0.017806749         1972 
 3760000   0.63206532   -7.4739123    840.86647  0.018636225   0.01780049         2001 
 3761000   0.64739086    -7.478054    837.91229  0.018565813  0.017794227         2065 
 3762000   0.65799218   -7.4461531    839.58903   0.01859802  0.017787969         2074 
 3763000   0.64743903   -7.4697631    839.65536  0.018594547  0.017781722         2034 
 3764000     0.643633   -7.4769465    837.31023  0.018537687  0.017775469         1987 
 3765000   0.64619312   -7.4480732     840.0069   0.01859245  0.017769217         2116 
 3766000   0.63259337   -7.4716385    838.47132  0.018553534  0.017762948         2110 
 3767000   0.65137118   -7.4845134    838.04172  0.018539105  0.017756699         2161 
 3768000   0.64910461   -7.4890029    836.91263  0.018509214  0.017750429         2275 
 3769000   0.65849493   -7.4711423     840.3985  0.018581376  0.017744156         2219 
 3770000   0.65483096   -7.4867202    839.98935  0.018567404  0.017737894         2217 
 3771000   0.63996071   -7.4914733    838.72647  0.018534572  0.017731618         2173 
 3772000   0.64831833   -7.4826695    838.19223  0.018517856  0.017725358         2225 
 3773000   0.64858821   -7.4710066    839.66052  0.018545378  0.017719096         2166 
 3774000   0.63843228   -7.4775336    838.18981  0.018507989  0.017712845         2280 
 3775000   0.65194136   -7.4734631    838.16219  0.018502477  0.017706593         2242 
 3776000   0.64655211   -7.4818254    837.20105  0.018476365  0.017700343         2302 
 3777000    0.6503589    -7.474038    837.59056  0.018480067  0.017694104         2277 
 3778000   0.65203153   -7.4864417    837.87975  0.018481554  0.017687858         2251 
 3779000    0.6394729   -7.4817741    839.19943  0.018505765  0.017681607         2122 
 3780000    0.6744603   -7.4667836    837.72422  0.018468347  0.017675369         2260 
 3781000   0.63819897   -7.4770627    839.40351  0.018500474  0.017669135         2329 
 3782000   0.63497516   -7.4609573    837.54951  0.018454731  0.017662896         2283 
 3783000   0.63336329   -7.4827845    839.28468  0.018488076  0.017656649         2310 
 3784000    0.6505796   -7.4865018    839.78155  0.018494132  0.017650405         2374 
 3785000   0.64439623     -7.48522    837.04674  0.018429034  0.017644171         2355 
 3786000    0.6423641   -7.5049694    836.91212  0.018421204  0.017637946         2321 
 3787000   0.65325604   -7.4749192    838.19947  0.018444667  0.017631722         2246 
 3788000   0.64538008   -7.4687843    837.76144  0.018430162  0.017625484         2343 
 3789000   0.64742509    -7.478037    838.59693  0.018443673   0.01761926         2302 
 3790000   0.65236847   -7.5087459    837.21613  0.018408446  0.017613043         2418 
 3791000   0.66957453   -7.5007722     837.9873  0.018420542   0.01760681         2459 
 3792000   0.64813792   -7.5029208    838.33615  0.018423351  0.017600594         2330 
 3793000   0.64606346   -7.4993568    836.81779  0.018385135  0.017594362         2459 
 3794000   0.63896824   -7.4904784    837.98488  0.018405923  0.017588135         2491 
 3795000   0.63117878   -7.4897539    838.49222  0.018412214  0.017581915         2432 
 3796000    0.6470461   -7.5178122    838.63954  0.018410598  0.017575691         2504 
 3797000   0.65024284   -7.4988998    838.89417  0.018411337  0.017569459         2538 
 3798000   0.65441226   -7.5109662    837.92941  0.018385321  0.017563225         2540 
 3799000   0.65253181   -7.5046398    837.00845   0.01836028  0.017556993         2457 
 3800000   0.65017845   -7.5182856    836.76785  0.018350172  0.017550768         2537 
 3801000   0.65534514   -7.4954827    837.30833  0.018357194  0.017544542         2618 
 3802000   0.63559458    -7.498093    837.69356  0.018360809  0.017538318         2670 
 3803000   0.63278142   -7.5173985    836.71563  0.018334552  0.017532082         2537 
 3804000   0.64288521   -7.5086918    837.48186  0.018346518  0.017525844         2635 
 3805000    0.6484247   -7.5063282    837.44414   0.01834087   0.01751961         2575 
 3806000   0.64633555   -7.5302267    836.57073  0.018316928  0.017513391         2697 
 3807000   0.64030108   -7.5143378     835.6793  0.018292604  0.017507161         2669 
 3808000   0.63313157   -7.5149614    836.00984  0.018295033   0.01750093         2643 
 3809000   0.63383411   -7.5084345    835.72407  0.018283978   0.01749471         2635 
 3810000   0.64654066   -7.5067444    836.83646   0.01830351  0.017488478         2643 
 3811000   0.62171198    -7.537028    837.67825  0.018317114   0.01748225         2686 
 3812000   0.63331023   -7.4971737    837.41092  0.018306465  0.017476022         2590 
 3813000   0.65030532   -7.5166863    836.93196  0.018291196   0.01746981         2772 
 3814000   0.64828815   -7.5352597    836.98307  0.018287517   0.01746359         2789 
 3815000   0.65915984   -7.5261666     836.0611  0.018262584  0.017457376         2802 
 3816000   0.64203187   -7.5456162    836.41741  0.018265579  0.017451155         2722 
 3817000    0.6374131   -7.5479648    837.49149  0.018284244  0.017444945         2676 
 3818000   0.64302249   -7.5169327    836.26308  0.018252643  0.017438723         2778 
 3819000   0.65953028   -7.5544413    833.84838  0.018195173    0.0174325         2845 
 3820000   0.64353334   -7.5325686    836.65448  0.018251625  0.017426269         2874 
 3821000   0.63600726   -7.5238889    835.63894    0.0182247  0.017420036         2827 
 3822000   0.63971326   -7.5367319    833.71573  0.018177999  0.017413805         2870 
 3823000   0.63621207   -7.5435779    836.99853  0.018244802  0.017407589         2815 
 3824000   0.63660439   -7.5186963     836.0452  0.018219256   0.01740137         2815 
 3825000    0.6385333    -7.526285    837.35481  0.018243024  0.017395158         2831 
 3826000   0.64428473   -7.5303106    833.91164  0.018163261  0.017388948         2868 
 3827000   0.63481245   -7.5585965    835.24235  0.018187491  0.017382729         2895 
 3828000   0.62466801   -7.5397804    835.45878  0.018187452  0.017376505         2938 
 3829000   0.64872873   -7.5329255    834.55738  0.018163084  0.017370298         2915 
 3830000   0.63967426   -7.5547498    834.54582   0.01815809  0.017364086         2870 
 3831000   0.63612103   -7.5397503    835.68186  0.018178062   0.01735787         2966 
 3832000   0.64918521   -7.5619398    834.73651   0.01815276  0.017351655         2995 
 3833000   0.65091971   -7.5613789    833.80527  0.018127778  0.017345441         2978 
 3834000   0.65284745   -7.5425096    835.40976  0.018157924  0.017339234         2938 
 3835000   0.64186798    -7.555567    834.91872  0.018142519  0.017333025         2895 
 3836000   0.63016171   -7.5748767    833.97472  0.018117282  0.017326817         2902 
 3837000   0.64479653     -7.56233    835.27232  0.018140742  0.017320614         2890 
 3838000   0.62555108   -7.5580087    835.77191  0.018146863  0.017314412         2982 
 3839000   0.64046724    -7.526498    835.71524  0.018140906  0.017308213         2865 
 3840000   0.64096582   -7.5655443    835.40761  0.018129505   0.01730202         3007 
 3841000   0.64276755   -7.5779523     836.4205  0.018146761  0.017295814         2913 
 3842000   0.64692763   -7.5694498    834.55599  0.018101596  0.017289627         2947 
 3843000   0.64168444   -7.5322797    837.60302  0.018162959  0.017283443         2865 
 3844000   0.62832607    -7.550425     834.8909  0.018099439  0.017277259         2857 
 3845000   0.62676889    -7.550452    834.91882  0.018095336  0.017271079         2828 
 3846000   0.64243652   -7.5097621    835.09524  0.018094454  0.017264902         2889 
 3847000   0.63329484   -7.5535381    835.51318  0.018098804  0.017258723         3019 
 3848000   0.64623155   -7.5433695    836.70004  0.018119803  0.017252545         2960 
 3849000   0.64287344   -7.5574559    834.26116  0.018062292  0.017246367         2979 
 3850000   0.64300393   -7.5447948     834.5879  0.018064673  0.017240179         2953 
 3851000   0.62275918   -7.5570496    834.77805  0.018064097  0.017233999         2977 
 3852000   0.64398279   -7.5456498    835.30114  0.018070724  0.017227813         2970 
 3853000   0.61916426   -7.5526736    835.82255  0.018077311  0.017221637         2936 
 3854000   0.63907097   -7.5360757    833.51506  0.018022727  0.017215467         2920 
 3855000   0.63128061    -7.546756    834.56167  0.018040676  0.017209291         2975 
 3856000   0.63914322   -7.5548064    833.20027  0.018006576  0.017203118         2939 
 3857000   0.62298047   -7.5523396    833.67853   0.01801224  0.017196951         2867 
 3858000   0.63257397   -7.5689809    833.04161  0.017993814  0.017190775         3003 
 3859000   0.64207926   -7.5633365    836.53211  0.018064527  0.017184606         3016 
 3860000   0.64487372    -7.565628    836.67576  0.018062948  0.017178435         3050 
 3861000    0.6263764   -7.5556041    835.01014   0.01802232  0.017172277         2983 
 3862000   0.64025456   -7.5535535     835.3533  0.018025058  0.017166118         2931 
 3863000   0.61854349   -7.5518112    835.40799  0.018021572  0.017159956         3026 
 3864000   0.64451186   -7.5558779    833.82048  0.017982671  0.017153789         3056 
 3865000    0.6208265   -7.5644345    834.59413  0.017994699  0.017147627         3117 
 3866000   0.63189409   -7.5546864      835.915  0.018018516  0.017141462         3051 
 3867000   0.63947441    -7.562993    835.99264   0.01801553  0.017135307         3041 
 3868000   0.62875606   -7.5573727    833.49331  0.017957026   0.01712915         3082 
 3869000   0.62619478   -7.5504259    834.48472  0.017973738  0.017122991         3090 
 3870000   0.64764754   -7.5531065    834.32896   0.01796574  0.017116843         3027 
 3871000   0.63957495   -7.5816087    833.69301  0.017947408  0.017110695         3037 
 3872000    0.6218937   -7.5809111    835.18684  0.017974923  0.017104539         3018 
 3873000   0.63333487   -7.5489983    835.28854  0.017972471  0.017098399         3043 
 3874000   0.64220266   -7.5681333    834.21584  0.017944756  0.017092255         3099 
 3875000     0.635459   -7.5711336    834.89868   0.01795481  0.017086116         3103 
 3876000   0.63450149   -7.5769281    833.27095  0.017915182  0.017079974         3042 
 3877000   0.64104297   -7.5710714    833.17584  0.017908517  0.017073842         3083 
 3878000   0.62544941   -7.5689486    833.33356  0.017907288  0.017067713         3085 
 3879000   0.63576766   -7.5866052    835.12807  0.017941223  0.017061594         3022 
 3880000   0.63624442   -7.5757167    833.32747  0.017897927  0.017055462         3137 
 3881000   0.62768912    -7.553765    833.56575  0.017898431  0.017049343         3025 
 3882000   0.61713806   -7.5418203    834.52041  0.017914314  0.017043223         2983 
 3883000    0.6359631   -7.5896308    832.98488  0.017876746    0.0170371         3117 
 3884000   0.63333213   -7.5843196    834.50692    0.0179048  0.017030965         3090 
 3885000   0.62900194   -7.5802697    832.93357  0.017866443   0.01702485         3136 
 3886000   0.63111937   -7.5604076    834.30069  0.017891163  0.017018733         3063 
 3887000   0.63459245   -7.5911144    831.54802  0.017827545  0.017012618         3174 
 3888000   0.61599274   -7.5768348    833.62656   0.01786751  0.017006498         3163 
 3889000   0.64731266   -7.5755783    833.93015  0.017869421  0.017000381         3076 
 3890000   0.62855688   -7.5540604    833.28893  0.017851091  0.016994278         3133 
 3891000   0.63210967   -7.5580864    834.59547  0.017874485   0.01698817         3170 
 3892000   0.61300469   -7.5685512    834.34402  0.017864509  0.016982068         3116 
 3893000   0.62853045    -7.598495    833.66655  0.017845418  0.016975962         3124 
 3894000   0.62645014   -7.5782759    835.05407  0.017870529   0.01696986         3178 
 3895000   0.62162975   -7.5975479    833.97589  0.017842873  0.016963764         3228 
 3896000   0.62484977   -7.5755159    833.45558  0.017827164  0.016957665         3215 
 3897000   0.63353569   -7.5859795     833.2494  0.017818181  0.016951563         3234 
 3898000   0.63195634   -7.5840109    833.35174  0.017815797  0.016945463         3149 
 3899000   0.61823039   -7.5701262    833.23065   0.01780864  0.016939366         3196 
 3900000    0.6234832   -7.5876972    834.73747  0.017836271  0.016933263         3203 
 3901000   0.62700504   -7.5817498    832.66532  0.017787433  0.016927166         3168 
 3902000   0.62956261   -7.5865149    832.69698  0.017783551  0.016921072         3137 
 3903000   0.62714333   -7.5925321    834.08069  0.017808538  0.016914994         3145 
 3904000   0.64546861    -7.579345    833.18695  0.017784899  0.016908911         3224 
 3905000    0.6178689   -7.5857603    833.42142  0.017785348  0.016902822         3162 
 3906000   0.62611511   -7.5923716    833.22762   0.01777666  0.016896735         3118 
 3907000   0.64166525   -7.5801864    833.48304  0.017777558  0.016890651         3169 
 3908000   0.62826022   -7.5908256    833.39981  0.017771234  0.016884571         3176 
 3909000    0.6234085   -7.5628751    834.08009  0.017781191  0.016878492         3202 
 3910000   0.64381279   -7.5888561    832.50605  0.017743096  0.016872412         3228 
 3911000   0.62939147   -7.5760792    833.60073  0.017761884  0.016866334         3186 
 3912000   0.64102894   -7.5927239     834.3373  0.017773034  0.016860254         3216 
 3913000   0.63533794   -7.5997889    833.53764  0.017751462  0.016854183         3162 
 3914000   0.61826645   -7.5678889    834.64365  0.017770475  0.016848111         3171 
 3915000    0.6160919   -7.6028572    833.74559   0.01774682   0.01684205         3229 
 3916000   0.61963795   -7.5756023    832.53903  0.017716612  0.016835973         3234 
 3917000   0.62722759   -7.5623166    834.48677  0.017753527  0.016829913         3156 
 3918000    0.6165701   -7.5942703     832.7174  0.017711362  0.016823849         3143 
 3919000   0.61220193   -7.5783845    833.64144  0.017726491  0.016817788         3233 
 3920000   0.60705773   -7.5926673    833.32188  0.017715176  0.016811726         3258 
 3921000   0.62854159   -7.6007284    834.37075   0.01773295  0.016805662         3254 
 3922000   0.63194453    -7.602714     834.3305  0.017727573  0.016799614         3188 
 3923000   0.63320538    -7.593696    833.17962  0.017698607  0.016793556         3306 
 3924000   0.61438522   -7.5886677    833.32362  0.017697155    0.0167875         3295 
 3925000     0.637431   -7.6049077    832.94779  0.017684666  0.016781447         3142 
 3926000   0.61790574    -7.585675    832.39102  0.017668344  0.016775399         3258 
 3927000   0.63260198   -7.6030696    832.76916  0.017671869  0.016769345         3128 
 3928000    0.6230156   -7.5784752    832.12573   0.01765372    0.0167633         3215 
 3929000   0.62500524   -7.5817163     833.3998  0.017676249  0.016757264         3203 
 3930000   0.62520778   -7.5969905    833.86721  0.017681663  0.016751221         3352 
 3931000   0.63519451   -7.5934322    831.38499  0.017624544  0.016745182         3300 
 3932000   0.62261152   -7.6205661    832.87098  0.017651555   0.01673915         3338 
 3933000   0.61359727   -7.6153627    832.14749  0.017631738  0.016733111         3302 
 3934000   0.62311567   -7.5841591    833.34963  0.017652721  0.016727079         3307 
 3935000   0.61417379   -7.6142874    832.50094  0.017630261  0.016721051         3223 
 3936000   0.62684955   -7.6033106     832.5354  0.017626512  0.016715022         3291 
 3937000   0.63943486     -7.59657    832.74946  0.017626566  0.016709001         3251 
 3938000   0.62528572   -7.5819093     833.3753  0.017635333  0.016702972         3205 
 3939000   0.62138336   -7.6068594    832.20682  0.017606136  0.016696952         3291 
 3940000   0.62565029   -7.6006466    831.99946  0.017597281  0.016690934         3192 
 3941000   0.60386357   -7.6003941    832.16896    0.0175964  0.016684921         3197 
 3942000   0.63721195   -7.5772811    832.00604  0.017588492  0.016678907         3098 
 3943000   0.62642269   -7.6107944    833.16702  0.017608568  0.016672898         3259 
 3944000   0.61921452   -7.6037469    832.11303  0.017581834  0.016666885         3271 
 3945000   0.62210354   -7.6189804    832.37925  0.017583001  0.016660886         3146 
 3946000    0.6194126   -7.6020897    831.50683  0.017560121  0.016654889         3096 
 3947000   0.60845572   -7.5964535    832.01031  0.017566302  0.016648901         3174 
 3948000   0.62769268   -7.5799123    833.18453  0.017586637  0.016642907         3214 
 3949000   0.63218656   -7.5809244    834.14752  0.017602505  0.016636911         3230 
 3950000   0.63707101   -7.6299736    831.21265  0.017536132  0.016630917         3229 
 3951000   0.61804702   -7.5961172    834.06487  0.017591852  0.016624918         3191 
 3952000   0.62236235   -7.6112992    831.81712  0.017540003  0.016618926         3224 
 3953000   0.61979924   -7.6159595    833.41488  0.017569249  0.016612942         3289 
 3954000   0.62028761   -7.6016948    831.77886  0.017530325  0.016606948         3256 
 3955000   0.62819617    -7.594156     832.9346  0.017550244  0.016600962         3245 
 3956000   0.61036616   -7.6144284    832.75499  0.017542024  0.016594975         3273 
 3957000   0.62168633   -7.6332238    830.76763  0.017495738  0.016588992         3318 
 3958000   0.63239746   -7.6106593    831.55169  0.017507826  0.016583008         3296 
 3959000   0.62138174   -7.6296912    831.75041  0.017507586  0.016577024         3198 
 3960000   0.61571395   -7.6018739    831.88495  0.017505996   0.01657105         3242 
 3961000    0.6177201   -7.6192196    831.88627  0.017501605  0.016565072         3199 
 3962000   0.61223136   -7.6044561    832.17797  0.017503323  0.016559101         3305 
 3963000   0.61521087   -7.5927144    832.32928  0.017502088  0.016553129         3308 
 3964000   0.62499162   -7.5933487    831.74209  0.017485328  0.016547147         3208 
 3965000   0.61889016   -7.5982925    831.78624  0.017481846  0.016541181         3197 
 3966000   0.62044979   -7.6218729     832.5414  0.017493306  0.016535219         3288 
 3967000   0.61471359   -7.6062502    833.31125  0.017505068  0.016529247         3273 
 3968000   0.63078694   -7.6117586     831.4407  0.017461372  0.016523285         3185 
 3969000    0.6150988    -7.623309    832.11088  0.017471044  0.016517333         3215 
 3970000   0.61190201   -7.6074772    832.47537  0.017474294  0.016511382         3252 
 3971000   0.60966994   -7.6048927    833.09255  0.017482845  0.016505429         3207 
 3972000    0.6238373   -7.6081047    832.73528  0.017470948  0.016499485         3290 
 3973000   0.60785125   -7.6131625    832.03175  0.017451794  0.016493534         3266 
 3974000   0.60508401   -7.5880906    832.43215  0.017455799  0.016487592         3319 
 3975000   0.61157189   -7.6171045    830.62452  0.017413512  0.016481646         3272 
 3976000   0.60169658   -7.6189363    831.86132  0.017435055  0.016475715         3259 
 3977000    0.6126569   -7.5967285    831.67439  0.017426754  0.016469776         3339 
 3978000   0.60468932   -7.6217063    832.53797  0.017440464  0.016463839         3281 
 3979000   0.61353303   -7.6088149    832.46371  0.017434525   0.01645791         3286 
 3980000   0.61182594   -7.5950947    831.65826   0.01741328  0.016451973         3314 
 3981000   0.61247316   -7.6098502    831.90589   0.01741409  0.016446047         3301 
 3982000   0.60347909   -7.6399535    832.85758  0.017429633  0.016440113         3334 
 3983000   0.63017898     -7.61936    832.90311   0.01742621  0.016434202         3285 
 3984000   0.60969374    -7.626329    831.20695  0.017386357  0.016428284         3220 
 3985000   0.61067744   -7.6168821    832.42921  0.017407554  0.016422364         3260 
 3986000   0.62929417    -7.651089    831.24381  0.017378404  0.016416447         3325 
 3987000    0.6178871   -7.6167236    831.89441  0.017387643  0.016410535         3250 
 3988000   0.60503393   -7.6198439    830.79404   0.01736029  0.016404626         3294 
 3989000   0.60989288   -7.6198794    831.78192  0.017376576  0.016398706         3373 
 3990000   0.59783188   -7.6139871    832.22309  0.017381435  0.016392793         3338 
 3991000   0.60913132   -7.6000353    831.67651  0.017365667  0.016386886         3271 
 3992000   0.62185757   -7.6053588    832.67836   0.01738223  0.016380988         3341 
 3993000   0.61558083    -7.623211    831.62161  0.017355823   0.01637509         3355 
 3994000   0.60455795   -7.6304473    831.61294  0.017351296  0.016369195         3301 
 3995000   0.62132906   -7.6102391    831.30757  0.017340583  0.016363288         3307 
 3996000   0.61602217   -7.6293283    832.57045   0.01736258  0.016357393         3277 
 3997000   0.61781974   -7.6053145    832.90968  0.017365309  0.016351498         3189 
 3998000   0.62065624   -7.6319921    830.95199   0.01732016   0.01634561         3317 
 3999000   0.62439181   -7.6409922    830.17739  0.017299687  0.016339717         3335 
 4000000   0.61039538   -7.6141137    830.92016  0.017310837  0.016333823         3302 
 4001000   0.61476889   -7.6193313    832.75307  0.017344686  0.016327926         3288 
 4002000    0.6194484   -7.6197247    831.29716  0.017310036  0.016322038         3220 
 4003000   0.61618215   -7.6346401    830.79329  0.017295222  0.016316151         3303 
 4004000   0.60814841     -7.64524    832.22417  0.017320683  0.016310256         3390 
 4005000   0.61031806   -7.6257005    830.43669  0.017279165   0.01630437         3306 
 4006000   0.62568221   -7.6380873    830.80749  0.017282565  0.016298494         3304 
 4007000   0.61548622   -7.6304343    830.22514  0.017266141  0.016292614         3316 
 4008000   0.60809614   -7.6227152    832.35441  0.017306105  0.016286742         3351 
 4009000   0.61630717   -7.5993362    832.37106  0.017302134  0.016280869         3363 
 4010000    0.6154634   -7.6570479    830.61706  0.017261369  0.016274997         3358 
 4011000   0.61026536   -7.6066764    831.13169  0.017267757  0.016269124         3342 
 4012000   0.62006332   -7.6279443    831.63259  0.017273857  0.016263264         3299 
 4013000   0.60866776   -7.6367901    832.53613  0.017288316  0.016257401         3318 
 4014000   0.60426609   -7.6449251    829.81386  0.017227493  0.016251538         3367 
 4015000   0.60574389   -7.6325225    830.65207  0.017240599  0.016245682         3317 
 4016000   0.60878335   -7.6269836    833.31121  0.017291484  0.016239827         3327 
 4017000    0.6069296   -7.6428847    831.27018  0.017244838  0.016233984         3322 
 4018000   0.61664081   -7.6324124    832.57982  0.017267708  0.016228138         3330 
 4019000   0.60789018   -7.6287633     830.9227  0.017229052  0.016222289         3279 
 4020000   0.61098801    -7.619402    830.64389  0.017218986  0.016216449         3346 
 4021000   0.60694745   -7.6279039     831.8784  0.017240288  0.016210602         3354 
 4022000   0.60437573   -7.6254026    832.35351  0.017245846  0.016204752         3355 
 4023000    0.6058878   -7.6325433    828.94684  0.017170993  0.016198915         3354 
 4024000   0.61297236   -7.6405726    829.93603  0.017187211  0.016193073         3397 
 4025000   0.61557589   -7.6343107    830.02551  0.017184793  0.016187233         3336 
 4026000   0.60606638    -7.623111    831.33015  0.017207529  0.016181393         3350 
 4027000   0.61941783   -7.6189449    832.51186   0.01722771  0.016175561         3358 
 4028000   0.60164508   -7.6428903    830.13357   0.01717423  0.016169729         3403 
 4029000   0.60624472   -7.6387582    832.35471  0.017215908  0.016163907         3291 
 4030000    0.5984142   -7.6425933    831.00265  0.017183678  0.016158087         3240 
 4031000    0.6030103   -7.6188215    830.86245  0.017176516  0.016152265         3320 
 4032000   0.62012092     -7.63681    832.54422  0.017207015  0.016146443         3332 
 4033000   0.59835562    -7.635848    831.97756   0.01719104  0.016140626         3326 
 4034000   0.60544153   -7.6375962    829.56071  0.017136851  0.016134807         3316 
 4035000   0.61075912   -7.6563951    830.76508  0.017157478  0.016128987         3340 
 4036000   0.59927403   -7.6319134      831.065  0.017159419   0.01612317         3359 
 4037000   0.60202055   -7.6207705    832.22904  0.017179197  0.016117353         3376 
 4038000   0.60512935   -7.6464406     830.6252  0.017141844   0.01611154         3406 
 4039000   0.61558051   -7.6486506    830.80443  0.017141298  0.016105735         3328 
 4040000   0.60835205   -7.6451297    831.48317  0.017151056  0.016099921         3398 
 4041000   0.59934696     -7.64116    831.38705  0.017144829  0.016094119         3315 
 4042000     0.599168   -7.6324214    831.56828  0.017144324  0.016088319         3333 
 4043000   0.59870714   -7.6466996    831.32833  0.017135137  0.016082513         3295 
 4044000   0.61465676   -7.6467211    830.23643    0.0171084  0.016076716         3317 
 4045000   0.59836767   -7.6234535    830.16812  0.017102763  0.016070921         3302 
 4046000   0.59472537    -7.637749    830.72823  0.017110072  0.016065131         3370 
 4047000   0.60965577   -7.6336387    829.20721  0.017074525  0.016059342         3395 
 4048000   0.60797346   -7.6399513     831.4854  0.017117206   0.01605355         3347 
 4049000   0.60518536   -7.6332272    830.35582   0.01708973  0.016047761         3382 
 4050000   0.60983381   -7.6477271    830.04925  0.017079203  0.016041967         3331 
 4051000   0.61184873   -7.6485221     831.4098  0.017102975   0.01603618         3380 
 4052000   0.59038981   -7.6269294    830.17351  0.017073328  0.016030394         3401 
 4053000   0.61451565   -7.6391635    830.98252   0.01708575  0.016024607         3334 
 4054000   0.60251609   -7.6515761    829.94018  0.017060109   0.01601883         3369 
 4055000   0.59806888   -7.6578085    830.36578  0.017064648   0.01601305         3364 
 4056000   0.61104203   -7.6442702    830.66526  0.017066594   0.01600728         3409 
 4057000   0.60412077   -7.6287239    830.84549  0.017066089    0.0160015         3325 
 4058000   0.60158954   -7.6361208    831.59551  0.017077286  0.015995729         3342 
 4059000   0.59412902    -7.660427    829.93026   0.01703889  0.015989955         3384 
 4060000   0.60700758   -7.6679715    831.46432  0.017066181  0.015984185         3380 
 4061000   0.59851294   -7.6650297    829.38989   0.01701941  0.015978423         3423 
 4062000   0.61199549   -7.6507099    829.79206  0.017023471  0.015972658         3306 
 4063000    0.5995112   -7.6528603    829.29983  0.017009185  0.015966897         3434 
 4064000   0.59207928   -7.6602633    831.39116  0.017047883  0.015961136         3297 
 4065000   0.60275325   -7.6304387    829.82759  0.017011636  0.015955375         3345 
 4066000   0.59842895   -7.6431765    829.52973  0.017001347  0.015949617         3386 
 4067000    0.6053164   -7.6604003    829.48879  0.016996328  0.015943859         3438 
 4068000     0.600756   -7.6634877    829.88875  0.017000343  0.015938103         3370 
 4069000   0.60039915   -7.6625397    830.64927  0.017011741  0.015932354         3412 
 4070000   0.61145335   -7.6529212     829.4747  0.016983511   0.01592661         3396 
 4071000   0.59323125   -7.6651551    829.02397  0.016970113  0.015920862         3380 
 4072000   0.61416498   -7.6389891    828.87988  0.016962997  0.015915118         3362 
 4073000   0.58857477   -7.6523644    829.26473  0.016966706  0.015909373         3274 
 4074000   0.59434762   -7.6495873    830.94559  0.016996923  0.015903632         3332 
 4075000   0.59783655   -7.6438395    830.45241  0.016982667  0.015897896         3414 
 4076000   0.59216758   -7.6619748    830.24171  0.016974193  0.015892168         3379 
 4077000   0.59939222   -7.6562782    830.35345  0.016972313  0.015886437         3352 
 4078000   0.61875287   -7.6509995    830.88908  0.016979097   0.01588072         3353 
 4079000   0.59628189   -7.6657533     829.5915  0.016948425  0.015874997         3434 
 4080000   0.60392452   -7.6409242    830.58701  0.016964604   0.01586928         3348 
 4081000   0.58806531   -7.6534383    828.71923  0.016922307  0.015863564         3360 
 4082000   0.59485468   -7.6328893    830.33314  0.016951109  0.015857846         3363 
 4083000   0.59785995   -7.6511394    828.66349   0.01691288  0.015852137         3364 
 4084000   0.61343503   -7.6534623    830.11797  0.016938418  0.015846421         3371 
 4085000   0.60287749   -7.6788893    830.74551  0.016947073  0.015840709         3378 
 4086000   0.61542598   -7.6623449    830.72384  0.016942483  0.015834999         3305 
 4087000   0.58845968   -7.6613782    828.23911  0.016887674  0.015829291         3352 
 4088000   0.60436883   -7.6687651    829.42431  0.016907704  0.015823584         3393 
 4089000   0.59932353   -7.6235931     830.6606  0.016928764   0.01581788         3363 
 4090000    0.5903851   -7.6565972    830.17269  0.016914684  0.015812187         3382 
 4091000   0.60114773   -7.6616789    828.58266  0.016878161  0.015806487         3470 
 4092000    0.5816665   -7.6709458    829.64108  0.016895591  0.015800794         3316 
 4093000   0.58026059   -7.6313892    829.67038  0.016892059  0.015795102         3302 
 4094000   0.59790312   -7.6476191     830.9377  0.016913729  0.015789418         3373 
 4095000   0.60078768   -7.6398785    830.03908  0.016891312  0.015783729         3415 
 4096000    0.6064216   -7.6471257    828.98356  0.016865714  0.015778043         3320 
 4097000   0.58592872    -7.665931    828.69797  0.016855788  0.015772358         3371 
 4098000   0.59188798   -7.6604567     829.1084  0.016860021  0.015766682         3324 
 4099000     0.583768   -7.6620974    828.79739  0.016849585   0.01576101         3333 
 4100000   0.60014735   -7.6656257    828.02132  0.016829702  0.015755335         3382 
 4101000   0.59195797   -7.6575721    831.20896  0.016890372  0.015749656         3384 
 4102000   0.60998808   -7.6448582    830.05996  0.016862912  0.015743985         3375 
 4103000    0.5841591   -7.6546531     829.9592  0.016856755  0.015738318         3356 
 4104000    0.5833913   -7.6525883     830.3393  0.016860366  0.015732657         3364 
 4105000   0.59804559   -7.6663761    829.79539  0.016845217  0.015726994         3323 
 4106000   0.59398374   -7.6775892    829.08025    0.0168266   0.01572133         3373 
 4107000    0.5938779   -7.6491558    830.47422  0.016850788  0.015715667         3335 
 4108000   0.59226383   -7.6681389    828.72696  0.016811241  0.015710004         3347 
 4109000   0.60511185   -7.6510056    830.14307   0.01683587  0.015704356         3334 
 4110000   0.59538325   -7.6506942    829.64555  0.016821686  0.015698709         3288 
 4111000   0.59044828   -7.6517037    831.12816  0.016847648  0.015693059         3356 
 4112000    0.5959422   -7.6608624    830.51193  0.016831062  0.015687409         3358 
 4113000   0.59894374    -7.682203    830.23026  0.016821263  0.015681761         3366 
 4114000   0.59814089    -7.667694    829.67853  0.016805998  0.015676107         3414 
 4115000   0.58622701   -7.6803625    829.08196  0.016789833  0.015670463         3377 
 4116000   0.60257025   -7.6883534    828.18861  0.016767667  0.015664821         3379 
 4117000   0.58599101   -7.6678529    827.39888  0.016747609  0.015659175         3406 
 4118000   0.60178168   -7.6805603    830.12462  0.016798701  0.015653534         3412 
 4119000   0.59129315   -7.6625087     830.3808  0.016799806  0.015647894         3414 
 4120000   0.58567888    -7.671963    829.99231   0.01678787  0.015642265         3348 
 4121000   0.58766911    -7.656389     829.1309  0.016766378  0.015636644         3379 
 4122000   0.60334652   -7.6563021    830.62126   0.01679244  0.015631017         3329 
 4123000    0.5855543   -7.6424464    829.72517  0.016770256  0.015625391         3354 
 4124000   0.58399307    -7.653803     829.3916  0.016759449  0.015619772         3377 
 4125000   0.58205067   -7.6726492    828.40494  0.016735453  0.015614145         3373 
 4126000   0.59274223   -7.6631828    830.38811  0.016771452  0.015608526         3344 
 4127000   0.58736529   -7.6614676     829.0123  0.016739607  0.015602913         3301 
 4128000   0.58289731    -7.672233     830.6331  0.016768272  0.015597293         3402 
 4129000   0.59968437   -7.6696305    828.99192  0.016731087  0.015591681         3393 
 4130000   0.59671679   -7.6528288    830.04379  0.016748261  0.015586067         3349 
 4131000   0.58530242   -7.6471041    828.58351  0.016714748  0.015580458         3375 
 4132000   0.59012353   -7.6722384    829.92902  0.016737839  0.015574855         3337 
 4133000   0.58121507   -7.6619895    827.83063   0.01669148  0.015569246         3369 
 4134000   0.59288899   -7.6545602      829.575  0.016722605  0.015563644         3360 
 4135000   0.57762158   -7.6433549    831.59257  0.016759222  0.015558044         3374 
 4136000   0.60538089   -7.6528802    829.23664  0.016707701  0.015552451         3301 
 4137000   0.58584422    -7.681211    829.15895  0.016702098  0.015546853         3358 
 4138000   0.59322432    -7.665164    828.16364  0.016678018  0.015541256         3383 
 4139000   0.59128254   -7.6891183    829.03784  0.016691589   0.01553567         3427 
 4140000   0.58781029   -7.6575635     827.9214  0.016665084  0.015530072         3422 
 4141000   0.59057345   -7.6823786      829.866  0.016700193  0.015524491         3421 
 4142000   0.58977426   -7.6830297    828.03334   0.01665929  0.015518894         3433 
 4143000   0.58685529    -7.676449    830.36635  0.016702195  0.015513311         3421 
 4144000   0.58812892   -7.6717938    828.55136  0.016661667  0.015507725         3340 
 4145000   0.59189606    -7.683746    829.39483  0.016674605  0.015502148         3356 
 4146000   0.59147143    -7.659256    829.13137  0.016665287  0.015496566         3411 
 4147000    0.5792408   -7.6877641     828.9944  0.016658516  0.015490998         3412 
 4148000   0.58330752   -7.6674169    828.90589  0.016652722  0.015485423         3379 
 4149000   0.57777022   -7.6703531    828.95137  0.016649622  0.015479853         3341 
 4150000   0.58134428   -7.6708373    827.99975  0.016626501  0.015474283         3415 
 4151000   0.59066509     -7.67792    829.43048  0.016651218  0.015468721         3363 
 4152000   0.58523472   -7.6736497    828.57111   0.01662996  0.015463159         3313 
 4153000   0.58600909   -7.6630522    828.47066   0.01662394  0.015457598         3408 
 4154000    0.5838112   -7.6625366    830.32313    0.0166571  0.015452043         3385 
 4155000   0.58126306   -7.6795234    828.06919  0.016607886  0.015446494         3371 
 4156000   0.59671694   -7.6677684    829.11967  0.016624953  0.015440937         3414 
 4157000   0.59114621   -7.6694085    829.91154  0.016636828  0.015435388         3438 
 4158000   0.57714992   -7.6901358    828.85908  0.016611734  0.015429837         3376 
 4159000   0.59105688   -7.6782432    829.37536  0.016618084  0.015424293         3370 
 4160000   0.58600068   -7.6775119    828.54344  0.016597425  0.015418748         3358 
 4161000   0.58221343   -7.6653057    828.36546  0.016589871  0.015413211         3348 
 4162000   0.59391964   -7.6858027    829.09002  0.016600393  0.015407668         3398 
 4163000   0.59665708   -7.6703089    828.78266  0.016590253  0.015402132         3356 
 4164000   0.58341789   -7.6723222    828.11665   0.01657294  0.015396595         3404 
 4165000   0.58006946   -7.6838471    827.64024  0.016559429  0.015391061         3392 
 4166000   0.56893507   -7.6843904    827.92753    0.0165612   0.01538553         3375 
 4167000   0.57300611    -7.677186    829.65041  0.016591681  0.015380002         3411 
 4168000   0.59095568   -7.6941537    828.26536  0.016560008  0.015374481         3385 
 4169000   0.58031399   -7.6787798     830.1771  0.016594249  0.015368961         3308 
 4170000   0.57927182   -7.6962798    829.58675  0.016578472   0.01536344         3408 
 4171000   0.59216467   -7.6801011    829.14042   0.01656558  0.015357915         3392 
 4172000   0.58417004   -7.6770461    828.91509  0.016557109  0.015352403         3364 
 4173000   0.58940812   -7.6901451    829.62426  0.016567303  0.015346889         3424 
 4174000   0.59431676   -7.6768385     827.4755  0.016520434  0.015341383         3396 
 4175000   0.58780467    -7.684679    828.85355  0.016543983  0.015335872         3382 
 4176000   0.58904717   -7.6619034    826.81698  0.016499381  0.015330367         3414 
 4177000   0.59306397   -7.6807061    827.92363  0.016517509  0.015324861         3353 
 4178000   0.58275708   -7.6916397    830.31682   0.01656129  0.015319359         3370 
 4179000   0.58883152   -7.6894528    827.82507  0.016507639  0.015313859         3365 
 4180000   0.57076111   -7.6702616    828.47618   0.01651667  0.015308361         3459 
 4181000   0.59220119   -7.6889543    827.62793  0.016495813  0.015302865         3408 
 4182000   0.57989869   -7.7097748      827.985  0.016498984   0.01529737         3502 
 4183000    0.5894352   -7.6850041    828.62457  0.016507781  0.015291885         3377 
 4184000   0.56851947   -7.6838155    829.17925  0.016514883  0.015286394         3345 
 4185000   0.58008075   -7.6878221     828.4134  0.016495687  0.015280906         3427 
 4186000   0.59067535   -7.6872783    827.46699  0.016472905  0.015275417         3405 
 4187000   0.56266023    -7.674561    828.53119  0.016490152  0.015269936         3351 
 4188000   0.57930453   -7.6922269    828.13318  0.016478295  0.015264464         3452 
 4189000   0.57540935   -7.6920297    827.65221  0.016464793  0.015258982         3349 
 4190000    0.5812975   -7.6898022    827.72285  0.016462268  0.015253501         3347 
 4191000   0.57740136   -7.6829461    828.80175  0.016479793  0.015248027         3374 
 4192000   0.57410863   -7.6738562    828.68646   0.01647357   0.01524255         3380 
 4193000    0.5706971   -7.6850855    828.87642  0.016473416  0.015237082         3388 
 4194000   0.57246869   -7.6825566    829.02276  0.016472396  0.015231623         3373 
 4195000   0.58411485   -7.6897346    830.69985  0.016501785  0.015226158         3355 
 4196000   0.57411465   -7.6908454    827.84115  0.016441078    0.0152207         3398 
 4197000   0.57716887   -7.6751736    829.24819  0.016465098  0.015215242         3382 
 4198000   0.58344686   -7.6736461    828.56264  0.016447567  0.015209785         3355 
 4199000    0.5829255   -7.6856388    828.71096  0.016446594   0.01520434         3374 
 4200000   0.58077554   -7.7048065    826.97501  0.016408234  0.015198881         3444 
 4201000   0.59174718   -7.6961249    828.58772  0.016436319   0.01519343         3414 
 4202000   0.57890397   -7.6805449    828.38178  0.016428323   0.01518798         3407 
 4203000   0.58021534   -7.6979402    828.40461  0.016424867  0.015182529         3409 
 4204000   0.57222406   -7.6924909    826.96243  0.016392373  0.015177084         3375 
 4205000    0.5810902   -7.6935268    828.09569  0.016410933  0.015171636         3358 
 4206000    0.5811519   -7.7043376    828.31447  0.016411366  0.015166196         3447 
 4207000   0.56727994   -7.7124561    827.73859  0.016396058  0.015160756         3424 
 4208000   0.58428138   -7.6754525    826.66569  0.016370914   0.01515532         3375 
 4209000   0.59666515    -7.689247    830.09683  0.016434958  0.015149891         3413 
 4210000   0.57337902   -7.6943707    827.20125  0.016373738  0.015144468         3399 
 4211000   0.58207284   -7.6911326    827.46316  0.016375033   0.01513904         3429 
 4212000   0.57265964   -7.6959255    829.37056  0.016408883  0.015133613         3371 
 4213000   0.58636096   -7.6761669    828.29895  0.016383791  0.015128197         3388 
 4214000    0.5732841   -7.6999391    827.10241  0.016356241  0.015122778         3335 
 4215000   0.56286951   -7.7145813    829.27237  0.016395262   0.01511736         3394 
 4216000   0.58090839   -7.6932061    827.20889  0.016350587  0.015111944         3371 
 4217000   0.57797803   -7.6908694    828.71029  0.016376379  0.015106535         3372 
 4218000   0.58066945   -7.7036404    826.89981  0.016336728  0.015101117         3405 
 4219000   0.59309479   -7.6908997    828.96916  0.016373729  0.015095712         3483 
 4220000   0.58317639   -7.7043078    827.96415  0.016350003  0.015090305         3375 
 4221000   0.58331439   -7.7029023    828.49587  0.016356627  0.015084899         3450 
 4222000   0.57873342   -7.6981086    828.19195  0.016346754  0.015079495         3388 
 4223000   0.57969672   -7.7006877    828.74578  0.016353812  0.015074097         3394 
 4224000   0.59209663   -7.7244867    826.95218  0.016314555  0.015068695         3462 
 4225000   0.57474876   -7.6868476    828.09851  0.016333304  0.015063301         3406 
 4226000   0.58233062   -7.6899558    829.46127  0.016356312  0.015057902         3373 
 4227000   0.57277182   -7.6966203    828.22018  0.016327975  0.015052514         3381 
 4228000   0.56523862   -7.7031505    827.88186  0.016317444  0.015047121         3416 
 4229000    0.5671633   -7.6979423     826.3176  0.016282762  0.015041735         3339 
 4230000   0.56806012    -7.694619    829.30092  0.016337686  0.015036351         3406 
 4231000   0.57232692   -7.7050868     827.1128  0.016290727   0.01503097         3400 
 4232000   0.58642778   -7.7073415    829.28712  0.016329693  0.015025588         3362 
 4233000   0.57224128   -7.6867341    828.57732  0.016311862  0.015020211         3426 
 4234000   0.55900039   -7.6944195    827.80073  0.016292724  0.015014839         3381 
 4235000   0.58125301   -7.7034511     829.3923  0.016320195  0.015009467         3432 
 4236000    0.5770935   -7.6783511    827.45402  0.016278211  0.015004091         3372 
 4237000   0.56947339   -7.6881252    827.13535  0.016268101  0.014998726         3447 
 4238000   0.57754818   -7.6924116    827.93882  0.016280062  0.014993358         3371 
 4239000   0.56156169   -7.6966514    830.49112  0.016326396  0.014987994         3403 
 4240000   0.58136534   -7.6876364    826.83426  0.016250673  0.014982632         3408 
 4241000   0.58391197   -7.6985028    828.00466  0.016269839  0.014977273         3424 
 4242000   0.57121919   -7.6944987    828.10404  0.016267956   0.01497192         3345 
 4243000   0.58920795    -7.699658    826.44031  0.016231446  0.014966568         3410 
 4244000   0.56678821   -7.7055809    828.05601  0.016259347  0.014961215         3414 
 4245000   0.58438737   -7.6994736    828.34622  0.016261214  0.014955868         3411 
 4246000   0.58438376   -7.7209019    826.67436  0.016224571  0.014950514         3447 
 4247000   0.56856053   -7.7245529    826.40658  0.016215497  0.014945167         3393 
 4248000   0.56755596    -7.701297    828.33321  0.016249474  0.014939824         3435 
 4249000   0.57182617   -7.6770025    828.00279   0.01623917  0.014934481         3394 
 4250000   0.58210237   -7.7025229    828.45177  0.016244152  0.014929145         3385 
 4251000   0.57678859   -7.7005342    828.43557  0.016240014  0.014923812         3415 
 4252000   0.56575733   -7.7027717    826.64178  0.016201038  0.014918477         3375 
 4253000   0.57241786   -7.7070879    827.05035  0.016205234  0.014913146         3429 
 4254000   0.57429226   -7.7013274    827.62503  0.016212683  0.014907815         3424 
 4255000   0.57776033   -7.7031976    827.45795    0.0162056  0.014902483         3392 
 4256000   0.56169489   -7.7168902    826.37626  0.016180613  0.014897154         3365 
 4257000   0.56091257   -7.6915037     828.2079  0.016212667  0.014891829         3424 
 4258000   0.56479283   -7.7022493    828.60447  0.016216621  0.014886507         3340 
 4259000   0.57619971   -7.7048402    827.71874  0.016195483  0.014881192         3422 
 4260000   0.56806078   -7.6949958    829.49352  0.016226399  0.014875874         3356 
 4261000   0.57722402   -7.7134698    827.85676   0.01619058  0.014870561         3402 
 4262000    0.5664423   -7.6971943    826.60956  0.016162395  0.014865245         3416 
 4263000   0.56669231   -7.6876554    829.41271    0.0162134  0.014859934         3400 
 4264000   0.56835135   -7.7188356    827.55718  0.016173334  0.014854623         3444 
 4265000   0.56668555   -7.7193569     827.2336   0.01616322  0.014849314         3407 
 4266000   0.57540508   -7.7097012    827.68463  0.016168242  0.014844009         3407 
 4267000   0.56166702   -7.7106941    827.58874   0.01616258  0.014838701         3427 
 4268000   0.58039171   -7.6930262    827.53895  0.016157821  0.014833398         3464 
 4269000   0.56395644   -7.6840253    827.86395   0.01616038    0.0148281         3410 
 4270000   0.57592861   -7.7113267    828.39114  0.016166884  0.014822808         3429 
 4271000   0.57600577   -7.7134934    828.38444  0.016162968  0.014817506         3417 
 4272000   0.57220853    -7.718705    827.85883  0.016148932  0.014812211         3408 
 4273000   0.56862319   -7.7263636    827.35209   0.01613527  0.014806918         3454 
 4274000   0.57147167   -7.7130543    826.49968  0.016114875  0.014801629         3439 
 4275000   0.55927883   -7.7046349    826.82477  0.016117442  0.014796347         3409 
 4276000    0.5771798   -7.7127329    827.26114  0.016122177  0.014791055         3424 
 4277000   0.55677284   -7.7025429    827.61298  0.016125263   0.01478578         3397 
 4278000   0.56107837   -7.7058517    828.28648  0.016134613  0.014780504         3486 
 4279000    0.5609949   -7.7054235     827.3748  0.016113087  0.014775224         3461 
 4280000   0.56769408    -7.704595    826.81877  0.016098496  0.014769943         3436 
 4281000   0.57159766    -7.711395    825.81211   0.01607514  0.014764667         3459 
 4282000   0.56937026   -7.7304688     824.7892  0.016051479  0.014759393         3476 
 4283000   0.56188089   -7.7198489     826.9699  0.016090161  0.014754119         3456 
 4284000   0.55329879   -7.7042247    827.78151  0.016102192  0.014748851         3409 
 4285000   0.57427583   -7.7080337    828.86435  0.016119493  0.014743586         3459 
 4286000   0.57927322   -7.7112726    826.91047  0.016077743   0.01473833         3381 
 4287000   0.57644295   -7.7265778    826.83179  0.016072463  0.014733066         3368 
 4288000   0.56148528   -7.7139074    826.92505  0.016070527  0.014727811         3408 
 4289000   0.56372084   -7.7150761    829.04248  0.016107921  0.014722554         3431 
 4290000   0.57679032   -7.7296263    825.09683  0.016027522  0.014717301         3462 
 4291000   0.56636732   -7.7007668     827.7495  0.016075303  0.014712052         3413 
 4292000   0.57881135   -7.7098774    828.21317   0.01608056  0.014706802         3465 
 4293000   0.57375149   -7.7204337    828.02902   0.01607324  0.014701555         3441 
 4294000   0.54838732   -7.7164825    825.97343  0.016029604  0.014696307         3426 
 4295000   0.54521062   -7.7135756    826.21023  0.016030466  0.014691054         3461 
 4296000   0.57440489   -7.7030476    827.29382  0.016047754  0.014685808         3441 
 4297000   0.57005756   -7.7119038    827.27785   0.01604371  0.014680569         3510 
 4298000   0.56769847   -7.7148581    827.90137  0.016052066  0.014675336         3461 
 4299000   0.56850915   -7.7105535    827.48163  0.016040196  0.014670104         3454 
 4300000   0.55842227   -7.6998492    825.89374  0.016005693  0.014664866         3443 
 4301000   0.56697925    -7.732943    826.96798  0.016022785   0.01465964         3509 
 4302000   0.55468522   -7.7138325    828.20894  0.016043099  0.014654411         3498 
 4303000   0.56912456   -7.7355161    827.53987  0.016026413  0.014649183         3465 
 4304000     0.570462   -7.7118137    826.37631  0.016000161  0.014643957         3435 
 4305000    0.5638788   -7.6917118    827.78743   0.01602376  0.014638736         3415 
 4306000   0.56085085   -7.7233806    826.89323  0.016002733  0.014633515         3479 
 4307000   0.55383495   -7.7172012    827.92808   0.01601904  0.014628294         3448 
 4308000   0.55450275   -7.7223132    827.91249   0.01601502  0.014623074         3405 
 4309000   0.56413442    -7.705596     825.5845  0.015966282   0.01461786         3401 
 4310000   0.55615492   -7.7305156    826.73003  0.015984726  0.014612645         3483 
 4311000   0.55262391   -7.7047081    827.61365  0.015998099  0.014607434         3495 
 4312000   0.55116851   -7.7187168    826.41298  0.015971185  0.014602224         3500 
 4313000   0.57143784   -7.7285723    825.34824  0.015946909   0.01459702         3432 
 4314000   0.55904312   -7.7175248    826.34624  0.015962491  0.014591813         3515 
 4315000    0.5732758   -7.7181294    826.76394  0.015966859  0.014586616         3434 
 4316000   0.56024535   -7.7251113    826.94851  0.015966723  0.014581418         3466 
 4317000   0.54359745    -7.703741    826.61073  0.015956504  0.014576224         3459 
 4318000   0.55820519   -7.7329239    828.07532  0.015981074  0.014571036         3450 
 4319000   0.56598059   -7.7126407    827.86174  0.015973253  0.014565838         3479 
 4320000   0.54743501   -7.7138268    826.91505  0.015951293  0.014560652         3428 
 4321000   0.56113373   -7.7247898    828.40471  0.015976331  0.014555464         3435 
 4322000   0.56572623   -7.7277558    826.63643   0.01593854  0.014550284         3430 
 4323000   0.56455453   -7.7170673     826.5675  0.015933524  0.014545102         3430 
 4324000   0.55439236   -7.7370981    827.05017  0.015939141  0.014539925         3495 
 4325000   0.55353965    -7.734946    827.00188  0.015934526  0.014534745         3485 
 4326000   0.55671563   -7.7203585    825.93163  0.015910226  0.014529572         3444 
 4327000   0.56119791   -7.7076401    826.71499  0.015921635  0.014524397         3430 
 4328000   0.55334154   -7.7240634    826.12564  0.015906609  0.014519225         3427 
 4329000   0.55569957   -7.7259581    825.88479  0.015898298  0.014514056         3468 
 4330000   0.56042922   -7.7244091    825.91346  0.015895178  0.014508887         3458 
 4331000   0.56987856   -7.7006151    827.40167  0.015920143  0.014503724         3422 
 4332000   0.57693454   -7.7200159    827.73889  0.015922955  0.014498562         3436 
 4333000   0.55651323   -7.7094927    826.01328  0.015886093  0.014493399         3418 
 4334000    0.5521034   -7.7235504    826.65372  0.015894742  0.014488244         3486 
 4335000   0.57166991   -7.7316793    825.70002  0.015872742  0.014483087         3438 
 4336000   0.54875068   -7.7202092     825.5457  0.015866115  0.014477932         3435 
 4337000   0.56101958   -7.7267799    826.92711     0.015889  0.014472782         3444 
 4338000   0.56372741   -7.7261119    827.81575  0.015902408  0.014467634         3472 
 4339000    0.5463935   -7.7300881    826.91829  0.015881507  0.014462491         3441 
 4340000   0.54908526   -7.7238366    827.91885  0.015897059  0.014457346         3448 
 4341000   0.55740254   -7.7280838    825.97014  0.015855988  0.014452206         3424 
 4342000   0.54543672   -7.7233373    827.28516  0.015877575  0.014447068         3474 
 4343000   0.55646868   -7.7186057    828.68764   0.01590083  0.014441932         3398 
 4344000   0.55811956   -7.7299157    827.14462  0.015867569    0.0144368         3410 
 4345000   0.55522315   -7.7206988     827.7466  0.015875462  0.014431669         3440 
 4346000   0.56817719   -7.7325222     825.3101   0.01582509  0.014426533         3417 
 4347000   0.55205986   -7.7408468    825.68162  0.015828572  0.014421403         3480 
 4348000   0.55287055   -7.7104551    827.25366  0.015855061   0.01441627         3429 
 4349000   0.55653069   -7.7491177    825.89011  0.015825288   0.01441114         3503 
 4350000   0.56024006   -7.7400473    826.22063  0.015827981  0.014406016         3519 
 4351000   0.54555039   -7.7281533     827.1649  0.015842429  0.014400894         3440 
 4352000   0.56784452   -7.7240498    826.22433  0.015820778  0.014395775         3474 
 4353000   0.55560863   -7.7347126    826.35701  0.015819684   0.01439066         3487 
 4354000   0.55741753   -7.7340306    824.93162  0.015788769  0.014385541         3475 
 4355000   0.53799589   -7.7294567    826.06564  0.015806843  0.014380423         3492 
 4356000    0.5571791   -7.7256989    826.54462  0.015812378  0.014375305         3442 
 4357000   0.55627609   -7.7333705    825.55453  0.015789812  0.014370197         3501 
 4358000   0.55447789   -7.7260448    827.45625  0.015822553  0.014365088         3414 
 4359000   0.55241621   -7.7356052    825.56547  0.015782777  0.014359983         3472 
 4360000   0.54840034   -7.7380859    826.55743  0.015798116   0.01435488         3476 
 4361000   0.56299565   -7.7345185    826.42905   0.01579204  0.014349774         3509 
 4362000   0.56063111   -7.7334756    827.01478   0.01579961  0.014344675         3439 
 4363000   0.55078695   -7.7395415    824.47295   0.01574744  0.014339574         3473 
 4364000   0.55491946   -7.7250242    827.33958  0.015798571  0.014334478         3433 
 4365000   0.55427919   -7.7421461    825.66618  0.015763005  0.014329387         3455 
 4366000    0.5458884   -7.7423783    825.19107  0.015750326  0.014324295         3437 
 4367000   0.54801282   -7.7339576    827.07986  0.015782762  0.014319206         3447 
 4368000   0.55712753   -7.7122289    826.33014  0.015764845  0.014314121         3429 
 4369000   0.55020015   -7.7294441    826.14872  0.015757777   0.01430904         3449 
 4370000   0.55286911   -7.7301834     826.9863  0.015770143  0.014303959         3470 
 4371000   0.56053521   -7.7353166    825.92385   0.01574628  0.014298881         3484 
 4372000   0.54630931    -7.730975    825.42992  0.015733263  0.014293802         3500 
 4373000   0.55203549   -7.7302238    825.82342  0.015737164  0.014288727         3437 
 4374000   0.54921867   -7.7376612    826.61312  0.015748612  0.014283655         3544 
 4375000   0.54899672   -7.7241663     826.8324  0.015749189  0.014278586         3468 
 4376000   0.54142843   -7.7377263    824.86107  0.015708049  0.014273519         3482 
 4377000   0.54960455   -7.7289219    827.05226  0.015746178  0.014268448         3468 
 4378000   0.55276629   -7.7159335    827.11447  0.015743766  0.014263382         3491 
 4379000   0.55240468   -7.7583929    825.82462  0.015715624  0.014258319         3463 
 4380000   0.53731214   -7.7313016      825.523  0.015706298  0.014253258         3441 
 4381000   0.56361722   -7.7389166    825.49429  0.015702166  0.014248195         3479 
 4382000   0.54673537   -7.7376992    826.37344  0.015715302  0.014243136         3456 
 4383000   0.53814514   -7.7326039    825.11039  0.015687702  0.014238084         3465 
 4384000   0.53836681    -7.739919    825.29126  0.015687562  0.014233037         3487 
 4385000    0.5445863    -7.701321    824.95004    0.0156775  0.014227987         3456 
 4386000   0.55085271   -7.7235243    827.17747  0.015716246  0.014222946         3500 
 4387000   0.55179466   -7.7234468     827.2756  0.015714528  0.014217903         3458 
 4388000   0.55712356   -7.7571084    824.75495  0.015663076  0.014212863         3483 
 4389000   0.54684914   -7.7371881    826.11254  0.015685284   0.01420782         3455 
 4390000   0.55669173   -7.7431525    824.82186  0.015657211  0.014202784         3461 
 4391000   0.55079748   -7.7339876    826.06518  0.015677241   0.01419775         3508 
 4392000   0.55097888    -7.742983     827.0467  0.015692295  0.014192722         3527 
 4393000   0.54332524   -7.7434131    824.10777  0.015632972  0.014187688         3527 
 4394000   0.55900839   -7.7381486    825.49583  0.015655739  0.014182657         3475 
 4395000   0.54464171   -7.7466063    823.77679  0.015619583   0.01417763         3473 
 4396000   0.53871194   -7.7424386     826.6468  0.015670435  0.014172606         3427 
 4397000   0.54560996   -7.7490158    825.73114  0.015649518  0.014167582         3453 
 4398000   0.55148272   -7.7245253    827.27468  0.015675206  0.014162558         3406 
 4399000   0.54566627   -7.7288258    825.87192  0.015645069  0.014157536         3452 
 4400000   0.55019475   -7.7464438    825.71665  0.015638573  0.014152511         3484 
 4401000   0.53993108   -7.7438344    825.22321  0.015625676  0.014147496         3492 
 4402000   0.53573711   -7.7532045    824.00414  0.015599048  0.014142486         3467 
 4403000   0.53741384   -7.7527811    825.73905  0.015628342  0.014137471         3471 
 4404000   0.54702306   -7.7386817    823.90595  0.015590107  0.014132463         3499 
 4405000   0.54325845   -7.7523382    825.81753  0.015622731  0.014127454         3491 
 4406000   0.55886917   -7.7394939    824.37864   0.01559197  0.014122444         3504 
 4407000   0.54869711   -7.7504086     826.1036   0.01562105  0.014117441         3510 
 4408000   0.54842801   -7.7516392    824.84524  0.015593717  0.014112436         3537 
 4409000   0.55257654   -7.7438473    824.61303  0.015585791  0.014107439         3491 
 4410000   0.54371864    -7.748291    826.41639  0.015616334  0.014102443         3410 
 4411000   0.54468141   -7.7368408    824.10938  0.015569209  0.014097443         3502 
 4412000   0.54386429    -7.768303    827.28816  0.015625721   0.01409245         3487 
 4413000   0.54021106   -7.7692182    824.76821  0.015574594  0.014087461         3547 
 4414000   0.54238187   -7.7356495    825.92959  0.015592992  0.014082473         3462 
 4415000   0.54998753   -7.7431433    824.50248  0.015562523   0.01407748         3539 
 4416000   0.55075214    -7.745012    825.93298  0.015585994  0.014072494         3499 
 4417000   0.54436493   -7.7503007    825.18859  0.015568421  0.014067503         3510 
 4418000   0.54542805    -7.752181    826.78103  0.015594934  0.014062524         3558 
 4419000   0.53828816   -7.7562294    824.34274  0.015545424  0.014057544         3496 
 4420000    0.5324304   -7.7523636    826.35128  0.015579775   0.01405256         3518 
 4421000   0.54724008   -7.7533157    824.89774  0.015548853  0.014047587         3501 
 4422000   0.55336234   -7.7353325    824.52017  0.015538221  0.014042614         3488 
 4423000   0.54869221   -7.7511003    824.88354  0.015541554  0.014037641         3569 
 4424000   0.53944479   -7.7474522     825.6087  0.015551701  0.014032669         3524 
 4425000   0.54153505   -7.7450066     826.4332  0.015563714  0.014027702         3525 
 4426000   0.55160022   -7.7610515    826.42299  0.015560005  0.014022735         3490 
 4427000      0.55478    -7.742099    824.81348  0.015526193  0.014017772         3539 
 4428000   0.54056919   -7.7293495    824.16364  0.015510457  0.014012814         3534 
 4429000   0.54223154   -7.7485337    826.23839  0.015545992  0.014007855         3513 
 4430000   0.54680463   -7.7631138    823.08538  0.015483171  0.014002896         3490 
 4431000   0.53033469   -7.7546757    825.44193  0.015523996  0.013997941         3517 
 4432000   0.53935332    -7.743616    824.61728  0.015504988  0.013992992         3506 
 4433000    0.5392499   -7.7548014    825.28443  0.015514032  0.013988046         3433 
 4434000   0.55461919    -7.721765    824.52798  0.015496316  0.013983099         3527 
 4435000   0.54230092   -7.7477161    824.34034  0.015489296   0.01397815         3548 
 4436000   0.53482153   -7.7457377    824.77159  0.015493906  0.013973201         3511 
 4437000   0.54584268   -7.7501395    825.42293  0.015502647  0.013968258         3521 
 4438000   0.54496642   -7.7503348    824.91277  0.015489574  0.013963319         3561 
 4439000   0.53672855    -7.762827    825.37978  0.015494852  0.013958389         3495 
 4440000   0.54226471   -7.7547686    824.90372  0.015482427  0.013953455         3431 
 4441000   0.54386949    -7.754484    826.51045  0.015509091  0.013948523         3513 
 4442000   0.54327492   -7.7639215    825.27779  0.015482474  0.013943593         3474 
 4443000    0.5407146   -7.7615206    826.43499  0.015500694  0.013938667         3512 
 4444000   0.54078598   -7.7574622    824.06003  0.015452671  0.013933744         3509 
 4445000   0.54122755   -7.7683323    825.61438  0.015478335  0.013928821         3547 
 4446000   0.53795892   -7.7645716    824.52056  0.015454351  0.013923893         3535 
 4447000   0.54640973   -7.7613066    823.74677  0.015436376  0.013918975         3542 
 4448000   0.53448044   -7.7420218    825.22395  0.015460581  0.013914056         3505 
 4449000   0.53895804   -7.7517883    823.10247  0.015417368  0.013909136         3545 
 4450000   0.54730132   -7.7596288    825.47935  0.015458415  0.013904223         3514 
 4451000   0.53273095   -7.7492955    826.32288  0.015470735  0.013899318         3517 
 4452000   0.54351512   -7.7541725    824.71144  0.015437096  0.013894406         3566 
 4453000   0.54062176   -7.7576247     825.9959  0.015457667  0.013889495         3544 
 4454000   0.54267775    -7.764965    824.66138  0.015429228   0.01388459         3528 
 4455000   0.52498509   -7.7387486    825.05596  0.015433146  0.013879688         3484 
 4456000   0.53869363   -7.7701721    825.66319  0.015441038  0.013874784         3554 
 4457000   0.54749283   -7.7522283    824.64747  0.015418583  0.013869881         3494 
 4458000   0.53801486   -7.7531663    825.26442  0.015426657  0.013864983         3511 
 4459000   0.53900533   -7.7666761    823.33399  0.015387119  0.013860084         3504 
 4460000   0.54562288   -7.7488633    824.71948  0.015409557  0.013855184         3495 
 4461000   0.53240187   -7.7583543    825.43922  0.015419548   0.01385029         3532 
 4462000   0.54727787   -7.7573899    824.93451  0.015406666  0.013845401         3559 
 4463000   0.53468907   -7.7600578    827.11871  0.015443997  0.013840513         3470 
 4464000   0.54766554   -7.7756717    825.02454  0.015401444  0.013835629         3552 
 4465000   0.53104606   -7.7677462    823.87706  0.015376578  0.013830742         3521 
 4466000   0.54325144   -7.7466447     826.0672  0.015414002  0.013825857         3474 
 4467000   0.52935915   -7.7560482    825.29759  0.015396194  0.013820977         3515 
 4468000   0.54849408   -7.7558076    824.80807  0.015383618  0.013816095         3431 
 4469000   0.54205616   -7.7658585    823.53517   0.01535644  0.013811215         3530 
 4470000   0.53225255   -7.7481759    824.74455  0.015375551  0.013806342         3523 
 4471000   0.54398406   -7.7487267    824.68842  0.015371066  0.013801467         3535 
 4472000    0.5242456   -7.7590979    824.30551  0.015360493  0.013796596         3518 
 4473000   0.53769338   -7.7613683    825.62549  0.015381651  0.013791734         3547 
 4474000    0.5424941   -7.7408869    824.22816  0.015352186  0.013786869         3515 
 4475000   0.53744964   -7.7641806     826.4051  0.015389294  0.013782007         3534 
 4476000   0.53102244   -7.7625468    824.32274  0.015347087  0.013777142         3486 
 4477000   0.53777982     -7.76746    825.77797  0.015370746  0.013772286         3521 
 4478000   0.53867949   -7.7882226    824.97082  0.015352293  0.013767432         3463 
 4479000   0.53490059   -7.7667845    824.77134  0.015345154  0.013762577         3524 
 4480000   0.53471888   -7.7707054    824.73482  0.015341049  0.013757722         3488 
 4481000   0.54098936    -7.774392    824.04528  0.015324803  0.013752871         3532 
 4482000   0.53413513    -7.769096    824.22465  0.015324718  0.013748022         3506 
 4483000   0.52377905   -7.7788125    822.71095  0.015293162  0.013743174         3543 
 4484000   0.52080124    -7.754889    824.81382  0.015328832  0.013738327         3525 
 4485000    0.5404018   -7.7917068    824.07004  0.015311595  0.013733489         3494 
 4486000   0.52802187   -7.7786662    822.75081  0.015283675  0.013728648         3577 
 4487000   0.51980495   -7.7569843    825.28519  0.015327338  0.013723811         3504 
 4488000    0.5499245   -7.7708749    824.09387  0.015301802  0.013718973         3523 
 4489000   0.53285278   -7.7667497    823.58121  0.015288877  0.013714139         3537 
 4490000   0.52559397   -7.7798953    824.12107  0.015295491  0.013709308         3502 
 4491000   0.54135489   -7.7758855    824.38832  0.015297044  0.013704475         3586 
 4492000   0.55070455    -7.780034    822.84936  0.015265089  0.013699646         3584 
 4493000    0.5241103   -7.7647903    824.62629  0.015294649  0.013694817         3586 
 4494000   0.52838878   -7.7644603    824.77775  0.015294054  0.013689991         3516 
 4495000    0.5312755   -7.7725912    824.39929  0.015283635  0.013685171         3523 
 4496000   0.53887651   -7.7728232    825.31494  0.015297208  0.013680356         3499 
 4497000   0.54388746   -7.7643631    823.90866  0.015267746  0.013675539         3478 
 4498000    0.5346728    -7.776658    825.39376  0.015291866  0.013670721         3519 
 4499000   0.53942606   -7.7849205    823.60488  0.015255332  0.013665906         3589 
 4500000   0.52922835    -7.766785    823.75024  0.015254634  0.013661093         3545 
 4501000   0.54323652    -7.747885    824.49312  0.015264999  0.013656283         3514 
 4502000   0.53406706   -7.7570916    826.31233  0.015295282  0.013651472         3556 
 4503000   0.52391836   -7.7640199    823.30258  0.015236187  0.013646665         3522 
 4504000   0.53224113    -7.772581    824.64683  0.015257675  0.013641862         3575 
 4505000   0.52040664    -7.765202    823.41195  0.015231446   0.01363706         3533 
 4506000   0.52438218   -7.7899744    823.99316  0.015238814  0.013632253         3506 
 4507000   0.52871391   -7.7826969    824.56126  0.015245937  0.013627455         3527 
 4508000   0.54307456   -7.7697507    823.28436  0.015218951  0.013622658         3518 
 4509000   0.53498155   -7.7736888    824.83498  0.015244233  0.013617866         3492 
 4510000   0.53923279   -7.7670105     824.6003  0.015236517  0.013613071         3577 
 4511000    0.5370748     -7.76672     824.9636  0.015239851  0.013608278         3509 
 4512000   0.52159288   -7.7728066     823.7125  0.015213366  0.013603489         3556 
 4513000   0.53141452   -7.7800319    824.79749   0.01523003    0.0135987         3530 
 4514000   0.51888299   -7.7778507    823.36116   0.01520014  0.013593914         3565 
 4515000   0.52792577   -7.7757644    823.96456   0.01520791  0.013589136         3514 
 4516000   0.52391745   -7.7622393    825.80242  0.015238456  0.013584357         3527 
 4517000   0.53346114   -7.7632241     824.4761  0.015210614  0.013579581         3531 
 4518000   0.52778407   -7.7798295    823.99326  0.015198341  0.013574806         3556 
 4519000   0.51792756   -7.7733331    823.86144  0.015192547  0.013570034         3496 
 4520000   0.52645248    -7.781135    825.48905  0.015219193  0.013565263         3545 
 4521000   0.53787452   -7.7692253    823.54925  0.015180072  0.013560493         3483 
 4522000   0.53721927   -7.7882158    824.51255  0.015194467  0.013555728         3512 
 4523000   0.52993725   -7.7695639    824.73386  0.015195185  0.013550963         3546 
 4524000   0.53255402   -7.7674898    825.26033  0.015201524  0.013546201         3437 
 4525000   0.52300793   -7.7559942    824.18046  0.015178277  0.013541441         3514 
 4526000   0.52369761   -7.7568432    824.34372   0.01517793   0.01353668         3478 
 4527000   0.52302868    -7.782084    825.08068  0.015188143   0.01353192         3547 
 4528000   0.53215546   -7.7785557    824.17826  0.015168181  0.013527163         3455 
 4529000   0.53840155   -7.7726182    823.91114  0.015159916   0.01352241         3497 
 4530000   0.52369169   -7.7637403    825.01142  0.015176811  0.013517664         3496 
 4531000   0.50917254   -7.7797874    825.93226  0.015190397  0.013512916         3527 
 4532000   0.52100306   -7.7585592    825.22187  0.015173983  0.013508169         3525 
 4533000    0.5228375   -7.7930629    823.80787  0.015144641  0.013503424         3445 
 4534000   0.53760238   -7.7882421    824.07444    0.0151462  0.013498681         3521 
 4535000   0.52181231   -7.7678026    824.79241  0.015156053  0.013493946         3496 
 4536000   0.53489311     -7.76767    824.88465  0.015154406  0.013489204         3557 
 4537000   0.51757981   -7.7837271    823.99519  0.015134729  0.013484468         3547 
 4538000   0.52588624   -7.7707084    822.29756   0.01510022  0.013479732         3482 
 4539000   0.52447273   -7.7929386    822.58646  0.015102197  0.013474996         3525 
 4540000   0.52359521   -7.7841038    825.02968  0.015143717  0.013470267         3492 
 4541000   0.52719165   -7.7724514    823.98098  0.015121137  0.013465539         3511 
 4542000   0.52589465    -7.764951    823.53098  0.015109551  0.013460808         3517 
 4543000   0.52289278   -7.7913208    823.67655  0.015108896  0.013456078         3611 
 4544000   0.52794769    -7.770471    824.13342  0.015113949  0.013451361         3463 
 4545000   0.52792372   -7.7700462    823.69636   0.01510261   0.01344664         3527 
 4546000   0.52041751   -7.7866262    824.77505  0.015119062  0.013441918         3525 
 4547000   0.52791804   -7.7838724    823.35047  0.015089628  0.013437203         3483 
 4548000   0.52431411   -7.8073746    822.91198  0.015078276  0.013432492         3529 
 4549000   0.52658941   -7.7822557    822.41586  0.015065873  0.013427779         3523 
 4550000   0.52960895   -7.7816113    823.97405    0.0150911  0.013423071         3439 
 4551000   0.52267128   -7.7770172    823.71556  0.015083051  0.013418368         3544 
 4552000   0.52831786    -7.774811     823.3605  0.015073237  0.013413657         3517 
 4553000   0.53353978   -7.7813881    822.88146  0.015061159   0.01340895         3576 
 4554000   0.51290677    -7.791083    823.63288  0.015071602  0.013404248         3487 
 4555000   0.51701718   -7.7753389    823.94728  0.015074045  0.013399546         3473 
 4556000   0.52497545   -7.8002096    823.62036  0.015064756  0.013394849         3550 
 4557000   0.52652376   -7.7810766    821.92971  0.015030534  0.013390155         3501 
 4558000   0.51068745   -7.7709449    823.01049  0.015046996   0.01338546         3502 
 4559000   0.52897772   -7.7774441    824.03623  0.015062445  0.013380773         3558 
 4560000   0.52570747   -7.7792065    823.67714  0.015052579  0.013376082         3520 
 4561000      0.52175   -7.7956339     823.8638  0.015052689  0.013371392         3542 
 4562000   0.52315659   -7.7811618    824.44182  0.015059948  0.013366704         3477 
 4563000   0.51504806   -7.7878244    822.78773   0.01502644  0.013362019         3534 
 4564000   0.52448331   -7.7919322    823.70733  0.015039938  0.013357334         3554 
 4565000   0.52668607   -7.7830833    822.15836  0.015008367  0.013352655         3515 
 4566000   0.51650088   -7.7676438    822.55295  0.015012282  0.013347975         3570 
 4567000   0.51425738   -7.7885007     823.3981  0.015024416  0.013343295         3531 
 4568000   0.52952491   -7.7902581    823.78935  0.015028265  0.013338623         3612 
 4569000   0.51977284   -7.7819404    824.91488  0.015045504  0.013333951         3556 
 4570000   0.52043506   -7.7947784    824.62075  0.015036848  0.013329282         3540 
 4571000    0.5170339    -7.780131    823.14902  0.015006728  0.013324609         3539 
 4572000   0.51507745   -7.7854111    822.55002  0.014992527  0.013319943         3536 
 4573000   0.51591868   -7.7799579    821.96727   0.01497863   0.01331528         3544 
 4574000   0.51979481   -7.7928966    823.87322  0.015010079  0.013310623         3546 
 4575000    0.5232062   -7.7882251    822.94026  0.014989804  0.013305964         3529 
 4576000   0.51537767   -7.7895681    822.94843  0.014986677  0.013301309         3523 
 4577000    0.5411585   -7.8065395    823.65699  0.014996304  0.013296648         3572 
 4578000   0.53213125   -7.7696611    823.69104  0.014993648  0.013291992         3540 
 4579000   0.50540189   -7.7797763    824.00643  0.014996113  0.013287342         3565 
 4580000     0.517691   -7.7794597      824.525  0.015002274  0.013282691         3529 
 4581000   0.52534042   -7.7899376    823.71156  0.014984202  0.013278041         3520 
 4582000   0.52998067   -7.7902948    822.95252  0.014967127  0.013273392         3531 
 4583000   0.51209784   -7.7895644    822.34378  0.014952793  0.013268744         3598 
 4584000    0.5105769   -7.7870348    823.19951  0.014965087  0.013264103         3521 
 4585000   0.51339264   -7.7987049    822.64971   0.01495183  0.013259464         3499 
 4586000   0.52268335   -7.7736353     824.7023  0.014985868   0.01325483         3589 
 4587000   0.51900114   -7.7849836    823.97293  0.014969351  0.013250191         3625 
 4588000   0.52615565   -7.7990664    823.83514  0.014963585  0.013245556         3561 
 4589000   0.52533105   -7.7969747    824.07046  0.014964598  0.013240926         3533 
 4590000   0.51526732   -7.7985268    823.43043  0.014949717  0.013236296         3600 
 4591000   0.52385569   -7.8012642     822.7173  0.014933517  0.013231671         3565 
 4592000   0.51594503   -7.7952001    824.22198  0.014957571  0.013227042         3543 
 4593000   0.51837584   -7.7872151    823.81724  0.014946971  0.013222421         3499 
 4594000   0.52450503   -7.8156008    823.86775  0.014944633  0.013217799         3552 
 4595000   0.51998483   -7.7834081    823.63907  0.014937234  0.013213182         3569 
 4596000   0.51596417   -7.8006643    823.10757  0.014924347  0.013208564         3581 
 4597000   0.51558531   -7.7967306    823.62738  0.014930523  0.013203945         3575 
 4598000   0.51668648   -7.8005639    822.44188   0.01490579  0.013199326         3540 
 4599000   0.51925119   -7.7806368    824.13503  0.014933229  0.013194715         3572 
 4600000   0.52356092   -7.7807697     822.0426  0.014892076  0.013190101         3534 
 4601000   0.51807917   -7.7881302    822.86756  0.014903781  0.013185489         3599 
 4602000   0.51106418   -7.7979715    822.96381  0.014902286  0.013180881         3563 
 4603000   0.51228974   -7.7827649    823.46454  0.014908113  0.013176275         3564 
 4604000   0.50622085   -7.7776961    821.73906  0.014873644  0.013171675         3522 
 4605000   0.52169196   -7.7917723    822.73722  0.014888477  0.013167071         3550 
 4606000   0.51466724   -7.7965554    824.21309  0.014911946  0.013162469         3512 
 4607000   0.50734907    -7.812335    823.55938  0.014896885  0.013157869         3591 
 4608000   0.51873277   -7.8189718    823.32532  0.014889419  0.013153276         3587 
 4609000   0.51984222   -7.7848177    823.36017  0.014886819  0.013148684         3563 
 4610000   0.51765859   -7.7775675     824.2766  0.014900155  0.013144091         3480 
 4611000   0.50972267   -7.7925803    823.23192  0.014878044  0.013139502         3522 
 4612000   0.51036524    -7.797121     823.3814  0.014877519  0.013134913         3543 
 4613000   0.52074257   -7.8052305    821.29028  0.014836518   0.01313033         3596 
 4614000   0.50245889   -7.7911112    822.27201  0.014851033  0.013125746         3541 
 4615000    0.5105867   -7.8040828    822.14774  0.014845571  0.013121166         3611 
 4616000   0.50812777    -7.802016    822.95439  0.014856918  0.013116587         3557 
 4617000   0.51270468    -7.793002    822.06727  0.014837688  0.013112009         3534 
 4618000   0.50672195   -7.7967688     823.6715  0.014863424  0.013107435         3581 
 4619000   0.51681331   -7.8247104    821.48728    0.0148208  0.013102858         3556 
 4620000   0.51535717   -7.8108628    822.95072  0.014843988  0.013098285         3535 
 4621000   0.51578856   -7.7931303    822.39778  0.014830805  0.013093714         3586 
 4622000   0.51640745   -7.7745341    822.91907  0.014836995  0.013089146         3490 
 4623000    0.5106201   -7.7868173    822.93368  0.014834049  0.013084585         3539 
 4624000   0.51420183   -7.7951935     823.4208  0.014839619  0.013080017         3598 
 4625000   0.50567132    -7.806356    822.89099  0.014826865  0.013075454         3597 
 4626000   0.51364001   -7.8111957    821.71166  0.014802415  0.013070893         3513 
 4627000   0.50708871    -7.809425    822.68195  0.014816691  0.013066336         3533 
 4628000   0.50087645   -7.7998788    823.04976  0.014820112  0.013061782         3594 
 4629000   0.51455616   -7.7992062    823.32294  0.014821829  0.013057229         3546 
 4630000   0.52426058    -7.806585    823.60963  0.014823787  0.013052679         3505 
 4631000   0.50565055   -7.8093651    822.68523  0.014803952   0.01304813         3592 
 4632000   0.51340274   -7.7985163      821.934  0.014787241  0.013043586         3551 
 4633000   0.51395214   -7.7980364    822.54415  0.014795024  0.013039041         3580 
 4634000   0.50547263   -7.8004537    823.64622   0.01481165  0.013034495         3549 
 4635000   0.50777662   -7.8200439    822.64788  0.014790505  0.013029954         3530 
 4636000   0.50986537   -7.8053509    823.74064  0.014806957  0.013025416         3550 
 4637000     0.515476   -7.8169967    821.81247  0.014769112  0.013020881         3582 
 4638000   0.51071413   -7.8025523    823.05614  0.014788273  0.013016344         3509 
 4639000   0.50677242   -7.8021608    822.53311   0.01477569  0.013011815         3524 
 4640000   0.51866464   -7.7910985    823.24056  0.014785211  0.013007281         3561 
 4641000   0.50957024   -7.8053816    822.28869  0.014764934  0.013002754         3575 
 4642000   0.50470023   -7.8042151    821.79574  0.014752904  0.012998226         3563 
 4643000   0.49904142   -7.8157154    821.73538  0.014748643  0.012993698         3595 
 4644000   0.51015072   -7.8063156    824.17225  0.014789195  0.012989177         3561 
 4645000   0.50869989   -7.8162799    822.43336  0.014754815  0.012984658         3518 
 4646000   0.50390615   -7.7915611    821.32449  0.014731749  0.012980139         3577 
 4647000   0.50363841   -7.8080422    822.15686  0.014743506  0.012975619         3540 
 4648000   0.50631901   -7.8084604    822.05907   0.01473858  0.012971106         3543 
 4649000   0.51605328   -7.8058633      820.686  0.014710798  0.012966594         3524 
 4650000   0.51023294   -7.8067047    823.16279  0.014752021  0.012962084         3567 
 4651000   0.50497317   -7.7992191    823.69296  0.014758349  0.012957572         3562 
 4652000   0.49971625   -7.8003388    821.99442   0.01472475  0.012953061         3530 
 4653000   0.51950577   -7.8096838    822.23317  0.014725861  0.012948555         3566 
 4654000   0.50559688   -7.8012961    821.86778  0.014716154  0.012944047         3526 
 4655000   0.49617735   -7.8019859    823.12203  0.014735446   0.01293955         3514 
 4656000   0.50805711    -7.793645    821.93276  0.014710996  0.012935052         3577 
 4657000   0.50578262   -7.8087992    823.06836  0.014728158  0.012930557         3599 
 4658000   0.49129065   -7.8069855    822.23635  0.014710111  0.012926059         3573 
 4659000   0.51876751   -7.8086017    822.87262  0.014718334  0.012921562         3519 
 4660000   0.50460384   -7.8047724    822.45471  0.014707702  0.012917069         3551 
 4661000   0.48962646   -7.8171416    820.63983  0.014672099  0.012912581         3589 
 4662000   0.49643998   -7.8068832    822.01103  0.014693462  0.012908091         3570 
 4663000   0.50346914   -7.7948456    822.61061  0.014701026  0.012903603         3562 
 4664000   0.49679359   -7.8063319    822.38909  0.014693916  0.012899115         3546 
 4665000   0.49002509   -7.7967908    823.45642  0.014709832  0.012894631         3567 
 4666000   0.50240913   -7.7951821     823.2206  0.014702468  0.012890154         3491 
 4667000   0.49940327   -7.8159349    821.71152  0.014672372  0.012885673         3600 
 4668000   0.49705365   -7.8094331    822.65234  0.014686024  0.012881199         3535 
 4669000   0.49958339   -7.7912163    822.16615  0.014674201  0.012876725         3535 
 4670000   0.49818436   -7.8070082    821.71303  0.014662973  0.012872253         3541 
 4671000   0.50985208   -7.8027282    821.33777  0.014653139   0.01286778         3539 
 4672000   0.51604328   -7.8108748    822.53088  0.014671284  0.012863306         3545 
 4673000   0.49532554   -7.7928921    822.59142  0.014669224  0.012858842         3565 
 4674000   0.50336004   -7.8200325    821.65031  0.014649307  0.012854377         3545 
 4675000   0.50259089   -7.8209469    823.38889  0.014677164  0.012849915         3574 
 4676000    0.4955414   -7.8196905    822.30072  0.014654632  0.012845453         3525 
 4677000   0.50252887   -7.8017045    823.01423  0.014664212  0.012840993         3523 
 4678000   0.50609952   -7.8152028    820.69946  0.014619842  0.012836536         3573 
 4679000   0.49582422   -7.8157691       821.24  0.014626345   0.01283208         3535 
 4680000   0.50154154   -7.7989264    822.56829  0.014646871  0.012827626         3503 
 4681000   0.50553261   -7.8081096    821.14195   0.01461835  0.012823173         3542 
 4682000   0.50017425   -7.8143226    822.30169  0.014635869  0.012818723         3573 
 4683000   0.50490765   -7.8172393    821.79219  0.014623678  0.012814275         3562 
 4684000   0.51149181   -7.8125345     821.4162  0.014613866  0.012809831         3587 
 4685000   0.49987119    -7.826929     821.7398  0.014616503  0.012805389         3620 
 4686000   0.49948408   -7.8000467    822.25227  0.014622497  0.012800945         3595 
 4687000   0.50159607   -7.8260991     821.8826  0.014612805  0.012796507         3580 
 4688000   0.48824289   -7.7949496    821.45279  0.014602048  0.012792068         3551 
 4689000   0.49717653   -7.8017312    823.15894  0.014629255  0.012787632         3578 
 4690000   0.51636966   -7.8176703    822.98475  0.014623041  0.012783196         3564 
 4691000   0.49698092   -7.8084193    822.55569  0.014612302  0.012778764         3592 
 4692000   0.49822452   -7.8137477    821.98197  0.014598998   0.01277433         3564 
 4693000   0.49362151   -7.8191582    821.77698  0.014592247  0.012769903         3536 
 4694000   0.49901485   -7.8248996    821.94087  0.014592048  0.012765478         3548 
 4695000   0.49059235   -7.8078232    822.18235  0.014593226  0.012761056         3545 
 4696000   0.50569882   -7.8274487    820.97998  0.014568782  0.012756636         3553 
 4697000   0.48930126   -7.8165032    822.98003  0.014601164  0.012752218         3567 
 4698000   0.50423715   -7.8105211    822.34633  0.014586816  0.012747799         3497 
 4699000   0.49998137   -7.8201085       821.96   0.01457686  0.012743384         3527 
 4700000   0.50406136   -7.7903808    822.15763  0.014577263   0.01273897         3560 
 4701000    0.5035877   -7.8087319    822.92082  0.014587691   0.01273456         3561 
 4702000   0.49886844   -7.8168314    821.06708  0.014551735   0.01273015         3543 
 4703000   0.50137232   -7.8243969    820.32805  0.014535546  0.012725739         3578 
 4704000   0.50491002   -7.8318542    822.43715  0.014569819  0.012721334         3508 
 4705000   0.50396932   -7.8124844    822.05896  0.014560024  0.012716934         3578 
 4706000   0.49528171   -7.8122913     822.1783  0.014559043  0.012712533         3571 
 4707000   0.49785181   -7.8143295    821.24496  0.014539426  0.012708135         3551 
 4708000   0.49887021   -7.8113538    822.00766  0.014549838  0.012703739         3550 
 4709000   0.50494069   -7.8179141    821.31112  0.014534422   0.01269934         3583 
 4710000   0.49683662    -7.819226    822.82163  0.014558061  0.012694947         3569 
 4711000   0.50001905   -7.8253469    820.84242  0.014519961  0.012690551         3608 
 4712000   0.50089975   -7.8224117    822.37294  0.014543947  0.012686164         3534 
 4713000   0.49950233   -7.8380425    821.48821  0.014525218  0.012681769         3583 
 4714000   0.50313421   -7.8097545    822.39838  0.014538226  0.012677384         3594 
 4715000   0.50097029   -7.8183254    821.88775  0.014526118  0.012672998         3576 
 4716000   0.49925074   -7.8216932      821.834  0.014522088  0.012668615         3544 
 4717000   0.49938773   -7.8204005    821.89142  0.014520024  0.012664238         3542 
 4718000   0.48818539   -7.8210666    821.10909  0.014503128  0.012659855         3578 
 4719000   0.50655891   -7.8293587    821.42527  0.014505638  0.012655477         3593 
 4720000   0.50031709   -7.8308778     821.0495   0.01449593  0.012651104         3534 
 4721000   0.48926646   -7.8348919    822.08317  0.014511106  0.012646729         3578 
 4722000   0.49229444   -7.8061513    822.12026  0.014508687  0.012642362         3570 
 4723000    0.4880595   -7.8083959     822.7035  0.014515906  0.012637988         3534 
 4724000    0.4920763   -7.8239069    822.08234  0.014501876  0.012633618         3606 
 4725000   0.49900356   -7.8217078    820.97948  0.014479356  0.012629251         3563 
 4726000   0.48827205   -7.8167544     821.7755  0.014490328  0.012624884         3575 
 4727000   0.49835058   -7.8265847    822.31011  0.014496688  0.012620524         3580 
 4728000   0.49358893   -7.8283838    820.93099  0.014469314   0.01261616         3613 
 4729000   0.48904321   -7.8072808    821.75447  0.014480765    0.0126118         3607 
 4730000   0.49019605   -7.8286161    821.61281  0.014475208  0.012607443         3511 
 4731000   0.49919086   -7.8133464    820.78259  0.014457525  0.012603087         3600 
 4732000    0.5003769   -7.8265149    821.73009  0.014471155  0.012598735         3557 
 4733000   0.50174025    -7.812926    821.10943   0.01445717   0.01259438         3608 
 4734000   0.50622958   -7.8251444    820.83349  0.014449259  0.012590031         3558 
 4735000   0.49152439    -7.823756    821.80103  0.014463235  0.012585683         3519 
 4736000   0.50185123   -7.8161307    820.36916  0.014434987  0.012581337         3573 
 4737000   0.48995634   -7.8165605    822.94145  0.014477191  0.012576992         3558 
 4738000   0.49159585   -7.8154214    822.36299  0.014463961  0.012572645         3601 
 4739000   0.49371766   -7.8369853    820.75314  0.014432601  0.012568301         3544 
 4740000   0.49505665   -7.8335031    820.58747  0.014426643  0.012563962         3576 
 4741000   0.48819466   -7.8298586    821.65814   0.01444242  0.012559628         3550 
 4742000   0.48027029     -7.82399    820.79487  0.014424203  0.012555293         3571 
 4743000   0.49017616   -7.8268511    820.40718  0.014414351  0.012550959         3616 
 4744000   0.49736294   -7.8285847    821.67953  0.014433662  0.012546631         3583 
 4745000   0.50663909   -7.8428132    820.61814   0.01441198  0.012542302         3596 
 4746000   0.48433003   -7.8157491    822.09216  0.014434825  0.012537969         3540 
 4747000    0.4870755   -7.8239765    820.74153  0.014408074  0.012533642         3554 
 4748000   0.49322142   -7.8213657    822.16452  0.014430015  0.012529317         3510 
 4749000   0.47956565   -7.8254814    820.88937    0.0144046  0.012524996         3565 
 4750000   0.48453285   -7.8364073    820.67152  0.014397746  0.012520679         3554 
 4751000   0.49559936   -7.8273355    820.82267  0.014397367  0.012516361         3587 
 4752000   0.47442509   -7.8281179    822.39547  0.014421918  0.012512043         3548 
 4753000   0.49286014   -7.8301691    820.90007  0.014392666  0.012507732         3545 
 4754000   0.49518423   -7.8427839    822.52111  0.014418053  0.012503419         3540 
 4755000   0.48883137   -7.8289958    821.20434  0.014391944  0.012499107         3597 
 4756000   0.48242633   -7.8255173     820.2234   0.01437173  0.012494796         3593 
 4757000   0.49160773   -7.8393966    821.46605  0.014390478  0.012490486         3611 
 4758000   0.48788591   -7.8230329    821.18348  0.014382505  0.012486181         3563 
 4759000   0.49754378   -7.8260345    820.86981   0.01437399  0.012481875         3561 
 4760000   0.48371404   -7.8296958    821.05691  0.014374246  0.012477573         3582 
 4761000   0.49387525   -7.8182614    821.92145  0.014386359  0.012473271         3583 
 4762000   0.49182263   -7.8366907    822.19881  0.014388191  0.012468974         3611 
 4763000    0.4860307   -7.8545192    821.10559  0.014366044  0.012464677         3559 
 4764000   0.48921158   -7.8411671    821.64986  0.014372549  0.012460385         3550 
 4765000   0.49752202   -7.8290245     821.8151  0.014372422  0.012456091         3544 
 4766000   0.48153987   -7.8502403    821.16028  0.014357957  0.012451799         3582 
 4767000    0.4987002   -7.8183703    821.31111  0.014357582  0.012447514         3555 
 4768000   0.48447212   -7.8194453    821.66218  0.014360706   0.01244323         3554 
 4769000   0.48893181   -7.8339705    820.24827  0.014332989  0.012438949         3567 
 4770000   0.48211928   -7.8378157    821.53272  0.014352423  0.012434666         3602 
 4771000   0.49226661   -7.8362342    821.44125  0.014347818  0.012430386         3551 
 4772000   0.48019571   -7.8459004    821.68006  0.014348981  0.012426108         3563 
 4773000   0.49105303   -7.8273532    821.02218  0.014334489  0.012421827         3553 
 4774000   0.49251643   -7.8332911    820.93516  0.014329967  0.012417549         3556 
 4775000   0.48774925    -7.847491    822.00223  0.014345589  0.012413275         3571 
 4776000    0.4903944   -7.8404109    820.04449  0.014308426  0.012409001         3598 
 4777000   0.49531765   -7.8296869    820.60091  0.014315137  0.012404729         3593 
 4778000   0.48398006     -7.82952    820.52692   0.01431085  0.012400457         3543 
 4779000   0.48539999   -7.8560063    820.32702   0.01430437  0.012396189         3583 
 4780000   0.50059177   -7.8356897    819.39635  0.014285153  0.012391924         3555 
 4781000   0.48102171   -7.8379647    820.27459  0.014297472  0.012387659         3575 
 4782000   0.49079997    -7.837967    821.09022  0.014308696  0.012383397         3551 
 4783000   0.47875285   -7.8550596    821.61108  0.014314779  0.012379137         3594 
 4784000   0.48984858    -7.855531    819.48779  0.014274801  0.012374877         3623 
 4785000   0.48300388   -7.8359249      820.507  0.014289568  0.012370617         3591 
 4786000   0.47738941   -7.8273887    820.88315  0.014293132  0.012366361         3539 
 4787000   0.49323212   -7.8466672    820.09756   0.01427647  0.012362103         3559 
 4788000    0.4911106   -7.8521291    820.96054  0.014288508  0.012357851         3571 
 4789000   0.48345906    -7.843433    821.87213  0.014301387  0.012353603         3590 
 4790000   0.49039988   -7.8391767     822.0989  0.014302347  0.012349351         3570 
 4791000   0.49020528   -7.8475052    820.07442  0.014264148  0.012345103         3590 
 4792000   0.47922279   -7.8479218    820.45455  0.014267782  0.012340857         3598 
 4793000   0.47861716   -7.8336515    821.16484  0.014277155  0.012336616         3561 
 4794000   0.48182329   -7.8256938    820.17418  0.014256956  0.012332373         3598 
 4795000   0.49188068   -7.8385303    821.66845  0.014279952  0.012328131         3612 
 4796000    0.4915076   -7.8428423    820.63068  0.014258943  0.012323895         3534 
 4797000   0.49259535   -7.8506982    820.49726  0.014253653   0.01231966         3594 
 4798000   0.47675706    -7.845918    821.64371  0.014270594  0.012315429         3586 
 4799000   0.48559482   -7.8377043    820.68924  0.014251046  0.012311196         3560 
 4800000   0.49393177   -7.8435216    821.15117  0.014256097  0.012306964         3597 
 4801000   0.48041576   -7.8320662    820.45465  0.014241037  0.012302733         3617 
 4802000   0.47669568   -7.8543761    820.22728  0.014234126  0.012298507         3581 
 4803000   0.48985659   -7.8448931     820.1737  0.014230233  0.012294283         3588 
 4804000    0.4673727   -7.8309199    821.53404  0.014250868   0.01229006         3609 
 4805000   0.48207245   -7.8274523    820.41087  0.014228423  0.012285842         3567 
 4806000   0.48528642   -7.8424158    820.41307  0.014225501  0.012281622         3588 
 4807000   0.48999635   -7.8545003    820.76424  0.014228629  0.012277405         3560 
 4808000    0.4846234   -7.8435594    821.74713  0.014242705  0.012273187         3529 
 4809000    0.4884042   -7.8422243    821.42206  0.014234111  0.012268973         3583 
 4810000   0.47387175   -7.8395736    821.94325  0.014240181  0.012264761         3585 
 4811000   0.48072952   -7.8464249    820.11708  0.014205589  0.012260553         3570 
 4812000   0.48773874   -7.8476661    821.48572  0.014226339  0.012256346         3530 
 4813000   0.48639707   -7.8583392    821.37234   0.01422142  0.012252139         3599 
 4814000   0.47573796   -7.8563416    819.03669  0.014178034  0.012247932         3582 
 4815000   0.48013321   -7.8375887    821.58705  0.014219229  0.012243728         3581 
 4816000   0.48639074   -7.8527837    821.70046  0.014218239  0.012239528         3618 
 4817000   0.48263809   -7.8394565    820.58038   0.01419591  0.012235328         3570 
 4818000   0.48247498   -7.8444858    821.06178   0.01420129   0.01223113         3557 
 4819000   0.47982317   -7.8221696    819.91024   0.01417843  0.012226935         3528 
 4820000   0.49123283   -7.8427066    820.59816  0.014187382  0.012222741         3591 
 4821000   0.47739122   -7.8462692    820.32939  0.014179793  0.012218554         3596 
 4822000   0.47894155   -7.8393799    820.53267  0.014180366  0.012214361         3578 
 4823000   0.46900707   -7.8508159     819.8155  0.014165034  0.012210173         3534 
 4824000   0.48402687   -7.8521371    819.97049  0.014164775  0.012205988         3570 
 4825000   0.47829961   -7.8292731     820.3161  0.014167808  0.012201806         3603 
 4826000   0.48878472    -7.864151    820.82998  0.014173746  0.012197626         3587 
 4827000   0.49477669   -7.8566197    820.08705  0.014157984  0.012193447         3610 
 4828000   0.48377283   -7.8606791    821.63867  0.014181833  0.012189268         3613 
 4829000   0.47308977   -7.8432768    819.61773  0.014144021  0.012185088         3531 
 4830000   0.47449797   -7.8553923    820.28312  0.014152573  0.012180914         3570 
 4831000   0.48282492   -7.8597026    819.60233    0.0141379  0.012176738         3575 
 4832000   0.48767407   -7.8649805    821.69331  0.014171035  0.012172564         3641 
 4833000   0.48536321   -7.8609209    820.67891  0.014150612  0.012168395         3652 
 4834000    0.4912943   -7.8417518    820.50448  0.014144678  0.012164226         3624 
 4835000   0.47434683   -7.8666936    821.05637  0.014151265   0.01216006         3562 
 4836000   0.47312914   -7.8493432    820.99023  0.014147199  0.012155895         3590 
 4837000   0.46686862   -7.8471312    820.90453  0.014142797   0.01215173         3585 
 4838000   0.48338721   -7.8416973    820.58279  0.014134332  0.012147568         3537 
 4839000   0.48153498   -7.8422762    820.14959  0.014123951  0.012143408         3580 
 4840000   0.47351869   -7.8496171    819.34852   0.01410724  0.012139249         3598 
 4841000   0.47084991   -7.8607667    821.94063  0.014148947  0.012135094         3613 
 4842000   0.47782045   -7.8524101    820.01621  0.014112905  0.012130938         3530 
 4843000   0.47549891   -7.8587853    819.90497  0.014108076  0.012126783         3609 
 4844000   0.47564824   -7.8466854    820.37641  0.014113274  0.012122632         3567 
 4845000   0.47440583   -7.8477743    820.10887   0.01410576  0.012118483         3591 
 4846000   0.46464466   -7.8441268    820.45239  0.014108756  0.012114338         3583 
 4847000   0.47550092   -7.8598333     819.9596  0.014097373  0.012110194         3621 
 4848000    0.4795039   -7.8530102     820.5324  0.014104311  0.012106049         3592 
 4849000   0.48305447   -7.8665266    820.79584   0.01410593  0.012101908         3610 
 4850000   0.46503881   -7.8507427    819.26004  0.014076633  0.012097769         3596 
 4851000   0.47445317   -7.8459043    820.94895  0.014102744  0.012093631         3529 
 4852000   0.47289677   -7.8437504    820.12724  0.014085725  0.012089497         3597 
 4853000   0.46662411   -7.8601985    820.03385  0.014081219  0.012085362         3626 
 4854000   0.47217293   -7.8587475    820.80172  0.014091501  0.012081227         3591 
 4855000   0.48066595   -7.8526638    820.70915  0.014087009  0.012077095         3610 
 4856000   0.48250346   -7.8432541    820.76838  0.014085125  0.012072969         3599 
 4857000   0.47264052   -7.8510015    820.56382  0.014078715  0.012068839         3583 
 4858000   0.47002426   -7.8500808    820.37589  0.014072593  0.012064718         3578 
 4859000   0.46356322   -7.8507549    818.56157  0.014038581  0.012060592         3583 
 4860000   0.46935097   -7.8669435    819.59442  0.014053402  0.012056472         3566 
 4861000    0.4807793   -7.8577286    820.17008   0.01406038  0.012052351         3604 
 4862000   0.46456817   -7.8592478    819.59284  0.014047594   0.01204823         3554 
 4863000    0.4779536   -7.8548473    819.71099   0.01404673  0.012044111         3548 
 4864000   0.47645536   -7.8439345    820.44008  0.014056334  0.012039999         3589 
 4865000    0.4785736   -7.8601194    819.71515  0.014041027  0.012035885         3543 
 4866000   0.48588525   -7.8659257    821.56469  0.014069816  0.012031774         3567 
 4867000   0.46944158   -7.8632881    820.24587  0.014044344  0.012027665         3632 
 4868000   0.48462896   -7.8712005    819.70613  0.014032219  0.012023557         3599 
 4869000   0.47174551   -7.8515449    819.17316  0.014020216   0.01201945         3589 
 4870000   0.48258219    -7.852873    819.26433  0.014018897  0.012015342         3546 
 4871000   0.46113805   -7.8605673     820.5272  0.014037624  0.012011244         3561 
 4872000   0.47063453   -7.8529143    819.64712  0.014019689  0.012007141         3550 
 4873000   0.46622604   -7.8644407    821.09332  0.014041544  0.012003043         3594 
 4874000   0.47893946   -7.8748159    818.95542   0.01400211  0.011998946         3571 
 4875000   0.47563856   -7.8490196    820.62664  0.014027806   0.01199485         3592 
 4876000   0.47045837   -7.8582702    819.89535  0.014012431  0.011990755         3577 
 4877000   0.47646187   -7.8588633    819.93684  0.014010267  0.011986663         3566 
 4878000   0.46412005   -7.8656624    819.68503  0.014003093   0.01198257         3571 
 4879000   0.47152083   -7.8611478    820.07122  0.014006819  0.011978477         3588 
 4880000   0.47099941    -7.873105      819.456  0.013993443  0.011974389         3588 
 4881000   0.46848694   -7.8573871    818.29751  0.013970797  0.011970306         3622 
 4882000   0.47208027   -7.8751434    819.42182  0.013987127  0.011966217         3583 
 4883000   0.47094163   -7.8621331    818.81434  0.013973895  0.011962134         3586 
 4884000   0.47381262   -7.8649704    819.73667  0.013986771  0.011958053         3592 
 4885000   0.47119297   -7.8519875    819.55672  0.013980838  0.011953977         3597 
 4886000    0.4631683   -7.8527907    820.05793  0.013986525  0.011949902         3611 
 4887000   0.47503468   -7.8683647    819.98149   0.01398236  0.011945828         3628 
 4888000   0.47493243   -7.8741053    819.33857  0.013968538  0.011941757         3575 
 4889000   0.46313629   -7.8620584    819.65793  0.013971124  0.011937687         3597 
 4890000   0.46220833    -7.866515    820.24015  0.013978189  0.011933615         3550 
 4891000    0.4637825    -7.846248    819.68852  0.013965933  0.011929545         3616 
 4892000   0.47015692   -7.8732329    818.33944  0.013940097  0.011925479         3600 
 4893000   0.47196297   -7.8587691    819.74972  0.013961267  0.011921416         3524 
 4894000   0.47174537   -7.8547416    818.79172  0.013942101  0.011917356         3581 
 4895000   0.47436821   -7.8619801     819.6912  0.013954566  0.011913294         3629 
 4896000   0.46840972   -7.8760476    821.11782  0.013975998  0.011909236         3575 
 4897000    0.4709664   -7.8726494    819.30773  0.013942341  0.011905179         3623 
 4898000   0.47115195   -7.8607264    818.68075  0.013928827  0.011901127         3599 
 4899000   0.46480549   -7.8617794    819.35698  0.013937487  0.011897067         3588 
 4900000   0.46853715   -7.8741945    819.72688  0.013940933  0.011893016         3566 
 4901000   0.46705232   -7.8703112    819.21902  0.013929453  0.011888963         3565 
 4902000   0.45574256   -7.8650447    819.66599   0.01393421  0.011884916         3614 
 4903000   0.46705624   -7.8692109    819.10918  0.013921905  0.011880865         3595 
 4904000   0.45771654   -7.8583364    818.17818  0.013903245  0.011876819         3564 
 4905000    0.4737918   -7.8613675    821.37872  0.013954786  0.011872778         3567 
 4906000   0.47223953   -7.8583359      818.688  0.013906237   0.01186874         3553 
 4907000   0.47253183   -7.8662066    819.44953  0.013916336    0.0118647         3602 
 4908000   0.46727279   -7.8631615    819.88991  0.013920978  0.011860662         3500 
 4909000   0.46809881   -7.8671166    818.92745  0.013901804  0.011856625         3553 
 4910000   0.46008183   -7.8600787     820.3311  0.013922795  0.011852591         3574 
 4911000   0.47210357    -7.877152    820.35886  0.013920431  0.011848557         3641 
 4912000   0.46303531   -7.8690493    819.26349  0.013899014  0.011844526         3578 
 4913000   0.46968661   -7.8790398    819.19934  0.013895097  0.011840495         3621 
 4914000   0.45686864   -7.8836062    819.69777  0.013900722  0.011836466         3544 
 4915000   0.47734991    -7.854781    820.07303  0.013904256  0.011832441         3635 
 4916000   0.46682854   -7.8732249    819.17461  0.013886198  0.011828419         3596 
 4917000   0.46297459   -7.8543157    818.83787  0.013877667  0.011824396         3560 
 4918000   0.47418619   -7.8647871    819.45874  0.013885366  0.011820376         3581 
 4919000   0.46404708   -7.8622539     818.2652  0.013862323  0.011816358         3583 
 4920000   0.47259567   -7.8639038    819.25869  0.013876333  0.011812343         3557 
 4921000   0.46666116   -7.8655267    819.43071  0.013876426  0.011808327         3547 
 4922000   0.46739655   -7.8753361    819.31021  0.013871567  0.011804315         3627 
 4923000   0.46027113   -7.8771892    820.15222  0.013883002  0.011800306         3570 
 4924000    0.4648469   -7.8822834    818.08061  0.013845123  0.011796298         3583 
 4925000   0.44407687   -7.8753783    819.09666  0.013859504  0.011792291         3623 
 4926000    0.4530762   -7.8755333    820.46293  0.013879803  0.011788287         3606 
 4927000   0.46496021   -7.8658772    818.24548  0.013839481  0.011784283         3609 
 4928000   0.46687924   -7.8656404    819.36596   0.01385562  0.011780281         3599 
 4929000   0.46304132   -7.8633286    819.22208  0.013850377   0.01177628         3559 
 4930000   0.46188311   -7.8694464    819.60848  0.013854099   0.01177228         3562 
 4931000   0.45582548   -7.8642581    819.78007  0.013854189  0.011768285         3598 
 4932000    0.4566537   -7.8790887    816.70218  0.013799375   0.01176429         3593 
 4933000   0.46487569   -7.8706056    818.94255  0.013834424  0.011760297         3587 
 4934000   0.46329605   -7.8701798    818.91824  0.013831209  0.011756305         3597 
 4935000    0.4623396   -7.8868576    817.96594  0.013812326  0.011752313         3536 
 4936000   0.45296851   -7.8879478    818.41922   0.01381718  0.011748321         3576 
 4937000   0.45834929   -7.8529457    821.02559  0.013858375  0.011744335         3561 
 4938000    0.4707833   -7.8684786    818.56131  0.013813982  0.011740351         3586 
 4939000   0.46691859   -7.8773578    819.85231  0.013832967  0.011736366         3530 
 4940000   0.46706808    -7.874051    819.67319  0.013827146  0.011732384         3577 
 4941000   0.45411538   -7.8923457    818.98035  0.013812662  0.011728403         3607 
 4942000   0.46655825   -7.8773906    818.48016  0.013801433  0.011724423         3566 
 4943000   0.45479249   -7.8866573    818.97945  0.013807058  0.011720446         3526 
 4944000   0.45437853   -7.8630017    819.59627  0.013814662   0.01171647         3607 
 4945000   0.46431804    -7.878103    817.81461  0.013781844  0.011712497         3541 
 4946000   0.45529164    -7.880811    817.96168  0.013781535  0.011708525         3591 
 4947000   0.46195194   -7.8696792    818.87134  0.013794073  0.011704555         3592 
 4948000   0.44934113   -7.8782532    818.91271  0.013791982  0.011700587         3617 
 4949000   0.47014716   -7.8762586    820.07425  0.013808753   0.01169662         3544 
 4950000   0.45422338   -7.8812195    819.82296  0.013801733  0.011692656         3583 
 4951000   0.46622007   -7.8560188    817.41569  0.013758427  0.011688694         3537 
 4952000   0.46080166   -7.8745437     818.3644  0.013771614  0.011684733         3566 
 4953000   0.46731881   -7.8769679    818.78971  0.013775989  0.011680777         3526 
 4954000   0.45919701   -7.8772744    818.51966  0.013768666   0.01167682         3525 
 4955000   0.45821961   -7.8871275    818.26031  0.013761526  0.011672863         3580 
 4956000   0.46427164   -7.8846397    818.54793  0.013763585  0.011668908         3546 
 4957000   0.44870912   -7.8679961    818.01723  0.013751887  0.011664955         3541 
 4958000   0.46047456   -7.9000715    818.47368  0.013756785  0.011661008         3588 
 4959000   0.46443164   -7.8714232    819.85084  0.013777153  0.011657059         3522 
 4960000    0.4562248   -7.8826756    818.79013  0.013756555   0.01165311         3565 
 4961000   0.45849757   -7.8577595    820.92182  0.013789589  0.011649169         3561 
 4962000   0.46029144   -7.8897412    818.53358  0.013746701  0.011645225         3565 
 4963000   0.45896065   -7.8866446     818.7219  0.013747093  0.011641283         3594 
 4964000   0.46157943   -7.8739989    817.80374  0.013728911  0.011637342         3570 
 4965000   0.46188565   -7.8750949    818.74011  0.013741862  0.011633402         3607 
 4966000   0.46282534   -7.8853283    819.24954  0.013747643  0.011629466         3563 
 4967000   0.46098376    -7.880192    819.29391   0.01374562  0.011625533         3581 
 4968000   0.45248908   -7.8819911    818.73837  0.013733534  0.011621596         3571 
 4969000   0.45705741   -7.8904613    819.71151  0.013747091  0.011617661         3613 
 4970000    0.4639268   -7.8846156    817.21991  0.013702547  0.011613731         3608 
 4971000   0.46030057   -7.8746619     819.2975  0.013734619  0.011609801         3571 
 4972000   0.45410665   -7.8919288    818.14559   0.01371255  0.011605871         3627 
 4973000   0.45606604   -7.8862231    820.23563  0.013744816  0.011601944         3609 
 4974000   0.45264471   -7.8908645    817.58568  0.013697656  0.011598018         3597 
 4975000   0.44680173   -7.8741265    819.47815  0.013726602  0.011594094         3598 
 4976000   0.44981409   -7.8781282    819.00223  0.013715873  0.011590174         3574 
 4977000   0.45438051   -7.8841995    818.33721  0.013701983  0.011586257         3597 
 4978000   0.44151916   -7.8749199    820.13816  0.013729379   0.01158234         3582 
 4979000   0.45784241   -7.8901614    817.84998  0.013688324  0.011578423         3608 
 4980000   0.45533348   -7.8825795    818.44348  0.013695507   0.01157451         3561 
 4981000   0.45026171   -7.8877677     818.7548  0.013697966  0.011570596         3549 
 4982000   0.45820904   -7.8815208    819.03392  0.013699885   0.01156669         3578 
 4983000   0.44484047   -7.8734478     818.7359  0.013692152  0.011562782         3611 
 4984000   0.46063814   -7.8590879     820.2537  0.013714782  0.011558874         3525 
 4985000   0.45417057   -7.8994914    818.01429  0.013674595  0.011554969         3638 
 4986000   0.45134089   -7.8850539    818.31788  0.013676927  0.011551063         3633 
 4987000   0.45462534   -7.8799278    818.26787  0.013673349  0.011547162         3597 
 4988000   0.45578801   -7.8832046    816.91922  0.013648076  0.011543261         3576 
 4989000   0.46233774   -7.9051195    819.32647  0.013685549  0.011539359         3624 
 4990000   0.44778652   -7.8934542    818.94515  0.013676439  0.011535461         3606 
 4991000   0.43979066   -7.8895101    819.20622  0.013678058  0.011531567         3609 
 4992000   0.45647323   -7.8753829    818.67328  0.013666421  0.011527672         3543 
 4993000   0.44753974   -7.8856583    818.16293  0.013655166  0.011523781         3611 
 4994000   0.44768156    -7.876807    817.73218  0.013645244  0.011519887         3583 
 4995000   0.45532608   -7.9025231    818.30173  0.013652014  0.011515999         3600 
 4996000   0.45418744   -7.9054205    819.32286  0.013666314  0.011512111         3582 
 4997000   0.46524918   -7.8865221    818.50643  0.013649964  0.011508227         3606 
 4998000   0.44579091   -7.8789825    817.56711  0.013631571  0.011504344         3617 
 4999000   0.44015361   -7.8827691    818.68406  0.013647464  0.011500462         3596 
 5000000   0.44999519   -7.8867304    818.28579  0.013638097  0.011496582         3574 
 5001000   0.45226157    -7.900049      818.468  0.013638406  0.011492703         3612 
 5002000   0.45511677   -7.8809482    818.87322   0.01364243  0.011488829         3578 
 5003000   0.46148019   -7.8910335    818.29957  0.013630148  0.011484956         3574 
 5004000   0.45304506    -7.892248    817.03358  0.013606341  0.011481083         3552 
 5005000   0.44706584   -7.8848256    819.38028  0.013642695  0.011477212         3541 
 5006000   0.44646397   -7.8930209    819.16884   0.01363645  0.011473339         3571 
 5007000   0.44213268   -7.9014401     817.5297  0.013606446   0.01146947         3575 
 5008000   0.46850176   -7.9014485    817.53345  0.013603791  0.011465604         3609 
 5009000   0.44729452   -7.8976484    818.17389   0.01361173  0.011461737         3579 
 5010000   0.45022596   -7.8973563    818.68654  0.013617541  0.011457871         3589 
 5011000   0.44829836   -7.8881988    819.33118  0.013625544  0.011454006         3580 
 5012000   0.45532058   -7.8951703    819.42679  0.013624415  0.011450147         3580 
Loop time of 13022 on 48 procs for 5000000 steps with 4000 atoms

Performance: 66349.175 tau/day, 383.965 timesteps/s
99.4% CPU use with 48 MPI tasks x no OpenMP threads

MPI task timing breakdown:
Section |  min time  |  avg time  |  max time  |%varavg| %total
---------------------------------------------------------------
Pair    | 964.69     | 1044.5     | 1120.1     | 138.9 |  8.02
Neigh   | 92.098     | 95.293     | 99.212     |  18.9 |  0.73
Comm    | 848.24     | 917.35     | 997.96     | 146.1 |  7.04
Output  | 17         | 17.004     | 17.101     |   0.3 |  0.13
Modify  | 10802      | 10829      | 10850      |  11.0 | 83.16
Other   |            | 119.3      |            |       |  0.92

Nlocal:        83.3333 ave          87 max          78 min
Histogram: 1 0 3 8 6 5 8 10 4 3
Nghost:        2444.10 ave        2457 max        2429 min
Histogram: 1 6 3 5 3 7 10 5 4 4
Neighs:        16972.5 ave       19008 max       14510 min
Histogram: 1 2 8 5 4 8 4 6 6 4
FullNghs:      33947.5 ave       35769 max       31579 min
Histogram: 1 0 3 10 5 5 9 9 3 3

Total # of neighbors = 1629482
Ave neighs/atom = 407.37050
Neighbor list builds = 267042
Dangerous builds = 0

#clear
#
#next RN
#
#jump SELF
Total wall time: 3:37:05
