
units lj                  # Use reduced LJ style units
atom_style atomic         # Uncharged point particles
atom_modify map hash      # Needed for indexing of clusters etc
                          # Used to be able to find where atoms are in relation to each other.

lattice fcc 1.0 spacing 1 1 1
Lattice spacing in x,y,z = 1.5874011 1.5874011 1.5874011
region box block 0 10 0 10 0 10 units lattice
create_box 2 box
Created orthogonal box = (0.0000000 0.0000000 0.0000000) to (15.874011 15.874011 15.874011)
  3 by 4 by 4 MPI processor grid
create_atoms 1 box
Created 4000 atoms
  using lattice units in orthogonal box = (0.0000000 0.0000000 0.0000000) to (15.874011 15.874011 15.874011)
  create_atoms CPU = 0.015 seconds
set type 1 type/fraction 2 0.08 78393
Setting atom values ...
  344 settings made for type/fraction
mass 1 1.0
mass 2 1.0
pair_style lj/cut  3.5
pair_modify tail  yes
pair_coeff 1  1  1.0  1.0   # Intearaction between 1 and 1 set with epsilon = 1 and sigma = 1
pair_coeff 1  2  1.5  0.8
pair_coeff 2  2  0.5  0.88

write_data data.0
System init for write_data ...
Neighbor list info ...
  update every 1 steps, delay 10 steps, check yes
  max neighbors/atom: 2000, page size: 100000
  master list distance cutoff = 3.8
  ghost atom cutoff = 3.8
  binsize = 1.9, bins = 9 9 9
  1 neighbor lists, perpetual/occasional/extra = 1 0 0
  (1) pair lj/cut, perpetual
      attributes: half, newton on
      pair build: half/bin/atomonly/newton
      stencil: half/bin/3d
      bin: standard
WARNING: Not all mixed pair coeffs generated from mixing. Use write_data with 'pair ij' option to store all pair coeffs. (../write_data.cpp:312)


#############################
#   M E L T   S Y S T E M   #
#############################

velocity all create 2.4 9580093 mom yes dist gaussian # Assign velocities
                                                    # Temperature 2.4, random number seed, zero linear momentum
                                                                                # Gaussian distribution

timestep 0.002   # simulation timestep
thermo 1000       # output thermodynamic data every 1000 steps bf 100

# Define a fix  in this case with index 1 applied to all
# particles in the simulation. This fix is for simulations
# in the anisotropic NPT ensemble. Note that we use the MTK
# correction.
fix 1 all npt temp 2.4 2.4 0.1 iso 5.68 5.68 0.5 mtk yes tchain 5 pchain 5 # Use NPT ensemble
                                                                         # Set temperature and pressure and damping
                                                                         # Numbers of thermostats in chain and in barostat
run 10000          # run for 10000 steps
Per MPI rank memory allocation (min/avg/max) = 3.642 | 3.644 | 3.648 Mbytes
Step Temp E_pair E_mol TotEng Press Volume 
       0          2.4   -7.8205278            0   -4.2214278   -2.8943486         4000 
    1000    2.3985212   -4.5279789            0  -0.93109657     5.892288    4899.6937 
    2000    2.4050278   -4.6531439            0   -1.0465041    5.2184932    4923.7545 
    3000    2.4123304   -4.5432688            0  -0.92567775    5.4774314    4949.1275 
    4000    2.4090931   -4.5826512            0  -0.96991496    5.4465645    4927.8883 
    5000    2.3677322   -4.5600688            0   -1.0093584    5.5443502    4918.1011 
    6000    2.4052653   -4.5165774            0  -0.90958137    5.8809047    4906.4528 
    7000    2.4210662   -4.5577329            0  -0.92704148    5.5313487     4939.765 
    8000      2.41728   -4.5472321            0  -0.92221852    5.5392109    4946.3341 
    9000     2.388292   -4.5992623            0   -1.0177199    5.4833358    4915.4652 
   10000    2.4191497   -4.5812034            0  -0.95338604    5.7231585    4900.4854 
Loop time of 2.16731 on 48 procs for 10000 steps with 4000 atoms

Performance: 797302.223 tau/day, 4614.017 timesteps/s
99.6% CPU use with 48 MPI tasks x no OpenMP threads

MPI task timing breakdown:
Section |  min time  |  avg time  |  max time  |%varavg| %total
---------------------------------------------------------------
Pair    | 0.90065    | 0.95188    | 1.0565     |   3.0 | 43.92
Neigh   | 0.19112    | 0.19781    | 0.21249    |   1.0 |  9.13
Comm    | 0.6276     | 0.7548     | 0.82437    |   4.3 | 34.83
Output  | 0.00024495 | 0.0002481  | 0.00031033 |   0.0 |  0.01
Modify  | 0.21342    | 0.24811    | 0.27483    |   3.6 | 11.45
Other   |            | 0.01446    |            |       |  0.67

Nlocal:        83.3333 ave          91 max          77 min
Histogram: 6 2 8 2 7 8 4 8 1 2
Nghost:        1429.25 ave        1466 max        1407 min
Histogram: 3 4 10 15 4 5 4 1 0 2
Neighs:        7761.98 ave        8655 max        6895 min
Histogram: 3 2 5 6 10 7 5 5 3 2

Total # of neighbors = 372575
Ave neighs/atom = 93.143750
Neighbor list builds = 908
Dangerous builds = 242

# Equilibrate just above the melting temperature to avoid step fn in T

fix 1 all npt temp 1.25 1.25 0.1 iso 5.68 5.68 0.5 mtk yes tchain 5 pchain 5
run 2000
Per MPI rank memory allocation (min/avg/max) = 3.642 | 3.644 | 3.648 Mbytes
Step Temp E_pair E_mol TotEng Press Volume 
   10000    2.4191497   -4.5812034            0  -0.95338604    5.7231585    4900.4854 
   11000    1.2464123   -6.0901406            0   -4.2209895    5.6536423    4068.9411 
   12000    1.2698747   -6.1378324            0   -4.2334966     5.742653    4046.0245 
Loop time of 0.495858 on 48 procs for 2000 steps with 4000 atoms

Performance: 696974.006 tau/day, 4033.414 timesteps/s
99.6% CPU use with 48 MPI tasks x no OpenMP threads

MPI task timing breakdown:
Section |  min time  |  avg time  |  max time  |%varavg| %total
---------------------------------------------------------------
Pair    | 0.20979    | 0.22399    | 0.26998    |   2.1 | 45.17
Neigh   | 0.031851   | 0.03329    | 0.038429   |   0.6 |  6.71
Comm    | 0.13912    | 0.17484    | 0.20137    |   3.3 | 35.26
Output  | 4.9864e-05 | 5.1182e-05 | 6.5495e-05 |   0.0 |  0.01
Modify  | 0.043741   | 0.059132   | 0.076431   |   4.7 | 11.93
Other   |            | 0.00455    |            |       |  0.92

Nlocal:        83.3333 ave          92 max          76 min
Histogram: 2 7 6 4 6 7 9 3 2 2
Nghost:        1629.23 ave        1652 max        1604 min
Histogram: 1 2 2 10 5 10 6 9 1 2
Neighs:        9435.81 ave       10549 max        8280 min
Histogram: 1 3 4 9 6 5 13 3 1 3

Total # of neighbors = 452919
Ave neighs/atom = 113.22975
Neighbor list builds = 143
Dangerous builds = 8

#############################
# L I N E A R  Q U E N C H  #
#############################

# Define solid atoms. This closely follows ten Wolde  Ruiz-Montero and Frenkel  Faraday Discuss  1996  104  93-110
# Compute components of the per-atom q6 vector
compute q6 all orientorder/atom degrees 1 6 components 6 nnn NULL cutoff 1.3 # compute the Q6 parameter.
                                                                             # Use all neighbours within 1.3 unit cell.

# get number of connections
compute coord_number all coord/atom orientorder q6 0.5

# An atom is solid if it has 8 or more connections (of a possible 14)
variable is_solid atom c_coord_number>=8
group solid dynamic all var is_solid    # Must be dynamic to update
dynamic group solid defined

# do clustering
compute cluster solid cluster/atom 1.3 # Create a cluster where all atoms within are solid and max 1.3 units from another member

# define chunks one chunk per cluster
compute clus_chunks solid chunk/atom c_cluster nchunk every compress yes  # Says which atoms are in which chunk

# count the size of each chunk
compute size_chunks solid property/chunk clus_chunks count


# Find the maximum entry in the vector of chunk sizes
variable max_n equal max(c_size_chunks)


# Thermo style which includes this variable
# thermo_style custom step temp pe vol v_max_n

thermo ${N}  # Print the thermo information every 100 steps
thermo 1000  

# Reset the npt fix at a lower temperature (below freezing)
fix 1  all npt temp  ${temp} ${temp}  0.1  iso  5.68  5.68  0.5  mtk yes tchain  5  pchain  5
fix 1  all npt temp  0.45 ${temp}  0.1  iso  5.68  5.68  0.5  mtk yes tchain  5  pchain  5
fix 1  all npt temp  0.45 0.45  0.1  iso  5.68  5.68  0.5  mtk yes tchain  5  pchain  5

dump dmp2 all dcd ${N} traj.dcd
dump dmp2 all dcd 1000 traj.dcd


compute msd all msd com yes
variable twopoint equal c_msd[4]/6/(step*dt+1.0e-6)
fix 9 all vector 10 c_msd[4]
variable fit equal slope(f_9)/6/(10*dt)
thermo_style custom step temp pe c_msd[4] v_twopoint v_fit v_max_n

fix 1 all npt temp 1.25 ${temp} 0.1 iso 5.68 5.68 0.5 mtk yes tchain 5 pchain 5
fix 1 all npt temp 1.25 0.45 0.1 iso 5.68 5.68 0.5 mtk yes tchain 5 pchain 5
run 2000000 # 5000000  # Run for this many steps
Neighbor list info ...
  update every 1 steps, delay 10 steps, check yes
  max neighbors/atom: 2000, page size: 100000
  master list distance cutoff = 3.8
  ghost atom cutoff = 3.8
  binsize = 1.9, bins = 9 9 9
  4 neighbor lists, perpetual/occasional/extra = 1 3 0
  (1) pair lj/cut, perpetual
      attributes: half, newton on
      pair build: half/bin/atomonly/newton
      stencil: half/bin/3d
      bin: standard
  (2) compute orientorder/atom, occasional
      attributes: full, newton on
      pair build: full/bin/atomonly
      stencil: full/bin/3d
      bin: standard
  (3) compute coord/atom, occasional
      attributes: full, newton on
      pair build: full/bin/atomonly
      stencil: full/bin/3d
      bin: standard
  (4) compute cluster/atom, occasional
      attributes: full, newton on
      pair build: full/bin/atomonly
      stencil: full/bin/3d
      bin: standard
Per MPI rank memory allocation (min/avg/max) = 9.744 | 9.750 | 9.755 Mbytes
Step Temp PotEng c_msd[4] v_twopoint v_fit v_max_n 
   12000    1.2698747   -6.1378324 4.059281e-30 2.818945e-32 8.3333333e+20            2 
   13000    1.2537101   -6.1474514   0.57221933 0.0036680725  0.046238016            2 
   14000    1.2514007   -6.1517191    1.1084601 0.0065979767  0.045802301            2 
   15000     1.251735   -6.1495765    1.6778234 0.0093212408  0.046166717            2 
   16000    1.2617394   -6.1655548    2.1832992   0.01137135  0.045983845            2 
   17000     1.256445   -6.1472631    2.7419991  0.013441172  0.045647643            2 
   18000    1.2478249   -6.1284279    3.2805832  0.015187885  0.045554938            3 
   19000    1.2381435   -6.1635646    3.8920996  0.017070612   0.04553258            1 
   20000    1.2632413   -6.1479852    4.4781663  0.018659026  0.045926885            2 
   21000    1.2419928    -6.190897    5.0983993  0.020231743  0.046432836            3 
   22000    1.2337868   -6.1505338    5.5810671  0.021140405  0.046682505            4 
   23000    1.2723796   -6.1681539    6.2625967  0.022690567  0.046800705            4 
   24000    1.2564956   -6.1631959     6.906753  0.023981781   0.04721969            5 
   25000    1.2445058   -6.1412998    7.3710612  0.024570203   0.04745971            6 
   26000    1.2371676   -6.1421531    7.9707423   0.02554725  0.047600461            2 
   27000    1.2318372   -6.1897002    8.5292981  0.026324994  0.047677984            1 
   28000    1.2484853   -6.1580073    9.1295366  0.027171239  0.047721705            2 
   29000    1.2622603   -6.1495182    9.7223317  0.027937734  0.047823072            2 
   30000    1.2242877    -6.175903    10.236588  0.028434967  0.047874965            3 
   31000    1.2472115   -6.1768345    10.843574  0.029149391  0.047862518            3 
   32000     1.250894   -6.1089175    11.372512  0.029615916   0.04784878            1 
   33000    1.2286284    -6.173482    11.809599  0.029822219  0.047764433            1 
   34000    1.2596634   -6.1185662    12.311384  0.030174962   0.04756602            1 
   35000    1.2080951   -6.1990731     12.60765  0.030018215  0.047269287            1 
   36000    1.2171048   -6.1766024    13.100182  0.030324496  0.046912427            3 
   37000    1.2550505   -6.1350023    13.728695  0.030920484  0.046625187            3 
   38000    1.2636517   -6.1926393    14.231782  0.031210048  0.046407245            3 
   39000     1.228873   -6.1924716    14.787286  0.031596764  0.046234329            3 
   40000    1.2313012   -6.1173497    15.301714   0.03187857  0.046052581            3 
   41000    1.2790083   -6.1522232    15.947545  0.032413709  0.045911893            1 
   42000    1.2294725   -6.1602097    16.371189  0.032482518  0.045790931            6 
   43000    1.2165783   -6.1774195    16.861527  0.032677378  0.045671521            3 
   44000    1.2203174   -6.1784423    17.344176  0.032848818  0.045537154            4 
   45000    1.2521747   -6.1484844    17.907469   0.03316198  0.045407216            5 
   46000    1.2292557   -6.1374181    18.384692  0.033305601  0.045288975            2 
   47000    1.2387519   -6.1743078    18.824094  0.033376053  0.045160629            4 
   48000    1.2258924   -6.1727179    19.377913   0.03364221  0.045042839            5 
   49000    1.2217478   -6.1522102    19.992482  0.034000819   0.04494917            4 
   50000    1.2369792   -6.1574216    20.703318   0.03450553  0.044902572            2 
   51000    1.2240685   -6.1295199     21.17913  0.034606421  0.044892977            2 
   52000    1.2463447   -6.1478021    21.648048  0.034692384  0.044861492            1 
   53000    1.2589658   -6.1231553    22.397912  0.035216842  0.044852585            2 
   54000    1.2381303   -6.1401828    22.965855  0.035441133  0.044889916            2 
   55000    1.2180929   -6.1650216    23.439324  0.035514127   0.04490188            4 
   56000    1.2216683   -6.2074685    23.857014  0.035501508  0.044886382            3 
   57000     1.250663   -6.1833624    24.505834  0.035827242  0.044880984            7 
   58000    1.2555359   -6.1700075    25.008778  0.035932152  0.044869098            4 
   59000    1.2364804   -6.1834156    25.503478  0.036021861   0.04486133            1 
   60000     1.261924   -6.1259136    26.055759  0.036188554  0.044839531            3 
   61000    1.2111101   -6.1555084    26.596733  0.036334335  0.044835752            2 
   62000    1.2230039   -6.1806419    27.132319  0.036468171  0.044845042            2 
   63000    1.2030965   -6.1695456    27.669951  0.036600465   0.04484246            3 
   64000    1.2424839     -6.20812    28.128016   0.03662502  0.044823177            3 
   65000    1.2270443   -6.1981359    28.652602  0.036734105  0.044809586            3 
   66000    1.2396279   -6.1547135    29.263693  0.036949107  0.044808735            3 
   67000    1.2012024   -6.1623219     29.75495  0.037008644  0.044801093            2 
   68000      1.25476   -6.2021376    30.016431  0.036784842  0.044771691            4 
   69000     1.207331   -6.1660197    30.483005  0.036815223  0.044718207            2 
   70000    1.2462167   -6.1945472    31.038959  0.036951141  0.044653356            3 
   71000    1.2002701   -6.1643039    31.299183   0.03673613  0.044575743            2 
   72000    1.2483347   -6.1974571    31.748264  0.036745676  0.044493274            4 
   73000     1.207561   -6.1695122    32.162917  0.036715659  0.044403916            3 
   74000    1.2207343   -6.1816509    32.648432  0.036766252  0.044310628            2 
   75000    1.2195138   -6.1735203    32.978235  0.036642483  0.044214708            1 
   76000    1.2004937   -6.1999423    33.442547   0.03666946  0.044105345            3 
   77000    1.2207773   -6.1912393    34.155831  0.036965185  0.044016767            3 
   78000    1.2216554   -6.1921706    34.663926  0.037034108  0.043957502            2 
   79000    1.2115742   -6.1712018    35.257569  0.037191528  0.043896817            3 
   80000    1.2295512   -6.1935217    35.904044  0.037400045  0.043846333            2 
   81000    1.2290516   -6.1999354    36.488702  0.037539816  0.043812811            2 
   82000    1.2200402    -6.228952    36.770357  0.037368249  0.043772943            2 
   83000    1.2381826    -6.203989    37.148645  0.037297836  0.043712345            3 
   84000    1.2135574   -6.1842269    37.720149  0.037420782  0.043663017            4 
   85000    1.2045953    -6.211779    38.242417  0.037492565  0.043614358            2 
   86000    1.2225272   -6.1671402    38.939844  0.037732407  0.043569189            3 
   87000    1.2140729   -6.1547676    39.359494  0.037700664  0.043525439            2 
   88000    1.2251523   -6.1751346    39.864926  0.037750877  0.043492471            2 
   89000    1.2468137   -6.1909689    40.507096  0.037927992  0.043459903            2 
   90000    1.2329024   -6.1913635    41.024732  0.037985863  0.043434966            1 
   91000    1.2036329   -6.1957029    41.567711  0.038065669   0.04341578            2 
   92000     1.221422   -6.1997063    42.031671  0.038072165  0.043391925            5 
   93000    1.2409265    -6.163672     42.25954  0.037866971  0.043360879            2 
   94000    1.2390584   -6.2125564    42.919696  0.038049376  0.043326944            2 
   95000    1.2194908   -6.2308294    43.162742  0.037862054  0.043295326            3 
   96000    1.2046701   -6.2324942    43.487239  0.037749339  0.043250101            2 
   97000    1.2103348   -6.1981795    44.063262  0.037855036  0.043197563            2 
   98000    1.2074873   -6.1603417    44.816423  0.038109203  0.043151214            3 
   99000    1.2044079   -6.2296256    45.178563  0.038029093  0.043111174            3 
  100000     1.223485   -6.1666192    45.570268  0.037975223  0.043065661            3 
  101000    1.2319595   -6.1822299    46.042761  0.037989076  0.043016427            3 
  102000    1.1807337   -6.2367947    46.581285  0.038056605  0.042977198            2 
  103000    1.2233488   -6.2302423    47.155394  0.038151613  0.042951556            2 
  104000     1.178931   -6.2601156    47.835556  0.038329772  0.042928761            2 
  105000    1.2033512   -6.2353178    48.543979  0.038526967  0.042909212            2 
  106000    1.2443038   -6.1984933    48.963755  0.038493518   0.04289551            3 
  107000     1.234179   -6.2044958    49.337002  0.038424456  0.042877422            2 
  108000       1.2158   -6.1994799    49.780703  0.038411036  0.042852597            7 
  109000    1.1975544   -6.2264022    50.288244   0.03844667  0.042837214            3 
  110000    1.2003472     -6.15352     50.77414  0.038465257  0.042817391            2 
  111000    1.2168996    -6.159906    51.161571  0.038409588  0.042786919            3 
  112000    1.2081308   -6.2262791    51.439584    0.0382735  0.042756646            4 
  113000    1.1981166    -6.215481     51.93491  0.038300081  0.042721824            4 
  114000    1.2077167   -6.2101185    52.313663  0.038240982  0.042687345            3 
  115000    1.1900533   -6.1965658    53.043795  0.038437532  0.042655517            5 
  116000    1.2036316   -6.1672884    53.370749  0.038341055   0.04262464            2 
  117000    1.1940297   -6.1972967    54.009952  0.038468627  0.042594085            1 
  118000    1.2115932   -6.2452858    54.283269  0.038335642  0.042566877            3 
  119000    1.2308217   -6.1846585    54.792847  0.038370341  0.042538832            2 
  120000     1.195006   -6.2215401    55.618278  0.038623804  0.042511587            3 
  121000    1.2054412   -6.2141963    56.029891  0.038588079  0.042488205            2 
  122000    1.2183112   -6.2084474    56.430694  0.038545556  0.042466972            3 
  123000    1.1767797   -6.1924162    56.995054  0.038614535  0.042442663            2 
  124000    1.2080527   -6.2437233    57.415515  0.038585695  0.042421675            9 
  125000    1.2151433   -6.2315028     58.16376   0.03877584  0.042402675            5 
  126000    1.2072158   -6.2320555    58.359733  0.038597707  0.042385613            4 
  127000    1.1978168   -6.1827545    58.843807  0.038611422  0.042364128            3 
  128000    1.1970166   -6.2224144    59.522201  0.038751433  0.042348095            5 
  129000    1.2113782   -6.2188752    60.198928  0.038888196   0.04233447            3 
  130000     1.226222    -6.205534    60.805353   0.03897779  0.042326034            2 
  131000    1.2092375   -6.1789986    61.409481  0.039064555  0.042318815            3 
  132000    1.2171033   -6.2321337    61.450754  0.038794668  0.042310815            4 
  133000    1.2161137   -6.2461804    62.164141  0.038949963   0.04229865            4 
  134000    1.1867643   -6.2055039      62.8396  0.039079353  0.042290775            2 
  135000    1.1957837   -6.1899658     63.25112  0.039043901  0.042281858            2 
  136000    1.2125342   -6.2222962    63.960061  0.039191214  0.042274411            1 
  137000    1.1968116   -6.2321689    64.280594  0.039100118  0.042269863            4 
  138000    1.2070755   -6.2442852    64.689711  0.039063835  0.042261266            2 
  139000    1.1910548   -6.2195362    64.987057  0.038961065  0.042253487            3 
  140000    1.1784923   -6.2213206    65.279044  0.038856574  0.042240341            8 
  141000    1.2113316   -6.2183861    65.863659  0.038926513  0.042222111            3 
  142000    1.1990134   -6.2125412    66.438765  0.038989886  0.042207103            2 
  143000    1.1942213   -6.2179967    66.809872  0.038933492  0.042185486            2 
  144000    1.1959475     -6.18959    67.449537  0.039033297  0.042166005            3 
  145000    1.2073409    -6.240611      67.6014  0.038851379   0.04214711            5 
  146000     1.210064   -6.2113185    67.904329  0.038758178    0.0421225            3 
  147000    1.1914057   -6.2250242    68.625251  0.038903203  0.042098658            4 
  148000    1.1796306   -6.2500944    69.089046   0.03890149  0.042077357            3 
  149000     1.184263   -6.2081376    69.549435  0.038897894   0.04205415            4 
  150000    1.2346776   -6.2647285    69.902909  0.038834949  0.042028464            1 
  151000    1.1988277   -6.1980333    70.489082  0.038901259  0.042003633            1 
  152000     1.200305   -6.2734571    70.711122  0.038767062   0.04198011            3 
  153000    1.1914487   -6.2590872    71.348966  0.038861092  0.041959182            2 
  154000    1.1873087   -6.2467709    72.122232  0.039027182  0.041937703            3 
  155000    1.1864442   -6.2377138    72.334819  0.038889687  0.041916734            3 
  156000    1.1977689   -6.2360958    72.558964   0.03876013  0.041893944            3 
  157000    1.1998146   -6.2318749    73.564986  0.039047232  0.041874191            6 
  158000    1.2028101   -6.2551311     73.92263  0.038988729  0.041854264            2 
  159000    1.1901301   -6.2020992    74.462587  0.039026513  0.041835542            1 
  160000    1.1916023   -6.2493407    75.091693  0.039110256  0.041820708            4 
  161000    1.2007453    -6.252598    75.606876  0.039133994  0.041809317            2 
  162000    1.1829573   -6.2349884    76.034065  0.039112173  0.041797919            2 
  163000    1.1748601   -6.2687962    76.209817  0.038962074  0.041785001            3 
  164000    1.2310358   -6.2748449    76.651936  0.038949154  0.041769525            4 
  165000    1.2314029   -6.2255807    77.385642  0.039083658  0.041752105            3 
  166000     1.173792   -6.2127269    77.634759  0.038973273  0.041736593            4 
  167000    1.2026688   -6.2365935    78.555644  0.039199423  0.041723582            3 
  168000    1.1811408   -6.2299592    78.701723  0.039038553   0.04171075            2 
  169000    1.1862613   -6.2517102    79.340766  0.039122666  0.041695605            2 
  170000    1.1833174   -6.2776948    79.828101  0.039131422  0.041680522            2 
  171000      1.17946   -6.2672193    80.075138  0.039022971  0.041665429            4 
  172000    1.2069343     -6.25614    80.628829  0.039064355  0.041649469            2 
  173000     1.204211   -6.2546305    80.788584  0.038915503  0.041629345            1 
  174000    1.1699217   -6.2905785    80.675124  0.038637511   0.04160483            4 
  175000    1.1864958   -6.2528825     81.27618  0.038702943   0.04157514            2 
  176000    1.1907428   -6.2599898    81.861985   0.03876041  0.041548383            3 
  177000    1.2032293   -6.2480002    82.430797  0.038809227  0.041520512            2 
  178000    1.1866662   -6.2349551    82.737454  0.038734763  0.041493305            2 
  179000    1.1720777   -6.2478061    83.171321  0.038720354  0.041468856            7 
  180000    1.1662605   -6.2692701    83.742471  0.038769663  0.041444643            3 
  181000    1.2041112   -6.2450804    84.819043  0.039051124  0.041426366            2 
  182000    1.2021464   -6.2433081    85.399351  0.039102267  0.041409923            6 
  183000     1.167949   -6.2732707    85.408299  0.038892668  0.041393161            2 
  184000    1.1809458   -6.2839817    85.876987  0.038893563  0.041375383            3 
  185000    1.1968255   -6.2607539    86.257017  0.038854512  0.041356693            2 
  186000    1.1483367   -6.2693356    87.119434  0.039032005  0.041337778            2 
  187000    1.1742223   -6.2435305    87.477216  0.038982716  0.041321532            3 
  188000       1.1738    -6.271827    87.750032  0.038896291  0.041307841            2 
  189000    1.1702224   -6.2720374    88.149923  0.038866809  0.041291413            2 
  190000    1.1747505    -6.280878    88.569784  0.038846397  0.041273848            3 
  191000    1.1761112   -6.2211008    89.242043  0.038936319  0.041259084            4 
  192000    1.1876399   -6.2466389    89.503718    0.0388471  0.041243242            4 
  193000    1.1771925   -6.2572085    90.018385  0.038868042   0.04122559            4 
  194000    1.1710617   -6.2936511    90.896916  0.039045067   0.04121034            5 
  195000    1.1902183   -6.2839802    91.477824  0.039093087   0.04119851            2 
  196000    1.1933912   -6.2482763    92.062092  0.039142046  0.041185566            3 
  197000    1.1900325   -6.3004909    92.085465  0.038953242  0.041173641            3 
  198000     1.191709    -6.251105    92.539514  0.038947607  0.041161194            4 
  199000    1.1909935    -6.247357    93.158914   0.03901127  0.041146926            3 
  200000    1.1689475   -6.2539801    93.289043  0.038870434  0.041131642            7 
  201000    1.1472374   -6.2805451    93.841985  0.038906296  0.041115648            2 
  202000    1.1661135   -6.2557085     94.24884  0.038881535  0.041098002            1 
  203000    1.1537349   -6.2739686    94.629388  0.038846218  0.041079773            3 
  204000    1.1577352   -6.2366304    95.087102   0.03884277  0.041062095            2 
  205000    1.1721105   -6.3011132     95.38906   0.03877604  0.041046118            5 
  206000    1.1629397   -6.2703247    96.246084    0.0389345  0.041028969            3 
  207000    1.1672501   -6.2677211    96.613867  0.038894471  0.041015006            5 
  208000    1.1630724   -6.2598267    96.777933   0.03877321   0.04099805            2 
  209000    1.1840152   -6.2778905     97.41965  0.038843561  0.040980689            2 
  210000    1.1723202   -6.2667021    97.617399  0.038737063  0.040962614            8 
  211000    1.1802002   -6.2791043    98.067804   0.03873136  0.040944431            4 
  212000    1.1679151   -6.2758108    98.727196   0.03880786  0.040924992            7 
  213000     1.155032   -6.2912306    99.038527  0.038747467  0.040905201            1 
  214000    1.1748584   -6.2931424    99.328301  0.038679245  0.040885453            1 
  215000    1.1919105   -6.2268471    100.46595  0.038940289  0.040868153            5 
  216000      1.17046    -6.278885    100.66969  0.038838616   0.04085152            4 
  217000    1.1575728   -6.3063687    100.75653  0.038692982  0.040834867            2 
  218000     1.181787   -6.2599736    101.31037  0.038727204  0.040816778            1 
  219000     1.147255    -6.311938    102.07364  0.038840808   0.04079806            2 
  220000    1.1576639   -6.3099412    102.33182  0.038762053  0.040781373            7 
  221000    1.1828358   -6.3138875    103.12684  0.038886441  0.040765152            3 
  222000    1.1811036   -6.3153083    103.02017  0.038671235  0.040749516            3 
  223000    1.1744074   -6.2682416    104.04296  0.038880029  0.040734051           11 
  224000     1.148376   -6.3244406    104.19744  0.038763929  0.040719539            3 
  225000    1.1716736   -6.2800588    104.90774   0.03885472  0.040703672            2 
  226000    1.1919484   -6.3034357    105.27431  0.038817959  0.040689254            4 
  227000    1.1549069   -6.2587434    105.91333  0.038881546  0.040675796            3 
  228000    1.1613795   -6.3006253    106.29891  0.038851941  0.040664763            2 
  229000    1.1568913     -6.28482    107.49161  0.039116305  0.040654625            3 
  230000    1.1750929   -6.3110719    107.32328  0.038885247  0.040643597            2 
  231000    1.1456772    -6.284864    108.42162  0.039113138  0.040634275            2 
  232000    1.1729313   -6.2547407     108.5345  0.038985094  0.040623893            3 
  233000    1.1615094   -6.3178979    108.66064   0.03886289  0.040613202            4 
  234000    1.1488164   -6.2935155    109.13841  0.038866954  0.040601297            1 
  235000    1.1403054   -6.3478928    109.12971  0.038698477  0.040587341            6 
  236000    1.1602417   -6.3213935    109.84685  0.038787729  0.040572008            1 
  237000    1.1623324    -6.339152    110.58968   0.03888526   0.04055737            2 
  238000    1.1394981   -6.3237489    110.97077   0.03885531   0.04054547            2 
  239000    1.1596075   -6.3111099    110.86653  0.038656392  0.040532742            3 
  240000    1.1800033   -6.2721912    111.60598  0.038752077  0.040518513            1 
  241000    1.1763081   -6.2716902    111.89807  0.038692277  0.040502684            2 
  242000    1.1568682   -6.3017495    112.17206  0.038626742  0.040486739            2 
  243000    1.1596619   -6.2990401    113.14839  0.038802602  0.040473929            3 
  244000    1.1514166   -6.2937077    113.65388  0.038816216   0.04046355            3 
  245000    1.1535755   -6.2964637    114.44049  0.038925337  0.040451816            4 
  246000    1.1564828   -6.2823313    114.72242   0.03886261  0.040440985            3 
  247000    1.1480855   -6.3089568    115.05933  0.038818938  0.040427802            5 
  248000    1.1633009   -6.2708947    115.54253  0.038824775  0.040414516            2 
  249000    1.1433849    -6.288164    115.59015   0.03868479  0.040400719            2 
  250000    1.1352751   -6.3408581    116.34778  0.038782592  0.040386032            3 
  251000    1.1736026   -6.3027308     116.6955  0.038743526  0.040373152            4 
  252000    1.1588097   -6.2938921    117.28981  0.038786312  0.040361666            2 
  253000    1.1562513   -6.3102717    117.75511  0.038786268  0.040350147            3 
  254000    1.1758859   -6.3157235    118.45282  0.038862473  0.040337689            2 
  255000    1.1571746   -6.2994297    119.20217  0.038954957  0.040326641            3 
  256000    1.1454535   -6.3120018    119.35922  0.038853913  0.040316197            3 
  257000     1.147452   -6.3095334    119.68338  0.038807841  0.040306541            4 
  258000    1.1607742   -6.3199802    120.59357  0.038951412  0.040296647            5 
  259000    1.1406134   -6.3217688    120.83232  0.038877837  0.040287889            6 
  260000    1.1384541   -6.3256358    120.88738  0.038745956  0.040277189            3 
  261000    1.1726093   -6.3204531    121.37191  0.038752208  0.040263747            2 
  262000    1.1556621   -6.3140956    121.43512  0.038624402  0.040249955            3 
  263000     1.147398   -6.3112809    121.70036  0.038561586  0.040235095            2 
  264000    1.1343119   -6.2793412    122.54171  0.038681095  0.040219717            3 
  265000    1.1585751   -6.3458252    122.29563  0.038457746  0.040203149            4 
  266000    1.1540259   -6.2858065    123.13384  0.038575765   0.04018722            3 
  267000    1.1262098   -6.3165981     123.6139  0.038581117  0.040172842            5 
  268000    1.1549997   -6.3243628     123.9427  0.038539397  0.040159213            7 
  269000    1.1395794   -6.3778699    123.97577  0.038406374   0.04014329            8 
  270000    1.1548322   -6.2965903    124.95557  0.038566534  0.040129341            2 
  271000    1.1555038   -6.3340938    125.59842    0.0386219  0.040114342            3 
  272000    1.1667103   -6.3290443    125.52252  0.038456654  0.040099122            2 
  273000    1.1442498   -6.3426739    126.23686  0.038533841  0.040083569            4 
  274000    1.1518462   -6.3193637    126.40001  0.038442824  0.040067581           10 
  275000     1.137359   -6.3814905    127.26901  0.038566365  0.040053956            7 
  276000    1.1599512   -6.2900978    127.52588   0.03850419  0.040041322            2 
  277000    1.1747487   -6.3380056    128.15821  0.038555417  0.040029906            5 
  278000    1.1713527    -6.274695    128.99677  0.038668098  0.040016569            3 
  279000    1.1105573   -6.3549028    128.78125  0.038465127  0.040002146            4 
  280000    1.1251312   -6.3653939    128.86881  0.038353812  0.039985228            3 
  281000    1.1192644   -6.2937404     129.2361  0.038326246  0.039967164            3 
  282000    1.1466471   -6.3356818    129.41901  0.038244389  0.039948677            3 
  283000    1.1229911   -6.3610812    130.31767  0.038373873  0.039930601            1 
  284000    1.1502471   -6.3316986    130.73903   0.03836239  0.039912493            7 
  285000    1.1526564    -6.314785    131.46671  0.038440559  0.039896313            3 
  286000    1.1244505   -6.3340511    131.96484  0.038451293  0.039881141            4 
  287000    1.1330512   -6.3535402    131.75199  0.038255515  0.039864394            4 
  288000     1.108726   -6.3482283    132.12134  0.038229555  0.039846136            5 
  289000    1.1283043   -6.2983217     132.4495  0.038191896  0.039827246            4 
  290000    1.1379332    -6.322194    132.80153  0.038161358  0.039807742            3 
  291000    1.1411374    -6.296708    133.27298  0.038165228   0.03978651            3 
  292000    1.1363186   -6.2959786    133.10634   0.03798697  0.039765925            3 
  293000    1.1573832   -6.3686944    133.07331  0.037847926  0.039744324            6 
  294000    1.1711589    -6.304927    134.75158  0.038194892  0.039723338            3 
  295000    1.1168557   -6.3444644     134.3035  0.037938841  0.039702462            3 
  296000    1.1374092   -6.3314221    135.67709   0.03819738  0.039683195            3 
  297000    1.1309809   -6.3375977    135.71422  0.038079185  0.039663715            2 
  298000     1.096693   -6.3018134    136.12561  0.038066446  0.039644787            2 
  299000    1.1350857   -6.3138362    136.57219  0.038063599  0.039626076            5 
  300000    1.1404872   -6.3133637    136.51558  0.037920993   0.03960659            3 
  301000    1.1424956   -6.3335634    137.73168  0.038131695  0.039588173            3 
  302000    1.1227015   -6.3045882    137.64964  0.037982792  0.039570387            3 
  303000    1.1307957   -6.3019455    138.75691  0.038161965   0.03955242            2 
  304000    1.1547214   -6.3656067    138.39825  0.037938117   0.03953524            2 
  305000    1.1300307   -6.3509018    139.16909  0.038024342  0.039515979            5 
  306000    1.1177097   -6.3294363    140.09553  0.038152378  0.039498714            3 
  307000    1.1692185   -6.3472207    139.75394  0.037935379  0.039481016            2 
  308000    1.1229044    -6.385971    140.11025  0.037908617  0.039461522            4 
  309000    1.0951494   -6.3483975    140.07714  0.037777006  0.039441231           10 
  310000    1.1525452   -6.3626545    140.79335  0.037847674  0.039421126            5 
  311000    1.1481797   -6.3733318    141.24149  0.037846058   0.03940088            4 
  312000    1.1485701   -6.3405771    142.22747  0.037988106  0.039382444            2 
  313000    1.1176344    -6.313745     142.4775  0.037933307  0.039365072            2 
  314000    1.1479609   -6.3355993    143.13746  0.037987649  0.039346608            3 
  315000    1.1091687   -6.3594168    143.41696  0.037940996  0.039328841            3 
  316000    1.1010808   -6.3652007    142.96122  0.037700743  0.039309165            4 
  317000    1.1264543   -6.3506083      143.959  0.037844112  0.039289748            3 
  318000    1.1364665   -6.3602273    144.05499  0.037750259  0.039269485            7 
  319000    1.1223108   -6.3463098    144.81968  0.037831682  0.039249256            2 
  320000    1.1295529   -6.3333317    145.25901  0.037827868  0.039230808            4 
  321000    1.1218862   -6.3272449    145.63593  0.037807873  0.039212709            3 
  322000    1.1465814   -6.3459124    145.87999  0.037753621  0.039193667            5 
  323000     1.124449   -6.3642646    146.25303  0.037732981  0.039174082            1 
  324000    1.1231699   -6.3651032    146.39838  0.037653904  0.039153269            1 
  325000    1.1240635   -6.3585712    146.98862   0.03768939  0.039132784            3 
  326000    1.1425818   -6.3417088    147.46165  0.037694695  0.039113113            5 
  327000    1.1180026   -6.3883575    147.39511  0.037562463  0.039093262            2 
  328000     1.136849   -6.3384515    148.31311  0.037681177  0.039072922            4 
  329000    1.1344617   -6.3663319    147.85585  0.037450823  0.039052747            6 
  330000    1.1508373   -6.3932584    148.73766  0.037560015  0.039032914            6 
  331000    1.1325682   -6.3164148    149.62679   0.03767039  0.039014334            2 
  332000    1.0994783   -6.4097228    148.97677  0.037393767  0.038994162            3 
  333000    1.1467267   -6.3762719    149.60894  0.037439674  0.038973991            3 
  334000    1.1282889   -6.4189953    150.10713  0.037451877  0.038954108            3 
  335000    1.1206524   -6.3750783    150.16063   0.03735339  0.038932807            3 
  336000    1.1263384   -6.4055513    150.98795  0.037447407  0.038910421            8 
  337000    1.1393912   -6.3466754    150.53725  0.037224838  0.038887603            3 
  338000    1.1056384   -6.3666371    151.12255  0.037259011  0.038865238            3 
  339000    1.1131307   -6.3950627    151.00368  0.037119882  0.038840979            1 
  340000    1.1181982   -6.3758514    152.06393   0.03727057  0.038818451            3 
  341000    1.1251746   -6.3549068    152.72799  0.037323557  0.038795433            5 
  342000    1.1134617   -6.3970604    152.32426  0.037116048  0.038771901            6 
  343000    1.0905779   -6.4011098    152.89259  0.037145915  0.038747142            3 
  344000    1.1227544   -6.3904162    153.56441  0.037200681   0.03872341            2 
  345000    1.1372522   -6.4194306     153.4473  0.037064565  0.038699569            4 
  346000    1.1075033   -6.3737974    154.44263  0.037197165  0.038675288            4 
  347000    1.0995938    -6.389681    154.02263  0.036989104  0.038651976            5 
  348000    1.1212474   -6.3727269    154.69554  0.037043951  0.038627094            2 
  349000    1.1115502   -6.3863899    155.05634  0.037023958  0.038603169            9 
  350000    1.0940478   -6.3650087    155.30085  0.036976393   0.03857934            4 
  351000    1.1155512   -6.3753393     156.1565  0.037074192   0.03855539            4 
  352000    1.1264708   -6.3839548    155.93928  0.036917444  0.038530907            4 
  353000    1.0974229   -6.4047529    156.58998  0.036966473  0.038506571            6 
  354000    1.1244523   -6.3473473    156.49309  0.036839239  0.038481649            7 
  355000    1.1073152   -6.3613077    157.46466  0.036963535  0.038456669            3 
  356000     1.099278   -6.4154981    156.88436  0.036723868  0.038431414            3 
  357000    1.1203345   -6.3503754    157.65518  0.036800928  0.038406357            3 
  358000    1.1359227   -6.3777245    158.32783  0.036854709  0.038380961            5 
  359000    1.1187395   -6.4032849    158.64959  0.036826738  0.038355903            6 
  360000     1.137348   -6.3740559    158.84958  0.036770737   0.03833082            4 
  361000    1.1229708   -6.3552692     159.6392  0.036851154  0.038307309            3 
  362000    1.1056393   -6.3741731    160.40019  0.036924538  0.038284057            3 
  363000      1.09932   -6.3804336    160.87845   0.03693261  0.038261941            1 
  364000    1.1144643    -6.376255    160.81232  0.036816007  0.038239181            7 
  365000    1.0956684   -6.3779458    160.46042  0.036634798  0.038215065            6 
  366000    1.1004133   -6.3716909    161.68961  0.036814574  0.038191316            3 
  367000    1.1273511   -6.3870804    162.40911  0.036877637  0.038167502            2 
  368000    1.1154874    -6.406803    162.55145  0.036809658  0.038144848            2 
  369000    1.1048617   -6.4352216    162.70914  0.036745515  0.038122543            3 
  370000    1.0960913   -6.4545769    162.64245  0.036631183  0.038099436            4 
  371000    1.0981312    -6.373802    163.51545  0.036728538  0.038077197            5 
  372000    1.1109168   -6.4054273    164.00728  0.036739982  0.038054764            4 
  373000    1.1258192   -6.3990288      163.797  0.036594503  0.038031754            1 
  374000    1.1248918   -6.4339845     164.0419  0.036551225  0.038008109            1 
  375000    1.1260456   -6.3817627    165.00177  0.036667059  0.037984841            2 
  376000    1.0974764   -6.4213511    165.48402  0.036676424  0.037963089            4 
  377000    1.1178851    -6.418337     165.6936  0.036625464   0.03794204            4 
  378000    1.1091007   -6.4148808    166.62325  0.036733521  0.037920722            3 
  379000    1.1133414   -6.3798693    166.50564  0.036610738  0.037900086            5 
  380000    1.0949849   -6.3862528     167.4573  0.036723091  0.037879466            3 
  381000    1.1381369   -6.3916072    167.56075  0.036649333  0.037858383            2 
  382000    1.1083988   -6.4114542    167.78007  0.036601238  0.037838439            4 
  383000    1.0928168   -6.4444092    167.89868  0.036531478  0.037818204            2 
  384000    1.0948765    -6.401863    169.48878  0.036781419  0.037798953            2 
  385000    1.1084767   -6.3980217    169.30407  0.036645903  0.037779985            2 
  386000    1.1316663   -6.3985793    169.45928  0.036584474  0.037760843            3 
  387000    1.1108494   -6.4325811    170.08656  0.036625012  0.037741152            3 
  388000    1.1134826   -6.4238228    170.04085  0.036520802  0.037721298            2 
  389000    1.1033685   -6.4144581    170.53358  0.036532471  0.037702027            3 
  390000    1.0871927   -6.3957726    171.48536   0.03664217  0.037683353            2 
  391000    1.0870872   -6.4258879    171.46951  0.036545078  0.037663863            6 
  392000    1.0985521   -6.4077554    171.80502  0.036523176  0.037644913            4 
  393000    1.1077841   -6.4110684    172.01335  0.036474418  0.037625876            5 
  394000    1.1123008   -6.4193438    172.46641  0.036477667  0.037606097            6 
  395000    1.0964755   -6.4294813     172.8778   0.03647211  0.037586101            3 
  396000     1.099342   -6.4086512    173.15098  0.036437496  0.037566737            3 
  397000    1.1046374   -6.4243112    173.70743  0.036462516  0.037546514            4 
  398000    1.0917104   -6.4379091    174.08251  0.036449436  0.037526628            5 
  399000    1.0883191   -6.4300838    174.04275  0.036349781   0.03750669            3 
  400000    1.1094195   -6.4508974    174.12197   0.03627541  0.037486401            5 
  401000    1.1203148   -6.4243036    174.30116  0.036222185  0.037465149            5 
  402000    1.1039409   -6.4243744    174.56987  0.036187783   0.03744315            3 
  403000    1.0890651   -6.4251749    175.08935  0.036205406  0.037421293            2 
  404000    1.1136604   -6.4408135    175.66336  0.036234192  0.037399976            3 
  405000    1.0885545   -6.3823579    176.43872  0.036304264  0.037379414            4 
  406000    1.0805729   -6.4384456    176.69856  0.036268178  0.037358551            3 
  407000     1.079653   -6.4084274    177.38937   0.03632051  0.037338754            5 
  408000    1.0878562   -6.4318121    177.66149  0.036287069  0.037319514            2 
  409000    1.0956312   -6.4276068    178.06367  0.036280292  0.037300855            3 
  410000    1.0888746   -6.4217284    178.67521    0.0363161  0.037282233            2 
  411000    1.0750222   -6.4175498    178.45792  0.036183682  0.037263186            5 
  412000    1.1105915   -6.4350593    178.88868  0.036182984  0.037244264            4 
  413000    1.0981527    -6.434438    179.54831  0.036228473  0.037224883            5 
  414000    1.0792634   -6.4376416     179.7943  0.036190478  0.037206015            3 
  415000     1.069663   -6.3916817    180.57598  0.036260237  0.037187335            3 
  416000    1.0943936   -6.4319602    180.88123  0.036234221  0.037169254            5 
  417000    1.0796188   -6.4377596    181.31898  0.036234809  0.037150816            4 
  418000    1.0814168   -6.4170797     181.6302  0.036210168  0.037132642            6 
  419000    1.0978456   -6.4597423    182.04893  0.036207026  0.037114641            3 
  420000    1.0941104   -6.4358399    182.75887   0.03626168  0.037096758            7 
  421000    1.0875628   -6.4235942    183.39557  0.036301578      0.03708            5 
  422000    1.0852817    -6.404097    183.48241  0.036232703  0.037063243            4 
  423000    1.0967476    -6.465165    183.68713  0.036187378  0.037046082            2 
  424000    1.0683965   -6.4191004    184.46264  0.036254449  0.037029013            2 
  425000    1.0707597    -6.430064     184.2585  0.036129118  0.037012835            6 
  426000    1.0569156   -6.4474786    184.60104  0.036111314  0.036995817            4 
  427000    1.0873372   -6.4515642     184.9678  0.036098322  0.036978329            3 
  428000    1.0973184   -6.4392072    185.13608  0.036046745  0.036961425            4 
  429000    1.0745059   -6.4552043    185.68753  0.036069839  0.036943844            3 
  430000    1.0909434   -6.4641949    186.30033  0.036104714  0.036926694            2 
  431000    1.0783202   -6.4189961    186.59849  0.036078594  0.036909936            2 
  432000    1.1006018   -6.3969225    187.05991  0.036084087  0.036893697            3 
  433000    1.0691297   -6.4861384    186.94578  0.035978788  0.036876656            6 
  434000    1.0976168    -6.472163      187.262  0.035956605  0.036859073            2 
  435000    1.0863836   -6.4484081    188.32041  0.036076707  0.036841958            2 
  436000    1.0833507   -6.4310002    188.91247  0.036107123  0.036826001            5 
  437000     1.099483   -6.4131434    189.02551  0.036046055  0.036808794            2 
  438000    1.0919392   -6.4387037    188.77138  0.035915407  0.036791313            3 
  439000    1.0775151   -6.4203266    189.33325  0.035940253  0.036773962            7 
  440000    1.0949042   -6.5000467    189.82377  0.035951472  0.036755962            9 
  441000    1.0567637   -6.4546473     190.1115   0.03592432  0.036738725            2 
  442000    1.0616458   -6.4287414    190.96478  0.036003917  0.036722218            5 
  443000    1.0661961   -6.4467871    191.00195  0.035929637    0.0367057            4 
  444000    1.1038285   -6.4458934    191.46553  0.035935722   0.03668928            5 
  445000    1.0783029    -6.453629    191.46203  0.035854312  0.036672973            8 
  446000    1.0771755   -6.4503087    192.47364  0.035962937  0.036656148            5 
  447000     1.070845   -6.4221696    192.25689  0.035842075  0.036639801            3 
  448000    1.0785558   -6.4735948    192.76662  0.035856886  0.036623261            3 
  449000    1.1080749    -6.458256    193.19291  0.035856145  0.036606742            4 
  450000    1.0823107   -6.4561287    193.90572  0.035908467  0.036590648            3 
  451000    1.0736713    -6.465644     194.0842  0.035861826  0.036574609            5 
  452000      1.06832   -6.4484316    194.61279  0.035879939  0.036559158            3 
  453000    1.0671454   -6.4547408    195.37653  0.035941231  0.036544302            3 
  454000    1.0593459   -6.4463598    195.41234  0.035868638  0.036529442            4 
  455000    1.0551948   -6.4518584    195.98812   0.03589526  0.036514592            3 
  456000    1.0301148   -6.4528748    195.96237  0.035811837  0.036499058            3 
  457000    1.0700892   -6.4199033    196.25186  0.035786261  0.036482777            5 
  458000    1.0662707   -6.4684974    196.78075  0.035804358  0.036466631            5 
  459000    1.0676314   -6.4546152    196.71454  0.035714332  0.036450257            6 
  460000    1.0800464   -6.4756962    196.78454  0.035649373  0.036433867            3 
  461000    1.0664329   -6.4860219    197.01486  0.035613677  0.036416906            7 
  462000    1.0670296    -6.490104    197.13635  0.035558505  0.036399698            3 
  463000    1.0267169   -6.4976842    197.75976  0.035593909  0.036382012            2 
  464000    1.0724979   -6.4338687    197.90411  0.035543124  0.036364664            2 
  465000    1.0648278   -6.4441761    198.97269  0.035658188  0.036347516            7 
  466000    1.0668669   -6.4391667     199.2424    0.0356299  0.036330674            2 
  467000    1.0522378   -6.4873421    199.07873  0.035524398  0.036313997            3 
  468000     1.066844   -6.4712059    199.04821  0.035443058  0.036296708            2 
  469000    1.0829012   -6.4574338    199.95036  0.035527783  0.036280251            4 
  470000    1.0802909   -6.4458002    200.41138  0.035533933  0.036263105            2 
  471000    1.0747841   -6.4915072    199.81004  0.035352095  0.036245693            3 
  472000     1.072073    -6.469637    200.78412  0.035449174   0.03622817            3 
  473000    1.0653346   -6.4480558    201.81014  0.035554994   0.03621062            4 
  474000    1.0678214     -6.45632    201.72121  0.035464348  0.036193121            4 
  475000    1.0683876   -6.4584523     201.9139  0.035423492  0.036176348            4 
  476000    1.0700026   -6.4890795    202.25718  0.035409169  0.036158986            8 
  477000    1.0563654   -6.5028389    202.24967  0.035333625  0.036141574            6 
  478000    1.0581745   -6.4641401    202.88369  0.035370238  0.036123825            3 
  479000     1.069208   -6.4696132    203.05654  0.035326469  0.036105509            3 
  480000     1.056061   -6.4722561    203.68347  0.035361713  0.036087306            4 
  481000    1.0772029   -6.4982005    203.51451  0.035258924   0.03606875            3 
  482000    1.0603388   -6.4845991    203.76297   0.03522873  0.036050118            4 
  483000    1.0648216   -6.4700483    204.91322  0.035354247  0.036032385            6 
  484000     1.047941   -6.4738224    205.16556  0.035324648  0.036014958            2 
  485000    1.0877889   -6.4598487    205.94273   0.03538535  0.035997991            4 
  486000    1.0470567   -6.5128725    205.71863  0.035274114  0.035981026            2 
  487000    1.0627683   -6.4605682    206.39811  0.035317951  0.035964274            3 
  488000    1.0661287   -6.4870222    206.47114   0.03525805  0.035947343            4 
  489000    1.0496481   -6.4879857    206.71228  0.035227042   0.03593028            4 
  490000    1.0489585   -6.4540347    208.14013  0.035397981  0.035913421            2 
  491000    1.0747304   -6.4915446    207.49239  0.035215952  0.035896521            4 
  492000    1.0189741   -6.4790203    207.43455  0.035134578  0.035878936            5 
  493000    1.0555028    -6.468067    207.63005  0.035096358  0.035861027            5 
  494000    1.0514975   -6.4823735    207.93857  0.035077356  0.035843425            2 
  495000    1.0750733   -6.5000899    207.78081  0.034979933  0.035825064            4 
  496000    1.0646404   -6.5282065    208.29877  0.034996433  0.035806048            4 
  497000    1.0754264   -6.5225662    208.54965  0.034968083  0.035787643            3 
  498000    1.0577902   -6.4837756    209.64101  0.035080489  0.035769322            3 
  499000    1.0514011   -6.4609279    210.28903  0.035118408  0.035751894            2 
  500000    1.0413928   -6.4896647    210.44477  0.035074129  0.035733887            3 
  501000    1.0709962   -6.5008368    210.38773  0.034994632  0.035715315            2 
  502000    1.0472201   -6.4849412    210.75719  0.034986253  0.035697493            4 
  503000    1.0364812   -6.4968214    211.21432  0.034992433  0.035679259            5 
  504000     1.059596   -6.4984679    210.80727  0.034855699  0.035661313            3 
  505000    1.0392305   -6.4981678    210.98515  0.034816032   0.03564296            6 
  506000    1.0468691   -6.4993054    211.15582  0.034775332  0.035624126            8 
  507000    1.0625277   -6.5162053    212.05414  0.034854396   0.03560499            3 
  508000    1.0698815    -6.508854    211.41037  0.034680179  0.035585694            3 
  509000    1.0636428   -6.4785932    212.24067  0.034747982  0.035566185            5 
  510000    1.0732068   -6.4811528    212.27646  0.034685696  0.035546905            8 
  511000    1.0497765   -6.5324547    212.52841  0.034658906   0.03552717            4 
  512000    1.0495554   -6.4940654    212.68743  0.034617095  0.035506998            4 
  513000    1.0539497   -6.5186556    212.87721  0.034580443  0.035486996            5 
  514000    1.0216698   -6.4885544    213.45306  0.034606527  0.035466765            6 
  515000    1.0625793   -6.4574846    213.50239  0.034547313  0.035446653            4 
  516000    1.0767259   -6.5223653    213.59073  0.034494628  0.035426979            3 
  517000     1.042426   -6.5398707    214.32464  0.034546203  0.035407321            6 
  518000    1.0551989   -6.4639651    215.27011  0.034631613  0.035387954            4 
  519000    1.0409602   -6.5021613    215.28644  0.034567508  0.035368672            6 
  520000    1.0616156   -6.5190123    215.00328  0.034455653  0.035348808            3 
  521000    1.0768555   -6.5156103    215.00143  0.034389224  0.035328548            6 
  522000    1.0455145   -6.5180691    215.54322  0.034409837  0.035308578            5 
  523000    1.0320343   -6.5065394    216.29757  0.034464241   0.03528924            3 
  524000    1.0566827    -6.501781    216.31671  0.034401513  0.035269605            4 
  525000    1.0496678    -6.501768    217.36512  0.034502399  0.035250145            3 
  526000    1.0363771    -6.525132    216.99342  0.034377918   0.03523114            3 
  527000    1.0468499   -6.5259232    217.51005  0.034394378  0.035211508            4 
  528000    1.0462384   -6.5184814    218.50873  0.034486857  0.035192479            4 
  529000    1.0512885   -6.4886301    219.07887   0.03451148  0.035173514            5 
  530000    1.0233727   -6.4772457     219.9969  0.034590707  0.035155319            5 
  531000    1.0362439   -6.5085964     219.5526  0.034455838  0.035137243            4 
  532000     1.043095   -6.4977702    219.71071  0.034415838  0.035119518            6 
  533000    1.0420831   -6.5334472    219.64437  0.034340896  0.035101723            3 
  534000    1.0313358   -6.4860418    220.55486  0.034418673  0.035083848            2 
  535000    1.0471047    -6.509933    220.09977  0.034283453   0.03506583            6 
  536000    1.0307287   -6.5196919    220.81154  0.034330152  0.035047276            4 
  537000    1.0380078   -6.5228153    220.60862  0.034234734   0.03502917            4 
  538000     1.046093   -6.5328593    220.88758  0.034214309  0.035010383            2 
  539000    1.0537658   -6.5305598    221.35541  0.034223162   0.03499142            3 
  540000    1.0406723   -6.5118026    221.44255  0.034173233  0.034972379            5 
  541000    1.0284142   -6.5197074    222.34078  0.034248425  0.034953012            4 
  542000    1.0513818   -6.5021614    222.72121  0.034243728  0.034934114            3 
  543000    1.0241751   -6.5244231    222.36608  0.034126164  0.034915552            4 
  544000    1.0396209   -6.5302723    223.75443  0.034276108  0.034897149            3 
  545000    1.0381426   -6.5488393    223.08619  0.034111038  0.034878767            9 
  546000    1.0313321   -6.5143928    224.18308  0.034215977  0.034861064            5 
  547000     1.049095   -6.5098655     224.2676  0.034166301  0.034842821            3 
  548000    1.0327711   -6.5417662    224.38021  0.034121078  0.034824522            5 
  549000    1.0605804   -6.5231477      224.327   0.03405085  0.034805433            4 
  550000    1.0344895   -6.5416364    225.04995  0.034098477  0.034787026            2 
  551000    1.0405204   -6.5383594    225.49167  0.034103398  0.034768486            3 
  552000    1.0163687   -6.5721583    224.98989  0.033965865  0.034749582            7 
  553000    1.0263452   -6.4864739    225.64964  0.034003864  0.034730795           10 
  554000    1.0055841   -6.5611132    225.72468  0.033953773  0.034712031            3 
  555000     1.020751   -6.5125417    226.72188  0.034042325  0.034693288            6 
  556000    1.0120885    -6.557504    225.87373  0.033853976  0.034674943            6 
  557000    1.0423721   -6.4944738    227.43298  0.034026478  0.034656269            2 
  558000    1.0288026   -6.5608642    227.65908  0.033999265  0.034638384            5 
  559000    1.0438485   -6.5408973    228.18686  0.034017122  0.034620095            3 
  560000    1.0358054   -6.5326143    228.44361  0.033994584  0.034602322            7 
  561000    1.0303933   -6.5100669    228.52694  0.033946366  0.034584954            6 
  562000    1.0422827   -6.5311936    229.37392  0.034011554   0.03456692            9 
  563000     1.039514    -6.485211    229.64104  0.033990681  0.034549329            5 
  564000    1.0289625   -6.5417963     230.1285  0.034002437  0.034531762            4 
  565000    1.0129634   -6.5492906    229.63452  0.033869398  0.034514596            3 
  566000    1.0178696   -6.5207958    230.46484  0.033931807  0.034496932            3 
  567000    1.0210631   -6.5377157    230.71349  0.033908508  0.034479562            6 
  568000    1.0371671   -6.5348643    230.76985  0.033857079  0.034461618            4 
  569000     1.040875    -6.531315    230.62087  0.033775757  0.034444364            4 
  570000    1.0576019   -6.5320008    232.53561  0.033996434  0.034427407            4 
  571000    1.0102884   -6.5698397    232.32967   0.03390684  0.034411031            3 
  572000    1.0232657   -6.5451798    232.48135   0.03386966  0.034394579            5 
  573000      1.01446   -6.5420281    232.90831  0.033872645  0.034377748            7 
  574000    1.0338587   -6.5245737    232.55235  0.033761955  0.034360355            7 
  575000    1.0272499   -6.5423013    233.06117   0.03377698  0.034342777            2 
  576000   0.99946279   -6.5654258    233.14346  0.033730246  0.034325008            3 
  577000    1.0076228   -6.5267646    233.99039  0.033794106   0.03430774            3 
  578000    1.0072824   -6.5712954    233.41229   0.03365229  0.034290028            5 
  579000   0.99072502    -6.546259    234.32404  0.033725394  0.034272373            7 
  580000    1.0187423   -6.5321859    234.29166  0.033662595  0.034254704            5 
  581000     1.031706   -6.5621859     233.6206  0.033508405   0.03423681            2 
  582000    1.0084177   -6.5326093    234.46021  0.033571049  0.034218329            3 
  583000    1.0174637   -6.5563973    234.90491  0.033577031  0.034200132            1 
  584000    1.0158039    -6.529271    235.13678  0.033552622  0.034182104            3 
  585000    1.0526104   -6.5500882    235.26842  0.033514019  0.034164486            5 
  586000    1.0335298   -6.5625676    235.31849  0.033463949   0.03414598            4 
  587000    1.0353445   -6.5212101    236.03564  0.033508751  0.034127292            5 
  588000    1.0360274   -6.5664954    235.57031  0.033385814  0.034108715            4 
  589000   0.99811576   -6.5690922    236.17113  0.033414139  0.034089728            2 
  590000    1.0024395   -6.5510376    236.91366  0.033462381  0.034071272            5 
  591000    1.0242264   -6.5690052    236.87342  0.033400088   0.03405217            3 
  592000    1.0126996   -6.5758364    237.10087  0.033375686    0.0340337            3 
  593000     1.007242   -6.5722027    237.62776  0.033393446  0.034015574            7 
  594000    1.0183627   -6.5790848    237.54734  0.033325946  0.033996757            4 
  595000    1.0003702   -6.5431429    238.04102  0.033339079  0.033977914            5 
  596000    1.0285544   -6.5913092    238.05889  0.033285639   0.03395877            4 
  597000    1.0126541   -6.5683849    239.21748  0.033391608  0.033940014            2 
  598000    1.0129902   -6.5832889    239.08983   0.03331798  0.033921587            3 
  599000    1.0194682   -6.5304617    240.04489  0.033395226  0.033903486            3 
  600000    1.0122596   -6.5393793    240.24679   0.03336761  0.033885596            7 
  601000   0.98627184    -6.563426    239.73489  0.033241111  0.033867505            5 
  602000    1.0167937   -6.6106614     239.1577  0.033105994  0.033848796           11 
  603000    1.0090818   -6.5479743    240.75403  0.033271701  0.033830013            3 
  604000    1.0182649   -6.5778019    239.61455  0.033059402  0.033811156            3 
  605000    0.9889856   -6.5504036    240.26404  0.033094221  0.033792176            4 
  606000    1.0033731   -6.5245896    240.38715  0.033056539  0.033773302            2 
  607000    1.0109441   -6.5179531     241.1555  0.033107565  0.033754232            7 
  608000    1.0234109   -6.5575031    240.84553  0.033010626  0.033735406            2 
  609000    1.0127935   -6.5782871    241.13649  0.032996235  0.033716049            8 
  610000    1.0193488   -6.5520233    242.05762  0.033067981  0.033696885            4 
  611000    1.0228052   -6.5734055    241.65181  0.032958513  0.033678031            7 
  612000    1.0071679   -6.5599963    242.48848  0.033018584  0.033659149            4 
  613000   0.98920883   -6.5827635    243.06746  0.033043428  0.033640678            5 
  614000    1.0096549   -6.6012581    243.16328  0.033002617  0.033622016            3 
  615000   0.99710388   -6.5849635    243.24412  0.032959908  0.033603594            5 
  616000    1.0119372   -6.5551833    244.36919  0.033058602   0.03358516            3 
  617000    1.0161975    -6.576031    244.35686  0.033003358  0.033566927           13 
  618000   0.99177393   -6.5949267    244.19497  0.032928125  0.033548766            3 
  619000     1.015205   -6.6228421    245.08399  0.032994614  0.033531004            5 
  620000     1.007088   -6.5602752    245.52669    0.0330009  0.033513235            3 
  621000    1.0275507   -6.6018402    245.70013  0.032971032  0.033495147            5 
  622000    1.0236843   -6.5932418    245.83463  0.032936044  0.033476687            6 
  623000    1.0178296   -6.6060398    246.18956  0.032930653  0.033458711            3 
  624000   0.99464775   -6.5816114    246.79027  0.032958102  0.033441205            9 
  625000    1.0085535   -6.6113477    246.62569  0.032883426  0.033423219            6 
  626000   0.98403598   -6.5763285    246.69136  0.032839639  0.033405227            2 
  627000    1.0338829   -6.5677145    247.75831  0.032929069  0.033387278            4 
  628000    1.0359896   -6.5719327     246.9444  0.032768631  0.033368842            7 
  629000   0.99351808    -6.594082    247.11229  0.032738777  0.033350377            2 
  630000   0.98311735   -6.6125025    247.61542  0.032753362  0.033331332            5 
  631000    1.0076345   -6.5872958     247.4204    0.0326757  0.033312246            5 
  632000   0.99805682   -6.6347258    247.58429  0.032645608  0.033293499            2 
  633000   0.98934996    -6.595779    247.93013  0.032639565   0.03327459            9 
  634000    1.0076418   -6.5822306    248.67816  0.032686404  0.033255851            1 
  635000   0.98596182   -6.6125828    248.28109   0.03258282  0.033237477            3 
  636000   0.99011149   -6.5794266    248.88966  0.032611328  0.033218906            3 
  637000    1.0025639   -6.6086717    249.22771  0.032604357  0.033200339            3 
  638000    0.9992592   -6.5745076     249.4044  0.032576332  0.033181412            3 
  639000   0.98026289   -6.6025132    248.70676  0.032434371  0.033162405            4 
  640000   0.98634709   -6.5803568    249.53317  0.032491298    0.0331433            4 
  641000   0.99711511   -6.5998386    250.27439  0.032536972  0.033124002            5 
  642000    1.0047741   -6.5787272    250.44665  0.032508651  0.033104961            6 
  643000    0.9906605    -6.606867    250.14123  0.032418511   0.03308588            3 
  644000   0.98312427   -6.6221288     251.0688  0.032488198  0.033066925            5 
  645000   0.97877133   -6.6210269    251.07872  0.032439111  0.033047831            8 
  646000    1.0158707   -6.6053492    251.81258  0.032483563  0.033028838            6 
  647000    1.0178359   -6.5736661    251.51771  0.032395377  0.033009959            4 
  648000   0.98976032   -6.5886466    251.60821  0.032357023  0.032990848            4 
  649000   0.98370008   -6.6184866    252.13697  0.032375061  0.032971655            5 
  650000    1.0013637   -6.5994134     251.4966  0.032243154  0.032952438           18 
  651000    1.0020312   -6.6132258    252.45169  0.032315884  0.032933239            2 
  652000   0.99122467   -6.6093148    253.19308  0.032361078  0.032914126            3 
  653000    1.0085271   -6.6071709     252.0799  0.032169462  0.032894691            4 
  654000   0.99794013   -6.5985476    252.86736  0.032220612  0.032875346            3 
  655000   0.97868252   -6.6182193    252.88817  0.032174067  0.032855758            5 
  656000    1.0010927   -6.6367926    253.20703  0.032165527  0.032836198            3 
  657000   0.99963024   -6.6097415    254.24048  0.032247651  0.032816916            4 
  658000   0.99346592   -6.5852225     254.1604    0.0321885  0.032797728            5 
  659000   0.99328444   -6.6351803    254.57996  0.032192712  0.032778944            6 
  660000   0.97933217   -6.6166282    254.76471  0.032167261  0.032759997            5 
  661000    0.9788459   -6.6061285    255.15041  0.032167223  0.032740865            6 
  662000    1.0001702   -6.6191106    254.72217  0.032064724  0.032721748            6 
  663000   0.97838606   -6.6279473    255.39583  0.032101035  0.032702486            3 
  664000     0.970047   -6.6005851    256.45569  0.032185704  0.032683225           10 
  665000   0.98500165   -6.6307964    254.97683  0.031951983  0.032663999            6 
  666000   0.99056245   -6.6173554    256.34041  0.032074626  0.032644782            7 
  667000   0.98559459   -6.6412604    255.78165  0.031956728  0.032625616            7 
  668000    0.9841533   -6.6365153    256.24412  0.031966582  0.032606579            6 
  669000   0.99931295   -6.6293589    256.60183  0.031963357  0.032587241            5 
  670000   0.99237767   -6.6213564    257.11861  0.031979926  0.032567785            5 
  671000   0.98953241   -6.6039964    257.18374  0.031940356  0.032548243            1 
  672000   0.99368727   -6.6202165    257.80887  0.031970346  0.032528991            2 
  673000   0.98247046   -6.6005297    258.15001  0.031965083  0.032509758            4 
  674000   0.99705462   -6.6355051    257.42439  0.031827942  0.032490352            3 
  675000   0.99434734    -6.611167    257.63096  0.031806291  0.032470953            2 
  676000   0.97926577   -6.6206189    258.13945  0.031821924  0.032451655            4 
  677000   0.98574237    -6.625276    258.25526  0.031789175  0.032432122            2 
  678000   0.98014094   -6.6207414    258.14994  0.031729344  0.032412531            5 
  679000   0.98126431   -6.6309244    258.24167  0.031693872  0.032392874            6 
  680000   0.99565889   -6.6353734    258.83853  0.031720408  0.032373409            6 
  681000   0.97846979   -6.6740217    258.92369  0.031684249  0.032353498            7 
  682000   0.98914279   -6.6420173    258.39911  0.031573693  0.032333754            8 
  683000   0.96642627   -6.6372577    259.88246   0.03170845  0.032313697            5 
  684000   0.97657889    -6.624457    259.79931  0.031651963  0.032293941           12 
  685000   0.97717785   -6.6344517    260.89048  0.031738501  0.032274208            3 
  686000   0.98504167   -6.6248988    259.46847  0.031519493  0.032254282            8 
  687000   0.96193665   -6.6289073    260.05781  0.031545101  0.032234347            3 
  688000   0.98940287   -6.6663694      260.232  0.031520349  0.032214266            6 
  689000   0.99285538   -6.6086434    260.89377  0.031554641  0.032194123           11 
  690000   0.95671078   -6.6213087    261.16807  0.031542037  0.032174227            8 
  691000   0.95954667   -6.6312662    260.76712  0.031448037  0.032154182            7 
  692000   0.99672323   -6.6353936    260.55408  0.031376936  0.032133997            3 
  693000    0.9892979   -6.6399213      260.477  0.031322391   0.03211354            6 
  694000   0.99645202    -6.643959    260.77793  0.031313393  0.032092691            3 
  695000   0.96684551   -6.6655664    260.69189  0.031258021  0.032071745            8 
  696000   0.97541599   -6.6395371    260.95626  0.031244763  0.032050728            5 
  697000    0.9631182   -6.6535516      261.339  0.031245696  0.032029617            4 
  698000   0.98276782   -6.6436448    262.57562   0.03134857  0.032008513            4 
  699000   0.94517793   -6.6414038    262.27665  0.031268079  0.031987826            8 
  700000   0.97736833   -6.6606428    262.70887  0.031274866  0.031967221            5 
  701000    0.9720302   -6.6247555    262.49992  0.031205411  0.031946553            3 
  702000   0.98232184   -6.6350128    263.17794  0.031241446  0.031926256            3 
  703000    1.0017156   -6.6281373    262.64379  0.031133688  0.031905614            3 
  704000   0.95085069   -6.6587588    262.83867  0.031112531    0.0318849            3 
  705000   0.96251939   -6.6427541    263.45641   0.03114142  0.031864193            5 
  706000   0.98763461   -6.6732398    262.78434  0.031017982  0.031842845            4 
  707000   0.97707033   -6.6400808    263.68054  0.031079742  0.031821649            6 
  708000   0.97788462   -6.6287818    263.26314  0.030986716  0.031800479            2 
  709000   0.97108802   -6.6416558    263.67689  0.030991643  0.031779319            4 
  710000   0.95746825   -6.6184068    264.81765  0.031081884  0.031758465            5 
  711000   0.97115381   -6.6811996    264.86364  0.031043558  0.031737947            7 
  712000   0.98542356   -6.6186526    264.91611  0.031006099  0.031717528            6 
  713000   0.97592877   -6.6775565    264.52876   0.03091734  0.031696915            5 
  714000   0.96662539   -6.6416903    265.86592  0.031030103  0.031676218            6 
  715000   0.96566512   -6.6252905    265.70749  0.030968239  0.031655233            3 
  716000   0.97305864   -6.6594072    264.78792  0.030817961  0.031634517            3 
  717000    0.9429575   -6.6668577     264.7847  0.030774605  0.031613544            4 
  718000   0.96703255   -6.6623112    265.07552  0.030765497  0.031592122           10 
  719000   0.96326475   -6.6361154    265.81211  0.030808079  0.031571078            4 
  720000   0.97907742    -6.640703    266.93381  0.030895117  0.031550082            6 
  721000   0.98743583   -6.6214752    266.33832  0.030783439  0.031529099            7 
  722000   0.95830227   -6.6382607    267.25132  0.030846182  0.031508472            6 
  723000   0.98881704   -6.6587076    267.39282  0.030819827  0.031488008           10 
  724000   0.98379616   -6.6877632    267.32291  0.030769211  0.031467498            4 
  725000   0.96837107    -6.633977    267.76767  0.030777893  0.031446851            8 
  726000   0.95066931   -6.6740181     267.3774  0.030690702  0.031425975            2 
  727000   0.96606328   -6.6791641    267.43435  0.030655015  0.031405246            5 
  728000   0.96673127   -6.6367768    268.44027  0.030728053  0.031384478            4 
  729000   0.95668024   -6.6761142    267.16286  0.030539879  0.031363507            6 
  730000    0.9477324   -6.7014119    267.96461  0.030589567  0.031342189            4 
  731000   0.97044108   -6.6721134    268.19239  0.030573687  0.031320698            4 
  732000   0.93526883   -6.6766861    267.49505  0.030452533  0.031298985            8 
  733000   0.94804831   -6.6777668     268.7077  0.030548851  0.031277401           10 
  734000   0.94860512   -6.6703645    267.93463  0.030419463  0.031255679           10 
  735000   0.96537396   -6.6959649    268.41986  0.030433091  0.031233643            5 
  736000   0.97269729    -6.678705    268.58499  0.030410438  0.031211899            2 
  737000   0.96693497   -6.6714763    268.88004  0.030402537  0.031190057            5 
  738000    0.9625166   -6.6901034    268.29233  0.030294978  0.031168319            8 
  739000   0.93388583   -6.6699135    269.16454  0.030352339  0.031146821           12 
  740000    0.9550559   -6.6658355    269.10103   0.03030417  0.031125406            5 
  741000   0.95000452   -6.6699982    269.62545  0.030322251  0.031103764            7 
  742000   0.95679753   -6.6820341    269.86719  0.030308534   0.03108222            2 
  743000   0.95882701   -6.6661531    270.45503  0.030333673  0.031060853            4 
  744000    0.9743429   -6.7018382    270.26848  0.030272008  0.031039523            7 
  745000   0.95526589   -6.6840372    270.54849  0.030262695  0.031018279            6 
  746000   0.94860325   -6.6867282    270.95918  0.030268005  0.030996913            5 
  747000   0.97473956   -6.6863806    271.27358   0.03026256  0.030975632            7 
  748000   0.95619069   -6.6728451    271.52684  0.030250316  0.030954779            4 
  749000    0.9609855   -6.6619004    272.27859  0.030293568  0.030933975            2 
  750000   0.95068632    -6.704527    271.92324  0.030213693  0.030913024            8 
  751000    0.9807243   -6.6572863    272.12547  0.030195902  0.030891765            6 
  752000   0.94450432   -6.6842455    272.02948  0.030145111  0.030870772            3 
  753000    0.9438567    -6.678999    272.00807  0.030102708  0.030849517           12 
  754000   0.97288351   -6.6525095    272.13634   0.03007696  0.030828262            5 
  755000   0.96204362   -6.6624119    272.66861  0.030095873  0.030807251            3 
  756000   0.95947362   -6.6678514    273.46777  0.030144154  0.030786299            5 
  757000    0.9354602   -6.6713514    273.67078  0.030126682   0.03076553            5 
  758000   0.94275596   -6.6626859    273.52809   0.03007125  0.030744799            6 
  759000   0.96539449   -6.6449708    273.37682  0.030015022  0.030724232            7 
  760000   0.96232314   -6.7251229    273.54102  0.029993533  0.030703413            6 
  761000    0.9585139   -6.6693967    274.17456  0.030023495  0.030682527            1 
  762000   0.96550212   -6.6886924    274.35974  0.030004346  0.030661964            4 
  763000    0.9614978    -6.674071     274.4805  0.029978211  0.030641265            3 
  764000   0.95227176   -6.7201664     275.0079  0.029996499  0.030620294            5 
  765000   0.92917051   -6.7182299    274.42686  0.029893993  0.030599418            6 
  766000   0.95742779   -6.7176951    274.52944  0.029866127  0.030578485            9 
  767000   0.93462585   -6.6760863     275.9109  0.029977281  0.030557928            6 
  768000   0.93797628   -6.7003961     275.8693  0.029933734  0.030537232            7 
  769000   0.94767298   -6.6956234    274.79042  0.029777896  0.030516437            6 
  770000   0.94421778   -6.6780605    275.72648  0.029840528  0.030495802            3 
  771000      0.92832   -6.6675361    276.10673  0.029842924  0.030475211            7 
  772000   0.96806702   -6.7171409     276.5465  0.029851738  0.030454362            6 
  773000   0.95557486   -6.6948979    276.24921   0.02978107  0.030433718            4 
  774000   0.95104951   -6.6902329    276.66662  0.029787534  0.030413372            4 
  775000   0.93158764   -6.6911717    277.09486  0.029795146  0.030393077           11 
  776000    0.9456752   -6.6796688    277.23335  0.029771622  0.030372755            6 
  777000   0.94391794   -6.6683477    276.74331   0.02968075  0.030352043            4 
  778000   0.94937226   -6.6917948     277.3294  0.029705377  0.030331283            3 
  779000     0.930716   -6.7281122     276.9092  0.029622294  0.030310278            7 
  780000   0.93879834   -6.7248241    277.30292   0.02962638  0.030289167            4 
  781000   0.94854972   -6.6939589     277.0431  0.029560723  0.030268205           13 
  782000   0.94321372   -6.6966011    277.82447  0.029606188  0.030247477            4 
  783000   0.94552556   -6.6958212    278.05243  0.029592639  0.030226784            6 
  784000   0.93424985   -6.6852643    278.50701  0.029603211  0.030205878            8 
  785000   0.96487173   -6.6765782     278.2582  0.029539087   0.03018488            5 
  786000   0.93378197    -6.694633    278.70442  0.029548815  0.030163738            7 
  787000   0.93311503   -6.7131333    279.11789   0.02955505  0.030142657            5 
  788000    0.9630804    -6.715743    278.07749  0.029407518  0.030121569            8 
  789000   0.94299218   -6.7107086    278.76516  0.029442877  0.030100235            5 
  790000   0.94522655   -6.7025912      279.205  0.029452004  0.030078908            7 
  791000   0.93569061   -6.7108134    278.90766  0.029383445  0.030057575            5 
  792000   0.94272248   -6.7303677    278.69086  0.029323533  0.030036158            4 
  793000   0.92697428   -6.7170472    278.81131  0.029299213  0.030014812            3 
  794000   0.90669758   -6.7153829    279.17716  0.029300709  0.029993504            9 
  795000     0.945066   -6.6955579     279.4503  0.029292484  0.029972082            6 
  796000   0.92806826   -6.6877353    279.98592  0.029311759  0.029950938            4 
  797000   0.95066931   -6.6979266    279.65803  0.029240697  0.029929553            9 
  798000   0.92749917   -6.7087161    280.20142    0.0292608  0.029908187            4 
  799000    0.9153986   -6.7355745    279.86655  0.029189253  0.029886962            8 
  800000   0.94678515   -6.7440906    280.75866  0.029245693  0.029865662            4 
  801000   0.95331946    -6.719344    280.47187  0.029179345  0.029844434            8 
  802000   0.95058707   -6.7003116    281.04115  0.029202115  0.029823049            7 
  803000    0.9307151   -6.7199521    279.97071  0.029054661   0.02980179            3 
  804000   0.93011872   -6.7348705    280.52561  0.029076037  0.029780085            4 
  805000   0.91545843   -6.7008125    280.82018  0.029070412   0.02975858            5 
  806000   0.94223489   -6.7275791    280.80144  0.029032407  0.029737195            4 
  807000   0.93163025    -6.695627    281.41986  0.029060291  0.029715725            5 
  808000   0.91321889   -6.7324054    280.80097  0.028960496  0.029694205            5 
  809000   0.93450288   -6.6998505     281.1716  0.028962876   0.02967256            3 
  810000   0.92770259   -6.7181204    281.49642  0.028960537  0.029651148           12 
  811000     0.915447   -6.7504133    281.65024  0.028940633   0.02962986            6 
  812000   0.93960567   -6.7062838    282.62644  0.029005177  0.029608456            7 
  813000   0.93014422   -6.7156656    282.69362  0.028976386  0.029587272            4 
  814000   0.92920579   -6.7241715    281.49069  0.028817638  0.029566015            9 
  815000   0.91119049   -6.7428366    282.46901  0.028882311  0.029544866            6 
  816000    0.9447366   -6.7444368    282.56926  0.028857155  0.029523822            4 
  817000   0.92765985   -6.7279535    282.91334  0.028856929  0.029502701            9 
  818000   0.93056544   -6.7316857    283.05483  0.028836067  0.029481782           13 
  819000   0.91691435   -6.7598941    283.21948  0.028817611  0.029460603            6 
  820000   0.94122515   -6.7486995    283.76827  0.028838239  0.029439336            3 
  821000   0.94233348   -6.7178596    283.60542  0.028786583  0.029418331           10 
  822000   0.91827937   -6.7528982    283.09433   0.02869975  0.029397346            4 
  823000    0.9277505    -6.708163      283.518  0.028707777  0.029376221            3 
  824000   0.91015681   -6.6901468     284.7901  0.028801588  0.029355457            5 
  825000   0.92913182    -6.743233     284.0608   0.02869301  0.029334453            4 
  826000   0.93073003    -6.746186    284.43911  0.028696439  0.029313412            5 
  827000   0.93175706    -6.772998    284.91441  0.028709635  0.029292531            6 
  828000   0.92269571     -6.72994     284.8687  0.028670361  0.029271601            3 
  829000   0.92832812   -6.7225619    285.03061  0.028652052  0.029250724            8 
  830000   0.92600804   -6.7341985    285.23461  0.028638013  0.029229853            5 
  831000    0.9372754   -6.7361425    286.26104  0.028706482   0.02920915            5 
  832000   0.94585363   -6.7484875    286.13739  0.028659594  0.029188554            4 
  833000   0.93482346   -6.7486294    286.63225  0.028674695  0.029168079            6 
  834000   0.93259173   -6.7455285    286.68881  0.028645964  0.029147627            2 
  835000   0.90921118   -6.7374892    286.74193  0.028616959   0.02912703            7 
  836000   0.91901361   -6.7832608    286.20065  0.028528773  0.029106473            9 
  837000   0.91191556   -6.7739647    286.26429  0.028501024  0.029085669            4 
  838000   0.91271923   -6.7381553    286.50479   0.02849093  0.029065063            5 
  839000   0.90211631   -6.7749604    287.13226  0.028519294  0.029044402            3 
  840000   0.91466565   -6.7645748    287.27731  0.028499733  0.029023737            7 
  841000   0.92365448   -6.7326789    287.95177  0.028532676  0.029003223            7 
  842000   0.90602181   -6.7689405     287.1495  0.028419388  0.028982999            5 
  843000   0.90809038   -6.7067488     289.3835  0.028606514  0.028962763            7 
  844000    0.9384172   -6.7460931    288.49701  0.028485092  0.028942679           13 
  845000   0.93182419   -6.7526357     288.9022  0.028491341  0.028922755            5 
  846000   0.92595401   -6.7634304    288.22867  0.028391319   0.02890278            9 
  847000     0.918172   -6.7934878     289.1528  0.028448721  0.028882869            5 
  848000   0.93407034    -6.753799    288.73735  0.028374347  0.028862858            7 
  849000   0.92621074   -6.7366441    288.86976  0.028353922  0.028842643           12 
  850000   0.90232818   -6.7665363     289.4951  0.028381872  0.028822644            5 
  851000   0.90218456   -6.7686199    288.75176  0.028275731  0.028802201            4 
  852000    0.8809521   -6.7723179    289.62688  0.028328138  0.028782007            7 
  853000   0.91984317   -6.7632887    289.21217  0.028254413  0.028761775           12 
  854000   0.90491787    -6.746002    289.91938  0.028290338  0.028741289            3 
  855000   0.89362123   -6.7842251    288.81306  0.028149421  0.028720757           10 
  856000   0.90372695    -6.736236    289.14825  0.028149168  0.028700054            4 
  857000   0.90703736   -6.7690631    289.63558  0.028163708  0.028679473            4 
  858000   0.91979754   -6.7584915    290.40033   0.02820516  0.028659125           10 
  859000   0.91562871   -6.7838885    289.34524  0.028069968  0.028638586            9 
  860000    0.9227893    -6.795623    290.41764  0.028141244  0.028617869            4 
  861000   0.90700964   -6.7607486    289.55685  0.028025247  0.028597258            3 
  862000    0.9218491   -6.7565185    290.26405  0.028061103  0.028576549            4 
  863000   0.91253629   -6.7660116    290.46792  0.028048274  0.028555845            8 
  864000   0.91663524   -6.8038641    289.96282  0.027967093  0.028535254            4 
  865000   0.91708879   -6.8091491    290.27323  0.027964665  0.028514394            2 
  866000   0.89778501   -6.7313277    290.91565  0.027994193  0.028493617            4 
  867000   0.91102698   -6.7589307    291.30325  0.027999159  0.028472949            9 
  868000   0.90100328   -6.7538376    291.02692  0.027940372  0.028452432            9 
  869000   0.89872767   -6.7578121    291.51792  0.027955305  0.028431719            5 
  870000   0.90862659   -6.8016985    291.05183  0.027878528  0.028411081            9 
  871000   0.91411969   -6.7663436     291.6063   0.02789957  0.028390333           11 
  872000   0.90120251   -6.7803786    291.05312  0.027814709  0.028369644            9 
  873000   0.90962206   -6.7828543    291.69182  0.027843817  0.028348886            9 
  874000   0.90250746   -6.7822043     291.8126  0.027823474  0.028328152           12 
  875000   0.89992727   -6.8259986    291.01622   0.02771583  0.028307213            7 
  876000   0.90680539   -6.7929118    292.32184  0.027808394  0.028286674            8 
  877000   0.91023878   -6.8001566    292.11182  0.027756729  0.028266131           13 
  878000   0.91543515   -6.7723928    292.23385  0.027736698  0.028245563           12 
  879000   0.93526213   -6.7787099    292.20063  0.027701994  0.028225206           12 
  880000   0.90008889   -6.7710702    292.89496  0.027736265  0.028204691            5 
  881000   0.91803352   -6.7856912    293.28711  0.027741875   0.02818428           10 
  882000   0.87193279   -6.7874791    293.81309  0.027760118  0.028163955           10 
  883000   0.87544245   -6.7907413    293.12229  0.027663485  0.028143537            5 
  884000   0.90598913   -6.7831646    293.54218  0.027671774  0.028123095            4 
  885000   0.90684029   -6.8029175    293.60663  0.027646576   0.02810292           13 
  886000   0.91139931   -6.7825765    294.73456  0.027721459   0.02808278            4 
  887000   0.91146458   -6.8188813    294.25312  0.027644975  0.028062653            4 
  888000   0.88915406   -6.7871558    295.28767   0.02771093  0.028042689            7 
  889000   0.90353431   -6.7854243    293.85652  0.027545606  0.028022595            5 
  890000    0.9150861    -6.812366    294.03433  0.027531305  0.028002374            7 
  891000   0.88702063    -6.775139    294.32059  0.027527178  0.027982161            4 
  892000   0.90055725   -6.7937958    294.09527  0.027475268  0.027962008            4 
  893000   0.89577374   -6.7795063    294.95802  0.027525012  0.027941707            4 
  894000   0.89391514   -6.8113087     294.4854  0.027450168  0.027921383            4 
  895000   0.91368076   -6.7886573    294.14443   0.02738775  0.027901006           23 
  896000   0.88222534   -6.8233185     294.6486  0.027404074  0.027880477            3 
  897000   0.87778586    -6.816187    294.82917  0.027390298  0.027860207            4 
  898000   0.89640629     -6.78942    295.23347  0.027397315  0.027839899           13 
  899000   0.88831575   -6.7969718    295.20117  0.027363846  0.027819613            5 
  900000    0.8725564   -6.7822541    295.75936  0.027385126  0.027799175            8 
  901000   0.90762657   -6.7777955    296.18282  0.027393898  0.027779082            4 
  902000   0.88408699   -6.8180901    295.66444  0.027315636  0.027759134            3 
  903000   0.90475653   -6.7836812    296.54407  0.027366562  0.027739102            4 
  904000   0.91056902   -6.7920199    296.73026  0.027353453  0.027719139            8 
  905000   0.88823729   -6.7877582    296.58052   0.02730944  0.027699118            3 
  906000   0.89169627   -6.7955389    296.57798  0.027279064  0.027679055            5 
  907000   0.87456455   -6.8156627    296.72065  0.027262096   0.02765895            6 
  908000   0.90692243   -6.8250806    296.56131  0.027217448  0.027638801            6 
  909000   0.87041245   -6.8307926    296.81064  0.027210363  0.027618556            7 
  910000   0.88707499   -6.8136677    296.47694  0.027149903  0.027598189            4 
  911000   0.88443193   -6.8225031    297.37635  0.027202374  0.027578232            5 
  912000   0.89105062   -6.8322165    297.03714  0.027141551  0.027558324            3 
  913000    0.8783423   -6.8210903    297.11266  0.027118717  0.027538337            4 
  914000   0.87838094   -6.8009067    297.47837   0.02712239  0.027518371            8 
  915000   0.88400331   -6.7981163    298.05625  0.027145378  0.027498359            6 
  916000    0.8953482   -6.7953472    298.05363  0.027115505   0.02747818            4 
  917000   0.88590745   -6.8006431    297.81974   0.02706468  0.027458136           18 
  918000   0.88757478   -6.8260413    297.83349  0.027036446  0.027438149           11 
  919000   0.88522624   -6.8476977    297.99914  0.027022048   0.02741806            8 
  920000   0.89112717   -6.8343838    298.28139  0.027018241  0.027398079            7 
  921000    0.8773362   -6.8458739    298.20536  0.026982027  0.027378144           15 
  922000   0.88739928    -6.835416    299.01818  0.027026227  0.027358224            5 
  923000   0.89628167   -6.8469438    298.58475  0.026957814  0.027338419           12 
  924000   0.89864214   -6.8241091    299.32693  0.026995575  0.027318673            8 
  925000   0.88917058   -6.8128258    299.58266  0.026989429  0.027298885            5 
  926000    0.8943408   -6.8524978    299.25784  0.026931051  0.027278968            6 
  927000   0.88061271   -6.8120003    299.48775  0.026922667  0.027259221            5 
  928000   0.90893903   -6.8242246    299.83479  0.026924819  0.027239376            4 
  929000   0.88783765   -6.8296143    299.35961  0.026853212  0.027219479            8 
  930000   0.87726215   -6.8060639     300.1154   0.02689206  0.027199558            4 
  931000    0.8830056   -6.8166694    299.33401  0.026793234  0.027179738            7 
  932000   0.87703705   -6.8454424    299.44672  0.026774563   0.02715978            6 
  933000   0.86766361    -6.834465    299.84199  0.026781171  0.027139795            9 
  934000    0.8937997    -6.820403    300.06555  0.026772444  0.027119925            6 
  935000   0.89681147   -6.8360128    300.17698  0.026753741  0.027099943            7 
  936000   0.86867827   -6.8343806    300.29175  0.026735377  0.027079886            8 
  937000    0.8931096   -6.7868339    299.72663  0.026656584  0.027059739            4 
  938000   0.88996631   -6.8031537    300.15174  0.026665933   0.02703982            7 
  939000   0.88476924   -6.8453355    299.45044  0.026575297  0.027019949            5 
  940000   0.86982334   -6.8366806    299.95982  0.026592182  0.026999896            8 
  941000   0.85402982   -6.8331042    301.28135  0.026680955  0.026980004           12 
  942000   0.86770766   -6.8110666    299.93563  0.026533583   0.02696011            5 
  943000   0.87088155   -6.8203894    300.80638  0.026582395  0.026940025            9 
  944000   0.87671333   -6.8404494    301.46515   0.02661239  0.026920162            9 
  945000   0.88477841   -6.8451104     299.8158  0.026438783  0.026900283            9 
  946000   0.85076594   -6.8343242    301.18815  0.026531725  0.026880459            4 
  947000   0.86269432    -6.826643    301.39571  0.026521974   0.02686079           10 
  948000   0.88989347   -6.8308069     301.4898  0.026502268  0.026841039            7 
  949000   0.87031362   -6.8211952    301.29597  0.026457321  0.026821131            4 
  950000   0.89244019   -6.8238022    302.74089  0.026556218  0.026801408            4 
  951000   0.87235526   -6.8561976    301.60912   0.02642912  0.026781789            7 
  952000   0.87701304   -6.8390427    301.32953  0.026376885  0.026762094            6 
  953000   0.86138152   -6.8168006    301.96788  0.026405026   0.02674239            7 
  954000   0.86922949   -6.8461892    301.75847  0.026359056  0.026722689            5 
  955000   0.88659912   -6.8219685    302.66623  0.026410666  0.026703002            7 
  956000   0.87916796   -6.8446607    302.92478  0.026405577   0.02668331            7 
  957000   0.86114601   -6.8344941    302.93239  0.026378648  0.026663766            7 
  958000    0.8638708   -6.8553437    302.61576   0.02632357  0.026644242            5 
  959000   0.86718333   -6.8204352    303.65623  0.026386534  0.026624957            7 
  960000   0.88152799   -6.8246602    304.28066  0.026413252  0.026605839            5 
  961000   0.87464772   -6.8714797    303.44689  0.026313466  0.026586484           10 
  962000   0.88167648   -6.8532264    303.49537  0.026290313  0.026567005           17 
  963000   0.87676719   -6.8500105     304.2531  0.026328583  0.026547718            7 
  964000   0.87123455   -6.8751477    304.46048  0.026319198  0.026528349            7 
  965000   0.86362862   -6.8404453    305.17664  0.026353768  0.026509062            7 
  966000    0.8671816   -6.8787371     304.0622  0.026230348  0.026489754            6 
  967000   0.88776944   -6.8527082    304.84704  0.026270858  0.026470572            4 
  968000   0.86094475    -6.865187    304.05299  0.026175361  0.026451454            7 
  969000   0.85903378   -6.8299604    305.35521  0.026260338  0.026432424           14 
  970000   0.87568702   -6.8455476    304.84179  0.026189157  0.026413494           20 
  971000   0.84920645   -6.8774878    304.99368  0.026175221   0.02639462            4 
  972000   0.86830588   -6.8304214    305.64643  0.026204255  0.026375835            4 
  973000   0.86598089      -6.8768    305.19617   0.02613876  0.026356992            8 
  974000     0.872692   -6.8719003    304.99684   0.02609487  0.026338054           19 
  975000   0.87197576   -6.8948271    305.94967  0.026149544  0.026319124            5 
  976000   0.88013963   -6.8773926    305.33623  0.026070375  0.026300273            6 
  977000   0.86949145   -6.8866968      305.442  0.026052712  0.026281399            4 
  978000   0.85216688   -6.8688729    306.23892  0.026093978   0.02626264           14 
  979000   0.86295033   -6.9132956    305.59739  0.026012716  0.026243667           13 
  980000   0.87555345   -6.8574677    307.02016  0.026107156  0.026224885            6 
  981000   0.87747604   -6.8672493    306.71979  0.026055028  0.026206141            7 
  982000   0.84495098   -6.8671967    306.22997  0.025986929  0.026187487            4 
  983000   0.87066746    -6.852445    306.48303  0.025981945  0.026168809            5 
  984000   0.85141464   -6.8864712    306.94815  0.025994931  0.026149987           12 
  985000   0.86629771   -6.8727325    307.45652   0.02601155  0.026131282            6 
  986000   0.87585737   -6.8901685    307.12634  0.025957263  0.026112593            8 
  987000   0.87719365   -6.8784695    306.83267   0.02590617   0.02609386           10 
  988000    0.8667524   -6.8528075    307.16091  0.025907634  0.026075185            6 
  989000   0.85765168   -6.8920582    306.95511  0.025864097    0.0260565            7 
  990000   0.85616143   -6.8707205    307.58955  0.025891376  0.026037736            9 
  991000   0.89495955    -6.865712    308.71661  0.025960024  0.026019129           11 
  992000   0.84963655   -6.8838106    308.54335    0.0259193  0.026000484            5 
  993000   0.85464812   -6.8812954    307.77408   0.02582864  0.025981797            6 
  994000    0.8541076   -6.9030755    307.24986  0.025758707  0.025963119            4 
  995000    0.8542411   -6.8900019    308.42495  0.025831235  0.025944545            9 
  996000   0.85572888   -6.8873317    307.96124  0.025766503  0.025926015            4 
  997000    0.8706894     -6.85442    308.73802  0.025805585  0.025907623            9 
  998000   0.84801808   -6.8560014    308.11082  0.025727356  0.025889223            4 
  999000   0.85859883   -6.8602022    308.39787  0.025725548  0.025870688            5 
 1000000   0.83234214   -6.8639237      308.863  0.025738583  0.025852198           10 
 1001000    0.8544287   -6.8671589    309.12279  0.025734498  0.025833682            9 
 1002000   0.84081793   -6.8588661    309.16576  0.025712389  0.025815231            6 
 1003000   0.85273588   -6.8979144    308.39552  0.025622758  0.025796753            6 
 1004000   0.85825605   -6.9070638    308.72627   0.02562469  0.025778045            6 
 1005000   0.84427792    -6.902313    309.27608  0.025644783  0.025759481            7 
 1006000   0.85528075   -6.8654092    309.68166  0.025652888  0.025740964            4 
 1007000   0.84866845     -6.86591    309.98286  0.025652338  0.025722483            9 
 1008000   0.84082901   -6.9039574    308.92311  0.025539278  0.025703973            7 
 1009000   0.87756841   -6.8731009    310.07507  0.025609107  0.025685443            4 
 1010000   0.83497589   -6.9057663    309.98752  0.025576528  0.025667082            6 
 1011000   0.86474575   -6.8895786    309.78682  0.025534687  0.025648684            8 
 1012000   0.86007781   -6.8704456    309.80117  0.025510637  0.025630222           13 
 1013000   0.85732369   -6.8571773    309.82426  0.025487353  0.025611612            6 
 1014000   0.83634708   -6.8781529    309.10193  0.025402854  0.025592951           11 
 1015000   0.85868954   -6.8930374    308.97483  0.025367391  0.025574209           10 
 1016000   0.85473893   -6.8682403    310.33057  0.025453623  0.025555579            8 
 1017000   0.84837987   -6.8770825    310.44322  0.025437826  0.025537083            7 
 1018000   0.84298772   -6.9055826    310.91646  0.025451577   0.02551865           12 
 1019000   0.83539644   -6.8786938    310.97859  0.025431681  0.025500206           12 
 1020000   0.84644991   -6.8961241    310.78339    0.0253908  0.025481789           13 
 1021000   0.84746037   -6.8823297    311.55042  0.025428536   0.02546342            8 
 1022000   0.84533489   -6.9091171    311.05773  0.025363481   0.02544509           13 
 1023000   0.85462382   -6.9220868    310.22504  0.025270857  0.025426488            7 
 1024000   0.82427419   -6.8919604    310.89068  0.025300348     0.025408            7 
 1025000   0.84724276    -6.903872    311.12545  0.025294752  0.025389445           13 
 1026000   0.85965607   -6.8743143    310.79288  0.025243086  0.025371041           21 
 1027000    0.8269369   -6.8953677    311.65573  0.025288521  0.025352785            4 
 1028000    0.8568178   -6.9271972    311.78276  0.025274219  0.025334592            5 
 1029000   0.84123423   -6.8893932    313.16937  0.025361951  0.025316464            4 
 1030000   0.84234738   -6.8895895    311.83093  0.025229039  0.025298171            7 
 1031000   0.83181427   -6.9353934    312.31317  0.025243547  0.025279987            9 
 1032000    0.8577292   -6.8801098    312.03851  0.025196908  0.025261761           21 
 1033000   0.84782384    -6.879835    312.34993  0.025197638  0.025243593            9 
 1034000   0.86301205   -6.8913214    312.86639  0.025214893  0.025225498            8 
 1035000   0.84136919   -6.9009271    312.49447  0.025160585   0.02520752            4 
 1036000   0.82808299   -6.8978521    313.17144  0.025190753  0.025189483            4 
 1037000   0.83183395   -6.9022542    312.58636  0.025119444  0.025171538           14 
 1038000    0.8375878   -6.9499324    312.04437  0.025051732  0.025153539            6 
 1039000   0.85184417   -6.9082488    312.79364  0.025087716  0.025135562           13 
 1040000   0.83926168    -6.885196    313.18175  0.025094691  0.025117747            5 
 1041000   0.83772352   -6.9069405    313.20242  0.025072239  0.025099752            4 
 1042000   0.84562489   -6.8936909    314.12995  0.025122357  0.025081911            8 
 1043000   0.84894225   -6.8902801    313.57277  0.025053753  0.025064107            5 
 1044000   0.83703896   -6.9120383    313.41994  0.025017556  0.025046377            5 
 1045000   0.83600604   -6.9319236    313.08078   0.02496657  0.025028471            5 
 1046000   0.86602993    -6.926485    313.13141  0.024946735  0.025010457           16 
 1047000   0.84241106   -6.9477123    313.73735  0.024971135  0.024992523           13 
 1048000    0.8648914   -6.9181117    314.15197  0.024980278  0.024974708            6 
 1049000   0.83289213   -6.9172378    314.59999  0.024992055  0.024956809            6 
 1050000   0.83055022   -6.8878516    314.20114  0.024936598  0.024939033            6 
 1051000   0.84255224   -6.8999277    314.95092  0.024972321  0.024921296           11 
 1052000    0.8336436   -6.9390956    314.35354  0.024901263  0.024903521           16 
 1053000   0.84165906   -6.9282714    314.34072    0.0248766  0.024885482            8 
 1054000   0.83245614   -6.9291969       313.98  0.024824478  0.024867445            5 
 1055000   0.83210696   -6.9277158    314.17349  0.024816232  0.024849443            5 
 1056000   0.83856703   -6.9308557    314.06023  0.024783793  0.024831455           28 
 1057000   0.81905393   -6.9233926    313.96953  0.024753195  0.024813591            5 
 1058000   0.83434454   -6.9270174     314.1618  0.024744943   0.02479551            6 
 1059000   0.81570724   -6.9064909    315.36583  0.024816323  0.024777519            7 
 1060000   0.83726556   -6.9071865    315.36107  0.024792537  0.024759562            9 
 1061000   0.83855503   -6.9463243    314.44218  0.024696998  0.024741604           10 
 1062000   0.81839728    -6.917619    315.33489  0.024743792  0.024723803            7 
 1063000   0.84392816   -6.9418699    316.07343  0.024778412  0.024706042            8 
 1064000   0.84263082    -6.941213    316.08272  0.024755852  0.024688397            9 
 1065000   0.82847603   -6.9448314    316.45434  0.024761685  0.024670924           10 
 1066000   0.82238381   -6.9339476    315.93049  0.024697506  0.024653458            9 
 1067000   0.82321877   -6.9314393    316.67059  0.024732161  0.024635979           10 
 1068000   0.81536855   -6.9124683    316.10738  0.024665058  0.024618537            6 
 1069000   0.82580886   -6.9353691    316.17351   0.02464714  0.024600965           22 
 1070000   0.82593458   -6.9361037    316.21956  0.024627692   0.02458352           19 
 1071000    0.8409742   -6.9350158    316.70842  0.024642734  0.024566046           19 
 1072000   0.80023425    -6.936143    316.08794  0.024571513  0.024548427           13 
 1073000   0.81632432   -6.9409001    317.07886  0.024625572  0.024530889           11 
 1074000   0.81275959   -6.9199621    317.04008  0.024599634  0.024513415            9 
 1075000   0.81102552   -6.9543579    317.11052  0.024582211  0.024496025            9 
 1076000   0.81804123   -6.9543269    317.17958  0.024564714  0.024478554           13 
 1077000   0.81015346    -6.944262    317.29776  0.024551049  0.024461195            8 
 1078000    0.8218763   -6.9301878    317.64707  0.024555277  0.024443834            8 
 1079000   0.82960986   -6.9288531    317.90188    0.0245522  0.024426622            6 
 1080000   0.81516213   -6.9449364    317.99671  0.024536783  0.024409395            5 
 1081000   0.83023864   -6.9668392    318.45311  0.024549268  0.024392199            7 
 1082000   0.82663794   -6.9335853     318.0431  0.024495001  0.024374975            8 
 1083000   0.83598563   -6.9638112    317.82893  0.024455904  0.024357816           13 
 1084000   0.81820714   -6.9672358    318.36472  0.024474532  0.024340598            8 
 1085000    0.8317636   -6.9693548    318.72571  0.024479701  0.024323365            8 
 1086000    0.8169406   -6.9943851    317.94688  0.024397397  0.024306135            7 
 1087000   0.80065845   -6.9652363    319.28592  0.024477608  0.024289014           23 
 1088000   0.81772882   -6.9444315    319.47355  0.024469481  0.024271929           11 
 1089000   0.81511512   -6.9819772    319.41073  0.024442204   0.02425493            8 
 1090000   0.81778324   -6.9454973    319.40202  0.024419115  0.024238029            7 
 1091000   0.82255593   -6.9783804    318.52534  0.024329769  0.024221098            5 
 1092000   0.82149241   -6.9597665    318.83897  0.024331423  0.024204016            6 
 1093000    0.8034525   -6.9619163    318.55493  0.024287506  0.024186961            5 
 1094000   0.81885761   -6.9519036    320.14226  0.024386217  0.024169923            6 
 1095000   0.81359234   -6.9662849    319.76316  0.024335096  0.024152874            8 
 1096000   0.82031776    -6.985782    318.94676  0.024250818  0.024135712           10 
 1097000   0.81597704   -6.9604921    319.39394  0.024262681  0.024118623            8 
 1098000   0.79120402   -6.9421294     320.1039  0.024294467  0.024101693            9 
 1099000   0.82863183   -6.9663815    319.31685  0.024212682  0.024084778           19 
 1100000   0.82132535   -6.9853252    319.80185  0.024227413  0.024067801           11 
 1101000    0.8219146    -6.947523    320.04781  0.024224024  0.024050768           13 
 1102000   0.81693842   -6.9550715    319.83303  0.024185801  0.024033723            7 
 1103000   0.81882783   -6.9934779    319.88139  0.024167527  0.024016743            6 
 1104000   0.79495949   -6.9720848    320.25959  0.024174184  0.023999784            9 
 1105000   0.80104611   -6.9733546    320.48547  0.024169342  0.023982925            9 
 1106000   0.82321167   -6.9498346    320.63541  0.024158786  0.023965987           11 
 1107000   0.80719465   -6.9810802    320.84166  0.024152488  0.023948997            8 
 1108000   0.80894841   -6.9722063    320.31128  0.024090801  0.023931922           10 
 1109000   0.83632276    -6.996782    320.36927  0.024073435  0.023914919            7 
 1110000   0.79829071   -6.9450625    320.61759   0.02407039  0.023897825            7 
 1111000   0.82094211   -6.9613724     319.2271  0.023944427  0.023880871           17 
 1112000   0.79411281   -6.9607355     320.9937  0.024055284  0.023863813           21 
 1113000   0.82316041    -6.959064     321.0427  0.024037339  0.023846912            4 
 1114000   0.80990717   -6.9667617    321.34903  0.024038676  0.023830032           10 
 1115000   0.80962473   -6.9793373    320.74498  0.023971971   0.02381314            9 
 1116000   0.80957586   -6.9697472    322.22415  0.024060943  0.023796313            7 
 1117000   0.81557959   -6.9598121    321.95388  0.024019239  0.023779509            4 
 1118000     0.795512     -6.99676    321.72741  0.023980874  0.023762814            5 
 1119000   0.78739034   -6.9858288    321.79856  0.023964743  0.023746032            5 
 1120000   0.80052234   -6.9840952    322.64095  0.024006023  0.023729276            7 
 1121000    0.7980064    -6.987039    321.68224  0.023913339  0.023712493           10 
 1122000   0.79275164    -6.986199    321.56933   0.02388364  0.023695713            8 
 1123000   0.82141013   -6.9869107    321.71702  0.023873331  0.023678908            6 
 1124000   0.80316624   -7.0039311     321.7511  0.023854619  0.023661999           14 
 1125000   0.81744779   -6.9707934    322.13893  0.023862143  0.023645044           11 
 1126000   0.79330209   -6.9485944    321.95161  0.023827088   0.02362819           18 
 1127000   0.80158157   -6.9808797    322.69512  0.023860922  0.023611463            4 
 1128000   0.79765385   -6.9948051    321.72734  0.023768273  0.023594805           20 
 1129000   0.78764001   -6.9802736    322.77484  0.023824538  0.023578117            5 
 1130000   0.80730905    -7.001405    321.88598  0.023737904  0.023561372            4 
 1131000   0.82172557   -6.9599401    322.11043  0.023733453  0.023544615            9 
 1132000   0.79461753   -6.9855287    323.16131  0.023789849  0.023527878           17 
 1133000   0.81226298   -7.0133921    322.86486  0.023747047  0.023511237           12 
 1134000   0.79514451   -6.9564669    322.58531  0.023705564  0.023494637            8 
 1135000   0.80002082   -6.9970493    322.68377  0.023691907  0.023477997           12 
 1136000   0.78867199     -6.99393    322.78469  0.023678455  0.023461351            6 
 1137000    0.7927277   -6.9882024    322.23243  0.023617152   0.02344473           11 
 1138000   0.78470217   -6.9900072    323.63557  0.023699148  0.023428168            6 
 1139000   0.79696749    -7.009164    323.18359  0.023645273  0.023411703           13 
 1140000   0.80060069    -6.977576    323.99471  0.023683824  0.023395244            5 
 1141000   0.80459035   -6.9831969    323.46495  0.023624376   0.02337873           15 
 1142000   0.79915068   -7.0123619    323.54769  0.023609727  0.023362165            5 
 1143000   0.78402626   -6.9871655    324.04948  0.023625655  0.023345721            9 
 1144000   0.78491858   -6.9901265    323.45634  0.023561797  0.023329154           11 
 1145000   0.77712803   -6.9987241    322.70347  0.023486424  0.023312538            4 
 1146000   0.79866989   -7.0017236    323.92738  0.023554929   0.02329587            5 
 1147000   0.80224847   -6.9986757    323.16051  0.023478677  0.023279237            8 
 1148000   0.78898408    -6.991364    323.23729  0.023463799  0.023262574           12 
 1149000   0.80301819   -7.0203343    323.10075  0.023433475  0.023245896            8 
 1150000   0.79690693   -6.9901722    323.86026  0.023468135  0.023229205           15 
 1151000   0.81122113   -6.9784489    323.74882  0.023439677  0.023212529            8 
 1152000   0.79232926   -6.9911688    323.83698  0.023425708  0.023195757           22 
 1153000   0.79869314   -6.9828458    324.67817  0.023466187  0.023179124           10 
 1154000   0.78842328   -6.9981865    324.54531  0.023436259  0.023162597            7 
 1155000   0.81128236   -7.0082545    323.91268  0.023370324  0.023145972           16 
 1156000   0.80357849   -7.0087922    323.76828  0.023339697  0.023129439           10 
 1157000   0.79531198   -7.0208413    324.20944  0.023351299  0.023112853           26 
 1158000   0.78510856   -7.0344076    324.95836  0.023385028  0.023096367           11 
 1159000   0.79447196   -7.0383276    324.65446  0.023343001  0.023079872           18 
 1160000   0.77731684   -6.9866601    325.06019  0.023352025  0.023063415           11 
 1161000   0.80232071   -6.9973446    324.78832  0.023312398  0.023046973            8 
 1162000   0.79613641   -7.0002641    325.15829  0.023318867  0.023030604           11 
 1163000   0.78484312   -6.9870651    325.59799  0.023330323  0.023014203           10 
 1164000    0.7892899   -7.0156449    324.67053  0.023243881  0.022997939            8 
 1165000   0.76894859   -7.0238621    324.96915   0.02324529  0.022981553           15 
 1166000   0.76241606   -7.0357031    324.50244  0.023191999  0.022965123           10 
 1167000   0.78296716   -7.0315672    324.99875  0.023207566  0.022948677            7 
 1168000   0.78476619   -7.0144455    325.12745  0.023196878  0.022932288           19 
 1169000   0.77320129   -7.0176331    325.39356  0.023196005  0.022916032            7 
 1170000   0.80128506   -6.9971483    325.38803  0.023175786  0.022899781           11 
 1171000   0.78981903   -7.0065125    326.11614   0.02320781  0.022883561           15 
 1172000   0.79761226   -7.0104116    326.23352  0.023196354  0.022867319           21 
 1173000   0.78650793    -7.020089    326.03475  0.023162458  0.022851064           18 
 1174000   0.78086768   -7.0149296    325.88664  0.023132215  0.022834859           10 
 1175000    0.7775135   -7.0422804    325.17294  0.023061911  0.022818651           26 
 1176000   0.78445888   -7.0319244    326.05936  0.023105114   0.02280244           18 
 1177000   0.78932056    -7.028911    327.13873  0.023161904  0.022786262            5 
 1178000   0.78481045   -7.0265267    326.52914  0.023099119  0.022770142           11 
 1179000   0.76970359   -7.0415744    326.88721  0.023104835  0.022754032            7 
 1180000   0.78853532   -7.0175936    326.01545   0.02302369  0.022737947           11 
 1181000   0.79411699   -7.0203675    326.87678  0.023064971  0.022721877           10 
 1182000   0.79917187    -7.028468    327.29532  0.023074966  0.022705906           18 
 1183000   0.79072901   -7.0298859    326.79423  0.023020163  0.022689877           12 
 1184000   0.79350745   -7.0357072    326.31408  0.022966926  0.022673788            9 
 1185000   0.77013909    -7.040379    327.18978  0.023009127  0.022657817            7 
 1186000   0.78358019   -7.0396316    326.86962   0.02296723  0.022641917            8 
 1187000    0.7783324    -7.047484    326.42944  0.022916978  0.022626003            9 
 1188000   0.77675231   -7.0019531    327.78388  0.022992696  0.022610081           13 
 1189000   0.78612827   -7.0449466    328.03417    0.0229909  0.022594277           18 
 1190000   0.77911472   -7.0230914    328.30108  0.022990271  0.022578466            6 
 1191000    0.7650565   -7.0136791    328.00206  0.022950046  0.022562641           13 
 1192000   0.78270146   -7.0122539    327.87604  0.022921983  0.022546849            5 
 1193000   0.76692642   -7.0248668    329.13346  0.022990602  0.022531147            7 
 1194000   0.79184734   -7.0421343    328.42411  0.022921839  0.022515378           11 
 1195000   0.76489168   -7.0147664    328.28622  0.022893042  0.022499607           15 
 1196000   0.78649197   -7.0167342     328.7732  0.022907831  0.022483995           11 
 1197000    0.7744051   -7.0653602    327.38689  0.022792181  0.022468168           22 
 1198000   0.77225757   -7.0407599    328.15488  0.022826577  0.022452272           11 
 1199000   0.78319498   -7.0464581    328.79925  0.022852325   0.02243645           25 
 1200000   0.78481429   -7.0420257    328.18652  0.022790731  0.022420653            8 
 1201000   0.77146544   -7.0353008    328.12776  0.022767677  0.022404877           13 
 1202000   0.77851137   -7.0571167    328.80903  0.022795967  0.022389229           15 
 1203000   0.77293955   -7.0640034    328.56119   0.02275985  0.022373576           11 
 1204000   0.76923687   -7.0511224       329.35  0.022795543  0.022357916            9 
 1205000   0.77621943   -7.0347927    329.15875  0.022763399  0.022342308           15 
 1206000   0.75616285   -7.0557001    329.02171  0.022735055  0.022326658           23 
 1207000   0.79510949   -7.0346069    329.09723  0.022721433   0.02231101           12 
 1208000   0.76438397   -7.0384577    328.91849  0.022690293  0.022295311           10 
 1209000   0.76663311   -7.0506974    328.15454  0.022618868  0.022279538           17 
 1210000   0.77448035   -7.0476607    328.70333  0.022637971  0.022263756           17 
 1211000   0.77196599   -7.0478477    328.92012  0.022634195  0.022248018            7 
 1212000    0.7739074   -7.0608637    329.54919  0.022658773  0.022232296            5 
 1213000    0.7702311   -7.0260111    329.61561  0.022644656  0.022216686           11 
 1214000   0.77721856   -7.0316887    330.17608  0.022664475  0.022201159           14 
 1215000   0.75557344   -7.0510726    329.01395  0.022566114  0.022185539           18 
 1216000   0.76268956   -7.0423664    329.64169  0.022590576  0.022169926           20 
 1217000   0.77346337   -7.0702258    329.30193  0.022548749  0.022154344            9 
 1218000   0.75260676   -7.0205614    329.46812  0.022541607  0.022138702           10 
 1219000   0.77793093   -7.0575726    329.59438  0.022531746  0.022123096            7 
 1220000   0.77202871   -7.0437527    330.32503  0.022563185  0.022107547            8 
 1221000   0.77692658   -7.0224027    330.57071  0.022561474  0.022092085            7 
 1222000   0.77370728    -7.049715     330.2562  0.022521563  0.022076755           18 
 1223000   0.74843463   -7.0492073    330.92225  0.022548532  0.022061226           11 
 1224000   0.77267744   -7.0687657    330.97777   0.02253389  0.022045718            9 
 1225000   0.77372765   -7.0747884    331.09897  0.022523739  0.022030229           12 
 1226000   0.77903905    -7.080911    330.23537  0.022446667  0.022014691           14 
 1227000   0.75897102   -7.0556429    330.09348  0.022418737  0.021999127           11 
 1228000   0.76276221   -7.0862937    330.04744  0.022397356  0.021983589           10 
 1229000   0.75834124    -7.068698    330.28757  0.022395414  0.021968058            7 
 1230000   0.76169082   -7.0578418    330.77204   0.02241003  0.021952512            7 
 1231000   0.76757248   -7.0656975    329.74879  0.022322555  0.021936935            8 
 1232000   0.74535239   -7.0382237    330.12896  0.022330152  0.021921447           10 
 1233000   0.76309629   -7.0606257    331.25482  0.022388133  0.021905996           11 
 1234000   0.75777598    -7.060975    331.47424  0.022384808  0.021890558           13 
 1235000    0.7495885   -7.0838796    330.57369  0.022305917  0.021875156           10 
 1236000   0.75774984   -7.0615728    330.47219  0.022281027  0.021859791            7 
 1237000   0.75852134   -7.0770804    331.16747  0.022309854  0.021844409           11 
 1238000   0.76075906   -7.0705109    331.55991  0.022318249  0.021829118           16 
 1239000   0.76242407   -7.0536785    331.95435  0.022326766  0.021813732           22 
 1240000   0.75428069   -7.0575423    331.35335  0.022268371  0.021798413            9 
 1241000   0.76413585   -7.0745023    331.20917  0.022240745  0.021783124           11 
 1242000   0.75812314   -7.0919235    331.12909  0.022217464  0.021767775           13 
 1243000   0.74922127   -7.0918615    330.87965  0.022182868  0.021752334            8 
 1244000   0.77257296   -7.0941953    331.10121  0.022179877  0.021736949           11 
 1245000   0.74559528   -7.0746588    330.91925  0.022149883  0.021721578           12 
 1246000   0.76430433   -7.0452595    331.54474  0.022173939  0.021706217            5 
 1247000   0.74686409   -7.0729815    331.37412  0.022144755   0.02169091            9 
 1248000   0.74703606   -7.1017687    332.31868  0.022190083  0.021675564            9 
 1249000   0.77386441   -7.0795308    331.79924  0.022137659  0.021660242           11 
 1250000    0.7611671   -7.0368368    331.64888  0.022109925  0.021645017           14 
 1251000   0.75576013   -7.1036567    332.04727  0.022118789  0.021629867            9 
 1252000   0.75345601   -7.1085437     333.0565  0.022168297  0.021614746           15 
 1253000   0.76575249   -7.0735893    332.66533  0.022124589  0.021599594           12 
 1254000   0.74776045   -7.1172698    332.06476  0.022067036   0.02158443           12 
 1255000   0.75825906   -7.0803053    331.92012  0.022039849  0.021569289           11 
 1256000   0.75658124   -7.0855666    331.78957  0.022013639  0.021554195           16 
 1257000   0.75263954   -7.0753732    332.06027  0.022014072  0.021539051           12 
 1258000   0.74999023   -7.1105299    333.17584  0.022070472  0.021523934            9 
 1259000   0.73750161   -7.0841863    332.27703  0.021993449  0.021508862           16 
 1260000   0.75217894   -7.0890435    332.58172  0.021996146  0.021493876            6 
 1261000   0.76217539   -7.0859991    332.54629  0.021976361  0.021478838            8 
 1262000   0.76940493    -7.072941    332.64324  0.021965349  0.021463783            9 
 1263000   0.75631543   -7.0725664    333.43955  0.022000498  0.021448856            8 
 1264000   0.74864881   -7.0855856    334.24989  0.022036517  0.021433934           16 
 1265000   0.76213912   -7.0967425    333.24442   0.02195286  0.021418965           12 
 1266000   0.74541552   -7.0643309    333.45357  0.021949287  0.021404044           15 
 1267000    0.7538167    -7.081464    333.39117  0.021927859  0.021389154           19 
 1268000   0.74899709   -7.1100072    334.39095  0.021976271  0.021374305           17 
 1269000   0.74681752   -7.0794155    333.98569  0.021932341  0.021359438            8 
 1270000   0.75894341   -7.0825762    334.04795  0.021919157  0.021344541            8 
 1271000   0.74427976   -7.0906637    333.40017  0.021859439  0.021329618           13 
 1272000   0.75186863   -7.1269588     334.0451  0.021884506  0.021314697           13 
 1273000   0.72632625   -7.1252392    333.73223  0.021846834   0.02129976            8 
 1274000   0.74170894   -7.1046151    333.61662  0.021822123  0.021284829           16 
 1275000   0.73724922   -7.1214322     334.0932  0.021836157  0.021269877           10 
 1276000   0.73778992     -7.09844    334.74566  0.021861655  0.021254961           16 
 1277000   0.74236253   -7.0995131    334.49384  0.021828102  0.021240038           11 
 1278000   0.74497953   -7.1226339    334.03711  0.021781241  0.021225198           12 
 1279000   0.74935142   -7.0825691     334.3688  0.021785822  0.021210366           22 
 1280000   0.74136964   -7.1286552     333.7982  0.021731654  0.021195516           11 
 1281000    0.7448721   -7.0977189    334.23367  0.021743018  0.021180743           11 
 1282000   0.72912467   -7.1028096    334.30024  0.021730385  0.021165918           14 
 1283000   0.74841004   -7.1310078    333.50021  0.021661484  0.021151066           32 
 1284000   0.74923875   -7.1128952    334.17625  0.021688489  0.021136275           12 
 1285000   0.73484344   -7.1324577    334.84347  0.021714881  0.021121473           16 
 1286000   0.74794895   -7.0946601    334.63239  0.021684318  0.021106688           14 
 1287000   0.73469778   -7.1091326    334.54384  0.021661735  0.021091926           10 
 1288000   0.74274835   -7.1144399    335.03743  0.021676852   0.02107714           14 
 1289000   0.72837994   -7.1031709    334.44452  0.021621704  0.021062416           15 
 1290000   0.74920818   -7.1239531    334.73869  0.021623946  0.021047673            7 
 1291000    0.7362648   -7.1201038     335.5339  0.021658527  0.021032935           11 
 1292000   0.72791584   -7.1216817    335.37875  0.021631756  0.021018163           12 
 1293000   0.71915248   -7.1053831    335.77682  0.021640682  0.021003434           14 
 1294000   0.75431727   -7.0913837    335.09725  0.021580194   0.02098878            8 
 1295000   0.73464641    -7.097109     334.7235  0.021539479  0.020974175           14 
 1296000   0.72536285   -7.0991129    335.34864  0.021563056  0.020959516           28 
 1297000    0.7359029   -7.0905795    335.01112  0.021524744  0.020944891           36 
 1298000   0.72770307   -7.1132885    335.42095  0.021534473  0.020930225           15 
 1299000   0.71363163   -7.1094562    335.65403  0.021532847  0.020915554            9 
 1300000   0.73302895   -7.1385725    335.19636  0.021486946  0.020900918            8 
 1301000   0.75272335   -7.1452678    335.68188  0.021501529  0.020886319            5 
 1302000   0.72672054   -7.1324181    336.20363  0.021518409  0.020871843           23 
 1303000   0.74103591   -7.1022951    336.17138  0.021499833  0.020857336            7 
 1304000   0.73640478   -7.1145115    335.78173  0.021458444  0.020842801           10 
 1305000   0.71729185   -7.1161058     336.3544   0.02147857  0.020828217           12 
 1306000   0.73121027   -7.1101669    336.04279   0.02144224  0.020813632           11 
 1307000   0.72560641   -7.1046596    335.04167  0.021362004   0.02079898           12 
 1308000   0.73640644   -7.1335768    335.69999  0.021387614  0.020784293           11 
 1309000   0.72360631   -7.1487725    335.36058  0.021349668  0.020769619            9 
 1310000   0.72859884   -7.1271104    336.25723  0.021390409  0.020755054           15 
 1311000   0.71964951   -7.1181845    336.31454  0.021377736  0.020740531           13 
 1312000   0.73748136   -7.1346116    336.32108  0.021361857  0.020726003           21 
 1313000   0.71347387   -7.1282313    336.12296  0.021333014  0.020711498           21 
 1314000   0.73057452   -7.1295984    336.50278  0.021340867  0.020696928            6 
 1315000   0.72489855    -7.134784     336.8735   0.02134813  0.020682397           23 
 1316000   0.73698062   -7.1615387    335.43116  0.021240575   0.02066782           20 
 1317000   0.73655859   -7.1470032    335.29871  0.021216066  0.020653217           11 
 1318000   0.72856476   -7.1490215    336.12264  0.021252064  0.020638663           11 
 1319000   0.73139061   -7.1465092    335.77211  0.021213805  0.020624193           17 
 1320000   0.72114111    -7.133382    337.19273   0.02128742  0.020609786           23 
 1321000   0.73434801   -7.1521284     337.5685   0.02129501  0.020595385           10 
 1322000   0.73895747   -7.1733541    336.49509  0.021211239  0.020580978            8 
 1323000   0.73759667   -7.1463273    336.68679  0.021207281  0.020566589            8 
 1324000   0.73342725   -7.1390548    336.53009  0.021181401  0.020552196           15 
 1325000   0.71854247   -7.1325389     337.0806  0.021200038  0.020537808           14 
 1326000    0.7256335    -7.142733    336.60381  0.021154085  0.020523416            6 
 1327000   0.72935225     -7.12146    337.07993  0.021168044  0.020509064            6 
 1328000   0.72351715   -7.1550088     336.6853  0.021127341    0.0204948           13 
 1329000   0.72692916   -7.1373912    337.25197  0.021146976  0.020480501            9 
 1330000   0.72684209   -7.1343983    337.16254  0.021125472   0.02046613           24 
 1331000   0.73763037   -7.1328128    336.71167  0.021081372  0.020451803            6 
 1332000   0.72629251   -7.1594767    336.60131   0.02105864  0.020437442           14 
 1333000   0.71622696   -7.1565898    337.35393  0.021089893  0.020423062           15 
 1334000    0.7192692   -7.1584254    336.82758  0.021041203  0.020408626           22 
 1335000   0.71051145   -7.1740096    336.33024  0.020994397   0.02039417           14 
 1336000   0.71121305   -7.1686729    336.96154   0.02101806  0.020379832           23 
 1337000   0.72370479   -7.1316866    337.12729  0.021012671  0.020365453           18 
 1338000   0.70711654   -7.1712172    337.01236  0.020989808  0.020351112           24 
 1339000   0.72675614   -7.1891399    337.53211   0.02100648  0.020336741           14 
 1340000   0.69994284   -7.1766694    337.15895  0.020967597  0.020322367           13 
 1341000   0.72567066   -7.1631645    337.62971  0.020981215  0.020307957            8 
 1342000    0.7272582     -7.17119    336.15826  0.020874209  0.020293568           14 
 1343000   0.72813512   -7.1424652    336.42236  0.020875053  0.020279153           18 
 1344000   0.72557364   -7.1509821    337.22471   0.02090927  0.020264776           11 
 1345000   0.70743688   -7.1879178    337.19336  0.020891782  0.020250352           15 
 1346000   0.71956256   -7.1651563    337.44643  0.020891929  0.020235918           13 
 1347000   0.70338648   -7.1589026    336.48093  0.020816687  0.020221462           19 
 1348000   0.72138275   -7.1947119    337.48586  0.020863369   0.02020704           14 
 1349000    0.7241561   -7.1668561    336.68775  0.020798601  0.020192569           14 
 1350000   0.71921423   -7.1632639    337.70109  0.020845746  0.020178208           10 
 1351000   0.70869211   -7.1664689    337.01236  0.020787834  0.020163907           24 
 1352000   0.73310184   -7.1763131    337.62584  0.020810271  0.020149636           10 
 1353000   0.69889027   -7.1553669    337.44121  0.020783518  0.020135377           24 
 1354000   0.70505126   -7.1740811    337.35967  0.020763151  0.020121067           15 
 1355000   0.72650767   -7.1593651     337.4737   0.02075484   0.02010672           17 
 1356000   0.72250052   -7.1794093    337.31894  0.020730023  0.020092374            8 
 1357000   0.69758705   -7.1770821    338.03959  0.020759002  0.020078046           20 
 1358000   0.70576733   -7.1700208    337.15922  0.020689692  0.020063707           11 
 1359000   0.70864321   -7.1541986    338.36157  0.020748195  0.020049381           11 
 1360000   0.71800414   -7.1763624     337.2744  0.020666323  0.020035121           13 
 1361000   0.70395823   -7.1618184    337.66761  0.020675215  0.020020813           12 
 1362000   0.70678554   -7.1661815    338.43263  0.020706842   0.02000655            8 
 1363000   0.71531056   -7.1723317     338.2089  0.020677971  0.019992335           29 
 1364000   0.72000887   -7.1712634    337.95445  0.020647266  0.019978133           13 
 1365000   0.70495246   -7.1685897    337.69999  0.020616605  0.019963935           21 
 1366000   0.70952905   -7.1806585    337.33255  0.020579097  0.019949675           15 
 1367000   0.70290873   -7.2112768    337.76718  0.020590538  0.019935368           24 
 1368000   0.71041695   -7.2015607    338.10086  0.020595812  0.019921055           19 
 1369000   0.72044227    -7.200324    337.74512  0.020559114   0.01990679           11 
 1370000   0.70761091   -7.1735977    337.36055  0.020520715  0.019892532            9 
 1371000    0.7009662   -7.2066817    338.00341  0.020544822  0.019878305           14 
 1372000   0.70837153   -7.2028911    337.95022  0.020526617  0.019864074           30 
 1373000   0.69960065   -7.1753555    338.41505  0.020539879  0.019849877           26 
 1374000   0.68505669   -7.2046452    337.83336  0.020489651  0.019835648           21 
 1375000   0.68840445   -7.2067194    337.94052  0.020481244  0.019821417           33 
 1376000   0.71517826   -7.2012936    337.87733  0.020462532  0.019807175           21 
 1377000   0.70727002   -7.1743289    338.34191  0.020475788  0.019793006           45 
 1378000   0.72081126   -7.1613407    338.49815  0.020470377  0.019778878           31 
 1379000   0.69993596   -7.2013057    338.52453  0.020457127  0.019764713           51 
 1380000   0.71948505   -7.1699068      337.822  0.020399879  0.019750582           58 
 1381000   0.69320791   -7.1713656    338.53481  0.020428121  0.019736487           34 
 1382000   0.69132659   -7.1785741    338.17519  0.020391654  0.019722404           24 
 1383000      0.69922   -7.2160174    338.07395  0.020370809  0.019708293           47 
 1384000   0.69102545   -7.2018699     338.4156  0.020376662  0.019694194           41 
 1385000   0.70103413   -7.2209913    337.98971  0.020336325  0.019680089           26 
 1386000   0.70498857   -7.2030306    338.26306  0.020338087  0.019665969           46 
 1387000   0.70719029   -7.2026284    338.90094  0.020361748   0.01965184           40 
 1388000   0.68556965   -7.1847685    338.77312  0.020339404   0.01963778           52 
 1389000   0.69676697   -7.1974861    339.31708  0.020357396  0.019623754           56 
 1390000   0.71238689   -7.1974801    338.72531  0.020307273  0.019609709           56 
 1391000   0.70476821   -7.1956066    338.40465  0.020273463  0.019595713           49 
 1392000   0.68129092   -7.2193189    338.75719  0.020280004  0.019581718           23 
 1393000   0.69291943   -7.2061952    338.68424  0.020261081  0.019567701           29 
 1394000   0.69427005     -7.20623    338.63326    0.0202435  0.019553667           33 
 1395000   0.70126596   -7.1767495    339.66305  0.020290505  0.019539654           23 
 1396000   0.69258936   -7.1916375     338.7435  0.020221078  0.019525652           30 
 1397000    0.7004996   -7.2102985    338.25116  0.020177235  0.019511542           30 
 1398000   0.71217537   -7.2137584    339.14212  0.020215911  0.019497464           46 
 1399000   0.70449248   -7.2121762    338.94238  0.020189563  0.019483386           19 
 1400000   0.68693313   -7.2395234     338.3331  0.020138875   0.01946928           30 
 1401000   0.69102522   -7.2284049    338.83891  0.020154587  0.019455159           51 
 1402000   0.68248793   -7.2236082    337.53458  0.020062683  0.019441004           25 
 1403000    0.6937566   -7.2305033    337.58374  0.020051303  0.019426802           10 
 1404000   0.70590947    -7.219831    338.64421  0.020099965  0.019412662           23 
 1405000   0.68895841    -7.208586    338.14701  0.020056169  0.019398514           43 
 1406000   0.70887765   -7.2213146    339.04612  0.020095194  0.019384407           38 
 1407000   0.67751855   -7.2268906    338.57551  0.020053039  0.019370338           36 
 1408000   0.69851851   -7.2463123    338.70524  0.020046475  0.019356294           34 
 1409000   0.69177099   -7.2312858    339.67523  0.020089616  0.019342215           68 
 1410000   0.68312374   -7.2155366     339.1453  0.020044048  0.019328174           25 
 1411000   0.67964841   -7.2175991    338.51911   0.01999286  0.019314159           30 
 1412000      0.69331   -7.2283146    338.83881  0.019997569  0.019300153           28 
 1413000   0.69942276   -7.2039896    338.89688  0.019986841  0.019286182           14 
 1414000   0.71035176   -7.2160801    338.42235   0.01994474  0.019272235           35 
 1415000   0.68552832   -7.2365943     338.8204  0.019954087  0.019258183           65 
 1416000   0.69000804   -7.2289417    338.77054  0.019937061  0.019244168           63 
 1417000   0.68229522   -7.2435656    339.03469  0.019938526  0.019230205           77 
 1418000   0.69740786    -7.222785    339.22684  0.019935757  0.019216296           63 
 1419000   0.68967856   -7.2310458    339.70073  0.019949538  0.019202375          107 
 1420000   0.66800466    -7.253899    338.95985   0.01989201  0.019188381           56 
 1421000   0.68283449   -7.2378602     338.5102  0.019851642  0.019174405           78 
 1422000   0.67905582   -7.2451876    339.37214  0.019888194  0.019160473           67 
 1423000   0.68329148    -7.208929    339.10327  0.019858472   0.01914652           38 
 1424000   0.68201322    -7.223599    340.11036  0.019903462  0.019132641           55 
 1425000   0.68469327   -7.2421715    338.86115  0.019816441  0.019118781           44 
 1426000   0.69716551   -7.2370818    339.39567  0.019833781  0.019104862           48 
 1427000   0.69095175   -7.2344786    338.66971  0.019777489  0.019090928           43 
 1428000   0.68562343   -7.2371025    339.17882  0.019793349  0.019076962           49 
 1429000   0.67637003   -7.2315104    339.18991  0.019780144  0.019062969           56 
 1430000   0.68284208   -7.2381246    338.74179  0.019740198  0.019049005          135 
 1431000   0.68715378   -7.2368228    338.88423  0.019734698  0.019035071          126 
 1432000   0.68594602   -7.2415946    339.32104  0.019746336    0.0190212           61 
 1433000   0.68400524   -7.2751442    339.17306  0.019723951  0.019007312           90 
 1434000   0.68935142   -7.2449957    338.99958  0.019700115  0.018993495          112 
 1435000   0.67357016   -7.2272695     339.0951  0.019691934  0.018979707           73 
 1436000   0.67847998   -7.2383412    339.94019  0.019727263  0.018965919          117 
 1437000   0.69025915   -7.2637964    339.34925  0.019679265  0.018952128          113 
 1438000   0.68174453    -7.263291    339.33207  0.019664585  0.018938326          120 
 1439000   0.66472379   -7.2521892    340.26508   0.01970495  0.018924558          126 
 1440000   0.68706949   -7.2683163    339.02437  0.019619466  0.018910806           76 
 1441000   0.66094852    -7.257906    339.36364  0.019625471  0.018897054          156 
 1442000   0.69703876   -7.2915102    339.02412   0.01959224  0.018883282          150 
 1443000   0.67767965   -7.2521828    340.29023   0.01965178  0.018869486          113 
 1444000     0.686683   -7.2728887    339.73219  0.019605967  0.018855738           87 
 1445000   0.66434093   -7.2656294    339.67943  0.019589356  0.018842027          133 
 1446000   0.68243202   -7.2685973     340.5529  0.019626147  0.018828329          150 
 1447000   0.66311333   -7.2659342    339.53648  0.019554047  0.018814618          155 
 1448000   0.68621872   -7.2875065    340.29725  0.019584326  0.018800962          118 
 1449000   0.66538435   -7.2489832    339.89316  0.019547571  0.018787267          125 
 1450000   0.67241868   -7.2837692    339.79779  0.019528609  0.018773554          141 
 1451000   0.66791597    -7.249147    339.99243  0.019526329  0.018759896          123 
 1452000    0.6757272   -7.2661193    339.57731  0.019489056  0.018746237           88 
 1453000   0.67459579    -7.290456    340.24036  0.019513671  0.018732592           38 
 1454000   0.66828597   -7.2602412    340.00626  0.019486833  0.018718931           52 
 1455000   0.67759216   -7.2924358    340.25417  0.019487639  0.018705311           48 
 1456000   0.66441517   -7.2888949    339.74537  0.019445133  0.018691698           95 
 1457000   0.66717883    -7.251363    340.19739  0.019457641    0.0186781           57 
 1458000    0.6640477   -7.2846558     340.3667  0.019453972  0.018664504           41 
 1459000   0.66755196   -7.2860508    340.37057   0.01944086  0.018650913           27 
 1460000   0.66690925   -7.2681675    340.23019  0.019419532  0.018637322           24 
 1461000   0.67390824   -7.2418736    340.50539  0.019421936  0.018623776           36 
 1462000   0.67120107   -7.2569419    340.45559  0.019405813  0.018610252           35 
 1463000   0.66560543    -7.263338    340.81143  0.019412818  0.018596696           14 
 1464000   0.68797953   -7.2873883    340.28822  0.019369776  0.018583189           27 
 1465000   0.66394886   -7.2764715    339.62203  0.019318659  0.018569639           22 
 1466000   0.65747706   -7.2843566    340.56071   0.01935884  0.018556121           21 
 1467000   0.65466233   -7.2673552    340.13558  0.019321494  0.018542571           51 
 1468000   0.66803824   -7.2664731    340.09275  0.019305901  0.018529022           20 
 1469000   0.65864141   -7.2645953    339.91103   0.01928245  0.018515449           48 
 1470000   0.66240923   -7.3004535    339.96214   0.01927223  0.018501911           30 
 1471000   0.66454319   -7.2613538    340.79402  0.019306255   0.01848837           20 
 1472000   0.66346292   -7.2551499    339.69644  0.019231003  0.018474829           37 
 1473000   0.67572776   -7.2520341     340.7446  0.019277246  0.018461346           46 
 1474000   0.65613549   -7.2853113    339.89119   0.01921592  0.018447812           89 
 1475000   0.66518336   -7.2647834     340.3941  0.019231305  0.018434278           69 
 1476000   0.67488975   -7.2771434     339.6407   0.01917574  0.018420754           22 
 1477000   0.65549211   -7.2766343     339.9197  0.019178498  0.018407231           33 
 1478000   0.66456343   -7.2741279    339.81775  0.019159774  0.018393709           31 
 1479000   0.67852377   -7.2634717    339.90703   0.01915185  0.018380199           42 
 1480000   0.66960545    -7.268593    340.30892  0.019161538    0.0183667           72 
 1481000   0.65998805   -7.2626909    340.10872  0.019137335  0.018353203           67 
 1482000   0.66934338    -7.269631    340.35842  0.019138463  0.018339719           41 
 1483000   0.66232645   -7.2471668    340.16914  0.019114921  0.018326282           62 
 1484000   0.65543129   -7.2914197    340.54134  0.019122941  0.018312834           21 
 1485000   0.65635394   -7.2669218    340.36798  0.019100336  0.018299372           76 
 1486000   0.65592023   -7.3043256    339.74512  0.019052553  0.018285927           26 
 1487000   0.64902453   -7.2690612    340.50789  0.019082487  0.018272462           42 
 1488000   0.64861711   -7.2870523    340.00932  0.019041741  0.018259018           63 
 1489000    0.6541833   -7.2702063    339.75848  0.019014914  0.018245562           30 
 1490000   0.65538948   -7.3110604    340.14482   0.01902376  0.018232103           37 
 1491000   0.65531676    -7.275214     340.2626  0.019017583  0.018218688           50 
 1492000   0.67730978   -7.2962298    340.53819   0.01902023   0.01820527           63 
 1493000   0.65191235   -7.2888672    339.80472  0.018966551  0.018191827           68 
 1494000   0.67939236   -7.3142691    340.36009  0.018984833  0.018178404           61 
 1495000   0.65570072   -7.3065927     340.2369  0.018965268  0.018164957           39 
 1496000   0.66440782   -7.2951336    339.78247  0.018927277  0.018151561           82 
 1497000   0.65529058   -7.2854914    340.35132  0.018946299  0.018138122           55 
 1498000   0.64898774   -7.3134492    340.24203  0.018927572  0.018124727           49 
 1499000   0.65611481    -7.279791    340.84342  0.018948378  0.018111304           31 
 1500000   0.65329012   -7.3066979    340.75754  0.018930975  0.018097881           36 
 1501000   0.65577852   -7.2908978    340.82175  0.018921927  0.018084529           20 
 1502000   0.64546831   -7.2825232    340.83227  0.018909913  0.018071198           36 
 1503000   0.65825176   -7.2827454    340.60737  0.018884862   0.01805789           32 
 1504000   0.65791052   -7.3143099    340.49897  0.018866299  0.018044569           19 
 1505000   0.65148644   -7.3029281    341.25878  0.018895835  0.018031285           65 
 1506000   0.64918676   -7.3111515    341.38129  0.018890067  0.018018014           30 
 1507000   0.66910279   -7.2944295    340.42408  0.018824601  0.018004747           37 
 1508000   0.64996288   -7.2996219    340.31541  0.018806113  0.017991531           20 
 1509000   0.66998159   -7.2962523    341.19763   0.01884237  0.017978297           22 
 1510000   0.64972141    -7.332358    341.19303  0.018829638  0.017965069           22 
 1511000   0.64747907    -7.302386    341.17077  0.018815948  0.017951829           22 
 1512000    0.6507288   -7.3003683    340.94516  0.018791069   0.01793862           23 
 1513000   0.66247499   -7.3178587    340.82784  0.018772188   0.01792548           28 
 1514000   0.65374489    -7.326387    340.52278  0.018742997  0.017912304           26 
 1515000   0.63790177    -7.293229    340.03277  0.018703673  0.017899109           45 
 1516000   0.65528383   -7.3005706    340.58524  0.018721704  0.017885902           26 
 1517000   0.63724519   -7.3029717    340.06652  0.018680868  0.017872695           21 
 1518000    0.6420516   -7.3028688    341.09007  0.018724752  0.017859503           26 
 1519000   0.64127342   -7.2929615    340.12764  0.018659625  0.017846388           38 
 1520000   0.64680589   -7.2943151    340.96338  0.018693168   0.01783323           48 
 1521000   0.65090711   -7.3054202    340.21145  0.018639681  0.017820114           49 
 1522000   0.66286733   -7.3002075    341.00774  0.018671033  0.017806964           61 
 1523000   0.63782946   -7.3203375    341.21578  0.018670156  0.017793741           83 
 1524000   0.65130173   -7.3106386    340.63969  0.018626405  0.017780525          114 
 1525000   0.63815414   -7.3160865    340.40345  0.018601282  0.017767317           66 
 1526000   0.64359755   -7.3400923    340.09582  0.018572292  0.017754104           89 
 1527000   0.64960134   -7.3193441    340.15155  0.018563171  0.017740904           86 
 1528000   0.63306922   -7.3322214    341.16004  0.018606023  0.017727745           69 
 1529000   0.63565609   -7.3285443    341.38806  0.018606282  0.017714606           78 
 1530000    0.6382155   -7.3627307        340.3  0.018534858  0.017701465           64 
 1531000   0.63355663   -7.3252544     340.5211  0.018534787  0.017688321           65 
 1532000   0.63241649   -7.3151362    340.80058  0.018537891  0.017675172           53 
 1533000    0.6459692   -7.3383148    340.40608  0.018504353  0.017662042           29 
 1534000   0.64609888   -7.3382348    340.26406  0.018484575  0.017648877           59 
 1535000   0.64669221   -7.3329083    340.43655  0.018481897  0.017635706          116 
 1536000   0.63162596   -7.3432071    340.86151   0.01849292  0.017622572           74 
 1537000   0.63393147   -7.3328885    340.14483  0.018442032  0.017609424          196 
 1538000   0.63538835   -7.3286986    340.36817  0.018442142  0.017596282          177 
 1539000   0.64094102   -7.3433512    340.57056  0.018441118  0.017583141          210 
 1540000   0.63934329   -7.3475449    341.09521  0.018457533  0.017570043           68 
 1541000   0.63556154   -7.3380901    341.23091  0.018452894  0.017556951           57 
 1542000   0.63324309   -7.3167532    340.73165  0.018413946  0.017543919           83 
 1543000   0.63471461   -7.3432558    340.50473  0.018389756  0.017530861           62 
 1544000   0.63530678   -7.3379598    340.38385  0.018371322  0.017517776           93 
 1545000   0.61997907   -7.3464143    340.53671  0.018367676  0.017504722           91 
 1546000   0.64546039   -7.3495613    340.82781  0.018371486   0.01749168          107 
 1547000   0.62686104   -7.3567091    340.59724   0.01834719  0.017478632          110 
 1548000   0.64515076   -7.3301418    340.09734  0.018308427  0.017465569          167 
 1549000   0.63644959   -7.3320828    340.56983  0.018322026  0.017452545          141 
 1550000   0.62460008   -7.3752861    341.18769  0.018343424  0.017439507          245 
 1551000   0.63192515    -7.343046    340.75719  0.018308467  0.017426456          195 
 1552000    0.6278969   -7.3593944    340.52037  0.018283955  0.017413416          103 
 1553000    0.6342906   -7.3413098    339.99395  0.018243934  0.017400384          186 
 1554000   0.64008269   -7.3727596    340.13083  0.018239534  0.017387393          107 
 1555000    0.6353869   -7.3328011      340.773  0.018262219  0.017374393          202 
 1556000    0.6446592   -7.3471326    341.00795  0.018263065  0.017361375          154 
 1557000   0.62176041   -7.3591665    340.70378  0.018235056  0.017348363          139 
 1558000   0.61838431   -7.3404022    341.03805  0.018241231  0.017335371          287 
 1559000   0.62605428    -7.360784    340.59491  0.018205843  0.017322403          281 
 1560000   0.63145462    -7.361971    340.82132  0.018206267  0.017309436          284 
 1561000   0.62611596   -7.3510512    340.54404  0.018179802  0.017296453          149 
 1562000   0.62585932    -7.370278     340.7356  0.018178382  0.017283448          184 
 1563000   0.63645611   -7.3713461    340.11044  0.018133421  0.017270478          257 
 1564000   0.62543821   -7.3832898    340.23142  0.018128272  0.017257514          301 
 1565000   0.63667891   -7.3824742    340.32427  0.018121633  0.017244499          299 
 1566000   0.63026828   -7.3763345    340.74134  0.018132255  0.017231486          245 
 1567000   0.62986647   -7.3881626    341.20849  0.018145527  0.017218534          313 
 1568000   0.61935689    -7.386918    340.02801  0.018071217  0.017205583          112 
 1569000   0.62255928   -7.3696756    340.59388  0.018089754  0.017192645          149 
 1570000   0.62371348   -7.3845236    340.55492  0.018076163  0.017179712          281 
 1571000   0.62027774   -7.3791156    339.99143  0.018034767   0.01716678          134 
 1572000   0.62634155   -7.3908665    340.85744  0.018069203  0.017153872          178 
 1573000     0.627851   -7.3725738     340.6525  0.018046859  0.017140984          266 
 1574000   0.62015454   -7.3738409    340.78033   0.01804216  0.017128113          294 
 1575000   0.62834304   -7.3816332    340.95846   0.01804013  0.017115269          155 
 1576000    0.6186496   -7.3808178    340.74641  0.018017471  0.017102415          325 
 1577000    0.6225333   -7.3904506    340.64852  0.018000873  0.017089564          246 
 1578000   0.61484783   -7.3750092    340.07287  0.017959066  0.017076713          268 
 1579000   0.62050392   -7.3790597    340.54911  0.017972826  0.017063849          294 
 1580000   0.61550632    -7.392378    340.44226  0.017955815  0.017051008          231 
 1581000   0.63067207   -7.3778986    340.94185  0.017970791  0.017038196          195 
 1582000   0.61826018   -7.3876872    339.66452  0.017892147  0.017025383          197 
 1583000   0.61376544   -7.3843994    340.58554  0.017929329  0.017012595          351 
 1584000   0.63136739   -7.3854124    340.37947  0.017907169  0.016999793          336 
 1585000   0.61526975   -7.3836611     341.0036  0.017928686  0.016986975          276 
 1586000   0.62575117   -7.3629012    340.39294  0.017885295  0.016974182          215 
 1587000   0.62879705   -7.3797934     340.6204  0.017885969  0.016961426          245 
 1588000   0.61120667   -7.3884765    340.29457  0.017857608  0.016948655          301 
 1589000   0.60840323   -7.3992733    340.54569  0.017859539  0.016935896          220 
 1590000   0.61993514   -7.3868663    340.37407  0.017839312   0.01692316          332 
 1591000   0.62398297   -7.3944075    340.99244  0.017860488  0.016910439          199 
 1592000   0.61874463   -7.3824091    340.54006  0.017825589  0.016897738          192 
 1593000   0.61205842   -7.3760263    341.19013  0.017848406  0.016885019          214 
 1594000   0.61477926   -7.4145401    341.02342  0.017828494  0.016872325          297 
 1595000   0.61867923   -7.3725343    340.83637  0.017807543  0.016859639          244 
 1596000   0.63199322   -7.3638686    340.87649   0.01779848  0.016846999          173 
 1597000   0.61664445   -7.3588882     340.7132  0.017778815  0.016834346          219 
 1598000   0.61588721   -7.3919162    340.80769  0.017772616  0.016821702          166 
 1599000    0.5976892   -7.4053751    341.10224  0.017776852  0.016809032          247 
 1600000   0.63106979   -7.3845042    341.31034   0.01777658  0.016796395          272 
 1601000   0.63042891   -7.4012458    340.51735  0.017724201  0.016783742          366 
 1602000   0.61370175   -7.3950084    340.93477  0.017734851  0.016771085          247 
 1603000    0.5958596   -7.3977903    340.58127   0.01770541  0.016758425          246 
 1604000   0.61613595   -7.3916089    340.72194   0.01770168    0.0167458          114 
 1605000    0.6039251   -7.3909592    340.97364  0.017703719  0.016733188          237 
 1606000   0.60504983   -7.4026886    340.94974  0.017691456  0.016720583          295 
 1607000   0.61059871   -7.3930038     340.5769  0.017661113  0.016707997          227 
 1608000   0.62026556   -7.4119816    340.98212   0.01767113   0.01669538          211 
 1609000   0.61932704   -7.4160009    340.96763  0.017659396  0.016682796          223 
 1610000   0.60254251   -7.4046071    340.44395  0.017621322  0.016670211          208 
 1611000   0.60644436   -7.3912353    341.23952  0.017651537   0.01665766          181 
 1612000   0.60795554   -7.3995695    340.37042  0.017595659  0.016645077          276 
 1613000   0.61786351   -7.4092281    340.10197  0.017570881  0.016632497          248 
 1614000   0.60728516   -7.4089184    340.04123  0.017556858  0.016619901          299 
 1615000   0.60070399   -7.3820099    340.60077  0.017574859  0.016607343          223 
 1616000   0.62749455   -7.4037304    340.78553  0.017573511  0.016594788          243 
 1617000     0.601339   -7.4035142    340.53449  0.017549706  0.016582232          261 
 1618000   0.61346714   -7.4116091    340.35066  0.017529391  0.016569686          168 
 1619000   0.61149956   -7.4031165    340.36269  0.017519183  0.016557147          225 
 1620000   0.60053841   -7.4117343    340.71168  0.017526321    0.0165446          203 
 1621000   0.60149941   -7.3935875    340.25931  0.017492253  0.016532059          164 
 1622000   0.60711993    -7.399901    340.58761  0.017498336  0.016519527          209 
 1623000   0.60886456   -7.4417738    340.49165  0.017482627  0.016507021          183 
 1624000   0.60828001   -7.4090702    340.56037  0.017475388  0.016494505          250 
 1625000   0.60765491   -7.4116997    339.77941  0.017424585  0.016482003          246 
 1626000   0.60307108   -7.4017919    340.65841  0.017458918  0.016469499          215 
 1627000    0.6181737   -7.4382965    340.34224  0.017431994  0.016456964          218 
 1628000   0.60983332    -7.418729     340.3154  0.017419912  0.016444452          364 
 1629000   0.60749833   -7.4068652    339.95069  0.017390561  0.016431956          288 
 1630000   0.59278885   -7.4153756    339.89465  0.017377027  0.016419476          333 
 1631000   0.60302227   -7.4156852     339.4746  0.017344911  0.016406976          410 
 1632000   0.60097744   -7.4270115     340.0163  0.017361943  0.016394495          288 
 1633000    0.5967596   -7.4302006    340.13493  0.017357365  0.016382017          354 
 1634000   0.58596703   -7.4203957    340.64738  0.017372878  0.016369556          337 
 1635000   0.59142368   -7.4096101     340.5983   0.01735975  0.016357131          339 
 1636000   0.60630693   -7.4121921    340.39054  0.017338557  0.016344677          413 
 1637000   0.59713349   -7.4275925     340.0302  0.017309621  0.016332261          364 
 1638000   0.60577448   -7.4461647    340.32186  0.017313892  0.016319831          330 
 1639000   0.60744218   -7.4386647    340.25126  0.017299739  0.016307408          421 
 1640000   0.60981796   -7.4189405    340.35528  0.017294475  0.016294984          381 
 1641000   0.60114734   -7.4281747     339.5077  0.017240895  0.016282583          376 
 1642000   0.60556084   -7.4077727    340.79484  0.017295719  0.016270184          398 
 1643000   0.59170228   -7.4347945    340.61603  0.017276123  0.016257777          401 
 1644000   0.59517668   -7.4213189    339.82544  0.017225539  0.016245401          366 
 1645000   0.59763394   -7.4300076    339.20572  0.017183674  0.016232983          503 
 1646000     0.612473   -7.4329922    340.20702  0.017223928  0.016220612          381 
 1647000   0.60333279   -7.4056525    339.76472  0.017191091  0.016208239          411 
 1648000   0.60777873   -7.4408625    339.70688  0.017177735   0.01619587          452 
 1649000   0.59134187    -7.423733    339.87532   0.01717583  0.016183524          389 
 1650000   0.59455536   -7.4364389    340.07621  0.017175566  0.016171184          479 
 1651000    0.5823025   -7.4531548    339.42149  0.017132116  0.016158822          499 
 1652000   0.59846233   -7.4298301    339.58026  0.017129755   0.01614644          596 
 1653000   0.59552217   -7.4245632    339.72071  0.017126473  0.016134089          554 
 1654000   0.59341724   -7.4289729    339.80445  0.017120337  0.016121754          486 
 1655000   0.58692551   -7.4581602    339.56508   0.01709794  0.016109435          483 
 1656000   0.59640053   -7.4325755    339.73492  0.017096161  0.016097113          478 
 1657000   0.59995145   -7.4385965    340.27066  0.017112787  0.016084797          527 
 1658000   0.58262532   -7.4537541    340.38027  0.017107975  0.016072489          489 
 1659000   0.57941765    -7.454919    339.40015   0.01704843  0.016060182          515 
 1660000   0.60006128   -7.4664798    340.17881   0.01707725  0.016047877          550 
 1661000   0.59352109   -7.4550877     339.8694  0.017051445  0.016035586          548 
 1662000   0.59614841   -7.4575927    339.94442  0.017044947  0.016023304          531 
 1663000   0.58131277   -7.4624295    339.98063  0.017036512  0.016011026          646 
 1664000   0.59176893   -7.4396781     340.2446  0.017039493  0.015998764          639 
 1665000   0.58315302   -7.4638724    340.03066  0.017018552  0.015986515          593 
 1666000   0.59550308   -7.4647839    339.61031  0.016987311  0.015974283          613 
 1667000   0.61198618    -7.466004     339.6767  0.016980439  0.015962043          516 
 1668000   0.59143866   -7.4520171    339.76262  0.016974552  0.015949819          677 
 1669000   0.57689193   -7.4563862    340.85072   0.01701871  0.015937612          560 
 1670000   0.59582117   -7.4441966    340.11255  0.016971684  0.015925422          587 
 1671000   0.58930721   -7.4584193    340.33031  0.016972387  0.015913224          562 
 1672000   0.58119938   -7.4580056     340.3705   0.01696424  0.015901057          619 
 1673000    0.5866951   -7.4663628    339.77918  0.016924645  0.015888879          539 
 1674000   0.57901126   -7.4566277    339.70721  0.016910952  0.015876702          487 
 1675000   0.58160122   -7.4705419    339.93016  0.016911948  0.015864509          530 
 1676000   0.58245387   -7.4796525    339.65126   0.01688799  0.015852345          512 
 1677000   0.58151563   -7.4693799    339.51336  0.016871067  0.015840157          607 
 1678000   0.56934725   -7.4793919    340.41575  0.016905828  0.015828002          626 
 1679000   0.57899992   -7.4814293    339.97969  0.016874116  0.015815845          715 
 1680000   0.58050449    -7.471365    339.44312  0.016837456  0.015803698          691 
 1681000   0.57904206   -7.4752622     339.5118  0.016830845  0.015791547          645 
 1682000   0.57877314   -7.4711562    339.99153  0.016844606  0.015779394          600 
 1683000   0.59230435   -7.4768677     340.0777  0.016838864  0.015767278          662 
 1684000   0.57293307   -7.4867773    339.86709  0.016818442  0.015755169          567 
 1685000   0.57983999   -7.4594709    339.57981  0.016794254  0.015743036          613 
 1686000   0.58871314   -7.4867338    339.42154   0.01677647  0.015730921          689 
 1687000   0.57868878   -7.4796816     339.7329  0.016781906  0.015718823          662 
 1688000   0.58514376   -7.4674599    339.30675  0.016750926  0.015706717          695 
 1689000   0.58012763   -7.4974294    339.45898  0.016748519  0.015694621          733 
 1690000   0.58240516   -7.4680992     339.1259  0.016722184  0.015682549          748 
 1691000    0.5777514   -7.4617565    340.04291  0.016757486  0.015670487          710 
 1692000   0.57156202   -7.4757279    340.26977  0.016758755  0.015658451          670 
 1693000   0.58011771   -7.4756677    339.72596  0.016722089  0.015646395          727 
 1694000   0.56017684   -7.4893104    339.47237  0.016699743  0.015634339          701 
 1695000   0.57595887   -7.4963969    339.37756  0.016685229  0.015622279          738 
 1696000     0.579102   -7.4745179    339.11063  0.016662276  0.015610211          756 
 1697000   0.56788418   -7.4626389    339.30318  0.016661912  0.015598178          767 
 1698000    0.5812252   -7.4866082    339.55798  0.016664605  0.015586156          777 
 1699000   0.57768204   -7.4817532    339.08614  0.016631653  0.015574127          850 
 1700000     0.577744   -7.4835754    339.77042  0.016655413  0.015562099          750 
 1701000   0.58119015   -7.4800229    338.97265  0.016606538  0.015550088          774 
 1702000   0.58407667   -7.4707882     339.4381   0.01661957  0.015538082          753 
 1703000   0.56542132   -7.5047155    338.90065  0.016583512   0.01552608          751 
 1704000   0.57253502   -7.4984358    339.38661  0.016597545  0.015514075          794 
 1705000   0.58226033   -7.4855223    338.80638  0.016559452  0.015502063          732 
 1706000    0.5710212   -7.5077571    339.76224  0.016596436  0.015490075          745 
 1707000   0.56021906   -7.5030641    339.39504  0.016568787  0.015478095          762 
 1708000   0.58028512   -7.5120376    338.85726  0.016532848  0.015466123          830 
 1709000   0.56598787   -7.4990408    339.66388  0.016562507  0.015454134          793 
 1710000   0.57730652   -7.4982073    338.61269  0.016501593  0.015442157          805 
 1711000    0.5739349   -7.4967896    338.21542    0.0164726  0.015430196          838 
 1712000   0.56888011   -7.5236781    338.86686  0.016494687  0.015418257          843 
 1713000   0.58723816   -7.5022692    338.88044  0.016485719  0.015406319          816 
 1714000   0.58599885   -7.5090509    338.95312  0.016479634  0.015394401          826 
 1715000   0.56929351   -7.4886714    339.20552  0.016482289  0.015382511          775 
 1716000   0.57154515   -7.5014322    338.96074  0.016460797  0.015370616          760 
 1717000   0.57199781   -7.4950906    338.82783   0.01644476  0.015358722          755 
 1718000   0.58039187   -7.5037585    338.66834  0.016427451  0.015346849          816 
 1719000   0.55330877   -7.5076273    339.38484   0.01645263  0.015334963          866 
 1720000   0.56498636   -7.4876668    338.82601  0.016415989  0.015323101          804 
 1721000   0.56265934   -7.4995433    338.44399  0.016387952  0.015311232          788 
 1722000   0.56507158   -7.5112902     338.8267  0.016396956  0.015299376          822 
 1723000   0.56569799   -7.5110237    338.86567  0.016389324  0.015287497          819 
 1724000   0.57521339   -7.5104575    338.71885  0.016372721   0.01527565          793 
 1725000   0.55664719    -7.520668    338.69024  0.016361847  0.015263811          773 
 1726000   0.57339045   -7.5097161    338.70771  0.016353211  0.015251994          837 
 1727000   0.56740475   -7.5036488    338.55616  0.016336429  0.015240183          787 
 1728000   0.56225458    -7.526944     339.0165  0.016349175  0.015228386          838 
 1729000   0.57856376   -7.5127924    337.86939  0.016284432  0.015216549          888 
 1730000   0.57194785   -7.5233456    339.05163  0.016331967  0.015204746          856 
 1731000   0.56569687   -7.5037417      339.315  0.016335211  0.015192972          823 
 1732000   0.56603142   -7.5299139    338.63486  0.016293055  0.015181211          821 
 1733000   0.57350347    -7.520171    338.44501  0.016274524  0.015169456          868 
 1734000   0.56651487   -7.5022139    338.01208  0.016244333  0.015157693          873 
 1735000   0.56873516   -7.5292119    339.00065  0.016282452  0.015145943          872 
 1736000   0.56536085   -7.5330768    338.96423  0.016271324  0.015134184          866 
 1737000   0.55133717   -7.5205981    339.00259  0.016263797  0.015122439          917 
 1738000   0.56296044   -7.5307152    338.80767  0.016245094  0.015110709          918 
 1739000   0.55435912   -7.5211499    338.45651  0.016218924   0.01509898          856 
 1740000    0.5738986   -7.5312819    338.61232  0.016217065  0.015087276          838 
 1741000   0.55988759   -7.5452756    338.57702  0.016206061  0.015075556          852 
 1742000   0.55452698   -7.5327254    338.25296  0.016181255  0.015063857          895 
 1743000   0.57323805   -7.5251756    338.51706  0.016184598  0.015052158          917 
 1744000   0.56807592   -7.5205699    338.28513  0.016164236   0.01504047          917 
 1745000   0.55560177   -7.5186297    338.77313  0.016178278  0.015028789          891 
 1746000    0.5658678   -7.5305589     338.8185  0.016171177   0.01501712          875 
 1747000   0.54887003   -7.5336933    338.65849  0.016154288  0.015005458          873 
 1748000    0.5611538   -7.5206119    338.13733  0.016120201  0.014993817          919 
 1749000   0.56324067   -7.5312045    338.62686  0.016134308   0.01498218          880 
 1750000   0.55371887   -7.5273609     338.2325  0.016106309  0.014970548          877 
 1751000   0.54553419   -7.5290365    339.04871  0.016135956  0.014958909          834 
 1752000   0.55145774   -7.5396796    338.99431  0.016124159  0.014947291          907 
 1753000   0.55193162   -7.5287836    338.57883   0.01609521  0.014935684          859 
 1754000   0.56135163   -7.5349115    338.98378  0.016105273    0.0149241          851 
 1755000    0.5562688   -7.5543292    338.53263  0.016074674   0.01491251          862 
 1756000   0.56130766   -7.5426539     339.2099   0.01609766  0.014900936          819 
 1757000   0.55987292   -7.5589409    339.13348  0.016084874  0.014889363          817 
 1758000   0.55587174   -7.5327372    338.17635  0.016030354  0.014877807          852 
 1759000   0.55290571   -7.5357168    338.87708  0.016054438  0.014866267          844 
 1760000   0.54783255   -7.5390445    338.57319  0.016030927  0.014854721          861 
 1761000   0.54166935   -7.5595574    338.33608  0.016010604  0.014843195          851 
 1762000   0.55742243    -7.550925    338.25468  0.015997667  0.014831679          880 
 1763000   0.55327815   -7.5432993    338.69267  0.016009296  0.014820179          793 
 1764000   0.55749563   -7.5615365    338.35368  0.015984206  0.014808693          885 
 1765000   0.55145204   -7.5334356    338.68587  0.015990834  0.014797201          817 
 1766000   0.55672649   -7.5577959    338.54945  0.015975342  0.014785712          863 
 1767000   0.53164187   -7.5454812    338.18607  0.015949164  0.014774243          855 
 1768000    0.5516864   -7.5538736    338.80274  0.015969209  0.014762783          896 
 1769000   0.54430323   -7.5380744    338.11866  0.015927956  0.014751341          854 
 1770000   0.54444734   -7.5585232    337.98382  0.015912609  0.014739886          862 
 1771000   0.56032623   -7.5632034    338.59652  0.015932454  0.014728448          850 
 1772000   0.54167621   -7.5499026    338.40741   0.01591457  0.014717031          896 
 1773000   0.55246671     -7.55161    338.29435   0.01590028  0.014705618          901 
 1774000    0.5422904   -7.5515648    338.22562  0.015888088  0.014694208          917 
 1775000   0.54330997   -7.5553106     338.7327  0.015902943  0.014682817          824 
 1776000   0.53309123   -7.5272783    338.38209  0.015877538  0.014671429          875 
 1777000   0.54265045   -7.5685983     337.8865  0.015845362  0.014660045          899 
 1778000   0.54122596   -7.5715916     338.2923  0.015855469  0.014648677          836 
 1779000   0.54953565   -7.5497295    337.78616  0.015822848  0.014637315          805 
 1780000   0.54741725   -7.5547225    338.20594  0.015833612  0.014625948          903 
 1781000   0.54691758   -7.5692891    338.60606  0.015843443  0.014614594          884 
 1782000   0.53959895   -7.5431069    338.08533  0.015810201  0.014603263          908 
 1783000   0.54903688   -7.5686242    338.33473   0.01581299  0.014591927          882 
 1784000   0.53292144   -7.5826827    338.27962  0.015801552  0.014580602          904 
 1785000   0.54515828   -7.5591599    339.30169  0.015840415  0.014569283          867 
 1786000   0.53922575   -7.5643456    338.27255  0.015783527  0.014557967          893 
 1787000   0.53232356   -7.5661612    337.51509  0.015739372  0.014546656          864 
 1788000   0.54294114   -7.5580545    338.01835  0.015754024  0.014535354          901 
 1789000   0.52612898   -7.5579727    337.94147  0.015741637  0.014524077          910 
 1790000    0.5429271   -7.5729619    338.34074  0.015751431   0.01451281          897 
 1791000   0.54520086   -7.5630252    338.44407  0.015747444  0.014501552          905 
 1792000   0.53183015   -7.5609125    338.31529  0.015732668  0.014490306          914 
 1793000   0.53427856   -7.5628664    338.68312  0.015740989  0.014479072          861 
 1794000    0.5422624    -7.574446     338.0493  0.015702773  0.014467843          876 
 1795000   0.52629324   -7.5602582    338.25646  0.015703643  0.014456625          901 
 1796000   0.54688119   -7.5576344    337.48012  0.015658877  0.014445411          874 
 1797000   0.54331913   -7.5726353    338.07776  0.015677878  0.014434193          885 
 1798000   0.52889038   -7.5800073    337.63333   0.01564856  0.014422969          879 
 1799000   0.52619728   -7.5664857    337.78911  0.015647077   0.01441174          776 
 1800000   0.53952516   -7.5939737    337.71351  0.015634885  0.014400533          905 
 1801000   0.53444555    -7.580099    337.87389  0.015633624  0.014389349          862 
 1802000   0.54131819    -7.565976     337.6982  0.015616824  0.014378143          865 
 1803000   0.52769872   -7.5642787    337.54501  0.015601082  0.014366976          896 
 1804000   0.52759001   -7.5863302    337.96679  0.015611917   0.01435581          802 
 1805000   0.54444861   -7.5688203    337.90799  0.015600553  0.014344654          919 
 1806000   0.53780457   -7.5684189    337.78707  0.015586336  0.014333508          860 
 1807000   0.53437401   -7.5833362    338.78945  0.015623937  0.014322374          851 
 1808000   0.53819124   -7.6127253    337.89841  0.015574226  0.014311233          898 
 1809000   0.53223646   -7.6020937    337.50327  0.015547414  0.014300111          908 
 1810000   0.53354815   -7.5641784    337.42507  0.015535224  0.014288988          815 
 1811000   0.53139388   -7.5780639    337.73965  0.015541121  0.014277888          861 
 1812000   0.53663338   -7.5734143    338.15038  0.015551434  0.014266797          912 
 1813000   0.52866063   -7.5725801    337.64518  0.015519635  0.014255716          917 
 1814000   0.53014432   -7.5766375    337.67208  0.015512315  0.014244653          856 
 1815000   0.54200371   -7.5717068    337.80998    0.0155101  0.014233594          884 
 1816000   0.52119791   -7.6007057    337.96407   0.01550863  0.014222542          907 
 1817000   0.52789411   -7.5731513    337.36332  0.015472542  0.014211485          932 
 1818000    0.5222752   -7.5822176    338.04855  0.015495441   0.01420044          901 
 1819000   0.53429976   -7.5835902      337.742  0.015472879  0.014189405          841 
 1820000   0.52730039    -7.588983     338.0381  0.015477935  0.014178387          873 
 1821000   0.53507138   -7.5873396    338.03792  0.015469427  0.014167393          881 
 1822000    0.5269744   -7.5867204    337.67767   0.01544446  0.014156401          881 
 1823000   0.52379289   -7.5798871    337.68635  0.015436385  0.014145418          881 
 1824000   0.52583819   -7.5959667    337.70492   0.01542877  0.014134427          781 
 1825000   0.52202272   -7.5976151    337.83096  0.015426071  0.014123458          876 
 1826000   0.51866683   -7.6027528    337.81031  0.015416681  0.014112479          931 
 1827000    0.5199622   -7.5756763    337.72767  0.015404473  0.014101524          862 
 1828000   0.53437118   -7.6038239    337.47836  0.015384681  0.014090598          865 
 1829000   0.51301044   -7.5862013    337.92658  0.015396691  0.014079684          899 
 1830000   0.52953529    -7.608742    337.67325  0.015376742  0.014068751          859 
 1831000   0.53126956   -7.5960166    338.30139  0.015396932  0.014057835          874 
 1832000   0.51245412   -7.5722479    338.24207  0.015385829  0.014046923          900 
 1833000   0.52666595   -7.5925789    337.63511  0.015349841  0.014036011          815 
 1834000   0.52097188    -7.582602    337.49773  0.015335229  0.014025097          909 
 1835000   0.52399611   -7.5999831    337.64825  0.015333708  0.014014215          845 
 1836000   0.52404624   -7.5939606    337.14429  0.015302482  0.014003319          886 
 1837000   0.51704129   -7.5913267    337.72334   0.01532042   0.01399244          841 
 1838000   0.52143479   -7.5837391     337.4573  0.015300023  0.013981578          905 
 1839000   0.52753148   -7.6054666     337.3956  0.015288907  0.013970728          927 
 1840000   0.51526835   -7.5816574    337.36641  0.015279276  0.013959874          953 
 1841000   0.51749962   -7.6030686    337.63937  0.015283332  0.013949042          894 
 1842000   0.51601724   -7.5803497    337.35854   0.01526233  0.013938223          871 
 1843000   0.53016855   -7.5943286    338.10759  0.015287918  0.013927403          908 
 1844000   0.51236202   -7.5987592    337.48208  0.015251359  0.013916601          900 
 1845000   0.51687172    -7.613202     337.8938  0.015261689  0.013905799          927 
 1846000   0.51929246   -7.5786331    337.02006  0.015213979  0.013895001          863 
 1847000   0.52773724   -7.5921748    337.30712  0.015218693  0.013884214          908 
 1848000   0.51428135    -7.592915    337.62133  0.015224627  0.013873431          922 
 1849000   0.52931408   -7.6005534    337.79397  0.015224174  0.013862664          876 
 1850000   0.53248658   -7.5984939    337.29818  0.015193612  0.013851906          909 
 1851000   0.50681015   -7.6118514    337.43278  0.015191463  0.013841159          901 
 1852000   0.51915895   -7.6327546    337.83215  0.015201231  0.013830411          872 
 1853000   0.51781363   -7.6022858    337.46903  0.015176697  0.013819687          884 
 1854000   0.50951982   -7.5806484    337.60911  0.015174807  0.013808961          866 
 1855000   0.50850024   -7.6013453    337.48251   0.01516094  0.013798247          912 
 1856000   0.50902281   -7.6001776    337.61447  0.015158696  0.013787539          877 
 1857000   0.51134891   -7.5979957    337.22661  0.015133127  0.013776843          903 
 1858000   0.51858467   -7.6120038    337.64292  0.015143654  0.013766154          881 
 1859000   0.50902143   -7.6264515    337.64931  0.015135795  0.013755478          900 
 1860000   0.49296014   -7.6150745     337.3344  0.015113548  0.013744808          866 
 1861000   0.50220761   -7.6184487    337.25847  0.015102027  0.013734141          924 
 1862000   0.50578714   -7.6203313     337.2425  0.015093202  0.013723494          942 
 1863000    0.5158313   -7.6103932    337.12104  0.015079667  0.013712842          962 
 1864000   0.50033412   -7.6093867    336.89207  0.015061341  0.013702202          945 
 1865000   0.50893647   -7.6173556    337.08755     0.015062  0.013691568         1022 
 1866000   0.50273225   -7.6008146     337.1339  0.015055998  0.013680951          974 
 1867000   0.49409971   -7.6257503    337.41328  0.015060403  0.013670334          903 
 1868000   0.50458043   -7.6173658    337.51703   0.01505697  0.013659739          993 
 1869000   0.50764765   -7.6206204    336.81788   0.01501774  0.013649152          940 
 1870000   0.50575427    -7.632006    337.56011  0.015042786  0.013638567          949 
 1871000   0.49803381   -7.6146173    336.79849  0.015000823  0.013627988          958 
 1872000   0.50650463   -7.6307688    336.81363  0.014993484  0.013617426          962 
 1873000    0.5028738   -7.5984437    336.86407  0.014987723  0.013606875         1004 
 1874000   0.50728355   -7.6343155    336.84653  0.014978946  0.013596325          957 
 1875000    0.5092713   -7.6201128    336.93775  0.014975011  0.013585782         1006 
 1876000   0.51850671    -7.616544    337.50376  0.014992171  0.013575259         1032 
 1877000   0.50677709    -7.611173    336.36274  0.014933526   0.01356473         1025 
 1878000   0.50059732   -7.6326774    337.12751   0.01495951  0.013554222         1065 
 1879000   0.50398875   -7.6319195    336.85543  0.014939482  0.013543707         1054 
 1880000    0.5125704   -7.6181092    336.67003  0.014923317  0.013533206         1017 
 1881000   0.50473954   -7.6416732    336.97627   0.01492895  0.013522701         1007 
 1882000   0.49045596   -7.6145792    336.94708  0.014919726   0.01351222          934 
 1883000    0.4845394   -7.6268261    336.76856  0.014903902  0.013501737         1030 
 1884000   0.48913829    -7.623377    337.35927  0.014922119  0.013491268         1014 
 1885000   0.50358194   -7.6458793    337.30968  0.014912011  0.013480818          995 
 1886000   0.49973772   -7.6447169    337.11553  0.014895525  0.013470366         1004 
 1887000   0.49864455   -7.6239514    336.47178  0.014859202  0.013459922         1000 
 1888000   0.49022426   -7.6421726    337.19691  0.014883338  0.013449479         1041 
 1889000    0.4972756   -7.6362829    337.14076  0.014872982  0.013439049          989 
 1890000   0.50710642   -7.6305322    336.69781  0.014845582  0.013428642         1028 
 1891000   0.50067718   -7.6408099    337.01077  0.014851524  0.013418228         1015 
 1892000   0.49516762   -7.6356506      337.226  0.014853154  0.013407824         1058 
 1893000   0.49545976   -7.6239192    336.23492  0.014801678  0.013397433          969 
 1894000   0.50134392   -7.6294984    337.21812  0.014837123  0.013387046         1023 
 1895000   0.50390202   -7.6447675    337.14651  0.014826144  0.013376674         1052 
 1896000   0.48799378   -7.6253978     336.8968  0.014807349  0.013366313         1022 
 1897000   0.49521889   -7.6514908    336.76205  0.014793624  0.013355958         1018 
 1898000   0.49151505   -7.6157465    336.67804  0.014782141  0.013345615         1057 
 1899000   0.50027246   -7.6473892    336.81301  0.014780279  0.013335272         1021 
 1900000   0.50228751   -7.6452977    336.74855  0.014769673  0.013324944         1055 
 1901000   0.50783332   -7.6612916    336.81419  0.014764781  0.013314636         1066 
 1902000   0.48546278   -7.6621794     337.0304  0.014766492  0.013304317          922 
 1903000   0.49821283   -7.6517861    336.54844  0.014737626  0.013294011          996 
 1904000   0.49438844   -7.6485386    337.21721  0.014759157  0.013283722         1038 
 1905000   0.49842107   -7.6390489     336.5507  0.014722253  0.013273446         1056 
 1906000   0.48770354   -7.6500625    336.79152  0.014725058  0.013263166         1016 
 1907000   0.50141996   -7.6507689     336.2525  0.014693782  0.013252887         1045 
 1908000   0.49335002   -7.6573144     337.2903  0.014731407  0.013242633          996 
 1909000   0.49638775   -7.6494548    336.65997  0.014696175  0.013232382         1086 
 1910000   0.49463719   -7.6619666    336.82902  0.014695856  0.013222147         1056 
 1911000   0.49088495   -7.6363936    336.93882  0.014692954  0.013211929         1048 
 1912000   0.49700542   -7.6448271    336.76199  0.014677563  0.013201713         1028 
 1913000   0.49379962   -7.6334885    336.40175  0.014654197  0.013191496         1036 
 1914000   0.48451553   -7.6437452    336.35579   0.01464454  0.013181292         1059 
 1915000   0.48934597   -7.6394147    336.74348  0.014653763  0.013171102         1100 
 1916000   0.48549565   -7.6446465    336.52365  0.014636554  0.013160921         1023 
 1917000   0.48553853   -7.6504798    336.42438  0.014624604  0.013150752         1017 
 1918000   0.47962529   -7.6615184    336.71928  0.014629792  0.013140601         1010 
 1919000   0.50262705   -7.6603927    336.83475  0.014627182  0.013130443         1045 
 1920000   0.48375832   -7.6554747    336.22719  0.014593194  0.013120301         1061 
 1921000   0.49041794   -7.6431908    336.22838  0.014585649  0.013110172         1104 
 1922000   0.47807086   -7.6601679    336.76008  0.014601113  0.013100041         1068 
 1923000    0.4824779   -7.6527429    337.08285  0.014607508  0.013089916         1061 
 1924000   0.50258917   -7.6469277    336.58682  0.014578431  0.013079813         1033 
 1925000   0.47953146   -7.6563058    336.44255  0.014564612  0.013069717          967 
 1926000   0.48874704   -7.6549672     336.2968  0.014550744  0.013059625          997 
 1927000   0.48438308   -7.6672362    336.91442  0.014569902  0.013049541         1041 
 1928000   0.48916594   -7.6480709    336.78598  0.014556794  0.013039467         1089 
 1929000   0.47178259   -7.6595118    336.42428  0.014533622  0.013029403         1073 
 1930000   0.49246114   -7.6608782    336.35727  0.014523198  0.013019349         1051 
 1931000   0.48833229   -7.6622901    336.29273  0.014512892  0.013009303         1045 
 1932000   0.48834951   -7.6513489    336.77295  0.014526093  0.012999273         1110 
 1933000   0.47606545   -7.6679312    336.72406  0.014516471  0.012989256         1020 
 1934000    0.4838423   -7.6418342    336.58123  0.014502811  0.012979253         1051 
 1935000    0.4823407   -7.6689981    336.18655  0.014478318   0.01296924         1069 
 1936000   0.47771869   -7.6667535     336.1447  0.014469038  0.012959239         1111 
 1937000   0.48077993   -7.6656922    336.92363   0.01449508  0.012949243         1082 
 1938000    0.4832859   -7.6662625    336.36796  0.014463707  0.012939261         1091 
 1939000   0.47853326    -7.657597    336.30684   0.01445362  0.012929282         1068 
 1940000   0.46994159   -7.6771734    336.76851  0.014466001  0.012919321         1123 
 1941000   0.47213219   -7.6699614    336.03136    0.0144269  0.012909351         1095 
 1942000   0.47683469   -7.6700129    336.53654  0.014441149  0.012899407         1061 
 1943000   0.47954494   -7.6686382    336.70323  0.014440866  0.012889478         1021 
 1944000    0.4819265   -7.6606658    336.26999  0.014414866  0.012879556         1136 
 1945000   0.47598166    -7.678557    336.52962  0.014418578  0.012869635         1068 
 1946000   0.47406517   -7.6710508    336.28817  0.014400829  0.012859722         1090 
 1947000    0.4790702   -7.6748889    335.96567   0.01437963   0.01284982         1085 
 1948000   0.47087085   -7.6793412     336.3026  0.014386662  0.012839924         1088 
 1949000     0.466627   -7.6934141    336.15639  0.014373029   0.01283004         1050 
 1950000   0.47649781   -7.6353544    336.43444   0.01437754  0.012820172         1121 
 1951000   0.47228402   -7.6759459    336.15786  0.014358357  0.012810305         1073 
 1952000   0.46946859   -7.6784667    336.35868  0.014359575  0.012800455         1130 
 1953000   0.47459111   -7.6747608    335.99939  0.014336891  0.012790604         1051 
 1954000   0.48064202   -7.6735646    335.93687  0.014326888  0.012780755         1067 
 1955000   0.46909466    -7.672622    336.47181  0.014342362  0.012770919         1063 
 1956000   0.47858949   -7.6881193    336.72785  0.014345938  0.012761089         1043 
 1957000   0.46995258   -7.6748406    336.16013  0.014314432  0.012751272          965 
 1958000   0.46732329   -7.6754614    336.20712  0.014309122  0.012741462         1043 
 1959000   0.46891457   -7.6736184    336.61662  0.014319237  0.012731667         1051 
 1960000   0.48181945   -7.6776036    336.31689  0.014299187  0.012721879         1052 
 1961000   0.46316786   -7.6783324    335.90398  0.014274349  0.012712097         1078 
 1962000   0.47431005   -7.6810323    336.34136  0.014285651  0.012702323         1116 
 1963000   0.47745324   -7.6799906    336.53674  0.014286667  0.012692559         1064 
 1964000   0.47277008   -7.6735399    336.24789  0.014267137  0.012682799         1072 
 1965000   0.47255931   -7.6686868    335.92899  0.014246352  0.012673055         1052 
 1966000   0.47359469   -7.6828109    336.13871  0.014247995  0.012663302         1041 
 1967000   0.45416676   -7.6928546    336.30363  0.014247739  0.012653565         1107 
 1968000   0.47036848   -7.6823682    336.02312  0.014228621   0.01264382         1068 
 1969000   0.46378708   -7.6886728     335.9279  0.014217365   0.01263409         1082 
 1970000   0.45661117   -7.6754579    335.38006  0.014186974  0.012624369         1102 
 1971000   0.46392652   -7.6915379    335.77104  0.014196307  0.012614673         1066 
 1972000   0.45722024   -7.6775731    335.77658  0.014189342  0.012604971         1121 
 1973000   0.46621174    -7.681278     336.3981  0.014208401   0.01259529         1087 
 1974000    0.4681095   -7.6713879    335.66989  0.014170461  0.012585608         1043 
 1975000   0.46868194   -7.6856191    336.31095  0.014190336  0.012575941         1103 
 1976000   0.45498809   -7.6871106    336.12313  0.014175233  0.012566285         1093 
 1977000    0.4746647    -7.701112    335.96975  0.014161598  0.012556638         1064 
 1978000   0.45841746   -7.6979567    336.19427  0.014163897  0.012547007         1103 
 1979000   0.45013447   -7.6856332    336.09316  0.014152483  0.012537382         1069 
 1980000   0.46590233   -7.6970528    336.26587  0.014152604  0.012527766         1099 
 1981000   0.46302729   -7.6909737    336.42431  0.014152125  0.012518164         1048 
 1982000   0.45170611   -7.6963245    336.06539  0.014129894  0.012508563         1087 
 1983000   0.45880018   -7.6996387    336.27878  0.014131736  0.012498969         1045 
 1984000   0.46538541   -7.6855073    335.86876  0.014107391  0.012489388         1016 
 1985000   0.46099786   -7.6769449    335.59321  0.014088716  0.012479803         1077 
 1986000   0.45792672    -7.692239    336.12698  0.014104019  0.012470238         1068 
 1987000   0.46228121   -7.6958232    335.36177  0.014064828  0.012460687         1063 
 1988000   0.45704345   -7.6799485    335.73555  0.014073422  0.012451135         1052 
 1989000   0.45224618     -7.69175    335.40623  0.014052549  0.012441591         1078 
 1990000   0.45830047   -7.6843466    336.58231  0.014094737  0.012432052         1014 
 1991000   0.46232295   -7.6940319    335.71451  0.014051336  0.012422527         1032 
 1992000   0.46046528   -7.6934629     336.0924   0.01406009  0.012413001         1011 
 1993000   0.45882918   -7.6974977    336.18659  0.014056974  0.012403492         1076 
 1994000   0.45269779   -7.6925098    335.77054  0.014032537  0.012393982          990 
 1995000   0.46178326   -7.6988809    335.91399  0.014031495  0.012384497         1043 
 1996000   0.45051145   -7.6942526    335.73386  0.014016945  0.012375007         1048 
 1997000   0.45275744   -7.6927057    335.48852  0.013999688  0.012365538         1052 
 1998000   0.44623236   -7.7092132    335.87715   0.01400889  0.012356072         1073 
 1999000   0.45789223   -7.7034461    336.08662  0.014010614  0.012346616         1066 
 2000000   0.45363586   -7.7104805    336.26393  0.014010997  0.012337171         1053 
 2001000   0.44132658   -7.7056526    335.78645   0.01398411  0.012327733         1070 
 2002000   0.46387552   -7.6979353    336.01206  0.013986516   0.01231829         1051 
 2003000   0.45805371   -7.7050198    335.20034  0.013945762   0.01230886         1054 
 2004000   0.45924786   -7.7066956    335.61609  0.013956091  0.012299442         1083 
 2005000   0.45013252   -7.6901617    335.68093  0.013951826  0.012290016         1071 
 2006000   0.45296222   -7.7039166     335.8761  0.013952979  0.012280616         1070 
 2007000   0.45271143   -7.7175949    335.70925  0.013939099  0.012271218         1026 
 2008000   0.44750783   -7.7192813    335.97954  0.013943374  0.012261835         1059 
 2009000   0.45817137   -7.7190514    335.40915  0.013912774  0.012252457         1007 
 2010000   0.44943194   -7.7282654    335.43143  0.013906776  0.012243096         1022 
 2011000   0.45319713   -7.7115018    335.39086  0.013898179  0.012233733         1069 
 2012000   0.45436398   -7.7126186     335.6059  0.013900178  0.012224375         1030 
Loop time of 4323.33 on 48 procs for 2000000 steps with 4000 atoms

Performance: 79938.347 tau/day, 462.606 timesteps/s
99.4% CPU use with 48 MPI tasks x no OpenMP threads

MPI task timing breakdown:
Section |  min time  |  avg time  |  max time  |%varavg| %total
---------------------------------------------------------------
Pair    | 286.12     | 303.57     | 320.75     |  50.6 |  7.02
Neigh   | 26.998     | 27.455     | 28.003     |   4.4 |  0.64
Comm    | 238.66     | 253.94     | 277.72     |  61.3 |  5.87
Output  | 4.3721     | 4.3735     | 4.404      |   0.2 |  0.10
Modify  | 3668       | 3684.3     | 3704       |  16.2 | 85.22
Other   |            | 49.66      |            |       |  1.15

Nlocal:        83.3333 ave          93 max          74 min
Histogram: 1 0 4 8 15 8 4 7 0 1
Nghost:        1793.73 ave        1821 max        1768 min
Histogram: 4 2 3 4 11 10 9 0 4 1
Neighs:        11000.0 ave       12554 max        9539 min
Histogram: 2 2 4 7 13 7 6 4 1 2
FullNghs:      22001.6 ave       25009 max       19697 min
Histogram: 1 3 8 12 8 6 4 4 1 1

Total # of neighbors = 1056079
Ave neighs/atom = 264.01975
Neighbor list builds = 107848
Dangerous builds = 0

#clear
#
#next RN
#
#jump SELF
Total wall time: 1:12:06
