
units lj                  # Use reduced LJ style units
atom_style atomic         # Uncharged point particles
atom_modify map hash      # Needed for indexing of clusters etc
                          # Used to be able to find where atoms are in relation to each other.

lattice fcc 1.0 spacing 1 1 1
Lattice spacing in x,y,z = 1.5874011 1.5874011 1.5874011
region box block 0 10 0 10 0 10 units lattice
create_box 2 box
Created orthogonal box = (0.0000000 0.0000000 0.0000000) to (15.874011 15.874011 15.874011)
  3 by 4 by 4 MPI processor grid
create_atoms 1 box
Created 4000 atoms
  using lattice units in orthogonal box = (0.0000000 0.0000000 0.0000000) to (15.874011 15.874011 15.874011)
  create_atoms CPU = 0.003 seconds
set type 1 type/fraction 2 0.8 78393
Setting atom values ...
  3188 settings made for type/fraction
mass 1 1.0
mass 2 1.0
pair_style lj/cut  3.5
pair_modify tail  yes
pair_coeff 1  1  1.0  1.0   # Intearaction between 1 and 1 set with epsilon = 1 and sigma = 1
pair_coeff 1  2  1.5  0.8
pair_coeff 2  2  0.5  0.88

write_data data.0
System init for write_data ...
Neighbor list info ...
  update every 1 steps, delay 10 steps, check yes
  max neighbors/atom: 2000, page size: 100000
  master list distance cutoff = 3.8
  ghost atom cutoff = 3.8
  binsize = 1.9, bins = 9 9 9
  1 neighbor lists, perpetual/occasional/extra = 1 0 0
  (1) pair lj/cut, perpetual
      attributes: half, newton on
      pair build: half/bin/atomonly/newton
      stencil: half/bin/3d
      bin: standard
WARNING: Not all mixed pair coeffs generated from mixing. Use write_data with 'pair ij' option to store all pair coeffs. (../write_data.cpp:312)


#############################
#   M E L T   S Y S T E M   #
#############################

velocity all create 2.4 5300450 mom yes dist gaussian # Assign velocities
                                                    # Temperature 2.4, random number seed, zero linear momentum
                                                                                # Gaussian distribution

timestep 0.002   # simulation timestep
thermo 1000       # output thermodynamic data every 1000 steps bf 100

# Define a fix  in this case with index 1 applied to all
# particles in the simulation. This fix is for simulations
# in the anisotropic NPT ensemble. Note that we use the MTK
# correction.
fix 1 all npt temp 2.4 2.4 0.1 iso 5.68 5.68 0.5 mtk yes tchain 5 pchain 5 # Use NPT ensemble
                                                                         # Set temperature and pressure and damping
                                                                         # Numbers of thermostats in chain and in barostat
run 10000          # run for 10000 steps
Per MPI rank memory allocation (min/avg/max) = 3.642 | 3.644 | 3.648 Mbytes
Step Temp E_pair E_mol TotEng Press Volume 
       0          2.4   -3.6981828            0 -0.099082777   -3.2752093         4000 
    1000    2.3559545    -3.051843            0    0.4812053    5.4914225    3823.5638 
    2000     2.366325   -3.0962401            0   0.45236011    5.7608419    3749.3821 
    3000    2.3768486   -3.0862175            0    0.4781641     5.300956    3822.8737 
    4000    2.3921008    -3.037058            0   0.55019626    5.5666444    3821.2649 
    5000    2.3971945   -3.0838157            0    0.5110771    5.5191645    3795.4259 
    6000    2.3964698   -3.0176599            0    0.5761461    5.9827951    3787.6423 
    7000    2.3943423   -3.0111275            0    0.5794881    5.7522191     3815.907 
    8000    2.4085837   -3.0891538            0   0.52281854    5.9000179    3749.9095 
    9000    2.4315831   -3.0375586            0   0.60890414    5.7697235    3811.9823 
   10000    2.4656875   -3.0109617            0   0.68664496    6.0333727    3797.0149 
Loop time of 2.57215 on 48 procs for 10000 steps with 4000 atoms

Performance: 671810.885 tau/day, 3887.794 timesteps/s
99.6% CPU use with 48 MPI tasks x no OpenMP threads

MPI task timing breakdown:
Section |  min time  |  avg time  |  max time  |%varavg| %total
---------------------------------------------------------------
Pair    | 1.1235     | 1.2142     | 1.323      |   3.2 | 47.20
Neigh   | 0.21141    | 0.2193     | 0.22875    |   0.8 |  8.53
Comm    | 0.7591     | 0.86525    | 0.9553     |   4.3 | 33.64
Output  | 0.00024752 | 0.00025101 | 0.0003176  |   0.0 |  0.01
Modify  | 0.2282     | 0.25786    | 0.28229    |   3.0 | 10.03
Other   |            | 0.01532    |            |       |  0.60

Nlocal:        83.3333 ave          92 max          75 min
Histogram: 2 3 6 5 8 10 4 5 4 1
Nghost:        1699.04 ave        1728 max        1667 min
Histogram: 2 2 4 2 8 13 11 3 0 3
Neighs:        10048.2 ave       11544 max        9023 min
Histogram: 2 7 6 11 6 7 5 3 0 1

Total # of neighbors = 482314
Ave neighs/atom = 120.57850
Neighbor list builds = 907
Dangerous builds = 197

# Equilibrate just above the melting temperature to avoid step fn in T

fix 1 all npt temp 1.25 1.25 0.1 iso 5.68 5.68 0.5 mtk yes tchain 5 pchain 5
run 2000
Per MPI rank memory allocation (min/avg/max) = 3.644 | 3.646 | 3.649 Mbytes
Step Temp E_pair E_mol TotEng Press Volume 
   10000    2.4656875   -3.0109617            0   0.68664496    6.0333727    3797.0149 
   11000    1.2744012   -4.5314923            0   -2.6203684    5.6059867    2909.3985 
   12000    1.2707886   -4.5379628            0   -2.6322564    5.6339523    2910.1579 
Loop time of 0.633045 on 48 procs for 2000 steps with 4000 atoms

Performance: 545932.866 tau/day, 3159.334 timesteps/s
99.6% CPU use with 48 MPI tasks x no OpenMP threads

MPI task timing breakdown:
Section |  min time  |  avg time  |  max time  |%varavg| %total
---------------------------------------------------------------
Pair    | 0.28103    | 0.30942    | 0.33348    |   2.5 | 48.88
Neigh   | 0.040499   | 0.042789   | 0.045418   |   0.6 |  6.76
Comm    | 0.2012     | 0.23056    | 0.26256    |   3.2 | 36.42
Output  | 5.5565e-05 | 5.6739e-05 | 7.1664e-05 |   0.0 |  0.01
Modify  | 0.041934   | 0.045384   | 0.048524   |   1.0 |  7.17
Other   |            | 0.00483    |            |       |  0.76

Nlocal:        83.3333 ave          92 max          75 min
Histogram: 2 2 5 8 6 12 5 5 2 1
Nghost:        2037.58 ave        2070 max        2011 min
Histogram: 2 0 6 11 13 7 7 1 0 1
Neighs:        13154.9 ave       14916 max       10993 min
Histogram: 1 1 4 5 9 9 7 6 5 1

Total # of neighbors = 631436
Ave neighs/atom = 157.85900
Neighbor list builds = 144
Dangerous builds = 16

#############################
# L I N E A R  Q U E N C H  #
#############################

# Define solid atoms. This closely follows ten Wolde  Ruiz-Montero and Frenkel  Faraday Discuss  1996  104  93-110
# Compute components of the per-atom q6 vector
compute q6 all orientorder/atom degrees 1 6 components 6 nnn NULL cutoff 1.3 # compute the Q6 parameter.
                                                                             # Use all neighbours within 1.3 unit cell.

# get number of connections
compute coord_number all coord/atom orientorder q6 0.5

# An atom is solid if it has 8 or more connections (of a possible 14)
variable is_solid atom c_coord_number>=8
group solid dynamic all var is_solid    # Must be dynamic to update
dynamic group solid defined

# do clustering
compute cluster solid cluster/atom 1.3 # Create a cluster where all atoms within are solid and max 1.3 units from another member

# define chunks one chunk per cluster
compute clus_chunks solid chunk/atom c_cluster nchunk every compress yes  # Says which atoms are in which chunk

# count the size of each chunk
compute size_chunks solid property/chunk clus_chunks count


# Find the maximum entry in the vector of chunk sizes
variable max_n equal max(c_size_chunks)


# Thermo style which includes this variable
# thermo_style custom step temp pe vol v_max_n

thermo ${N}  # Print the thermo information every 100 steps
thermo 1000  

# Reset the npt fix at a lower temperature (below freezing)
fix 1  all npt temp  ${temp} ${temp}  0.1  iso  5.68  5.68  0.5  mtk yes tchain  5  pchain  5
fix 1  all npt temp  0.45 ${temp}  0.1  iso  5.68  5.68  0.5  mtk yes tchain  5  pchain  5
fix 1  all npt temp  0.45 0.45  0.1  iso  5.68  5.68  0.5  mtk yes tchain  5  pchain  5

dump dmp2 all dcd ${N} traj.dcd
dump dmp2 all dcd 1000 traj.dcd


compute msd all msd com yes
variable twopoint equal c_msd[4]/6/(step*dt+1.0e-6)
fix 9 all vector 10 c_msd[4]
variable fit equal slope(f_9)/6/(10*dt)
thermo_style custom step temp pe c_msd[4] v_twopoint v_fit v_max_n

fix 1 all npt temp 1.25 ${temp} 0.1 iso 5.68 5.68 0.5 mtk yes tchain 5 pchain 5
fix 1 all npt temp 1.25 0.45 0.1 iso 5.68 5.68 0.5 mtk yes tchain 5 pchain 5
run 5000000 # 5000000  # Run for this many steps
Neighbor list info ...
  update every 1 steps, delay 10 steps, check yes
  max neighbors/atom: 2000, page size: 100000
  master list distance cutoff = 3.8
  ghost atom cutoff = 3.8
  binsize = 1.9, bins = 8 8 8
  4 neighbor lists, perpetual/occasional/extra = 1 3 0
  (1) pair lj/cut, perpetual
      attributes: half, newton on
      pair build: half/bin/atomonly/newton
      stencil: half/bin/3d
      bin: standard
  (2) compute orientorder/atom, occasional
      attributes: full, newton on
      pair build: full/bin/atomonly
      stencil: full/bin/3d
      bin: standard
  (3) compute coord/atom, occasional
      attributes: full, newton on
      pair build: full/bin/atomonly
      stencil: full/bin/3d
      bin: standard
  (4) compute cluster/atom, occasional
      attributes: full, newton on
      pair build: full/bin/atomonly
      stencil: full/bin/3d
      bin: standard
Per MPI rank memory allocation (min/avg/max) = 9.833 | 9.840 | 9.844 Mbytes
Step Temp PotEng c_msd[4] v_twopoint v_fit v_max_n 
   12000    1.2707886   -4.5379628 8.5551965e-31 5.9411084e-33 8.3333333e+20            2 
   13000    1.2348881    -4.511616   0.77192525 0.0049482386  0.064281358            5 
   14000    1.2355763   -4.5471866    1.5539868 0.0092499213  0.065115245            1 
   15000    1.2900022   -4.5254132    2.3756788  0.013198215  0.065761782            4 
   16000    1.2623476   -4.5765872    3.0919847  0.016104086  0.065345789            3 
   17000    1.2503664   -4.5415467    3.9403141  0.019315265  0.065409538            2 
   18000    1.2680876   -4.5295574    4.7043115  0.021779219  0.065573361            1 
   19000     1.241734   -4.5055686    5.5195417  0.024208516  0.065700106            2 
   20000    1.2383509    -4.527452    6.3051638  0.026271515  0.065723468            2 
   21000    1.2562058   -4.5569193    7.0617283  0.028022731  0.065836984            3 
   22000    1.2592723   -4.5734296    7.8706331  0.029813003   0.06584294            2 
   23000    1.2391379   -4.5207299    8.8163933  0.031943453  0.066155151            1 
   24000    1.2402861   -4.5655268    9.6702148  0.033577134  0.066718339            2 
   25000    1.2648835   -4.5673529    10.418145  0.034727149   0.06702829            2 
   26000    1.2265758    -4.557387       11.253  0.036067305  0.067140879            2 
   27000    1.2697037   -4.5527639    11.973186  0.036954278  0.067037923            2 
   28000    1.2570773   -4.5107876    12.798974  0.038092184  0.067001753            1 
   29000    1.2374117   -4.5498486    13.739909  0.039482497  0.067072874            1 
   30000    1.2646584   -4.5452433     14.50029  0.040278582  0.067241049            2 
   31000    1.2410632   -4.5194736    15.285757  0.041090744  0.067258663            2 
   32000    1.2595886   -4.5187838    15.986686  0.041631994  0.067196791            3 
   33000    1.2521606   -4.5485993    16.819963  0.042474653  0.067210713            3 
   34000    1.2337241   -4.5355767    17.662624  0.043290745  0.067219728            3 
   35000     1.275645   -4.5718215    18.588377  0.044258041  0.067262397            3 
   36000    1.2111062   -4.5476319      19.3448   0.04477963  0.067356016            2 
   37000    1.2883447   -4.5810706    20.251122  0.045610635  0.067469852            1 
   38000    1.2425535   -4.5218786    21.066623  0.046198733  0.067558607            2 
   39000    1.2559013    -4.548364    21.900602  0.046796157  0.067616918            1 
   40000    1.2192843   -4.5115721    22.894044  0.047695925  0.067747928            2 
   41000    1.2722455   -4.5143725    23.673992  0.048117869  0.067873666            2 
   42000    1.2034932   -4.5708472    24.577327  0.048764538  0.068004351            2 
   43000    1.2638781   -4.5316694    25.405605  0.049235668  0.068145074            1 
   44000    1.2496976   -4.5358225    26.274281  0.049761896  0.068267251            1 
   45000    1.2581169   -4.5985998    26.815653  0.049658616  0.068344777            2 
   46000    1.2278676   -4.5621802    27.565641  0.049937755  0.068342812            2 
   47000    1.2588167   -4.5312597    28.381952  0.050322609   0.06828186            3 
   48000    1.2530288   -4.5779953    29.088324  0.050500563  0.068200092            2 
   49000    1.2432779   -4.5054797    30.058159  0.051119318  0.068154717            1 
   50000    1.2465632   -4.5244314    30.833617  0.051389361  0.068123437            2 
   51000    1.2416677   -4.5759755    31.661188  0.051733967  0.068093259            1 
   52000    1.2184961    -4.549964    32.273041  0.051719617  0.068020788            2 
   53000    1.2627453   -4.5538205    33.026199  0.051927986  0.067937144            1 
   54000    1.2560831   -4.5500139     33.74418  0.052074351  0.067856605            2 
   55000    1.2361732   -4.5450705     34.74757  0.052647833  0.067805468            2 
   56000    1.2311975   -4.5546863    35.707366  0.053135961   0.06778452            2 
   57000    1.2404964   -4.5745605    36.352057  0.053146282  0.067783661            3 
   58000     1.270216    -4.565732    37.343222  0.053654054  0.067778995            1 
   59000    1.2549454   -4.5358367     38.09899  0.053812133   0.06776855            3 
   60000     1.231707   -4.5147823    38.620553  0.053639657  0.067745288            2 
   61000    1.2403597   -4.5569481    39.623383  0.054130305  0.067707584            2 
   62000    1.2422812   -4.5319315    40.214642  0.054051938  0.067669294            2 
   63000    1.2611613    -4.566995    40.860993  0.054048932  0.067621425            5 
   64000    1.2344414   -4.5641057    41.783057  0.054405022  0.067571897            2 
   65000    1.2418968   -4.5511587    42.620755  0.054641993  0.067515756            3 
   66000    1.2534945   -4.5315462    43.327899  0.054706942  0.067457765            3 
   67000    1.2277908     -4.56153    43.838592  0.054525612  0.067379936            3 
   68000    1.2471775   -4.5567313    44.817491  0.054923396  0.067307681            2 
   69000    1.2327967   -4.5701893    45.498722  0.054950146   0.06724279            3 
   70000    1.2460491   -4.5349712     46.48297  0.055336869  0.067183232            3 
   71000    1.2496859   -4.5548294    47.419722   0.05565695   0.06714841            2 
   72000    1.2503854   -4.5571675    48.322104  0.055928361  0.067129911            1 
   73000    1.2575123   -4.5498326    49.053344  0.055996968  0.067109226            2 
   74000    1.2470841   -4.5453589    49.692982  0.055960564   0.06707514            2 
   75000    1.2387951   -4.5691917    50.329816  0.055922017  0.067032864            1 
   76000    1.2452827   -4.5375196    51.504308  0.056474021   0.06701975            4 
   77000    1.2326623   -4.5363824    52.302933  0.056604905  0.066997063            2 
   78000     1.246584   -4.5397334    53.219281  0.056858206  0.066989236            1 
   79000     1.254044   -4.5246454    53.921292  0.056878999  0.066993732            3 
   80000    1.2447122   -4.5697721    54.723826  0.057003985  0.067004365            3 
   81000    1.2367228   -4.5140153    55.479914    0.0570781  0.066995717            4 
   82000    1.2304066   -4.5813207    56.107495  0.057019812  0.066988248            2 
   83000    1.2469183   -4.5781606    56.883719  0.057112167  0.066990661            2 
   84000    1.2382377   -4.5268551    57.881648  0.057422269  0.066989154            6 
   85000    1.2440171   -4.5518254     58.62631  0.057476774  0.066983467            1 
   86000    1.2366314   -4.5247351    59.386281  0.057544845  0.066989428            2 
   87000    1.2228469   -4.6014306    60.254705  0.057715234  0.066993174            1 
   88000    1.2342042     -4.54773    61.211932  0.057965844  0.066978009            2 
   89000    1.2344417   -4.5454762    62.202239  0.058241797  0.066983667            3 
   90000    1.2255795   -4.5764758    63.130027  0.058453728  0.066998185            2 
   91000    1.2592241   -4.5697736    63.453626  0.058107716  0.066989857            2 
   92000    1.2611148    -4.579221    63.830072  0.057817094  0.066962605            2 
   93000    1.2158183   -4.5681256    64.701112  0.057975906  0.066918131            2 
   94000    1.2674716   -4.5376088    65.912637  0.058433188  0.066886628            1 
   95000    1.2169285   -4.5354951    66.552295  0.058379205  0.066878048            2 
   96000     1.219147   -4.6089495    67.312818  0.058431265  0.066864194            2 
   97000    1.2410064   -4.5985211    68.348019  0.058718229   0.06685498            2 
   98000    1.2288598   -4.5262725    69.531674  0.059125572  0.066878271            1 
   99000     1.222151   -4.5273298    70.344209  0.059212297  0.066902146            2 
  100000    1.2340235   -4.5642197    71.079546  0.059232954  0.066926105            2 
  101000    1.2378408   -4.5780581    71.222158  0.058764157  0.066942102            2 
  102000    1.2356623    -4.599917    72.493615  0.059226809  0.066950146            4 
  103000    1.2167072   -4.5512186    73.146501  0.059180017  0.066955178            3 
  104000     1.231095   -4.5387128    74.378709  0.059598324   0.06695174            1 
  105000    1.2135297   -4.5776023    74.867633  0.059418756  0.066956052            1 
  106000    1.2369282   -4.5545461    75.583385    0.0594209  0.066947447            2 
  107000    1.2184769   -4.5321366    76.133001  0.059293614  0.066932806            5 
  108000    1.2099433   -4.5578293     77.14754  0.059527423  0.066919494            2 
  109000    1.2193646   -4.5935039    77.362709  0.059145802  0.066896738            9 
  110000    1.2313032   -4.5674892    78.000417  0.059091225  0.066864754            3 
  111000    1.2245239   -4.5593956    78.775582  0.059140827  0.066833614            1 
  112000    1.2400223   -4.5804011     79.57775  0.059209635  0.066803654            3 
  113000     1.226197   -4.5312831    80.821929  0.059603192  0.066779614            1 
  114000    1.2458269   -4.5330388    81.697939  0.059720715  0.066770104            2 
  115000    1.2239496   -4.5478528    82.709858  0.059934679  0.066768382            2 
  116000    1.2058631   -4.5594416    83.865655  0.060248315  0.066779156            3 
  117000     1.223736   -4.5474103    84.630539  0.060278162  0.066793035            1 
  118000    1.2239574    -4.604903    84.892018   0.05995199  0.066806221            3 
  119000    1.2390609   -4.5555694    86.108105  0.060299793  0.066805369            3 
  120000    1.2396229    -4.550797    86.849798  0.060312359  0.066810281            1 
  121000    1.2068996    -4.552988    87.568746  0.060309054  0.066816824            5 
  122000    1.2164256   -4.5192676    88.456547  0.060421139  0.066817297            1 
  123000    1.2352041   -4.5676479    88.780585  0.060149448  0.066816386            4 
  124000    1.2297222    -4.609271    89.672163   0.06026355  0.066805856            2 
  125000    1.2303213   -4.6082366      90.2714  0.060180933  0.066790995            1 
  126000    1.2202049   -4.5518519    90.875666  0.060102953  0.066767568            1 
  127000     1.234351   -4.5597376    91.619534  0.060117804  0.066734197            3 
  128000    1.2210265   -4.5446108    92.319408  0.060103781  0.066708467            2 
  129000     1.214231   -4.5887117    92.807982  0.059953476  0.066675143            2 
  130000    1.2435311   -4.5710215    93.543041  0.059963487  0.066648118            4 
  131000    1.2171207   -4.5556726    94.735958  0.060264604  0.066620834            1 
  132000    1.2211174   -4.5727317    95.551564  0.060322957  0.066598887            4 
  133000    1.2710866   -4.5628181    96.537169  0.060486948  0.066581868            4 
  134000    1.2272665   -4.5648851     97.54454  0.060662027  0.066573135            1 
  135000     1.209966   -4.5827329    98.447196  0.060769874  0.066568836            4 
  136000    1.2136461   -4.5849538    99.008721  0.060667108  0.066567386            3 
  137000    1.2539651    -4.565127    100.00499  0.060830285  0.066565031            3 
  138000    1.2239545     -4.54989    100.86492  0.060908765  0.066563141            5 
  139000      1.23744   -4.5324842     102.0391  0.061174523  0.066567556            2 
  140000    1.1907305   -4.5806988    102.25216   0.06086438  0.066572082            2 
  141000    1.2271676   -4.5659824    102.88112  0.060804446  0.066566065            2 
  142000    1.2491725   -4.5459804    103.60124  0.060798851  0.066549689            2 
  143000    1.2671987   -4.5610178    104.21938  0.060733902  0.066531957            2 
  144000    1.2083489   -4.5937509    104.94018  0.060729268  0.066517814            2 
  145000    1.2355819   -4.5723457    106.02648  0.060934761   0.06650789            2 
  146000    1.2313302   -4.5742348    106.69106  0.060896724  0.066490019            1 
  147000    1.2326868   -4.5881562    107.01453  0.060665833  0.066465161            3 
  148000    1.2471737   -4.5890118    107.76578  0.060678933  0.066444597            3 
  149000    1.2232279    -4.577314    108.77496  0.060836109  0.066416028            1 
  150000    1.2269874    -4.577543    109.06851  0.060593616  0.066390483            1 
  151000    1.2079071   -4.5814752    109.72769  0.060556119  0.066360497            6 
  152000    1.2564722   -4.5507883    110.23073  0.060433514  0.066328697            1 
  153000     1.245776   -4.5683004    111.32102  0.060632366  0.066302812            3 
  154000    1.2429113   -4.5956515    111.67523  0.060430317  0.066270877            1 
  155000    1.2659392   -4.5571943    113.12115  0.060817825  0.066243777            2 
  156000    1.2487795   -4.5688405    114.10415  0.060953072  0.066216499            1 
  157000    1.2399729   -4.6227216    114.05887  0.060540802  0.066190537            3 
  158000    1.2365435   -4.5612933    115.72714  0.061037519  0.066166401            1 
  159000    1.2216112   -4.5951327    115.31166  0.060435881  0.066146668            4 
  160000    1.2179585   -4.6216319    116.41211  0.060631305  0.066121795            2 
  161000    1.1995783   -4.5947457    117.89645  0.061023009  0.066099321            5 
  162000    1.2113487   -4.5841839    118.32043  0.060864417  0.066077251            1 
  163000    1.2243685   -4.5877072    119.10478  0.060892015  0.066054838            2 
  164000     1.251399   -4.5676581    120.74057  0.061351918  0.066040417            2 
  165000    1.2519709   -4.6102926    120.98797  0.061105035  0.066024215            1 
  166000     1.235584   -4.5568856     121.8492  0.061169275  0.066003569            3 
  167000    1.2269493   -4.5553365    122.60217  0.061178726  0.065987623            5 
  168000    1.2217457   -4.5859873    123.65763  0.061338112  0.065976244            1 
  169000    1.2243136   -4.5809229    123.99471  0.061141377  0.065969619            1 
  170000    1.2236732   -4.5933123    124.80392  0.061178392  0.065953236            2 
  171000    1.2023162   -4.5739633    125.49255  0.061156213  0.065938598            2 
  172000    1.2183128   -4.5783714    127.07068  0.061565254  0.065930381            4 
  173000    1.2441116   -4.5510107    127.56965  0.061449737  0.065923314            2 
  174000    1.1957573   -4.5694097    128.93864  0.061752222   0.06591917            2 
  175000    1.2195602   -4.6078587    128.75276  0.061310839  0.065910949            1 
  176000    1.2122366   -4.5694836    129.55252  0.061341157  0.065902064            3 
  177000    1.2104498   -4.5693585    130.65072   0.06151164   0.06588664            2 
  178000    1.2324501   -4.5310381    131.41795  0.061525256  0.065880407            1 
  179000    1.2146756   -4.5350727    132.50091  0.061685713  0.065873083            5 
  180000    1.2449243   -4.6055128    132.63314  0.061404232  0.065860842            3 
  181000    1.2495858   -4.5963504    133.08549  0.061273246   0.06584852            2 
  182000    1.2119863   -4.5754466    134.14293  0.061420755   0.06583307            2 
  183000    1.1986648   -4.5750761    135.49302  0.061699916  0.065822432            1 
  184000    1.2063986   -4.5770188    135.99486  0.061591873  0.065812935            2 
  185000    1.2309219   -4.5649325    136.90625  0.061669483   0.06580497            2 
  186000    1.2361193   -4.5564514    137.94301  0.061802426  0.065799244            3 
  187000    1.2215311    -4.599658    138.61633  0.061771984  0.065794884            3 
  188000    1.2064955   -4.5735976    139.14433  0.061677449  0.065795364            3 
  189000    1.2082045   -4.6034915    139.53265  0.061522331  0.065791542            3 
  190000    1.2265168   -4.5499562    141.13293  0.061900406  0.065784327            2 
  191000    1.2254081   -4.6131777    141.55863  0.061762055   0.06577543            2 
  192000    1.2253258   -4.6124818    141.84105  0.061562955  0.065765579            2 
  193000    1.2038408   -4.6273099    142.96549  0.061729488  0.065756579            1 
  194000    1.2257387   -4.5557033     144.1399  0.061915763  0.065747174            1 
  195000    1.2131681   -4.5710526    144.92839  0.061935208  0.065738259            2 
  196000     1.218873   -4.5614921    145.85607  0.062013634  0.065733211            2 
  197000     1.218832   -4.5780786    146.31521  0.061893067   0.06572978            8 
  198000    1.2398699   -4.6158086    146.76477  0.061769683  0.065719987            2 
  199000    1.2366047   -4.6400016    147.20497  0.061643622   0.06571419            2 
  200000     1.223687   -4.5607633     148.9829  0.062076208  0.065706482            1 
  201000    1.2172323   -4.5745678    149.69013  0.062060585  0.065699878            1 
  202000    1.1797866   -4.5913644    150.05273  0.061902939  0.065697814            4 
  203000    1.1972984    -4.590233    151.78203  0.062307895  0.065694637            1 
  204000     1.220274   -4.5688131    153.03244   0.06251325  0.065700064            3 
  205000    1.2161492   -4.5808964    152.75555  0.062095752  0.065705289            1 
  206000    1.2121407   -4.6046515    153.69126  0.062172841  0.065709462            5 
  207000    1.2242523   -4.5372766    154.92762  0.062370217  0.065712448            3 
  208000    1.2237844   -4.5936758    155.44027  0.062275748  0.065713987            2 
  209000    1.2128047   -4.5956496    156.24761  0.062299686  0.065717359            4 
  210000    1.2225058   -4.5796892    157.30653  0.062423224   0.06572389            2 
  211000    1.1793459   -4.5953101    157.88308  0.062355086  0.065727399            3 
  212000    1.2454904   -4.5708297    158.33082  0.062236957  0.065729771            4 
  213000    1.2352094   -4.5713209    158.82164  0.062136791  0.065728019            2 
  214000    1.2065238   -4.5810146    159.75031  0.062208066  0.065718753            1 
  215000     1.211322    -4.568398    161.02491  0.062412757  0.065712801            3 
  216000    1.2012277   -4.5837787    161.06243  0.062138283  0.065709142            2 
  217000    1.1984282   -4.5635879    162.39326  0.062363004  0.065701796            3 
  218000    1.2313897   -4.6141128    162.55144  0.062137401  0.065695046            1 
  219000     1.233537   -4.5826008    163.55459  0.062235386  0.065690304            2 
  220000    1.2044798    -4.579189    164.67974   0.06237869  0.065685709            2 
  221000    1.1936121   -4.6202734    164.77999  0.062134235   0.06568096            2 
  222000     1.221776   -4.6153186    164.94955     0.061918  0.065673502            2 
  223000    1.2237585   -4.6012668    166.79395  0.062329577  0.065667835            3 
  224000    1.1949841   -4.6042924    167.21489  0.062207921  0.065663804            2 
  225000    1.2250751   -4.5638762     168.5578  0.062428815  0.065659538            1 
  226000    1.1882184   -4.6241572    168.43855  0.062108611  0.065653486            3 
  227000    1.1961504   -4.5873096    169.43996  0.062202628  0.065641604            2 
  228000    1.1896913   -4.5896439     169.4478  0.061932675  0.065626252            2 
  229000    1.2177303   -4.5922238     170.1683  0.061924419  0.065610277            1 
  230000     1.212749   -4.6120831    170.12923  0.061641025  0.065592843            5 
  231000     1.227425   -4.6061461    171.49082  0.061865377  0.065570418            4 
  232000    1.2220973   -4.5926753    171.89942   0.06174548  0.065554276            1 
  233000    1.2094261   -4.5873651    172.44665  0.061676197  0.065531188            1 
  234000    1.2260037   -4.6380831    172.99305  0.061607212  0.065510635            4 
  235000    1.2029893   -4.5863057    174.07576  0.061728992  0.065489429            2 
  236000    1.2074121   -4.6020341    175.24011  0.061878571  0.065470804            1 
  237000    1.2153077   -4.6026259    175.69744  0.061778286  0.065450274            3 
  238000    1.2404136   -4.5896414    176.15965  0.061680548  0.065430318            1 
  239000    1.1922753   -4.6059074    176.66692  0.061599343   0.06541156            2 
  240000    1.2084392   -4.5629689    178.71926  0.062055298  0.065390426            2 
  241000    1.2150133   -4.5928365    179.12519  0.061938171  0.065374947            2 
  242000    1.2331287   -4.5738448    179.80653  0.061916847   0.06535957            2 
  243000    1.2077482   -4.6041045    180.70362  0.061969692  0.065347392            2 
  244000    1.2152084   -4.5944166    181.63088  0.062032404  0.065334832            2 
  245000    1.2164585   -4.5772576     182.9818  0.062238708  0.065323362            2 
  246000    1.2054705   -4.5940899    183.69371  0.062226868     0.065315            1 
  247000    1.2186758    -4.590673    184.83006  0.062358319  0.065305956            2 
  248000    1.2188812   -4.5670904    185.98829  0.062496065  0.065298842            3 
  249000    1.2300636   -4.6157197    186.17987  0.062309192  0.065293616            2 
  250000    1.1969573   -4.5739515    187.31568  0.062438558  0.065288968            2 
  251000    1.2160649   -4.5967888    187.01982  0.062091574   0.06528044            2 
  252000    1.2338582   -4.6082583    187.99803  0.062168662  0.065273386            3 
  253000    1.1991561   -4.5751661    190.11249  0.062619397  0.065266608            3 
  254000    1.2206572   -4.5836064    189.64695  0.062220129  0.065259314            1 
  255000     1.204321   -4.6142783    189.56778  0.061950256  0.065248857            1 
  256000    1.2102903   -4.6067225    190.91119  0.062145569  0.065237108            3 
  257000    1.2283895   -4.5932266    191.00289  0.061933492  0.065222829            3 
  258000    1.1944374   -4.5820128    191.78685  0.061946656  0.065204949            2 
  259000    1.2004978   -4.5860325    193.07795  0.062122892  0.065185594            3 
  260000     1.201665   -4.5880194    193.08781  0.061887118  0.065167259            1 
  261000     1.202492   -4.5833778     194.0928  0.061970881  0.065152126            1 
  262000    1.2062575   -4.5903052    194.95911  0.062009896  0.065134983            2 
  263000    1.2029779   -4.5796558    195.40283  0.061914713    0.0651194            2 
  264000    1.2052682   -4.6039771    196.54127  0.062039542  0.065104431            2 
  265000    1.2104836   -4.5674629    197.23057  0.062022192  0.065088922            3 
  266000    1.1583125   -4.5884792    198.08869  0.062057859  0.065073023            2 
  267000    1.2161551    -4.602115    197.53409  0.061652337  0.065054886            2 
  268000     1.212424   -4.6336336    198.90118  0.061847381  0.065035056            2 
  269000    1.2242875   -4.6347177    199.45421  0.061788788  0.065017675            7 
  270000    1.2269485    -4.595878    200.73014  0.061953747   0.06500268            1 
  271000    1.2070539   -4.6228349     200.9612  0.061796188  0.064985517            2 
  272000    1.2169402   -4.6404114     201.1639  0.061631095  0.064968093            3 
  273000    1.2100131   -4.5764197    203.59219  0.062146579  0.064949733            3 
  274000     1.220277   -4.6215958    202.85412  0.061695292  0.064932645            4 
  275000     1.194459   -4.5716744    205.12326  0.062158563  0.064914995            2 
  276000    1.2010633   -4.6198533    205.49623  0.062045964  0.064899934            3 
  277000     1.239337   -4.6060096    205.52484  0.061830577  0.064885345            5 
  278000     1.209005   -4.6505689    205.95254  0.061736372  0.064868839            2 
  279000    1.1975708   -4.6080224    206.72419  0.061745578  0.064850465            2 
  280000    1.1965774   -4.5736504    207.82082  0.061851433  0.064835138            3 
  281000    1.2357809   -4.6183948    208.83744  0.061932812  0.064818262            2 
  282000    1.2122418   -4.6098471    209.19958  0.061820207  0.064800034            5 
  283000    1.2309355   -4.6395532    208.65047  0.061440067   0.06477798            4 
  284000    1.2164141    -4.597792    210.66863  0.061815912  0.064758125            2 
  285000    1.1800101   -4.5986633    212.06133  0.062006236  0.064739712            3 
  286000    1.2144639   -4.6016775    212.09943  0.061800534  0.064725663            4 
  287000     1.234851   -4.6318543    212.87069  0.061809143  0.064711774            2 
  288000    1.2031778   -4.5839313     215.4433  0.062338917  0.064698267            2 
  289000    1.1781643   -4.6341178    214.53702  0.061861887  0.064686221            1 
  290000    1.1856452   -4.6400639    214.99495  0.061780158  0.064673793            2 
  291000    1.2067451   -4.6346224    215.74912  0.061783826  0.064660074            2 
  292000    1.2107154   -4.6069117    217.07348  0.061950193  0.064650011            4 
  293000    1.2365653   -4.5966552    218.27318  0.062079971  0.064636976            2 
  294000    1.2239257   -4.6500217    218.23333  0.061857521  0.064624433            2 
  295000    1.1901416   -4.6127824    219.25314  0.061935915  0.064614037            1 
  296000    1.2133162   -4.5808666    220.58084  0.062100463  0.064603185            1 
  297000    1.2060984   -4.6250552    219.75479  0.061659592   0.06458753            2 
  298000    1.1966342   -4.5631352    221.66245  0.061986143  0.064573839            2 
  299000    1.2225414   -4.5621655    223.20982  0.062210095  0.064561312            3 
  300000    1.2275605   -4.5768014    223.01344  0.061948177  0.064550711            2 
  301000    1.1999469   -4.5845475     224.0004  0.062015613  0.064539121            1 
  302000    1.2177289   -4.6273791     224.1397  0.061848704  0.064531387            2 
  303000    1.2110921   -4.6192631    225.90578  0.062130303  0.064522795            2 
  304000    1.2035873   -4.6072896    226.69175  0.062141379  0.064512899            5 
  305000    1.2271561   -4.6331917    226.50759  0.061887319  0.064504954            2 
  306000     1.214855   -4.6088132     228.4029  0.062201226  0.064497194            2 
  307000     1.217272    -4.612722    228.46458  0.062015359  0.064489715            2 
  308000    1.1822664   -4.5956032    230.21488  0.062287575  0.064481229            3 
  309000    1.1985196   -4.6312536    230.07123  0.062047258  0.064473131            1 
  310000    1.2174367   -4.6081292    231.78091  0.062306697  0.064466431            5 
  311000     1.204544   -4.6048199    233.04646  0.062445459  0.064462196            5 
  312000    1.1862064   -4.6237647    233.84375  0.062458266  0.064458658            2 
  313000    1.1936209   -4.6323587    233.41178  0.062143711   0.06445494            1 
  314000    1.1788757   -4.6573682    234.52376  0.062240912  0.064450726            3 
  315000    1.1695884    -4.606134    236.64964  0.062605725  0.064450865            3 
  316000    1.1939281   -4.6019962    237.19027  0.062550176  0.064449226            3 
  317000    1.2030464   -4.6028415    236.95679  0.062291481  0.064445353            2 
  318000    1.1832445   -4.5892976    237.91088  0.062345617  0.064439719            3 
  319000    1.2033248   -4.6446367    238.11652  0.062203896  0.064432687            1 
  320000      1.20543   -4.5679134    239.56952  0.062387896  0.064424911            2 
  321000    1.1929027   -4.6223629    238.91522  0.062023681  0.064416776            3 
  322000    1.1929112   -4.6124888    239.79499  0.062058745  0.064408609            2 
  323000    1.2143471   -4.5875364    242.27211  0.062505704  0.064401751            3 
  324000    1.2490734   -4.6171117    240.40045  0.061831392  0.064394561            2 
  325000    1.2029949   -4.6390203    241.72366  0.061980426   0.06438637            3 
  326000    1.2199315   -4.6264205    243.35576  0.062207505  0.064377816            2 
  327000    1.2041182   -4.6683598    244.15602  0.062221209  0.064369339            2 
  328000    1.2280905   -4.6146663    245.06925  0.062263528  0.064364528            4 
  329000    1.1855464   -4.6258668    246.20435   0.06236179  0.064360212            1 
  330000    1.1881475   -4.6584208    246.47725   0.06224173  0.064357329            2 
  331000     1.200898   -4.6300539    246.77009  0.062127413  0.064348705            1 
  332000    1.1883191    -4.617164    247.91486  0.062227626  0.064341702            4 
  333000    1.2187197    -4.642882    247.68371  0.061982909  0.064334854            2 
  334000     1.227035   -4.6318121    250.38748  0.062471925  0.064329121            4 
  335000     1.171771   -4.6401838    250.68079  0.062358405  0.064323614            7 
  336000    1.1970037   -4.5880539    252.75895  0.062688232  0.064321294            3 
  337000    1.1971311   -4.6209557    253.77515  0.062753498  0.064321187            2 
  338000    1.1705572    -4.629695    254.35575  0.062710983  0.064322386            2 
  339000    1.1973246   -4.6325795    254.76054  0.062625502  0.064322464            2 
  340000    1.1989174   -4.6400172    255.13533   0.06253317  0.064322994            3 
  341000    1.1897675    -4.647682    254.96726  0.062308715  0.064322132            2 
  342000    1.1899588   -4.6086159    256.25755  0.062440923  0.064320283            2 
  343000    1.2259922   -4.6298868    257.88545  0.062654385  0.064321007            4 
  344000     1.207479   -4.5859679     259.4045  0.062840237  0.064322118            2 
  345000    1.2016299   -4.6261678    259.20945  0.062610977  0.064324655            1 
  346000    1.1986823   -4.6401656    260.62034  0.062769831  0.064325337            4 
  347000    1.1784527   -4.6521695     260.9402  0.062665753  0.064325113            1 
  348000    1.2121629   -4.6450355    260.82708  0.062458591  0.064325044            1 
  349000    1.1735786   -4.6016905     261.8449  0.062522661  0.064323177            3 
  350000    1.2008675   -4.6219624     263.0057  0.062620404  0.064321868            1 
  351000    1.1975264   -4.6008125     263.4634  0.062550665  0.064320099            1 
  352000    1.1753094   -4.6147851    264.45253  0.062607132  0.064318337            3 
  353000    1.2087137   -4.6227909    265.55323  0.062689619  0.064317512            4 
  354000    1.1852609   -4.6413482    266.88191  0.062825308  0.064317904            2 
  355000    1.2061933   -4.6513513    265.63428  0.062355464  0.064317811            1 
  356000     1.185484   -4.6157522     267.7043  0.062664864  0.064318149            2 
  357000     1.223805   -4.6391345    267.73958  0.062497568  0.064318677            2 
  358000    1.2182002   -4.6298073    268.30844  0.062455409  0.064319435            1 
  359000    1.1866663   -4.6126081    271.09376  0.062927985  0.064320329            2 
  360000    1.1985857   -4.6066889    272.32807  0.063038904  0.064321893            2 
  361000    1.2048196    -4.621396    270.55211  0.062454318  0.064321055            1 
  362000    1.2029726   -4.6440512     271.4287  0.062483587  0.064318562            2 
  363000    1.1886292   -4.6327703    273.13784  0.062703819  0.064317368            2 
  364000    1.1962694   -4.6290253    273.58891  0.062634823  0.064316964            1 
  365000    1.1802566   -4.6116791    274.22483  0.062608408   0.06431541            2 
  366000    1.1854527   -4.6536224    274.05166   0.06239792  0.064313736            3 
  367000    1.2000648   -4.6369618    275.14548  0.062476266  0.064310621            2 
  368000    1.1954928   -4.6233365    276.09441  0.062521378  0.064307049            2 
  369000    1.1778409   -4.6560826    277.13648  0.062587281  0.064304585            1 
  370000    1.2112733   -4.6467495    277.16428  0.062424387  0.064300345            3 
  371000    1.2075911   -4.6451989    278.82371  0.062628867  0.064297503            4 
  372000    1.1791845   -4.6570209    279.33054  0.062574045  0.064293049            2 
  373000    1.1887567    -4.609469    280.64967  0.062700998  0.064291875            3 
  374000    1.1957063   -4.6640534    280.65788  0.062535178  0.064293105            1 
  375000    1.1978857    -4.638789    282.31739  0.062737198  0.064294029            2 
  376000    1.1878714    -4.663606    283.70939  0.062878854   0.06429531            3 
  377000    1.1460054   -4.5928929    283.86288  0.062745995  0.064296145            2 
  378000    1.1655919   -4.6353815    284.26203  0.062667996  0.064296607            2 
  379000    1.1906742    -4.608283    285.21261  0.062711656  0.064295804            5 
  380000    1.1866353   -4.6294549    285.48573  0.062606519  0.064293695            2 
  381000    1.2006465   -4.6291365      287.146  0.062805336  0.064292703            3 
  382000    1.1931926    -4.652554     288.8672  0.063016406   0.06429212            5 
  383000    1.1796677   -4.6396616    288.83768  0.062845448  0.064292614            3 
  384000    1.1614262   -4.6403488     288.9227  0.062700239  0.064291267            1 
  385000    1.2057832   -4.6353215    289.00101  0.062554331  0.064290986            1 
  386000    1.1764317   -4.6287138    291.06672  0.062838239  0.064289456            1 
  387000    1.1719984   -4.6958884     289.9569  0.062436885  0.064286887            2 
  388000    1.1926592   -4.6298745    292.07003  0.062729818  0.064283055            1 
  389000     1.221618   -4.6335788    293.09453   0.06278803   0.06428076            2 
  390000    1.2363339   -4.6385898     293.9539  0.062810662  0.064278595            5 
  391000    1.2090491   -4.6354218    294.24487  0.062712035  0.064277272            1 
  392000    1.1553268   -4.6488497    294.63331  0.062634632  0.064276191            1 
  393000     1.198448   -4.6290072    296.79401   0.06293342  0.064273335            2 
  394000     1.181145   -4.6387578    295.75735   0.06255443  0.064271843            4 
  395000    1.1962926   -4.6325835    295.91892  0.062430151  0.064268037            1 
  396000    1.2214543   -4.6311593    298.49365   0.06281432   0.06426515            3 
  397000    1.1942426   -4.6375511    298.71789  0.062703166  0.064261792            3 
  398000    1.1747343   -4.6280728    300.06596   0.06282788  0.064258886            5 
  399000    1.1772888   -4.6809523    298.40319  0.062323138  0.064253522            2 
  400000    1.1674847   -4.6263901    299.67953  0.062433236  0.064250958            2 
  401000    1.1933762   -4.6332651    300.69127  0.062487795  0.064247885            2 
  402000    1.1737208   -4.6839186    301.51817  0.062503766  0.064244637            4 
  403000    1.1873042   -4.6180155    302.58388   0.06256904  0.064240756            1 
  404000    1.1658947   -4.6340934    303.58709    0.0626211  0.064237226            2 
  405000    1.1784009   -4.6262904     305.1087  0.062779569  0.064234568            4 
  406000    1.1962925   -4.6375392    303.86568  0.062369804  0.064229938            2 
  407000    1.1823922   -4.6342984    306.01205  0.062656029  0.064226781            3 
  408000    1.1742848   -4.6739825    305.31465  0.062360018  0.064222844            2 
  409000    1.1972966   -4.6369475    306.73976  0.062497914  0.064216802            1 
  410000    1.1604216    -4.622715    307.11341  0.062421425  0.064211755            1 
  411000    1.1984361   -4.6789743     307.8684  0.062422628  0.064205751            2 
  412000    1.2067167    -4.649068    308.40701  0.062380059   0.06419844            3 
  413000    1.1818978   -4.6317666     309.1569  0.062380326  0.064190212            2 
  414000    1.1761229   -4.6574593    309.22718  0.062243796   0.06418302            2 
  415000    1.1849902   -4.6262019    310.26284  0.062301775  0.064176539            2 
  416000    1.2076821   -4.6827563     310.2988  0.062159215  0.064169249            3 
  417000    1.1904857   -4.6498728    310.68024  0.062086379  0.064160553            4 
  418000     1.192368   -4.6499847    313.86982  0.062573729  0.064155247            2 
  419000     1.203862   -4.6257995    313.30615   0.06231228  0.064148833            5 
  420000    1.1991198   -4.6272406    313.92498  0.062286703  0.064139816            4 
  421000    1.1849065   -4.6696374    313.79804  0.062113627  0.064131105            2 
  422000    1.1693575   -4.6070989    316.38678  0.062477642   0.06412306            3 
  423000    1.2141017   -4.6665573    315.22221  0.062100514  0.064114713            2 
  424000    1.1951337   -4.6322168    316.69092  0.062242713  0.064107263            1 
  425000    1.1973548   -4.6525365    317.13115  0.062182578  0.064097413            2 
  426000    1.1783759   -4.6438627    317.38656  0.062086573  0.064087737            3 
  427000    1.1773757   -4.6799148    317.19801  0.061904374   0.06407803            2 
  428000    1.1782673   -4.6438331    316.68006   0.06165889  0.064066769            1 
  429000    1.2024279   -4.6173621    320.10729  0.062180902  0.064054186            4 
  430000    1.2032528   -4.6359581    320.57523  0.062126982  0.064042364            2 
  431000     1.177944   -4.6830839    319.53027  0.061780794  0.064030607            2 
  432000    1.1770247   -4.6624336    321.62465  0.062041793    0.0640176            4 
  433000    1.1752999   -4.6451338    321.83996  0.061939946  0.064003742            2 
  434000    1.1728634   -4.6371225    323.12038  0.062043084  0.063992448            3 
  435000      1.18632    -4.630997    323.32455   0.06193957  0.063980348            1 
  436000    1.2014528     -4.63704    323.65783  0.061861206  0.063967621            1 
  437000    1.1817252   -4.6517642    323.51441  0.061692298  0.063952351            4 
  438000     1.227111   -4.6717395    322.67166  0.061391106  0.063936282            2 
  439000    1.1634014   -4.6745228    323.86344  0.061477494  0.063919529            3 
  440000    1.1564259   -4.6595595    324.38994  0.061437489  0.063902545            2 
  441000    1.1792962   -4.6390226    326.95935  0.061783702  0.063885221            3 
  442000    1.1860035   -4.6662676     326.2652  0.061513048  0.063867893            2 
  443000    1.1583134   -4.6567905    326.93218  0.061499657  0.063851383            4 
  444000     1.178777   -4.6138631    329.42431  0.061828888  0.063835479            2 
  445000    1.1537715   -4.6033117    329.20649  0.061649155  0.063821901            2 
  446000     1.186032   -4.7097566    327.70815  0.061230969  0.063804984            2 
  447000    1.1867607   -4.6300485    330.87013  0.061683469  0.063788708            2 
  448000    1.1631238   -4.6563937    330.38036   0.06145468  0.063771061            3 
  449000    1.1718055   -4.6755405    330.37598  0.061316997  0.063753988            2 
  450000    1.1777823   -4.6431942    333.53206  0.061765196  0.063738496            5 
  451000    1.1608632   -4.6797196    332.03404  0.061351448  0.063721911            2 
  452000    1.1671174   -4.6282739    335.16693  0.061793314  0.063706507            1 
  453000    1.1680634   -4.6700391    333.84293  0.061413342  0.063692724            2 
  454000    1.1834878   -4.6870553     333.8095  0.061271934  0.063676882            4 
  455000    1.1596776   -4.6205233    336.05164   0.06154792  0.063662726            5 
  456000    1.1708159   -4.6348622    337.26478  0.061634645   0.06364764            3 
  457000    1.1911943   -4.6414401    338.85599  0.061789933  0.063633628            2 
  458000     1.182232   -4.6336483    338.17926  0.061531888  0.063619073            2 
  459000    1.1632387   -4.6900329    338.46915  0.061450463  0.063603734            2 
  460000    1.1821955   -4.6447802    340.17937  0.061626698  0.063589679            6 
  461000    1.1794003   -4.6900755    339.54525  0.061378389  0.063576837            4 
  462000    1.1689945   -4.6260707    342.29803  0.061742069  0.063564609            5 
  463000    1.1716411   -4.6717624    342.45369  0.061636733  0.063551425            2 
  464000    1.1657753   -4.6603341    343.53414  0.061697942  0.063538219            3 
  465000    1.1997984   -4.6484893    342.96378  0.061463043  0.063525401            2 
  466000    1.2028082   -4.6650433    343.89226  0.061497185  0.063512765            3 
  467000    1.1617447   -4.6838389    344.36517  0.061449888  0.063500001            3 
  468000    1.1880068   -4.6455197    344.24872  0.061297848  0.063485447            3 
  469000    1.1763012   -4.6646076    345.62221  0.061411197  0.063471526            3 
  470000    1.1947636   -4.6572547    346.95226  0.061516358  0.063456116            2 
  471000    1.1709393   -4.6512993    346.37645  0.061283873  0.063441106            2 
  472000    1.1742444    -4.651016    349.23785  0.061659225  0.063427132            2 
  473000    1.1926692    -4.638607    348.05897  0.061321171  0.063413018            1 
  474000    1.1604154   -4.6221215    349.60893  0.061464299   0.06339974            1 
  475000    1.2030393   -4.6225105    352.32837  0.061811994  0.063387178            2 
  476000    1.1804292   -4.6650385    351.53767   0.06154371  0.063374308            3 
  477000    1.1800743   -4.6825313    352.72724  0.061622508  0.063362043            2 
  478000    1.1945733   -4.6965795    353.29105  0.061591884  0.063351307            6 
  479000    1.2086528   -4.6680193     353.7172  0.061537438  0.063339269            2 
  480000    1.2025715   -4.6936132    353.94756  0.061449228  0.063327098            4 
  481000    1.1889847   -4.6648608    353.60043  0.061261335  0.063314433            4 
  482000    1.1707051   -4.6947188    354.83125  0.061347035  0.063301744            1 
  483000    1.1861416   -4.6398222    358.21203  0.061803318  0.063289861            3 
  484000    1.1607956   -4.6889844    356.51979  0.061384262  0.063279581            1 
  485000    1.1599711   -4.6415326    359.52191  0.061773523  0.063269497            6 
  486000    1.1844974   -4.6583878    359.08486  0.061571478  0.063260768            2 
  487000    1.1642618    -4.692994    359.91428  0.061586975  0.063250955            3 
  488000    1.1490437   -4.6896323    360.09222  0.061491157  0.063239569            4 
  489000    1.1557238   -4.6603767    362.48419  0.061773038  0.063230346            3 
  490000    1.1975184   -4.6351535    364.79859  0.062040577  0.063221574            1 
  491000    1.1752895   -4.7212971    362.03929  0.061445908  0.063214107            3 
  492000    1.1710764   -4.6865111     364.5925  0.061753473  0.063205776            2 
  493000    1.1555974   -4.6593884    366.25612  0.061909418  0.063198448            2 
  494000    1.1524847   -4.6973816    365.59071  0.061671848  0.063191489            4 
  495000    1.1638364   -4.6733054    366.13537  0.061638951  0.063184342            6 
  496000    1.1779646   -4.6876365    366.98964  0.061658206  0.063175566            3 
  497000    1.1669246   -4.6586915    368.85236  0.061846472   0.06316764            3 
  498000    1.1959298   -4.6740227    368.43695  0.061652769  0.063159688            2 
  499000    1.2041543   -4.6839635    367.87245  0.061434945  0.063152273            3 
  500000    1.1652842   -4.6614446     370.1758  0.061695966  0.063143696            2 
  501000    1.1403639   -4.6888523    370.99766  0.061709524  0.063135427            3 
  502000    1.1732787   -4.6850578    370.54597  0.061511615  0.063126806            1 
  503000    1.1921055   -4.6354008    373.25694  0.061838459  0.063119887            2 
  504000    1.1683208   -4.6638593    373.47009  0.061751007  0.063112895            3 
  505000     1.172851     -4.67967    373.81442  0.061685547  0.063105814            2 
  506000    1.1740964   -4.6448711    375.36528  0.061819051  0.063097174            2 
  507000    1.1991841   -4.6847669    374.19259   0.06150437  0.063088952            3 
  508000    1.1807646   -4.6490299    375.27003  0.061560044  0.063080147            2 
  509000    1.1946045   -4.6783631    375.51189  0.061478698  0.063071239            2 
  510000    1.1614656   -4.6389407    377.39965  0.061666609   0.06306272            3 
  511000     1.151108   -4.6508403    378.10718  0.061661314  0.063055306            3 
  512000    1.1713154   -4.7055434    377.94987  0.061515278  0.063048609            2 
  513000    1.1684444    -4.702805    380.88305   0.06187184  0.063040952            3 
  514000     1.191213   -4.6665253     379.7176  0.061562515  0.063033256            3 
  515000    1.1574974   -4.6715465    381.79969  0.061779886  0.063025632            1 
  516000    1.1686851   -4.7104014    381.81724  0.061662991  0.063017607            2 
  517000    1.1675884   -4.6459855    384.54498  0.061983395  0.063009854            2 
  518000    1.1702994   -4.6644365    383.23834   0.06165353  0.063002197            2 
  519000    1.1847953   -4.7015847    384.35849  0.061714594  0.062993705            2 
  520000    1.1660326    -4.690709    382.25401  0.061258656  0.062983988            3 
  521000    1.1616901   -4.6987196    383.31302  0.061310463  0.062975348            2 
  522000    1.1760963   -4.6516183    387.46541  0.061855909  0.062966724            3 
  523000    1.1819845   -4.6753606    385.40573  0.061409453  0.062958282            2 
  524000    1.1731529   -4.6568536    388.21864  0.061739606  0.062949646            2 
  525000    1.1729154   -4.6950392    387.54252  0.061514685  0.062941177            2 
  526000    1.1677431   -4.7006414    386.54737  0.061240077   0.06293259            3 
  527000    1.1650533   -4.6692917    389.22138  0.061546708  0.062922571            3 
  528000    1.1459378   -4.6917173    386.30983  0.060970616  0.062912276            2 
  529000     1.166116   -4.6666369    389.06653  0.061289623   0.06290052            2 
  530000    1.1646777   -4.6723959    389.47064  0.061237522  0.062888443            3 
  531000    1.1914274   -4.6590415    391.13282  0.061383055  0.062877123            1 
  532000    1.1904558   -4.6745582    390.87479  0.061227254  0.062867688            1 
  533000    1.1838487   -4.7093253     390.7466  0.061092339  0.062856906            3 
  534000    1.1687945   -4.7051513    393.16036  0.061354612  0.062845199            3 
  535000    1.1602222   -4.6803283    391.90662  0.061044645  0.062833978            2 
  536000    1.1697749   -4.6391535    395.25444  0.061451249  0.062823327            2 
  537000    1.1454922    -4.673187    395.49576  0.061374265  0.062813944            2 
  538000    1.1728739   -4.6618318    395.72375    0.0612955   0.06280367            3 
  539000    1.1445627   -4.6662433    397.22726  0.061414233  0.062793922            3 
  540000    1.1749575   -4.6834607    397.11383  0.061282998  0.062782786            3 
  541000    1.1826362   -4.6746254    396.93208  0.061141725  0.062772063            2 
  542000    1.1684641   -4.6580421    399.31107  0.061394691  0.062762702            2 
  543000    1.1526371   -4.6865783      399.939  0.061377992  0.062752917            2 
  544000    1.1383407    -4.667607    400.60419  0.061367064  0.062743671            3 
  545000    1.1575945   -4.7046442    400.46805  0.061233646  0.062734936            3 
  546000    1.1383577   -4.6672714    400.29138  0.061094533  0.062725392            2 
  547000    1.1486288   -4.7105105    400.75187  0.061052997  0.062714973            2 
  548000    1.1743768   -4.6862271    403.54588  0.061366466   0.06270447            3 
  549000    1.1451745     -4.68065    404.18056  0.061351027  0.062695711            4 
  550000    1.1896659   -4.6725746    405.43068  0.061428891  0.062686347            1 
  551000    1.1696199   -4.6996504    404.60996  0.061193279  0.062677567            2 
  552000    1.1570551   -4.6977295    405.70231  0.061247329  0.062668945            8 
  553000    1.1566174   -4.6932048    408.63158  0.061577996  0.062660369            1 
  554000    1.1549675   -4.6698621    407.10707  0.061237525   0.06265186            2 
  555000     1.167209   -4.6992911    407.67869  0.061213016   0.06264321            2 
  556000    1.1762435   -4.6989967    407.74154  0.061112341  0.062633908            5 
  557000    1.1454627   -4.7154682    410.59526  0.061429572  0.062625285            6 
  558000     1.145793   -4.7240506     410.3231  0.061278838  0.062616745            3 
  559000    1.1786043   -4.7322586    410.41726  0.061183254  0.062607893            2 
  560000     1.152911   -4.6868186    412.46004  0.061377983  0.062599764            2 
  561000    1.1469079   -4.6837854     412.5863  0.061287329  0.062592412            4 
  562000     1.163009   -4.6657819    415.22352  0.061569324  0.062584668            6 
  563000    1.2015071   -4.6952318    413.88677  0.061262103  0.062575645            4 
  564000    1.1511924    -4.715145    415.02138  0.061321125  0.062567002            2 
  565000    1.1493363   -4.7048633    413.75083  0.061025196  0.062558427            3 
  566000    1.1850198   -4.7123619    415.53254  0.061179702  0.062549178            2 
  567000    1.1774091   -4.6835523    415.80853  0.061112365  0.062539322            2 
  568000    1.1643453    -4.663269    416.30814  0.061078072  0.062529281            2 
  569000    1.1838611   -4.6764945    417.23994  0.061107196  0.062519202            4 
  570000    1.1832444   -4.6939898    418.04686  0.061117961  0.062510028            1 
  571000    1.1391013   -4.6952196    417.92222  0.060992735  0.062499904            2 
  572000    1.1600233   -4.6853341    418.22184  0.060929755  0.062488772            3 
  573000    1.1543028   -4.6951596    420.10963  0.061097969  0.062477992            5 
  574000    1.1444745   -4.6625625    420.92016  0.061109199   0.06246717            1 
  575000    1.1801621   -4.7011283    420.69804   0.06097073  0.062455854            3 
  576000    1.1825812   -4.6882275    420.61064  0.060852234  0.062443966            5 
  577000    1.1443156   -4.7084101    421.25408    0.0608397  0.062431884            5 
  578000    1.1529832   -4.6948854    420.57194  0.060636093  0.062419127            5 
  579000     1.168829   -4.6875159    422.77958  0.060849105  0.062405826            2 
  580000    1.1640676   -4.6941739    422.64115  0.060724304  0.062393213            3 
  581000    1.1726682   -4.7362889    422.38807  0.060583487  0.062380056            5 
  582000    1.1708918   -4.6798203    424.89216  0.060837939  0.062366979            5 
  583000    1.1428887   -4.6789782    423.90996   0.06059319  0.062353882            2 
  584000    1.1709534   -4.6650979    425.88377  0.060771085  0.062340006            1 
  585000    1.1509102   -4.6868149    426.57809   0.06076611  0.062326995            1 
  586000     1.149874   -4.6599095    428.67441  0.060960525  0.062314667            2 
  587000    1.1370345   -4.7024693     426.5034  0.060548466  0.062303609            4 
  588000    1.1696587   -4.6752839    427.97707  0.060654346  0.062289892            2 
  589000     1.163892   -4.6756621    428.88206  0.060679409  0.062276963            2 
  590000    1.1553178   -4.6976036    428.35854  0.060502618  0.062263677            2 
  591000     1.174271   -4.7194931    431.11237  0.060788546  0.062249765            2 
  592000    1.1616294   -4.6882865    428.85167  0.060367634  0.062235662            2 
  593000    1.1467441     -4.68309    431.87775  0.060691083  0.062222631            1 
  594000    1.1461363   -4.7160345    431.10756  0.060480858  0.062208542            5 
  595000     1.162639   -4.6796071    433.89158  0.060769129  0.062194697            2 
  596000    1.1587467   -4.7137839    432.42492  0.060462097  0.062181392            1 
  597000    1.1429619   -4.6841533    432.48338  0.060368982  0.062167939            2 
  598000    1.1701163   -4.6847914    433.92847  0.060469408  0.062154601            2 
  599000    1.1884449   -4.7079304    435.28317  0.060556925  0.062141937            8 
  600000     1.143534   -4.7063558    434.62421  0.060364474  0.062129416            5 
  601000    1.1948622    -4.692354     436.8109  0.060567235   0.06211691            4 
  602000    1.1577985   -4.6819545    437.71462  0.060591725  0.062105147            4 
  603000    1.1691764   -4.6781479     438.4498  0.060592841  0.062092921            3 
  604000    1.1556606   -4.6877199    438.97576  0.060565088  0.062080479            2 
  605000    1.1666398   -4.6818989    440.32173  0.060650375  0.062067668            4 
  606000    1.1387685   -4.6870505    440.54925   0.06058158  0.062055857            3 
  607000    1.1780252   -4.7213355    441.27115  0.060580883  0.062043841            1 
  608000    1.1296317    -4.716367    441.37052  0.060494863   0.06203139            1 
  609000    1.1461842   -4.7023675    442.78997  0.060589761  0.062019493            2 
  610000    1.1580742   -4.6579399    445.20003  0.060819676  0.062008506            3 
  611000    1.1353339    -4.717035    444.00241  0.060556794  0.061997208            2 
  612000    1.1582244   -4.6961509    444.70209  0.060553117  0.061985981            2 
  613000    1.1546618   -4.6931399    447.47803  0.060831706  0.061973853            2 
  614000    1.1362121   -4.6903351    445.92958  0.060522473  0.061963047            4 
  615000    1.1523656    -4.733328    445.86351  0.060415109  0.061950241            3 
  616000    1.1666815   -4.7278391    446.70474  0.060430836  0.061937394            5 
  617000    1.1552086   -4.7186261    445.59683  0.060183256  0.061924169            1 
  618000    1.1522912   -4.7425907    446.98083  0.060272496  0.061911178            1 
  619000    1.1456844   -4.7239103    448.38376  0.060363996  0.061898357            2 
  620000    1.1647786    -4.700965    449.41895  0.060405773  0.061885259            1 
  621000    1.1204485   -4.6999027    450.28196  0.060424311  0.061872401            4 
  622000    1.1299617   -4.7107293    449.49028  0.060221099  0.061859887            2 
  623000     1.164307   -4.7444863    449.85113  0.060172703   0.06184747            3 
  624000     1.166411   -4.6971507    451.00066  0.060229789  0.061833994            1 
  625000    1.1493272   -4.7165827    451.36701  0.060182268  0.061820978            2 
  626000    1.1604709   -4.7118487    452.15797  0.060191423  0.061807966            3 
  627000    1.1347504   -4.7342447    451.83322  0.060052263  0.061792994            2 
  628000    1.1423277   -4.7186285    451.73727  0.059943906  0.061778132            4 
  629000     1.164444   -4.7071765    452.86107  0.059997492  0.061764263            5 
  630000     1.160328   -4.7235755    454.85253  0.060165678  0.061750961            3 
  631000    1.1666509    -4.690576    455.79567  0.060194885  0.061736913            5 
  632000    1.1420285   -4.7046446    455.12535  0.060011254  0.061723569            4 
  633000    1.1283385   -4.6659782    459.15158  0.060446496  0.061710595            2 
  634000    1.1640293   -4.7285313    458.91281  0.060319769  0.061697649            3 
  635000     1.177801   -4.6944324    457.20773  0.060001014  0.061684124            1 
  636000    1.1336909   -4.7285335    458.86189  0.060123414  0.061669974            1 
  637000     1.140119   -4.7128409    461.27736  0.060345024  0.061655712            2 
  638000    1.1389374   -4.7018253    459.81896  0.060059947  0.061641143            2 
  639000    1.1464118   -4.6827875    459.39302  0.059910409  0.061627673            3 
  640000    1.1365146   -4.7124213    461.39257  0.060077157   0.06161415            3 
  641000    1.1396341   -4.7268206    460.89621  0.059918904  0.061600797            2 
  642000    1.1337101   -4.6764937     464.3297  0.060271249  0.061587222            1 
  643000    1.1528672   -4.7015413    462.42043  0.059930071  0.061572966            7 
  644000    1.1668171   -4.7006639    463.56606  0.059985256  0.061559255            3 
  645000    1.1445942   -4.7083754    462.87962  0.059803569  0.061544777            2 
  646000    1.1535257   -4.7018675    464.76067  0.059953647  0.061530336            2 
  647000    1.1671834   -4.7530025    463.87065  0.059746349  0.061516401            3 
  648000    1.1342978    -4.676385    466.79002  0.060029581  0.061501747            1 
  649000    1.1267733   -4.7656216    464.12224  0.059594535  0.061487018            2 
  650000    1.1462398   -4.7368551    466.41013  0.059796171  0.061472862            3 
  651000    1.1248475   -4.7231262    470.04854  0.060170064  0.061459094            3 
  652000    1.1555448   -4.7315527    469.51222  0.060009231  0.061445597            3 
  653000    1.1410409   -4.6920258     470.7082   0.06006996  0.061433529            2 
  654000    1.1564997   -4.7001049    470.77733  0.059986917  0.061422393            3 
  655000    1.1534305    -4.755144    469.85508  0.059777999  0.061410556            2 
  656000    1.1252206   -4.7190909    470.51813  0.059771104  0.061397716            3 
  657000    1.1426699   -4.6806193    473.30874  0.060034086  0.061385373            2 
  658000    1.1581134   -4.7584745    474.35801  0.060075736   0.06137259            2 
  659000    1.1262547   -4.7006604    474.47595  0.059999488  0.061360196            3 
  660000    1.1222212   -4.6941183    476.07446  0.060110412  0.061348985            7 
  661000    1.1483261   -4.7414716    477.77102  0.060233362  0.061338153            6 
  662000    1.1621151   -4.7112126    478.30505  0.060209598  0.061327859            2 
  663000    1.1504264   -4.7153614    478.56547  0.060151518  0.061316493            2 
  664000    1.1134717   -4.7208802    478.60194  0.060065504  0.061305271            3 
  665000    1.1398289   -4.7532891    477.51877  0.059839445  0.061292946            2 
  666000    1.1545795   -4.7322672    479.13528  0.059951862  0.061281543            2 
  667000    1.1388268   -4.7305231    482.20773  0.060245843  0.061271231            2 
  668000    1.1474414   -4.7387365    480.46429  0.059938159  0.061260811            3 
  669000    1.1573009   -4.7471259      480.848  0.059896362  0.061249423            2 
  670000    1.1536997   -4.7160286    483.64763  0.060155178  0.061238927            1 
  671000    1.1493024   -4.7450101    484.15216  0.060128187  0.061228409            3 
  672000    1.1335639   -4.7411737    482.77845   0.05986836  0.061217476            2 
  673000    1.1448773   -4.7183661    485.01645  0.060056519  0.061206427            3 
  674000       1.1329   -4.7402753    483.77805  0.059814299  0.061194143            2 
  675000    1.1426342   -4.7146993     484.1627  0.059773172  0.061181602            3 
  676000    1.1291793   -4.7274767    484.40516   0.05971464  0.061170002            1 
  677000    1.1535786    -4.749491    486.15202   0.05984146  0.061158304            4 
  678000    1.1143854   -4.7189486    489.43748  0.060157015  0.061146691            2 
  679000    1.1252866   -4.7127944    487.70898  0.059856282  0.061135481            2 
  680000    1.1249044   -4.7088204    489.86211  0.060032121  0.061123887            3 
  681000    1.1312613   -4.6983428    491.87564  0.060190362  0.061113187            2 
  682000    1.1613718   -4.7138532    491.70638  0.060081425  0.061102191            3 
  683000    1.1382367   -4.7189834      493.059  0.060158492  0.061091762            4 
  684000    1.1507365    -4.691567    493.04613  0.060068973  0.061081377            2 
  685000    1.1350121   -4.7172044    493.14042  0.059992752  0.061071537            3 
  686000    1.1420354   -4.7035478    492.18021  0.059788655  0.061061063            2 
  687000    1.1670517   -4.7126683    493.97044  0.059918782  0.061050281            5 
  688000    1.0967694   -4.7309093    494.51448  0.059897587  0.061038978            2 
  689000    1.1335659    -4.693511    494.05626  0.059755233  0.061027147            4 
  690000    1.1109759   -4.7169133    494.88426   0.05976863  0.061014833            2 
  691000    1.1297575   -4.7133263    496.50902  0.059878078  0.061003493            2 
  692000    1.1212143   -4.7238671    496.45728  0.059785317  0.060991583            5 
  693000    1.1598826   -4.7235627    498.91679  0.059994804  0.060979796            3 
  694000    1.1181115   -4.6941169    498.66024   0.05987755  0.060968229            2 
  695000    1.1282255   -4.7544663    497.11957  0.059606663  0.060956988            2 
  696000    1.1522867   -4.7290292    499.43495  0.059798246  0.060945549            2 
  697000    1.1451151   -4.7360301    499.60087  0.059732289  0.060934069            4 
  698000    1.1338934   -4.7059868    499.02719  0.059578222  0.060921769            2 
  699000     1.135085   -4.6890456     499.3678  0.059533596  0.060910113            2 
  700000    1.1435596   -4.7275847    500.38619  0.059569784   0.06089789            2 
  701000     1.128743   -4.7234875    499.19087   0.05934271  0.060885745            3 
  702000    1.1272181   -4.7510398    502.49901  0.059650879  0.060874286            2 
  703000    1.1601126   -4.7199074    503.12514  0.059640249  0.060863068            4 
  704000    1.1378343   -4.7178369    504.57595  0.059727267  0.060851813            2 
  705000    1.1381561   -4.7476035     502.3787  0.059382825  0.060839965            3 
  706000    1.1356495    -4.719061    504.63434   0.05956496  0.060827421            4 
  707000    1.1368978   -4.7271275    504.90181  0.059512235  0.060815468            2 
  708000    1.1300982   -4.7032326    506.37608  0.059601704  0.060803296            1 
  709000    1.1608037   -4.7099515    506.92993  0.059582738  0.060791896            2 
  710000    1.1357358   -4.7340565    509.03485  0.059745874  0.060779736            3 
  711000    1.1237084   -4.7453218    510.21209  0.059799823   0.06076743            4 
  712000    1.1362421   -4.7247191    508.85679  0.059557208  0.060754673            1 
  713000    1.1468317   -4.7615052    508.43171  0.059423996  0.060742279            1 
  714000    1.1286009   -4.6952828    508.70188  0.059372302  0.060730388            2 
  715000    1.1482903   -4.7244453    508.95636  0.059318923  0.060718168            5 
  716000     1.137007   -4.7165957    509.29813  0.059275853  0.060705892            3 
  717000    1.1185379   -4.7399639     512.5796   0.05957457  0.060694184            2 
  718000    1.1782319   -4.7282264    511.17704  0.059328812  0.060681951            2 
  719000    1.1455412   -4.7475923    512.64181  0.059416065  0.060669013            2 
  720000    1.1333747   -4.7276797    514.57538  0.059557336   0.06065671            3 
  721000     1.170821   -4.7571082    513.26215  0.059322948    0.0606453            3 
  722000    1.1399984   -4.7192444     516.3285  0.059594703  0.060633665            6 
  723000    1.1381512   -4.7418007    517.05842  0.059596406  0.060622486            3 
  724000    1.1276454   -4.7277438    518.20098    0.0596456  0.060611574            3 
  725000    1.1417217   -4.7495949    516.85792  0.059408956  0.060600923            5 
  726000     1.120367   -4.7541844    516.04737  0.059234088  0.060589274            2 
  727000    1.1360679   -4.7672464    518.90997   0.05948074  0.060578313            2 
  728000    1.1279925   -4.7611249     519.7267  0.059492526  0.060568056            2 
  729000    1.1229489   -4.7711442    520.83341  0.059537427  0.060558292            4 
  730000    1.1339633   -4.7117268    521.36424  0.059516466  0.060547974            3 
  731000    1.0995336   -4.7003136    523.26741  0.059652007  0.060537365            2 
  732000    1.1447599   -4.6942242    524.55504  0.059717103  0.060527401            1 
  733000    1.1452477   -4.6813034    526.73182  0.059883108  0.060517731            1 
  734000    1.1127565   -4.7217711    526.13963   0.05973429  0.060509364            1 
  735000    1.1235223   -4.7436793    524.66959  0.059486348  0.060500073            3 
  736000    1.1438406   -4.7113439    527.31564  0.059705122  0.060491262            2 
  737000    1.1442281    -4.744095    525.97066  0.059472033  0.060482349            2 
  738000    1.1587813   -4.7484407    528.20025  0.059643207  0.060473094            3 
  739000     1.128287   -4.7325953    528.01874  0.059542032   0.06046235            3 
  740000    1.1727615   -4.7273833    529.34933  0.059611411  0.060452527            3 
  741000    1.1263762   -4.7543248    529.09487  0.059502347  0.060441832            4 
  742000    1.1266914   -4.7534611    529.58741  0.059477472  0.060430396            1 
  743000    1.1426789   -4.7306013    532.22892  0.059693688  0.060419627            2 
  744000    1.1335369   -4.7661415    531.37362  0.059517655  0.060409483            2 
  745000    1.1382592   -4.7506931    530.43858  0.059333175  0.060398126            3 
  746000    1.1273176   -4.7594752    530.60632  0.059272377  0.060387367            3 
  747000     1.124294    -4.769448    533.52886   0.05951906  0.060376751            6 
  748000    1.1495728    -4.736503    532.13471  0.059284169   0.06036588            5 
  749000    1.1152177   -4.7815295    532.41134  0.059235796  0.060355117            4 
  750000    1.1414391   -4.7390983    535.04735  0.059449705  0.060344138            3 
  751000    1.1184806   -4.7401862    535.35554  0.059404742  0.060333972            2 
  752000    1.1252463   -4.7628176    535.42793  0.059333768  0.060322247            2 
  753000     1.131876   -4.7271584    537.08084  0.059437897  0.060311023            4 
  754000    1.1169468   -4.7168033     536.8237  0.059330648  0.060300726            2 
  755000    1.1138785   -4.7188361     537.6274  0.059340773  0.060290722            1 
  756000    1.1252853   -4.7642594    537.28719  0.059224779  0.060280341            5 
  757000    1.1293389   -4.7286567    538.30012   0.05925805  0.060269816            1 
  758000    1.1253553   -4.7532792    537.82835  0.059128007  0.060258906            2 
  759000    1.1341836   -4.7098599     541.3187  0.059433322  0.060248622            2 
  760000    1.1240617   -4.7246562    540.09598  0.059221051  0.060238252            3 
  761000    1.1001219   -4.7962063    539.27786  0.059053642  0.060227365            4 
  762000    1.1494997   -4.7237172    540.97696   0.05916196  0.060216736            3 
  763000    1.1381604   -4.7816486    542.70952  0.059273648  0.060207114            7 
  764000    1.1363099   -4.7852194    541.72539  0.059088721   0.06019699            5 
  765000    1.1247653   -4.7142232    545.40963  0.059412813  0.060186935            3 
  766000    1.1428203   -4.7657966    545.77903  0.059375439  0.060177013            1 
  767000    1.1502458    -4.738225    546.30298  0.059354952   0.06016652            1 
  768000    1.1151785   -4.7206676    545.28484  0.059167192  0.060156886            2 
  769000     1.123464   -4.7331758    546.70236  0.059243862  0.060146994            2 
  770000     1.137938   -4.7686865    547.53916  0.059257484  0.060136632            3 
  771000    1.1211434   -4.7861584    546.66844  0.059086515  0.060126066            1 
  772000    1.1295117   -4.7230236    550.62188  0.059436731  0.060115491            2 
  773000    1.0931679   -4.7726038     548.2492  0.059104053  0.060105055            4 
  774000    1.1260067   -4.7551889    553.27205   0.05956848   0.06009472            3 
  775000    1.1400897   -4.7265907    550.85148  0.059231342  0.060083715            3 
  776000    1.1445325   -4.7737896    546.37385  0.058674168  0.060071995            4 
  777000    1.1195065   -4.7546021    550.97804  0.059092454  0.060060555            2 
  778000    1.1324101   -4.7624982    548.95017   0.05879929  0.060048246            5 
  779000    1.1283804   -4.7750748    548.97682   0.05872666  0.060035429            3 
  780000    1.1278875   -4.7617495    550.80553  0.058846744  0.060022628            3 
  781000    1.1379762    -4.723718    554.33296  0.059147776   0.06001013            3 
  782000    1.1260501   -4.7331505    553.65954  0.059000377  0.059997769            2 
  783000    1.1411337   -4.7684083    551.30128   0.05867404  0.059986285            1 
  784000    1.0987491    -4.752245    552.79988   0.05875849  0.059974085            2 
  785000    1.1279019   -4.7609382       554.05  0.058816348  0.059962409            3 
  786000    1.1419309     -4.77451    554.27619    0.0587655  0.059949985            3 
  787000    1.1159366   -4.7366783    555.07792  0.058775722  0.059937711            1 
  788000    1.1246636   -4.7567299    555.37185  0.058732218  0.059926151            1 
  789000    1.1497962   -4.7866107    556.47264  0.058774043  0.059913934            3 
  790000    1.1634306    -4.736393     557.9342  0.058853818  0.059902014            2 
  791000    1.1275424   -4.7789973     559.1816   0.05891083    0.0598904            4 
  792000    1.1286235   -4.7556323    558.59788   0.05877503  0.059879058            4 
  793000    1.1222338   -4.7402365    561.32356  0.058987343  0.059867371            2 
  794000    1.1057807   -4.7148754     560.7817  0.058856182  0.059855742            2 
  795000    1.1493425   -4.7045964    560.38299  0.058740356  0.059843846            1 
  796000    1.1161794   -4.7650217    560.74272  0.058704221  0.059832509            2 
  797000    1.1120622   -4.7793754    560.95501  0.058652761  0.059821296            3 
  798000    1.1284523   -4.7697319    560.98883  0.058582793  0.059809466            4 
  799000     1.142003   -4.7694841    562.28604  0.058644768  0.059797601            3 
  800000    1.1359141   -4.7569843    562.31335  0.058574308  0.059786012            4 
  801000    1.1168241   -4.7584301    562.79473  0.058551262   0.05977369            1 
  802000    1.1579477   -4.7778554     566.0138  0.058812739  0.059761447            1 
  803000    1.1137891   -4.7582292    565.77878  0.058715108  0.059749566            1 
  804000    1.1382467   -4.7687194    565.65753  0.058629512  0.059738433            2 
  805000    1.1218088   -4.7578697    567.24479  0.058720993  0.059726904            3 
  806000     1.127105   -4.7613019    565.39969  0.058457371  0.059715015            8 
  807000    1.1565316   -4.7656359    567.20675  0.058571535  0.059702641            3 
  808000    1.1173535   -4.7512366    570.79139  0.058868749  0.059690774            2 
  809000    1.1324562   -4.7567896     568.9735  0.058608725  0.059679013            3 
  810000    1.1570066   -4.7578002    569.63463  0.058604386  0.059668341            2 
  811000    1.1194512   -4.7503524    569.56639  0.058525112  0.059657068            4 
  812000    1.1234076   -4.7708412    570.74721  0.058574221  0.059644836            2 
  813000    1.1167827   -4.7349863    573.64154  0.058798846  0.059632972            3 
  814000    1.1245866   -4.7607832    574.60964  0.058825721  0.059621561            3 
  815000    1.1110599   -4.7430363      573.384   0.05862822  0.059610763            5 
  816000    1.1288417   -4.7758976    573.69781   0.05858842  0.059600196            2 
  817000     1.133769   -4.7804154    575.33434  0.058683634  0.059589734            2 
  818000    1.1149446   -4.7916397    572.89906    0.0583638  0.059578542            2 
  819000    1.1296614   -4.7350767    576.09188  0.058617408  0.059567943            1 
  820000    1.1127626     -4.76574    575.94261  0.058530753  0.059557067            4 
  821000    1.1189019   -4.7286811    579.64585  0.058835348  0.059546449            2 
  822000    1.1309783   -4.7719378     576.0063  0.058394799  0.059535285            5 
  823000    1.1526641   -4.7731834    577.84942  0.058510472  0.059522788            3 
  824000    1.1366982   -4.7632845    580.00512  0.058657476  0.059510784            2 
  825000    1.1039831   -4.7470713    579.36663  0.058521882   0.05949874            5 
  826000    1.1564023   -4.7611445    578.48291  0.058361875  0.059486708            1 
  827000    1.1191363   -4.7544533    578.71993  0.058315188  0.059475257            2 
  828000    1.1058311   -4.7414161    580.59864  0.058433841  0.059462978            2 
  829000    1.1337428   -4.7869733    579.48758  0.058251667  0.059450629            1 
  830000    1.1362495   -4.7413863    579.92548   0.05822545  0.059437936            3 
  831000    1.1062356   -4.7710024    581.35458  0.058298694  0.059425586            2 
  832000    1.1133412   -4.7398703    584.33841  0.058527485  0.059413792            1 
  833000    1.1471007     -4.75996     583.7177  0.058395128  0.059401753            3 
  834000    1.1274359   -4.7443842    582.09324  0.058162794  0.059388904            2 
  835000    1.1187383   -4.7836472    582.66925  0.058150624  0.059376034            5 
  836000    1.1059436   -4.7614265    583.26767  0.058140717  0.059363351            3 
  837000    1.1301495   -4.7557985    584.83014  0.058226816   0.05934994            4 
  838000    1.1176068   -4.7855301    582.36684  0.057912374  0.059335997            6 
  839000    1.1121052   -4.7566908    585.92036  0.058196301  0.059322222            7 
  840000    1.0866659   -4.7872402    583.36087  0.057873102  0.059308582            2 
  841000    1.0971246   -4.7741094     584.6469  0.057931718  0.059294745            3 
  842000    1.1020957   -4.8018592    584.82614  0.057880655  0.059280775            3 
  843000    1.1127725   -4.7830705    587.93998  0.058119808  0.059267569            2 
  844000     1.124103   -4.7357455    591.20023  0.058372851  0.059255091            3 
  845000    1.1123139   -4.7473389    589.61529  0.058147465  0.059243181            2 
  846000    1.0986528   -4.7440465    590.71697  0.058187251  0.059230681            3 
  847000    1.1229017   -4.7587046    590.60043  0.058107087  0.059218139            5 
  848000    1.1181466   -4.7608448     591.1998  0.058097465  0.059206262            3 
  849000    1.1274183   -4.7731721    591.04908  0.058014241  0.059194392            8 
  850000    1.1116709   -4.7748192    591.98947  0.058038183   0.05918245            2 
  851000    1.1088676   -4.7960186     593.5039  0.058118282  0.059171301            3 
  852000    1.1020279   -4.7881288    596.48413  0.058341562  0.059160145            2 
  853000    1.0957222    -4.763017    596.99211  0.058322793  0.059150487            4 
  854000    1.1044066   -4.8125735     595.9675  0.058154518  0.059140103            3 
  855000    1.1302637   -4.7939323    599.76239  0.058456373  0.059130121            3 
  856000    1.1155649   -4.7220122    600.88401  0.058497275  0.059120033            2 
  857000    1.1154378   -4.7992021    599.65295   0.05830931   0.05911033            2 
  858000    1.0976535   -4.7657654    600.54408  0.058327902  0.059100927            3 
  859000    1.1280662   -4.7622347    600.36338   0.05824247  0.059091409            2 
  860000    1.1183002   -4.7715714    603.56597  0.058485075   0.05908182            2 
  861000    1.1403055   -4.7796928    603.78387  0.058438238  0.059072588            4 
  862000    1.1065486   -4.7853696    605.40313  0.058526985  0.059063269            2 
  863000    1.1392417   -4.7713312    605.01349  0.058421542  0.059053401            3 
  864000    1.1098904    -4.730349    605.49071  0.058399953  0.059043684            2 
  865000    1.1220505   -4.7948882     603.9133  0.058180472  0.059034431            2 
  866000    1.0945365   -4.7987063    603.84704  0.058106913  0.059024757            4 
  867000    1.1188821   -4.7665498    607.10533  0.058353069  0.059014889            5 
  868000     1.122588    -4.757831    606.92327  0.058268363  0.059005438            4 
  869000    1.0990961   -4.7650376    607.23762  0.058231455  0.058995171            2 
  870000    1.1166346   -4.7622942      606.645  0.058107758  0.058984334            2 
  871000     1.086798    -4.773192    606.68685  0.058045048  0.058973854            3 
  872000    1.0785286   -4.8039967    607.32443  0.058039414  0.058963257            2 
  873000    1.1347927     -4.76532    608.34227   0.05807009   0.05895243            3 
  874000    1.1083515   -4.7737238    608.46743  0.058015583  0.058941648            6 
  875000    1.1269313    -4.751138    612.78381  0.058360363  0.058931275            3 
  876000    1.1152714   -4.7866825    611.41572  0.058163596  0.058920343            1 
  877000    1.1095845   -4.7968887    612.67902  0.058217315  0.058909552            2 
  878000    1.1336707   -4.7713488    611.86641  0.058073881   0.05889872            3 
  879000    1.1394139   -4.7851273    610.59228   0.05788702  0.058888374            2 
  880000    1.1208403   -4.7669125    615.82306  0.058316577  0.058877728            3 
  881000    1.1174322   -4.7835828    614.44687  0.058120211  0.058867702            5 
  882000    1.1077774   -4.7610531    614.84062  0.058091518  0.058857481            4 
  883000    1.1148685   -4.7798461    616.71106  0.058202252   0.05884735            4 
  884000    1.1131823   -4.8078266     617.4856  0.058209427  0.058837447            2 
  885000    1.0960457    -4.794814    616.33468  0.058035281  0.058826571            3 
  886000    1.1180178   -4.8184139    615.25019  0.057867776  0.058816583            2 
  887000     1.102953   -4.7704701    619.98572  0.058247437  0.058807121            3 
  888000      1.09925   -4.8200017      617.143  0.057915071  0.058797353            4 
  889000    1.0971732   -4.7593713    621.17325  0.058227714  0.058787025            2 
  890000     1.104783   -4.7765283    618.45567  0.057907834   0.05877672            2 
  891000    1.1264742   -4.7865936    617.79729  0.057781266  0.058766305            2 
  892000    1.0838596   -4.7731367    619.03313  0.057831944  0.058754881            2 
  893000    1.1014515     -4.78866    619.44835  0.057805931  0.058743668            3 
  894000    1.0968587    -4.817374    619.30583  0.057727985  0.058732414            3 
  895000    1.1316897   -4.7645098     622.6493  0.057974796  0.058722033            2 
  896000    1.1255049   -4.7600217    625.86913  0.058209554  0.058712006            3 
  897000    1.0964592   -4.7670718    625.52838  0.058113004  0.058702499            2 
  898000    1.1001705   -4.8085242    621.89997  0.057711578   0.05869226            3 
  899000     1.087338   -4.7657152    626.31823  0.058056936  0.058681833            2 
  900000    1.1270456   -4.7883625    626.21193  0.057982586   0.05867171            2 
  901000    1.1197424   -4.7857443    624.32677  0.057743874  0.058661583            3 
  902000    1.1213296   -4.7524644    625.96321  0.057831043  0.058651227            3 
  903000    1.1014073   -4.7847847    627.95148  0.057950487   0.05864145            2 
  904000     1.124297   -4.7443152    631.45494  0.058209342  0.058631395            3 
  905000    1.0792781   -4.7847876    630.76376  0.058081378  0.058621533            3 
  906000    1.1032628   -4.7871867    633.43106  0.058262607  0.058612529            4 
  907000    1.1218263    -4.794731    631.58456  0.058028717  0.058602591            3 
  908000    1.1288219   -4.7927402    632.35362  0.058035391   0.05859407            4 
  909000    1.0925395   -4.7958499    632.67097  0.058000639  0.058585291            3 
  910000    1.0999433   -4.7900723    634.16569  0.058073781  0.058576561            3 
  911000    1.1277786   -4.8120824    634.34859  0.058026764  0.058567909            2 
  912000    1.1202511   -4.8052154    635.19564  0.058040537   0.05855943            2 
  913000    1.1192197   -4.7470403    638.23099  0.058254015  0.058551275            4 
  914000    1.1027548    -4.790004    637.52769  0.058126157  0.058542863            1 
  915000    1.0894284   -4.7721968    638.41593  0.058143527  0.058534954            3 
  916000    1.1050932   -4.7976465    638.97083  0.058130534  0.058526981            5 
  917000    1.0793231   -4.7857463    639.06014  0.058075258  0.058518976            4 
  918000    1.1030828    -4.737106    642.03195  0.058281767  0.058511108            2 
  919000    1.1154896    -4.765258    640.81807  0.058108276  0.058503402            2 
  920000     1.108207   -4.7744726    641.83562  0.058137285  0.058495725            3 
  921000     1.097985   -4.8143194    641.11984  0.058009395  0.058486905            3 
  922000    1.1129001    -4.794995    641.42451  0.057974016  0.058478817            2 
  923000    1.0990116   -4.7756402    643.73551  0.058119855  0.058470804            2 
  924000    1.0895021   -4.7878175     641.4598  0.057851714  0.058462458            3 
  925000    1.1175643   -4.7996602    643.77977  0.057998177  0.058453833            2 
  926000    1.0792586   -4.8124629    643.30864  0.057893146  0.058445888           10 
  927000    1.1256471   -4.7545625    649.36192  0.058374858  0.058437303            4 
  928000    1.1164333   -4.7727687    646.15064  0.058023585  0.058428515            2 
  929000    1.0825179   -4.8033847    644.90185  0.057849108  0.058419455            2 
  930000    1.1080476   -4.8027304    646.13223  0.057897153  0.058410669            7 
  931000    1.1203261   -4.7808195     645.5621  0.057783933  0.058400839            4 
  932000    1.1092846   -4.8066784    647.09968  0.057859413  0.058391553            5 
  933000    1.1025747   -4.8101649    644.87684   0.05759886  0.058382039            3 
  934000    1.0756128   -4.8020213    646.91091  0.057718675  0.058372729            3 
  935000    1.1040877   -4.7900751    647.57789   0.05771639  0.058363437            1 
  936000    1.0727028   -4.8189964    648.52247  0.057738823  0.058354083            2 
  937000    1.1099751   -4.7941134    648.86004  0.057707225  0.058344569            3 
  938000    1.0862032   -4.8028357    648.50505  0.057614166  0.058335317            2 
  939000    1.1255435   -4.7848446    651.69304  0.057835733  0.058325647            3 
  940000    1.0979727    -4.805271    651.50011  0.057757102  0.058316173            3 
  941000    1.1118296   -4.7794043    652.37382  0.057773098  0.058306319            3 
  942000    1.1003223   -4.8211834    651.48601  0.057633228  0.058296757            4 
  943000    1.1042121   -4.8047298    653.09512  0.057714309  0.058286951            2 
  944000    1.0973544   -4.8025756    654.32002  0.057761301   0.05827761            2 
  945000    1.0867549   -4.8034239    653.37329  0.057616692  0.058267982            2 
  946000    1.1100441   -4.7851002    652.49001  0.057477978  0.058258021            5 
  947000    1.0924764   -4.7824027    657.05984  0.057819415  0.058248925            2 
  948000    1.0999147   -4.8193887     655.7181   0.05764048  0.058239735            2 
  949000     1.087199   -4.7859528    657.30499  0.057719089  0.058230311            2 
  950000    1.0933244    -4.810747    656.63781  0.057599808  0.058222066            2 
  951000     1.081569   -4.8253902    657.39619  0.057605694  0.058213211            5 
  952000    1.1235884   -4.7939537    659.98083  0.057771431  0.058203974            2 
  953000    1.1256748   -4.7794975    661.30335  0.057826456  0.058195486            4 
  954000    1.1043729   -4.7942335    658.74824  0.057542649  0.058185979            3 
  955000     1.108826    -4.827049    656.95168  0.057325626  0.058176916            4 
  956000    1.1103358   -4.8095178    660.15326   0.05754474  0.058167695            1 
  957000    1.1002746   -4.7746977    660.50022  0.057514822  0.058158426            1 
  958000    1.1053025   -4.8376372    660.07974   0.05741821  0.058149445            2 
  959000    1.1001267   -4.7913528    663.20495  0.057629906  0.058139765            3 
  960000     1.081663   -4.8159918    661.10651  0.057387717   0.05813047            5 
  961000    1.1439975   -4.8023316    662.71246  0.057467261  0.058121184            3 
  962000      1.12109   -4.7696921    665.10671  0.057614927  0.058111822            2 
  963000    1.0728109    -4.819282    663.56271  0.057421487  0.058102609            3 
  964000    1.0900614    -4.783987    666.22273  0.057591868  0.058093382            2 
  965000    1.0804832   -4.8138388    665.71024  0.057487931   0.05808348            2 
  966000    1.0876621   -4.7615722    668.00512   0.05762639  0.058074042            2 
  967000    1.1089469   -4.7869059    666.76625  0.057460035  0.058064482            3 
  968000     1.078921   -4.7872646    665.24269  0.057269515  0.058054382            1 
  969000    1.1009213   -4.7908391    669.00732   0.05753417  0.058044547            2 
  970000    1.0800021   -4.8057411    669.52656  0.057519464  0.058034827            1 
  971000    1.0876695   -4.8015661    670.87277  0.057575762  0.058025374            3 
  972000    1.0820907   -4.7902991     669.4072  0.057390878  0.058015416            1 
  973000    1.0956847   -4.7748965    671.23326  0.057488289    0.0580055            8 
  974000    1.0852765   -4.7923426    671.35321  0.057439529  0.057995887            2 
  975000    1.0806734   -4.7916414    672.97117  0.057518903  0.057985498            5 
  976000    1.0879813   -4.7937215    669.99536  0.057205888  0.057974877            3 
  977000    1.0811318   -4.8120332    672.92555  0.057397266  0.057964543            4 
  978000    1.1117566    -4.843662     670.3122    0.0571159  0.057954181            2 
  979000     1.112468   -4.8113207    671.22383  0.057135158  0.057943503            3 
  980000    1.0802473   -4.7972185    670.77503  0.057038693  0.057932844            3 
  981000    1.0884735    -4.757466    672.91338  0.057162196  0.057922161            1 
  982000    1.0897003   -4.8393343    673.52434  0.057155833  0.057911136            4 
  983000    1.0712004   -4.8319438    673.76271  0.057117897  0.057900215            3 
  984000    1.1060438    -4.817793    671.74567  0.056889031  0.057889125            4 
  985000    1.0748477    -4.806452    672.50605  0.056895605  0.057877812            2 
  986000    1.0580869    -4.798958    675.02631  0.057050905  0.057866315            2 
  987000    1.0926812   -4.8412897     673.3506  0.056851621  0.057855099            3 
  988000    1.0904006   -4.8122132    673.75514    0.0568282  0.057843305            2 
  989000    1.1005425   -4.7948508    677.22488  0.057063101  0.057831773            2 
  990000    1.0907356   -4.8243984    675.65284  0.056873135  0.057820388            3 
  991000    1.0817004    -4.800996    678.79672  0.057080114  0.057808897            4 
  992000    1.0861127   -4.8223266    676.30512  0.056813266   0.05779753            7 
  993000    1.0851797   -4.8110783    678.03182  0.056900958  0.057785982            2 
  994000    1.0715411   -4.8019254     679.5389  0.056970062  0.057774396            3 
  995000    1.0983919   -4.7860966     681.3433  0.057063928  0.057763463            4 
  996000    1.0825788   -4.8364352    678.86866  0.056799586  0.057751827            7 
  997000    1.1022052   -4.8280415    677.73303  0.056647696  0.057739562            2 
  998000    1.0757901   -4.7710987    682.60125  0.056997432  0.057727965            3 
  999000    1.0764555    -4.836251    680.55272  0.056769496  0.057716162            2 
 1000000    1.0875129   -4.8225887    679.73337  0.056644447   0.05770467            2 
 1001000    1.1112187   -4.8074014    681.72287  0.056753485  0.057692895            3 
 1002000    1.1037946   -4.8184279    684.52401  0.056929808   0.05768107            2 
 1003000    1.1083049   -4.8204011     684.8712  0.056901894  0.057669074            3 
 1004000    1.0781467   -4.7573359    685.60517   0.05690614  0.057657626            2 
 1005000    1.0899054   -4.8158882    682.80034  0.056616944  0.057645733            5 
 1006000    1.0976882    -4.791461    684.84852  0.056730328  0.057634084            4 
 1007000    1.0985717   -4.8069117    683.18224  0.056536101  0.057621851            5 
 1008000     1.103168   -4.8369669    685.86465  0.056701773  0.057609804            5 
 1009000    1.1116328   -4.7946119     684.9107  0.056566791  0.057597429            4 
 1010000    1.0916021   -4.7921263    686.01321   0.05660175  0.057584991            2 
 1011000    1.0961891   -4.8430857    684.44869  0.056416806  0.057572002            3 
 1012000    1.0978889   -4.8088434    686.65832  0.056543011  0.057558971            1 
 1013000    1.0870923   -4.8317302    687.54795  0.056560378  0.057546837            5 
 1014000    1.0953877   -4.8307206    685.16684  0.056308912   0.05753398            3 
 1015000    1.1031152   -4.7968675    690.77849  0.056714162  0.057521956            4 
 1016000    1.0706884   -4.8241781    691.48682  0.056716438  0.057509681            1 
 1017000     1.078072    -4.824998     690.6843  0.056594911  0.057498266            2 
 1018000    1.0964343   -4.8262572    690.32228  0.056509682  0.057486282            1 
 1019000    1.0928105   -4.8354423    690.70498  0.056485523  0.057474527            8 
 1020000     1.090362   -4.8126825    691.58539  0.056502075  0.057462447            4 
 1021000    1.0556985   -4.8428429    689.47372  0.056274382  0.057450469            3 
 1022000    1.0811722   -4.7710141    693.36689  0.056536765   0.05743829            1 
 1023000    1.0894143   -4.8251401    694.15942  0.056546059  0.057425903            4 
 1024000    1.0652897   -4.8168505    694.41502  0.056511639  0.057413487            4 
 1025000    1.1036581   -4.8070394    696.28569  0.056608593  0.057401431            3 
 1026000    1.0833164   -4.8483637    693.17546  0.056300801  0.057389053            4 
 1027000     1.089929   -4.8443351    695.56111  0.056439558  0.057376597            7 
 1028000    1.0981967   -4.8194116    695.85569  0.056408536  0.057364287            5 
 1029000    1.0763518   -4.8024157    696.98412  0.056445102  0.057352049            2 
 1030000    1.1101975   -4.8304475    695.18857   0.05624503  0.057339292            2 
 1031000    1.0979283   -4.8510831    697.63915  0.056388551  0.057327107            2 
 1032000    1.0860008   -4.8325577    696.90995  0.056275028  0.057314707            3 
 1033000    1.0946834   -4.8151157    699.28934  0.056412499  0.057302835            2 
 1034000    1.0936271   -4.8161642    703.83343  0.056724164  0.057291025            3 
 1035000    1.0801842    -4.801893    698.69593  0.056255711  0.057279162            2 
 1036000    1.0897407    -4.851805    699.50597  0.056266568  0.057266451            2 
 1037000    1.0894382   -4.8140738    700.39518  0.056283766  0.057253744            2 
 1038000    1.1013543   -4.8455204    698.12311  0.056047135  0.057240849            5 
 1039000    1.0778822   -4.8502624    698.36075  0.056012251  0.057227973            2 
 1040000    1.0736895   -4.8615416     698.2072   0.05594609  0.057214884            3 
 1041000     1.098539   -4.8186836    701.18404  0.056130647  0.057201865            2 
 1042000    1.0970629   -4.8736759    701.76892  0.056123554  0.057188475            2 
 1043000    1.0996692   -4.7884285    703.17893  0.056182401  0.057176142            2 
 1044000    1.0947964   -4.7871993    704.64777  0.056245831  0.057163669            2 
 1045000    1.0920193   -4.8469343    703.34012  0.056087729  0.057150975            3 
 1046000    1.0856279   -4.8360033    703.19635  0.056022653  0.057137732            4 
 1047000    1.0796509   -4.8326881    704.73404  0.056091535  0.057124711            5 
 1048000    1.0924731   -4.8139482    706.45077  0.056174521  0.057112057            5 
 1049000    1.0953046   -4.8426622    703.87662  0.055916477  0.057098918            2 
 1050000     1.084787   -4.8419931    706.19047  0.056046862  0.057085688            3 
 1051000    1.0768135   -4.8221039     707.1067  0.056066183  0.057072712            4 
 1052000    1.0948194   -4.8198105    706.43178  0.055959425  0.057060203            4 
 1053000    1.0559914   -4.8085446    710.02432  0.056190592  0.057047963            2 
 1054000    1.1022517   -4.8154997    708.84454  0.056044002  0.057035298            5 
 1055000    1.0931653    -4.814107    710.46733  0.056119062  0.057022631            4 
 1056000    1.0926363   -4.8512972    707.13269  0.055802769  0.057009884            2 
 1057000    1.0889279   -4.8265021    712.33805  0.056160364  0.056997281            3 
 1058000    1.1171816   -4.8082137    713.72704  0.056216685  0.056984893            2 
 1059000    1.0816907   -4.8566014    711.17029  0.055962408  0.056972544            2 
 1060000     1.091502   -4.8473263    714.30651  0.056156172  0.056960173            2 
 1061000    1.0800574   -4.8355986    713.86403  0.056068491  0.056947867            2 
 1062000    1.0921244   -4.8411141    713.99777  0.056026191  0.056935928            3 
 1063000    1.0526337   -4.8660142    710.73677   0.05571784  0.056923185            2 
 1064000     1.057961     -4.82424    716.68426  0.056131286  0.056910893            5 
 1065000    1.0912392   -4.8454824    715.39019  0.055977323  0.056899099            2 
 1066000    1.0803275   -4.8632921    716.96529  0.056047943  0.056886899            3 
 1067000    1.0784663   -4.8025168    717.54512    0.0560407  0.056874833            2 
 1068000    1.0767025   -4.8245308    721.63259  0.056307162  0.056862887            4 
 1069000    1.0856169   -4.8253455    719.35502  0.056076942  0.056851456            2 
 1070000    1.0946906   -4.8424884    719.85587  0.056063541  0.056839472            3 
 1071000    1.0857432   -4.8355998    719.65806  0.055995803  0.056827563            4 
 1072000    1.0816857   -4.8391004    718.93558  0.055887405  0.056815824            3 
 1073000    1.0795438   -4.8392649    720.16104  0.055930494  0.056804125            2 
 1074000      1.09271    -4.845931    720.86517  0.055933052  0.056792073            2 
 1075000    1.0852286   -4.8484637    721.74473  0.055949204  0.056780036            3 
 1076000    1.0736273   -4.8078839     724.5739  0.056116318  0.056767866            5 
 1077000    1.0711821   -4.8704527     720.8586  0.055776741  0.056756246            4 
 1078000    1.0786948   -4.8315674    725.37946  0.056074479  0.056744496            1 
 1079000    1.0643495   -4.8351224    721.86008  0.055750702  0.056732482            3 
 1080000     1.073051   -4.8448093    724.98216  0.055939981  0.056720519            1 
 1081000    1.0726656   -4.8125061    727.63232  0.056092532  0.056709383            4 
 1082000    1.0693328    -4.829888    729.53869  0.056187514   0.05669837            5 
 1083000    1.0898986   -4.7980416      730.152  0.056182826  0.056687557            6 
 1084000    1.0687589   -4.8387787     729.0619  0.056047194  0.056676841            2 
 1085000    1.0971999   -4.8282737     730.8966  0.056136451  0.056666505            2 
 1086000     1.069749   -4.8262134    727.04659  0.055789333  0.056656105            2 
 1087000    1.0586043   -4.8727522    729.74699  0.055945032  0.056645308            3 
 1088000    1.0701884   -4.8373027    729.34942  0.055863161  0.056634506            4 
 1089000    1.0973955   -4.8358052    730.93983  0.055933565  0.056623823            2 
 1090000    1.0878231   -4.8309049    733.63977  0.056088667  0.056613238            7 
 1091000    1.0646892   -4.8110269    731.08564  0.055842166  0.056602531            1 
 1092000    1.0800227   -4.8969391    728.59545  0.055600996  0.056592049            2 
 1093000    1.0633672   -4.8355193    733.46005  0.055921016  0.056581241            1 
 1094000     1.048108    -4.864261    734.23718  0.055929096  0.056570217            1 
 1095000    1.0733112     -4.86463    733.02546  0.055785803  0.056559108            3 
 1096000    1.0793262   -4.8477456    734.94604  0.055880934  0.056548479            2 
 1097000    1.0873636   -4.8211097    736.68117  0.055961803  0.056537692            3 
 1098000    1.0685948   -4.8346155    734.63937  0.055755872  0.056526105            3 
 1099000    1.0836112   -4.8552247    737.44859  0.055918152  0.056514877            1 
 1100000    1.0703681   -4.8802013    734.40326  0.055636611  0.056504091            4 
 1101000    1.0960014   -4.7969382    739.96722  0.056007207   0.05649289            2 
 1102000    1.0909003   -4.8405864    740.96983  0.056032201  0.056481996            3 
 1103000    1.0722565   -4.8404289    739.55923  0.055874829  0.056471492            5 
 1104000    1.0626368   -4.8628937     739.7179  0.055836194  0.056460773            1 
 1105000    1.0630203   -4.8188251    743.89022  0.056100318  0.056450809            2 
 1106000    1.0512245    -4.859653    741.21892  0.055848321  0.056440368            4 
 1107000    1.0844631   -4.8194787    744.58582  0.056051327  0.056430064            2 
 1108000    1.0797584   -4.8438077    742.01123  0.055807102  0.056419647            3 
 1109000    1.0521999   -4.8337317    743.45399  0.055865193  0.056409543            8 
 1110000    1.0559808   -4.8356501    741.76053  0.055687727   0.05639928            3 
 1111000    1.0742761   -4.8275663    745.93105  0.055950423  0.056388824            2 
 1112000    1.0622423   -4.8543071    743.82253  0.055742096   0.05637857            2 
 1113000    1.0794851   -4.8585749     745.3117  0.055803512  0.056367955            2 
 1114000    1.1007191   -4.8319156    747.22985  0.055896907  0.056357306            2 
 1115000    1.0462412   -4.8328869    746.75844  0.055811542  0.056347071            5 
 1116000    1.0845351   -4.8153144    749.06758  0.055933959  0.056336617            1 
 1117000      1.04906   -4.8358198    748.36213  0.055831254  0.056326101            7 
 1118000    1.0602588   -4.8439028    746.21086  0.055620965  0.056315418            9 
 1119000    1.0940166   -4.8718411    747.20027  0.055644941  0.056304567            5 
 1120000    1.0851944   -4.8644217    747.12038  0.055589314  0.056293568            3 
 1121000    1.0736902   -4.8485477    748.77739  0.055662904  0.056282977            4 
 1122000     1.081983   -4.8203448     750.7113  0.055756929  0.056272721            3 
 1123000      1.07771   -4.8412066    750.20641  0.055669814  0.056262641            4 
 1124000    1.0945966   -4.8591054    751.44928  0.055712432  0.056252246            1 
 1125000    1.0722308   -4.8398328    753.08087  0.055783768  0.056242086            4 
 1126000    1.0867257   -4.8084957    753.11223  0.055736548   0.05623189            3 
 1127000    1.0759891   -4.8264365    753.18024  0.055692121  0.056221584            4 
 1128000    1.0686931   -4.8858314    750.69094  0.055458846  0.056211073            1 
 1129000    1.0800071   -4.8672554    752.11555  0.055514877  0.056200344            5 
 1130000    1.0761197   -4.8138537    754.77242  0.055661683  0.056190087            2 
 1131000     1.057227   -4.8670291    753.37544  0.055509537  0.056179913            3 
 1132000    1.0606223   -4.8271212    754.47628   0.05554154  0.056169235            4 
 1133000    1.0854717   -4.8511121    755.51597  0.055568989  0.056158648            4 
 1134000    1.0313879   -4.8934742    755.22185  0.055498372  0.056148446            4 
 1135000    1.0492913   -4.8935366    753.09532  0.055293342  0.056137593            4 
 1136000    1.0510959   -4.8943416     753.7969  0.055296134  0.056126511            2 
 1137000    1.0703324   -4.8371163    760.97281   0.05577344  0.056116038            6 
 1138000    1.0591104   -4.8621249     757.5446  0.055473389  0.056105482            4 
 1139000      1.06853   -4.8470284    760.97559  0.055675709   0.05609526            4 
 1140000    1.0727437   -4.8370883    761.15046  0.055639653   0.05608526            5 
 1141000    1.0775613   -4.8689288    760.59414  0.055550259   0.05607535            3 
 1142000    1.0654763   -4.8697814    762.15557  0.055615555  0.056065541            4 
 1143000    1.0770835   -4.8765337    760.18534  0.055423253  0.056055159            3 
 1144000    1.0654253   -4.8673428    763.87398  0.055643501  0.056044977            2 
 1145000    1.0662026   -4.8480119    760.96158  0.055382939  0.056034487            2 
 1146000    1.0610814   -4.8864759    761.00437  0.055337724  0.056024154            4 
 1147000    1.0749225   -4.8266869     763.6864  0.055484336  0.056013601            2 
 1148000    1.0636055   -4.8375686    767.44912   0.05570914  0.056003868            2 
 1149000    1.0862282   -4.8568908    764.23957  0.055427877  0.055994577            3 
 1150000    1.0696197   -4.8598833     766.1583  0.055518718  0.055984275            2 
 1151000    1.0478825   -4.8292637    766.03454  0.055461522  0.055974095            4 
 1152000    1.0672161   -4.8291296    772.03417  0.055847379  0.055964232            2 
 1153000    1.0689108   -4.8691217    767.75995  0.055490022  0.055954299            2 
 1154000    1.0812603   -4.8993437    761.66214  0.055001598  0.055943672            3 
 1155000    1.0689212   -4.8507002    768.10551  0.055418868  0.055933587            3 
 1156000    1.0513119   -4.8321984    769.32559   0.05545888  0.055923506            4 
 1157000     1.048168   -4.8662816    771.92014   0.05559782  0.055913669            6 
 1158000    1.0605807    -4.860847    771.69653  0.055533717  0.055903746            5 
 1159000      1.05647   -4.8398611    771.77977  0.055491787  0.055894035            7 
 1160000    1.0665087   -4.8734929    771.09011  0.055394405  0.055883917            3 
 1161000    1.0732279   -4.8605974    771.03438  0.055342692  0.055874326            3 
 1162000    1.0479176   -4.8710212    773.75141  0.055489918  0.055864304            2 
 1163000     1.072529    -4.858426    775.76043  0.055586159  0.055854758            5 
 1164000    1.0775742    -4.825498     778.6804  0.055747451  0.055845137            5 
 1165000    1.0696637   -4.8450778    773.30007   0.05531474  0.055835905            4 
 1166000    1.0573308   -4.8381619    777.60008   0.05557462   0.05582647            2 
 1167000    1.0901801   -4.8582185    775.53692  0.055379672  0.055816852            2 
 1168000      1.03674   -4.8761395    774.96539  0.055291481  0.055807375            4 
 1169000    1.0616642   -4.8461403     775.5553  0.055286235  0.055797725            1 
 1170000    1.0804734   -4.8845552    776.15492  0.055281689  0.055787751            2 
 1171000    1.0594277   -4.8600408    779.52105  0.055474029  0.055777889            2 
 1172000    1.0908467   -4.8757883    775.52708   0.05514271  0.055768126            4 
 1173000    1.0642968   -4.8839485    778.02712  0.055273311  0.055758445            4 
 1174000    1.0942533   -4.8518279    781.77301  0.055492122  0.055748567            6 
 1175000    1.0520962   -4.8585637    781.27502  0.055409576   0.05573873            4 
 1176000    1.0704392   -4.8548533    781.40422  0.055371614  0.055729153            2 
 1177000    1.0539146    -4.832454    780.20269  0.055239499   0.05571968            3 
 1178000    1.0420739   -4.8874015    779.73076  0.055159222  0.055710043            2 
 1179000    1.0500408   -4.8633035    782.98777  0.055342647  0.055700076            3 
 1180000    1.0683838   -4.8212915    783.59782  0.055338829  0.055690272            3 
 1181000    1.0818558   -4.8931533    780.20393  0.055052493  0.055680658            2 
 1182000    1.0753627    -4.902446    780.96454  0.055059542  0.055670772            5 
 1183000     1.064457   -4.8709645    781.61802  0.055059032  0.055660513            6 
 1184000     1.055914   -4.8941307     784.8057  0.055236887   0.05565032            2 
 1185000    1.0973345   -4.8644007    784.55018  0.055172305  0.055639755            2 
 1186000    1.0658895   -4.8743342    785.83455  0.055216031  0.055630004            2 
 1187000    1.0686242   -4.8842154    783.88617  0.055032728  0.055619633            7 
 1188000    1.0515908   -4.8779069    787.45665  0.055236858  0.055609514            2 
 1189000    1.0537937   -4.8440895    785.80676  0.055074766  0.055598855            8 
 1190000    1.0755316   -4.8951361    787.50841  0.055147648  0.055588283            2 
 1191000    1.0594855   -4.8866774     785.9369  0.054991387   0.05557774            3 
 1192000    1.0470866   -4.8764267    787.00797  0.055020132  0.055567154            2 
 1193000    1.0518678   -4.8607576    788.17924  0.055055828  0.055556785            1 
 1194000    1.0633983   -4.8854483    789.32596  0.055089752  0.055546749            3 
 1195000     1.047532    -4.891573    789.62366  0.055064411  0.055536698            3 
 1196000    1.0773277   -4.8955345    787.62812  0.054879328  0.055526607            1 
 1197000     1.049735   -4.8639605    792.46946  0.055170528  0.055516419            3 
 1198000    1.0743175   -4.8700393    791.39636   0.05504983  0.055505915            4 
 1199000    1.0705995   -4.8719763    791.14963  0.054986769  0.055496086            3 
 1200000    1.0633017   -4.8541187    794.09679  0.055145611  0.055486218            2 
 1201000    1.0430489   -4.8466843    792.21266  0.054968961  0.055476409            5 
 1202000    1.0643439   -4.8322074    796.65643  0.055231311  0.055466761            3 
 1203000    1.0708476   -4.8777375    791.18822   0.05480661  0.055456441            2 
 1204000    1.0346629   -4.8346238    795.60947    0.0550671  0.055446466            3 
 1205000    1.0559062   -4.8738258     793.3568  0.054865615  0.055436326            2 
 1206000    1.0466111   -4.8582219    798.23032  0.055156877  0.055426163            2 
 1207000    1.0473967   -4.8490769    798.92064   0.05515884  0.055415911            3 
 1208000    1.0559241   -4.8717179    795.81709  0.054899082  0.055406064            1 
 1209000    1.0678923   -4.8855136     796.2974  0.054886779  0.055395723            3 
 1210000    1.0481056   -4.8672694    795.10402   0.05475923  0.055385275            5 
 1211000    1.0865645   -4.9102096    796.63313  0.054819235  0.055374546            2 
 1212000    1.0654572    -4.884607    793.20397  0.054538226  0.055363746            3 
 1213000    1.0560454   -4.8658643    798.65675  0.054867872  0.055353077            2 
 1214000    1.0489442   -4.8622144    800.62673  0.054957903  0.055342594            4 
 1215000    1.0525616   -4.8469392    797.47606  0.054696574  0.055331885            3 
 1216000    1.0417722    -4.891606    797.77737  0.054672243  0.055321353            3 
 1217000    1.0605009   -4.8854193    799.76419  0.054763366  0.055310541            2 
 1218000    1.0726689   -4.9100828    796.88967  0.054521734  0.055299788            3 
 1219000    1.0535913   -4.9153286    800.12619  0.054698263  0.055288853            2 
 1220000    1.0741581   -4.8990312    799.49528  0.054610334  0.055278479            2 
 1221000    1.0571517   -4.8701183    801.70952   0.05471673  0.055267666            3 
 1222000    1.0625632   -4.8618199    803.02687  0.054761789  0.055257245            5 
 1223000    1.0418422   -4.8462452    803.36041  0.054739739  0.055246606            8 
 1224000    1.0555102   -4.8908848    804.88243   0.05479864  0.055235722            2 
 1225000    1.0652501   -4.8838035    806.36537  0.054854787  0.055225181            4 
 1226000    1.0663137   -4.8758926    807.89506   0.05491402  0.055214835            4 
 1227000    1.0408986   -4.8875077    800.93124  0.054396308  0.055203898            2 
 1228000     1.077334    -4.908145    803.77933  0.054545286  0.055193167            3 
 1229000     1.039916   -4.8630383    805.32509  0.054605716  0.055182196            2 
 1230000    1.0611222   -4.8962423    804.86574  0.054530199  0.055171291            2 
 1231000    1.0558159   -4.8976282    805.52657  0.054530637  0.055160201            3 
 1232000    1.0621336   -4.8796412    805.56063  0.054488679  0.055149513            4 
 1233000    1.0675993   -4.8688448    809.13569  0.054686111  0.055138745            2 
 1234000    1.0568736   -4.8939567    807.50999  0.054532009  0.055128042            2 
 1235000    1.0495292    -4.887613    808.19511  0.054534083  0.055117595            2 
 1236000    1.0433446   -4.9025793    808.83306  0.054532973  0.055107162            7 
 1237000    1.0574797   -4.9016327    809.64736  0.054543746   0.05509653            2 
 1238000    1.0490361   -4.9117053    811.73197  0.054640009  0.055086027            2 
 1239000    1.0649266    -4.864146    815.37088  0.054840656  0.055075844            3 
 1240000    1.0656223   -4.8963701    813.31624   0.05465835  0.055065751            4 
 1241000    1.0474434   -4.8763289    811.57116  0.054497123  0.055055625            4 
 1242000    1.0593763   -4.8874488    814.97547   0.05468166  0.055045494            3 
 1243000    1.0804252   -4.9277663    811.37826  0.054396504  0.055035506            4 
 1244000    1.0483391   -4.9106445     815.1634  0.054606337   0.05502546            5 
 1245000    1.0584731     -4.86581     814.6999  0.054531452  0.055015188            3 
 1246000    1.0663063   -4.8693566    814.50124    0.0544744  0.055004714            2 
 1247000    1.0761167   -4.8693832    816.10604   0.05453796   0.05499409            4 
 1248000    1.0449985   -4.8995436    815.39503  0.054446784  0.054983398            4 
 1249000    1.0623635   -4.8636075    817.24066  0.054526332  0.054973204            5 
 1250000    1.0615274   -4.8924214      817.534  0.054502266  0.054962881            3 
 1251000    1.0405568   -4.8901219    816.82886  0.054411728  0.054952354            5 
 1252000     1.049608   -4.8522057    820.07104  0.054584068  0.054941908            3 
 1253000    1.0383622   -4.9249959    815.26144  0.054220633  0.054931444            3 
 1254000     1.085266    -4.918166    819.71821  0.054473566  0.054920497            2 
 1255000    1.0453642   -4.9077835    817.39165  0.054275674    0.0549095            4 
 1256000    1.0726776   -4.8806077    819.31914  0.054360347  0.054898437            2 
 1257000    1.0796327   -4.8951974     818.9551  0.054292966  0.054887707            2 
 1258000    1.0321631   -4.8992264    819.77837  0.054304344  0.054876795            3 
 1259000    1.0767205     -4.87739    820.56085  0.054313003  0.054865813            5 
 1260000    1.0696575   -4.8959326    820.33089  0.054254688  0.054854969            5 
 1261000     1.074718   -4.8643487    823.18296  0.054400143  0.054844461            3 
 1262000    1.0442561   -4.8927249    821.34864  0.054235911  0.054833505            5 
 1263000    1.0385009   -4.8844392    823.73212  0.054350232  0.054822862            5 
 1264000    1.0743814   -4.9222752     819.8166   0.05404909  0.054812098            1 
 1265000    1.0539721   -4.8564058     822.9482  0.054212661  0.054801581            3 
 1266000    1.0763852   -4.9086854    822.99369  0.054172834  0.054791315            2 
 1267000    1.0613615   -4.9235617    828.12409  0.054467514  0.054780925            5 
 1268000    1.0499259   -4.9147457    824.33566  0.054175582  0.054770533            3 
 1269000    1.0422069   -4.8824997    824.74206  0.054159578  0.054759866            2 
 1270000    1.0755174   -4.9355152     825.2063  0.054147395  0.054749567            7 
 1271000    1.0388479   -4.8781302     829.3477  0.054376324  0.054739097            2 
 1272000    1.0300802   -4.8817617    828.95938  0.054308135   0.05472879            7 
 1273000    1.0575539   -4.9156047    830.77142  0.054384094  0.054718442            3 
 1274000    1.0537184   -4.9104762    828.80204  0.054212588  0.054707932            2 
 1275000    1.0636759   -4.9342657     828.4836  0.054149255  0.054697787            3 
 1276000    1.0286973   -4.9088557    829.23416  0.054155836  0.054687453            3 
 1277000    1.0528059   -4.9066619    833.11945   0.05436697  0.054677173            2 
 1278000    1.0530546   -4.8877856    832.05866  0.054255259  0.054666648            3 
 1279000    1.0712582   -4.8947331    828.86435  0.054004714  0.054656137            7 
 1280000     1.057071   -4.9071957    831.15859  0.054111887  0.054645679            2 
 1281000    1.0483932   -4.9151881    832.15869  0.054134706  0.054635274            3 
 1282000    1.0407351   -4.8875566    835.42127  0.054304555  0.054624826            4 
 1283000    1.0641725   -4.9172922    833.78337  0.054155844  0.054614765            3 
 1284000     1.063924   -4.8760761    835.12394  0.054200671  0.054604513            1 
 1285000    1.0514674   -4.9171255    834.26012  0.054102472  0.054594048            1 
 1286000     1.028467   -4.8678639     837.1321  0.054246507  0.054584034            3 
 1287000    1.0503475   -4.9341706    834.31429  0.054021904  0.054574108            3 
 1288000    1.0348223   -4.8825517    836.19395  0.054101575  0.054563779            2 
 1289000    1.0540426    -4.883252    836.20979  0.054060628   0.05455351            1 
 1290000    1.0396106   -4.8878754     837.2087  0.054083249  0.054543411            2 
 1291000    1.0509373   -4.9024592    838.29104  0.054111221  0.054533376            1 
 1292000    1.0317126   -4.9060732    839.22758  0.054129746  0.054523273            2 
 1293000    1.0307756   -4.9169254    838.05772  0.054012485  0.054513008            2 
 1294000    1.0416656   -4.9039006    840.76969  0.054145395  0.054502891            3 
 1295000    1.0404483   -4.9003639    837.71721  0.053907157  0.054492679            2 
 1296000    1.0221884   -4.8854951    839.31474  0.053968283  0.054482205            8 
 1297000    1.0448986   -4.9380665    839.17906  0.053917955  0.054471598            3 
 1298000    1.0606344   -4.8791666    843.01176  0.054122481  0.054460964            2 
 1299000    1.0348972   -4.9073827    839.58327  0.053860872  0.054450508            3 
 1300000    1.0204347   -4.9378129    837.39787  0.053679351  0.054439925            2 
 1301000    1.0494345    -4.885896    843.40514  0.054022876  0.054429524            3 
 1302000    1.0243155   -4.8987755    844.35334  0.054042072  0.054419572            6 
 1303000       1.0526   -4.8889386     842.6719  0.053893061  0.054409339            3 
 1304000    1.0595158   -4.8946944    844.19423  0.053949018  0.054399338            3 
 1305000    1.0259823   -4.9152427    845.56731  0.053995358  0.054388917           14 
 1306000    1.0565422   -4.9220257    843.66637  0.053832719  0.054378603            2 
 1307000    1.0253966   -4.9144796    846.76822  0.053989302  0.054368283            3 
 1308000    1.0548927   -4.9060664    845.24411  0.053850925  0.054357719            4 
 1309000    1.0380474   -4.8687412    847.24832  0.053937377  0.054347611            4 
 1310000    1.0616527   -4.9247264    845.91947  0.053811671  0.054337267            2 
 1311000     1.029649   -4.9026998    847.35156  0.053861655  0.054326887            2 
 1312000    1.0575112   -4.9227208    846.07027   0.05373922  0.054316558            3 
 1313000    1.0272515   -4.9103151     848.8094  0.053872138  0.054306086            2 
 1314000    1.0439862   -4.9228255    849.06556  0.053847385  0.054295229            2 
 1315000    1.0092872   -4.8712659     851.7306  0.053975323  0.054284585            3 
 1316000    1.0568918   -4.8952071    849.07579  0.053766198  0.054274069            3 
 1317000    1.0252129   -4.9185386    849.93366  0.053779655  0.054263432            3 
 1318000    1.0450616   -4.8556955    849.62363  0.053719248  0.054252272            5 
 1319000    1.0450065   -4.9154278    851.35961  0.053788198  0.054241416            3 
 1320000    1.0404905    -4.875858      849.918  0.053656439  0.054230227            4 
 1321000    1.0400932   -4.9183074    851.90765  0.053741335  0.054219566            7 
 1322000    1.0026557   -4.8767441    849.48144  0.053547746  0.054208808            3 
 1323000    1.0347222    -4.891929     850.3856  0.053564223  0.054197919            6 
 1324000    1.0316201   -4.9139137    851.97214  0.053623624  0.054186877            2 
 1325000     1.035492   -4.9027899    853.26683  0.053664581  0.054175554            2 
 1326000    1.0371356    -4.899686     854.2762  0.053687544  0.054164174            2 
 1327000    1.0459317   -4.8756652    853.08469  0.053572261  0.054153009            4 
 1328000    1.0642875    -4.908317    852.67296  0.053506085  0.054141748            6 
 1329000    1.0327556   -4.9301321    854.73647  0.053595214   0.05413051            2 
 1330000    1.0318134   -4.9095533    854.99012  0.053570809  0.054119375            2 
 1331000    1.0247631   -4.8944923    855.93434  0.053589678  0.054108588            2 
 1332000    1.0536073   -4.9513503    855.07576  0.053495731  0.054097381            4 
 1333000    1.0447563   -4.9255042    853.43881  0.053353264  0.054086101            2 
 1334000    1.0400445   -4.9243775    857.14411  0.053544734  0.054075248            1 
 1335000     1.037216   -4.8828305    861.79445  0.053794909  0.054064261            5 
 1336000    1.0563675   -4.9616131    860.93358  0.053700947  0.054053336            7 
 1337000    1.0387023   -4.9339277    857.40639  0.053440937  0.054042161            1 
 1338000     1.038734   -4.8867414    856.25989   0.05332959   0.05403097            3 
 1339000    1.0539294   -4.9107426    857.52794  0.053368679  0.054020185            3 
 1340000    1.0417457   -4.8913474    858.73902  0.053404168  0.054008559            2 
 1341000    1.0227703   -4.9215226    860.51158  0.053474495  0.053997407            2 
 1342000    1.0324653   -4.8913699    859.20654   0.05335361  0.053986237            5 
 1343000    1.0394212   -4.9039264     861.3731  0.053448319  0.053974871            5 
 1344000    1.0473219   -4.9372069    861.32577  0.053405615  0.053963843            5 
 1345000    1.0341887   -4.9037366    863.03658  0.053471907  0.053952838            3 
 1346000     1.036811   -4.9235358    861.00414  0.053306348  0.053941715            4 
 1347000    1.0387802   -4.8962542    865.19548  0.053526075  0.053930765            3 
 1348000    1.0489504   -4.9043655    862.46197  0.053317382  0.053919555            3 
 1349000    1.0599611   -4.9264612    861.62069  0.053225889  0.053908647            6 
 1350000    1.0338921   -4.9257649    865.52647   0.05342756  0.053897599            1 
 1351000    1.0454382   -4.9037946    864.54961  0.053327758  0.053886838            4 
 1352000     1.031695   -4.9248648    866.84607  0.053429861  0.053876136            4 
 1353000    1.0205789   -4.9319148    866.31563  0.053357701  0.053865307            6 
 1354000    1.0386679   -4.9396135    863.39642  0.053138627  0.053854079            2 
 1355000    1.0399394   -4.9353835    865.92044  0.053254639  0.053843128            4 
 1356000    1.0309549   -4.9283271    867.18789  0.053293257  0.053832033            6 
 1357000    1.0399097   -4.8800389    867.20559  0.053255072  0.053820962            4 
 1358000    1.0486485   -4.8981169    869.94361  0.053383874  0.053809886            3 
 1359000    1.0153394    -4.946087    865.77322  0.053088866  0.053798626            2 
 1360000     1.039696    -4.939705    866.56822  0.053098543  0.053787532            5 
 1361000    1.0553729   -4.9458047    869.29975  0.053226778  0.053776385            3 
 1362000    1.0291279   -4.9643993    866.89062  0.053040298  0.053765448            4 
 1363000    1.0372543   -4.9298096    872.04908  0.053316769  0.053754284            3 
 1364000    1.0257643   -4.9304286    870.30631  0.053171207  0.053743136            3 
 1365000    1.0496191   -4.9268945    871.99193  0.053235161  0.053732068            4 
 1366000    1.0322979   -4.9400792    868.97347  0.053012047   0.05372086            5 
 1367000    1.0512997   -4.9108111    873.61843  0.053256427  0.053709877            2 
 1368000    1.0262652   -4.8993604    874.94177   0.05329811   0.05369903            3 
 1369000    1.0135829   -4.9508044    873.22476   0.05315466  0.053687918            3 
 1370000    1.0203421   -4.9275234    874.60804  0.053200002  0.053676782            2 
 1371000    1.0441646   -4.9134055    875.08682  0.053190301  0.053665576            3 
 1372000    1.0667276   -4.9414946    871.60765  0.052940212  0.053654207            3 
 1373000     1.039568   -4.9322514    874.26531  0.053062959  0.053642832            2 
 1374000    1.0286251   -4.9410281    872.62944  0.052925124  0.053631654            3 
 1375000    1.0421987   -4.9304001    873.72586  0.052953082  0.053620383            3 
 1376000    1.0232819   -4.9277797    876.00835  0.053052831  0.053609228            2 
 1377000    1.0626801   -4.9246255    875.14363  0.052961972   0.05359828            8 
 1378000    1.0407101   -4.9170188    878.65775  0.053136052  0.053587321            2 
 1379000    1.0335948   -4.9377128    876.40578  0.052961432  0.053576221            4 
 1380000    1.0196169   -4.9460494    877.96427  0.053017166  0.053564966            3 
 1381000    1.0334585   -4.9449254    877.95269  0.052978077  0.053554018            4 
 1382000    1.0215093   -4.9135416    876.96473  0.052880169  0.053542918            3 
 1383000    1.0418007   -4.9353729    877.62824  0.052881914  0.053532004            4 
 1384000    1.0490536   -4.9003493    882.03458  0.053109018  0.053520794            6 
 1385000    1.0355198   -4.9152312    880.64592  0.052987119  0.053509612            2 
 1386000    1.0287342   -4.9500983    876.85276  0.052720825     0.053498            4 
 1387000    1.0175873   -4.9437157    877.27661   0.05270828   0.05348667            6 
 1388000    1.0287684   -4.9582317    878.34331  0.052734349  0.053474942            3 
 1389000    1.0308394   -4.9156861    879.36561  0.052757716   0.05346363           14 
 1390000    1.0182353    -4.910095    881.69514  0.052859421  0.053452806            5 
 1391000    1.0500821    -4.947933    885.30265  0.053037542   0.05344173            9 
 1392000    1.0258385   -4.9128925    882.87768  0.052854267  0.053430693            4 
 1393000    1.0137381   -4.9378464    882.64426  0.052802361  0.053419538            3 
 1394000    1.0369998   -4.9608877    883.02731  0.052787381   0.05340823            3 
 1395000    1.0368642   -4.9207156    882.34603  0.052708843   0.05339693            4 
 1396000    1.0442483   -4.9529845    883.31617  0.052728998  0.053385675            7 
 1397000    1.0187144   -4.9234788    885.06129  0.052795353  0.053374654            2 
 1398000    1.0228428   -4.9194896    887.26278  0.052888816  0.053363411            3 
 1399000    1.0182218   -4.9529892    884.84648  0.052707081  0.053351908            3 
 1400000    1.0299743    -4.927201    884.52821  0.052650488  0.053340404            7 
 1401000    1.0124351   -4.9805915    883.85325   0.05257276  0.053329048            4 
 1402000    1.0656134   -4.9271871     885.9764   0.05266146   0.05331775            3 
 1403000    1.0194033   -4.9650922    886.77558  0.052671393  0.053306562            5 
 1404000    1.0293198   -4.9347504    887.34903  0.052667915   0.05329496            6 
 1405000    1.0303065   -4.9337126    887.61566  0.052646243  0.053283675            4 
 1406000    1.0271235   -4.9449117    885.97114  0.052511329  0.053272276            4 
 1407000    1.0134752   -4.9454922    887.20458  0.052547061  0.053260652            4 
 1408000    1.0145183   -4.9322947    890.01619  0.052676148   0.05324914            6 
 1409000    1.0496641   -4.9630596    888.36925  0.052541356  0.053237945            1 
 1410000    1.0492912    -4.984004    888.02821  0.052483937  0.053226278            5 
 1411000    1.0176894   -4.9289639    890.40231  0.052586954  0.053214738            2 
 1412000    1.0200914   -4.9627804    891.22947  0.052598528   0.05320358            6 
 1413000    1.0224186   -4.9316892    889.73432  0.052473126   0.05319229           10 
 1414000    1.0144134   -4.9629552    892.54159  0.052601461  0.053180943            4 
 1415000    1.0315998   -4.9394899    890.89873  0.052467534  0.053169484            2 
 1416000    1.0297173   -4.9300135     895.1557  0.052681009  0.053157916            6 
 1417000    1.0415445   -4.9434997    893.84834  0.052566945  0.053146501            1 
 1418000    1.0297018   -4.9318495    893.69658  0.052520956  0.053135295            3 
 1419000    1.0090252   -4.9313199    894.05001  0.052504699   0.05312403            2 
 1420000    1.0232878   -4.9780059    893.97377  0.052463249  0.053112636            2 
 1421000   0.99789061    -4.952874    893.12221   0.05237639  0.053101259            2 
 1422000    1.0252406   -4.9167252    895.92788  0.052503978  0.053089974            3 
 1423000    1.0317642   -4.9794719    893.25545  0.052310579  0.053078505            8 
 1424000    1.0445448   -4.9555982    898.22173  0.052564474   0.05306719            2 
 1425000    1.0241677   -4.9161753    899.46098  0.052600057  0.053055714            3 
 1426000    1.0209171   -4.9423554    896.17374  0.052371069  0.053044276            2 
 1427000    1.0175976   -4.9164379    899.22745  0.052512698  0.053032561            2 
 1428000     1.019879   -4.9518611    898.50326  0.052433664   0.05302111            4 
 1429000    1.0135118   -4.9597399    895.91911  0.052246274  0.053009947            2 
 1430000   0.99737083   -4.9351861    899.70009  0.052430075  0.052998252            5 
 1431000    1.0301058   -4.9664884    896.94474   0.05223298  0.052986634            2 
 1432000    1.0388807   -4.9534942    899.48851  0.052344536  0.052975012            2 
 1433000    1.0414439   -4.9229719    901.36262  0.052416994  0.052963624            3 
 1434000    1.0151131    -4.933413    901.68794  0.052399346  0.052952346            2 
 1435000    1.0238082   -4.9353669    901.71268  0.052364267  0.052940971            5 
 1436000    1.0010042   -4.9261126    900.12159  0.052235468  0.052929453            5 
 1437000    1.0062404   -4.9532302    902.45598  0.052334492  0.052918246            2 
 1438000    1.0378252   -4.9053103    906.86514  0.052553613  0.052906841            2 
 1439000   0.99932059    -4.938723    903.35526  0.052313833  0.052895726            9 
 1440000    1.0314148    -4.935296    904.67339  0.052353784  0.052884392            2 
 1441000    1.0462283     -4.96965    901.35464  0.052125528  0.052873072            5 
 1442000    1.0352772   -4.9696915    901.58855  0.052102898  0.052861337            5 
 1443000    1.0189232   -4.9763312    901.46891  0.052059882  0.052849443            3 
 1444000    1.0083581   -4.9601435    906.46757  0.052312302  0.052837757            3 
 1445000    1.0227426   -4.9336401    905.68084  0.052230729  0.052826303            3 
 1446000     1.026773   -4.9466389    905.67614  0.052194337  0.052815089            6 
 1447000    1.0225585   -4.9128559     909.4726  0.052376906  0.052804082            1 
 1448000    1.0280919    -4.968693    905.06519  0.052087085  0.052792884            3 
 1449000    1.0168019   -4.9337272    910.30854  0.052352688  0.052781712            4 
 1450000    1.0113125   -4.9642409    907.07698  0.052130861  0.052770352            2 
 1451000    1.0075828   -4.9759595    906.60353  0.052067742  0.052759047            7 
 1452000    1.0039486   -4.9248756    911.89885  0.052335793  0.052747919            2 
 1453000    1.0131058   -4.9452011    909.71595  0.052174579  0.052736743            4 
 1454000    1.0470298   -4.9418741    911.41376  0.052236002  0.052725574            2 
 1455000    1.0211386   -4.9301296    911.87692  0.052226628  0.052714588            2 
 1456000   0.98269741   -4.9587475    910.57689  0.052116351  0.052703539            3 
 1457000    1.0262477   -4.9557118    913.82409  0.052266306  0.052692174            3 
 1458000    1.0482855   -4.9496204    914.44249  0.052265803    0.0526813            4 
 1459000    1.0241622   -4.9660671    912.92174   0.05214312  0.052670705            3 
 1460000    1.0059596   -4.9839827    915.84403  0.052274202  0.052660003            4 
 1461000    1.0149315    -4.950368    916.98318  0.052303398  0.052649386            4 
 1462000    1.0221572   -4.9498642    913.61881  0.052075855  0.052638674            3 
 1463000   0.98872721   -4.9557328    913.16515  0.052014419   0.05262798            2 
 1464000    1.0259296    -4.993225    915.26909   0.05209865  0.052617095            5 
 1465000    1.0262868   -4.9503043    919.17109  0.052285045   0.05260613            3 
 1466000    1.0122468   -4.9819577    911.04851   0.05178766  0.052595096            5 
 1467000    1.0343301   -4.9616261    918.32804  0.052165874  0.052583981            3 
 1468000    1.0078772   -4.9326526    918.16592  0.052121135  0.052573153            4 
 1469000    1.0034375   -4.9184242    918.52677  0.052106125  0.052562457            4 
 1470000    1.0293205   -4.9707401    917.31255  0.052001845  0.052551545            3 
 1471000    1.0222441   -4.9383283    920.86081  0.052167506  0.052540581            3 
 1472000   0.99926967   -4.9546719    918.81049  0.052015993  0.052529471            3 
 1473000    1.0146904   -4.9633228    920.14189  0.052056002  0.052518533            3 
 1474000    1.0161844   -4.9598061    920.05086  0.052015539  0.052507195            2 
 1475000    1.0158587   -4.9269637    922.09929  0.052096005  0.052496226            3 
 1476000    1.0240636   -4.9791826    918.17071  0.051838906  0.052485183            4 
 1477000    1.0358462   -4.9576425     921.7955  0.052008322  0.052473981            4 
 1478000    1.0103987   -4.9625468    924.78296  0.052141574  0.052462994            4 
 1479000    1.0156218   -4.9355678    922.60385  0.051983539  0.052452257            2 
 1480000    1.0188546   -5.0012634      919.765   0.05178857  0.052441449            3 
 1481000    1.0285404   -4.9815943     920.6879  0.051805531  0.052430481            4 
 1482000    1.0111287   -4.9713858    922.80838   0.05188981  0.052419693            3 
 1483000    1.0193239   -4.9373598    927.85409  0.052138351  0.052408965            6 
 1484000   0.99484656   -4.9563075    928.43349  0.052135753   0.05239802            2 
 1485000    1.0491243   -4.9431142    925.25751  0.051922419  0.052387429            4 
 1486000    1.0384927   -4.9916193    925.77164   0.05191631   0.05237705            3 
 1487000    1.0039533   -4.9537709    925.31509  0.051855811  0.052366402            3 
 1488000    1.0267296   -4.9505791    926.00542  0.051859623  0.052355777            3 
 1489000    1.0049666   -4.9428591    925.55381  0.051799519  0.052344918            2 
 1490000    1.0239312   -4.9439492    928.04792  0.051904246  0.052333864            5 
 1491000    1.0162357   -4.9404651    928.18033  0.051876835  0.052323022            2 
 1492000    1.0168137   -5.0040249    929.09355  0.051893072  0.052312118            4 
 1493000    1.0276506   -4.9821795    928.14552  0.051805398  0.052301102            4 
 1494000    1.0142347   -4.9398767      929.667  0.051855589  0.052290101            4 
 1495000    1.0133933   -4.9974738    931.91252  0.051946071   0.05227921            2 
 1496000    1.0007949   -5.0011066    930.39815  0.051826992  0.052268163            6 
 1497000    1.0079986   -5.0037658    927.99048  0.051658343  0.052257058            5 
 1498000    1.0334062   -4.9553114    931.43734  0.051815606  0.052245951            2 
 1499000    1.0136012   -4.9792758    928.51944  0.051618826  0.052234825            4 
 1500000    1.0288672   -4.9354571    935.22606  0.051957003  0.052223985            3 
 1501000   0.99720931   -4.9614431    934.68148  0.051892154  0.052213374            6 
 1502000    1.0181654   -4.9783575    930.49703  0.051625445   0.05220247            2 
 1503000    1.0072659   -4.9749821    932.43236  0.051698401  0.052191789            2 
 1504000    1.0002083   -5.0054724    929.92802  0.051525267  0.052181022            3 
 1505000   0.99437073   -4.9561701    930.95081  0.051547664  0.052170304            4 
 1506000    1.0339607   -5.0065792    932.74877  0.051612925  0.052159576            5 
 1507000   0.98870164   -4.9902813    934.12963  0.051655034  0.052148741            5 
 1508000    1.0038545   -4.9501217    935.74764  0.051710192  0.052138114            5 
 1509000   0.99641242   -4.9745908    941.19601  0.051976806  0.052127451            2 
 1510000   0.99542006   -4.9770651    941.20401  0.051942826  0.052116992            2 
 1511000   0.99012693   -4.9813316    938.38678  0.051753076  0.052106652            4 
 1512000    1.0095464   -4.9475582    941.66398   0.05189947  0.052096246            3 
 1513000   0.98924083   -4.9416173    940.87325  0.051821615  0.052086138            4 
 1514000    1.0139914   -4.9663394     942.0028   0.05184956  0.052075774            7 
 1515000    1.0232653   -4.9780262    939.14458  0.051658118  0.052065541            4 
 1516000   0.98893977   -4.9842818    942.57679  0.051812708  0.052055053            3 
 1517000    1.0123324   -4.9783133    940.30883  0.051653968  0.052044554            5 
 1518000   0.99774983   -4.9915414    939.30019  0.051564569  0.052034132            3 
 1519000   0.99538612   -4.9732058     941.6673  0.051660484  0.052023865            3 
 1520000    1.0143518   -4.9542501     942.1129  0.051650926  0.052013654            4 
 1521000   0.99380926   -4.9889275    943.88152  0.051713868  0.052003352            6 
 1522000    1.0219058   -4.9775771    945.72794  0.051780987  0.051993009            6 
 1523000    1.0185153   -4.9811315    943.29371  0.051613795  0.051982807            4 
 1524000   0.98466641    -4.945867     945.7113  0.051712122  0.051972661            4 
 1525000    1.0160707   -4.9606029    946.50559  0.051721617  0.051962615            5 
 1526000   0.99923425   -4.9663661    949.92319  0.051874355   0.05195277            3 
 1527000    1.0217908   -4.9832601    948.34271  0.051754132   0.05194311            4 
 1528000   0.98553145   -4.9931209    946.24338  0.051605769  0.051932914            3 
 1529000   0.98117862   -4.9702717    946.90103  0.051607861   0.05192307            3 
 1530000   0.99139107   -4.9741564    945.44989  0.051495092  0.051913121            4 
 1531000    1.0121083   -4.9427415    949.93273  0.051705461  0.051902979            3 
 1532000    1.0217307   -4.9634009    949.01943  0.051622032  0.051892913            3 
 1533000    1.0183053   -4.9775619    948.07813  0.051537189  0.051882862            3 
 1534000    1.0020379   -4.9881447    947.44606  0.051469256  0.051872585            3 
 1535000    1.0120079   -4.9979564    949.62528  0.051554032  0.051862529           10 
 1536000    1.0107912   -4.9790931    949.50949  0.051514187  0.051852099            3 
 1537000   0.99032597   -4.9775553    951.94245  0.051612581  0.051841886            4 
 1538000    1.0143961   -4.9424078    951.50948  0.051555563   0.05183172            5 
 1539000   0.99765995   -4.9746151    950.56851  0.051471112  0.051821658            3 
 1540000   0.99777747     -4.97836    953.91922  0.051619005  0.051811533            3 
 1541000    1.0058506   -4.9731172    954.74438  0.051630131  0.051801414            3 
 1542000    1.0204104   -4.9630193    951.30543  0.051410799  0.051790937            2 
 1543000    1.0022292   -4.9733095    953.35897  0.051488387  0.051780571            4 
 1544000   0.99996141   -4.9681734    954.16356  0.051498465  0.051770032            3 
 1545000   0.99956875   -4.9743971     951.5764  0.051325588  0.051759592            4 
 1546000    1.0129288   -4.9789695    952.62675  0.051349005  0.051749208            3 
 1547000    1.0357584   -4.9459804    956.84164  0.051542859  0.051738966            3 
 1548000    1.0022362   -4.9998399    951.79993  0.051238153   0.05172841            3 
 1549000   0.99686145    -4.957556    956.91268  0.051480131  0.051718022            3 
 1550000    1.0025273   -4.9548876    953.53626   0.05126539  0.051707546            5 
 1551000   0.98798373   -5.0070852    955.43702  0.051334463   0.05169696            3 
 1552000     1.001274   -4.9921873     952.9929  0.051170151  0.051686255            4 
 1553000     1.003366   -4.9941118    951.69294  0.051067447  0.051675378            6 
 1554000    1.0130803   -4.9461558    958.07276  0.051376703  0.051664637            2 
 1555000    1.0014181   -4.9847287    957.55344  0.051315833  0.051654029            2 
 1556000      1.01316   -4.9970548    959.29028  0.051375872  0.051643058            4 
 1557000   0.98886768   -5.0052269    955.27223  0.051127822   0.05163238            5 
 1558000    1.0142089   -4.9672993    958.20862  0.051252066  0.051621559            3 
 1559000    1.0014192   -4.9572301    958.22895  0.051220277  0.051611098            2 
 1560000     1.007624   -5.0040706    958.61435  0.051208031  0.051600284            5 
 1561000    1.0078973   -4.9764881    960.49041  0.051275379  0.051589581            4 
 1562000    1.0042704   -4.9849756    955.61177  0.050982275  0.051578694            6 
 1563000    1.0037945   -4.9734869    961.53298  0.051265354  0.051567962            3 
 1564000    1.0197868   -4.9484295    963.24729  0.051323918  0.051557372            2 
 1565000    1.0109903    -4.993883     960.0445  0.051120581  0.051546799            7 
 1566000   0.98051743   -5.0155229    958.37438  0.050999062  0.051536199            3 
 1567000   0.99430806   -4.9733595    963.51355  0.051239819  0.051525573            4 
 1568000    1.0005736   -4.9680762    962.96366  0.051177916  0.051515052            4 
 1569000    1.0028854    -4.993649    962.13697   0.05110139   0.05150467            4 
 1570000    1.0128399   -4.9719903     964.4993   0.05119423     0.051494            5 
 1571000   0.98084341   -4.9974318    961.84186   0.05102068  0.051483712            4 
 1572000   0.99471234   -4.9546645    964.44189  0.051126054  0.051473215            2 
 1573000    1.0055362   -4.9364787     965.9329  0.051172542  0.051462775            3 
 1574000    1.0099597    -4.974885     965.3626  0.051109837  0.051452671            3 
 1575000    1.0106486   -4.9922816    965.81259  0.051101195  0.051442305            5 
 1576000    1.0121914   -5.0170025    965.29222  0.051041255  0.051431638           10 
 1577000   0.99712388   -4.9839316    967.68466  0.051135313   0.05142121            3 
 1578000    1.0214442   -4.9963362     965.9142   0.05100941  0.051410842            2 
 1579000    1.0005788   -4.9768276    967.65798  0.051069136  0.051400456            4 
 1580000   0.99835147   -4.9851937    967.25649  0.051015637  0.051390021            4 
 1581000    1.0188555    -4.961214    973.02815   0.05128759  0.051379841            2 
 1582000    1.0060996   -5.0173199    966.61636  0.050917423  0.051369489            3 
 1583000   0.98689993   -4.9844319     970.6799  0.051099173   0.05135911            2 
 1584000    1.0024777   -4.9730617    971.50195  0.051110162  0.051348985            4 
 1585000   0.99885802   -4.9852763    970.56319  0.051028559  0.051338743            2 
 1586000    1.0041333   -4.9872791    971.60331  0.051051036  0.051328527            4 
 1587000    1.0017437   -5.0108963    970.39464    0.0509554  0.051318331            5 
 1588000   0.99526194   -4.9686057    973.88344  0.051106394  0.051308188            4 
 1589000   0.99844776   -5.0008274     971.7007   0.05095976  0.051298049            2 
 1590000    1.0212474   -4.9378273    979.43576  0.051333111  0.051288103            2 
 1591000   0.99535584   -4.9879801    973.28649   0.05097876  0.051278053            4 
 1592000   0.96608972   -4.9981072     974.4553   0.05100792  0.051267983            3 
 1593000   0.99525954   -4.9835257    975.67604  0.051039759  0.051257962            3 
 1594000    0.9944026   -4.9938244    978.01433  0.051129984   0.05124784            4 
 1595000    0.9998041   -5.0029987    972.76642  0.050823742   0.05123753            3 
 1596000   0.99402319   -4.9978327    975.08207  0.050912807  0.051227035            3 
 1597000   0.98502856   -5.0081305    975.37831  0.050896384  0.051216559            6 
 1598000   0.99507997   -5.0141425     974.5805   0.05082293  0.051206264            3 
 1599000   0.98040575   -4.9870801    979.53558  0.051049384  0.051196136            2 
 1600000     1.005811    -5.025757    975.86782  0.050826449   0.05118595            6 
 1601000   0.97577298   -4.9925999    976.87806  0.050847286  0.051175761            3 
 1602000   0.98052658   -4.9903901    978.18458  0.050883509  0.051165524            5 
 1603000   0.99829517    -5.027077    978.86876  0.050887334  0.051155183            5 
 1604000   0.97781947   -5.0189901    976.08489  0.050710977  0.051144638            3 
 1605000    1.0060748   -4.9687575    978.88832  0.050824939   0.05113431            3 
 1606000    1.0067175   -5.0036367     976.6422  0.050676744  0.051123924            3 
 1607000    1.0037702   -4.9976636    982.95267  0.050972447  0.051113727            2 
 1608000   0.99006921    -5.035163    977.81554   0.05067452  0.051103295            3 
 1609000   0.98957062   -5.0092757    982.24802  0.050872593  0.051093091            2 
 1610000    1.0176453   -4.9974546    985.43667  0.051006039  0.051082953            3 
 1611000   0.97424697   -5.0224968    982.72439  0.050834078  0.051072736            3 
 1612000    1.0107658    -4.991615    983.85331  0.050860903  0.051062684            3 
 1613000   0.99064474   -5.0003206    982.12185  0.050739918  0.051052624           10 
 1614000    1.0214391   -5.0008878    985.59765  0.050887941  0.051042412            3 
 1615000    1.0098607   -4.9966668    983.84641  0.050766068  0.051032459            3 
 1616000    0.9958561   -4.9681575    986.95325  0.050894866  0.051022197            3 
 1617000   0.98937369   -5.0193257    981.37763  0.050576048  0.051011894            2 
 1618000    1.0002818   -4.9989815    987.40111  0.050855022   0.05100124            4 
 1619000   0.99360076   -4.9780902    985.33877  0.050717458  0.050991077            3 
 1620000   0.98396173   -5.0025514    984.51987  0.050644026  0.050980621            7 
 1621000   0.97818064    -4.971468    985.56096  0.050666305  0.050970108            5 
 1622000   0.97135898   -4.9829823    989.03755  0.050813684  0.050959887            6 
 1623000   0.97631213   -5.0115438    983.84825   0.05051593  0.050949481            3 
 1624000    1.0103143   -4.9684424    989.45013  0.050772277  0.050939231            5 
 1625000   0.99596476    -5.018087    985.11874   0.05051891  0.050928837            4 
 1626000   0.99619681   -5.0241099    986.32261  0.050549539   0.05091811            3 
 1627000   0.96216123   -4.9923309    990.60534  0.050737827  0.050907784            3 
 1628000    1.0122148   -5.0019745    987.17365  0.050531002  0.050897438            4 
 1629000   0.98450477   -5.0331503    987.69055  0.050526425   0.05088689            5 
 1630000   0.98728248   -4.9907513     987.7552  0.050498732  0.050876173            9 
 1631000   0.98616997   -5.0182638    989.38469  0.050551027  0.050865647            3 
 1632000   0.97911828   -4.9803581    994.84037   0.05079863  0.050855171            5 
 1633000   0.98951235   -5.0309597    984.50514  0.050240107  0.050844625            4 
 1634000   0.99009317    -5.006445    988.58061  0.050417208  0.050833871            4 
 1635000   0.98833699     -5.01379    990.55632  0.050487071  0.050823112            4 
 1636000   0.99251325   -5.0212526     991.0345  0.050480567  0.050812414            2 
 1637000    1.0010637   -5.0151155    986.64507  0.050226281  0.050801825            3 
 1638000   0.99210369   -5.0364395    992.13051   0.05047469  0.050790871            4 
 1639000   0.98607477   -4.9949509    990.86865  0.050379736  0.050780237            2 
 1640000   0.98084042   -5.0148581    989.16407  0.050262402  0.050769437            2 
 1641000   0.97775804   -5.0175987    990.20992  0.050284883  0.050758604            5 
 1642000    1.0127927   -5.0294372    990.93611  0.050291114  0.050747539            3 
 1643000   0.98224614   -5.0091341    992.29298  0.050329325  0.050736731            1 
 1644000    1.0013302   -5.0102337    991.45365  0.050256167  0.050725922            2 
 1645000   0.98180438   -5.0081464    993.68458  0.050338631  0.050714876            2 
 1646000   0.98594992   -5.0255899    990.45819  0.050144704  0.050703955            2 
 1647000    1.0073719   -4.9975137    994.07233  0.050297122  0.050693124            3 
 1648000   0.97635834   -5.0084863    992.11806  0.050167782   0.05068248            3 
 1649000    1.0078983   -5.0203429    994.92546  0.050279233  0.050671707            3 
 1650000   0.99826253   -5.0145008    991.48764  0.050075133  0.050660769            2 
 1651000    1.0008661   -5.0109827    995.85283  0.050265134  0.050650049            2 
 1652000   0.98741183   -4.9922966    998.80453  0.050383602  0.050639337           10 
 1653000   0.98680129   -5.0046331    999.74283  0.050400425   0.05062874            4 
 1654000   0.99249096    -5.003907    1000.5517  0.050410709  0.050618336            6 
 1655000   0.97532033   -5.0240495    997.14934  0.050208929  0.050607772            9 
 1656000   0.98285056   -4.9719811    998.60007  0.050251614  0.050597321            2 
 1657000   0.98641368   -5.0374607    996.96527   0.05013907  0.050586659            5 
 1658000   0.98600561   -4.9726259    997.11068  0.050116138  0.050575877            3 
 1659000   0.98272629   -5.0341675    992.85604  0.049872214  0.050565109            4 
 1660000    1.0068482   -5.0453111    997.98449  0.050099623  0.050554114            7 
 1661000   0.99412302   -5.0281726    996.50883  0.049995426  0.050543443            2 
 1662000   0.99987529   -5.0565775    999.98959  0.050139871  0.050532594            4 
 1663000   0.98145121   -5.0315999    997.88766  0.050004393  0.050521864            3 
 1664000   0.99250709   -5.0496268    1001.1093  0.050135684   0.05051114            2 
 1665000   0.97077006   -5.0057806    1002.9301  0.050196702  0.050500591            2 
 1666000   0.99894384    -5.030311    999.16886  0.049978434  0.050490027            3 
 1667000   0.98462504   -5.0215455    999.99435   0.04998972  0.050479665            4 
 1668000   0.99048963   -5.0134369    1007.7129  0.050345368  0.050469172            2 
 1669000   0.98414769   -5.0202647    1004.0669  0.050133158  0.050458948            7 
 1670000   0.98166059   -5.0556642    1004.4947  0.050124487  0.050448628            7 
 1671000   0.96736684   -5.0219262    1007.9776  0.050268183  0.050438542            6 
 1672000    0.9774175   -5.0036584    1008.9677  0.050287464  0.050428366            2 
 1673000   0.97611815   -4.9935131    1007.5563  0.050187103   0.05041826            2 
 1674000   0.99577497   -5.0085293    1009.1194  0.050234935  0.050408176            2 
 1675000   0.99324253   -4.9952267    1008.0502   0.05015175   0.05039784            3 
 1676000   0.96595143   -4.9924195    1011.9883  0.050317638  0.050387797            4 
 1677000   0.98345499   -5.0595768    1004.5664  0.049918822  0.050377497            1 
 1678000   0.98234426   -5.0437041    1007.6641  0.050042915  0.050367155            4 
 1679000   0.98243297   -5.0428748     1007.784  0.050019061  0.050356932            2 
 1680000   0.98109428   -5.0074853    1008.2405  0.050011928  0.050346805            2 
 1681000   0.96858962   -5.0432414    1014.7088  0.050302838  0.050336749            3 
 1682000     0.980928   -5.0175914    1011.8536  0.050131472  0.050326442            3 
 1683000   0.97317217   -5.0110674    1012.2814  0.050122868  0.050316279            5 
 1684000    1.0057674    -5.006014    1011.4612  0.050052514   0.05030611            3 
 1685000    0.9780013   -5.0365327    1009.2857  0.049915217  0.050295615            6 
 1686000   0.97355555   -4.9909245    1014.7971  0.050158023  0.050285755            5 
 1687000   0.96401852    -4.990824    1018.5927  0.050315784  0.050275798            4 
 1688000   0.98345151   -5.0207695     1014.342  0.050076128  0.050266014            3 
 1689000   0.98615275   -4.9849795    1020.8003  0.050365124  0.050256311            4 
 1690000   0.98360684   -4.9989266    1014.2647  0.050013053  0.050246715            4 
 1691000    0.9614488   -5.0272385     1017.508  0.050143305  0.050236809            2 
 1692000    0.9796801   -5.0250733    1014.1177  0.049946696  0.050227008            3 
 1693000   0.96192707   -5.0070067    1017.9278  0.050104737   0.05021715            4 
 1694000   0.97518743    -5.034052    1017.9744  0.050077449  0.050207507            3 
 1695000   0.99458741   -5.0273095    1019.8878  0.050141975  0.050197632            3 
 1696000   0.96315786   -5.0454566    1017.2872  0.049984631  0.050188047            2 
 1697000   0.96481302   -5.0636876    1018.8492  0.050031878   0.05017849            5 
 1698000    0.9683761   -5.0262167    1018.5796  0.049989182   0.05016869            5 
 1699000   0.99939989   -5.0720175    1018.1793  0.049940129  0.050159025            6 
 1700000   0.96986372   -5.0635634    1020.3319  0.050016269  0.050149317            4 
 1701000   0.98047149   -5.0283515    1023.6932  0.050151538  0.050139546            4 
 1702000   0.96894358   -5.0545415    1021.7256  0.050025736  0.050129684            5 
 1703000   0.96804188   -5.0301558    1021.3483  0.049977895  0.050119754            3 
 1704000    0.9834036   -5.0362551    1020.3229   0.04989842  0.050110006            3 
 1705000   0.98013701    -5.053987    1024.1118  0.050054338  0.050100379            3 
 1706000   0.94492374   -5.0210556    1024.4719  0.050042589  0.050090825            3 
 1707000   0.97928512    -5.028172    1024.1848  0.049999258  0.050081299            4 
 1708000   0.97955649   -5.0219886    1025.3604  0.050027343  0.050071917            2 
 1709000   0.98443649   -4.9978862    1024.6496  0.049963411  0.050062516            4 
 1710000   0.98696298   -5.0427856    1025.1464  0.049958401  0.050053237            4 
 1711000   0.98110882   -5.0493421    1026.4629  0.049993324  0.050043346           10 
 1712000   0.96174358   -5.0752928    1023.8082  0.049834902  0.050033607            6 
 1713000   0.98222866     -5.04515     1020.409  0.049640446  0.050023727            7 
 1714000    0.9665084   -5.0435047    1028.9185  0.050025211  0.050013965            2 
 1715000    0.9889029    -5.043607    1026.8542  0.049895735  0.050004065            4 
 1716000   0.95045401   -5.0292985    1024.4768  0.049751203  0.049994293            5 
 1717000   0.98373487   -5.0117335    1030.5767  0.050018284  0.049984736            4 
 1718000    1.0005055   -5.0279769    1027.0562  0.049818401  0.049975057            4 
 1719000   0.99915627   -5.0821234    1025.7098  0.049724154  0.049965226            6 
 1720000   0.97195426   -5.0630071     1026.248  0.049721316  0.049955324            5 
 1721000   0.98379696   -5.0336775    1030.2214  0.049884826  0.049945583            5 
 1722000   0.96834713   -5.0179115    1029.9816  0.049844253  0.049935803            2 
 1723000   0.97322278   -5.0317878    1032.5516   0.04993962  0.049925934            4 
 1724000   0.98818233   -5.0442867    1031.4865  0.049859168  0.049916249            2 
 1725000   0.99592137   -5.0683793    1028.2743  0.049675085   0.04990661           10 
 1726000   0.98783229   -5.0407723    1037.8473  0.050108501  0.049896844            6 
 1727000   0.98117136   -5.0422339    1026.1908  0.049517022  0.049887212            3 
 1728000   0.97203811   -5.0511188    1034.8926  0.049908015  0.049877557            3 
 1729000   0.96749821     -5.06341    1030.2101  0.049653466  0.049867954           10 
 1730000   0.97038092   -5.0356423    1036.8946  0.049946754  0.049858474            5 
 1731000   0.97707319   -5.0299441    1033.0233   0.04973153  0.049848892            6 
 1732000   0.99749898   -5.0369279    1036.0913  0.049850429   0.04983942            3 
 1733000   0.98876939   -5.0248982    1032.6789  0.049657576  0.049829771            5 
 1734000   0.97105163   -5.0333494    1032.3152  0.049611456  0.049819904            4 
 1735000   0.97037076   -5.0130535    1035.5185  0.049736721  0.049809986            2 
 1736000   0.96387568   -5.0001359    1036.8231  0.049770696  0.049800248            5 
 1737000   0.96500501   -5.0370609    1033.2703  0.049571596  0.049790366            3 
 1738000    0.9730579   -5.0371147    1034.0238  0.049579199  0.049780374            5 
 1739000   0.95634525   -5.0510874    1031.4422   0.04942698  0.049770435            7 
 1740000   0.96611498   -5.0426019    1034.5343  0.049546663  0.049760531            3 
 1741000    0.9665376   -5.0466011    1037.8266  0.049675792  0.049750518            4 
 1742000   0.96029569   -5.0573498    1035.4742  0.049534739  0.049740369            3 
 1743000   0.95831533   -5.0244238    1034.8945  0.049478603  0.049730189            3 
 1744000   0.98973878   -5.0400525    1035.9624  0.049501262  0.049720062            4 
 1745000   0.97608334   -5.0385883    1036.8578  0.049515652  0.049709885            2 
 1746000   0.97186605   -4.9973192    1041.6457  0.049715811  0.049699927            3 
 1747000   0.96685609   -5.0174518    1037.9982  0.049513366   0.04968989            7 
 1748000   0.97983333   -5.0610712    1037.3257   0.04945298  0.049679831            2 
 1749000   0.99009958   -5.0624215    1034.9247  0.049310304  0.049669628            3 
 1750000   0.98275647    -5.043069    1039.1584  0.049483734  0.049659597            8 
 1751000   0.97399308   -5.0375807    1037.2893  0.049366521  0.049649514            3 
 1752000    0.9505255   -5.0357166     1041.987  0.049561787  0.049639357            6 
 1753000   0.96687223   -5.0652767    1037.6292  0.049326353  0.049629044            3 
 1754000   0.97883034     -5.03316    1044.1462  0.049607859  0.049618922            3 
 1755000   0.96048726   -5.0133805     1040.988  0.049429628  0.049608641            3 
 1756000   0.95665959   -5.0402496    1038.9394  0.049304262  0.049598313            4 
 1757000    0.9734968   -5.0973146    1039.1718  0.049287224  0.049588359            3 
 1758000   0.95862164   -5.0195169    1044.0419   0.04949004    0.0495783            2 
 1759000   0.97553071   -5.0535476    1047.2375  0.049613301  0.049568245            7 
 1760000   0.98374203   -5.0373343    1044.2629  0.049444266  0.049558264            3 
 1761000   0.97368868   -5.0467204    1045.4523  0.049472473  0.049548161            4 
 1762000   0.96935344   -5.0558006     1043.587  0.049356176  0.049538245            4 
 1763000    0.9616405   -5.0625355    1044.2353  0.049358825  0.049528116            2 
 1764000   0.98457313   -5.0541821     1042.582  0.049252741  0.049517836            3 
 1765000   0.96597179   -5.0662466    1043.2261  0.049255246  0.049507785            4 
 1766000   0.97048142   -5.0629167    1046.3147  0.049373097  0.049497733            8 
 1767000     0.973705   -5.0324692    1047.3999  0.049396338  0.049487889            5 
 1768000   0.99337676   -5.0551006    1042.9469  0.049158507  0.049478062            5 
 1769000     0.974227   -5.0371517    1044.3468  0.049196666  0.049467985            5 
 1770000   0.95173978   -5.0368685     1048.411  0.049360216  0.049457996            3 
 1771000    0.9769484   -5.0297198    1040.6974  0.048969388  0.049447886            3 
 1772000   0.96866338   -5.0666882    1045.7227  0.049178079  0.049437633            5 
 1773000   0.96168715   -5.0605199      1045.86  0.049156794  0.049427244            3 
 1774000   0.95632263   -5.0425043    1048.4595  0.049251197  0.049416985            2 
 1775000   0.96757737    -5.072721    1044.3842  0.049032123   0.04940681            2 
 1776000   0.98217985   -5.0809786    1047.0048  0.049127477   0.04939633            2 
 1777000   0.95539574    -5.032485     1049.603  0.049221673  0.049386096            2 
 1778000   0.94830417   -5.0372122    1051.9877  0.049305761  0.049375967            6 
 1779000   0.97692668   -5.0808415    1047.5342  0.049069429  0.049365769            3 
 1780000   0.97551048   -5.0699859    1047.4545  0.049038132  0.049355392            6 
 1781000   0.95389094   -5.0846566    1049.3744  0.049100433  0.049345115            4 
 1782000   0.95438954   -5.0349229    1047.5887  0.048989369  0.049334775            6 
 1783000   0.96059405    -5.047456    1047.7489  0.048969382  0.049324355            8 
 1784000   0.95599476   -5.0875024    1048.5105  0.048977506  0.049313789            7 
 1785000   0.95632534   -5.0715356    1051.4434  0.049086993  0.049303239            3 
 1786000   0.97049843   -5.0572238    1048.5084  0.048922566  0.049292781            2 
 1787000    0.9443932   -5.0542318    1049.6107  0.048946591   0.04928236            3 
 1788000   0.96541888    -5.051122    1050.9418  0.048981257  0.049272016            4 
 1789000   0.97250299   -5.0360932    1051.7789   0.04899287  0.049261766            6 
 1790000   0.94908532   -5.0428344    1055.1727  0.049123496  0.049251542            2 
 1791000   0.94844198   -5.0642534    1051.4368  0.048922239  0.049241194            2 
 1792000   0.95952219   -5.0576619     1053.435  0.048987862  0.049231011            3 
 1793000   0.94955161   -5.0644467    1054.7741  0.049022778  0.049220899            4 
 1794000   0.98073559   -5.0312838    1052.3888  0.048884654  0.049210749            6 
 1795000   0.95800454   -5.0502936    1056.3928  0.049043308  0.049200801            8 
 1796000   0.97838923   -5.0486255    1057.8707  0.049084571  0.049190746            8 
 1797000   0.97438977   -5.0489713      1059.02  0.049110556  0.049180761            2 
 1798000   0.97032639   -5.0790143    1054.8905  0.048891846  0.049170701            6 
 1799000   0.97433992    -5.008295    1056.1898  0.048924858   0.04916063            5 
 1800000   0.98195101   -5.0556912    1058.8898  0.049022674  0.049150559            4 
 1801000   0.96878382   -5.0671184    1058.2901  0.048967707  0.049140379            3 
 1802000   0.96527804   -5.0902177    1056.2286  0.048845201  0.049130201            3 
 1803000   0.96596384   -5.0573463    1054.6474  0.048745026  0.049120213            3 
 1804000   0.96465329   -5.0671132    1059.2166  0.048929072  0.049110331            4 
 1805000   0.95211254   -5.0660016    1059.5706  0.048918309   0.04910024            3 
 1806000   0.97043258   -5.0741283    1056.7513  0.048761132  0.049090333            4 
 1807000   0.96529195   -5.0780002    1058.4947  0.048814548   0.04908028            2 
 1808000   0.96501212   -5.0595753    1059.8078  0.048848071  0.049070384            5 
 1809000   0.97597231   -5.0816356    1064.0202   0.04901512  0.049060312            5 
 1810000   0.95762685   -5.0734714    1060.9263  0.048845593  0.049050279            4 
 1811000   0.96401088   -5.0737766    1063.2968  0.048927703  0.049040342            5 
 1812000   0.97975868   -5.0877031    1063.1376   0.04889338  0.049030408            4 
 1813000   0.93427583   -5.0397009    1066.5141  0.049021608  0.049020627            4 
 1814000   0.95922067   -5.0675472    1066.6369  0.049000227  0.049010731            2 
 1815000   0.96309671   -5.0582062    1066.3475  0.048959942  0.049000946            3 
 1816000   0.97378975   -5.0872135    1062.0557  0.048736034   0.04899115            4 
 1817000   0.96997714   -5.0551818    1064.9046  0.048839875  0.048981409            3 
 1818000   0.95459341   -5.0449148    1070.2923   0.04905997  0.048971765            2 
 1819000   0.95614115   -5.0486318    1069.6881  0.049005319  0.048962268            8 
 1820000   0.95870307   -5.0568106    1069.7271  0.048980179  0.048952716            3 
 1821000   0.95866961   -5.0901033    1066.9794   0.04882754  0.048943096            9 
 1822000   0.96560687     -5.06114    1067.6241  0.048830228  0.048933278            3 
 1823000   0.95209687   -5.0869385    1066.9932  0.048774603  0.048923521            5 
 1824000   0.95776202   -5.0673226    1066.3054  0.048716438  0.048913645            2 
 1825000   0.95947199   -5.0729357    1067.7276  0.048754684   0.04890372            4 
 1826000    0.9622794   -5.0641692    1071.8906  0.048917971  0.048893937            3 
 1827000   0.95821327   -5.0280211    1073.5429   0.04896656  0.048884091            8 
 1828000   0.95553949   -5.0918215    1071.3236  0.048838602  0.048874635            4 
 1829000   0.96833941   -5.0929575    1066.8996  0.048610334  0.048864779            7 
 1830000   0.96935507   -5.0951707    1069.9702  0.048723597  0.048855018            6 
 1831000   0.96756613   -5.0939536    1073.1568  0.048842018  0.048845274            2 
 1832000   0.94982727   -5.0666247     1073.134  0.048814318  0.048835497            5 
 1833000    0.9523863   -5.0856431    1072.2455  0.048747296  0.048825638            3 
 1834000   0.96189113   -5.0841505    1071.5574  0.048689449  0.048816113            4 
 1835000   0.96994987    -5.095389    1072.4302  0.048702551  0.048806543            1 
 1836000   0.95623195   -5.0890418     1071.876   0.04865087   0.04879667            5 
 1837000    0.9628016   -5.0557005    1074.8287  0.048758331  0.048786958            4 
 1838000   0.93911333   -5.0692135    1074.6843  0.048725257  0.048777391            4 
 1839000   0.96007756   -5.0732085    1074.6651  0.048697895   0.04876758            9 
 1840000   0.97881856   -5.0807799    1072.2445  0.048561798   0.04875782            3 
 1841000   0.92660546   -5.1113518    1071.9173  0.048520607  0.048748116            2 
 1842000   0.94359895   -5.0329828    1081.7226  0.048937865  0.048738326            3 
 1843000   0.95656578   -5.0513746     1073.841  0.048554938  0.048728922            3 
 1844000   0.97045784   -5.0804615    1073.0938  0.048494838  0.048719104            2 
 1845000   0.96168637   -5.0643758    1077.8689   0.04868423   0.04870953            3 
 1846000   0.98423518   -5.1011091    1071.9101  0.048388862  0.048699482            4 
 1847000   0.93256405   -5.1271583    1072.9159  0.048408046  0.048689239            2 
 1848000   0.96001839   -5.0931207    1075.5764  0.048501822  0.048679231            4 
 1849000   0.97536765   -5.1019782     1075.737   0.04848283  0.048669577            4 
 1850000   0.95591314   -5.0550296    1078.7136  0.048590704  0.048660051            2 
 1851000   0.96370421   -5.0594035    1080.1621  0.048629662  0.048650399           11 
 1852000   0.95887465   -5.0572519    1079.5116  0.048574134  0.048640763            4 
 1853000   0.94054119   -5.0908594    1080.0808  0.048573522  0.048630965            5 
 1854000   0.95549619   -5.0698067    1083.1962  0.048687352  0.048621158            3 
 1855000   0.96896873   -5.0887876    1080.6098  0.048544915  0.048611255            4 
 1856000   0.94732557   -5.0584379    1084.5839  0.048697195  0.048601689            3 
 1857000   0.94285284   -5.0515976    1084.0337  0.048646279  0.048592354            4 
 1858000   0.97396116   -5.0550428     1081.801   0.04851996  0.048582771            7 
 1859000   0.94804156   -5.0873829    1079.7072  0.048399998  0.048573204            7 
 1860000    0.9496271    -5.080974    1082.3858  0.048493986  0.048563619            2 
 1861000   0.94948285   -5.0651578    1085.0285  0.048586266  0.048554082            3 
 1862000    0.9568168   -5.0748974    1084.9877  0.048558347  0.048544443            2 
 1863000   0.95866606   -5.0838736    1083.0399  0.048445156  0.048534825            4 
 1864000   0.95835598   -5.0985611     1081.351  0.048343659  0.048525107            3 
 1865000   0.95589853    -5.113917    1079.3078  0.048226441  0.048515307            7 
 1866000   0.94397272   -5.1268197    1087.2494   0.04855526  0.048505437            4 
 1867000   0.95245464   -5.0535325    1090.2343  0.048662485  0.048495906            3 
 1868000   0.96278347   -5.0808875    1082.9683   0.04831229  0.048486359            2 
 1869000   0.94805513   -5.1041253    1085.6418  0.048405646  0.048476844            5 
 1870000   0.94531904   -5.0771324    1089.1571  0.048536413  0.048467294            4 
 1871000   0.95348782    -5.078209    1084.6621  0.048310266  0.048457831            5 
 1872000   0.92931672   -5.1001206    1088.7581  0.048466796  0.048448175            2 
 1873000   0.95293425   -5.0668982    1090.3346  0.048511061  0.048438648            6 
 1874000   0.94406612   -5.0707643    1087.0669  0.048339866  0.048429021            3 
 1875000   0.95609466   -5.0852944    1091.3673  0.048505213  0.048419348            4 
 1876000   0.96824226   -5.0682301    1087.5703  0.048310691  0.048409678            6 
 1877000   0.94914645   -5.0793268    1092.2243  0.048491579  0.048400011            6 
 1878000   0.94698402   -5.0788589    1086.5319  0.048213165  0.048390185            5 
 1879000    0.9514041   -5.0788156    1090.5317  0.048364897  0.048380141            4 
 1880000   0.93003924    -5.091427    1090.3449  0.048330893  0.048370259            2 
 1881000   0.94728053   -5.0865789    1089.5299   0.04826909  0.048360353            4 
 1882000   0.95270294   -5.0856665    1089.3583  0.048235844  0.048350593            9 
 1883000    0.9222078    -5.058944    1091.5829  0.048308679  0.048340862            7 
 1884000   0.95900986   -5.0780407    1088.2737  0.048136666  0.048330948            3 
 1885000   0.94715988   -5.0730458     1092.056   0.04827834  0.048321197            2 
 1886000   0.93844876   -5.0649432    1095.3249  0.048397177    0.0483114            4 
 1887000    0.9399963   -5.1177115    1089.8053  0.048127775  0.048301482            5 
 1888000   0.94523816   -5.0959095    1091.7661  0.048188827  0.048291499            8 
 1889000   0.92202014   -5.0939709    1093.1248  0.048223259   0.04828164            2 
 1890000   0.93624444   -5.0987017    1093.7027  0.048223225  0.048271865            2 
 1891000    0.9476702   -5.0725872    1096.9159  0.048339324   0.04826217            4 
 1892000   0.96528857   -5.0708474    1094.1086  0.048190124  0.048252603            4 
 1893000   0.94701204   -5.1078464    1093.1027  0.048120385  0.048242953            4 
 1894000   0.95608326   -5.0951722    1095.8197  0.048214523  0.048233238            2 
 1895000   0.95500506   -5.1444999    1091.6586  0.048006093  0.048223484            4 
 1896000   0.94483913   -5.1133705    1095.5585  0.048152186  0.048213821            4 
 1897000   0.94347045    -5.113055    1093.2896  0.048027131  0.048204203            3 
 1898000   0.92905921   -5.0707296    1096.1078  0.048125561  0.048194603            3 
 1899000    0.9592647   -5.0791262    1098.0785  0.048186701  0.048185031            3 
 1900000   0.96842718    -5.097898    1097.4076  0.048131911  0.048175188            4 
 1901000   0.94006884   -5.1175654      1094.75  0.047990092  0.048165556            4 
 1902000    0.9458932   -5.0726945    1101.8556  0.048276182  0.048156025            3 
 1903000   0.93594751    -5.095092     1095.819  0.047986471  0.048146404            7 
 1904000   0.93710243   -5.0556707    1100.8611  0.048181945  0.048136664            3 
 1905000   0.94230755   -5.1110419    1097.7728  0.048021556  0.048126981            4 
 1906000   0.94824682   -5.0697163    1097.7022  0.047993276  0.048117325            8 
 1907000     0.950903   -5.0930659    1095.7865  0.047884397  0.048107408            3 
 1908000   0.94615305   -5.0474765    1103.4269  0.048192998  0.048097525            2 
 1909000   0.96597864   -5.0895992    1097.2391  0.047897639  0.048087635            4 
 1910000   0.92910449   -5.1086313    1097.3747  0.047878478  0.048077634            2 
 1911000   0.96554947   -5.1009826    1097.6721  0.047866391  0.048067364            8 
 1912000   0.93049018    -5.093034    1099.9628  0.047941195  0.048057366            2 
 1913000   0.96711989   -5.0796998    1100.0711  0.047920853  0.048047349            7 
 1914000   0.95166756   -5.0664617    1102.9268   0.04802015  0.048037465            3 
 1915000    0.9428859   -5.1076144    1100.3145  0.047881397  0.048027528            4 
 1916000   0.94715095   -5.1000033    1103.0708  0.047976285  0.048017766            5 
 1917000   0.94114992   -5.0846085     1103.825  0.047984048  0.048007939            3 
 1918000   0.93758902   -5.0838051    1105.1063  0.048014697  0.047998115            5 
 1919000   0.94270054   -5.0919224    1101.5439  0.047834979  0.047988195            3 
 1920000   0.94237675   -5.1029079    1102.6824  0.047859478  0.047978282            5 
 1921000   0.93499399   -5.0824686    1105.3504  0.047950305   0.04796849            6 
 1922000   0.93573632   -5.0603693    1103.5006  0.047845151  0.047958433            3 
 1923000   0.93807425   -5.1242196    1104.5833  0.047867191  0.047948661            5 
 1924000   0.95425837   -5.0986044    1106.0947  0.047907774  0.047938793           10 
 1925000   0.95792057   -5.1103153     1104.524  0.047814891   0.04792873            5 
 1926000   0.95346091   -5.0644833    1104.4297  0.047785985  0.047918586            4 
 1927000   0.95269154   -5.0911811    1105.2021  0.047794592  0.047908511            7 
 1928000   0.94321423   -5.0917261    1103.0644  0.047677405  0.047898475            5 
 1929000   0.91883203   -5.1197012    1103.4868  0.047670935  0.047888316            6 
 1930000   0.95095147   -5.1091231    1104.6955  0.047698425  0.047878214            7 
 1931000    0.9301375   -5.1037516    1106.6359   0.04775746  0.047867905            3 
 1932000    0.9457579   -5.0851153    1102.7311  0.047564317  0.047857773            8 
 1933000   0.93195774   -5.0816307    1106.6607  0.047709116  0.047847641            9 
 1934000   0.95314363   -5.0961802    1107.3363  0.047713562  0.047837462            3 
 1935000   0.95239875   -5.0662132    1109.6069  0.047786686  0.047827574            3 
 1936000   0.93109575   -5.1266531    1101.9182  0.047431054  0.047817533            6 
 1937000   0.94302587   -5.1205112    1107.1929  0.047633491  0.047807235            5 
 1938000   0.92957837   -5.1038394    1104.5005   0.04749314  0.047796813            3 
 1939000   0.93263625   -5.0943772    1105.9613  0.047531429  0.047786521            8 
 1940000   0.94381384   -5.1117845    1104.7455  0.047454703  0.047776252            5 
 1941000   0.95111958   -5.1179535    1108.2382  0.047580206  0.047765982            5 
 1942000   0.93602438   -5.0837206    1105.6053  0.047442726  0.047755842            5 
 1943000   0.94648605   -5.1170701    1108.0918  0.047524951  0.047745672            2 
 1944000   0.95410682   -5.1128376    1108.3105   0.04750988  0.047735477            3 
 1945000   0.95681043   -5.1153795    1108.1245  0.047477485  0.047725315            4 
 1946000   0.93846378   -5.1352076    1107.0304  0.047406234  0.047715205            4 
 1947000   0.93800974   -5.1046312     1107.536  0.047403526  0.047705026            5 
 1948000   0.94902422   -5.0963899    1113.0611   0.04761555   0.04769503            3 
 1949000   0.91938648   -5.1188914     1108.687  0.047404098  0.047685167            5 
 1950000   0.93385235   -5.0732728    1112.6366  0.047548572  0.047675432            3 
 1951000    0.9059012   -5.1391947    1109.5494  0.047392337  0.047665413            6 
 1952000   0.92831218   -5.1188683    1114.4429  0.047576967  0.047655383            2 
 1953000   0.94211113   -5.0961509    1113.4716  0.047511163  0.047645313            3 
 1954000   0.91858261    -5.135737     1113.401  0.047483836  0.047635429           10 
 1955000   0.93320562   -5.1223665    1110.8767  0.047351946  0.047625537            4 
 1956000   0.93710035   -5.1125421    1113.1358  0.047423984  0.047615569            3 
 1957000     0.943189   -5.0982798    1118.0692   0.04760983   0.04760569            3 
 1958000   0.93964541   -5.0929485    1115.5077  0.047476492  0.047595821            4 
 1959000   0.94381992   -5.1004509    1113.6685  0.047374021  0.047586016            3 
 1960000   0.92848277   -5.1553347    1112.1275  0.047284334  0.047575869            3 
 1961000   0.93184352   -5.0896152    1117.3619  0.047482659   0.04756602            5 
 1962000   0.95687309   -5.1630494    1115.5187  0.047380171  0.047556064            5 
 1963000   0.94525198    -5.131181    1110.6825  0.047150727  0.047545957            2 
 1964000   0.95933329   -5.1539862    1115.4383  0.047328508  0.047535821            3 
 1965000   0.93665744   -5.1218448    1118.0017  0.047413132  0.047525847            3 
 1966000   0.93611058   -5.0737697    1119.2263  0.047440925  0.047515874            5 
 1967000    0.9261772   -5.1094157    1118.3583  0.047380034  0.047505879            4 
 1968000    0.9383011   -5.1002456    1121.4949  0.047488773  0.047496047            3 
 1969000   0.95666081   -5.1198333    1117.2983  0.047287047  0.047486158            3 
 1970000   0.94239888   -5.1324086    1120.8708  0.047414161  0.047476239            2 
 1971000   0.92040757   -5.1106623    1123.6159  0.047506168  0.047466589            2 
 1972000   0.94560588   -5.1077357    1122.5107  0.047435374  0.047456845            2 
 1973000   0.93103495   -5.1138081    1121.6724  0.047375923  0.047446996            4 
 1974000   0.92326506   -5.0993773    1118.5916  0.047221867  0.047437169            3 
 1975000   0.94576793   -5.0981531    1126.3178  0.047523959  0.047427366            2 
 1976000   0.93207217   -5.1314206    1119.8351  0.047226514  0.047417517            3 
 1977000   0.91833355   -5.1332704    1123.2805  0.047347857  0.047407583            3 
 1978000    0.9439296   -5.1221849     1122.428     0.047288  0.047397495            4 
 1979000   0.94835901    -5.099836    1124.2429  0.047340529  0.047387462            3 
 1980000   0.95439871    -5.087263    1123.9731  0.047305266  0.047377598            3 
 1981000   0.93751108   -5.1278768    1124.3243  0.047296158  0.047367742            4 
 1982000   0.94208626    -5.120245    1121.6475   0.04715975  0.047357662            3 
 1983000     0.936788   -5.0992335     1126.401  0.047335727  0.047347795            5 
 1984000   0.92516476   -5.1320353    1123.2991  0.047181582  0.047338016            6 
 1985000   0.91374836   -5.1146936    1119.5011  0.046998369   0.04732801            3 
 1986000   0.93700105   -5.0989735    1125.6141  0.047231205  0.047318035            3 
 1987000   0.92794819   -5.1128523    1124.6298  0.047166157  0.047308201            2 
 1988000   0.93491753   -5.0799769    1129.4029   0.04734251  0.047298394            4 
 1989000   0.93300617   -5.1143228    1126.8977  0.047213748   0.04728857           10 
 1990000   0.92662571   -5.1145978    1124.5611  0.047092173  0.047278642            7 
 1991000   0.95335331   -5.1103175    1125.6729  0.047115057  0.047268782            3 
 1992000   0.91055013   -5.1249321    1131.0253  0.047315316  0.047258955            3 
 1993000   0.93231962   -5.1494631    1122.9081  0.046952171   0.04724896            3 
 1994000   0.93623621   -5.1330042    1126.7089  0.047087466  0.047238847            3 
 1995000   0.92952583   -5.1102931    1126.3536  0.047049023  0.047228667            5 
 1996000   0.91535801   -5.1383075    1128.5408  0.047116765  0.047218636            5 
 1997000   0.93116545   -5.1180157    1125.0002  0.046945425  0.047208599            4 
 1998000   0.92882357   -5.1016811    1129.3873  0.047104907  0.047198543            4 
 1999000   0.91790735   -5.1414664    1127.1233  0.046986962  0.047188472            2 
 2000000   0.94721454   -5.1080463    1128.9781  0.047040755  0.047178709           12 
 2001000   0.92472521   -5.1414394    1133.1096  0.047189304   0.04716896            4 
 2002000   0.93187389   -5.1486318    1128.3929  0.046969399  0.047159122            4 
 2003000   0.93216306   -5.1336754    1131.3816  0.047070296  0.047149482            3 
 2004000   0.94074679    -5.123075    1129.9184  0.046985961  0.047139611            4 
 2005000   0.93495949   -5.1378301     1131.971  0.047047839  0.047129852            6 
 2006000   0.94118158   -5.1289734    1133.8671  0.047103154  0.047119969            5 
 2007000   0.92040758   -5.1383935    1131.8957  0.046997829  0.047110281            4 
 2008000   0.94409861   -5.1320521    1132.9615  0.047018654  0.047100644            4 
 2009000   0.92231793   -5.1315059    1134.8387  0.047073117   0.04709087            3 
 2010000   0.93820778     -5.10922    1136.1213  0.047102874  0.047081232            7 
 2011000   0.92538137   -5.1122135    1136.2969  0.047086728  0.047071668            2 
 2012000   0.92099876   -5.0826298    1138.2075  0.047142457  0.047061971            2 
 2013000   0.92883323   -5.1378009    1133.5217  0.046925059  0.047052323            5 
 2014000   0.91744084   -5.1344728    1135.4396  0.046981115   0.04704246            4 
 2015000   0.94693264     -5.15244    1133.0082  0.046857247  0.047032484            8 
 2016000   0.91773581   -5.1669736    1131.7736   0.04678297  0.047022541           11 
 2017000   0.94465766   -5.1418225    1135.0353  0.046894533  0.047012601            5 
 2018000    0.9194124   -5.1638985    1137.0043  0.046952604  0.047002594            3 
 2019000    0.9309653   -5.1403593    1135.8823   0.04688304  0.046992759            3 
 2020000   0.95318464   -5.1426453    1131.9964  0.046699522  0.046982776            5 
 2021000   0.93125348   -5.1286955    1136.8637  0.046877112  0.046972653            4 
 2022000    0.9354753     -5.13462    1134.8201  0.046769702  0.046962691           10 
 2023000   0.91771031   -5.1189553    1135.0892  0.046757669  0.046952605            5 
 2024000   0.92150529    -5.131271    1132.4327  0.046625192  0.046942532            4 
 2025000   0.91533379   -5.1283182    1139.4344  0.046890305  0.046932551            5 
 2026000   0.91361813   -5.1124462    1140.0576  0.046892795  0.046922533            2 
 2027000   0.91449192   -5.1229217    1136.3595  0.046717623  0.046912411            3 
 2028000   0.93855603   -5.1295415    1134.3467  0.046611879  0.046902301            4 
 2029000   0.93382262   -5.1371716    1137.5379  0.046719973  0.046892342            3 
 2030000   0.93389003   -5.1320268    1138.7096  0.046745056  0.046882448            3 
 2031000   0.93006975   -5.1125593    1136.4671  0.046630031  0.046872507            3 
 2032000   0.94256916   -5.1319865    1137.8445  0.046663569  0.046862684            5 
 2033000   0.92441785    -5.123554     1142.674  0.046838582  0.046852947            3 
 2034000   0.91144607   -5.1376813    1137.3315  0.046596671   0.04684306            3 
 2035000   0.90756503   -5.1919694    1136.7322  0.046549229  0.046832902            7 
 2036000   0.92823226    -5.173295     1137.706  0.046566223  0.046822663            4 
 2037000   0.93068124   -5.1248739    1139.3063  0.046608831  0.046812625            3 
 2038000   0.93800071    -5.136142    1142.2336  0.046705658  0.046802782            4 
 2039000   0.91002632   -5.1476025    1140.6646  0.046618629  0.046792884            7 
 2040000   0.91715959   -5.1308029     1143.936  0.046729413  0.046782965            6 
 2041000   0.90834626   -5.1378162    1138.1761  0.046471342  0.046773044            2 
 2042000   0.93996461   -5.1851024    1139.5061  0.046502859  0.046762982            2 
 2043000   0.94046303   -5.1503978    1140.5573  0.046522976  0.046752869            2 
 2044000     0.911635   -5.1213057    1151.5513  0.046948438  0.046742966            5 
 2045000   0.94749737   -5.1430264      1139.69  0.046442136  0.046733095            4 
 2046000   0.91887983   -5.1560918    1140.9239  0.046469692  0.046723139            4 
 2047000   0.94036019   -5.1499346    1142.1359  0.046496332  0.046713048            3 
 2048000   0.92540822   -5.1380834    1145.7552  0.046620899   0.04670317            5 
 2049000   0.91750748    -5.138926    1146.7516   0.04663867  0.046693371            6 
 2050000   0.91823918   -5.1319309    1147.4446  0.046644091  0.046683485            4 
 2051000   0.93006027   -5.1512754    1146.6585  0.046589409  0.046673602            6 
 2052000   0.91091985   -5.1163873    1146.2982  0.046552071  0.046663771            3 
 2053000   0.94670934   -5.1249409    1149.1218   0.04664401  0.046653935            6 
 2054000   0.93156294   -5.1359211    1147.4653  0.046554092  0.046644053            4 
 2055000   0.92606742   -5.1483717    1144.9278  0.046428541  0.046634201            5 
 2056000   0.92786375   -5.1546911    1147.4326  0.046507481  0.046624316            5 
 2057000   0.91428658   -5.1064692    1149.7282  0.046577874  0.046614509            5 
 2058000   0.93603515   -5.1856524    1149.6394  0.046551643  0.046604506            4 
 2059000   0.93240916   -5.1350352    1151.2563  0.046594476  0.046594624            6 
 2060000    0.9300486   -5.1591775    1149.6464  0.046506732    0.0465847            4 
 2061000   0.92945815   -5.1225234    1151.1419  0.046544633  0.046574701            3 
 2062000   0.90859471   -5.1181202    1148.9958  0.046435331  0.046564847            6 
 2063000   0.91958574   -5.1296694    1149.5362  0.046434651  0.046555004            4 
 2064000   0.90902077   -5.1166933    1151.8836  0.046506927  0.046545093            4 
 2065000   0.90810598   -5.1257327    1153.6828  0.046557015  0.046535326            3 
 2066000   0.91492089   -5.1440873    1155.5778  0.046610913  0.046525545            4 
 2067000   0.92694433   -5.1656543    1151.5064  0.046424221  0.046515859            5 
 2068000   0.92039579   -5.1361036    1153.4825  0.046481403  0.046506143            5 
 2069000   0.93381885    -5.173801    1151.8256  0.046392204   0.04649621            8 
 2070000   0.93144921   -5.1732159    1154.5934  0.046481217  0.046486471            4 
 2071000    0.9288115    -5.124721    1154.9831  0.046474455  0.046476722            7 
 2072000   0.90847348   -5.1580169    1155.0014  0.046452758  0.046467043            6 
 2073000   0.92512306   -5.1653004    1156.6663  0.046497277  0.046457228            6 
 2074000   0.93496711   -5.1240079    1154.3577    0.0463821  0.046447492            2 
 2075000    0.9192218   -5.1600082    1154.5598  0.046367862  0.046437687           10 
 2076000   0.91396316   -5.1611603    1154.2586  0.046333438  0.046427924            9 
 2077000   0.92182733   -5.1569622    1156.3312  0.046394288  0.046418179            2 
 2078000   0.89838865   -5.1119758     1159.902  0.046515159  0.046408354            6 
 2079000    0.9296621   -5.1276586    1155.0893  0.046299874   0.04639877            3 
 2080000   0.92481363   -5.1389733    1155.9727  0.046313009   0.04638883            5 
 2081000   0.93259913   -5.1604993    1154.4294  0.046228952  0.046379094            7 
 2082000   0.93307339   -5.1521832    1152.9978  0.046149449   0.04636932            3 
 2083000   0.93391933   -5.1496224    1161.5397  0.046469022  0.046359546            3 
 2084000   0.91358848    -5.159636    1159.2765  0.046356225  0.046349568            4 
 2085000   0.90705152   -5.1211811    1160.7059  0.046391123  0.046339853            3 
 2086000   0.92440508   -5.1530618    1157.8386  0.046254339  0.046330023            4 
 2087000   0.93434645   -5.1718009    1158.9982  0.046278478  0.046320085            4 
 2088000   0.92714975   -5.1601681    1157.3347  0.046189923  0.046310213            4 
 2089000   0.91713956   -5.1640656     1158.695  0.046222075  0.046300376            4 
 2090000   0.93459879   -5.1587931    1155.1696  0.046059394   0.04629051            7 
 2091000   0.90218405   -5.1227179     1161.351  0.046283718  0.046280754           12 
 2092000   0.90654364   -5.1482582    1162.1412  0.046293069  0.046270867            7 
 2093000   0.92612226   -5.1594674     1159.081  0.046149106  0.046261178            3 
 2094000   0.91907646   -5.1491789      1156.62  0.046029129  0.046251258            5 
 2095000   0.93670953   -5.1591321    1160.1997  0.046149549  0.046241323            3 
 2096000    0.9239825   -5.1244227    1163.0361  0.046240302  0.046231508            5 
 2097000    0.9061436    -5.175569    1161.3518  0.046151319  0.046221639            8 
 2098000   0.92190905   -5.1368766    1164.3051  0.046246628  0.046211994            7 
 2099000   0.91760637   -5.1448604    1163.7097  0.046200958  0.046202313            4 
 2100000   0.90906431   -5.1566615    1162.3621   0.04612548  0.046192596            6 
 2101000   0.92093326   -5.1635498    1167.5947   0.04631107  0.046182801            1 
 2102000   0.91152792   -5.1764951    1166.0466  0.046227665  0.046173121           13 
 2103000   0.92063553   -5.1386167    1167.1481  0.046249329  0.046163533            3 
 2104000   0.90741256   -5.1604402    1164.3554   0.04611674  0.046153853            4 
 2105000   0.90317688   -5.1736478    1165.8607  0.046154421  0.046144238            7 
 2106000    0.9096857   -5.1486455     1171.689   0.04636313  0.046134764            3 
 2107000   0.93770752   -5.1478745    1166.3597  0.046130347  0.046125296            5 
 2108000   0.91978945   -5.1610892    1166.8924  0.046129523  0.046115796            3 
 2109000   0.93258283   -5.2169544    1165.6279  0.046057686  0.046106299            4 
 2110000   0.91445761   -5.1746561    1163.1462  0.045937845  0.046096622            5 
 2111000    0.9151511   -5.1767514    1168.5663  0.046130046  0.046087005            6 
 2112000   0.90207286    -5.156179    1166.6097  0.046031002  0.046077582            9 
 2113000   0.89695536   -5.1614666    1169.4801  0.046122421  0.046068061           12 
 2114000   0.91865116   -5.1730644     1168.986  0.046081124  0.046058626            3 
 2115000    0.9218883   -5.1867806    1168.2709  0.046031162  0.046049132            6 
 2116000   0.91055574   -5.1298391    1171.1048  0.046121014  0.046039657           11 
 2117000   0.93180611   -5.1655195    1167.9575  0.045975337  0.046030275            4 
 2118000   0.89902763   -5.1663903     1170.329   0.04604694  0.046021048            6 
 2119000   0.91750336   -5.1714711    1173.0605   0.04613263  0.046011723            4 
 2120000   0.92373231   -5.1782126    1176.2566  0.046236502  0.046002383            8 
 2121000   0.92917082   -5.2048886    1171.0727  0.046011029  0.045992928            5 
 2122000     0.922208    -5.150138    1171.0063  0.045986737  0.045983448            3 
 2123000   0.92817567   -5.1598525    1177.2988  0.046212073  0.045974033            2 
 2124000   0.92312714   -5.1784009    1170.6511  0.045929501  0.045964797            8 
 2125000   0.93457416   -5.1769518    1171.1117  0.045925947  0.045955381            4 
 2126000   0.91841266   -5.1414243    1176.2426  0.046105464  0.045946084            4 
 2127000   0.89079752   -5.1654578    1174.5603  0.046017876  0.045936869            7 
 2128000   0.91841067   -5.1671694    1177.0312  0.046093016  0.045927811            3 
 2129000    0.9011987    -5.186231    1175.8187  0.046023904  0.045918628            8 
 2130000   0.92711394   -5.1246944    1181.1545  0.046211054  0.045909369            4 
 2131000   0.90244671   -5.1796551    1176.9357  0.046024391  0.045900218            4 
 2132000   0.91420182   -5.1701255    1177.7645  0.046035197  0.045891005            3 
 2133000   0.92846979   -5.1579406    1175.5465  0.045926962  0.045881789            7 
 2134000   0.93652884   -5.1548522    1178.0985  0.046005097  0.045872689            3 
 2135000   0.89580508   -5.1783711    1175.4404  0.045879797  0.045863461            5 
 2136000   0.91931398    -5.156347    1179.0695  0.045999902  0.045854251            4 
 2137000   0.91846472   -5.1623749     1177.853   0.04593094  0.045845168            6 
 2138000   0.94292434   -5.1632485    1180.6492  0.046018444  0.045835994            6 
 2139000   0.91423617   -5.1825604    1177.0235  0.045855678  0.045826872            5 
 2140000   0.91066527   -5.1845026    1182.0087  0.046028374  0.045817695            4 
 2141000   0.91355917   -5.1489981    1183.5708   0.04606768  0.045808648            3 
 2142000   0.90947074   -5.1752651    1182.6739  0.046011277  0.045799485            5 
 2143000    0.9209962   -5.1807564    1180.9396  0.045922368  0.045790351            4 
 2144000   0.90649849   -5.1531582    1181.6304  0.045927798   0.04578127            3 
 2145000   0.91539945   -5.1561598    1186.6954  0.046103162  0.045772013            4 
 2146000   0.90875793   -5.1777603    1180.6513  0.045846973  0.045762916            4 
 2147000   0.89356255   -5.1710838     1182.441  0.045895087  0.045753772            4 
 2148000   0.89796889   -5.1492151    1181.8531  0.045850913   0.04574459            3 
 2149000   0.91203795    -5.181874    1187.3534  0.046042866  0.045735665            5 
 2150000   0.92981308   -5.1974954    1183.5889  0.045875537  0.045726805            7 
 2151000   0.90654793   -5.1964199    1176.8504   0.04559315   0.04571758            7 
 2152000   0.91063872   -5.1985665     1183.839  0.045842589   0.04570851            3 
 2153000    0.9095806   -5.1811189    1186.7809  0.045935165  0.045699326            4 
 2154000   0.89612234   -5.1352454    1186.7576  0.045912937  0.045690102           12 
 2155000   0.91206881   -5.1736248    1186.6345  0.045886873   0.04568119            3 
 2156000   0.90176652   -5.1753209    1184.7539    0.0457929  0.045672051            8 
 2157000   0.90026975   -5.2014403    1183.0078  0.045704212  0.045662707           12 
 2158000   0.90785447   -5.1542654    1188.8789  0.045909752  0.045653558            4 
 2159000   0.91396041   -5.1607456    1189.8423  0.045925671  0.045644624            3 
 2160000   0.89650349    -5.167825     1187.857  0.045827816  0.045635527            5 
 2161000   0.89783587   -5.1655969    1185.9479  0.045732988  0.045626373            4 
 2162000   0.90876037   -5.1744827    1184.1407  0.045642178  0.045617143            6 
 2163000   0.90143592   -5.1764784    1189.9599  0.045845272  0.045607952            6 
 2164000   0.90013982   -5.1761149    1186.6297  0.045695846  0.045598676            3 
 2165000   0.89379932   -5.1960657    1183.0641  0.045537496  0.045589481            3 
 2166000   0.90503977   -5.2182671    1185.4707  0.045609059  0.045580525            3 
 2167000   0.91646851   -5.1565369    1187.5908  0.045669543  0.045571337            3 
 2168000   0.90779145   -5.1926778      1192.13  0.045822955  0.045562026            5 
 2169000    0.9013676   -5.1883982    1188.6571    0.0456684  0.045552757            4 
 2170000   0.90225062   -5.2302178    1183.5608  0.045451643  0.045543466           15 
 2171000   0.89986086   -5.1455682    1187.7646  0.045592068  0.045534129            3 
 2172000   0.92432414   -5.2090172    1187.3717  0.045556003  0.045524777            2 
 2173000   0.90075994   -5.1751744    1189.3983  0.045612759  0.045515497            6 
 2174000   0.91143143   -5.1719038    1193.9078  0.045764634   0.04550624            4 
 2175000    0.9060372   -5.1828418    1189.1197  0.045560142  0.045496926            5 
 2176000   0.93746582   -5.1855157    1195.2105   0.04577246  0.045487574            5 
 2177000   0.91046941   -5.1913857    1191.1135  0.045594606  0.045478403            3 
 2178000   0.91247587   -5.1766625    1191.4704  0.045587327  0.045469095            5 
 2179000   0.89053533   -5.1837711    1192.0591  0.045588922   0.04545996            4 
 2180000   0.91127962   -5.2032292    1190.8837  0.045523077  0.045450537            3 
 2181000   0.90680961   -5.1556084    1195.5879  0.045681945   0.04544129            3 
 2182000   0.89875756   -5.2104384    1191.9432  0.045521816  0.045431868            3 
 2183000   0.89334644   -5.2082665     1190.458  0.045444264  0.045422644            4 
 2184000   0.90854458   -5.2102392    1189.8687  0.045400975  0.045413234            3 
 2185000    0.8903102   -5.1974448    1190.9985  0.045423284  0.045403685            5 
 2186000   0.92165831   -5.1996875    1194.4776  0.045535134  0.045394049            4 
 2187000   0.88897755   -5.1499411    1189.9306  0.045341054  0.045384521            7 
 2188000   0.88300381   -5.1963509    1192.4578  0.045416584  0.045375174            4 
 2189000   0.89256267   -5.2139615    1191.6053  0.045363381  0.045365826            7 
 2190000   0.90470381   -5.2093436    1193.0007  0.045395764  0.045356378            6 
 2191000   0.90979422   -5.1632119    1198.8327  0.045596863  0.045346979            5 
 2192000   0.89991536   -5.2150368    1193.2387  0.045363394  0.045337711            6 
 2193000    0.8977981   -5.1577923    1197.2648  0.045495699  0.045328491            4 
 2194000   0.90221816   -5.1938829    1192.7719  0.045304311  0.045319283            8 
 2195000   0.90344589    -5.227023    1189.9346  0.045175954  0.045309949            6 
 2196000    0.8767439   -5.1968301    1194.7584  0.045338434  0.045300512            4 
 2197000   0.89351458   -5.1460346    1200.3096  0.045528356  0.045291267            6 
 2198000   0.90366959   -5.1980171    1195.8396  0.045338171  0.045282077           10 
 2199000   0.91343625   -5.1855152    1199.0295  0.045438438  0.045272776            3 
 2200000   0.89337336   -5.1779371    1199.7995  0.045446952  0.045263614            4 
 2201000   0.89315691   -5.1804742    1195.4631   0.04526212   0.04525417            3 
 2202000   0.91082507   -5.2301488    1197.0963   0.04530337  0.045244797            5 
 2203000   0.88667744   -5.2132511    1195.2936  0.045214617  0.045235279            4 
 2204000   0.91674767    -5.178388    1200.4686  0.045389768  0.045225934            6 
 2205000   0.90134673    -5.202394    1196.9703  0.045236974  0.045216654            3 
 2206000   0.92872792   -5.2163072    1194.3948  0.045119176  0.045207402            5 
 2207000   0.90305272   -5.2189574    1200.9063  0.045344596  0.045198057            4 
 2208000   0.91437472   -5.1966206    1201.7387  0.045355475  0.045188891            3 
 2209000   0.90496717   -5.2453377    1195.0097  0.045081097  0.045179655            6 
 2210000   0.90114858   -5.2233898    1199.9704  0.045247751  0.045170366            9 
 2211000   0.89645725   -5.1874811    1203.3197  0.045353524  0.045161014            3 
 2212000   0.91331609   -5.1807237    1201.6576  0.045270405   0.04515182            5 
 2213000   0.91357568   -5.1660872    1204.4129  0.045353702  0.045142613            4 
 2214000   0.89449229   -5.1965104    1202.4405  0.045258977  0.045133506            3 
 2215000   0.90194098   -5.2127905    1202.9444  0.045257501  0.045124238            4 
 2216000    0.8881825   -5.1824708    1200.8671  0.045158962  0.045114921            5 
 2217000   0.89271191   -5.1772365    1206.9873  0.045368639  0.045105675            6 
 2218000   0.89084376   -5.2298821     1203.026  0.045199353  0.045096485            9 
 2219000    0.9140398   -5.1894317    1205.0128  0.045253599   0.04508736            2 
 2220000   0.89593148   -5.2270089    1203.2506  0.045167065  0.045078039            6 
 2221000   0.88844594   -5.1544531    1205.1572  0.045218267  0.045068854            6 
 2222000   0.90266388   -5.1987247    1207.0165  0.045267645   0.04505964            4 
 2223000   0.89994334   -5.2096205    1206.0003  0.045209186  0.045050379            4 
 2224000   0.90224396   -5.1590419     1207.868  0.045258841  0.045041131            5 
 2225000   0.88738504   -5.1994768    1205.2334  0.045139826  0.045031934            2 
 2226000   0.88898637   -5.1907738    1206.6344  0.045171999  0.045022667            4 
 2227000   0.89304983   -5.1806463    1204.5042  0.045072003  0.045013311            8 
 2228000    0.8793588   -5.1976146    1207.3205   0.04515711  0.045004073            5 
 2229000   0.88603944   -5.1932207    1209.6211  0.045222863  0.044994841            3 
 2230000   0.90511131   -5.1992453    1205.8072  0.045060061  0.044985509            4 
 2231000   0.87383232   -5.1971685    1207.1933  0.045091637  0.044976083            4 
 2232000   0.89214293   -5.2066217    1207.9967  0.045101429  0.044966776            7 
 2233000   0.91827295   -5.1762067    1206.1445  0.045012111  0.044957356            6 
 2234000   0.90930833   -5.2165391    1208.7597  0.045089515  0.044948085            3 
 2235000   0.90087052   -5.2083229    1211.3332  0.045165294  0.044939029            4 
 2236000   0.91385859   -5.1903728    1210.5981  0.045117698  0.044929759            3 
 2237000   0.89451944   -5.2120775    1209.3979  0.045052819  0.044920553            7 
 2238000   0.89520522   -5.1970036    1209.0434   0.04501949  0.044911481            3 
 2239000   0.86580687   -5.2069466    1210.8575    0.0450669  0.044902405            3 
 2240000   0.89266535   -5.1863748    1215.7289  0.045228009  0.044893349            6 
 2241000   0.90225627   -5.2019693    1210.7486  0.045022631  0.044884319            8 
 2242000   0.89752396    -5.251512    1209.4442  0.044954068  0.044875126            3 
 2243000   0.89627388   -5.1639239    1213.3742  0.045080034  0.044865998            3 
 2244000   0.90071583   -5.2055057    1213.2607  0.045055729  0.044856757            2 
 2245000   0.91238809    -5.224511    1209.6269  0.044900774  0.044847481            5 
 2246000    0.8804471   -5.2054273    1213.2968  0.045016947  0.044838437            5 
 2247000   0.88121608   -5.2155084    1211.6526  0.044935938  0.044829281            5 
 2248000    0.9004169    -5.218597    1212.8272  0.044959491  0.044819968            7 
 2249000   0.89985749   -5.2024544    1211.2434  0.044880813   0.04481083            4 
 2250000   0.89020538   -5.2090174    1214.8358  0.044993917  0.044801639            6 
 2251000   0.89564879   -5.2261994    1209.6113  0.044780517    0.0447924            6 
 2252000   0.91432433   -5.2287297    1212.3706  0.044862738   0.04478319            5 
 2253000   0.88882683     -5.20149    1213.6962  0.044891854  0.044773982            3 
 2254000   0.86752953   -5.2330274    1212.9978  0.044846118  0.044764804            7 
 2255000   0.87865391   -5.2158163    1213.1381  0.044831416  0.044755578           10 
 2256000    0.8779331   -5.1862476    1214.8931  0.044876369    0.0447464            4 
 2257000   0.89096542   -5.2203934    1219.3898  0.045022514  0.044737414            3 
 2258000   0.89918446   -5.1957953    1216.6991  0.044903272  0.044728493            6 
 2259000   0.91795905   -5.2331022    1215.2688  0.044830634  0.044719447            5 
 2260000    0.9048288   -5.2488464    1214.0321  0.044765195  0.044710245            6 
 2261000   0.88576621   -5.2169755    1217.6081  0.044877195  0.044701074            5 
 2262000   0.88523136   -5.2119188    1216.5769  0.044819368  0.044692042            4 
 2263000    0.8910251   -5.2254607    1215.9618  0.044776912   0.04468295            5 
 2264000    0.8834715    -5.224929    1218.7026  0.044858018  0.044673834            2 
 2265000   0.87944818   -5.2117376    1216.7706  0.044767131  0.044664748            9 
 2266000   0.88144192   -5.2454252     1215.823  0.044712527  0.044655586           10 
 2267000   0.87754264   -5.2130157    1219.3671  0.044823083  0.044646553            4 
 2268000   0.88603661   -5.2136446    1220.0308  0.044827706  0.044637354            8 
 2269000   0.90395535   -5.2036585    1222.3719  0.044893929  0.044628251            4 
 2270000   0.88433892   -5.2149137    1218.6842  0.044738774  0.044619021            4 
 2271000   0.87659608   -5.1944627    1224.6062  0.044936378  0.044609846            9 
 2272000   0.88397993   -5.2197254    1219.3283  0.044723016  0.044600499            7 
 2273000   0.90223749   -5.2270199    1216.9187  0.044614999  0.044591111            1 
 2274000    0.8937369   -5.2059812    1221.2219  0.044753076  0.044581742            4 
 2275000   0.88951124   -5.1823364    1222.5125  0.044780679   0.04457248            2 
 2276000   0.88710278   -5.2265731    1222.4271  0.044757877   0.04456334            3 
 2277000   0.87336734   -5.2048829    1219.6246  0.044635652  0.044554172            3 
 2278000   0.86678428   -5.1811483    1220.7252  0.044656321  0.044544955            7 
 2279000    0.8846852   -5.1961059    1222.9714  0.044718859  0.044535718            4 
 2280000   0.89880455   -5.2048942    1224.2285  0.044745195  0.044526414            4 
 2281000   0.88152551   -5.2156044    1222.3868  0.044658294  0.044517021            3 
 2282000   0.86612961   -5.2554848    1219.5004  0.044533317  0.044507435            4 
 2283000   0.89324007   -5.2135791    1221.5741  0.044589507  0.044497926            4 
 2284000   0.89562251   -5.2217835    1220.4674  0.044529605  0.044488547            6 
 2285000   0.89334111   -5.1709129    1224.0753  0.044641695  0.044479254            3 
 2286000    0.8764223   -5.2269669    1223.4651  0.044599924  0.044469833            3 
 2287000   0.89116478    -5.201328    1221.6819  0.044515447  0.044460371            6 
 2288000   0.88028321   -5.1938267    1221.8929  0.044503675   0.04445108            2 
 2289000   0.87887151   -5.2493832    1221.6481  0.044475319  0.044441634            4 
 2290000   0.89103972   -5.2076575    1226.9097  0.044647368  0.044432228            3 
 2291000    0.8912047   -5.1998434    1224.0841  0.044525102  0.044422899            4 
 2292000   0.88661783   -5.2051785    1226.1585  0.044581098  0.044413706            4 
 2293000   0.87898478   -5.1931671    1228.0683  0.044631062  0.044404281           12 
 2294000   0.86777059   -5.2273955    1222.6796  0.044415854  0.044394826            3 
 2295000    0.8876087   -5.1911211    1222.5722  0.044392598  0.044385373            5 
 2296000   0.89541781   -5.2367902    1225.9957   0.04449752  0.044375976            7 
 2297000   0.91496888   -5.2093005    1225.2425  0.044450822  0.044366505            4 
 2298000   0.85639243   -5.2423947    1223.0619  0.044352404  0.044357103            5 
 2299000    0.8866318   -5.2529748    1218.9552  0.044184254   0.04434756            6 
 2300000   0.88679441   -5.2239025    1222.5783  0.044296314  0.044337898            5 
 2301000   0.89344217   -5.2366046    1223.6551  0.044316062  0.044328335            5 
 2302000   0.87956247   -5.2499664    1226.1126  0.044385772  0.044318607            4 
 2303000   0.88070634   -5.2552201    1224.1336  0.044294889  0.044309039            5 
 2304000   0.85718706    -5.183825    1224.5091  0.044289248  0.044299629            3 
 2305000   0.86936407     -5.21853    1226.0299  0.044325015  0.044289958            5 
 2306000   0.88299219   -5.2092485    1225.9704  0.044303642  0.044280404            6 
 2307000    0.8980608   -5.2034598    1225.1363  0.044254311  0.044270771            6 
 2308000    0.8859315    -5.228351    1226.2341  0.044274773   0.04426118            6 
 2309000   0.87848935   -5.2119173    1227.6904  0.044308157   0.04425169            4 
 2310000    0.8864579   -5.2362346    1225.5113  0.044210364  0.044242045            3 
 2311000   0.88102498   -5.2053467    1230.9662  0.044387934  0.044232531            3 
 2312000    0.8982061   -5.2307977    1229.8938  0.044330083  0.044223109            5 
 2313000   0.86695832   -5.2404284     1225.177  0.044140977  0.044213488           18 
 2314000   0.87905172    -5.217174    1227.0752  0.044190262  0.044203854            6 
 2315000   0.89326082   -5.2626206    1223.7674  0.044052101  0.044194154            3 
 2316000    0.8663851    -5.234193    1225.6152  0.044099569  0.044184346            5 
 2317000   0.88295746   -5.2276542    1230.6402  0.044261263   0.04417462            5 
 2318000   0.87909768   -5.2512291    1226.7426  0.044102049   0.04416481           10 
 2319000    0.8717613   -5.2653813    1228.2144  0.044135921   0.04415523            7 
 2320000   0.88300148   -5.2076162    1234.4192  0.044339772  0.044145637            7 
 2321000   0.87585834   -5.2260444    1231.0409  0.044199372  0.044136126            4 
 2322000   0.88709265   -5.2430589    1231.0427  0.044180403  0.044126763           14 
 2323000   0.86901728   -5.2267992    1234.9432  0.044301308  0.044117175            4 
 2324000   0.87316663   -5.2494432    1226.4081  0.043976195  0.044107603            6 
 2325000   0.89262834   -5.2160608    1232.6425  0.044180733   0.04409799            6 
 2326000   0.89148182   -5.2310556    1226.1744  0.043930008  0.044088356            5 
 2327000   0.86205311   -5.2404087    1230.1137  0.044052201  0.044078549            6 
 2328000   0.87399614   -5.2017177    1234.8338   0.04420224  0.044068803            7 
 2329000    0.8874427   -5.2197978    1228.7884  0.043966954  0.044059328            4 
 2330000   0.88568444   -5.2416503    1231.4278  0.044042483  0.044049731            6 
 2331000   0.86756861   -5.2589039    1230.4016  0.043986903  0.044040036            9 
 2332000   0.88613868   -5.1948221    1232.5154  0.044043574  0.044030433            5 
 2333000   0.88152706   -5.2341119    1238.0463  0.044222257  0.044020915           10 
 2334000   0.88671494    -5.224521    1231.8573  0.043982336  0.044011293            3 
 2335000   0.87484515   -5.2327521    1235.4336  0.044091133  0.044001777            3 
 2336000   0.88339713   -5.2451973    1232.9717  0.043984434  0.043992394           10 
 2337000   0.85983406   -5.2320113    1234.9588   0.04403647  0.043982785            5 
 2338000   0.87515426   -5.2520352     1234.178  0.043989805  0.043973112            5 
 2339000    0.8872689   -5.2516739    1232.4438  0.043909214  0.043963541            5 
 2340000   0.87233797   -5.2421208    1235.0143  0.043981991   0.04395385            4 
 2341000   0.90673978    -5.241728    1233.6774  0.043915613  0.043944162            7 
 2342000   0.85945374   -5.2440612    1231.9877  0.043836739  0.043934557            5 
 2343000   0.88894754    -5.248032    1233.7607  0.043881088  0.043924812            4 
 2344000   0.88037436   -5.2279322    1233.8062  0.043863985   0.04391509            4 
 2345000   0.87794644   -5.2348833    1234.3276  0.043863811  0.043905324            3 
 2346000    0.8746972   -5.2189094    1232.6205  0.043784475  0.043895433            7 
 2347000   0.87659155   -5.2452888    1231.6718  0.043732135  0.043885657            2 
 2348000   0.88886799   -5.2245493    1234.7398  0.043822395  0.043875875            4 
 2349000   0.86957194   -5.2170755    1235.0603  0.043815108  0.043866114            4 
 2350000   0.88327956   -5.2399507    1241.0651    0.0440094  0.043856397            2 
 2351000   0.86431969   -5.2468592     1235.903  0.043807706  0.043846636            7 
 2352000   0.87485466   -5.2546378    1232.1701  0.043656819  0.043836956            4 
 2353000    0.8749618   -5.2346381    1237.9582  0.043843256  0.043827255            5 
 2354000   0.88735243   -5.2284686    1239.5865  0.043882274  0.043817646            3 
 2355000    0.8883664   -5.2255576    1241.5824  0.043934268  0.043807985            2 
 2356000   0.86957008   -5.2232155    1238.3979  0.043802983  0.043798301            3 
 2357000    0.8603294   -5.2245099    1236.1313   0.04370426  0.043788551            3 
 2358000   0.88185204    -5.253316    1233.8152  0.043603873  0.043778695            7 
 2359000   0.88619862   -5.2213007    1238.7408   0.04375939  0.043768885            4 
 2360000   0.87214489   -5.2305236    1236.5554  0.043663679  0.043759094            4 
 2361000   0.85915063   -5.2932907    1237.9916  0.043695876  0.043749125            5 
 2362000   0.86090015   -5.2511858    1238.2207   0.04368546  0.043739339            4 
 2363000   0.88886453   -5.2471423     1237.931  0.043656755  0.043729549            2 
 2364000   0.87534688   -5.2717336    1240.7568  0.043737901  0.043719805            6 
 2365000    0.8805294   -5.2404351    1241.4225  0.043742865  0.043710063            4 
 2366000   0.87304723   -5.2286892    1240.1437  0.043679337  0.043700308            4 
 2367000   0.86746636   -5.2430149    1238.1458  0.043590544   0.04369081            6 
 2368000   0.85857118   -5.2513747    1239.2686  0.043611647   0.04368127            8 
 2369000   0.88226473     -5.25803    1239.4224  0.043598648  0.043671645            6 
 2370000   0.89213045   -5.2544623    1240.7163   0.04362575  0.043662061            8 
 2371000   0.87977283   -5.2589196    1240.9867  0.043616853  0.043652465            9 
 2372000   0.86831518   -5.2470079    1241.5627    0.0436187  0.043642881            7 
 2373000   0.87339452   -5.2323035    1245.8195  0.043749805  0.043633322            3 
 2374000   0.85523966    -5.254769    1244.4777  0.043684277  0.043623954           14 
 2375000   0.85373245    -5.259558     1245.683  0.043708174  0.043614448            5 
 2376000    0.8659573   -5.2262903    1242.5521   0.04357997  0.043604947            3 
 2377000   0.85173304   -5.2844033    1243.9637  0.043611125   0.04359543            7 
 2378000   0.87004544   -5.2471809    1242.6588  0.043547058  0.043585977            5 
 2379000   0.87523998   -5.2502687    1246.6587  0.043668862  0.043576549            7 
 2380000   0.86459823    -5.277102    1245.3928   0.04360619  0.043567058            8 
 2381000   0.86451631   -5.2590884    1249.1809  0.043720456  0.043557522            7 
 2382000   0.86900717   -5.2345223    1249.0938  0.043699054  0.043548148            5 
 2383000   0.86342622   -5.2841458    1247.4751  0.043624113  0.043538752            4 
 2384000   0.87261921    -5.268446    1243.5092  0.043467184  0.043529251            5 
 2385000   0.87213653   -5.2674423    1244.4363  0.043481352  0.043519644            4 
 2386000   0.87975554   -5.2294559    1251.7442  0.043718365  0.043510026            3 
 2387000   0.88454882   -5.2673154    1247.9395  0.043567223  0.043500488            4 
 2388000   0.86849865   -5.2253765    1246.2641  0.043490513   0.04349089            4 
 2389000   0.85896207   -5.2323723    1244.4325  0.043408416   0.04348143            2 
 2390000   0.86093174    -5.262936    1245.2095  0.043417346  0.043471729           10 
 2391000   0.86183431   -5.2565048    1249.3562  0.043543713  0.043462085           15 
 2392000   0.86574886   -5.2356636    1247.9685  0.043477163   0.04345243            6 
 2393000   0.85974006   -5.2804232    1243.7192  0.043311018  0.043442818            7 
 2394000   0.85459153   -5.2415517    1250.9126  0.043543324  0.043433062            3 
 2395000   0.87187414   -5.2730457    1244.2326  0.043292714  0.043423517            9 
 2396000   0.87298122    -5.261342     1246.544  0.043355035  0.043413918            5 
 2397000   0.85665596   -5.2791719    1244.1989   0.04325542  0.043404266            8 
 2398000   0.86670531   -5.2723507    1247.9164  0.043366568   0.04339453           12 
 2399000   0.85884332    -5.250817    1243.1304  0.043182244  0.043384802            8 
 2400000   0.87361094   -5.2485132      1250.25  0.043411459  0.043375111            5 
 2401000    0.8504099    -5.276943    1246.7418  0.043271617  0.043365374            9 
 2402000    0.8801802   -5.2303479    1252.3468  0.043448058  0.043355909            5 
 2403000   0.85443014   -5.2545249    1247.8995  0.043275748  0.043346258            8 
 2404000   0.86749712    -5.252229    1254.1508  0.043474446  0.043336543            4 
 2405000   0.87199681   -5.2454474    1250.6666  0.043335641  0.043326814            5 
 2406000   0.85112159   -5.2480346    1249.8437  0.043289126  0.043317057            2 
 2407000   0.85970733   -5.2623228    1251.6543   0.04333383  0.043307461            2 
 2408000   0.88042553   -5.2467772    1250.4811  0.043275233  0.043297729            5 
 2409000   0.87661407   -5.2608609     1248.748  0.043197317  0.043287908            5 
 2410000   0.88093095   -5.2669688    1251.9285  0.043289366   0.04327799            4 
 2411000   0.86982775   -5.2521444    1250.0047  0.043204918  0.043268294            6 
 2412000   0.85291935   -5.2700737    1245.2872   0.04302402  0.043258454            7 
 2413000   0.85657787   -5.2550243    1249.8677  0.043164377  0.043248517            9 
 2414000   0.86744533   -5.2860051    1250.4936  0.043168104  0.043238679            3 
 2415000    0.8554374   -5.2798631    1247.3476   0.04304167  0.043228821            8 
 2416000   0.84501105   -5.2503018    1250.7344  0.043140674   0.04321895            7 
 2417000   0.86086914   -5.2596572    1254.7932  0.043262762  0.043209223            2 
 2418000   0.87371886   -5.2766157    1247.3066  0.042986855  0.043199463            3 
 2419000   0.86044403   -5.2964365    1248.7137  0.043017559  0.043189684            9 
 2420000   0.86023023   -5.3057389    1247.9655  0.042974017  0.043179738            6 
 2421000   0.88762072   -5.2587304    1252.9331  0.043127259  0.043169701            8 
 2422000   0.87383787   -5.2682248    1251.2946  0.043053075  0.043159752            7 
 2423000   0.87967131   -5.2579468    1251.2656   0.04303431   0.04314975            7 
 2424000   0.86995567   -5.2566861    1251.6783  0.043030743  0.043139827            3 
 2425000   0.87313946   -5.2613384    1253.3112  0.043069112  0.043129986            7 
 2426000   0.85216157   -5.2896911    1251.0246  0.042972816  0.043119977            4 
 2427000   0.87153513   -5.2819584    1248.8621  0.042880857  0.043110014            3 
 2428000    0.8847121   -5.2590492    1252.4536  0.042986462  0.043100054            7 
 2429000   0.86779089   -5.2796424    1250.9601  0.042917527  0.043090122            8 
 2430000   0.86983201     -5.29086    1250.3325  0.042878342  0.043080114            4 
 2431000   0.84253179   -5.2790015    1252.6656  0.042940683  0.043070175            7 
 2432000   0.86105833   -5.2468579    1252.2227  0.042907849  0.043060259            6 
 2433000   0.85823573   -5.2635656    1254.5545  0.042970081  0.043050375            7 
 2434000   0.86847343   -5.2596798    1254.8758  0.042963429  0.043040467           11 
 2435000   0.85953754   -5.2793339    1252.1991  0.042854179  0.043030607            4 
 2436000   0.85661513   -5.2640781    1252.0231  0.042830566  0.043020663            4 
 2437000   0.86719005   -5.2737801    1251.4192  0.042792339  0.043010776            7 
 2438000   0.86016243   -5.2900884    1251.3867  0.042773678  0.043000746            4 
 2439000   0.84606668   -5.2713582    1252.0594  0.042779123  0.042990773            3 
 2440000    0.8590282   -5.2572789    1259.6338   0.04302028  0.042981042            5 
 2441000   0.86805105   -5.2800704    1248.8879    0.0426358  0.042970998            8 
 2442000    0.8661517   -5.2698198    1256.9137  0.042892224  0.042961079            4 
 2443000   0.86756884   -5.2778389     1252.239  0.042715208  0.042951251            7 
 2444000   0.87521455   -5.2415892    1255.0906  0.042794959  0.042941362            7 
 2445000   0.87199615   -5.2886173    1252.1967  0.042678825  0.042931331            4 
 2446000   0.85442825   -5.2564146    1255.3597  0.042769138   0.04292135            3 
 2447000   0.88256066   -5.2734514    1253.8354  0.042699749  0.042911359            8 
 2448000   0.84604172   -5.2716005    1255.9503    0.0427543   0.04290128            5 
 2449000   0.85293207   -5.2634643    1256.8196  0.042766421   0.04289134            4 
 2450000   0.86272841   -5.2881326     1254.039  0.042654388  0.042881411            2 
 2451000   0.84282221    -5.256059      1260.52  0.042857338  0.042871474            3 
 2452000   0.85400636   -5.2769629    1256.9955  0.042720075  0.042861555            7 
 2453000   0.86004124    -5.288082     1255.947  0.042667039   0.04285158            6 
 2454000   0.87251135   -5.2800071    1260.1391   0.04279201  0.042841698            3 
 2455000   0.84680992   -5.2721053    1261.5634  0.042822926  0.042831766            4 
 2456000   0.87363788   -5.2646593    1261.0625  0.042788496  0.042821806            4 
 2457000   0.86487778   -5.2772429     1258.997  0.042701024  0.042812001            6 
 2458000    0.8498128   -5.2944919     1261.099  0.042754915  0.042802093            5 
 2459000   0.85430364   -5.3080384    1256.7659  0.042590684  0.042792243            4 
 2460000   0.84658829   -5.2785874    1254.2775  0.042489076  0.042782213            3 
 2461000   0.84188287   -5.3037301    1258.1565   0.04260316  0.042772185            3 
 2462000   0.86911362   -5.2741921    1258.9311  0.042612074  0.042762249            6 
 2463000   0.84345161   -5.2712218    1265.0964   0.04280337  0.042752411            4 
 2464000   0.85687782   -5.2830676    1264.6781   0.04277185  0.042742472            6 
 2465000   0.84795927   -5.3019474    1264.0634  0.042733717   0.04273266            3 
 2466000   0.87200687   -5.2713921     1262.067  0.042648926  0.042722877            5 
 2467000   0.83675136   -5.2991457    1260.4431  0.042576783  0.042712981            7 
 2468000   0.85301951   -5.2934432     1263.964  0.042678416  0.042703166            5 
 2469000   0.84818581   -5.2364247    1262.4232  0.042609125  0.042693349            3 
 2470000   0.86069025   -5.2813433    1265.4205  0.042692998  0.042683574            5 
 2471000    0.8684274   -5.2764057    1263.1471  0.042599053  0.042673771            9 
 2472000    0.8585644   -5.2694364    1264.3553  0.042622549  0.042663906            5 
 2473000   0.83494264   -5.2893056     1263.134  0.042564159  0.042654039            3 
 2474000    0.8643589   -5.2949158     1262.871  0.042538096  0.042644121            5 
 2475000   0.85626321   -5.2602571    1263.4803  0.042541423  0.042634294           17 
 2476000   0.85376879   -5.2810101    1262.9491  0.042506363  0.042624529            2 
 2477000   0.85940627   -5.2658883    1264.1563  0.042529817  0.042614776            3 
 2478000    0.8658678   -5.2846452     1266.291  0.042584443  0.042605108            3 
 2479000   0.86495147   -5.2828094    1262.9951  0.042456472  0.042595148            5 
 2480000    0.8520755   -5.2970832    1263.6081  0.042459951  0.042585235            7 
 2481000   0.85661073   -5.2790553    1265.5353  0.042507567   0.04257525            5 
 2482000   0.85743951   -5.2953943    1267.4392  0.042554365  0.042565381            4 
 2483000   0.86441495   -5.2756902    1267.1884  0.042528808  0.042555576            3 
 2484000   0.83643758   -5.2643373    1267.5519  0.042523882  0.042545768            3 
 2485000   0.83911389   -5.2678884    1265.5706  0.042440329  0.042535833            5 
 2486000   0.84053589   -5.2844835    1269.6687  0.042560628  0.042525932            4 
 2487000   0.84684441   -5.3024039    1262.6888  0.042309637  0.042515992            4 
 2488000   0.85045953   -5.2794764    1264.0416  0.042337942     0.042506           11 
 2489000   0.84344324   -5.2852167    1268.1486  0.042458436  0.042496105            4 
 2490000   0.85343591   -5.2731686     1267.098  0.042406226  0.042486213            4 
 2491000   0.84139993   -5.2930201      1265.46  0.042334404  0.042476242           13 
 2492000   0.85801326   -5.3175583    1265.9863  0.042335017  0.042466272            4 
 2493000    0.8554965   -5.2638926    1268.9469  0.042416999  0.042456387            5 
 2494000    0.8632559   -5.2979658    1266.6467  0.042323133   0.04244646            8 
 2495000   0.83826384   -5.2826928    1266.7474  0.042309534  0.042436542            8 
 2496000   0.86497213    -5.252591     1270.453    0.0424163  0.042426603            5 
 2497000    0.8442081   -5.2905594    1267.3144  0.042294567  0.042416754            3 
 2498000   0.84362067   -5.3155438    1270.7966  0.042393803  0.042406797            4 
 2499000   0.85823547   -5.2749127    1267.7867  0.042276468  0.042396823            3 
 2500000     0.854779   -5.2845097    1268.1557  0.042271856   0.04238681            4 
 2501000   0.85238879   -5.2775411    1266.0848  0.042185951  0.042376849            3 
 2502000   0.85114849   -5.2914819    1265.8016  0.042159659  0.042366927            5 
 2503000   0.85773334   -5.2896855    1271.2139  0.042323008  0.042356955            5 
 2504000   0.84051536    -5.313956    1266.0505  0.042134268  0.042346871            8 
 2505000   0.84901226   -5.3172407    1265.3268  0.042093374  0.042336778           17 
 2506000   0.85957033   -5.3005211    1265.9667  0.042097854  0.042326786            7 
 2507000   0.84802435   -5.3132352    1268.2041  0.042155436  0.042316814            4 
 2508000   0.83927283   -5.2849795    1268.1977  0.042138415  0.042306874            7 
 2509000   0.85753552   -5.2668853    1268.4177  0.042128926  0.042296939           12 
 2510000     0.858852   -5.3134463    1268.5412  0.042116241  0.042286999            4 
 2511000   0.84177929   -5.3185718    1263.1749  0.041921377   0.04227698            5 
 2512000   0.85806872   -5.3139036    1268.9171  0.042095181  0.042267007            6 
 2513000   0.83726043   -5.3146327    1269.4122  0.042094847  0.042256975            6 
 2514000   0.86440826    -5.284836    1271.1338   0.04213517  0.042247137            2 
 2515000   0.85617979   -5.2661014    1271.3487  0.042125537  0.042237254            4 
 2516000   0.86758986   -5.2995587    1268.6779  0.042020332  0.042227359            5 
 2517000   0.83227721   -5.2979751     1270.015  0.042047909  0.042217289            5 
 2518000   0.83792914   -5.2910055    1273.3947   0.04214306  0.042207318            5 
 2519000   0.85188363   -5.3151328    1272.2997  0.042090105  0.042197345            5 
 2520000    0.8527718   -5.3062756    1276.6895  0.042218569  0.042187313            3 
 2521000   0.84838492   -5.2916127    1272.8149  0.042073745  0.042177454            4 
 2522000   0.85306242   -5.3030222     1271.525  0.042014439  0.042167578            4 
 2523000    0.8486677   -5.2569363     1274.833   0.04210705  0.042157601            4 
 2524000   0.84901182   -5.2713623    1269.5051  0.041914457  0.042147619            4 
 2525000   0.85887704   -5.3090291    1269.5982  0.041900929  0.042137684            6 
 2526000   0.84081738   -5.3012232     1274.518   0.04204665  0.042127681            4 
 2527000   0.83664247   -5.2810217    1271.1575  0.041919188  0.042117771            2 
 2528000   0.84761283   -5.3506575    1268.3714  0.041810766  0.042107795            4 
 2529000   0.84488185   -5.3270582    1271.2589  0.041889381  0.042097692            5 
 2530000   0.84037048   -5.3058928    1275.3647  0.042008061  0.042087647            5 
 2531000   0.86355387    -5.304337    1271.0192  0.041848388  0.042077661           18 
 2532000    0.8435699    -5.303025    1276.6795  0.042018149  0.042067703           15 
 2533000   0.82826213   -5.3086422     1275.571  0.041965096  0.042057756            8 
 2534000    0.8585806   -5.2839171    1282.1342   0.04216437  0.042047858           11 
 2535000   0.84805537   -5.2842741    1277.6238  0.041999469  0.042037969            8 
 2536000   0.83897404   -5.3142531    1277.1119  0.041966086  0.042028118            5 
 2537000   0.84125337   -5.3153169    1277.5595  0.041964247  0.042018193            3 
 2538000   0.81397966   -5.3052176    1277.1431   0.04193404  0.042008344            9 
 2539000   0.87429317   -5.3142161    1275.1067  0.041850686  0.041998486            3 
 2540000   0.83807936   -5.3215971    1275.4994  0.041847095  0.041988633            3 
 2541000   0.83247293   -5.2875194    1275.6165  0.041834464  0.041978661            6 
 2542000   0.83186443   -5.2856811    1276.5988  0.041850208  0.041968874            7 
 2543000   0.82758641   -5.2848957    1277.2185  0.041854059  0.041959047            6 
 2544000   0.85673973   -5.2778528    1281.4859  0.041977396  0.041949226            5 
 2545000   0.84392113   -5.3163639    1279.9545  0.041910755  0.041939424            4 
 2546000   0.83550822   -5.3100388    1281.7843  0.041954187  0.041929617            9 
 2547000   0.84026159   -5.3130296    1278.9586  0.041845262  0.041919752            5 
 2548000   0.85554151   -5.3190447     1276.827  0.041759124  0.041909891            5 
 2549000   0.85291012    -5.307713    1279.1923  0.041820069  0.041900024            7 
 2550000   0.85276098   -5.3091625    1278.0876  0.041767568  0.041890305            8 
 2551000   0.83461871   -5.3221414    1277.3245  0.041726267  0.041880491            8 
 2552000   0.82636278   -5.3297222     1277.204  0.041705983   0.04187072            4 
 2553000   0.83961963   -5.2900997    1281.5248  0.041830684  0.041860979            3 
 2554000   0.84624944   -5.2797289    1284.0293  0.041896021  0.041851306            4 
 2555000   0.86549422   -5.3312932    1277.7386  0.041674448  0.041841608            3 
 2556000   0.83455924   -5.2922601    1280.9957  0.041764337   0.04183182            7 
 2557000   0.86787647   -5.3276143    1280.2369  0.041723272  0.041822149            3 
 2558000   0.83470916   -5.2837776     1283.888  0.041825906  0.041812285            5 
 2559000   0.85165944    -5.300048    1281.9388  0.041746084  0.041802497            6 
 2560000   0.84241678   -5.3385601     1278.413  0.041615008  0.041792661            7 
 2561000   0.85114405   -5.3233192    1282.7424  0.041739633  0.041782965            3 
 2562000   0.84004663   -5.3360126    1281.4187  0.041680285  0.041773251            5 
 2563000   0.85097187   -5.3190705    1281.7684  0.041675393  0.041763449            7 
 2564000   0.83719917   -5.3390214    1284.2378  0.041739398  0.041753648            6 
 2565000   0.87079394   -5.3238215    1282.9213  0.041680355  0.041743751            5 
 2566000    0.8643939   -5.3134326    1283.1078  0.041670167  0.041733985            6 
 2567000   0.83953971   -5.3363491    1285.4479  0.041729903  0.041724173            9 
 2568000   0.82627467   -5.3086052    1283.2666  0.041642869  0.041714325            3 
 2569000   0.82143944   -5.3261798    1279.6377  0.041508943  0.041704458            8 
 2570000    0.8348985   -5.3060968    1287.5122  0.041748124  0.041694687            5 
 2571000   0.84618878   -5.3438819     1280.226  0.041495722  0.041684849           10 
 2572000   0.83513139   -5.3255715    1282.2263  0.041544398  0.041675018            3 
 2573000   0.81448232   -5.3356934    1282.4677  0.041536069  0.041665241            5 
 2574000   0.84162183   -5.2953172    1284.1723  0.041575118  0.041655403            5 
 2575000   0.84028074   -5.3196716    1286.7333  0.041641855  0.041645707            3 
 2576000   0.83241804   -5.3229051    1285.9669  0.041600895  0.041635984            4 
 2577000   0.83780836   -5.2987846    1290.7018  0.041737867  0.041626303            6 
 2578000   0.82914483   -5.3509082    1280.8423  0.041402971  0.041616485            7 
 2579000   0.83446544   -5.3207682    1290.3842  0.041695238  0.041606695            3 
 2580000   0.83820439   -5.3070207    1285.1011  0.041508432  0.041596914            5 
 2581000   0.83530417    -5.310396    1286.2446  0.041529271  0.041587228            8 
 2582000   0.82427664   -5.3267739    1290.0118  0.041634773  0.041577444            3 
 2583000   0.83808697   -5.3080171    1289.3747  0.041598101  0.041567737            9 
 2584000    0.8467948   -5.3012741     1287.862  0.041533219  0.041558047            6 
 2585000   0.83960306   -5.3218626    1285.7957  0.041450538  0.041548303           11 
 2586000   0.84291527   -5.3018899    1289.0012  0.041537806  0.041538572            5 
 2587000    0.8307632   -5.3004094     1292.312  0.041628398   0.04152894            4 
 2588000   0.85197664   -5.2889809    1292.3685  0.041614133  0.041519414            5 
 2589000   0.83679801   -5.3385352    1291.1013   0.04155727  0.041509882            5 
 2590000   0.82593909    -5.320876    1288.7209  0.041464638  0.041500213            3 
 2591000   0.85183922   -5.3148089    1288.1776  0.041431159  0.041490488           17 
 2592000   0.82536823   -5.3271318    1290.8909  0.041502408  0.041480815           10 
 2593000   0.83402266   -5.3253562    1290.6903  0.041479954  0.041471074            4 
 2594000   0.84570539   -5.3697909     1289.314  0.041419751  0.041461494            9 
 2595000   0.84364713   -5.3319895    1290.0517  0.041427478  0.041451798            5 
 2596000   0.83981779   -5.3168977    1292.7924    0.0414995  0.041442212            4 
 2597000    0.8309613   -5.3146631    1293.7621  0.041514635  0.041432721            8 
 2598000   0.83727144   -5.3130004    1290.0844   0.04138069  0.041423289            7 
 2599000   0.83320131   -5.3290406    1292.9586  0.041456924  0.041413754            8 
 2600000   0.84029409    -5.339135    1294.0718  0.041476662  0.041404192            2 
 2601000   0.83631268   -5.3053701    1292.7221  0.041417471  0.041394634            7 
 2602000   0.83306063   -5.3408726    1290.3998  0.041327177  0.041384953            7 
 2603000   0.84776105   -5.3362401    1291.5547  0.041348274  0.041375262            2 
 2604000   0.85478269   -5.3210283    1288.2127  0.041225446  0.041365585            4 
 2605000   0.83011677   -5.3360352      1295.35  0.041437939  0.041355932            8 
 2606000   0.83687229   -5.3331844    1290.0387  0.041252197  0.041346214            6 
 2607000   0.83388789   -5.3534742    1293.4397  0.041345086  0.041336471            6 
 2608000   0.84854224   -5.3205399    1292.1471   0.04128793  0.041326806            4 
 2609000     0.839989    -5.345278    1293.0496  0.041300932  0.041317087            5 
 2610000   0.83705704   -5.3183869    1295.9869  0.041378892  0.041307352            4 
 2611000   0.81118491   -5.3516921    1292.7476  0.041259657  0.041297657            8 
 2612000   0.82904149   -5.3077833    1295.4362   0.04132964  0.041288129            4 
 2613000   0.83631311   -5.3586394    1293.7083  0.041258714  0.041278412            6 
 2614000   0.84325037   -5.3507073    1293.5254  0.041237102  0.041268781            8 
 2615000   0.84542272   -5.3382011    1295.4708  0.041283326  0.041259093            4 
 2616000   0.85416325    -5.342489    1293.6182   0.04120853  0.041249508            6 
 2617000   0.84641594   -5.3410399    1295.3057  0.041246519  0.041239787            6 
 2618000   0.82140327   -5.3065138    1295.7114  0.041243677  0.041230237            3 
 2619000   0.83620899   -5.3219037     1295.602   0.04122445  0.041220716           10 
 2620000   0.81689473   -5.3423298    1295.3075  0.041199347  0.041211259            6 
 2621000    0.8328978    -5.319165     1297.861  0.041264817  0.041201585            6 
 2622000    0.8325535   -5.3382566    1293.8406  0.041121299   0.04119182            6 
 2623000   0.83710672   -5.3573172    1294.0178  0.041111254   0.04118212            5 
 2624000   0.81701841   -5.3329222    1295.3331  0.041137357  0.041172458            6 
 2625000    0.8232247   -5.3263552    1295.9889  0.041142505  0.041162826            8 
 2626000   0.82202933    -5.323282    1298.2987  0.041200138  0.041153234            7 
 2627000   0.82572989   -5.3129033    1302.6413  0.041322208  0.041143623            6 
 2628000   0.83853665   -5.3144289    1293.8535  0.041027824   0.04113415            5 
 2629000     0.844592   -5.3335692    1299.2105  0.041182023  0.041124536            4 
 2630000   0.83515569   -5.3210634    1300.6783  0.041212875  0.041115015           10 
 2631000   0.82848461   -5.3478821    1295.5054  0.041033366  0.041105399            7 
 2632000   0.81199981   -5.3349006    1297.1439  0.041069651  0.041095755            4 
 2633000   0.84069747   -5.3342146    1297.6583  0.041070336  0.041086147            4 
 2634000   0.82093702   -5.3319158    1299.5118  0.041113382  0.041076448            5 
 2635000   0.81902862   -5.3708362    1295.0599  0.040956986  0.041066694            4 
 2636000   0.83023148   -5.3119485    1302.6292  0.041180742  0.041057041            4 
 2637000   0.81670037    -5.314811    1301.7891  0.041138576  0.041047413            3 
 2638000   0.82959619   -5.3640994    1298.2976  0.041012686  0.041037725            8 
 2639000   0.84576682    -5.345421    1300.8877  0.041078934   0.04102815            5 
 2640000    0.8122552    -5.326717     1298.583  0.040990626  0.041018543            6 
 2641000    0.8319456   -5.3382946    1301.3106   0.04106117  0.041008903           11 
 2642000   0.85173334   -5.3531145    1300.0762  0.041006692  0.040999235            5 
 2643000   0.82195628   -5.3726914    1299.6541   0.04097787  0.040989522            6 
 2644000   0.82155956    -5.343982    1302.1065  0.041039666  0.040979985            6 
 2645000   0.82903113   -5.3179945    1301.0351  0.040990394  0.040970391            8 
 2646000   0.83783956   -5.3547112    1302.1463  0.041009897  0.040960715            8 
 2647000    0.8289302   -5.3343501    1303.0643  0.041023306  0.040951081           11 
 2648000    0.8263838   -5.3584344    1303.4385  0.041019589  0.040941476            8 
 2649000   0.82640211    -5.330479    1305.3799  0.041065177  0.040931899            4 
 2650000   0.82709127   -5.3362093    1308.7093   0.04115438  0.040922379            5 
 2651000   0.80509946   -5.3145434    1305.3514  0.041033302   0.04091291            3 
 2652000   0.83961229   -5.3325932    1304.0639  0.040977374  0.040903373            6 
 2653000   0.82871913   -5.3743169    1302.1348  0.040901332  0.040893761            4 
 2654000   0.81647871   -5.3666847     1305.729  0.040998774  0.040884217            5 
 2655000   0.83546946   -5.3487781    1305.1882  0.040966359   0.04087466            5 
 2656000   0.82553932   -5.3643198    1307.5563  0.041025235   0.04086519            8 
 2657000    0.8330936   -5.3484259     1302.385  0.040847605  0.040855694            5 
 2658000   0.83494574   -5.3438748    1303.9315  0.040880723  0.040846218            4 
 2659000   0.80711299   -5.3612436    1306.9964  0.040961403  0.040836763            9 
 2660000   0.82342052   -5.3385514    1305.7576  0.040907193  0.040827331            4 
 2661000   0.83596073   -5.3470047    1307.6287  0.040950416  0.040817964            6 
 2662000   0.80938356   -5.3651673    1305.1189  0.040856465  0.040808579            5 
 2663000   0.82518324   -5.3449777    1308.9586  0.040961278  0.040799188            6 
 2664000   0.81624131   -5.3515512    1305.6126  0.040841233  0.040789872            7 
 2665000   0.83713122   -5.3617238    1307.9794  0.040899918  0.040780548            6 
 2666000   0.82710881   -5.3533224    1308.8008  0.040910253  0.040771244            6 
 2667000   0.83941591   -5.3251733    1312.1659   0.04100006  0.040761934            3 
 2668000   0.83780633   -5.3453542    1308.0329  0.040855601  0.040752583            5 
 2669000   0.82180741   -5.3291407    1311.4076  0.040945661  0.040743293            5 
 2670000   0.82519614   -5.3157824    1312.4833  0.040963898  0.040734044            4 
 2671000   0.84124435   -5.3432685    1309.2562  0.040847879   0.04072464            6 
 2672000   0.82132573   -5.3413088    1307.9582  0.040792111  0.040715285            8 
 2673000   0.84044617   -5.3457967    1309.7168  0.040831676  0.040705818            7 
 2674000   0.80248023   -5.3388562    1307.5724  0.040749578  0.040696412            7 
 2675000   0.80818893   -5.3539696    1304.3348  0.040633482  0.040686941            5 
 2676000   0.83837298   -5.3525664    1312.4478  0.040870947  0.040677362            5 
 2677000   0.82715643   -5.3595093    1308.7607  0.040740899  0.040667907            9 
 2678000   0.83286505   -5.3601476    1309.7918  0.040757772  0.040658347            5 
 2679000   0.82229611   -5.3343348    1309.6442  0.040737968  0.040648808            2 
 2680000   0.84839419   -5.3482689    1311.9968  0.040795922  0.040639361            4 
 2681000    0.8224696   -5.3495816    1312.4089  0.040793511  0.040629872           11 
 2682000    0.8325974   -5.3313744    1311.8164  0.040759894  0.040620467            3 
 2683000   0.84045374   -5.3534106      1309.06  0.040659088  0.040610939            5 
 2684000   0.82461827   -5.3771979     1311.264   0.04071237  0.040601394            4 
 2685000   0.83079901   -5.3675256    1308.3699  0.040607385   0.04059188            6 
 2686000   0.81253018   -5.3559033    1308.3939  0.040593011  0.040582346            6 
 2687000   0.81746225   -5.3542718    1310.4504  0.040641682  0.040572928            5 
 2688000   0.81324455   -5.3361513    1310.5847  0.040630725  0.040563468            3 
 2689000   0.82300066   -5.3704098    1313.1003  0.040693574  0.040554075            4 
 2690000   0.85163274   -5.3701842    1304.7278  0.040419077  0.040544618            5 
 2691000   0.83137858   -5.3668813    1312.3162   0.04063905  0.040535139            4 
 2692000    0.8165084   -5.3683792    1313.7784  0.040669216   0.04052574            5 
 2693000    0.8084151   -5.3710384    1311.7656  0.040591831  0.040516344            3 
 2694000   0.81955701   -5.3465455    1317.2411  0.040746137  0.040507027            7 
 2695000   0.82452796   -5.3783548    1311.9473  0.040567324  0.040497692           11 
 2696000    0.8197284   -5.3694445    1314.2671  0.040623982   0.04048827           15 
 2697000   0.82219008   -5.3484523    1314.3821  0.040612473  0.040478941            7 
 2698000   0.81258398     -5.35913    1318.4075  0.040721753  0.040469562            4 
 2699000   0.81377105   -5.3637541    1315.0401  0.040602695   0.04046028            3 
 2700000   0.83751117   -5.3407608    1312.9555  0.040523318  0.040450936            9 
 2701000   0.82656085   -5.3406329    1315.8249  0.040596843  0.040441678            4 
 2702000   0.82542571   -5.3688543    1313.3647  0.040505942  0.040432315            6 
 2703000   0.80994987   -5.3726256    1314.4461  0.040524298  0.040423035            9 
 2704000    0.8130984   -5.3559411    1315.3589  0.040537441  0.040413693            8 
 2705000   0.81125974   -5.3556865     1316.808  0.040567098  0.040404308            5 
 2706000   0.82849301   -5.3601116    1314.6265  0.040484927  0.040394945            5 
 2707000   0.80487431   -5.3677648    1312.7103  0.040410981  0.040385549            9 
 2708000   0.83863912   -5.3668326     1319.973  0.040619555  0.040376224            5 
 2709000   0.80597029   -5.3716737    1316.3238  0.040492302  0.040366881           11 
 2710000   0.81973563   -5.3685847    1317.5281  0.040514393  0.040357587            5 
 2711000   0.81029361   -5.3938178    1314.4889  0.040406028  0.040348252            4 
 2712000   0.82395789   -5.3533332    1319.0951  0.040532665  0.040338902            5 
 2713000   0.81428372   -5.3764652    1318.7061  0.040505779  0.040329518            5 
 2714000   0.83989608    -5.339216    1317.4449  0.040452127  0.040320043            5 
 2715000   0.80583128   -5.3549877    1315.8332  0.040387758  0.040310675            7 
 2716000   0.82878051   -5.3604585    1317.7009  0.040430193  0.040301294            6 
 2717000   0.82116859   -5.3551721    1321.2128  0.040523029  0.040291944            4 
 2718000   0.81690114   -5.3599228    1316.8306  0.040373762  0.040282566            8 
 2719000   0.80803335   -5.3863977    1318.3574  0.040405708   0.04027315            6 
 2720000    0.8218912   -5.3702733    1315.2628  0.040296041  0.040263782            6 
 2721000   0.82555112   -5.3772182    1318.9297  0.040393536  0.040254426            5 
 2722000   0.81243522   -5.3682947    1317.1092  0.040322962  0.040244948            5 
 2723000   0.82224795   -5.3822008    1320.6117  0.040415341  0.040235564            4 
 2724000   0.82267316     -5.36336    1321.9357  0.040441009  0.040226095            6 
 2725000   0.80896659   -5.3825152    1318.5921  0.040323919  0.040216613            9 
 2726000   0.81525854   -5.3719634    1317.2295   0.04026747  0.040207176            9 
 2727000   0.82753965   -5.3633868    1317.6603  0.040265868  0.040197785            6 
 2728000   0.80180886   -5.3553307    1324.1045  0.040447963   0.04018833            5 
 2729000   0.81357491   -5.3814213    1316.3586  0.040196611  0.040178816            5 
 2730000   0.80582643   -5.4056169    1315.2269  0.040147341  0.040169316            3 
 2731000   0.82684474   -5.3935401    1316.2498  0.040163852  0.040159753            9 
 2732000   0.81829138   -5.3753504    1317.2577  0.040179895  0.040150226            8 
 2733000   0.81408661   -5.3552386     1320.993  0.040279088  0.040140809            6 
 2734000   0.80481706   -5.4027354    1317.3544  0.040153451  0.040131231           12 
 2735000   0.81455552   -5.3526759    1321.5044  0.040265216  0.040121654            8 
 2736000   0.80909484   -5.3577368    1315.5461  0.040069022  0.040112164            5 
 2737000   0.80999376   -5.3466038    1322.7353  0.040273271  0.040102737            4 
 2738000   0.81535695   -5.3889864    1318.2003  0.040120534  0.040093287            6 
 2739000   0.80438025    -5.386008    1319.1518  0.040134836  0.040083839            6 
 2740000   0.82197705   -5.3968912    1318.1041  0.040088324  0.040074262            5 
 2741000   0.81699668   -5.3664094    1321.7796  0.040185444   0.04006481            4 
 2742000   0.82750568   -5.3865692     1321.286  0.040155786  0.040055353            4 
 2743000   0.81749569   -5.3482049    1320.1339  0.040106145  0.040045896            3 
 2744000   0.80951775   -5.3951115    1319.6359  0.040076406  0.040036364            7 
 2745000   0.81904388   -5.3762964    1319.3239  0.040052333  0.040026864            3 
 2746000   0.80944141   -5.3474991    1322.1707  0.040124141  0.040017432            4 
 2747000   0.82796273   -5.3824439    1320.4213  0.040056464  0.040007997            5 
 2748000   0.80062362   -5.3565418    1321.3691  0.040070631  0.039998623            4 
 2749000   0.82655596    -5.371584    1325.5544  0.040182928  0.039989271            4 
 2750000    0.7996954   -5.4031584    1322.7849   0.04008439  0.039979764           15 
 2751000   0.82872794   -5.3761341     1322.439  0.040059344  0.039970286           13 
 2752000    0.8067684    -5.394312     1321.511  0.040016684  0.039960895            3 
 2753000   0.81471634   -5.3817006    1324.4223  0.040090275  0.039951422           10 
 2754000   0.82881913   -5.3818961    1325.8301  0.040118316  0.039942027            4 
 2755000   0.79000477   -5.3467365    1323.6805  0.040038732  0.039932627            9 
 2756000   0.79884331   -5.3659977    1324.6367  0.040053117   0.03992321            5 
 2757000   0.81009576   -5.3804192    1320.0811  0.039900893  0.039913794           15 
 2758000   0.80463193   -5.3861397     1324.601  0.040022994  0.039904216            3 
 2759000    0.8078923   -5.3942976    1321.9944  0.039929756  0.039894695            3 
 2760000   0.80844836   -5.3722649    1324.8232  0.040000701  0.039885159            4 
 2761000    0.8181366   -5.3896281    1323.3047   0.03994038  0.039875717            3 
 2762000    0.8195043   -5.3918973    1319.6662  0.039816142  0.039866137            5 
 2763000   0.80971004    -5.408408    1323.9624  0.039931308  0.039856475            9 
 2764000   0.80803139   -5.4083462    1321.4074  0.039839826  0.039846977            6 
 2765000     0.791752   -5.3471652     1330.067  0.040086407   0.03983744           10 
 2766000   0.81039675    -5.386032    1322.2762  0.039837195  0.039827998            5 
 2767000   0.80782155   -5.3677582    1326.1213  0.039938602  0.039818561            6 
 2768000   0.82972309   -5.3759186    1325.1071  0.039893638  0.039809162            8 
 2769000   0.78952048   -5.3790741    1324.2069   0.03985214   0.03979972            8 
 2770000   0.82373786   -5.3750096    1327.9634  0.039950765  0.039790361            9 
 2771000   0.82468932   -5.4012255     1322.197  0.039762931  0.039780915           10 
 2772000   0.79064809   -5.3690416    1322.8278   0.03976755  0.039771455            8 
 2773000   0.81224629   -5.3887482    1325.3171  0.039828018   0.03976199            4 
 2774000   0.80710323   -5.3655323    1327.1531  0.039868813  0.039752487            6 
 2775000   0.81828736   -5.4041715    1328.4118  0.039892246  0.039743014            5 
 2776000   0.80988164   -5.4016754    1325.1975  0.039781386  0.039733567           11 
 2777000   0.81807585   -5.3861065    1329.0603  0.039882975  0.039724095            7 
 2778000   0.79896154   -5.3732908    1328.8011  0.039860843   0.03971464            6 
 2779000   0.79866827   -5.3859053    1328.4469  0.039835878  0.039705297            5 
 2780000   0.81049543   -5.3662925     1331.841   0.03992329  0.039695922            5 
 2781000   0.82656466   -5.4146386    1327.6351  0.039782903    0.0396865           13 
 2782000   0.81662482   -5.3930397    1327.4523  0.039763129  0.039677119            6 
 2783000   0.81328614   -5.3724448    1331.6978  0.039875967  0.039667808            3 
 2784000   0.80893272   -5.4076057    1328.3387  0.039761096  0.039658472            5 
 2785000   0.81423364   -5.3679964    1333.5248  0.039901999  0.039649063            7 
 2786000   0.78190998   -5.3927835    1329.4172  0.039764812  0.039639619            4 
 2787000   0.79584332    -5.409916    1327.9542    0.0397068    0.0396303            3 
 2788000   0.81990664   -5.3755757    1328.6304  0.039712769  0.039620878            4 
 2789000   0.79838236   -5.3926387    1329.4518  0.039723073  0.039611454            4 
 2790000   0.81756145    -5.390706    1329.9719  0.039724369  0.039602026            6 
 2791000   0.80560706   -5.4135287    1327.6489  0.039640776  0.039592605            4 
 2792000    0.8150417   -5.4034621    1327.7087  0.039628363  0.039583132            5 
 2793000   0.81093786   -5.4208126    1329.7525  0.039675155  0.039573591            8 
 2794000    0.8066358   -5.3996123    1332.4311  0.039740848  0.039564156            6 
 2795000   0.82812652   -5.4127177     1327.774  0.039587777  0.039554779            4 
 2796000   0.81762439   -5.3882347    1329.0676  0.039612173  0.039545332           10 
 2797000   0.82553179   -5.3995346     1329.882  0.039622274  0.039535886            5 
 2798000   0.79781638   -5.3722192    1332.1677  0.039676188  0.039526387            5 
 2799000   0.81021699   -5.3754863    1334.1849  0.039722072  0.039517036            5 
 2800000    0.8132019   -5.3917869    1330.2368  0.039590381  0.039507675           10 
 2801000   0.79411539   -5.3990047    1333.3121  0.039667741  0.039498313           12 
 2802000   0.78930005   -5.3844949    1335.9612   0.03973237  0.039489076            7 
 2803000   0.79380847   -5.3922098    1334.4763  0.039674048  0.039479891           10 
 2804000   0.81984539   -5.4048389    1333.0691  0.039618079  0.039470608            7 
 2805000   0.80844163   -5.4140714    1330.4185  0.039525208  0.039461159           19 
 2806000   0.78645269   -5.3825494     1331.976  0.039557377  0.039451751            3 
 2807000   0.80827137    -5.411343    1332.5002  0.039558848  0.039442424            6 
 2808000   0.80598943    -5.410356    1332.4136  0.039542188  0.039433153           14 
 2809000    0.8064185   -5.3977352    1335.4332  0.039617694  0.039423807            5 
 2810000   0.79067209   -5.3606154    1335.8551  0.039616108  0.039414448            6 
 2811000   0.82056464   -5.3863386    1334.6838   0.03956729  0.039405084            5 
 2812000    0.7875223   -5.3793338    1333.9528  0.039531556  0.039395643            4 
 2813000   0.79411091    -5.430981    1333.5883  0.039506705  0.039386329           10 
 2814000    0.8092814   -5.3914098    1333.5851  0.039492568  0.039376886           10 
 2815000   0.79217981   -5.4105932    1334.7642  0.039513447  0.039367548            4 
 2816000   0.81553574   -5.3884894    1332.2023    0.0394236   0.03935814            6 
 2817000   0.79983147   -5.3968112    1334.3197  0.039472243  0.039348732            3 
 2818000   0.80525362   -5.3911765    1334.6497  0.039467994  0.039339319            9 
 2819000   0.80195074   -5.4061211    1335.1513   0.03946882  0.039329989            9 
 2820000   0.80959079   -5.4159573     1335.668  0.039470095  0.039320653            8 
 2821000   0.79993061   -5.3566507    1341.8729  0.039639398  0.039311315            5 
 2822000   0.80278071   -5.4032747     1339.546  0.039556637  0.039302012            9 
 2823000   0.79364998   -5.4073612     1333.576  0.039366394  0.039292733            7 
 2824000   0.79970688   -5.4095439    1332.0671   0.03930793  0.039283385            7 
 2825000   0.78926487   -5.4207763    1335.2725  0.039388569  0.039274032            9 
 2826000   0.79753335   -5.3875883    1334.3609   0.03934775  0.039264625            3 
 2827000   0.79905261   -5.3961882    1334.4302  0.039335873  0.039255191            4 
 2828000   0.78775925   -5.4160372    1336.9344  0.039395758  0.039245853            6 
 2829000   0.79253272   -5.4134351    1333.9814  0.039294845  0.039236423            9 
 2830000   0.78213453   -5.4199722    1335.4668  0.039324701  0.039226986            4 
 2831000   0.81180129   -5.3936341    1340.3412  0.039454292  0.039217756            8 
 2832000   0.80375957    -5.402032    1335.0873   0.03928576  0.039208359            4 
 2833000   0.78262105   -5.4093747    1337.8592  0.039353429  0.039198993            7 
 2834000   0.82045969   -5.3837247    1337.4346  0.039327058  0.039189621            8 
 2835000   0.79611918   -5.4177784    1336.1399  0.039275128   0.03918027            8 
 2836000   0.80501667   -5.3990644     1342.193  0.039439146  0.039170906            8 
 2837000   0.79387575   -5.4005088    1335.6917  0.039234276  0.039161539            5 
 2838000   0.79305108   -5.4223133    1334.4271  0.039183318  0.039152072           12 
 2839000   0.78340063   -5.4257087    1336.9845  0.039244585  0.039142603            7 
 2840000   0.79300121   -5.4098958    1335.3998  0.039184265  0.039133138            6 
 2841000   0.80246093   -5.4074419    1338.1549  0.039251288  0.039123592            4 
 2842000   0.78100168   -5.4147402     1336.279   0.03918247  0.039114136            6 
 2843000   0.76806724    -5.420937    1333.0402  0.039073754  0.039104551            8 
 2844000   0.78437218   -5.4023953    1336.8428  0.039171437  0.039095072            4 
 2845000   0.81832629   -5.4130298    1343.7713  0.039360611   0.03908569            6 
 2846000    0.8136725   -5.4377421    1339.9793  0.039235748  0.039076363            7 
 2847000   0.80739649   -5.4191255    1339.0684  0.039195304  0.039066933            6 
 2848000     0.788786   -5.3991315    1338.8383  0.039174809  0.039057537            4 
 2849000   0.79117415   -5.4522495    1341.4252  0.039236727  0.039048134            6 
 2850000   0.78293216   -5.4242825    1336.9681  0.039092634  0.039038782            5 
 2851000   0.78852501    -5.427212    1336.3197  0.039059971  0.039029314            9 
 2852000   0.80260137   -5.4256869    1339.9797  0.039153217  0.039019837            3 
 2853000   0.78705425   -5.4110027    1343.5216  0.039242948  0.039010451            3 
 2854000   0.79933736    -5.417952    1341.2517  0.039162919  0.039001114            5 
 2855000    0.7885323   -5.4165078    1339.0912  0.039086142  0.038991685            9 
 2856000   0.79988906   -5.4073622    1338.6988  0.039061005  0.038982248            5 
 2857000    0.7825043   -5.4081715    1340.5602  0.039101627  0.038972775            8 
 2858000   0.80613124   -5.4299196    1340.8465  0.039096294  0.038963325            8 
 2859000   0.78977619   -5.3982852    1341.8309  0.039111313  0.038953937            5 
 2860000   0.80122049   -5.4419183     1335.249  0.038905855  0.038944527            9 
 2861000   0.79604708   -5.4383936     1338.181  0.038977658  0.038935058            3 
 2862000   0.79972567   -5.4333979    1341.5118  0.039061025  0.038925707            9 
 2863000   0.77731143   -5.4410152    1340.6592  0.039022564  0.038916258            5 
 2864000   0.77994566   -5.4392579    1342.1048  0.039051002  0.038906808            7 
 2865000   0.77968482   -5.4485544    1341.5093   0.03902005  0.038897447            5 
 2866000   0.78655896   -5.4251606    1339.6321  0.038951852  0.038888168            8 
 2867000   0.80572675   -5.3932832    1344.0478  0.039066615  0.038878896            5 
 2868000   0.80374611   -5.4184135    1342.4974  0.039007944  0.038869663            4 
 2869000    0.8042674   -5.4242339     1344.322  0.039047344  0.038860303            8 
 2870000   0.79224563   -5.3905448     1346.351  0.039092655  0.038850966            5 
 2871000   0.79577645   -5.3888744    1348.9228  0.039153685  0.038841802            5 
 2872000   0.78974994   -5.4318994    1342.1753   0.03894427  0.038832523            5 
 2873000   0.79054673   -5.4269595     1339.605  0.038856161   0.03882329            8 
 2874000   0.80275117   -5.4136655    1347.7317   0.03907828  0.038813988            9 
 2875000   0.80969274   -5.4450114    1341.4517  0.038882659  0.038804741           11 
 2876000   0.79798278    -5.422207    1346.9027  0.039027082  0.038795417            6 
 2877000   0.78395086    -5.429233    1341.1988  0.038848301  0.038786159           21 
 2878000   0.79352669   -5.4461918    1345.7234  0.038965816  0.038776809            5 
 2879000   0.78543629   -5.4368661    1341.8716   0.03884079  0.038767506            6 
 2880000   0.77609273   -5.4395245    1338.6619   0.03873443  0.038758221            3 
 2881000   0.78438698   -5.4300899    1344.7659  0.038897544  0.038748853            5 
 2882000   0.79989108   -5.4388942    1346.0891  0.038922307  0.038739563            7 
 2883000   0.78543714   -5.4270537    1344.9565  0.038876069   0.03873021            7 
 2884000   0.78396903   -5.4428312    1344.6157  0.038852744  0.038720828            6 
 2885000    0.7790522   -5.4368136    1342.9889  0.038792285  0.038711475            4 
 2886000   0.77766933   -5.4214435    1347.3315  0.038904235  0.038702135            4 
 2887000   0.77763018    -5.383493     1345.477  0.038837231  0.038692885            6 
 2888000    0.7731202   -5.4399387     1344.608  0.038798707  0.038683565            8 
 2889000   0.78803095   -5.4345392    1343.9808  0.038767186  0.038674232            5 
 2890000   0.78458969   -5.4102668    1344.6166  0.038772104  0.038664752            9 
 2891000   0.80945153   -5.4353599    1344.8091  0.038764241  0.038655451            5 
 2892000   0.76795815   -5.4034636    1345.9622  0.038784065  0.038646148            3 
 2893000    0.7783103   -5.4092146    1347.7976  0.038823527  0.038636805            7 
 2894000   0.78840535   -5.4244725     1343.204  0.038677839  0.038627502            5 
 2895000   0.77493127   -5.4187835    1348.4935  0.038816737   0.03861822            7 
 2896000   0.78115496    -5.414427    1349.6445  0.038836455   0.03860899            7 
 2897000   0.81795402   -5.4505555    1346.1247  0.038721801  0.038599634            5 
 2898000   0.77308441   -5.4104428    1352.5304  0.038892639  0.038590302            5 
 2899000   0.79698811   -5.3959664    1349.9892  0.038806175  0.038581087            8 
 2900000   0.77371112    -5.417496    1348.7152  0.038756184  0.038571928            7 
 2901000   0.79152772   -5.4232906    1349.8761  0.038776171  0.038562668            6 
 2902000   0.78500461    -5.411021    1349.0895  0.038740224  0.038553389            3 
 2903000   0.80832605   -5.4448683    1347.2395  0.038673771  0.038544077           11 
 2904000   0.78498456   -5.4436864    1348.4445  0.038695032  0.038534706            8 
 2905000   0.80148571   -5.4051248    1350.5406  0.038741842  0.038525407            3 
 2906000   0.78106299   -5.4307859    1351.0533  0.038743212  0.038516141            7 
 2907000   0.78409615   -5.4162467    1349.1727  0.038675975  0.038506882            5 
 2908000   0.78852309   -5.4419676    1346.3205  0.038580941  0.038497656           11 
 2909000   0.77541857   -5.4290746    1347.3185  0.038596266  0.038488411           26 
 2910000   0.77921186   -5.4300272    1351.5178  0.038703259  0.038479199           10 
 2911000   0.78920722   -5.4185434    1354.0833  0.038763406  0.038469998            8 
 2912000   0.78537688   -5.4361592    1350.2786  0.038641213  0.038460804            5 
 2913000   0.78168866    -5.395367    1354.0769   0.03873661  0.038451611            7 
 2914000   0.81131077   -5.4304044    1350.5326  0.038621956  0.038442387            3 
 2915000    0.7759668   -5.4358227    1352.7643  0.038672508  0.038433042            7 
 2916000   0.78854331   -5.4579186    1350.2948  0.038588673  0.038423744           14 
 2917000   0.77906562   -5.4043333    1349.6215  0.038556207  0.038414455            7 
 2918000   0.79431128   -5.4423361    1349.1521  0.038529589    0.0384052            7 
 2919000   0.79063854   -5.4002312    1353.1985  0.038631909  0.038395891            7 
 2920000   0.78112663   -5.4390966    1353.6116  0.038630469  0.038386651            7 
 2921000   0.78229389   -5.4284568    1349.6625  0.038504578  0.038377364            9 
 2922000   0.78751882   -5.4539093    1355.3494  0.038653588  0.038368158            4 
 2923000    0.7757477   -5.4133106    1357.7121  0.038707724  0.038358905           10 
 2924000   0.78671469   -5.4323361    1353.0489  0.038561586  0.038349682            8 
 2925000   0.79391039   -5.4431558    1351.4175  0.038501924  0.038340435           13 
 2926000   0.80989047   -5.4786622    1351.4075  0.038488481  0.038331176            3 
 2927000   0.77377023   -5.4357856    1350.5534  0.038451013  0.038321845            9 
 2928000   0.77435441   -5.4076554    1355.5328  0.038579599   0.03831254            5 
 2929000    0.7888994   -5.4531028    1351.1846  0.038442717  0.038303245            9 
 2930000   0.78795797   -5.4485464    1351.5123  0.038438916  0.038293972            7 
 2931000   0.78656019   -5.4355141    1351.6127  0.038428656  0.038284698            7 
 2932000   0.78004213    -5.432644    1357.1506  0.038572949   0.03827555            4 
 2933000   0.78205611   -5.4377159    1352.3374  0.038423044  0.038266312            5 
 2934000    0.7916849   -5.4284217    1353.8646  0.038453324  0.038257013            7 
 2935000   0.77949522    -5.467546    1352.2446  0.038394226   0.03824769            6 
 2936000   0.75985919   -5.4321578     1354.344  0.038440735  0.038238362            3 
 2937000   0.76931339    -5.448192    1352.6103  0.038378457  0.038229047            9 
 2938000   0.78785892   -5.4597766    1352.2321  0.038354664  0.038219663            6 
 2939000   0.78819155   -5.4230495    1353.5372   0.03837862  0.038210323           14 
 2940000    0.7778996   -5.4486567    1354.8773  0.038403552  0.038201016            8 
 2941000   0.78585246   -5.4576143    1347.9413  0.038193963   0.03819165            6 
 2942000   0.77719605   -5.4294645    1349.9993  0.038239272  0.038182284            7 
 2943000   0.78598144   -5.4693347    1351.2492  0.038261671  0.038172917            7 
 2944000   0.77391214   -5.4409828    1352.1734  0.038274837  0.038163619            6 
 2945000   0.77619016    -5.456885    1353.4182  0.038297062  0.038154278           11 
 2946000   0.78377668    -5.431912     1354.651  0.038318937  0.038145001            9 
 2947000   0.77945984   -5.4520091    1359.0756   0.03843105  0.038135742            6 
 2948000   0.79082653    -5.444081    1353.4515   0.03825903  0.038126392            6 
 2949000    0.7797971   -5.4760829    1352.2709  0.038212697  0.038117041            7 
 2950000   0.77836994    -5.467917    1352.8981  0.038217461  0.038107576           10 
 2951000   0.76768216   -5.4607569    1352.5673  0.038195169  0.038098189            4 
 2952000   0.77870975   -5.4293427    1352.2748  0.038173971   0.03808877            4 
 2953000   0.78319199   -5.4636083    1354.2553  0.038216935  0.038079413            5 
 2954000   0.78708546    -5.451589    1354.7879  0.038219023  0.038069997            6 
 2955000   0.76322954   -5.4302119    1355.8306  0.038235493  0.038060588            8 
 2956000   0.78712056   -5.4332997    1353.5204  0.038157431  0.038051144            9 
 2957000   0.78855536   -5.4352001    1356.3719  0.038224887  0.038041752            4 
 2958000   0.78407081    -5.436566    1351.4621  0.038073645  0.038032372           11 
 2959000   0.77559693   -5.4489215    1354.6625  0.038150909  0.038022959            4 
 2960000   0.77858668   -5.4589557    1351.8938  0.038060074  0.038013532            5 
 2961000   0.76786185   -5.4476459    1353.4364  0.038090634  0.038004156            8 
 2962000   0.76581964   -5.4557886     1351.573   0.03802535  0.037994697            5 
 2963000   0.77151989   -5.4327724    1354.5321  0.038095739  0.037985325           10 
 2964000   0.78380414    -5.464234    1354.5404  0.038083121   0.03797597           16 
 2965000   0.77977769   -5.4449507    1354.8299  0.038078412  0.037966551            9 
 2966000   0.76455754   -5.4438955    1353.6439  0.038032252  0.037957112            9 
 2967000   0.76461855   -5.4306373    1359.4672  0.038182991  0.037947729            6 
 2968000   0.76163264   -5.4329698    1356.0093  0.038073039  0.037938383            5 
 2969000   0.78081342   -5.4696518    1354.6419  0.038021833  0.037928975            8 
 2970000   0.76612699   -5.4548531    1359.2217  0.038137533  0.037919553            5 
 2971000   0.78598564   -5.4393903    1357.6589  0.038080862  0.037910139            7 
 2972000   0.78174079   -5.4410051    1356.5976   0.03803829  0.037900802            9 
 2973000   0.77093655   -5.4634409    1355.4019   0.03799198  0.037891475            7 
 2974000   0.76813719   -5.4852466     1356.291  0.038004119  0.037882131            7 
 2975000   0.76095874   -5.4522043    1355.8742  0.037979669  0.037872718           10 
 2976000   0.77101109    -5.489823    1353.2958  0.037894706  0.037863248            6 
 2977000   0.76273483    -5.477729    1358.6408  0.038031598  0.037853805            4 
 2978000   0.76741217   -5.4567184    1357.2421  0.037979687  0.037844358            3 
 2979000   0.77336081   -5.4307667    1355.5454  0.037919476   0.03783488            7 
 2980000   0.77248685   -5.4373563    1358.0516  0.037976835  0.037825456            6 
 2981000   0.78743219    -5.443622    1358.0514  0.037964089  0.037816077            5 
 2982000   0.77567601   -5.4647511    1356.9956  0.037921854  0.037806691            5 
 2983000   0.76932111   -5.4398545    1359.7708  0.037986669  0.037797334            6 
 2984000   0.76067879   -5.4760463    1357.1981  0.037902091  0.037788035            4 
 2985000   0.77834995   -5.4506669    1360.2132  0.037973569  0.037778774            4 
 2986000   0.78710732   -5.4298634     1360.481  0.037968325  0.037769481            7 
 2987000   0.78608801   -5.4706754    1358.2639   0.03789376  0.037760149            6 
 2988000   0.77610859   -5.4492287    1362.6419  0.038003177  0.037750804            4 
 2989000   0.77545388   -5.3956839    1361.6999  0.037964198  0.037741527            9 
 2990000   0.76886884   -5.4468434    1358.3747  0.037858826  0.037732232           12 
 2991000   0.77009689   -5.4431798     1361.683  0.037938342   0.03772301            6 
 2992000   0.77933793   -5.4766333    1355.7873  0.037761456  0.037713649            6 
 2993000   0.78172119   -5.4654942    1358.5813  0.037826632  0.037704376            4 
 2994000   0.77843313   -5.4449172    1360.8329  0.037876667  0.037694972           15 
 2995000   0.75545904   -5.4609051    1356.9935  0.037757193  0.037685662            4 
 2996000   0.77930421   -5.4425981    1362.0214  0.037884441  0.037676305            6 
 2997000    0.7801218   -5.4528153    1361.7872  0.037865288  0.037667039           15 
 2998000   0.78548222   -5.4489834    1362.8127  0.037881161  0.037657687           22 
 2999000    0.7892134   -5.4546189    1362.4731  0.037859094  0.037648337            8 
 3000000   0.76857772   -5.4389739    1361.4532  0.037818145  0.037638994            4 
 3001000   0.77325464   -5.4730229    1358.7638  0.037730861  0.037629649            4 
 3002000    0.7844176   -5.4629111    1360.2842  0.037760498  0.037620351            8 
 3003000   0.77434999   -5.4583353    1357.9259  0.037682482  0.037611017            4 
 3004000    0.7771272   -5.4723054    1359.5084  0.037713838  0.037601772           12 
 3005000   0.76194599   -5.4725859    1357.8434  0.037655113  0.037592421            6 
 3006000   0.76456709   -5.4799768    1361.9772  0.037757186   0.03758308            5 
 3007000   0.77660365   -5.4716927    1361.5407  0.037732532  0.037573669            6 
 3008000   0.76377955   -5.4586595    1361.0142  0.037705401   0.03756433            5 
 3009000   0.77091969   -5.4763662     1361.721  0.037712446  0.037554999           12 
 3010000   0.78411356    -5.468699    1362.4182  0.037719219  0.037545661            6 
 3011000   0.79418661   -5.4901267    1357.4906  0.037570314  0.037536252            6 
 3012000   0.75762056    -5.465107    1362.6761  0.037701309  0.037526921            6 
 3013000    0.7742081   -5.4745164    1364.4515    0.0377379  0.037517676            3 
 3014000   0.76713156   -5.4631116    1365.3102  0.037749122  0.037508444            8 
 3015000   0.78944624   -5.4820236    1366.9788   0.03778272  0.037499226            6 
 3016000   0.78491645   -5.4571158    1364.3362  0.037697177  0.037489934            7 
 3017000   0.75486651   -5.4793086    1361.2605  0.037599726   0.03748062            5 
 3018000    0.7826763   -5.4909899    1361.8747  0.037604226  0.037471317            9 
 3019000    0.7773179   -5.4844938    1362.7974  0.037617242  0.037462046            4 
 3020000   0.75485703   -5.4525724    1367.4564  0.037733343  0.037452774            7 
 3021000   0.76574605   -5.5112399     1361.009  0.037543005  0.037443508            6 
 3022000   0.77856106   -5.4807035    1363.3168   0.03759422  0.037434235            5 
 3023000   0.77623924   -5.4531325    1365.5409  0.037643095  0.037424992           14 
 3024000   0.77726742   -5.4629587    1364.6652  0.037606514  0.037415734            6 
 3025000   0.75908045    -5.488726    1360.9003  0.037490366  0.037406459            9 
 3026000   0.77183975   -5.4732362    1362.6784  0.037526943  0.037397191           11 
 3027000   0.77124036   -5.4451871    1363.7372  0.037543696  0.037387883            5 
 3028000    0.7584064    -5.479167    1365.6198  0.037583107  0.037378602            5 
 3029000   0.77741056   -5.4948824    1362.4649  0.037483903  0.037369317            7 
 3030000   0.78020392   -5.4475077    1365.3772  0.037551629  0.037360081            5 
 3031000   0.75327456   -5.4709643    1365.9507  0.037555006  0.037350853            8 
 3032000   0.74644526   -5.4764179     1366.428  0.037555738  0.037341633            9 
 3033000   0.78272233   -5.4823687    1368.5228  0.037600911  0.037332399            8 
 3034000   0.77945584   -5.4794512    1364.5127  0.037478376  0.037323106           11 
 3035000   0.77541341   -5.4924814     1360.719  0.037361863  0.037313817            8 
 3036000   0.75859828   -5.4849686    1368.0417  0.037550552  0.037304604           18 
 3037000    0.7616087   -5.4715254    1365.1041  0.037457581  0.037295385           15 
 3038000   0.75070067   -5.4994067    1365.7184  0.037462102  0.037286094           14 
 3039000   0.77640574   -5.4833844    1365.8342  0.037452952  0.037276805            7 
 3040000   0.77476362   -5.4818384    1365.9019  0.037442487  0.037267538            5 
 3041000   0.76045721   -5.5043697    1367.9072  0.037485127  0.037258267            5 
 3042000   0.76553313    -5.466078     1370.358   0.03753994  0.037249032            9 
 3043000   0.76855628   -5.4524172    1370.4236    0.0375294  0.037239848           11 
 3044000   0.75537805   -5.4567582    1369.6546  0.037496021  0.037230727            5 
 3045000    0.7616721   -5.5122566     1368.565  0.037453885  0.037221527           11 
 3046000   0.78286489   -5.4622216    1369.5885   0.03746959  0.037212386            6 
 3047000   0.77899112   -5.4926367    1366.9087  0.037384004  0.037203144            8 
 3048000   0.75361791   -5.4659408    1372.3386  0.037520194  0.037193969            5 
 3049000   0.77670468   -5.4813673    1367.1949  0.037367304   0.03718474           18 
 3050000   0.76846737   -5.4569472    1371.7263  0.037478862  0.037175521           11 
 3051000    0.7647254   -5.4875722    1365.7322  0.037302856  0.037166363            6 
 3052000   0.74891203    -5.493189    1368.0278  0.037353316    0.0371572            9 
 3053000   0.76557578   -5.5084483     1368.373  0.037350501  0.037147955            7 
 3054000   0.76163866   -5.5098472    1368.5546  0.037343228  0.037138635            6 
 3055000   0.77351726   -5.4800121    1372.5334  0.037439536  0.037129383            8 
 3056000   0.76943664   -5.5067868     1368.101   0.03730642  0.037120158            8 
 3057000   0.75189179   -5.4795452    1366.1151   0.03724008  0.037110938            3 
 3058000    0.7663148    -5.500796    1368.2111  0.037285019  0.037101719           15 
 3059000   0.76334448   -5.4677494    1372.2649  0.037383265  0.037092533            4 
 3060000   0.76002931   -5.4771685    1366.5895  0.037216491  0.037083381            5 
 3061000   0.77281268   -5.4978344    1370.8153  0.037319377  0.037074249           13 
 3062000   0.72928194   -5.5017752    1368.2602   0.03723765  0.037065002            7 
 3063000   0.75146974   -5.4840094    1367.3017  0.037199415  0.037055718            7 
 3064000    0.7611842   -5.5033979     1367.875  0.037202867  0.037046482            6 
 3065000   0.75369625   -5.4737006    1369.3252  0.037230157  0.037037217            4 
 3066000   0.77127643   -5.4905547    1367.7882  0.037176239  0.037028007            4 
 3067000   0.75554688   -5.4743271    1375.2233  0.037366136  0.037018836            7 
 3068000    0.7517448   -5.4993764    1366.6256  0.037120426  0.037009642            7 
 3069000   0.73769104   -5.4879712    1371.7673  0.037247944  0.037000485           16 
 3070000   0.76985242   -5.4863244    1370.0239  0.037188488   0.03699135            3 
 3071000   0.76595047    -5.505391    1374.7475  0.037304556  0.036982215           13 
 3072000   0.77854081   -5.4768219    1373.5744  0.037260589  0.036973111            7 
 3073000   0.76660037   -5.4845883    1370.5788  0.037167231  0.036964013           11 
 3074000   0.76363918    -5.498356    1371.1464  0.037170527  0.036954878            6 
 3075000   0.76303637   -5.4783405    1374.0969    0.0372384  0.036945865            8 
 3076000   0.75093491   -5.4960656    1373.5355  0.037211082  0.036936748            5 
 3077000   0.76578881   -5.4727958     1372.964  0.037183513  0.036927672           22 
 3078000   0.75768073   -5.5015991    1375.0643  0.037228296  0.036918569           10 
 3079000   0.77489388   -5.5143277    1375.0608   0.03721611   0.03690954            4 
 3080000   0.75461659   -5.4994934    1373.4595  0.037160701    0.0369004            4 
 3081000   0.75442892   -5.4763683    1377.6557  0.037262137  0.036891269            6 
 3082000   0.75394445   -5.4828313    1375.0007  0.037178258  0.036882236            7 
 3083000   0.78113774   -5.4740381    1372.9005  0.037109429  0.036873144            4 
 3084000   0.75477581   -5.5059794    1377.8108   0.03723008  0.036864034            4 
 3085000   0.75372589   -5.4722893    1376.6859  0.037187627  0.036854937            5 
 3086000   0.76571477   -5.5287364    1370.5357  0.037009496  0.036845783            6 
 3087000   0.74943108   -5.4855327    1371.8319  0.037032498  0.036836704            7 
 3088000    0.7625682   -5.4856636    1375.9097   0.03713055  0.036827653            7 
 3089000   0.72846037   -5.5047748     1373.803  0.037061699   0.03681857           10 
 3090000   0.75912888   -5.5010422    1373.5368  0.037042524  0.036809539            5 
 3091000   0.77903827   -5.5077682    1370.2902  0.036943012  0.036800364            4 
 3092000   0.77515875   -5.4832374    1376.0523   0.03708636  0.036791232            8 
 3093000   0.75474093   -5.4933019    1373.9464  0.037017632  0.036782108           10 
 3094000   0.74903461   -5.4884005    1373.9771  0.037006494  0.036772957           12 
 3095000   0.76061926    -5.503067    1375.8154  0.037044034  0.036763788            4 
 3096000   0.74859455   -5.5091575    1375.3997  0.037020878   0.03675467            8 
 3097000   0.75396366   -5.4896147    1373.7451  0.036964404  0.036745555            6 
 3098000   0.75633762   -5.5014606    1374.2907  0.036967148  0.036736456           10 
 3099000   0.75449086   -5.4909438    1376.8389  0.037023741  0.036727274            6 
 3100000   0.75447168   -5.5103587    1370.3069  0.036836207  0.036718088           26 
 3101000    0.7615798   -5.5025612    1373.6658  0.036914592  0.036708895            5 
 3102000   0.77514079    -5.507234     1374.928  0.036936601   0.03669967           12 
 3103000   0.75279153   -5.5143744    1372.6959  0.036864753  0.036690443           15 
 3104000   0.75980015   -5.5036877     1370.824   0.03680262  0.036681229            4 
 3105000   0.76427337   -5.5128181    1372.6955  0.036840997  0.036672079            8 
 3106000   0.75937455   -5.4785949    1374.1573  0.036868355  0.036662933            8 
 3107000   0.76209882   -5.5030452    1374.5395   0.03686674   0.03665373            7 
 3108000   0.74295231   -5.5225535    1375.3624   0.03687694  0.036644617            7 
 3109000   0.74071813   -5.5110226    1376.9323   0.03690716   0.03663549            2 
 3110000   0.74677712   -5.4968779    1376.3321   0.03687921  0.036626354            4 
 3111000   0.75497542   -5.5052806    1376.9793  0.036884691  0.036617231           10 
 3112000   0.75171919   -5.4890382    1378.6813  0.036918415  0.036608193           10 
 3113000   0.74057858   -5.5030725    1368.4815  0.036633513  0.036599065            8 
 3114000   0.76099636   -5.5207563    1376.7962  0.036844256  0.036589854            9 
 3115000   0.76830635   -5.5144484     1376.153  0.036815222  0.036580707           10 
 3116000   0.75012449   -5.5204254    1375.5153  0.036786354  0.036571618            6 
 3117000    0.7365332   -5.4933561    1374.4516  0.036746111   0.03656243            5 
 3118000   0.74506666   -5.4946035     1378.479  0.036841966  0.036553252            6 
 3119000    0.7579465   -5.4697911    1373.8164   0.03670558    0.0365441            4 
 3120000   0.74785493   -5.5061683    1375.4165  0.036736551  0.036534855           10 
 3121000   0.75476676   -5.4859978    1379.2992  0.036828452  0.036525653           10 
 3122000   0.77066308   -5.4893021     1380.118  0.036838512  0.036516462            9 
 3123000   0.75806293   -5.5064565    1377.6772  0.036761587   0.03650724            6 
 3124000   0.75576832   -5.4859265    1379.4228  0.036796383  0.036498057            7 
 3125000   0.75093023   -5.5103999    1372.8033  0.036608089  0.036488839           10 
 3126000   0.74511866   -5.4976455    1377.7557  0.036728398  0.036479671            7 
 3127000   0.75449598   -5.5043707    1374.3708  0.036626448  0.036470496            7 
 3128000   0.74715599   -5.5310433    1374.6265  0.036621551  0.036461304           10 
 3129000    0.7504601   -5.5241095    1375.8405  0.036642177  0.036452156            8 
 3130000   0.74360305   -5.4848462    1375.7879  0.036629072  0.036443011            7 
 3131000   0.75784604   -5.5208014     1375.727   0.03661575  0.036433852           13 
 3132000   0.75883501   -5.5182688    1377.1542  0.036642033  0.036424626            5 
 3133000   0.75552015   -5.5483262    1374.7054  0.036565204   0.03641547            4 
 3134000   0.75113865    -5.530302    1374.3024   0.03654282  0.036406337            4 
 3135000   0.75144787   -5.5156008    1374.7836  0.036543956    0.0363972            3 
 3136000   0.73661293   -5.4934598    1378.9087  0.036641918  0.036388003            8 
 3137000   0.73414535   -5.5212755    1379.5745  0.036647926  0.036378864            7 
 3138000    0.7603643    -5.507849    1375.5156  0.036528457   0.03636973            8 
 3139000   0.76799295   -5.5231632    1373.5936  0.036465795  0.036360526           10 
 3140000   0.74923371   -5.5051856    1378.6123  0.036587374   0.03635129            4 
 3141000   0.73116872   -5.4953566     1377.268  0.036540062  0.036342163            7 
 3142000   0.73797962   -5.5064926     1378.878  0.036571134   0.03633302            5 
 3143000   0.74965842   -5.5294626    1379.2857  0.036570306  0.036323819            5 
 3144000    0.7573831   -5.5128034    1380.4696  0.036590056  0.036314657           11 
 3145000   0.78105988   -5.5131801    1376.8929   0.03648365   0.03630554            8 
 3146000   0.75853264   -5.5163737      1377.92  0.036499258  0.036296423            5 
 3147000   0.73973724   -5.4863286    1381.2058  0.036574669  0.036287303            7 
 3148000   0.73654021   -5.5191674    1377.7104  0.036470521  0.036278117           17 
 3149000   0.75609845   -5.5244744    1377.8442  0.036462479  0.036268923            8 
 3150000   0.74490683   -5.5138182    1375.6401  0.036392595  0.036259704            7 
 3151000   0.73855021   -5.5231241    1374.0932  0.036340137   0.03625054            9 
 3152000   0.73595977   -5.5328362     1374.477  0.036338753  0.036241293            9 
 3153000   0.74073461   -5.5335837    1375.6916   0.03635933  0.036232007           11 
 3154000   0.75127525    -5.529717    1379.8384  0.036457367  0.036222703            7 
 3155000   0.74036615   -5.5632553    1377.5042  0.036384158  0.036213458            6 
 3156000   0.75131081   -5.5412149    1375.4694  0.036318902   0.03620419            8 
 3157000   0.75813834   -5.5237572    1380.9446  0.036451922  0.036195003            6 
 3158000   0.74929422   -5.5300965     1378.459  0.036374789  0.036185823            4 
 3159000   0.74281449   -5.5342939     1377.142  0.036328532  0.036176591            6 
 3160000   0.74473278    -5.509626     1373.922  0.036232119  0.036167333            8 
 3161000    0.7157372    -5.520079    1376.6341  0.036292157  0.036158065           11 
 3162000   0.74895924    -5.504883    1376.8444  0.036286222   0.03614891            4 
 3163000   0.75489608    -5.514426    1379.4569   0.03634358  0.036139704            5 
 3164000    0.7435821   -5.5178498    1377.0868  0.036269668  0.036130462           11 
 3165000   0.74973782   -5.4999118    1380.6229  0.036351314  0.036121165           10 
 3166000   0.75517583   -5.5358577    1379.7958  0.036318063  0.036111946            7 
 3167000   0.74602563   -5.5290006    1376.6544  0.036223934  0.036102693           12 
 3168000   0.75470056   -5.5205545    1376.5408  0.036209511  0.036093417           16 
 3169000   0.75806174   -5.4921783    1384.5562  0.036408862  0.036084216            5 
 3170000   0.73529971   -5.5320058    1381.0281  0.036304628  0.036075027           13 
 3171000   0.74903375   -5.5331705    1377.7423  0.036206831  0.036065833            8 
 3172000   0.73061528   -5.5413695    1374.2984   0.03610494  0.036056578           17 
 3173000   0.74594171   -5.5250571    1379.5717  0.036232053  0.036047362            5 
 3174000   0.75135699   -5.5352965    1379.9948  0.036231748   0.03603814           13 
 3175000   0.72426035   -5.5059947    1382.3262  0.036281529  0.036028954            6 
 3176000   0.73984457   -5.5733496    1379.8309  0.036204632  0.036019718           13 
 3177000   0.74375531   -5.5040874    1386.2353  0.036361225   0.03601057            8 
 3178000   0.73251627   -5.5213117    1376.3587  0.036090798  0.036001418            7 
 3179000   0.74577823   -5.5297349    1381.5834  0.036216405  0.035992204            7 
 3180000   0.74379896   -5.5180838    1379.6455  0.036154232  0.035982997           23 
 3181000    0.7485594   -5.5410601    1383.3615  0.036240215  0.035973836            8 
 3182000   0.72978493   -5.5547361    1378.7206  0.036107285    0.0359646            4 
 3183000   0.74319281   -5.5353707    1378.9902     0.036103  0.035955431            9 
 3184000   0.74034596   -5.5148317    1384.3281  0.036231367  0.035946281            2 
 3185000   0.74290139   -5.5496882    1375.4503  0.035987709  0.035937074            8 
 3186000   0.73364015   -5.5201291    1383.2693   0.03618093  0.035927866            6 
 3187000   0.74384114   -5.5430609    1380.8206  0.036105547  0.035918688            5 
 3188000   0.75088419   -5.5528245    1387.1777  0.036260396  0.035909463            5 
 3189000    0.7421769   -5.5579176    1382.2459  0.036120149  0.035900281            9 
 3190000   0.74736473   -5.5318136    1383.7994   0.03614941  0.035891162            8 
 3191000   0.73692632   -5.5424078    1383.3499  0.036126342  0.035882101            4 
 3192000   0.74722097   -5.5253738    1381.5181  0.036067201  0.035872956           10 
 3193000   0.73233865   -5.5377451     1382.274  0.036075633  0.035863863            9 
 3194000   0.72740363   -5.5320193    1380.3445  0.036013998  0.035854696            7 
 3195000    0.7347991   -5.5538225    1379.8203  0.035989053  0.035845549           10 
 3196000   0.74233461   -5.5411439    1379.2794  0.035963689  0.035836352            5 
 3197000   0.74277182   -5.5290171    1380.9703  0.035996515  0.035827163           11 
 3198000   0.74393807   -5.5562955    1381.1271  0.035989344  0.035818008            7 
 3199000   0.75288971   -5.5638729    1382.1013  0.036003471   0.03580885            3 
 3200000   0.73965087    -5.559957    1386.3221  0.036102137  0.035799703            6 
 3201000    0.7559234   -5.5608887    1385.9091  0.036080109  0.035790575           11 
 3202000   0.73689561   -5.5133825    1386.4415  0.036082695  0.035781456            7 
 3203000   0.72806912    -5.560996     1383.337  0.035990661  0.035772384            5 
 3204000    0.7313771   -5.5381806    1382.4143  0.035955428  0.035763356            8 
 3205000   0.71937757   -5.5174052     1385.809  0.036032475  0.035754314           13 
 3206000   0.73635657   -5.5346113    1383.1516  0.035952163  0.035745282            4 
 3207000    0.7480821   -5.5188153    1384.5793   0.03597805  0.035736195            3 
 3208000    0.7432965   -5.5342391    1385.3304  0.035986347  0.035727215            6 
 3209000    0.7495975   -5.5513996    1385.2214  0.035972302   0.03571818            3 
 3210000   0.73041822   -5.5275516    1385.6646  0.035972601  0.035709135            3 
 3211000   0.74569317   -5.5121442     1386.235  0.035976201  0.035700113           15 
 3212000   0.74011228   -5.5493607    1384.0115  0.035907315  0.035691116            8 
 3213000   0.72954194   -5.5204714    1383.1952  0.035874966  0.035682059           15 
 3214000   0.73986936    -5.519571    1391.3336  0.036074818  0.035673034            9 
 3215000   0.73794917   -5.5567059    1387.5887  0.035966529   0.03566397           18 
 3216000     0.734403   -5.5579903    1384.7907  0.035882843  0.035654852            6 
 3217000   0.75153498   -5.5542189     1385.046  0.035878302  0.035645701           11 
 3218000   0.73497881    -5.552737    1387.6259  0.035933963  0.035636532            5 
 3219000   0.72516851   -5.5510677    1384.6299   0.03584524  0.035627403            8 
 3220000   0.73996859   -5.5263133    1387.7697  0.035915366  0.035618308            6 
 3221000   0.73352916   -5.5370681    1382.7554  0.035774484  0.035609203            7 
 3222000   0.74952181   -5.5399459    1385.6076   0.03583715  0.035600116            9 
 3223000   0.73242853   -5.5352508    1389.0501   0.03591504  0.035591061            7 
 3224000   0.73696565    -5.539428    1386.6397  0.035841596  0.035582068           15 
 3225000   0.73630903    -5.519915    1393.2342  0.036000883  0.035573004            7 
 3226000   0.74108656   -5.5657828    1389.0207  0.035880883  0.035563985            8 
 3227000   0.73662849   -5.5365656    1386.8898  0.035814736  0.035554905            7 
 3228000   0.73690777   -5.5567408    1385.1463   0.03575863  0.035545791            5 
 3229000   0.72728821   -5.5290371    1388.8032  0.035841933  0.035536714            4 
 3230000   0.74159527    -5.524777    1387.2837  0.035791633  0.035527659           16 
 3231000   0.71916263   -5.5591569    1389.4733  0.035837029  0.035518645            6 
 3232000   0.73900896   -5.5243006    1390.0957  0.035841988  0.035509586            6 
 3233000    0.7194115   -5.5445066     1389.865  0.035824957  0.035500529           16 
 3234000   0.73148785   -5.5589149    1385.9267  0.035712397  0.035491435            7 
 3235000   0.73277823   -5.5576167    1389.5124  0.035793724  0.035482354            9 
 3236000    0.7331054   -5.5521272    1389.3003  0.035777203  0.035473198           11 
 3237000   0.74048072   -5.5602614     1387.602  0.035722428  0.035464108           17 
 3238000   0.72865121   -5.5608753     1386.614  0.035685969   0.03545494            8 
 3239000   0.72615713   -5.5423261    1388.6215  0.035726599  0.035445839            7 
 3240000   0.73939663   -5.5163863    1386.8779  0.035670728  0.035436806            6 
 3241000    0.7256662   -5.5512676    1386.6273  0.035653279  0.035427661            7 
 3242000   0.71327364   -5.5378782    1385.7473   0.03561966  0.035418536            7 
 3243000   0.74130972   -5.5542925    1386.9343  0.035639178  0.035409389           13 
 3244000   0.73977953     -5.52705    1389.7756  0.035701181  0.035400262           10 
 3245000   0.71724477   -5.5578594    1384.9735  0.035566858  0.035391117            5 
 3246000   0.72677153   -5.5570722    1391.2371  0.035716704   0.03538197            7 
 3247000   0.74615202    -5.563418    1386.5112  0.035584417  0.035372807            7 
 3248000   0.71886547    -5.561565    1389.3656  0.035646694  0.035363653            5 
 3249000   0.73419568   -5.5359275    1389.7021  0.035644354   0.03535445            8 
 3250000   0.75182352   -5.5407369    1391.4072  0.035677107  0.035345351            5 
 3251000   0.72910787   -5.5622918    1386.5996  0.035542899  0.035336263            9 
 3252000   0.72283913   -5.5367289    1388.7292  0.035586542  0.035327198            6 
 3253000   0.73412259   -5.5686753    1388.9925  0.035582346  0.035318115            7 
 3254000   0.73843188   -5.5455285    1396.9283  0.035774644  0.035309088           13 
 3255000   0.73930718   -5.5295062    1389.6453  0.035577196  0.035300116            6 
 3256000   0.71608092   -5.5493308    1389.4553  0.035561407  0.035291121           15 
 3257000   0.73279508   -5.5467258    1393.4636  0.035653044  0.035282081            6 
 3258000    0.7261915   -5.5741789    1389.1657   0.03553217  0.035272992            6 
 3259000   0.73197984   -5.5639708    1387.9216  0.035489455   0.03526393            7 
 3260000   0.71231957   -5.5444927    1388.8973   0.03550351  0.035254897           13 
 3261000   0.72869108   -5.5431439    1390.1667   0.03552506  0.035245858           12 
 3262000   0.74025609   -5.5521279    1387.7796  0.035453187  0.035236828            6 
 3263000   0.72339918   -5.5383663    1390.7522   0.03551824   0.03522779            8 
 3264000   0.72454567   -5.5487063    1391.1062  0.035516397  0.035218776           14 
 3265000   0.72944459   -5.5518428    1390.8077    0.0354979  0.035209796            4 
 3266000   0.70250087   -5.5524773    1392.1702  0.035521794  0.035200818            4 
 3267000   0.71080039   -5.5355407     1393.308  0.035539946  0.035191833            6 
 3268000   0.73308078   -5.5442056    1391.1433   0.03547387  0.035182806            9 
 3269000   0.74343621   -5.5514634    1387.6498  0.035373962  0.035173753            6 
 3270000   0.72479579   -5.5485477    1393.9463  0.035523606  0.035164741            8 
 3271000   0.71632575   -5.5502662    1394.5772  0.035528818  0.035155756            9 
 3272000   0.73872748    -5.541078     1392.529  0.035465794  0.035146727            8 
 3273000   0.71265076   -5.5798343    1389.0651  0.035366766  0.035137717           14 
 3274000   0.73349853   -5.5729101    1392.5009  0.035443415  0.035128689           11 
 3275000   0.71490313   -5.6232211    1387.1772  0.035297131  0.035119661           16 
 3276000   0.71165018   -5.5620355    1391.6423  0.035399936  0.035110652            4 
 3277000     0.722546    -5.574436    1391.5804  0.035387561  0.035101669            7 
 3278000   0.72725314   -5.5434605     1395.148   0.03546746  0.035092727            6 
 3279000   0.74004763   -5.5585263     1394.898  0.035450289    0.0350838           12 
 3280000   0.72160011   -5.5659372    1392.9995  0.035391247  0.035074831            8 
 3281000   0.72589325   -5.5399224    1396.4131  0.035467163  0.035065907           11 
 3282000   0.73495925   -5.5737054    1393.5355  0.035383291  0.035056984            9 
 3283000   0.72009874   -5.5890867    1392.5403  0.035347252  0.035048048            8 
 3284000   0.71743604   -5.5717805    1391.6174  0.035313068  0.035039072           14 
 3285000   0.69890347   -5.5498158    1392.3055  0.035319775  0.035030156            3 
 3286000   0.73914302   -5.5718269    1395.2924  0.035384774  0.035021281            5 
 3287000   0.70730451   -5.5664126    1392.6735  0.035307612  0.035012457            4 
 3288000   0.71206962   -5.5588293    1394.7224  0.035348803  0.035003601           10 
 3289000   0.72405671   -5.5631151    1391.9059  0.035266694  0.034994716           15 
 3290000   0.73629653   -5.5525701    1394.6601  0.035325738  0.034985756            9 
 3291000   0.71782408   -5.5819775    1392.9093   0.03527067  0.034976814            4 
 3292000   0.71615896    -5.594186    1391.9863  0.035236592  0.034967814           13 
 3293000   0.72472817     -5.59052    1393.3173  0.035259574  0.034958814            9 
 3294000   0.72499902   -5.5334724    1391.2887  0.035197548  0.034949828            6 
 3295000   0.72840975   -5.5845935    1391.4991  0.035192188   0.03494085            5 
 3296000   0.71908069   -5.5841359    1392.4064  0.035204449  0.034931853           14 
 3297000   0.71980925   -5.5833074    1395.2127  0.035264704   0.03492288            9 
 3298000   0.72603704   -5.5513176    1397.2275  0.035304919  0.034913937           12 
 3299000   0.73269743   -5.5515085    1396.7005  0.035280907  0.034905035            6 
 3300000   0.71778517   -5.5490827    1396.6328  0.035268506  0.034896129           12 
 3301000   0.72347316   -5.5662833    1398.2318  0.035298187  0.034887207            6 
 3302000   0.72994242   -5.5371966    1396.6042  0.035246421  0.034878334           12 
 3303000   0.72196903   -5.5723992    1390.5467  0.035082922  0.034869344           18 
 3304000   0.71627275   -5.5966871    1394.1406  0.035162949  0.034860369            6 
 3305000   0.71837901   -5.5748457    1398.3265  0.035257855  0.034851406           12 
 3306000   0.72572284   -5.5915076    1392.2393  0.035093751  0.034842447           14 
 3307000   0.72661112   -5.5643434     1396.462  0.035189548  0.034833496            4 
 3308000    0.7290925   -5.5954718     1394.128  0.035120112  0.034824539            5 
 3309000   0.69472613   -5.5763774     1395.453  0.035142868  0.034815647            6 
 3310000   0.70825701   -5.5804485    1394.1396  0.035099183  0.034806739            8 
 3311000    0.7338874   -5.5813855    1397.6311   0.03517646  0.034797789            6 
 3312000   0.71732283   -5.5789166    1395.3091  0.035107414  0.034788829            6 
 3313000   0.72802171     -5.60531    1394.4399  0.035074956  0.034779894           22 
 3314000   0.72212966    -5.602562    1393.2367  0.035034116  0.034770964            9 
 3315000   0.73557736    -5.609742    1390.5384  0.034955717  0.034762001            6 
 3316000   0.70210315   -5.5884796    1397.7734  0.035126995  0.034753065            8 
 3317000   0.73551487   -5.5830233    1397.8613  0.035118612  0.034744145            6 
 3318000   0.73101358   -5.6015202    1394.8135  0.035031481  0.034735191            6 
 3319000   0.73497697   -5.6055197    1396.1886  0.035055452   0.03472626           19 
 3320000    0.7120746   -5.5981725    1396.6265  0.035055885  0.034717323            6 
 3321000   0.71287267   -5.5661585    1397.7948  0.035074645  0.034708487            5 
 3322000   0.71757164    -5.589215    1392.6525  0.034935092  0.034699572            6 
 3323000   0.74418666   -5.5668154    1403.4695  0.035195844  0.034690691            8 
 3324000   0.71876815   -5.5865087    1399.0943   0.03507557  0.034681871            7 
 3325000   0.72716055   -5.5610151    1399.9338   0.03508606  0.034673058           11 
 3326000   0.72851353   -5.5698779     1397.637  0.035017963  0.034664256           16 
 3327000    0.7184298   -5.6056904    1398.8437  0.035037665  0.034655418            8 
 3328000   0.72998712   -5.5821698    1398.6736  0.035022878  0.034646597            7 
 3329000   0.70835977   -5.5739443    1399.4811  0.035032571  0.034637819            7 
 3330000   0.72718579   -5.5713749    1400.5331  0.035048377  0.034629034            9 
 3331000    0.7225733   -5.5554662    1402.7374  0.035092999  0.034620243            7 
 3332000   0.72400102   -5.5595012    1402.2335  0.035069866  0.034611487            7 
 3333000   0.71437765   -5.5585876    1401.1121  0.035031307  0.034602691           10 
 3334000   0.71005445   -5.5785382    1402.2455  0.035049127   0.03459386            9 
 3335000    0.7182294   -5.5768998    1401.9567  0.035031402  0.034585014            5 
 3336000   0.71763961   -5.5801812    1398.1132  0.034924889  0.034576132           15 
 3337000   0.71145457   -5.5723447    1401.8529  0.035007815  0.034567323            7 
 3338000   0.72263053   -5.5885187    1400.3973  0.034960988  0.034558469            4 
 3339000   0.70501252   -5.5982253    1398.3556   0.03489956  0.034549654            8 
 3340000   0.73422441   -5.5969853    1400.3336  0.034938463  0.034540779            8 
 3341000   0.71840642   -5.5692099     1400.335  0.034928041  0.034531967            8 
 3342000    0.7250582   -5.6235444      1396.65  0.034825704  0.034523162           12 
 3343000   0.71488039   -5.6060901    1398.8379  0.034869825  0.034514352            8 
 3344000   0.72453258   -5.5748175    1401.8644   0.03493482  0.034505515            7 
 3345000   0.70119799   -5.6044364    1399.7394  0.034871435  0.034496676            8 
 3346000   0.72255087   -5.5941388    1400.2086  0.034872698  0.034487814            6 
 3347000   0.71959966   -5.5734791    1396.7204   0.03477543  0.034478952            8 
 3348000   0.71744682   -5.5844165    1401.5581  0.034885456  0.034470108            7 
 3349000   0.69989932   -5.5826009    1402.8879  0.034908129  0.034461328           10 
 3350000   0.72624398   -5.5879181    1401.3458  0.034859349  0.034452539           11 
 3351000    0.7200771   -5.6103968    1400.1473   0.03481914  0.034443767            9 
 3352000   0.72849905   -5.5801563    1399.3403  0.034788691  0.034435022            4 
 3353000   0.71369753   -5.5491176    1404.4709  0.034905827  0.034426285            7 
 3354000   0.71013718   -5.5804787    1403.0691  0.034860591  0.034417612           10 
 3355000   0.72739783   -5.5952733    1401.6975  0.034816132  0.034408834            7 
 3356000   0.72165267   -5.6304247    1404.6332  0.034878656  0.034400008           10 
 3357000   0.71429483   -5.5832728    1398.6966  0.034720896  0.034391161           12 
 3358000   0.72555438   -5.5933322    1404.9617  0.034866034  0.034382307            7 
 3359000   0.71767884   -5.6101767    1403.6928  0.034824173  0.034373503           11 
 3360000   0.72835596   -5.5983484    1404.6491  0.034837527  0.034364759            8 
 3361000   0.71717342   -5.5763521    1404.5182  0.034823917  0.034355984           12 
 3362000   0.72627822   -5.5970294     1401.897  0.034748586   0.03434723            8 
 3363000   0.71785172   -5.5987511    1400.8813  0.034713087  0.034338405           14 
 3364000   0.72635381   -5.6037382    1400.9043  0.034703337  0.034329609            6 
 3365000   0.70377419   -5.5812714    1403.5849  0.034759408  0.034320865            9 
 3366000   0.71127004   -5.5893864     1402.244  0.034715886  0.034312124           10 
 3367000   0.71489041   -5.6106531    1406.7974  0.034818271  0.034303344           16 
 3368000   0.70516844   -5.5976684    1403.8204  0.034734273  0.034294596           12 
 3369000   0.71660847   -5.5946114    1402.9297  0.034701931  0.034285827           15 
 3370000    0.7121612   -5.5885906    1403.6649  0.034709813  0.034277074           13 
 3371000   0.71044102    -5.599136    1408.4703   0.03481831   0.03426835            5 
 3372000   0.70542198    -5.604697    1401.8309  0.034643903  0.034259583           15 
 3373000   0.71422085   -5.6125622    1400.3233  0.034596385  0.034250768            7 
 3374000   0.72879565   -5.6292158    1397.6918  0.034521138   0.03424195            9 
 3375000   0.71795219   -5.6242523    1401.2389   0.03459849  0.034233119            7 
 3376000   0.70644448   -5.6025297    1404.3926  0.034666088  0.034224347           18 
 3377000   0.70805593   -5.5936421    1407.0752  0.034722022  0.034215623            7 
 3378000   0.71726051   -5.6003463    1404.5246   0.03464882  0.034206871            9 
 3379000   0.70421799   -5.6076619    1407.7221  0.034717425  0.034198112           10 
 3380000   0.71270326   -5.6359458    1400.6017    0.0345316  0.034189322           19 
 3381000   0.71776181   -5.5974793    1406.2756  0.034661235   0.03418057            6 
 3382000   0.69785682   -5.6240961    1405.3006  0.034626961  0.034171805            8 
 3383000   0.72748112   -5.5962906    1410.1059  0.034735094   0.03416306            6 
 3384000    0.7069848   -5.6012172    1404.9192  0.034597104  0.034154398           17 
 3385000   0.72615105   -5.5827787    1407.4641  0.034649534   0.03414567            6 
 3386000     0.705704   -5.5967353    1406.4388  0.034614067  0.034136987            5 
 3387000   0.72366163      -5.5907    1405.9241  0.034591185   0.03412836            6 
 3388000   0.70659101   -5.5855757    1406.3931  0.034592511  0.034119665            5 
 3389000    0.7262945   -5.5962368    1403.5697  0.034512876  0.034110952           10 
 3390000   0.70102949   -5.6056006     1405.475  0.034549532   0.03410228            8 
 3391000   0.70428355   -5.6091308    1403.9551  0.034501992  0.034093595            5 
 3392000   0.71187672   -5.6137869    1405.8446  0.034538243  0.034084921           10 
 3393000   0.71254266   -5.6037267    1409.1388   0.03460897  0.034076177           13 
 3394000   0.68761163   -5.6256045    1402.4274  0.034433986  0.034067422           15 
 3395000   0.69199255   -5.6167224    1405.5276  0.034499941  0.034058739           10 
 3396000   0.70907592   -5.6445438    1406.9866  0.034525583  0.034050026            8 
 3397000   0.70266864   -5.5862946    1408.7967  0.034559824   0.03404138            6 
 3398000   0.70507349   -5.6059061    1403.6685  0.034423888  0.034032686            9 
 3399000   0.70625704   -5.6149137    1405.4241  0.034456804  0.034023946           13 
 3400000   0.71641581   -5.6241002    1404.7533  0.034430228  0.034015242            7 
 3401000   0.69890954   -5.6180103    1407.1988  0.034480025  0.034006543           10 
 3402000   0.71169336   -5.5958587    1406.9356  0.034463444  0.033997845            6 
 3403000   0.71238983   -5.5988138    1409.3438  0.034512287  0.033989182            6 
 3404000   0.70377768   -5.6147894    1409.8547  0.034514657  0.033980498           17 
 3405000   0.71125343    -5.622095    1408.0006  0.034459143   0.03397177            7 
 3406000   0.70829144   -5.6219539    1403.9828  0.034350724   0.03396307            8 
 3407000   0.68743169   -5.6227854    1407.2919  0.034421581  0.033954361            8 
 3408000   0.70718178   -5.6292374    1410.0048  0.034477817  0.033945666           10 
 3409000   0.70862914   -5.6254903    1406.9063  0.034391959  0.033936946           15 
 3410000   0.70289763   -5.5878983     1410.459  0.034468695  0.033928301           12 
 3411000   0.70618577   -5.6015174    1408.4945  0.034410596  0.033919706            4 
 3412000   0.70683605   -5.5978116    1410.8338  0.034457645  0.033911048            5 
 3413000   0.69470723   -5.6218106    1409.7384  0.034420803  0.033902368           13 
 3414000   0.70121511    -5.601576    1409.1653  0.034396732   0.03389368            9 
 3415000   0.72198884   -5.6178666    1410.6502  0.034422894  0.033885041           17 
 3416000   0.69469237   -5.6355952    1404.8095  0.034270332  0.033876334            8 
 3417000    0.7087875   -5.6159163    1407.4464  0.034324613   0.03386762            8 
 3418000   0.69674568   -5.6163877    1410.2911  0.034383925  0.033858903           12 
 3419000   0.69561321   -5.6464863    1401.9036  0.034169434  0.033850192           32 
 3420000   0.70068418   -5.6121823    1409.1316  0.034335566  0.033841426           14 
 3421000   0.70540807   -5.6369238    1406.8041  0.034268833  0.033832739           20 
 3422000   0.70048876   -5.6420555    1407.5098  0.034276003  0.033824039            7 
 3423000   0.69994105   -5.6146476    1406.9974  0.034253517   0.03381525           11 
 3424000   0.70844243   -5.6222409    1409.7088  0.034309501  0.033806541           10 
 3425000   0.69831865    -5.644004    1404.8836  0.034182084   0.03379785           11 
 3426000   0.71094139   -5.6384244     1406.122  0.034202228  0.033789137           19 
 3427000   0.68375031    -5.628224    1410.4952   0.03429859  0.033780494           17 
 3428000   0.69322881   -5.6252544    1407.7236  0.034221209  0.033771843            6 
 3429000   0.71496417   -5.5867267    1410.3455  0.034274946  0.033763244            7 
 3430000   0.71742724   -5.5949817    1407.9254  0.034206156  0.033754628            5 
 3431000   0.70733279   -5.6224636    1407.8073  0.034193318  0.033746018            9 
 3432000   0.72480654   -5.6291199    1407.9002  0.034185612  0.033737364            9 
 3433000   0.68711989   -5.6396883    1410.1608  0.034230526  0.033728707            6 
 3434000   0.69669122   -5.6134931    1409.3298  0.034200392  0.033720111            6 
 3435000   0.69331721   -5.6131708    1414.7715  0.034322454  0.033711525            9 
 3436000   0.71566937   -5.6349349    1409.8175  0.034192314  0.033702886           25 
 3437000   0.70211985    -5.645402    1407.5514  0.034127423  0.033694197            8 
 3438000   0.70765254   -5.6227189    1407.8865  0.034125618  0.033685525           10 
 3439000    0.6873349   -5.6009375     1410.353  0.034175462  0.033676874            6 
 3440000    0.6897368   -5.6146588    1412.4751  0.034216937  0.033668207            7 
 3441000   0.69152036   -5.6085655    1412.7792  0.034214356    0.0336596            6 
 3442000    0.6929635    -5.638876    1411.1451  0.034164853  0.033650948            6 
 3443000   0.71745077   -5.6416324    1408.5551  0.034092243  0.033642251           15 
 3444000   0.70631903   -5.6438154     1407.225  0.034050159  0.033633531            6 
 3445000   0.68328592    -5.611575    1409.8496  0.034103765  0.033624809            9 
 3446000    0.7037455   -5.6287926    1410.8275  0.034117515  0.033616116            7 
 3447000   0.71840954   -5.6128056    1408.5857   0.03405342  0.033607489           10 
 3448000   0.69903008   -5.6187353    1410.3391  0.034085921   0.03359881            9 
 3449000   0.68238202   -5.6138364    1410.3215  0.034075613  0.033590208           11 
 3450000   0.70773871   -5.6307357    1408.2821  0.034016476  0.033581546            7 
 3451000    0.6975549   -5.6533932    1406.4873  0.033963279  0.033572797            9 
 3452000   0.71355733   -5.6265204    1410.8074   0.03405773  0.033564089           16 
 3453000   0.68896943   -5.6258944     1413.799  0.034120065   0.03355537            5 
 3454000   0.69197636   -5.6220059    1409.1923  0.033999042  0.033546669           16 
 3455000   0.70300128   -5.6393818    1407.6088  0.033951008  0.033537938            8 
 3456000   0.70237915   -5.6315751     1410.238  0.034004581  0.033529237            7 
 3457000   0.69560177   -5.6405802    1411.4632  0.034024279  0.033520482            8 
 3458000   0.69665508   -5.6445636    1409.4275  0.033965382  0.033511736            5 
 3459000   0.69938349   -5.6217697     1407.433  0.033907512  0.033503068           12 
 3460000   0.69235958   -5.6187653    1411.7496  0.034001675  0.033494379            5 
 3461000   0.70531514   -5.6212596    1409.9666  0.033948921  0.033485714            7 
 3462000   0.69780797   -5.6322415    1408.9059  0.033913583  0.033477115           17 
 3463000   0.69650543   -5.6361139    1409.0514  0.033907292  0.033468495            4 
 3464000   0.70325286   -5.6421848    1410.5006  0.033932366  0.033459896            9 
 3465000    0.7069037   -5.6336027    1414.9726  0.034030125  0.033451273            8 
 3466000   0.69436917   -5.6301853    1410.7753   0.03391939  0.033442652           25 
 3467000    0.7147327   -5.6312979    1410.9655  0.033914178  0.033433976           30 
 3468000   0.69379335   -5.6566868    1411.7703  0.033923739  0.033425282            7 
 3469000   0.68657501   -5.6386216    1411.2886  0.033902388  0.033416581           10 
 3470000   0.70100473   -5.6524593    1407.3811  0.033798778  0.033407851           11 
 3471000   0.68759201   -5.6076648    1413.3983  0.033933504  0.033399146            5 
 3472000   0.70340596    -5.641254    1411.2842   0.03387299  0.033390473           10 
 3473000   0.71036881   -5.6376398    1411.8492  0.033876793  0.033381821            7 
 3474000   0.69164337   -5.6508027    1407.7588   0.03376892  0.033373128            7 
 3475000   0.69350064    -5.625171    1413.3671  0.033893696  0.033364498           15 
 3476000   0.70273667   -5.6438624    1413.9044  0.033896825  0.033355919            8 
 3477000   0.70139278   -5.6346987    1413.5733  0.033879142  0.033347385           14 
 3478000   0.69041348   -5.6493155     1413.129  0.033858755  0.033338803            7 
 3479000   0.70625939   -5.6306946     1413.759  0.033864113  0.033330155            6 
 3480000   0.69157623   -5.6506896    1407.9495  0.033715266  0.033321496            6 
 3481000   0.69539939   -5.6329186    1411.6517   0.03379421  0.033312862           13 
 3482000   0.67505521   -5.6462192    1409.0766  0.033722876  0.033304212            7 
 3483000    0.6826754   -5.6428961    1411.6496  0.033774754  0.033295553           13 
 3484000   0.69130366   -5.6290175    1413.5046   0.03380943  0.033286894            7 
 3485000   0.67154826   -5.6121118    1415.2882  0.033842376  0.033278273            8 
 3486000   0.68517115   -5.6256486    1412.8432  0.033774221  0.033269662            9 
 3487000   0.67264428   -5.6183918    1412.6546  0.033760029  0.033261064            6 
 3488000    0.6960391   -5.6549521    1410.4266  0.033697119  0.033252365            5 
 3489000   0.69941469   -5.6614263    1411.4334  0.033711509  0.033243724           14 
 3490000   0.69637992   -5.6484937    1411.8165  0.033710995  0.033235039           17 
 3491000   0.68412262    -5.657596    1413.6171   0.03374432  0.033226382           12 
 3492000    0.7018279    -5.662301    1412.0191  0.033696523  0.033217759           11 
 3493000   0.70389638   -5.6364159    1413.5681  0.033723832  0.033209233            8 
 3494000   0.69006824   -5.6535451    1415.3919  0.033757678  0.033200626           12 
 3495000   0.69589374   -5.6555077    1411.4617  0.033654308  0.033191937            9 
 3496000   0.69332154   -5.6681794    1411.8797  0.033654645  0.033183306           18 
 3497000   0.67285164   -5.6427832    1412.3702  0.033656712  0.033174734            9 
 3498000   0.69942503   -5.6512469    1414.1012  0.033688328  0.033166145            4 
 3499000   0.69982462   -5.6561628    1412.2336   0.03363422  0.033157516            5 
 3500000     0.685012   -5.6419923    1417.7481  0.033755908  0.033148982            8 
 3501000   0.68873089   -5.6489391    1413.2146  0.033638355  0.033140445            6 
 3502000   0.69150287   -5.6504484    1415.3481   0.03367952  0.033131909            7 
 3503000   0.70583094   -5.6194813     1418.076  0.033734798   0.03312339           13 
 3504000   0.69201712   -5.6600925    1415.2232  0.033657324  0.033114851           14 
 3505000   0.69949105   -5.6558346    1413.4518  0.033605606  0.033106252            9 
 3506000   0.67619727     -5.64334     1415.574  0.033646463  0.033097682            5 
 3507000   0.69747996   -5.6558251    1418.4243  0.033704598  0.033089116           12 
 3508000   0.68791805   -5.6528231    1416.3284  0.033645202  0.033080581           18 
 3509000   0.68741891    -5.668928    1414.8669  0.033600905   0.03307201           10 
 3510000   0.69774085   -5.6354486    1414.8604  0.033591178  0.033063465           21 
 3511000   0.68669054   -5.6722262    1414.6669  0.033577018   0.03305492           12 
 3512000   0.68827525   -5.6574571     1411.869  0.033501067  0.033046332            5 
 3513000   0.68503853   -5.6504632    1413.2204  0.033523588  0.033037761            8 
 3514000   0.70177804   -5.6697825    1416.0741  0.033581723  0.033029224            7 
 3515000   0.67086686    -5.655578    1417.5925  0.033608167  0.033020681            7 
 3516000   0.68157563   -5.6627603     1414.181  0.033517753  0.033012113           10 
 3517000   0.69655154   -5.6566024     1417.193   0.03357959   0.03300353           10 
 3518000   0.68406171   -5.6440125    1414.8159  0.033513737   0.03299506           14 
 3519000   0.67903832   -5.6448009    1417.4214  0.033565915  0.032986562            5 
 3520000   0.70222358   -5.6399559    1418.6053  0.033584406  0.032978038           11 
 3521000   0.70050092   -5.6585574    1417.8064  0.033555961   0.03296952            7 
 3522000   0.69794437    -5.650745     1414.357  0.033464816  0.032960971           13 
 3523000   0.70299371   -5.6550156    1414.9699  0.033469815  0.032952441           12 
 3524000   0.67005625   -5.6468806    1414.7146  0.033454281  0.032943847           19 
 3525000   0.69249757   -5.6773025    1412.3466  0.033388808  0.032935255           20 
 3526000   0.68431045   -5.6617616    1414.6585  0.033433978  0.032926671           17 
 3527000    0.6878074   -5.6520084    1414.1986  0.033413632  0.032918134           18 
 3528000   0.68301566   -5.6603064    1416.7257  0.033463854   0.03290955            9 
 3529000   0.69652886   -5.6715056    1411.9572  0.033341769  0.032901015           14 
 3530000   0.68932657   -5.6490414    1418.2331  0.033480479  0.032892458            5 
 3531000   0.67660189   -5.6467194    1418.1548  0.033469149  0.032883892           11 
 3532000     0.696406   -5.6722597    1418.1035  0.033458462  0.032875418           11 
 3533000   0.69769559   -5.6385088    1418.8099  0.033465655    0.0328669           30 
 3534000   0.69354379   -5.6359875    1417.6315  0.033428397  0.032858403            9 
 3535000   0.69535083   -5.6708231    1415.9586  0.033379506  0.032849839           23 
 3536000     0.688229   -5.6722702    1419.1972   0.03344639  0.032841324            9 
 3537000   0.68929378   -5.6568964    1416.7911  0.033380244  0.032832758           10 
 3538000   0.70265711   -5.6583834     1417.066  0.033377284  0.032824179           15 
 3539000   0.69442493   -5.6892679    1416.0124  0.033343045  0.032815567           14 
 3540000    0.6674697     -5.67637    1416.5221  0.033345623  0.032806966            8 
 3541000   0.69106529   -5.6902661    1411.6256  0.033220973  0.032798408            8 
 3542000   0.68834531    -5.663248    1413.7679  0.033261997  0.032789818            9 
 3543000   0.68181691   -5.6556867    1421.1481  0.033426194   0.03278127            8 
 3544000   0.68552173    -5.642594    1417.3024  0.033326336  0.032772762           14 
 3545000   0.69401861    -5.668533    1416.8773  0.033306941  0.032764245            9 
 3546000   0.68913853   -5.6486941    1416.3304  0.033284697    0.0327557            9 
 3547000   0.68867879   -5.6681326    1419.7711  0.033356149  0.032747166           12 
 3548000   0.68255103   -5.6940718    1417.1819  0.033285933  0.032738636            8 
 3549000   0.68481366   -5.6675975    1415.2833  0.033231975  0.032730078            6 
 3550000   0.67439567   -5.6536932     1421.522  0.033369061  0.032721557            4 
 3551000   0.67336704   -5.6669798    1416.6881  0.033246224  0.032713011            6 
 3552000   0.69168517   -5.6533721    1415.4355  0.033207477   0.03270446            7 
 3553000   0.68860236   -5.6524993    1417.8005    0.0332536  0.032695934            7 
 3554000   0.69031108   -5.6597134    1417.8561  0.033245548  0.032687449            9 
 3555000   0.67335739     -5.66232    1417.0147  0.033216473  0.032678977           13 
 3556000   0.69860865   -5.6759968    1420.0844  0.033279068  0.032670479            5 
 3557000   0.67547467   -5.6771719    1416.5988  0.033188053  0.032661989            8 
 3558000   0.67178512   -5.6694054    1417.1317  0.033191206  0.032653506           11 
 3559000   0.68408246   -5.6556539    1419.1904  0.033230083  0.032645062            9 
 3560000   0.69857443   -5.6645548    1421.7818   0.03328141   0.03263663           10 
 3561000   0.68184557   -5.6678233    1422.5205   0.03328935  0.032628169            8 
 3562000   0.68992469   -5.6353471     1420.186  0.033225388  0.032619744           17 
 3563000   0.68467961   -5.6621394    1419.0993  0.033190647  0.032611305            9 
 3564000   0.68740672   -5.6588127    1420.1165  0.033205118  0.032602854           13 
 3565000   0.67333838   -5.6440712    1419.3145  0.033177056  0.032594431            9 
 3566000   0.67698945   -5.6786581    1416.4893  0.033101731  0.032585976           11 
 3567000   0.67878245   -5.6659125    1417.1742  0.033108453  0.032577508           16 
 3568000   0.68765633   -5.6717049     1419.667  0.033157394  0.032569009           12 
 3569000   0.66567325   -5.6581593    1422.0655  0.033204108  0.032560524           11 
 3570000   0.67240112   -5.6832229    1419.2594  0.033129305  0.032552073            9 
 3571000   0.68051706   -5.7052381    1419.4097  0.033123534  0.032543573            7 
 3572000   0.67546688    -5.664876    1418.7064  0.033097853  0.032535138            7 
 3573000     0.679904    -5.675806    1420.3323  0.033126511  0.032526707           11 
 3574000   0.68007108   -5.6730449    1420.1504  0.033113002   0.03251826           10 
 3575000   0.67068392   -5.6828528    1418.9703  0.033076231  0.032509809           10 
 3576000   0.67076425    -5.661919    1422.2773  0.033144046   0.03250135           14 
 3577000   0.68621678   -5.6592122    1420.8629  0.033101828  0.032492897            5 
 3578000   0.66648862   -5.6974909    1417.4421  0.033012904  0.032484422            8 
 3579000   0.68015466   -5.7079657    1417.2435  0.032999057  0.032475893           10 
 3580000   0.68118199   -5.6888343    1419.4042  0.033040135  0.032467345           17 
 3581000   0.68300427   -5.7016338    1415.8046  0.032947143  0.032458786            7 
 3582000   0.67324544    -5.678654    1415.0081  0.032919414  0.032450238            5 
 3583000   0.68455272   -5.6727705    1419.7884  0.033021406  0.032441752           15 
 3584000   0.67957596   -5.6550613    1421.0307  0.033041078   0.03243324            9 
 3585000   0.67987536   -5.6595721    1419.6639   0.03300009  0.032424711           19 
 3586000   0.67087814   -5.6950767    1419.5777  0.032988885    0.0324162           16 
 3587000   0.68390492   -5.6937378    1415.3621  0.032881752  0.032407648           31 
 3588000   0.68614743    -5.689089    1418.8623  0.032953882   0.03239912           12 
 3589000   0.68353631   -5.6979746    1416.0657  0.032879764  0.032390557           16 
 3590000   0.67904076   -5.6856117      1413.28  0.032805943  0.032382001            5 
 3591000   0.66833616   -5.6922854    1417.4027  0.032892478  0.032373459           11 
 3592000    0.6754407   -5.6848481    1421.9062  0.032987801   0.03236488           17 
 3593000   0.67427905   -5.6906544     1416.876  0.032861953  0.032356355           10 
 3594000   0.67029813   -5.6782176    1418.3442  0.032886853  0.032347858            6 
 3595000   0.67496422   -5.6645994    1418.4131  0.032879303  0.032339347            7 
 3596000   0.68774944    -5.668914     1420.547  0.032919611  0.032330876           10 
 3597000   0.68975721   -5.6838592    1417.1205  0.032831075  0.032322378           27 
 3598000   0.67604655   -5.7074669    1415.7998  0.032791362  0.032313803           15 
 3599000   0.67893409   -5.6909617    1419.4447  0.032866647  0.032305213            9 
 3600000   0.67959052   -5.6926306     1415.369  0.032763172  0.032296666           15 
 3601000   0.66922705   -5.6958923    1415.4682  0.032756368  0.032288067            8 
 3602000   0.67301837   -5.7092441    1416.6972  0.032775707  0.032279466           13 
 3603000    0.6791868   -5.6862584      1418.19  0.032801137  0.032270926           11 
 3604000    0.6662762   -5.6702568    1420.5823  0.032847352  0.032262402           13 
 3605000   0.67855225    -5.676896    1418.5486   0.03279123   0.03225387           13 
 3606000   0.66891914   -5.6797556    1415.9879  0.032722959   0.03224533           13 
 3607000   0.67416592   -5.6987943    1419.1079   0.03278597  0.032236812           30 
 3608000   0.67956646   -5.6860491    1416.4532  0.032715567  0.032228266            6 
 3609000   0.66480856   -5.6743492    1418.9623  0.032764439  0.032219711           11 
 3610000   0.67814662   -5.7042489    1415.5162  0.032675813   0.03221114           11 
 3611000    0.6647096   -5.6986756    1416.3073   0.03268502  0.032202549           11 
 3612000   0.67458655   -5.6832751    1420.8841  0.032781565  0.032193958           17 
 3613000   0.67345516   -5.6755851    1420.4615  0.032762743  0.032185457           25 
 3614000   0.67275586   -5.6835068    1420.2919  0.032749767   0.03217697            5 
 3615000   0.67300263   -5.6831912    1417.6254  0.032679239  0.032168463           22 
 3616000   0.67563926   -5.7097318    1419.4643  0.032712581  0.032159933           21 
 3617000   0.66729412   -5.6595003    1421.2769  0.032745297  0.032151437            7 
 3618000   0.68645639   -5.6814263     1419.424  0.032693568  0.032143003            5 
 3619000   0.66459307   -5.7195426    1415.1792  0.032586793  0.032134524            7 
 3620000   0.67861819   -5.6839556      1419.33  0.032673342  0.032126015           16 
 3621000   0.67814384   -5.6714203    1422.4494  0.032736109  0.032117527           16 
 3622000   0.68381268   -5.6762171    1419.6556  0.032662792  0.032109115           28 
 3623000   0.66990823   -5.6987046    1422.9608  0.032729801  0.032100675           11 
 3624000   0.66627689   -5.6833912    1421.1825  0.032679878  0.032092219           21 
 3625000   0.66168464   -5.6968921    1420.1412  0.032646924  0.032083765           15 
 3626000   0.67220664   -5.6803033    1421.4109    0.0326671  0.032075299            9 
 3627000   0.65868251   -5.7009599    1421.6882  0.032664465  0.032066854            9 
 3628000   0.68181154    -5.672556    1421.6872  0.032655439  0.032058464           10 
 3629000   0.66928855   -5.6811435     1422.297  0.032660443  0.032050022           16 
 3630000   0.66205963   -5.6961091    1419.3371  0.032583497  0.032041594           11 
 3631000   0.66785455   -5.6875835    1422.5779    0.0326489  0.032033205            5 
 3632000   0.66464882   -5.6933181    1420.6817  0.032596406  0.032024801            7 
 3633000   0.67820909   -5.6981643    1423.3269  0.032648108  0.032016353           10 
 3634000   0.67754841   -5.6954852    1422.0185  0.032609121  0.032007923            9 
 3635000    0.6573629   -5.6940498    1421.8982   0.03259739   0.03199952            8 
 3636000   0.66718729   -5.6704962    1425.9525  0.032681346  0.031991162            8 
 3637000   0.65855402   -5.7051041    1422.6352  0.032596353  0.031982747           14 
 3638000   0.65903084   -5.6997983    1419.6911  0.032519953  0.031974327           11 
 3639000   0.65826975   -5.7197764    1424.0034  0.032609769  0.031965896           14 
 3640000   0.65967596   -5.7179836      1422.22  0.032559981  0.031957461           18 
 3641000   0.66357482   -5.6968745    1423.3104  0.032575995  0.031949057           13 
 3642000    0.6846127    -5.686141    1426.6104  0.032642558  0.031940672           10 
 3643000   0.68356429   -5.7020805    1422.8584  0.032547772  0.031932351           10 
 3644000   0.67607419   -5.6932061    1426.5527  0.032623323  0.031923953            3 
 3645000   0.65650633    -5.731918    1424.7696  0.032573609  0.031915586            9 
 3646000   0.67477911   -5.6873866    1426.0987  0.032595051  0.031907196           16 
 3647000   0.63219269   -5.7168834    1423.6615  0.032530424  0.031898798            8 
 3648000   0.65853306   -5.7152693    1417.7881  0.032387339  0.031890417           10 
 3649000   0.67672258   -5.7156201    1422.4927  0.032485903  0.031882041           31 
 3650000   0.66678698   -5.7102303    1418.8424  0.032393661   0.03187366           11 
 3651000   0.66319445   -5.7074836    1422.5655  0.032469769  0.031865257           11 
 3652000   0.67881156   -5.7188625    1419.3815  0.032388224  0.031856862            8 
 3653000   0.65562399   -5.7218938    1421.7432  0.032433233  0.031848458           11 
 3654000   0.64862825   -5.7020608    1423.6884   0.03246872  0.031840015           10 
 3655000   0.67958887   -5.7152629    1423.2502  0.032449844  0.031831599           14 
 3656000   0.67220815    -5.707805     1422.166  0.032416256  0.031823218            8 
 3657000   0.67217768   -5.6766352    1422.0471  0.032404683  0.031814804            9 
 3658000   0.66669062   -5.7257053    1424.0048  0.032440423  0.031806414           36 
 3659000   0.65597096   -5.7273174    1422.0484     0.032387  0.031798037           12 
 3660000   0.67606357   -5.7033962    1424.6429  0.032437224  0.031789678           22 
 3661000   0.67540706   -5.7290425    1423.1755  0.032394962  0.031781321            9 
 3662000   0.66857666   -5.7051837     1425.069  0.032429206  0.031772993            7 
 3663000   0.64450066   -5.7308735    1426.3007  0.032448373  0.031764639            8 
 3664000    0.6593593   -5.6981491    1423.3946  0.032373422  0.031756288           14 
 3665000   0.66770443   -5.6976819    1425.0634  0.032402534  0.031747935            7 
 3666000   0.64891467   -5.6956724     1424.418  0.032379023  0.031739619           10 
 3667000   0.66605578    -5.688652    1425.0873  0.032385403  0.031731296           21 
 3668000   0.67578568   -5.6842658    1424.4897  0.032362997  0.031722991           12 
 3669000   0.66879709   -5.7131374     1425.433  0.032375602  0.031714699           10 
 3670000   0.67247711   -5.7101263    1421.2678  0.032272201  0.031706369           10 
 3671000   0.66974488   -5.6634226    1426.6821  0.032386319  0.031698071           31 
 3672000   0.66451891   -5.6998898    1426.5402  0.032374279  0.031689771           12 
 3673000   0.66839524   -5.7055577    1424.5697  0.032320756   0.03168144           11 
 3674000   0.66405036   -5.6842759     1422.398  0.032262703  0.031673115            6 
 3675000   0.67269868   -5.7169362     1425.601  0.032326554  0.031664753           29 
 3676000   0.66457515   -5.7023701    1424.0217  0.032281958    0.0316564           11 
 3677000   0.66772695   -5.7241184    1421.3012  0.032211521  0.031648059            9 
 3678000   0.65219111   -5.7183175    1424.3741  0.032272388  0.031639678           12 
 3679000   0.66115284   -5.7150521    1428.6055   0.03235946  0.031631335            6 
 3680000   0.67626326   -5.7087223    1423.5083  0.032235242  0.031622982           10 
 3681000    0.6519896   -5.7175412    1426.2118   0.03228769  0.031614692            4 
 3682000   0.66701874   -5.6923633    1428.4128  0.032328734  0.031606378           14 
 3683000   0.64335941   -5.7191336    1429.9128  0.032353896  0.031598055           16 
 3684000   0.67546565   -5.7069194    1427.7164   0.03229543   0.03158977           15 
 3685000   0.66593025   -5.7205491    1426.1087  0.032250311  0.031581491            9 
 3686000   0.66608015   -5.7122785    1424.7929  0.032211814  0.031573193            7 
 3687000   0.66896756   -5.7005896    1426.5515  0.032242823  0.031564889            6 
 3688000   0.66362327   -5.7116476    1425.1499   0.03220241   0.03155658            9 
 3689000   0.65032082   -5.6998299    1426.4111  0.032222172  0.031548316            9 
 3690000   0.65796888   -5.7049574    1425.4346  0.032191386  0.031540012           11 
 3691000   0.65350373   -5.7274232    1426.0976  0.032197634  0.031531677           11 
 3692000   0.64751199   -5.7075167    1427.5897  0.032222591  0.031523328            8 
 3693000   0.67350985   -5.7226678    1425.2613  0.032161325  0.031514949           14 
 3694000   0.66320162   -5.7355988    1424.7762  0.032141676  0.031506616           11 
 3695000   0.66325851   -5.7090613    1424.2073  0.032120147  0.031498238           10 
 3696000   0.65325412    -5.737991    1423.1772  0.032088231   0.03148988           12 
 3697000    0.6509752   -5.7078034    1431.0846  0.032257789  0.031481519            9 
 3698000   0.66188916   -5.6819846    1428.3883  0.032188306  0.031473202            9 
 3699000   0.66405674   -5.7234652    1420.7341  0.032007167  0.031464884           13 
 3700000   0.65648361   -5.7296587    1422.9021  0.032047344  0.031456543           15 
 3701000   0.65786738   -5.7175542    1422.4911  0.032029432  0.031448192            7 
 3702000   0.65510992   -5.6973223    1428.0817  0.032146625  0.031439862           13 
 3703000   0.65272379   -5.7245119    1426.1133  0.032093648   0.03143157           17 
 3704000   0.66231488   -5.7266721    1422.8672  0.032011951  0.031423182           15 
 3705000   0.66969225   -5.7282755    1423.2143  0.032011119  0.031414829           23 
 3706000   0.66589988   -5.7012634    1429.2218  0.032137565  0.031406515           12 
 3707000   0.65295169   -5.7492379    1421.4546  0.031954289  0.031398149           12 
 3708000   0.68458277   -5.7348151     1423.001  0.031980425  0.031389753           21 
 3709000   0.65296228   -5.7383894    1419.9286  0.031902772   0.03138136           22 
 3710000   0.67245708   -5.7420159    1421.1877  0.031922455  0.031372942           18 
 3711000   0.65829286   -5.7364254    1426.2187  0.032026828   0.03136453           16 
 3712000   0.66571519   -5.7232145    1423.2613  0.031951808  0.031356196           10 
 3713000   0.66743032   -5.7290269    1428.7679   0.03206679  0.031347857           12 
 3714000    0.6607038   -5.7178076    1422.6887  0.031921752  0.031339516            8 
 3715000   0.66353678   -5.7258049    1424.8017  0.031960558  0.031331158           15 
 3716000   0.64502682   -5.7251506    1422.9064  0.031909455  0.031322778            6 
 3717000   0.64893862   -5.7581134    1422.2494  0.031886139  0.031314346           16 
 3718000   0.64742847   -5.7653416    1419.2648   0.03181067  0.031305954           16 
 3719000   0.66268614   -5.7434213    1421.0835  0.031842869  0.031297536           11 
 3720000   0.64727223   -5.7523045    1422.3607  0.031862918    0.0312891           11 
 3721000   0.65836851    -5.736556    1423.1022  0.031870962  0.031280711           16 
 3722000    0.6475611   -5.7040657    1425.9527  0.031926221  0.031272339           17 
 3723000   0.67031407   -5.7136137     1422.926  0.031849898  0.031263993            8 
 3724000   0.67780599   -5.7328395    1424.6045  0.031878904  0.031255639            9 
 3725000     0.653903   -5.7372618    1423.5624  0.031847033  0.031247269           12 
 3726000   0.65591166   -5.7515539    1424.2087   0.03185294  0.031238923            8 
 3727000   0.64945607   -5.7090059    1428.6638  0.031944007  0.031230549           11 
 3728000   0.65228143   -5.7498098    1424.9677  0.031852819  0.031222186            9 
 3729000   0.65900374   -5.6884326    1424.4053  0.031831709  0.031213826           15 
 3730000   0.65300543   -5.7239001    1425.5377  0.031848473  0.031205535           15 
 3731000   0.66262221   -5.7103492    1425.7977  0.031845744  0.031197261            7 
 3732000    0.6694834   -5.6991868    1428.4168  0.031895694  0.031188936           13 
 3733000   0.65414203   -5.7199674    1424.3951  0.031797373  0.031180653           13 
 3734000   0.66299172   -5.7187246    1424.8122  0.031798165  0.031172333            6 
 3735000   0.64989357   -5.7349293    1424.2449  0.031776995  0.031164057            6 
 3736000   0.64950703    -5.738848    1425.4903  0.031796267  0.031155756           14 
 3737000   0.65877935   -5.7304798    1426.7037  0.031814818  0.031147449            8 
 3738000   0.65899149   -5.7057134    1424.9129  0.031766383  0.031139084            6 
 3739000   0.64628258   -5.7105763     1425.142  0.031762994  0.031130801            9 
 3740000   0.64917795   -5.7306226    1428.8749  0.031837677  0.031122496            8 
 3741000   0.64827333   -5.7402588      1425.71  0.031758665  0.031114197           28 
 3742000    0.6573098   -5.7509962     1425.392  0.031743096  0.031105899           24 
 3743000   0.64627941   -5.7308871    1424.7062  0.031719347  0.031097546           13 
 3744000   0.65302105   -5.7271345    1421.1163  0.031630972  0.031089224            8 
 3745000   0.65574326   -5.7480876    1422.8866  0.031661919  0.031080868           21 
 3746000   0.64226788    -5.762793    1424.0954  0.031680358  0.031072543           19 
 3747000    0.6462454    -5.732843    1423.8989  0.031667532  0.031064209           26 
 3748000   0.65605409   -5.7284332    1422.1158  0.031619438  0.031055883           10 
 3749000   0.63808982   -5.7141929    1426.4222  0.031706727  0.031047575           12 
 3750000   0.64328191   -5.7503277    1425.2186  0.031671525  0.031039232           15 
 3751000   0.65656965   -5.7288531    1426.3141   0.03168742   0.03103091           18 
 3752000   0.63695258   -5.7584121    1421.3456  0.031568622  0.031022584           12 
 3753000   0.64900846   -5.7623659    1426.0315  0.031664258  0.031014228           13 
 3754000   0.65081298   -5.7511006     1427.869  0.031696613  0.031005924            7 
 3755000   0.65001412   -5.7582109    1424.7007  0.031617858  0.030997611           12 
 3756000   0.62857984   -5.7387307    1425.8234   0.03163435  0.030989328            9 
 3757000   0.65605154   -5.7395248    1428.1858  0.031678329  0.030981023           15 
 3758000   0.65963841   -5.7339947    1427.7026  0.031659186  0.030972725           19 
 3759000    0.6482146   -5.7362237    1424.3759  0.031577012  0.030964445            8 
 3760000   0.66747998   -5.7555421    1425.0104  0.031582677  0.030956139           12 
 3761000   0.66158858   -5.7433998    1424.8203  0.031570068  0.030947852           10 
 3762000   0.65136532   -5.7557815    1426.5346  0.031599651  0.030939561            8 
 3763000   0.64656478   -5.7370086    1428.9229  0.031644143  0.030931269           12 
 3764000     0.629483   -5.7278862    1425.3541  0.031556723  0.030922971            5 
 3765000   0.64042119   -5.7475635    1427.1855  0.031588878   0.03091466           10 
 3766000   0.65110843   -5.7613916    1424.5291  0.031521709  0.030906349            8 
 3767000    0.6397333   -5.7487606    1428.6755  0.031605069  0.030898054           13 
 3768000   0.64573232   -5.7555686    1427.4554  0.031569696  0.030889768           13 
 3769000   0.63698737   -5.7243743    1427.9069  0.031571304   0.03088151            9 
 3770000   0.64183463   -5.7483479    1429.1967  0.031591439  0.030873233           14 
 3771000   0.63468439   -5.7412568    1426.9275  0.031532916  0.030864973            9 
 3772000   0.64567229   -5.7499697    1426.7243  0.031520068  0.030856663           12 
 3773000   0.64449333   -5.7396387    1427.8476  0.031536522  0.030848385            6 
 3774000   0.64643109   -5.7573931    1422.9362  0.031419717  0.030840104           20 
 3775000   0.64715571   -5.7679249    1420.9899  0.031368431   0.03083177           10 
 3776000   0.63924981   -5.7635608    1425.1635  0.031452232  0.030823445           14 
 3777000   0.64725537   -5.7561263    1426.0427  0.031463303  0.030815092           11 
 3778000   0.64079844   -5.7672192    1423.7687  0.031404815  0.030806748            8 
 3779000   0.64396457    -5.754816    1423.4287  0.031389007  0.030798405           15 
 3780000   0.65333368   -5.7521699    1424.8551  0.031412149   0.03079008           17 
 3781000    0.6403015   -5.7669333    1424.7549  0.031401634  0.030781796           10 
 3782000    0.6548929   -5.7716684     1422.153  0.031335999  0.030773478           18 
 3783000   0.62859389   -5.7705359    1424.1175  0.031370992  0.030765184           21 
 3784000   0.65956996   -5.7550181    1425.6717  0.031396928  0.030756871           16 
 3785000   0.64559308   -5.7768501    1424.9736  0.031373263  0.030748555           13 
 3786000   0.63785049   -5.7601791    1423.9985  0.031343512  0.030740256           15 
 3787000   0.64285212    -5.743031     1427.519  0.031412705  0.030731995           16 
 3788000   0.64943082   -5.7405173    1425.6713  0.031363765  0.030723692           22 
 3789000   0.64348109   -5.7759489    1423.7304  0.031312801  0.030715399           17 
 3790000   0.64737224   -5.7576803    1427.3592  0.031384328  0.030707081            6 
 3791000   0.64397022   -5.7575519    1427.2629  0.031373932  0.030698862            8 
 3792000   0.65073631    -5.738625    1425.2306  0.031320997  0.030690615            7 
 3793000   0.65787202   -5.7331683    1427.2141  0.031356317  0.030682326           15 
 3794000   0.64486891   -5.7460686      1428.46  0.031375417    0.0306741           10 
 3795000   0.65022604   -5.7387414     1426.679  0.031328041  0.030665887           20 
 3796000   0.64327021   -5.7484751    1426.7846  0.031322106  0.030657658           13 
 3797000   0.64253197   -5.7646986    1429.9068  0.031382382  0.030649451           37 
 3798000   0.65124342   -5.7561849    1428.6959  0.031347549  0.030641223           18 
 3799000   0.64355456   -5.7529242    1426.7568  0.031296762  0.030632992            8 
 3800000   0.65928996    -5.773827    1426.9591  0.031292962  0.030624723           11 
 3801000   0.63172641   -5.7625916    1428.2262   0.03131251  0.030616461           10 
 3802000   0.66282562   -5.7860246     1425.847  0.031252125  0.030608178           16 
 3803000   0.65133866   -5.7488869    1428.9144  0.031311124  0.030599885           11 
 3804000   0.63977686   -5.7709573    1426.3203  0.031246064  0.030591659           11 
 3805000   0.64009291    -5.754886    1430.2707  0.031324369  0.030583425           12 
 3806000   0.65784561   -5.7498612    1429.6588  0.031302741  0.030575175           10 
 3807000   0.63896548   -5.7598789    1423.3258  0.031155893   0.03056697           10 
 3808000   0.65492804   -5.7507663     1428.462   0.03126011  0.030558741            7 
 3809000   0.65193768   -5.7656572    1426.5221  0.031209463  0.030550508           13 
 3810000   0.64884406   -5.7553719    1427.0325  0.031212435  0.030542279           12 
 3811000    0.6391386   -5.7532493    1427.4456  0.031213278  0.030534021           15 
 3812000   0.65463389    -5.780771    1426.4303  0.031182895  0.030525751           21 
 3813000   0.64644319   -5.7575068    1427.4791  0.031197638  0.030517546           23 
 3814000   0.63953353   -5.7736666    1425.6582  0.031149672  0.030509265           41 
 3815000   0.64618309   -5.7624032    1430.1199  0.031238967  0.030500995           22 
 3816000   0.64165619   -5.7821741    1432.6958  0.031287034  0.030492796           14 
 3817000   0.64865351   -5.7834959    1425.0813  0.031112594  0.030484585            8 
 3818000   0.65666246   -5.7866145     1425.551  0.031114697  0.030476343           14 
 3819000   0.63000762    -5.773409    1429.8209  0.031199723  0.030468091           17 
 3820000   0.63803238   -5.7773533    1430.0797  0.031197202  0.030459867           13 
 3821000   0.64188951   -5.7626562    1431.0187  0.031209514  0.030451704            5 
 3822000   0.63938853   -5.7717785     1429.077  0.031159013  0.030443517           10 
 3823000   0.63967235   -5.7607809    1427.9987  0.031127358  0.030435323            7 
 3824000   0.63657555    -5.753774    1429.1986  0.031145367  0.030427122           14 
 3825000    0.6432626   -5.7681487     1423.891   0.03102159  0.030418894           11 
 3826000   0.64282605   -5.7715812    1427.4104  0.031090139  0.030410643            8 
 3827000   0.63653323    -5.780405    1426.7539  0.031067719  0.030402427           15 
 3828000   0.63912735   -5.7803247    1425.8936  0.031040874  0.030394222           19 
 3829000   0.63600404   -5.7644299     1430.174  0.031125925   0.03038603           12 
 3830000   0.63562475   -5.7603577    1429.0102  0.031092475  0.030377878           15 
 3831000    0.6384603   -5.7610458    1434.4586  0.031202875  0.030369706           10 
 3832000   0.62451007   -5.8021612    1427.3509  0.031040165  0.030361539           10 
 3833000   0.64624163   -5.7899807    1427.8512  0.031042943  0.030353392           21 
 3834000   0.65646907   -5.7862589    1430.8878  0.031100848  0.030345232           25 
 3835000   0.63233766    -5.766648    1429.8412  0.031069996  0.030337061            8 
 3836000   0.63222929   -5.7785095     1430.331  0.031072537  0.030328881           21 
 3837000   0.61554994   -5.7881472    1426.2412  0.030975616  0.030320676           22 
 3838000   0.63554717   -5.7751746    1425.8757  0.030959609  0.030312479            5 
 3839000   0.62576025   -5.7771222    1428.6007  0.031010695  0.030304289            9 
 3840000   0.63608684   -5.7839336    1429.1637  0.031014836  0.030296117           19 
 3841000   0.62726387   -5.7539491    1430.8803  0.031044006  0.030287978           17 
 3842000   0.64107688   -5.7701096    1429.3464  0.031002655  0.030279836           30 
 3843000   0.62299625   -5.7992589    1431.9402  0.031050833  0.030271664           15 
 3844000   0.63974076   -5.7437528    1431.3424  0.031029795  0.030263526           11 
 3845000   0.62083966   -5.7692351    1427.3437   0.03093506  0.030255329           12 
 3846000   0.64263231   -5.7691532    1425.1666  0.030879845    0.0302471           30 
 3847000   0.63416427   -5.7781188    1429.1593  0.030958307  0.030238904           16 
 3848000   0.63617415   -5.7782169    1427.3523  0.030911128   0.03023074           14 
 3849000   0.63433185   -5.7557051    1428.8026  0.030934498  0.030222603           12 
 3850000   0.63804196   -5.7566742     1431.035  0.030974785   0.03021447           10 
 3851000   0.63076577   -5.7951977    1431.9877  0.030987357  0.030206299           25 
 3852000   0.63428518   -5.7685049    1426.9244  0.030869773  0.030198138           25 
 3853000   0.63219685   -5.7781549    1430.8955   0.03094765  0.030189943           12 
 3854000   0.64723502   -5.7742592     1428.569  0.030889315  0.030181761           21 
 3855000   0.64193853   -5.7844319    1431.5976   0.03094677  0.030173599            6 
 3856000   0.62424785   -5.7605896     1428.023  0.030861494  0.030165446           15 
 3857000   0.65866353   -5.7928982    1428.4133  0.030861924  0.030157278           36 
 3858000    0.6428997   -5.7942882    1430.5205  0.030899441  0.030149094           15 
 3859000   0.65053044   -5.7638211    1429.3907  0.030867036  0.030140936           10 
 3860000   0.63347559   -5.7775829    1428.2654  0.030834744  0.030132758            9 
 3861000   0.64899067   -5.7836425     1428.064  0.030822411  0.030124621           11 
 3862000   0.63446507   -5.7977034    1430.6636  0.030870525  0.030116497            7 
 3863000    0.6338146   -5.7767191     1428.994  0.030826517  0.030108366           30 
 3864000   0.64793836   -5.8075596    1428.6925  0.030812036   0.03010027           31 
 3865000   0.63345578   -5.7609099    1430.6075  0.030845353  0.030092159           11 
 3866000    0.6484761   -5.7564626    1430.8589  0.030842794  0.030084101           24 
 3867000   0.63779391   -5.7889285    1432.0046  0.030859507  0.030075984           19 
 3868000   0.63501759   -5.7673804    1435.1678  0.030919678   0.03006789           22 
 3869000   0.62667596   -5.7644564    1432.0471  0.030844471  0.030059795           12 
 3870000    0.6339379   -5.7765457    1427.9602  0.030748498  0.030051665           11 
 3871000   0.62746824   -5.7997425    1428.3487  0.030748916  0.030043535           27 
 3872000   0.63053339   -5.7974309    1431.4265  0.030807217  0.030035391           29 
 3873000   0.62906789   -5.7963324     1435.004  0.030876238  0.030027283            9 
 3874000   0.64260683   -5.7920111    1431.4507  0.030791832   0.03001917           54 
 3875000   0.63442101   -5.7843202    1428.6524  0.030723707  0.030011056           18 
 3876000   0.62775264   -5.8000361    1427.9518  0.030700719  0.030002926           13 
 3877000    0.6417056   -5.7857066    1428.3491  0.030701339  0.029994816           23 
 3878000   0.63365452   -5.7900783     1428.416   0.03069486  0.029986705           13 
 3879000   0.63726105   -5.7992696    1432.5352  0.030775441  0.029978606            5 
 3880000   0.62317842   -5.7922274    1432.4831   0.03076639   0.02997053           10 
 3881000   0.63342693   -5.7875016    1431.1676  0.030730216  0.029962438           10 
 3882000   0.64057441   -5.7897076    1430.9224  0.030717037  0.029954348           13 
 3883000   0.63586637   -5.7942296    1429.6318  0.030681427  0.029946223           15 
 3884000   0.61379784   -5.7814207    1432.6026  0.030737268  0.029938134            9 
 3885000   0.63146372   -5.8126298    1427.6573  0.030623279  0.029930017           15 
 3886000   0.63514182   -5.7956397     1432.887  0.030727548  0.029921897           24 
 3887000   0.62541815   -5.7991272    1430.9268  0.030677619  0.029913828           19 
 3888000   0.62923527   -5.8212938    1429.7289  0.030644052  0.029905749           28 
 3889000   0.63008815   -5.8221556    1431.9726   0.03068425  0.029897632           12 
 3890000   0.61890948   -5.7969853    1431.1671  0.030659108  0.029889498           17 
 3891000   0.62720074   -5.8013353    1427.4344  0.030571285  0.029881401           13 
 3892000   0.63610265   -5.7901381    1431.9898  0.030660966  0.029873313           11 
 3893000   0.63276648   -5.8274127    1432.5174  0.030664385  0.029865183           13 
 3894000   0.63247494   -5.8074328    1430.6474  0.030616491  0.029857049           15 
 3895000   0.63621535   -5.8170323     1428.741  0.030567843    0.0298489           12 
 3896000   0.63542119   -5.8383697    1427.7251  0.030538268  0.029840744           20 
 3897000   0.65347163   -5.8430508    1424.0031  0.030450841  0.029832579           20 
 3898000   0.61880354   -5.8248255    1429.7667  0.030566245  0.029824393           18 
 3899000   0.64059616   -5.8172049    1429.3224  0.030548911  0.029816259           13 
 3900000    0.6187779    -5.826295    1428.3144  0.030519537  0.029808102           22 
 3901000   0.62713753   -5.8127532    1429.7459  0.030542296  0.029799966           24 
 3902000   0.62614421   -5.8073793    1433.5381  0.030615457  0.029791853           19 
 3903000   0.61714492   -5.8125042    1429.6513  0.030524623  0.029783749           12 
 3904000   0.64357288   -5.8060507    1430.3519   0.03053176  0.029775654            9 
 3905000   0.62551038   -5.7787549    1436.1071  0.030646758  0.029767595            7 
 3906000   0.61837654   -5.8146222    1429.3516  0.030494785  0.029759539           21 
 3907000   0.62237882   -5.7956894    1430.7491  0.030516787  0.029751451           15 
 3908000   0.61661178   -5.8025008    1434.3666  0.030586118  0.029743398           13 
 3909000   0.61951482   -5.8144406    1431.8189  0.030523981  0.029735309           41 
 3910000   0.61295581   -5.7870801    1431.0757  0.030500335  0.029727227           15 
 3911000   0.63368639   -5.8125338    1430.1315  0.030472417  0.029719175           11 
 3912000   0.63936192   -5.7967287     1432.291   0.03051063  0.029711126           15 
 3913000   0.63173544   -5.7897561    1431.9092  0.030494701  0.029703073           10 
 3914000   0.60686248   -5.7910136    1433.7588  0.030526291  0.029695018           14 
 3915000   0.62775043   -5.7968484    1433.3573  0.030509948  0.029686994            9 
 3916000    0.6185094   -5.8289021    1431.4822  0.030462252  0.029678939           28 
 3917000   0.63414087   -5.8110857    1429.4166  0.030410531  0.029670837           13 
 3918000   0.63040787   -5.8016903     1430.986  0.030436149   0.02966277            7 
 3919000   0.61260266   -5.8215733     1435.127  0.030516437  0.029654754           19 
 3920000   0.62371146   -5.8159132    1429.2476  0.030383665  0.029646659           12 
 3921000   0.62223642   -5.8234345    1431.9003  0.030432295  0.029638538            9 
 3922000   0.61734268   -5.8021711    1427.9502  0.030340605  0.029630432           14 
 3923000   0.63875502   -5.8131976    1431.4742  0.030407728   0.02962235           12 
 3924000   0.62760763   -5.8183664    1432.0399  0.030411993  0.029614302           10 
 3925000   0.62987146   -5.8041106    1432.2071  0.030407793  0.029606232           30 
 3926000   0.62200607   -5.8066074     1426.447  0.030277786  0.029598157           28 
 3927000   0.61391519   -5.8004108    1431.3473  0.030374063  0.029590098            9 
 3928000   0.62928241   -5.7968966      1432.71  0.030395239  0.029582061           34 
 3929000   0.60999594   -5.8073979      1436.64  0.030470858  0.029574026            7 
 3930000   0.62386781   -5.8115177    1430.5207  0.030333348  0.029565976            6 
 3931000   0.61646807    -5.816612    1430.8686  0.030333006   0.02955794           10 
 3932000   0.62025007   -5.8284163    1432.2944   0.03035551  0.029549914           14 
 3933000   0.61288278   -5.7982341    1436.9245  0.030445896  0.029541855           15 
 3934000   0.62438975   -5.8063223    1434.0943  0.030378204  0.029533845           26 
 3935000   0.62664313   -5.8077698    1433.0731  0.030348858  0.029525843           11 
 3936000   0.63162556   -5.8104667     1433.645  0.030353257   0.02951781           13 
 3937000   0.61896723   -5.8240396    1431.5314  0.030300808   0.02950979           16 
 3938000   0.62794986     -5.84193    1428.3485   0.03022576  0.029501754           47 
 3939000   0.62571014   -5.8148155    1430.5299  0.030264236  0.029493711           18 
 3940000   0.61345876    -5.834716    1430.7973   0.03026221   0.02948565           23 
 3941000   0.61522176   -5.8296742    1430.6072  0.030250512  0.029477591           17 
 3942000   0.61174951   -5.8218672    1432.1211   0.03027484  0.029469553           18 
 3943000   0.62170905   -5.8204467    1430.7791  0.030238802   0.02946154           12 
 3944000   0.61748507   -5.8165501     1429.315  0.030200199  0.029453509           22 
 3945000   0.62832703   -5.8412365    1430.5157  0.030217907  0.029445439           16 
 3946000   0.61317775   -5.8107825    1430.6599  0.030213293  0.029437429           12 
 3947000   0.62080141   -5.8167787    1430.0489   0.03019274  0.029429409           15 
 3948000   0.59802656    -5.827725    1431.5122  0.030215978  0.029421365           21 
 3949000   0.61865272   -5.8250781    1430.3961  0.030184774  0.029413323           27 
 3950000   0.61722933   -5.8313504    1432.0533  0.030212095  0.029405247           20 
 3951000   0.61953728   -5.8088526    1431.3761  0.030190165  0.029397167           15 
 3952000    0.6223833    -5.842138    1427.7816  0.030106731  0.029389083           15 
 3953000   0.61790923   -5.8288581    1426.0437  0.030062479  0.029381027           14 
 3954000   0.61292331   -5.8306844    1425.1298  0.030035614  0.029372942           29 
 3955000   0.61757591   -5.8256657      1430.86  0.030148757  0.029364866           20 
 3956000   0.62195083   -5.8265706    1429.3512  0.030109353    0.0293568           15 
 3957000    0.6277558   -5.8249181    1433.0776   0.03018022  0.029348715           19 
 3958000   0.60347194   -5.8504807    1431.3271   0.03013574  0.029340647           25 
 3959000   0.60703312   -5.8235696    1430.7461  0.030115897  0.029332605           12 
 3960000   0.62787193   -5.8214888    1433.6643  0.030169704  0.029324554           21 
 3961000   0.62413075   -5.8222738    1432.0372  0.030127855  0.029316533            7 
 3962000   0.62300213   -5.8124102    1429.4165  0.030065129  0.029308478           11 
 3963000    0.6170307   -5.8435221    1429.8475  0.030066605  0.029300427           16 
 3964000   0.60664826   -5.8009887     1429.961  0.030061407  0.029292376            9 
 3965000   0.62589025   -5.8196639    1432.1923  0.030100721  0.029284333           15 
 3966000   0.62483937    -5.800738    1431.9432  0.030087898  0.029276329            9 
 3967000   0.61297464   -5.8222635    1432.4806  0.030091601  0.029268349           22 
 3968000   0.61578107   -5.8037619    1432.9892    0.0300947  0.029260344           16 
 3969000   0.63011027    -5.803747    1434.2331  0.030113233  0.029252328            8 
 3970000   0.61009152   -5.8321413    1432.1323  0.030061552  0.029244303           14 
 3971000   0.62350923   -5.8331757    1433.6562   0.03008596  0.029236276           12 
 3972000   0.62668363   -5.8145841    1432.0704  0.030045115  0.029228288            9 
 3973000   0.60775616   -5.8138287    1432.5322  0.030047239  0.029220267           13 
 3974000   0.60986441   -5.8253384    1429.2712  0.029971297  0.029212265           12 
 3975000   0.60828549   -5.8237185    1430.3785  0.029986971  0.029204249           16 
 3976000    0.6042951   -5.8023631    1431.2437  0.029997562  0.029196201           16 
 3977000   0.62004137   -5.8328722    1430.6379  0.029977326  0.029188187           14 
 3978000   0.61137481   -5.8207332    1430.1189  0.029958917  0.029180166           16 
 3979000   0.60823227   -5.8156774    1431.8002    0.0299866  0.029172118           17 
 3980000   0.62595493   -5.8275078    1433.1281  0.030006871  0.029164092           25 
 3981000   0.62138905   -5.8368802     1431.068  0.029956208   0.02915605           18 
 3982000   0.61234901   -5.8220407    1431.4613  0.029956917  0.029148025           16 
 3983000   0.62000269   -5.8419176    1429.4372  0.029907047  0.029139996           23 
 3984000   0.59945353   -5.8308208    1428.5785  0.029881578  0.029131952           15 
 3985000   0.60507346   -5.8453562    1431.0679  0.029926138  0.029123905           11 
 3986000   0.62153226   -5.8310199    1428.9398  0.029874139   0.02911582           17 
 3987000   0.61916807   -5.8338355    1429.3052  0.029874284  0.029107754           14 
 3988000   0.61960621   -5.8282803    1426.1054   0.02979993  0.029099698           17 
 3989000   0.61876755   -5.8401673    1426.7843  0.029806642  0.029091686           28 
 3990000   0.61357423   -5.8324088    1431.3218  0.029893939  0.029083698           27 
 3991000   0.59951484   -5.8360969    1430.0308  0.029859491  0.029075659           27 
 3992000   0.61507665   -5.8241352    1428.7477  0.029825228  0.029067648           13 
 3993000    0.6121417    -5.840104    1433.4509  0.029915914  0.029059606            8 
 3994000   0.59842649   -5.8359095    1428.6918  0.029809127   0.02905157           10 
 3995000   0.59929643   -5.8394797    1431.2789   0.02985563  0.029043556           18 
 3996000    0.6184553   -5.8419562    1432.9515  0.029883038  0.029035529            9 
 3997000   0.60347955   -5.8537949    1431.3681  0.029842551  0.029027512           13 
 3998000   0.60893786   -5.8304351    1430.4975  0.029816939  0.029019505           28 
 3999000   0.62489908   -5.8311821    1430.9172   0.02981823  0.029011498           20 
 4000000   0.62238239   -5.8146312     1432.789   0.02984977  0.029003527           29 
 4001000   0.62305316   -5.8507796     1432.275  0.029831604  0.028995543           23 
 4002000    0.5908821   -5.8428335    1432.3171  0.029825027  0.028987538            8 
 4003000   0.59885457    -5.848585    1429.2213  0.029753129   0.02897953           15 
 4004000   0.61404277   -5.8467466    1435.0078   0.02986613  0.028971541           14 
 4005000   0.61826254   -5.8441328    1430.1713  0.029758038  0.028963516           14 
 4006000    0.6226913   -5.8295044    1428.0336  0.029706141  0.028955495           19 
 4007000   0.61394661   -5.8194148    1435.2225  0.029848235  0.028947543           11 
 4008000   0.61597172   -5.8261347    1433.5794  0.029806623  0.028939556           11 
 4009000   0.60964263   -5.8440924    1430.8773  0.029743022  0.028931557           10 
 4010000   0.61115575   -5.8165954    1433.0643  0.029781053  0.028923559           22 
 4011000   0.61759636   -5.8326929    1431.5626  0.029742429  0.028915567           14 
 4012000   0.61063784   -5.8454346     1432.202  0.029748297  0.028907596           55 
 4013000   0.62368532   -5.8433629    1430.5521  0.029706623  0.028899584           19 
 4014000   0.60694524   -5.8390625    1429.1805  0.029670746  0.028891563           50 
 4015000    0.6012856   -5.8768242    1426.2568  0.029602674  0.028883498           67 
 4016000   0.60678739   -5.8754047    1426.8753  0.029608136  0.028875421           34 
 4017000   0.62550917   -5.8603038    1427.2031  0.029607565  0.028867377           43 
 4018000   0.60401782   -5.8655616    1427.1996  0.029600124  0.028859329           86 
 4019000   0.61196396   -5.8449622    1428.8851  0.029627709  0.028851286           17 
 4020000   0.59839112   -5.8406216    1429.8011  0.029639327  0.028843253           18 
 4021000    0.6181322   -5.8511524    1432.7511  0.029693092  0.028835247           29 
 4022000   0.62601154   -5.8559925    1429.5135   0.02961863  0.028827246           40 
 4023000   0.60296391   -5.8713486    1429.8386     0.029618  0.028819219           18 
 4024000   0.59470342   -5.8499345    1427.7938  0.029568295  0.028811208           26 
 4025000   0.61579989   -5.8502976     1429.378  0.029593747  0.028803199           15 
 4026000   0.62230027   -5.8433848    1428.4774  0.029567755  0.028795183           56 
 4027000   0.60205805   -5.8520304    1428.2623  0.029555962  0.028787151           23 
 4028000   0.59874792   -5.8407605    1431.2885  0.029611231  0.028779136           33 
 4029000   0.60243163    -5.825398    1427.7916  0.029531554  0.028771105           37 
 4030000   0.60656123   -5.8329492    1433.0954  0.029633899  0.028763104           15 
 4031000   0.59872684   -5.8683979    1430.7058  0.029577148  0.028755107           33 
 4032000   0.59491051   -5.8562727     1430.512  0.029565808  0.028747128           20 
 4033000   0.61212558   -5.8371251    1432.0379  0.029590005  0.028739192           12 
 4034000   0.60963198   -5.8416909    1430.2448  0.029545629  0.028731241           31 
 4035000   0.60702081   -5.8442556    1427.5075  0.029481775  0.028723289           12 
 4036000   0.61693204   -5.8454336    1427.4098  0.029472453  0.028715299           27 
 4037000   0.60435337   -5.8582315    1432.1103  0.029562181  0.028707311           22 
 4038000   0.61351032   -5.8661759     1428.432   0.02947895  0.028699294           25 
 4039000   0.60430838   -5.8439507    1433.8106  0.029582623  0.028691302           43 
 4040000   0.62200168    -5.841847    1430.9399  0.029516086   0.02868332           36 
 4041000   0.60902475   -5.8465464    1430.1395  0.029492276  0.028675359           14 
 4042000   0.60733428   -5.8386654    1431.4528  0.029512057  0.028667386           30 
 4043000   0.59288806   -5.8544669    1425.7672  0.029387567  0.028659399           22 
 4044000   0.60196887   -5.8356606    1429.6914  0.029461165  0.028651384           17 
 4045000    0.5945309   -5.8587433    1427.2896  0.029404401  0.028643399           15 
 4046000   0.60074885   -5.8483096    1429.6939  0.029446653  0.028635389           13 
 4047000   0.60418417   -5.8530601    1431.1376  0.029469105  0.028627418           22 
 4048000   0.61099445   -5.8571305    1426.1679  0.029359517  0.028619433           49 
 4049000   0.60266462    -5.844019     1429.233   0.02941535  0.028611441           14 
 4050000   0.58847773   -5.8461593     1430.002   0.02942391  0.028603449           27 
 4051000   0.59331611   -5.8423886    1428.9906  0.029395841  0.028595446           31 
 4052000   0.60601234   -5.8374714    1428.5761  0.029380061  0.028587478           21 
 4053000    0.6046384   -5.8622417    1433.1282  0.029466407  0.028579507           32 
 4054000   0.60158951   -5.8524717    1427.5237  0.029343934  0.028571511           12 
 4055000   0.58537041   -5.8651109    1428.0649  0.029347819  0.028563521           13 
 4056000   0.60843109   -5.8643712    1428.7465  0.029354589  0.028555535           19 
 4057000   0.60298291   -5.8314546    1431.7662  0.029409379  0.028547558           15 
 4058000   0.60977764   -5.8524849    1427.2901  0.029310213  0.028539584           18 
 4059000   0.59989566   -5.8698056    1427.8925  0.029315358  0.028531601           17 
 4060000   0.60568753   -5.8453341    1428.3142  0.029316795  0.028523608           25 
 4061000   0.59568418   -5.8859826    1429.4914  0.029333732  0.028515633           17 
 4062000   0.60796784   -5.8658479    1427.9881  0.029295669  0.028507662           44 
 4063000   0.60331646   -5.8652161    1427.6244  0.029280999  0.028499701           11 
 4064000    0.5872811   -5.8646295    1428.4988  0.029291723  0.028491689           15 
 4065000   0.59002604   -5.8917771    1428.9406  0.029293576  0.028483706           20 
 4066000   0.60083641   -5.8668486    1427.9721  0.029266521  0.028475714           14 
 4067000   0.61653478   -5.8759453    1429.3035  0.029286606  0.028467733           37 
 4068000    0.6016472   -5.8452977    1430.5661  0.029305271  0.028459767           46 
 4069000   0.60274689   -5.8741453    1428.0499  0.029246536  0.028451788           25 
 4070000   0.59921376   -5.8924333    1425.5999  0.029189187  0.028443792           25 
 4071000   0.60687785   -5.8677242    1427.1361  0.029213463  0.028435819           37 
 4072000   0.58795418   -5.8775199    1425.9486  0.029181987  0.028427865           13 
 4073000   0.60872615   -5.8724787    1430.7474  0.029273005  0.028419905           16 
 4074000   0.59124039   -5.8669074    1429.4476  0.029239233  0.028411946           39 
 4075000    0.5910906   -5.8604903    1428.4302  0.029211252  0.028404023           38 
 4076000   0.60951412   -5.8639895    1430.7406  0.029251321  0.028396041           18 
 4077000   0.59127764   -5.8825962    1427.5688  0.029179315  0.028388062           32 
 4078000   0.60076499   -5.8757202    1426.1515  0.029143198   0.02838008           19 
 4079000   0.58999043   -5.8766851    1426.0402  0.029133779  0.028372106           24 
 4080000   0.58562216   -5.8763777    1427.7372  0.029161299  0.028364143           36 
 4081000   0.59642511   -5.8396742    1432.4436  0.029250257  0.028356222           10 
 4082000   0.61141377   -5.8735649    1428.0423   0.02915324  0.028348293           21 
 4083000   0.59368193   -5.8530411    1427.8979  0.029143152  0.028340346           20 
 4084000   0.60452424   -5.8909182    1428.7234   0.02915286   0.02833239           27 
 4085000   0.59220665   -5.8514396    1428.9681  0.029150717  0.028324424           19 
 4086000   0.60164405   -5.8792891    1427.6359  0.029116412  0.028316479           44 
 4087000   0.60216924   -5.8930334    1428.4791  0.029126481  0.028308545           72 
 4088000   0.61451489   -5.8582301    1426.8906  0.029086975   0.02830056           46 
 4089000   0.59642868   -5.8856064     1427.851  0.029099432  0.028292607           15 
 4090000   0.59917853   -5.8849907    1427.4141  0.029083416  0.028284613           14 
 4091000   0.60817615   -5.8786769    1428.6244  0.029100961  0.028276639           22 
 4092000   0.59591056    -5.870245    1429.2656  0.029106908  0.028268695           14 
 4093000   0.60161748   -5.8703138    1429.1179  0.029096789  0.028260763           19 
 4094000   0.59408362   -5.8804964    1428.3624  0.029074304  0.028252824           30 
 4095000     0.590587   -5.8765404    1426.7729  0.029034857  0.028244874           24 
 4096000   0.59054012   -5.8877323    1424.0613  0.028972602  0.028236902           12 
 4097000    0.5995092   -5.8856633    1427.2454  0.029030294  0.028228952           24 
 4098000    0.6097943   -5.8840639    1428.2489  0.029043616  0.028221006           13 
 4099000   0.60474314   -5.8765148    1429.3426  0.029058767  0.028213075           41 
 4100000   0.60395963   -5.8915392    1430.0074  0.029065191  0.028205151           51 
 4101000   0.58928005    -5.880818    1426.6372   0.02898962  0.028197207           18 
 4102000   0.59588527   -5.9057719     1427.481  0.028999696   0.02818926           35 
 4103000   0.58829039   -5.8666453    1429.3961  0.029031523  0.028181325           14 
 4104000   0.60562956    -5.884332    1428.8273    0.0290129  0.028173402           13 
 4105000   0.58522636    -5.885576    1429.2994  0.029015416  0.028165489           15 
 4106000   0.58156169    -5.893648    1427.7719  0.028977348  0.028157561           49 
 4107000   0.59331935   -5.8869034    1426.8867  0.028952331  0.028149615           34 
 4108000   0.59679603   -5.8803115    1425.0789  0.028908612  0.028141655           42 
 4109000   0.60038287   -5.8614326    1429.4865  0.028990965  0.028133722           21 
 4110000   0.59673996   -5.8555273     1428.569  0.028965309  0.028125797           19 
 4111000   0.60124093   -5.8658021    1429.8621  0.028984476  0.028117894           16 
 4112000   0.59350807    -5.887576    1424.6293  0.028871379  0.028109953           20 
 4113000   0.59125912   -5.8674258    1427.3118  0.028918708  0.028101996           11 
 4114000   0.59957012   -5.8808382    1423.9593  0.028843771  0.028094076           13 
 4115000   0.60044303    -5.874819    1426.7554  0.028893386  0.028086146           12 
 4116000   0.58549613   -5.8835502    1428.5225  0.028922143  0.028078213            9 
 4117000   0.59328454   -5.8901377    1425.2275  0.028848423  0.028070271           13 
 4118000   0.60627661   -5.8758539    1429.2782  0.028923389  0.028062331           10 
 4119000   0.58679067   -5.8808967    1426.5996  0.028862175   0.02805438            9 
 4120000   0.59759629   -5.8741751    1431.7142  0.028958621  0.028046429           17 
 4121000   0.60796912   -5.8920474    1427.1293   0.02885888  0.028038464           17 
 4122000   0.59629155   -5.8951263    1426.7648  0.028844509  0.028030481           14 
 4123000   0.59123437   -5.9027436    1427.1928  0.028846165  0.028022496           18 
 4124000   0.60287718   -5.9024382    1428.1431  0.028858373  0.028014511           17 
 4125000   0.59280641   -5.9051659    1427.0333  0.028828955  0.028006568           51 
 4126000   0.57983606   -5.9065297    1427.7394  0.028836229  0.027998616           23 
 4127000   0.58899571   -5.8801382    1429.1901  0.028858536  0.027990684           27 
 4128000   0.59461449    -5.850795    1430.0062   0.02886802  0.027982746           14 
 4129000   0.59166156   -5.8864292    1424.8489  0.028756941   0.02797483           22 
 4130000   0.58789097   -5.8576386    1428.8057  0.028829817  0.027966906           21 
 4131000   0.59185394   -5.8894566     1426.727  0.028780905  0.027958982           34 
 4132000   0.58157405   -5.8777502    1428.4327  0.028808339  0.027951075           18 
 4133000   0.59206521   -5.8688207    1424.4896  0.028721864  0.027943172           11 
 4134000   0.59017275   -5.8744482    1429.7642  0.028821243  0.027935277           13 
 4135000   0.58862077    -5.873719    1428.0964  0.028780661  0.027927356           30 
 4136000   0.58680796   -5.8967136     1423.782  0.028686774  0.027919434           20 
 4137000   0.57676614   -5.8975591    1431.2671  0.028830617  0.027911539           27 
 4138000    0.5887002   -5.8676162    1429.2275  0.028782574  0.027903663           17 
 4139000   0.59528107     -5.86298    1429.1529  0.028774118  0.027895791           19 
 4140000   0.59490921   -5.8976366    1428.5718  0.028755471  0.027887894            9 
 4141000   0.58823072   -5.8733377    1427.3422  0.028723782  0.027879971           10 
 4142000   0.59436761   -5.8807471    1428.0107  0.028730297  0.027872077           30 
 4143000   0.58348008   -5.9021677     1422.755  0.028617649  0.027864153           28 
 4144000   0.58480548   -5.8920668    1426.6881  0.028689835  0.027856221           28 
 4145000   0.58637566   -5.8994032    1423.6925  0.028622688  0.027848291           33 
 4146000   0.57765313   -5.8942535    1425.2435  0.028646959  0.027840352            9 
 4147000   0.58269455   -5.8892613    1427.1299  0.028677957  0.027832444           28 
 4148000   0.58590872   -5.8995994    1426.2819  0.028654007  0.027824536           32 
 4149000   0.59113808    -5.907319    1428.9131   0.02869995  0.027816616           49 
 4150000   0.59216448   -5.8871314    1430.1142  0.028717153  0.027808705           25 
 4151000   0.58701401   -5.8959033    1422.6312   0.02856001  0.027800816           20 
 4152000   0.58699692   -5.8956422    1425.8408   0.02861755  0.027792911           34 
 4153000   0.58208088   -5.8852022     1428.436  0.028662733  0.027785004           40 
 4154000   0.58485133   -5.8943192    1426.9499   0.02862602  0.027777097           24 
 4155000   0.58279785   -5.8904502    1427.0178  0.028620493  0.027769233           28 
 4156000   0.58720907   -5.8854599    1427.3774  0.028620817  0.027761348            9 
 4157000   0.59347563   -5.9004658    1424.1784  0.028549804  0.027753473           19 
 4158000   0.59593928   -5.8932166    1426.5187   0.02858984  0.027745588           21 
 4159000   0.58753352   -5.9139432     1422.487  0.028502184   0.02773769           19 
 4160000   0.58493211    -5.886503     1425.343  0.028552545  0.027729764           39 
 4161000   0.58579383   -5.9043917    1426.2754  0.028564356  0.027721869           18 
 4162000   0.58709407   -5.9089695    1423.3222  0.028498363  0.027713976           22 
 4163000   0.59046393   -5.9017301    1428.9554  0.028604279  0.027706061           19 
 4164000   0.58268298    -5.881099     1429.463  0.028607568  0.027698172           13 
 4165000   0.57109032   -5.9063886     1426.189  0.028535195  0.027690281           24 
 4166000   0.59981176   -5.8848307    1429.7943  0.028600462  0.027682395           18 
 4167000   0.59160686   -5.9077864    1426.6136  0.028529989  0.027674511           24 
 4168000   0.59086811   -5.8961653    1427.5379  0.028541625  0.027666623           41 
 4169000   0.58117035   -5.8828115    1427.8831  0.028541679  0.027658733           16 
 4170000   0.57991678   -5.9004519     1424.867  0.028474561  0.027650852           10 
 4171000   0.58331921   -5.8881254     1426.517  0.028500699  0.027642967           12 
 4172000   0.58785254   -5.9213752    1424.7513  0.028458599  0.027635076           21 
 4173000   0.58597782   -5.9159959    1424.0386  0.028437547  0.027627152           30 
 4174000   0.58143307   -5.9194671    1424.6127  0.028442195  0.027619246           13 
 4175000   0.58369459    -5.926911    1426.3875  0.028470808  0.027611358           31 
 4176000   0.58610695   -5.9190077    1423.7254  0.028410867  0.027603471           19 
 4177000   0.58214112   -5.9126922    1426.6075  0.028461565  0.027595602           12 
 4178000   0.58301529   -5.9200239     1426.497   0.02845255  0.027587726           37 
 4179000   0.57986803   -5.8973789     1427.051  0.028456788  0.027579861           12 
 4180000   0.58737716   -5.9080956     1423.863  0.028386423  0.027571982            8 
 4181000   0.58432526   -5.9123371    1426.3303  0.028428811  0.027564109           14 
 4182000   0.58969211   -5.9088609    1427.9688  0.028454663  0.027556282           35 
 4183000   0.58558158   -5.8785506     1430.795  0.028504163  0.027548483           16 
 4184000    0.5869578   -5.8800952    1428.4905  0.028451452  0.027540702           24 
 4185000    0.5819347   -5.8950867    1428.7405  0.028449631  0.027532903           10 
 4186000   0.56987686   -5.9219494    1425.6641  0.028381591  0.027525077            9 
 4187000   0.57898995   -5.8668005    1425.7645  0.028376811  0.027517233           20 
 4188000    0.5809097   -5.8884561    1426.0762  0.028376238  0.027509423           11 
 4189000   0.58389132   -5.9249984    1426.2669  0.028373256  0.027501595           19 
 4190000   0.56721278   -5.9025767    1425.1553  0.028344378   0.02749374           17 
 4191000   0.58783342   -5.9176471    1425.9583  0.028353582  0.027485916           25 
 4192000   0.58718133    -5.940564     1424.652  0.028320848  0.027478067           21 
 4193000   0.58977466   -5.9188666    1424.9518  0.028320053  0.027470242           21 
 4194000   0.57599108   -5.8842961    1431.4656  0.028442728  0.027462438           41 
 4195000   0.58543843   -5.9291612     1428.318   0.02837342  0.027454616           22 
 4196000   0.57591071   -5.8841477    1430.2428  0.028404886  0.027446809           21 
 4197000   0.57801607   -5.8930731    1427.3327  0.028340336  0.027438983           22 
 4198000   0.58517228   -5.9090979    1425.6605  0.028300392  0.027431184           10 
 4199000   0.57866124   -5.8832216    1423.4235  0.028249256  0.027423361           15 
 4200000    0.5690091   -5.9145042    1428.1035  0.028335386   0.02741553           25 
 4201000   0.58088865   -5.8999257    1423.1635   0.02823065  0.027407698           20 
 4202000   0.57166191   -5.9320811    1424.2392  0.028245264  0.027399878           17 
 4203000   0.57584052   -5.9236273    1426.7234  0.028287799  0.027392041           38 
 4204000   0.59341676   -5.9211706     1424.736  0.028241674  0.027384209           13 
 4205000   0.57851176   -5.8998585    1426.5913  0.028271726  0.027376386           29 
 4206000   0.57946874   -5.9332358    1422.2892  0.028179767  0.027368542           18 
 4207000   0.57473201   -5.9268194    1425.7605   0.02824183  0.027360718           18 
 4208000   0.58916537   -5.9174733    1421.4979  0.028150703  0.027352886           20 
 4209000   0.57525383   -5.9358117    1423.2628  0.028178958  0.027345036           18 
 4210000   0.56362875   -5.9167692    1424.8844  0.028204362  0.027337191           22 
 4211000   0.58657846   -5.9203377    1423.6596  0.028173427  0.027329347           22 
 4212000   0.58593368   -5.9139984    1427.1716  0.028236222   0.02732151           31 
 4213000    0.5720572    -5.933951    1424.0385  0.028167546  0.027313691           13 
 4214000   0.58936389   -5.9165564    1428.1586  0.028242339   0.02730587           30 
 4215000   0.57832325    -5.929399    1426.7867  0.028208515  0.027298035           31 
 4216000   0.58662028   -5.9234964    1423.7663  0.028142123    0.0272902           20 
 4217000   0.57691389   -5.9227897    1426.0106  0.028179801  0.027282372           51 
 4218000   0.59558198   -5.9340294    1426.4853  0.028182498  0.027274555           28 
 4219000   0.59007489   -5.9249037     1426.779  0.028181619   0.02726675           12 
 4220000   0.56379491   -5.9263874    1428.3262  0.028205494   0.02725896           20 
 4221000    0.5755946   -5.9189268    1423.3387  0.028100346  0.027251185           16 
 4222000   0.57169473   -5.9210961    1424.5455   0.02811751  0.027243419           25 
 4223000   0.57316522   -5.9053351    1426.7612  0.028154573  0.027235656           18 
 4224000   0.58535272   -5.9063045    1428.4396  0.028181021  0.027227938           37 
 4225000   0.57655496   -5.9039974    1428.3777   0.02817313  0.027220225           17 
 4226000   0.58604493   -5.9110156    1424.7166  0.028094271  0.027212475           24 
 4227000   0.57320107   -5.9202622     1428.088  0.028154089  0.027204737           23 
 4228000   0.56618035   -5.9277272    1425.5044  0.028096507  0.027196973           30 
 4229000    0.5853974   -5.9425002    1426.1432  0.028102451  0.027189214           27 
 4230000   0.56479977    -5.916496    1429.2215  0.028156453  0.027181455           10 
 4231000   0.57503204   -5.9411568    1425.2049  0.028070687  0.027173687           16 
 4232000   0.57452949   -5.9291636    1427.0439  0.028100266  0.027165888           21 
 4233000   0.56381995   -5.9589024    1424.9711  0.028052821   0.02715811           10 
 4234000   0.58695691   -5.9126327    1427.0054  0.028086235  0.027150309           28 
 4235000   0.58203239   -5.9431874    1425.7547  0.028054993    0.0271425           32 
 4236000   0.58118836   -5.9321093     1426.312  0.028059333  0.027134723           30 
 4237000   0.56872133   -5.9435584    1425.8413  0.028043453  0.027126959           24 
 4238000   0.58111934   -5.9393929    1423.7691  0.027996089  0.027119198           18 
 4239000   0.57142676   -5.9462586    1424.7914  0.028009581  0.027111426           14 
 4240000   0.57405879   -5.9358453     1425.314  0.028013247  0.027103656           20 
 4241000   0.57329892   -5.9487191    1424.1151  0.027983084   0.02709587           27 
 4242000   0.57049961   -5.9332532    1427.3267  0.028039578  0.027088093           68 
 4243000   0.57112207   -5.9270422    1425.2901  0.027992971  0.027080306           43 
 4244000   0.56426637   -5.9287178    1425.4128  0.027988784  0.027072535           33 
 4245000   0.57961046   -5.9356003     1427.428   0.02802175   0.02706478           44 
 4246000    0.5590783   -5.9268831    1427.8234  0.028022913  0.027057053           37 
 4247000   0.57760275   -5.9211276    1426.0392  0.027981305  0.027049322           24 
 4248000   0.57992686   -5.9419941    1423.8014  0.027930819  0.027041594           77 
 4249000   0.57533045   -5.9216919    1426.7055  0.027981202  0.027033878           55 
 4250000   0.57021146   -5.9166039    1430.0758  0.028040702  0.027026161           33 
 4251000   0.56983826   -5.9504672    1424.6778  0.027928287  0.027018442           51 
 4252000   0.57790378   -5.9081785     1428.618  0.027998941  0.027010738           19 
 4253000   0.57545034   -5.9394711    1427.0085  0.027960822  0.027003039           35 
 4254000   0.56985158   -5.9404783       1426.5  0.027944287   0.02699531           21 
 4255000   0.56787045   -5.9375121    1427.0604  0.027948696  0.026987613           20 
 4256000   0.56021627   -5.9055815    1427.7473  0.027955579  0.026979908           25 
 4257000   0.57289417   -5.9184518    1428.0314  0.027954573  0.026972222           45 
 4258000   0.56317474   -5.9396903    1426.4507  0.027917073  0.026964539           37 
 4259000    0.5712852   -5.9556891    1427.4415  0.027929904  0.026956838           26 
 4260000   0.56976174   -5.9319204    1425.9932  0.027895016  0.026949134           14 
 4261000   0.57231748   -5.9147542     1429.788  0.027962685  0.026941428           17 
 4262000   0.56925532   -5.9457258    1426.5655  0.027893116  0.026933698           15 
 4263000   0.55779038   -5.9445337    1426.3176  0.027881727  0.026925978           46 
 4264000   0.56336431   -5.9340255    1428.5614   0.02791904  0.026918283           27 
 4265000   0.57050307    -5.949465     1424.812  0.027839233  0.026910604           12 
 4266000   0.57645843   -5.9475108    1427.6775  0.027888683  0.026902917           24 
 4267000   0.56175614   -5.9412061    1424.7742  0.027825448  0.026895235           30 
 4268000   0.55409124    -5.949692    1424.9908  0.027823158  0.026887537           23 
 4269000   0.56264971   -5.9339694     1425.233  0.027821368  0.026879833           22 
 4270000   0.56375721   -5.9450091    1424.7263  0.027804962  0.026872155           48 
 4271000   0.57474255   -5.9473647    1425.3441  0.027810506  0.026864437           43 
 4272000   0.56724517   -5.9440192    1426.1618  0.027819947  0.026856724           25 
 4273000    0.5766034    -5.943735    1429.1401  0.027871522  0.026849032           27 
 4274000   0.55924677   -5.9479694    1427.5409  0.027833819  0.026841341           16 
 4275000   0.55506061   -5.9443776    1427.2145  0.027820946  0.026833643           23 
 4276000   0.56540051   -5.9525811    1427.9077  0.027827949  0.026825969           13 
 4277000   0.56201812   -5.9287969    1427.3537  0.027810648  0.026818293           30 
 4278000   0.55643868   -5.9502016    1425.1894  0.027761988  0.026810619           19 
 4279000    0.5848126   -5.9354079     1427.038  0.027791502   0.02680297           25 
 4280000   0.57958634   -5.9329007    1426.9398  0.027783096  0.026795319           76 
 4281000   0.55807949   -5.9516561    1426.0718   0.02775971  0.026787668           24 
 4282000   0.56296801   -5.9486393    1427.2723   0.02777659  0.026779995           22 
 4283000    0.5605359   -5.9418807    1422.9309  0.027685635  0.026772305            8 
 4284000   0.57060769   -5.9498457    1427.1294  0.027760843  0.026764619           10 
 4285000   0.57018055   -5.9548333     1425.691  0.027726391  0.026756951           35 
 4286000   0.56399301   -5.9561959    1425.6901  0.027719904  0.026749281           70 
 4287000   0.57367607   -5.9657861    1425.5491  0.027710696  0.026741602          113 
 4288000   0.54627331   -5.9475102    1427.9372  0.027750646  0.026733921           49 
 4289000   0.56115613   -5.9484095    1426.7828  0.027721746   0.02672627           44 
 4290000   0.57909914   -5.9537949    1426.7353  0.027714361  0.026718601           45 
 4291000   0.57019977   -5.9537978    1425.2598  0.027679248  0.026710927           25 
 4292000   0.56194112    -5.952639    1425.4681  0.027676842  0.026703278           51 
 4293000   0.56185037   -5.9707606    1421.9388  0.027601886  0.026695614           66 
 4294000   0.54813384   -5.9812664    1424.0764  0.027636943  0.026687962           27 
 4295000   0.56666352   -5.9507894    1425.0115  0.027648652  0.026680301           26 
 4296000    0.5611634   -5.9665518    1424.1321  0.027625157  0.026672658           22 
 4297000   0.56675491   -5.9411362    1426.5847  0.027666292  0.026665012           20 
 4298000   0.55949556   -5.9466379    1426.7372  0.027662812  0.026657372           12 
 4299000   0.57070147   -5.9736244    1426.6548  0.027654781  0.026649758           19 
 4300000   0.56306248   -5.9722448    1427.1917  0.027658753  0.026642158           24 
 4301000   0.57171316   -5.9744966    1427.1917  0.027652322  0.026634534           22 
 4302000   0.56913411   -5.9467568    1422.2428  0.027550031  0.026626895           32 
 4303000   0.55376478   -5.9402173    1428.0319  0.027655742  0.026619281           23 
 4304000   0.55954144   -5.9461084    1427.0328  0.027629973  0.026611684           28 
 4305000   0.54492432   -5.9320538      1428.81  0.027657955  0.026604087           14 
 4306000   0.56606067   -5.9578371    1427.7807  0.027631614  0.026596498           28 
 4307000   0.57087498    -5.960663    1426.2812  0.027596185  0.026588911           47 
 4308000    0.5608298   -5.9476977    1426.6535  0.027596981   0.02658133           19 
 4309000   0.56194445    -5.943098     1425.377   0.02756589  0.026573749           20 
 4310000   0.54687125   -5.9332141    1428.7428  0.027624571  0.026566167           12 
 4311000   0.55999177   -5.9424755    1428.0677  0.027605113  0.026558581           16 
 4312000   0.55617186   -5.9406042    1426.7844  0.027573911  0.026551007           26 
 4313000   0.56469012   -5.9423476    1427.9811  0.027590638  0.026543414           40 
 4314000    0.5604771   -5.9568268    1426.2693  0.027551176  0.026535802           18 
 4315000   0.56773252   -5.9602437    1425.5331  0.027530573  0.026528204           22 
 4316000   0.56935483   -5.9764728    1426.3293  0.027539568  0.026520583           51 
 4317000   0.55768135   -5.9445682    1426.3044  0.027532709  0.026512978           20 
 4318000   0.56545972    -5.930234    1428.5003   0.02756871  0.026505389           41 
 4319000   0.55664415   -5.9428282    1427.4317  0.027541708  0.026497808           47 
 4320000   0.54911449   -5.9710494    1427.7456   0.02754139  0.026490197           36 
 4321000   0.55057907   -5.9722489    1427.1564  0.027523651  0.026482593           18 
 4322000   0.55514746   -5.9737428    1425.2092   0.02747974  0.026474983           36 
 4323000   0.56171272   -5.9677303    1427.4678  0.027516921  0.026467393           50 
 4324000   0.54739326    -5.937503    1423.8315  0.027440478  0.026459811           12 
 4325000   0.57424696   -5.9604082     1427.766  0.027509942   0.02645223           19 
 4326000   0.56097562   -5.9567929    1424.5994  0.027442583  0.026444646           21 
 4327000   0.55759453   -5.9590024    1426.3309  0.027469589  0.026437078           21 
 4328000   0.55820251   -5.9750374    1429.9267  0.027532477  0.026429505           23 
 4329000   0.55614071   -5.9632752    1427.1033  0.027471766   0.02642196           33 
 4330000   0.54970007   -5.9502906    1428.0208  0.027483079  0.026414416           33 
 4331000    0.5470924   -5.9488705    1427.7587   0.02747169  0.026406853           37 
 4332000   0.56054331   -5.9709211    1423.8815  0.027390765  0.026399276           30 
 4333000   0.56208418   -5.9758687    1428.6927  0.027476974  0.026391711           24 
 4334000   0.55734937   -5.9652899    1423.6584  0.027373835  0.026384127           25 
 4335000   0.55899999   -5.9602374    1429.2133  0.027474305  0.026376551           30 
 4336000   0.56576511   -5.9805382    1425.7644  0.027401684  0.026368974           61 
 4337000   0.55381222   -5.9750705    1427.5281  0.027429254  0.026361416           40 
 4338000   0.55261001   -5.9836666    1423.6426   0.02734829  0.026353831           48 
 4339000   0.56142053   -5.9848522    1424.7389  0.027363043  0.026346219           24 
 4340000   0.57176802   -5.9743664    1424.1801  0.027346007  0.026338637           17 
 4341000    0.5477667   -5.9480122    1423.8995  0.027334323   0.02633106           57 
 4342000   0.55469669   -5.9662779    1422.8867  0.027308588  0.026323473           31 
 4343000   0.55744892    -5.954947      1427.53  0.027391396  0.026315901           73 
 4344000   0.54984287   -5.9813194    1425.1198  0.027338855  0.026308322           54 
 4345000   0.56182606   -5.9822279    1425.9372   0.02734824  0.026300744           34 
 4346000   0.55952425   -5.9751383    1425.5898  0.027335284   0.02629317          112 
 4347000   0.55021727   -5.9859018    1423.2283  0.027283726  0.026285592           48 
 4348000   0.55342515   -5.9699544    1422.5149  0.027263778  0.026278023           33 
 4349000    0.5443778   -5.9872779    1423.6647   0.02727954  0.026270435           39 
 4350000   0.55766146   -5.9719125    1426.6651  0.027330749  0.026262874           62 
 4351000   0.56132943   -5.9884327    1423.7628  0.027268881  0.026255315           30 
 4352000   0.55121316   -5.9834965    1422.8159  0.027244484  0.026247763           52 
 4353000   0.54714872   -5.9684598    1427.5001  0.027327899  0.026240249           25 
 4354000   0.54865062   -5.9711485    1424.6869  0.027267778  0.026232717           30 
 4355000   0.54812575   -5.9851655     1427.181  0.027309241  0.026225193           32 
 4356000   0.56438045   -5.9843033    1426.7129  0.027294018  0.026217661           24 
 4357000   0.54972714   -5.9952113    1425.4423  0.027263451  0.026210095           39 
 4358000   0.55326816   -5.9664703    1425.2563  0.027253638  0.026202538           37 
 4359000   0.55225635   -5.9860267    1425.2592  0.027247442  0.026195014           50 
 4360000   0.55244779   -5.9829902    1426.3128  0.027261329  0.026187502           60 
 4361000   0.56720149   -5.9743714    1426.6718  0.027261939  0.026179984           34 
 4362000   0.54988667   -5.9694781    1427.4328  0.027270228  0.026172457           39 
 4363000   0.55024049   -5.9761392    1427.4749  0.027264781  0.026164924           50 
 4364000   0.55897913   -5.9611307    1426.9473  0.027248459  0.026157411           63 
 4365000   0.55345844   -5.9685549    1425.5697  0.027215916  0.026149883          108 
 4366000   0.55116716   -5.9763191    1425.4473  0.027207347  0.026142361           36 
 4367000   0.54409276   -5.9916027    1426.7119  0.027225248  0.026134829           73 
 4368000   0.56046782   -5.9859555     1423.296  0.027153846  0.026127282           69 
 4369000    0.5489408   -5.9893552    1424.1244  0.027163432   0.02611972           92 
 4370000   0.55190908   -5.9832126    1422.3425  0.027123237  0.026112156           43 
 4371000   0.55616835   -5.9927501    1427.3024  0.027211592   0.02610462           43 
 4372000   0.54599145   -5.9735454    1425.5526  0.027172016   0.02609709           27 
 4373000   0.55581291   -6.0056741    1421.6368   0.02709118  0.026089559           19 
 4374000   0.53934615   -5.9969866    1426.5923  0.027179398   0.02608204           25 
 4375000    0.5611196   -5.9777161    1423.6705  0.027117534  0.026074533           15 
 4376000   0.54397273   -5.9851436    1425.3316  0.027142969  0.026067034           37 
 4377000   0.55388263   -5.9865568    1424.2658  0.027116477  0.026059532           35 
 4378000   0.55850699   -5.9753913    1424.5454  0.027115604  0.026052031           18 
 4379000   0.54270672   -5.9662833    1429.5672  0.027204978  0.026044531           32 
 4380000   0.54850245   -5.9698565    1426.6193  0.027142681  0.026037024           32 
 4381000   0.54990201   -5.9687485    1425.6652  0.027118337    0.0260295           46 
 4382000   0.53694179   -5.9800311    1426.3379   0.02712494  0.026021991           51 
 4383000   0.54520334   -5.9973828    1424.4135  0.027082164   0.02601446           28 
 4384000   0.54107903   -5.9755083    1424.4117  0.027075953  0.026006959           30 
 4385000   0.56018521   -5.9878797    1425.0917  0.027082701  0.025999464           30 
 4386000   0.54475882   -5.9909023    1425.8737  0.027091384  0.025991977           53 
 4387000   0.56168383    -5.990098     1423.247  0.027035312  0.025984486           20 
 4388000   0.55676867   -5.9951512    1426.2258  0.027085722  0.025976992           41 
 4389000   0.54473378    -5.997932     1424.322  0.027043404   0.02596952           27 
 4390000   0.53844748    -5.983231    1424.2824  0.027036493  0.025962056           26 
 4391000   0.53956414   -5.9803371    1424.6881  0.027038034  0.025954584           28 
 4392000   0.54918465   -5.9728811    1426.6327  0.027068775  0.025947112           16 
 4393000   0.53917365   -5.9891817    1423.7773  0.027008447  0.025939642           14 
 4394000    0.5457588   -6.0095661    1423.5746  0.026998457  0.025932164           10 
 4395000   0.54806426   -5.9796817    1427.4466   0.02706573    0.0259247           22 
 4396000   0.53557147   -5.9817925    1425.3094  0.027019059  0.025917244           32 
 4397000   0.54715394   -5.9668683     1425.384  0.027014329  0.025909783           23 
 4398000   0.56713232   -5.9838802    1424.6338  0.026993971   0.02590234           18 
 4399000   0.55529433    -5.984618    1428.7015  0.027064891  0.025894891           24 
 4400000   0.53620892   -5.9875293    1425.5949  0.026999904  0.025887455           50 
 4401000    0.5508916   -5.9852904    1424.6806  0.026976456  0.025880004           26 
 4402000    0.5603006    -5.970499    1424.1378  0.026960052  0.025872544           16 
 4403000   0.54846768   -5.9832341    1426.7718  0.027003782  0.025865095           21 
 4404000   0.54908735   -5.9921497    1427.4961  0.027011354  0.025857623           32 
 4405000   0.56098199   -6.0135351    1425.6535  0.026970365  0.025850162           29 
 4406000   0.54880377   -5.9911179    1426.1326  0.026973305    0.0258427           51 
 4407000   0.54607588   -6.0097387     1423.397  0.026915457  0.025835232           45 
 4408000   0.56664049   -5.9853203    1428.0526  0.026997364  0.025827757           31 
 4409000   0.54013128   -6.0088041    1424.4258  0.026922692  0.025820287           33 
 4410000   0.54853281   -6.0054867    1426.4472  0.026954785  0.025812854           55 
 4411000     0.544821   -6.0162909    1428.0873  0.026979659  0.025805389           60 
 4412000   0.54991254   -5.9914693    1427.9814  0.026971544  0.025797956           34 
 4413000   0.53780346   -6.0036481     1425.883  0.026925806  0.025790506           21 
 4414000   0.55421934   -5.9810169    1424.0686  0.026885452   0.02578308           41 
 4415000    0.5378699   -5.9958744    1425.6628  0.026909453  0.025775662           45 
 4416000   0.53741095   -6.0057595    1424.5853  0.026883026  0.025768255           56 
 4417000   0.55204884   -6.0008478    1428.3063  0.026947141  0.025760845           56 
 4418000   0.54242072   -6.0035763    1426.4716  0.026906437  0.025753431           81 
 4419000   0.55533804   -6.0153477    1423.9298  0.026852415  0.025745998           84 
 4420000   0.54014941   -6.0158019    1426.5433  0.026895613  0.025738565           61 
 4421000   0.55073542   -6.0012864    1424.8295  0.026857224  0.025731125           61 
 4422000   0.54545217    -6.006222    1423.9805  0.026835153  0.025723693           88 
 4423000   0.53540912   -6.0221414    1426.0678  0.026868412  0.025716249           61 
 4424000   0.54304383   -6.0233622    1422.5005  0.026795141  0.025708796           27 
 4425000   0.54274124   -6.0305506    1425.2906   0.02684163  0.025701365           38 
 4426000   0.53720425   -6.0083025     1421.936  0.026772406  0.025693943           59 
 4427000   0.54552803   -6.0000727    1425.2557  0.026828849  0.025686536           52 
 4428000   0.55285396   -6.0007401    1425.8263  0.026833527   0.02567912           49 
 4429000   0.55099515   -6.0118719    1421.8977   0.02675355  0.025671695          109 
 4430000   0.54229826   -6.0031029    1423.1798   0.02677163  0.025664283           49 
 4431000   0.54127659   -6.0041455    1426.5289  0.026828574  0.025656872           47 
 4432000   0.54278036   -6.0315207    1423.6798  0.026768949  0.025649468           85 
 4433000   0.53554677   -6.0116778    1426.5212  0.026816324  0.025642071           41 
 4434000   0.54112141   -6.0211526    1428.9318  0.026855582  0.025634676           72 
 4435000   0.54261817   -6.0067899    1425.0117  0.026775868  0.025627274           84 
 4436000    0.5492579   -6.0002315    1426.2295  0.026792708  0.025619889           24 
 4437000   0.54201293   -5.9968366    1423.3812  0.026733176  0.025612507           43 
 4438000   0.55285979   -6.0108891    1422.1906  0.026704795  0.025605111           71 
 4439000   0.53705753   -6.0008655    1424.1556  0.026735669  0.025597707           55 
 4440000   0.55360336   -5.9911632     1424.344  0.026733182  0.025590308           62 
 4441000   0.52707521   -6.0099972     1426.009  0.026758406  0.025582912           46 
 4442000   0.52837434   -6.0162139    1422.4528  0.026685668  0.025575524           57 
 4443000    0.5439602   -6.0138202    1424.7182  0.026722151  0.025568131           40 
 4444000   0.54140883   -6.0157625    1425.7295  0.026735102  0.025560744           59 
 4445000   0.54704414   -6.0191667    1426.4667  0.026742908  0.025553388           91 
 4446000    0.5328387   -6.0253866      1423.89  0.026688597  0.025546016           78 
 4447000   0.54487817   -6.0186471    1426.0223  0.026722552  0.025538654           83 
 4448000   0.52758498   -6.0181857    1423.5525  0.026670274  0.025531294           51 
 4449000   0.54043376   -6.0205125    1425.7609  0.026705643  0.025523927           74 
 4450000   0.52806011   -5.9998666    1426.1725   0.02670735  0.025516554          101 
 4451000   0.53438555   -6.0119465    1425.9766  0.026697681  0.025509201          117 
 4452000   0.53414348   -6.0345543    1424.6099  0.026666103   0.02550185           88 
 4453000   0.53519992    -6.022209    1424.6086   0.02666009   0.02549448          112 
 4454000    0.5400627   -6.0194425    1424.5063  0.026652191  0.025487097          163 
 4455000   0.53167416   -6.0115417    1426.9514  0.026691945  0.025479725          105 
 4456000   0.54271499   -6.0295809     1425.877  0.026665863  0.025472367          126 
 4457000   0.53328276   -6.0021498    1427.5233  0.026690661   0.02546502          147 
 4458000   0.54058051   -6.0359412    1423.7738  0.026614583  0.025457659          105 
 4459000   0.53583411   -6.0085115    1423.5875  0.026605135  0.025450287           75 
 4460000   0.53737417   -6.0342226    1425.5249  0.026635368  0.025442916          114 
 4461000   0.54182009   -6.0201007    1423.9184  0.026599388  0.025435542          143 
 4462000   0.55174273   -6.0103482     1426.376  0.026639325  0.025428195          110 
 4463000   0.53613839   -6.0255635    1424.7595  0.026603171  0.025420834          119 
 4464000   0.54004925   -6.0271761    1425.0514  0.026602662  0.025413464           56 
 4465000   0.53929289    -6.044853    1422.5376  0.026549787  0.025406099          101 
 4466000   0.53157563   -6.0242748    1424.8138  0.026586315  0.025398716          121 
 4467000    0.5344547   -6.0219735    1421.2027  0.026512997  0.025391346          163 
 4468000    0.5425137   -6.0127536    1426.0502  0.026597474  0.025383974           57 
 4469000   0.54469322   -6.0279026    1422.8542  0.026531928  0.025376612           81 
 4470000   0.54001049   -6.0540548    1422.3594  0.026516767  0.025369242          100 
 4471000   0.52962396   -6.0433426     1421.802  0.026500447  0.025361849          126 
 4472000   0.54366273   -6.0240259    1425.1164  0.026556283  0.025354476          123 
 4473000   0.53826991   -6.0307546     1423.095  0.026512688  0.025347095          146 
 4474000   0.53413745    -6.041052    1423.9455  0.026522602  0.025339721          112 
 4475000   0.52507514   -6.0394609    1425.9364   0.02655375  0.025332367           78 
 4476000   0.54052674   -6.0289518    1424.2114  0.026515702  0.025325018           45 
 4477000   0.53531437   -6.0215733    1421.0149  0.026450282  0.025317673           94 
 4478000   0.53797759     -6.04389    1423.8901   0.02649788  0.025310323           65 
 4479000   0.52611748   -6.0302367    1422.8593  0.026472786  0.025302989          125 
 4480000   0.53628427   -6.0367698    1421.1482  0.026435049  0.025295655           68 
 4481000   0.53209026   -6.0436539    1424.4382  0.026490334   0.02528833          101 
 4482000   0.53869305   -6.0318264    1423.7499  0.026471626  0.025280997          165 
 4483000   0.53898647   -6.0379753    1419.7818  0.026391958  0.025273658          156 
 4484000   0.53063678   -6.0264416    1422.6071   0.02643858  0.025266348          100 
 4485000    0.5312304   -6.0392146    1423.5364  0.026449952  0.025259019          104 
 4486000   0.53910402   -6.0306096    1424.0366  0.026453347  0.025251692          151 
 4487000   0.53580945   -6.0237292    1422.8562   0.02642553  0.025244373          106 
 4488000    0.5433207   -6.0295068    1422.1384  0.026406312  0.025237036           87 
 4489000   0.53085171    -6.032331    1423.5698  0.026427003  0.025229708           54 
 4490000   0.53125074   -6.0580231    1421.8109  0.026388473  0.025222371           88 
 4491000   0.52402229   -6.0613545    1422.2854    0.0263914  0.025215035          225 
 4492000   0.52098831   -6.0453026    1420.5531   0.02635339  0.025207704          179 
 4493000   0.52844811   -6.0502657    1420.7852  0.026351829  0.025200386           89 
 4494000   0.53790834   -6.0590076    1424.2386  0.026410001  0.025193048           92 
 4495000   0.51711492   -6.0553789     1422.567  0.026373137   0.02518573           67 
 4496000   0.53681964   -6.0492129    1422.3538  0.026363318  0.025178407           81 
 4497000   0.53460876   -6.0512474    1419.6854  0.026308008  0.025171086          108 
 4498000   0.53293848   -6.0551788    1420.1306  0.026310409  0.025163766          105 
 4499000   0.52186835   -6.0670501    1421.5695  0.026331212  0.025156442          129 
 4500000   0.53625931   -6.0540442    1420.8116  0.026311327  0.025149134           73 
 4501000   0.52969166   -6.0586547     1420.985  0.026308691  0.025141816           69 
 4502000   0.52240873    -6.051692    1423.3911  0.026347385  0.025134512           74 
 4503000   0.51977144    -6.053978    1423.9643  0.026352142   0.02512721           43 
 4504000   0.52719597   -6.0359108    1421.8634  0.026307419  0.025119917           89 
 4505000   0.52840225   -6.0591942    1421.8062  0.026300522  0.025112598          151 
 4506000   0.52299971   -6.0729168    1422.1443  0.026300938   0.02510528          108 
 4507000    0.5296485    -6.042635    1422.8751  0.026308614  0.025097971          104 
 4508000   0.51780533    -6.039407    1421.9941  0.026286493  0.025090689           89 
 4509000   0.51239528   -6.0437181    1424.2536  0.026322422  0.025083387          143 
 4510000   0.53403312   -6.0360638    1424.6178  0.026323315  0.025076089           94 
 4511000   0.53085403   -6.0496524    1423.0571  0.026288648  0.025068794          218 
 4512000   0.53189619   -6.0391844    1423.0826  0.026283292  0.025061513          160 
 4513000   0.53095611   -6.0343695    1420.6952  0.026233385  0.025054226          179 
 4514000   0.53156051   -6.0441112    1421.0294  0.026233742   0.02504695          197 
 4515000   0.51738183   -6.0443429    1424.1007  0.026284619  0.025039673          190 
 4516000   0.52495737   -6.0341648    1423.1155   0.02626062  0.025032424          203 
 4517000    0.5322642   -6.0461926    1422.0803  0.026235708  0.025025171           71 
 4518000    0.5298907    -6.039047    1423.1875  0.026250322  0.025017903          101 
 4519000   0.53254528   -6.0561828    1422.8782  0.026238809  0.025010656          117 
 4520000   0.52881794   -6.0486688    1423.0037   0.02623532    0.0250034          133 
 4521000   0.52643225   -6.0412699    1422.1745  0.026214231  0.024996153          128 
 4522000   0.53550552   -6.0320232     1421.526  0.026196484   0.02498892          111 
 4523000   0.52677126   -6.0446439    1421.5788  0.026191665  0.024981676          194 
 4524000   0.54134631   -6.0583732    1422.8455  0.026209208  0.024974441          169 
 4525000   0.52118865   -6.0523338     1420.892  0.026167441  0.024967201          238 
 4526000   0.52950501   -6.0400502    1423.9813  0.026218539  0.024959973           89 
 4527000   0.52800294   -6.0369009    1423.6374  0.026206416  0.024952758          162 
 4528000   0.52647127   -6.0465111    1423.5814  0.026199599   0.02494553           86 
 4529000   0.54363538   -6.0388594    1422.7256  0.026178068  0.024938278           90 
 4530000   0.53079851   -6.0512709    1421.6581   0.02615265  0.024931051          164 
 4531000    0.5297656   -6.0373817    1423.1093  0.026173569  0.024923831          143 
 4532000   0.52051704   -6.0377506    1422.9622  0.026165089   0.02491662           99 
 4533000   0.53070793   -6.0652642    1423.8462  0.026175568    0.0249094          175 
 4534000   0.52632522   -6.0441217    1422.9973  0.026154192  0.024902176          178 
 4535000   0.52514097   -6.0451432     1424.227  0.026171022  0.024894959           76 
 4536000   0.53415284   -6.0512533    1425.0095  0.026179628  0.024887731          117 
 4537000   0.53201779   -6.0591772    1422.7773  0.026132857  0.024880505           76 
 4538000    0.5254952   -6.0390273    1419.0685  0.026058993  0.024873277           70 
 4539000   0.51762458   -6.0346856    1422.3461  0.026113425  0.024866065          169 
 4540000   0.52692123   -6.0417132    1423.4113  0.026127226  0.024858856           66 
 4541000   0.52862656   -6.0568511    1422.4738  0.026104269  0.024851641           97 
 4542000   0.51089642   -6.0485381    1422.6251  0.026101297  0.024844432           85 
 4543000   0.52857799   -6.0585745    1422.3138  0.026089842  0.024837213          144 
 4544000   0.51447146    -6.060504    1422.3504  0.026084772  0.024829999          236 
 4545000   0.53070081   -6.0556914    1419.6583  0.026029672   0.02482278          159 
 4546000   0.51657332   -6.0535535    1421.2958  0.026053963  0.024815567          136 
 4547000   0.53175907   -6.0484725    1425.9652   0.02613381  0.024808348          129 
 4548000   0.53493555   -6.0626279    1421.4456  0.026045251  0.024801138           91 
 4549000   0.51722684   -6.0538345      1424.94   0.02610354  0.024793921          114 
 4550000   0.51870841   -6.0400974    1421.8411  0.026041045  0.024786707          128 
 4551000   0.52362402    -6.068954    1424.1272  0.026077184  0.024779484          196 
 4552000   0.51789733   -6.0653973     1424.154  0.026071946  0.024772272          128 
 4553000   0.51058807   -6.0632149    1417.6605   0.02594737  0.024765049          236 
 4554000    0.5208115   -6.0461893    1421.1261  0.026005089  0.024757826          205 
 4555000   0.52984677    -6.045746     1424.454  0.026060263  0.024750627          344 
 4556000   0.51783082   -6.0692647    1421.0005  0.025991376  0.024743417          157 
 4557000   0.51804933   -6.0576325    1419.8487  0.025964609  0.024736201           97 
 4558000   0.52047257   -6.0799808    1418.4977  0.025934213  0.024728978          217 
 4559000   0.52403961   -6.0570274    1421.9917   0.02599239  0.024721762          113 
 4560000   0.52622795   -6.0655948    1422.6547  0.025998807   0.02471456          154 
 4561000   0.52697506   -6.0624763    1420.2242    0.0259487  0.024707354          208 
 4562000   0.51874394   -6.0717205    1419.8554  0.025936274  0.024700152          159 
 4563000   0.51911114   -6.0823851    1416.2273   0.02586433  0.024692939          179 
 4564000   0.51568086   -6.0592059    1420.5039   0.02593675  0.024685734           77 
 4565000   0.51636272   -6.0492083    1421.8741  0.025956081  0.024678548          187 
 4566000    0.5182823   -6.0526225    1420.7697   0.02593024  0.024671368          153 
 4567000   0.52048995   -6.0511614    1419.8724   0.02590819  0.024664189          213 
 4568000   0.51702265   -6.0419715    1417.3208   0.02585597  0.024657012          147 
 4569000   0.52890424   -6.0742638    1419.7712  0.025895003  0.024649807          287 
 4570000   0.51556158   -6.0509273    1419.8665  0.025891074  0.024642604          171 
 4571000   0.52183469   -6.0744377    1420.1386   0.02589037  0.024635395          136 
 4572000   0.53386656   -6.0808137    1420.0212  0.025882568  0.024628179          221 
 4573000   0.53488573   -6.0841153    1419.1326  0.025860716  0.024620979          111 
 4574000   0.51389251   -6.0635187     1422.005  0.025907393  0.024613779          189 
 4575000    0.5311736   -6.0475784    1419.5822    0.0258576  0.024606586          216 
 4576000   0.53249976   -6.0638185    1418.7082  0.025836033   0.02459941           98 
 4577000   0.52067977   -6.0966696    1418.2937  0.025822841  0.024592229          203 
 4578000   0.51819779   -6.0718803    1419.7162  0.025843095  0.024585017          197 
 4579000   0.51573777   -6.0561452    1417.2219  0.025792056  0.024577822          190 
 4580000   0.51868136   -6.0817937    1418.8853  0.025816691  0.024570623          215 
 4581000   0.51887718   -6.0953298    1419.0338  0.025813757  0.024563432          252 
 4582000   0.51856262   -6.0811603     1419.125  0.025809782  0.024556238          305 
 4583000   0.50979593   -6.0684882    1422.7104  0.025869343  0.024549063          278 
 4584000   0.50732946   -6.0564984    1420.2762  0.025819448   0.02454191          284 
 4585000    0.5039485    -6.063632    1422.9519  0.025862448  0.024534751          227 
 4586000   0.51155129   -6.0680892    1418.4175  0.025774413  0.024527582          177 
 4587000   0.51444567   -6.0785668    1419.5804  0.025789921  0.024520407          259 
 4588000   0.51855084   -6.0625753    1418.4442  0.025763662  0.024513237          177 
 4589000   0.51002626   -6.0748554    1419.7169   0.02578116  0.024506078          192 
 4590000   0.52311714    -6.063039    1420.5895  0.025791385  0.024498927          144 
 4591000   0.50892952   -6.0901132    1417.7263  0.025733796  0.024491756          230 
 4592000   0.52914243   -6.0693923    1420.7042  0.025782234  0.024484592          175 
 4593000   0.52539541   -6.0777365    1420.7631  0.025777688  0.024477422          219 
 4594000   0.51415901   -6.0890796    1420.7093  0.025771101  0.024470256          116 
 4595000   0.51539207   -6.0577747      1424.36  0.025831701  0.024463097          353 
 4596000    0.5141912    -6.070966    1422.0315  0.025783862  0.024455946          112 
 4597000   0.51400591   -6.0823358    1422.0908  0.025779328  0.024448791          336 
 4598000   0.50349451   -6.0769566    1419.9571  0.025735049  0.024441634          306 
 4599000   0.52999202   -6.0768078    1418.5456  0.025703878  0.024434485          183 
 4600000   0.51613898   -6.0760458    1419.5475   0.02571644  0.024427354          252 
 4601000   0.51694807   -6.0831336    1418.0361  0.025683476  0.024420204          306 
 4602000   0.50941002   -6.0916527     1416.855  0.025656508  0.024413058          267 
 4603000   0.51188839   -6.0609009    1420.4149  0.025715383  0.024405915          321 
 4604000   0.51551466   -6.0889114    1418.1055  0.025667997   0.02439878          297 
 4605000   0.51726728   -6.0834243    1418.9171  0.025677111  0.024391636          250 
 4606000   0.51642777   -6.0882496    1422.1682  0.025730355  0.024384475          185 
 4607000   0.50812334   -6.0728445    1418.9555  0.025666657  0.024377318          324 
 4608000    0.5185384   -6.0691458     1418.655  0.025655652   0.02437017          378 
 4609000   0.52171901   -6.1023563    1418.1089  0.025640213  0.024363016          378 
 4610000     0.505678   -6.0881024    1417.7859  0.025628812  0.024355862          430 
 4611000   0.51784397   -6.1186614    1416.6769  0.025603212  0.024348705          279 
 4612000   0.51612194   -6.1057259    1416.5848  0.025595996  0.024341553          349 
 4613000   0.50933426   -6.0820964    1417.8896  0.025614019  0.024334418          274 
 4614000   0.51922388   -6.0872331    1418.9094  0.025626885  0.024327284          283 
 4615000   0.51258273   -6.0883943    1418.1983  0.025608493  0.024320152          383 
 4616000   0.51202018   -6.1017361    1419.1557  0.025620229  0.024313026          327 
 4617000   0.52046312   -6.0912278    1419.7309  0.025625061    0.0243059          358 
 4618000   0.51409822   -6.0981973    1417.4592  0.025578519   0.02429876          487 
 4619000   0.52305482   -6.0906195    1416.9511  0.025563815  0.024291637          287 
 4620000   0.50650478   -6.0778289    1419.2053  0.025598942   0.02428451          283 
 4621000   0.51555576   -6.0729081    1419.0824  0.025591184  0.024277402          330 
 4622000   0.49616889   -6.1122011    1416.0997  0.025531871  0.024270291          283 
 4623000   0.50929976   -6.0978729    1417.9607  0.025559895  0.024263173          287 
 4624000   0.51058532   -6.0894791     1417.094  0.025538747  0.024256063          358 
 4625000     0.505274   -6.0803275    1418.3774  0.025556349  0.024248949          341 
 4626000   0.52795605   -6.0882754    1417.7727  0.025539932  0.024241839          393 
 4627000   0.51739549   -6.0876475    1422.3953  0.025617667  0.024234746          412 
 4628000   0.51306952   -6.0885106    1418.4769  0.025541574   0.02422764          272 
 4629000   0.50345535   -6.1036347    1418.0837  0.025528979  0.024220527          299 
 4630000     0.510504   -6.0738061     1416.324  0.025491792  0.024213406          384 
 4631000   0.51301652   -6.0909878    1419.6199  0.025545597  0.024206304          296 
 4632000   0.51388718   -6.1079174    1416.3899  0.025481972  0.024199203          274 
 4633000   0.51210282   -6.0873842    1418.9878  0.025523199  0.024192115          324 
 4634000   0.50343546   -6.0959261    1418.0406  0.025500659  0.024185001          347 
 4635000   0.50916128   -6.1213713    1416.6208   0.02546963   0.02417789          361 
 4636000   0.49950726   -6.0933776    1419.1367   0.02550936  0.024170768          360 
 4637000   0.52594581   -6.1048425     1419.821  0.025516156  0.024163665          213 
 4638000   0.51074955   -6.1038397    1417.5541  0.025469924  0.024156554          393 
 4639000   0.51064578   -6.1100245    1418.1126  0.025474466  0.024149451          322 
 4640000   0.50080373   -6.0942594     1416.964  0.025448348  0.024142339          291 
 4641000   0.51200886   -6.1029698    1417.4772  0.025452079  0.024135239          373 
 4642000    0.5131825   -6.0912863    1416.4114  0.025427462  0.024128139          373 
 4643000   0.50999593    -6.114714    1416.4265  0.025422257   0.02412104          318 
 4644000   0.51184143   -6.1149454    1415.7036  0.025403812  0.024113907          267 
 4645000   0.50854788   -6.1158779    1416.6739  0.025415749  0.024106799          316 
 4646000   0.50481516   -6.1091314     1419.022  0.025452396  0.024099705          281 
 4647000   0.51122852   -6.1077719    1418.0785      0.02543  0.024092616          328 
 4648000   0.49963286   -6.0879089    1414.4998  0.025360367  0.024085532          292 
 4649000   0.51316501   -6.1016998    1417.0852  0.025401254  0.024078448          237 
 4650000   0.50061066   -6.0958951    1417.0949  0.025395965   0.02407135          261 
 4651000   0.49813302   -6.0953941    1417.6711  0.025400829  0.024064265          233 
 4652000   0.50297174   -6.1065927    1415.8469  0.025362692  0.024057189          274 
 4653000   0.50890971   -6.0889324     1416.756  0.025373522  0.024050113          361 
 4654000   0.50191524   -6.1060782    1418.6483  0.025401953  0.024043044          277 
 4655000   0.49885162   -6.1009159    1420.7229  0.025433635  0.024035987          269 
 4656000    0.5025534   -6.0884263    1417.6744  0.025373611  0.024028935          320 
 4657000   0.51256463   -6.0821492    1418.3718  0.025380642   0.02402188          234 
 4658000   0.50556877   -6.0788778    1419.0364  0.025387082  0.024014828          312 
 4659000   0.49495781   -6.0892928    1416.8978  0.025343381   0.02400778          337 
 4660000   0.50422202   -6.1009177     1417.798  0.025354042  0.024000719          315 
 4661000   0.50731275   -6.1119998    1417.4804  0.025342923  0.023993648          254 
 4662000   0.50572927    -6.097795    1417.7886  0.025342997  0.023986582          246 
 4663000   0.50701266   -6.1028818    1417.1209  0.025325628  0.023979522          256 
 4664000   0.51440253   -6.1054893    1415.3212  0.025288042  0.023972469          354 
 4665000   0.50727006   -6.1013205    1416.2867   0.02529987  0.023965423          250 
 4666000   0.50121264   -6.1086248    1416.9883  0.025306978  0.023958381          233 
 4667000   0.50468455   -6.1007859    1418.6215  0.025330717  0.023951331          252 
 4668000   0.50969468   -6.1125876    1417.0347  0.025296963  0.023944292          292 
 4669000   0.50879919   -6.1180875    1414.1838  0.025240662  0.023937252          271 
 4670000    0.5201296    -6.109319     1414.858  0.025247288   0.02393021          305 
 4671000   0.49490373   -6.1083807    1415.9088  0.025260629  0.023923169          283 
 4672000   0.50488968   -6.1076446    1418.1875  0.025295868   0.02391613          267 
 4673000   0.51520808   -6.1164395     1418.618  0.025298132  0.023909101          314 
 4674000   0.50885883   -6.1054215    1414.6542  0.025222047  0.023902065          311 
 4675000   0.50071912   -6.1054527    1418.9308  0.025292885   0.02389503          248 
 4676000   0.50652819   -6.1050224    1417.7696  0.025266781  0.023887989          255 
 4677000    0.5112274   -6.1017372    1414.8766  0.025209831  0.023880952          207 
 4678000   0.50532027    -6.117562    1416.4552  0.025232563  0.023873915          240 
 4679000   0.50094915   -6.1333642    1416.8245  0.025233749  0.023866882          327 
 4680000    0.5061301   -6.1065539    1418.7848  0.025263263  0.023859839          264 
 4681000   0.50120333   -6.1071416    1415.3845  0.025197331  0.023852804          211 
 4682000    0.5145772   -6.1157774    1417.4097  0.025227996  0.023845775          195 
 4683000    0.5046978   -6.1066219    1416.9677  0.025214742  0.023838751          244 
 4684000    0.5059186   -6.1074559    1415.3775  0.025181069  0.023831716          223 
 4685000   0.50273629   -6.1180169     1416.866   0.02520217  0.023824682          274 
 4686000   0.51562119   -6.1342929    1415.2809  0.025168603  0.023817651          246 
 4687000   0.50624896   -6.1204003     1413.907  0.025138806  0.023810633          391 
 4688000   0.50116835   -6.1228469    1418.8694  0.025221654  0.023803628          319 
 4689000   0.49282849    -6.115518     1418.613   0.02521172  0.023796625          287 
 4690000   0.49967185    -6.106121    1419.4015  0.025220354  0.023789629          271 
 4691000    0.5117194    -6.102385    1416.6412  0.025165943  0.023782642          316 
 4692000   0.50667312   -6.1252965    1416.0865  0.025150726   0.02377564          241 
 4693000   0.50444849   -6.1142861    1415.2019  0.025129659  0.023768636          436 
 4694000   0.51023367   -6.1195799    1414.5185  0.025112174  0.023761621          219 
 4695000   0.49178705     -6.11802     1414.018  0.025097941  0.023754607          354 
 4696000   0.50895348    -6.129139    1414.1148  0.025094314  0.023747597          305 
 4697000   0.49828021   -6.1164925    1414.5569  0.025096816  0.023740589          287 
 4698000   0.49481592   -6.1191559    1415.3199  0.025105007  0.023733604          262 
 4699000   0.50382646    -6.133648    1415.2104  0.025097723  0.023726608          303 
 4700000   0.49333072   -6.1110917    1414.1282  0.025073194  0.023719607          356 
 4701000   0.49690378   -6.1173238    1418.0993  0.025138256  0.023712608          312 
 4702000   0.49724387   -6.1270449    1416.3452  0.025101823  0.023705614          316 
 4703000   0.50638432    -6.115719    1411.8478  0.025016795   0.02369862          266 
 4704000   0.50768854    -6.138177    1413.4432  0.025039739  0.023691631          337 
 4705000   0.50603406   -6.1230119    1414.4519  0.025052283  0.023684643          412 
 4706000   0.49598119   -6.1205593    1414.6609  0.025050661  0.023677658          252 
 4707000   0.49178012   -6.1204439    1413.8273   0.02503058  0.023670688          420 
 4708000   0.51381354   -6.1326311     1414.792  0.025042339  0.023663707          394 
 4709000   0.49505582   -6.1294005    1415.9788  0.025058024  0.023656739          410 
 4710000   0.50778879   -6.1114281     1414.912  0.025033829  0.023649783          383 
 4711000   0.50756776   -6.1337369     1416.736   0.02506078  0.023642824          410 
 4712000    0.4991641   -6.1160223    1420.2434   0.02511749  0.023635878          319 
 4713000   0.48248512   -6.1128098    1416.1307  0.025039442  0.023628935          394 
 4714000   0.50611936   -6.1136038    1418.2093  0.025070876  0.023621991          270 
 4715000   0.49489102   -6.1252596    1418.8926  0.025077636  0.023615061          318 
 4716000   0.49527799   -6.1152081    1417.0232  0.025039284  0.023608131          295 
 4717000   0.50078122   -6.1258179    1415.1804  0.025001421  0.023601201          324 
 4718000   0.49496711   -6.1188806     1416.534   0.02502003  0.023594267          293 
 4719000   0.50479748   -6.1405949    1416.7918  0.025019281  0.023587324          395 
 4720000   0.49960171   -6.1274491    1415.1321  0.024984677  0.023580368          415 
 4721000   0.49210208   -6.1218214    1415.5534  0.024986822   0.02357343          357 
 4722000   0.49776979   -6.1116695    1414.0291  0.024954629  0.023566476          421 
 4723000   0.49219017   -6.1458377    1415.9069  0.024982477  0.023559521          439 
 4724000   0.50113354   -6.1222606     1414.718  0.024956217  0.023552569          310 
 4725000    0.4906008   -6.1237264    1413.5969  0.024931163  0.023545631          365 
 4726000   0.49650299   -6.1272863    1414.2073  0.024936651  0.023538695          479 
 4727000   0.50349824   -6.1275183    1415.2983  0.024950608  0.023531767          558 
 4728000   0.49155076   -6.0937883    1415.5354  0.024949509  0.023524863          406 
 4729000    0.4935659    -6.127222    1417.6722  0.024981888  0.023517943          468 
 4730000   0.49874075   -6.1239231    1414.8492  0.024926872  0.023511011          418 
 4731000   0.49166775   -6.1358875    1412.8055  0.024885603  0.023504073          414 
 4732000   0.49500016   -6.1186818    1417.4496  0.024962131  0.023497148          415 
 4733000   0.49412211   -6.1306231    1417.9374  0.024965445  0.023490231          414 
 4734000   0.48952987   -6.1135475    1415.4066  0.024915621  0.023483313          483 
 4735000     0.478508   -6.1337306    1414.4395  0.024893339  0.023476399          447 
 4736000   0.49182363   -6.1304873    1416.4581  0.024923601   0.02346948          546 
 4737000   0.49412967   -6.1332687    1416.1968  0.024913744  0.023462572          489 
 4738000   0.48260134   -6.1232592    1415.6005  0.024897996   0.02345566          442 
 4739000   0.48840633   -6.1300923    1416.5788  0.024909946  0.023448756          585 
 4740000   0.48604548   -6.1344134    1415.0121  0.024877147  0.023441853          621 
 4741000    0.4846555   -6.1406896    1415.4539  0.024879665  0.023434955          548 
 4742000   0.49522887   -6.1354698    1417.5699  0.024911604   0.02342805          641 
 4743000   0.49096115   -6.1135486    1416.7217   0.02489145  0.023421146          544 
 4744000    0.4889782   -6.1386403    1415.0602  0.024857015   0.02341425          471 
 4745000    0.4976467   -6.1429948    1412.5606  0.024807879  0.023407357          609 
 4746000   0.49793025   -6.1368547    1415.6099  0.024856193  0.023400454          654 
 4747000   0.49037671   -6.1260949    1412.9608  0.024804452  0.023393547          550 
 4748000   0.49790365   -6.1335036    1413.8732  0.024815242  0.023386629          571 
 4749000    0.4845781   -6.1419021    1415.7518  0.024842981  0.023379711          503 
 4750000     0.494614   -6.1519253    1414.0927  0.024808643   0.02337279          619 
 4751000   0.49497528   -6.1626946    1414.2348  0.024805915   0.02336588          501 
 4752000   0.48990793   -6.1363176    1414.9705  0.024813597  0.023358974          575 
 4753000    0.4971768   -6.1397124    1413.9278  0.024790094  0.023352079          634 
 4754000   0.49533252   -6.1565267    1411.9716  0.024750589  0.023345181          443 
 4755000   0.48864956   -6.1438458    1413.4345  0.024771022  0.023338282          417 
 4756000    0.4849474   -6.1378518    1415.1271   0.02479547  0.023331383          391 
 4757000   0.49445386   -6.1588164    1412.1335  0.024737816  0.023324491          501 
 4758000   0.47827842   -6.1417782    1414.2313  0.024769359  0.023317605          478 
 4759000   0.49435934   -6.1662097    1414.6703  0.024771842  0.023310718          543 
 4760000   0.49288779     -6.14833    1412.9663  0.024736805  0.023303839          351 
 4761000   0.49200768   -6.1459729    1412.9685  0.024731647  0.023296954          416 
 4762000   0.48406609   -6.1479555    1413.0198  0.024727352  0.023290064          368 
 4763000   0.49042247   -6.1480336     1412.073  0.024705595  0.023283171          351 
 4764000   0.48872235   -6.1516238    1413.7896  0.024730437  0.023276297          387 
 4765000   0.49012052   -6.1362911     1414.018  0.024729241  0.023269416          410 
 4766000   0.48982154   -6.1516119    1415.1699  0.024744194  0.023262537          429 
 4767000   0.48828921   -6.1633536    1412.8534  0.024698507  0.023255675          373 
 4768000   0.47890764    -6.154943    1413.7517  0.024709027  0.023248796          595 
 4769000   0.49023619   -6.1639186    1414.7548  0.024721374  0.023241926          463 
 4770000   0.48311696   -6.1492683    1414.8422  0.024717719   0.02323506          603 
 4771000   0.48572337   -6.1589465    1411.4186  0.024652738  0.023228191          466 
 4772000   0.48963362   -6.1681884    1414.3923  0.024699502  0.023221332          661 
 4773000   0.49643268   -6.1374983    1411.8091  0.024649226  0.023214469          590 
 4774000   0.49401543   -6.1426835    1413.9668  0.024681728  0.023207611          609 
 4775000   0.48329017   -6.1528414    1411.3495  0.024630882  0.023200749          493 
 4776000   0.49027532   -6.1440371    1413.6814  0.024666413  0.023193907          589 
 4777000   0.48814057   -6.1512623    1413.9366    0.0246657  0.023187069          670 
 4778000   0.48358838   -6.1453647     1413.097  0.024645895  0.023180235          425 
 4779000   0.48181369   -6.1574198    1411.8463  0.024618928  0.023173389          673 
 4780000   0.48783957   -6.1624031    1411.6788  0.024610857  0.023166536          575 
 4781000    0.4860334   -6.1635975    1410.3196   0.02458202  0.023159667          721 
 4782000   0.48410421   -6.1743556    1411.8608  0.024603737  0.023152806          649 
 4783000   0.47781972   -6.1669165    1412.7413  0.024613932  0.023145944          611 
 4784000   0.48694128    -6.168636    1413.7953  0.024627148  0.023139093          715 
 4785000    0.4801679   -6.1603046    1415.5858  0.024653183   0.02313225          651 
 4786000   0.49531315   -6.1579186    1417.4444  0.024680393  0.023125407          683 
 4787000   0.49355242   -6.1551813     1412.394   0.02458732  0.023118566          651 
 4788000   0.50102669   -6.1575878     1411.653  0.024569289  0.023111724          682 
 4789000   0.48453126   -6.1675948    1410.8299  0.024549834  0.023104883          655 
 4790000   0.48290042   -6.1641444    1412.3962  0.024571958  0.023098053          747 
 4791000   0.48308233   -6.1697255    1415.0831  0.024613565   0.02309121          794 
 4792000   0.48812751   -6.1620981    1413.3489  0.024578271  0.023084381          771 
 4793000   0.49026995   -6.1599169    1415.7462  0.024614823  0.023077555          803 
 4794000   0.47893707   -6.1707344     1413.113  0.024563917  0.023070723          734 
 4795000   0.49563977   -6.1675638    1414.2422  0.024578418  0.023063899          758 
 4796000   0.47692226   -6.1682221    1414.0746  0.024570381  0.023057081          713 
 4797000   0.47556358   -6.1713482    1413.6847  0.024558487  0.023050248          650 
 4798000   0.48279762   -6.1582066    1412.5579  0.024533797  0.023043424          634 
 4799000   0.48939254   -6.1652422    1410.6318  0.024495239  0.023036605          646 
 4800000   0.47977844   -6.1643874     1412.425  0.024521267  0.023029786          696 
 4801000   0.47559908    -6.162815    1412.2049   0.02451234  0.023022965          649 
 4802000   0.48264228   -6.1731996    1413.2621  0.024525582  0.023016146          722 
 4803000   0.47846423    -6.163164    1413.6456  0.024527129   0.02300934          619 
 4804000   0.48193737   -6.1613063    1413.6212  0.024521601   0.02300254          760 
 4805000   0.48443853   -6.1650731    1412.0342  0.024488973  0.022995733          734 
 4806000   0.47738199   -6.1685979    1411.1291  0.024468185  0.022988933          713 
 4807000   0.48325848   -6.1716278    1411.0683  0.024462039  0.022982134          726 
 4808000     0.487651   -6.1699195    1411.4148  0.024462958  0.022975331          786 
 4809000   0.48139653   -6.1684638    1413.8992  0.024500922  0.022968534          660 
 4810000   0.47809051    -6.178439    1412.3954  0.024469775  0.022961735          720 
 4811000   0.49191149   -6.1821543    1411.2293  0.024444491   0.02295493          803 
 4812000   0.47368991   -6.1760445    1410.5898  0.024428335  0.022948136          666 
 4813000    0.4888651    -6.187902    1413.2112  0.024468647  0.022941345          716 
 4814000    0.4835165   -6.1710455    1415.1628  0.024497348  0.022934567          721 
 4815000   0.48958454   -6.1774603    1410.5833  0.024413002  0.022927784          760 
 4816000   0.49250004   -6.1859722    1408.5924  0.024373484  0.022920999          713 
 4817000   0.47544428   -6.1735029    1410.5894  0.024402972  0.022914221          698 
 4818000   0.48716107   -6.1883951    1408.5411   0.02436248  0.022907435          772 
 4819000   0.47710083   -6.1661381    1411.2048  0.024403486  0.022900663          772 
 4820000   0.48782872   -6.1793619    1409.8346  0.024374733  0.022893879          801 
 4821000   0.48008467   -6.1852341     1410.771  0.024385864  0.022887098          730 
 4822000   0.48355199    -6.194823    1414.8727  0.024451691  0.022880316          769 
 4823000   0.48293364   -6.1804011    1412.2339  0.024401029  0.022873529          763 
 4824000   0.48093841   -6.2027799    1411.9908   0.02439177  0.022866741          738 
 4825000   0.47592179   -6.2063472    1410.8207  0.024366505  0.022859958          767 
 4826000   0.48331284   -6.1769382    1410.8971  0.024362776  0.022853169          764 
 4827000   0.47214915   -6.1791956     1410.638  0.024353256  0.022846388          820 
 4828000   0.47708276   -6.1941889    1411.8255  0.024368709   0.02283961          806 
 4829000   0.47924205   -6.1860799    1411.4075   0.02435645  0.022832835          827 
 4830000   0.47873012   -6.1812089    1410.5483  0.024336582  0.022826066          760 
 4831000   0.47393433   -6.1855142    1408.3344  0.024293355  0.022819293          831 
 4832000   0.47927193   -6.1860038    1411.2304  0.024338272  0.022812534          716 
 4833000   0.47173109   -6.1969918    1409.8245  0.024308995  0.022805763          846 
 4834000   0.47390648    -6.192366    1411.5861  0.024334334  0.022798995          929 
 4835000   0.47620836   -6.1862718    1409.5252  0.024293782  0.022792229          815 
 4836000   0.47556398   -6.1816304    1411.0648  0.024315289  0.022785482          723 
 4837000    0.4742014   -6.1872769    1411.4191  0.024316366  0.022778741          793 
 4838000   0.46738224   -6.1903537    1411.9801  0.024321003  0.022772002          851 
 4839000   0.47618697   -6.1880852    1410.0378  0.024282528  0.022765262          844 
 4840000   0.47618421    -6.176888    1413.0981  0.024330202  0.022758536          804 
 4841000   0.47958746    -6.178531     1412.411  0.024313348  0.022751809          887 
 4842000   0.48166953   -6.1757205    1411.3363  0.024289831  0.022745087          811 
 4843000    0.4690644   -6.1855833    1410.9211  0.024277671  0.022738367          794 
 4844000   0.48122434   -6.1855832    1413.3262  0.024314035  0.022731637          848 
 4845000   0.48349635   -6.2084009     1412.111  0.024288115  0.022724911          841 
 4846000   0.47173731   -6.1908877    1413.3125  0.024303764  0.022718179          810 
 4847000   0.48119807   -6.1835009    1409.9263  0.024240532  0.022711446          907 
 4848000   0.47472846   -6.1806918     1412.142  0.024273618   0.02270472          830 
 4849000   0.47936631   -6.1874776    1413.5155  0.024292216  0.022697999          803 
 4850000    0.4679386   -6.1968869    1413.4104  0.024285403  0.022691283          877 
 4851000   0.49082558   -6.1883499    1411.0373  0.024239629  0.022684562          883 
 4852000   0.47764138   -6.1859966    1409.5212  0.024208594  0.022677844          904 
 4853000   0.47756729    -6.181216    1412.5152  0.024255018  0.022671134          875 
 4854000   0.48369757   -6.1955747    1410.2498  0.024211128  0.022664419          884 
 4855000   0.47840606   -6.1883647    1410.3982  0.024208688  0.022657707          858 
 4856000   0.48357492    -6.195213    1410.9142  0.024212559  0.022651007          899 
 4857000   0.47911158   -6.1809139    1412.1909  0.024229478  0.022644302          752 
 4858000   0.47684255   -6.1959672    1411.9682   0.02422067    0.0226376          874 
 4859000   0.48079249   -6.1865818    1410.7707  0.024195148  0.022630892          838 
 4860000   0.47579451   -6.1852256    1412.1103   0.02421314  0.022624191          871 
 4861000   0.47063427    -6.205175    1408.5946  0.024147888  0.022617485          928 
 4862000   0.47223052   -6.1948128    1411.0739  0.024185415  0.022610781          863 
 4863000    0.4828841   -6.1905545    1409.6108  0.024155371  0.022604094          882 
 4864000   0.48118284    -6.204753    1410.1751  0.024160072  0.022597401          880 
 4865000   0.46922667   -6.1871512    1411.4392   0.02417676  0.022590706          856 
 4866000   0.46587159   -6.1878665    1407.7304  0.024108276  0.022584019          826 
 4867000   0.48145212     -6.20023    1409.3944  0.024131813  0.022577324          930 
 4868000   0.48744574   -6.1965606    1407.5941  0.024096037  0.022570626         1014 
 4869000   0.47406684   -6.1921105    1410.4621  0.024140174  0.022563932          999 
 4870000   0.48307967    -6.206792    1407.4547  0.024083756  0.022557224         1016 
 4871000   0.47288881   -6.1960658    1408.4397  0.024095663  0.022550528          993 
 4872000   0.46856548   -6.1924328    1410.1532  0.024120025  0.022543831         1004 
 4873000    0.4839166   -6.2040774    1409.6798   0.02410698   0.02253714         1003 
 4874000   0.46791378   -6.1995372    1407.9043  0.024071677  0.022530449          923 
 4875000   0.47033087   -6.1971386    1408.9679  0.024084922  0.022523756         1049 
 4876000   0.47983526   -6.2031498    1407.1053  0.024048149  0.022517062         1004 
 4877000    0.4676789   -6.2064775    1407.6112  0.024051862  0.022510365         1064 
 4878000   0.46865711   -6.1975983    1410.8707  0.024102616  0.022503671          997 
 4879000   0.46112719   -6.1954177    1407.0109  0.024031751  0.022496971          934 
 4880000   0.47232432   -6.1991798    1408.6438   0.02405471   0.02249027         1050 
 4881000   0.46492679   -6.1939165    1408.9352  0.024054757  0.022483586         1040 
 4882000   0.45944593   -6.1936854    1410.9895  0.024084895  0.022476891         1035 
 4883000   0.47966672   -6.2084258    1408.1298  0.024031159  0.022470214          961 
 4884000     0.466091    -6.201567    1409.4949  0.024049531  0.022463527         1160 
 4885000   0.46875659   -6.2109432    1407.0163  0.024002325  0.022456836         1029 
 4886000   0.46175781    -6.209671    1410.3052  0.024053507   0.02245014         1049 
 4887000   0.47007175   -6.2090443    1409.2338  0.024030315  0.022443448         1033 
 4888000    0.4659804   -6.2134438    1406.3395  0.023976056  0.022436759         1053 
 4889000   0.47317782   -6.1994922      1405.33  0.023953944  0.022430066         1053 
 4890000   0.47903107   -6.2089836    1408.8765  0.024009484  0.022423373         1080 
 4891000   0.46303068   -6.2178094    1408.7023  0.024001607  0.022416687         1034 
 4892000   0.46853141   -6.2029083    1406.0366  0.023951292  0.022409996         1129 
 4893000   0.46457257   -6.2224982    1406.6346   0.02395658  0.022403304         1091 
 4894000   0.47274676   -6.2052448    1408.4743  0.023983011  0.022396614         1041 
 4895000   0.47739925   -6.2182898    1407.7897  0.023966457  0.022389936         1131 
 4896000    0.4600089   -6.2113511    1405.8119  0.023927899  0.022383256         1076 
 4897000   0.46911631   -6.2175057    1410.2947  0.023999297  0.022376563         1143 
 4898000   0.45851229   -6.2044523    1406.6042  0.023931609  0.022369881         1159 
 4899000   0.46140905   -6.2260473    1410.0024  0.023984528  0.022363205         1117 
 4900000   0.47292301   -6.2026937    1406.1395  0.023913938  0.022356532         1137 
 4901000   0.47429685   -6.2349052      1406.09  0.023908216   0.02234986         1228 
 4902000   0.46601834   -6.2107542    1407.7469  0.023931507  0.022343185         1159 
 4903000   0.47290537   -6.2226503    1404.5764  0.023872737  0.022336511         1192 
 4904000   0.46788802   -6.2216118    1407.3259  0.023914592  0.022329828         1141 
 4905000   0.46182703   -6.2357408    1406.1156  0.023889155  0.022323152         1203 
 4906000   0.45246184   -6.2183506    1405.6354  0.023876128  0.022316477         1110 
 4907000   0.48009694   -6.2210901    1405.8342  0.023874638  0.022309806         1207 
 4908000   0.46905955   -6.2221306    1407.7471  0.023902252  0.022303128         1266 
 4909000   0.46212422   -6.2265659    1406.5378  0.023876855  0.022296456         1310 
 4910000   0.47241189   -6.2444567    1405.9952  0.023862784  0.022289787         1237 
 4911000    0.4686671   -6.2288823    1404.2861  0.023828923  0.022283114         1278 
 4912000   0.46674129   -6.2408316    1406.1501  0.023855695  0.022276447         1254 
 4913000   0.47013624   -6.2145437    1405.7688  0.023844372  0.022269773         1221 
 4914000   0.47186856   -6.2051429    1405.3973   0.02383322  0.022263106         1255 
 4915000   0.46573276   -6.2186598    1404.8158  0.023818512  0.022256449         1266 
 4916000   0.46178934    -6.235549      1403.63  0.023793565  0.022249788         1198 
 4917000   0.45582311   -6.2325149     1406.648  0.023839875  0.022243125         1198 
 4918000   0.46665538   -6.2119947    1409.2966  0.023879907  0.022236477         1272 
 4919000   0.45723974     -6.23221    1406.3628  0.023825351   0.02222983         1213 
 4920000   0.45871096   -6.2146084    1407.5543  0.023840689  0.022223183         1261 
 4921000   0.46168844   -6.2243873    1405.0701  0.023793776  0.022216538         1325 
 4922000   0.45885491   -6.2282366    1405.4778  0.023795846    0.0222099         1294 
 4923000    0.4688385   -6.2139231    1404.7241  0.023778254   0.02220326         1294 
 4924000   0.46290286   -6.2500374    1404.4623  0.023768994   0.02219662         1296 
 4925000    0.4769672   -6.2117578    1406.7731  0.023803268  0.022189984         1271 
 4926000   0.46601897    -6.215853    1406.7752   0.02379847  0.022183354         1338 
 4927000   0.47223514   -6.2290941    1408.0489  0.023815183  0.022176726         1239 
 4928000   0.46152797   -6.2199226    1407.2516  0.023796868  0.022170103         1331 
 4929000   0.45056327   -6.2315663    1408.0438  0.023805433  0.022163483         1361 
 4930000   0.45962945   -6.2306365    1404.9502  0.023748313  0.022156862         1397 
 4931000   0.45846479   -6.2402974    1404.3604   0.02373353  0.022150245         1413 
 4932000   0.45853283   -6.2459638    1405.5309  0.023748495  0.022143631         1392 
 4933000   0.47137479   -6.2310781    1405.1749  0.023737667  0.022137011         1400 
 4934000    0.4665999   -6.2212039    1407.3282  0.023769223  0.022130397         1352 
 4935000   0.46398858   -6.2288597       1406.3  0.023747045  0.022123779         1443 
 4936000   0.45720741   -6.2356604    1405.4688    0.0237282  0.022117164         1412 
 4937000   0.46779966   -6.2282141     1407.057  0.023750203  0.022110548         1473 
 4938000   0.46714457    -6.228124     1407.101  0.023746135   0.02210394         1344 
 4939000   0.46470128    -6.237957    1405.8479  0.023720184  0.022097332         1449 
 4940000   0.46154675   -6.2243631     1404.588  0.023694129   0.02209072         1344 
 4941000    0.4529314   -6.2417942    1403.1038  0.023664301  0.022084116         1392 
 4942000   0.46798018   -6.2254411    1403.4815  0.023665882  0.022077506         1503 
 4943000   0.46692902   -6.2327949    1408.2778  0.023741955  0.022070902         1445 
 4944000   0.45698096   -6.2201302    1405.6887  0.023693512    0.0220643         1482 
 4945000   0.46280277   -6.2334392     1406.425  0.023701129  0.022057699         1435 
 4946000   0.45169977   -6.2393484      1405.22  0.023676034  0.022051095         1451 
 4947000   0.46213049   -6.2369537    1408.0799  0.023719424  0.022044487         1389 
 4948000   0.45626129   -6.2351436      1405.33  0.023668317  0.022037882         1364 
 4949000    0.4633521   -6.2320393    1406.3808  0.023681229  0.022031275         1441 
 4950000   0.47371066   -6.2561586     1403.665  0.023630725  0.022024669         1378 
 4951000   0.45917895   -6.2409576    1403.9626  0.023630959  0.022018075         1524 
 4952000    0.4639247   -6.2445786    1403.5583  0.023619385  0.022011487         1485 
 4953000    0.4642263   -6.2485834    1404.8067   0.02363562  0.022004898         1418 
 4954000   0.45322622   -6.2473549    1404.3698    0.0236235  0.021998316         1439 
 4955000   0.45567019   -6.2229524    1403.0563  0.023596642  0.021991732         1422 
 4956000   0.44512168   -6.2409191    1403.8421  0.023605094  0.021985152         1395 
 4957000    0.4561556    -6.239004    1407.2444  0.023657528  0.021978585         1365 
 4958000   0.45558378   -6.2473768    1405.1616  0.023617749   0.02197201         1388 
 4959000   0.46753609   -6.2416047    1406.4876  0.023635269  0.021965438         1442 
 4960000   0.46455826   -6.2420631    1405.6927  0.023617149  0.021958866         1347 
 4961000   0.45682486   -6.2462596     1404.732   0.02359625  0.021952302         1462 
 4962000   0.46154916   -6.2560793    1403.0908  0.023563932   0.02194573         1352 
 4963000   0.45997312   -6.2381063     1404.401  0.023581183  0.021939162         1454 
 4964000   0.45704076   -6.2351222    1403.9642  0.023569101  0.021932596         1454 
 4965000   0.46406776    -6.246221    1404.6019  0.023575057  0.021926028         1415 
 4966000   0.45615057   -6.2357933    1402.1974   0.02352996  0.021919467         1419 
 4967000   0.46853401   -6.2376435    1403.0363  0.023539297  0.021912902         1390 
 4968000   0.46426451   -6.2525183    1406.0859  0.023585714  0.021906341         1363 
 4969000   0.45721505   -6.2369565    1404.6102  0.023556219  0.021899784         1371 
 4970000   0.44788749   -6.2424565    1406.2904  0.023579652  0.021893225         1406 
 4971000   0.45831355   -6.2577041    1404.7488  0.023549065   0.02188668         1370 
 4972000   0.45460278   -6.2309028    1402.4317  0.023505492   0.02188014         1485 
 4973000   0.45534045   -6.2471994    1405.1172  0.023545767  0.021873599         1432 
 4974000   0.47177834   -6.2483742    1404.0129  0.023522533  0.021867059         1356 
 4975000   0.45474608   -6.2532831    1403.8105  0.023514414   0.02186052         1485 
 4976000   0.45482833   -6.2523335    1404.4926  0.023521112  0.021853988         1458 
 4977000   0.46556276   -6.2596936    1403.1332  0.023493624  0.021847454         1452 
 4978000   0.46223497   -6.2470851    1404.4225  0.023510487  0.021840916         1421 
 4979000   0.45674093   -6.2504474    1403.9175  0.023497313  0.021834376         1510 
 4980000    0.4588823    -6.251312    1404.6212  0.023504371   0.02182784         1483 
 4981000   0.46291654   -6.2512668    1401.5728  0.023448651  0.021821296         1460 
 4982000   0.45408062   -6.2568122    1402.5074  0.023459578  0.021814766         1340 
 4983000    0.4498778   -6.2365327      1403.66  0.023474145  0.021808233         1366 
 4984000   0.44581094   -6.2495454    1405.3313   0.02349738  0.021801706         1485 
 4985000   0.45871203   -6.2632741    1401.7273  0.023432418  0.021795185         1437 
 4986000   0.45144934   -6.2517324    1402.9593   0.02344831  0.021788663         1502 
 4987000   0.45533746   -6.2563875    1403.1582  0.023446932  0.021782146         1487 
 4988000   0.44720402   -6.2567655    1405.1014  0.023474697   0.02177563         1562 
 4989000   0.44498048    -6.249106    1404.6019  0.023461647  0.021769117         1484 
 4990000   0.45505587   -6.2468587    1405.0455  0.023464354  0.021762612         1455 
 4991000   0.45551962   -6.2384839    1404.8156  0.023455813  0.021756112         1457 
 4992000   0.45120298   -6.2454215    1403.1892  0.023423966   0.02174961         1521 
 4993000   0.46151447   -6.2515446    1403.1675  0.023418911  0.021743111         1507 
 4994000   0.44961604   -6.2478325     1403.771  0.023424293  0.021736615         1501 
 4995000   0.46577174   -6.2470376    1405.7173  0.023452073  0.021730124         1392 
 4996000    0.4551412   -6.2454737    1403.1086  0.023403866  0.021723632         1475 
 4997000   0.45155685   -6.2580119    1404.9666  0.023430168  0.021717136         1438 
 4998000   0.44537774   -6.2514458    1404.4663  0.023417138  0.021710644         1502 
 4999000   0.45822946   -6.2751364     1403.265  0.023392428  0.021704155         1501 
 5000000   0.45192801   -6.2611012    1402.3541  0.023372569  0.021697661         1485 
 5001000   0.45307748   -6.2589992    1405.0222  0.023412355  0.021691177         1451 
 5002000   0.45291099    -6.260297    1402.3376  0.023362947  0.021684682         1537 
 5003000   0.44307216   -6.2578288    1403.7661  0.023382072  0.021678188         1475 
 5004000   0.43986095   -6.2571285     1401.859   0.02334564  0.021671705         1503 
 5005000   0.45172028   -6.2617558     1401.892  0.023341525  0.021665232         1518 
 5006000   0.46135121   -6.2358886    1402.8028  0.023352023  0.021658761         1545 
 5007000   0.43668338    -6.247384     1401.675   0.02332859  0.021652287         1555 
 5008000   0.44378865   -6.2355576     1403.015  0.023346229  0.021645814         1557 
 5009000   0.44936084   -6.2353018    1403.7077  0.023353093  0.021639336         1517 
 5010000   0.45772392    -6.243734      1402.22  0.023323685  0.021632877         1497 
 5011000   0.44851604    -6.262605     1402.008  0.023315506  0.021626414         1495 
 5012000   0.45454243   -6.2601692    1404.9921   0.02336047  0.021619953         1559 
Loop time of 12875.6 on 48 procs for 5000000 steps with 4000 atoms

Performance: 67103.515 tau/day, 388.331 timesteps/s
99.4% CPU use with 48 MPI tasks x no OpenMP threads

MPI task timing breakdown:
Section |  min time  |  avg time  |  max time  |%varavg| %total
---------------------------------------------------------------
Pair    | 928.21     | 994.45     | 1070.6     | 113.6 |  7.72
Neigh   | 85.983     | 90.013     | 96.96      |  24.7 |  0.70
Comm    | 810.03     | 888.32     | 957.71     | 120.9 |  6.90
Output  | 14.681     | 14.685     | 14.767     |   0.3 |  0.11
Modify  | 10735      | 10771      | 10805      |  14.6 | 83.65
Other   |            | 117.1      |            |       |  0.91

Nlocal:        83.3333 ave          90 max          78 min
Histogram: 5 0 8 7 6 13 4 1 0 4
Nghost:        2375.27 ave        2395 max        2361 min
Histogram: 5 7 8 1 9 7 5 2 1 3
Neighs:        16260.9 ave       19119 max       13726 min
Histogram: 2 4 7 9 7 4 6 3 4 2
FullNghs:      32522.8 ave       35376 max       30266 min
Histogram: 5 1 9 7 6 7 8 0 3 2

Total # of neighbors = 1561094
Ave neighs/atom = 390.27350
Neighbor list builds = 268689
Dangerous builds = 2

#clear
#
#next RN
#
#jump SELF
Total wall time: 3:34:39
