
units lj                  # Use reduced LJ style units
atom_style atomic         # Uncharged point particles
atom_modify map hash      # Needed for indexing of clusters etc
                          # Used to be able to find where atoms are in relation to each other.

lattice fcc 1.0 spacing 1 1 1
Lattice spacing in x,y,z = 1.5874011 1.5874011 1.5874011
region box block 0 10 0 10 0 10 units lattice
create_box 2 box
Created orthogonal box = (0.0000000 0.0000000 0.0000000) to (15.874011 15.874011 15.874011)
  3 by 4 by 4 MPI processor grid
create_atoms 1 box
Created 4000 atoms
  using lattice units in orthogonal box = (0.0000000 0.0000000 0.0000000) to (15.874011 15.874011 15.874011)
  create_atoms CPU = 0.003 seconds
set type 1 type/fraction 2 0.31 78393
Setting atom values ...
  1268 settings made for type/fraction
mass 1 1.0
mass 2 1.0
pair_style lj/cut  3.5
pair_modify tail  yes
pair_coeff 1  1  1.0  1.0   # Intearaction between 1 and 1 set with epsilon = 1 and sigma = 1
pair_coeff 1  2  1.5  0.8
pair_coeff 2  2  0.5  0.88

write_data data.0
System init for write_data ...
Neighbor list info ...
  update every 1 steps, delay 10 steps, check yes
  max neighbors/atom: 2000, page size: 100000
  master list distance cutoff = 3.8
  ghost atom cutoff = 3.8
  binsize = 1.9, bins = 9 9 9
  1 neighbor lists, perpetual/occasional/extra = 1 0 0
  (1) pair lj/cut, perpetual
      attributes: half, newton on
      pair build: half/bin/atomonly/newton
      stencil: half/bin/3d
      bin: standard
WARNING: Not all mixed pair coeffs generated from mixing. Use write_data with 'pair ij' option to store all pair coeffs. (../write_data.cpp:312)


#############################
#   M E L T   S Y S T E M   #
#############################

velocity all create 2.4 9580093 mom yes dist gaussian # Assign velocities
                                                    # Temperature 2.4, random number seed, zero linear momentum
                                                                                # Gaussian distribution

timestep 0.002   # simulation timestep
thermo 1000       # output thermodynamic data every 1000 steps bf 100

# Define a fix  in this case with index 1 applied to all
# particles in the simulation. This fix is for simulations
# in the anisotropic NPT ensemble. Note that we use the MTK
# correction.
fix 1 all npt temp 2.4 2.4 0.1 iso 5.68 5.68 0.5 mtk yes tchain 5 pchain 5 # Use NPT ensemble
                                                                         # Set temperature and pressure and damping
                                                                         # Numbers of thermostats in chain and in barostat
run 10000          # run for 10000 steps
Per MPI rank memory allocation (min/avg/max) = 3.642 | 3.644 | 3.648 Mbytes
Step Temp E_pair E_mol TotEng Press Volume 
       0          2.4   -6.3727134            0   -2.7736134   -4.0086663         4000 
    1000     2.376012   -4.9690146            0   -1.4058875    5.5963338    4131.3015 
    2000    2.3756565   -4.9879326            0   -1.4253387    5.6984237    4129.4016 
    3000    2.3600299   -5.0716503            0   -1.5324904    5.6512114    4083.0636 
    4000    2.3714467   -5.0450304            0   -1.4887496    5.7756845    4086.2829 
    5000    2.3655088   -4.9886617            0   -1.4412855    5.7738265    4116.7006 
    6000    2.4180502   -5.0032375            0   -1.3770689    5.7387557    4115.2244 
    7000    2.4365934   -5.0356373            0   -1.3816609    5.6437224    4119.6928 
    8000    2.3819748   -4.9586855            0   -1.3866165    5.8486309    4125.7763 
    9000    2.3399626   -5.0070747            0   -1.4980083    5.5121136    4123.7279 
   10000    2.4040475   -5.0100014            0   -1.4048316    5.8315697       4110.4 
Loop time of 2.51661 on 48 procs for 10000 steps with 4000 atoms

Performance: 686638.272 tau/day, 3973.601 timesteps/s
99.5% CPU use with 48 MPI tasks x no OpenMP threads

MPI task timing breakdown:
Section |  min time  |  avg time  |  max time  |%varavg| %total
---------------------------------------------------------------
Pair    | 1.0349     | 1.113      | 1.2044     |   3.4 | 44.23
Neigh   | 0.20459    | 0.21226    | 0.22894    |   1.1 |  8.43
Comm    | 0.7327     | 0.83874    | 0.9837     |   5.4 | 33.33
Output  | 0.00023788 | 0.00024296 | 0.00030519 |   0.0 |  0.01
Modify  | 0.27733    | 0.33752    | 0.37251    |   4.0 | 13.41
Other   |            | 0.01486    |            |       |  0.59

Nlocal:        83.3333 ave          95 max          71 min
Histogram: 1 1 3 6 9 15 5 6 1 1
Nghost:        1613.25 ave        1647 max        1570 min
Histogram: 1 1 3 7 8 7 8 6 3 4
Neighs:        9281.67 ave       10894 max        7581 min
Histogram: 2 0 3 7 9 13 7 5 1 1

Total # of neighbors = 445520
Ave neighs/atom = 111.38000
Neighbor list builds = 912
Dangerous builds = 227

# Equilibrate just above the melting temperature to avoid step fn in T

fix 1 all npt temp 1.25 1.25 0.1 iso 5.68 5.68 0.5 mtk yes tchain 5 pchain 5
run 2000
Per MPI rank memory allocation (min/avg/max) = 3.643 | 3.645 | 3.649 Mbytes
Step Temp E_pair E_mol TotEng Press Volume 
   10000    2.4040475   -5.0100014            0   -1.4048316    5.8315697       4110.4 
   11000     1.243605   -6.8590898            0   -4.9941486    5.7619343    3314.1653 
   12000    1.2662055    -6.880326            0   -4.9814926    5.4031188    3327.8418 
Loop time of 0.564717 on 48 procs for 2000 steps with 4000 atoms

Performance: 611988.302 tau/day, 3541.599 timesteps/s
99.7% CPU use with 48 MPI tasks x no OpenMP threads

MPI task timing breakdown:
Section |  min time  |  avg time  |  max time  |%varavg| %total
---------------------------------------------------------------
Pair    | 0.24713    | 0.27062    | 0.30307    |   2.3 | 47.92
Neigh   | 0.036157   | 0.039385   | 0.043473   |   0.7 |  6.97
Comm    | 0.17278    | 0.20882    | 0.23706    |   3.0 | 36.98
Output  | 4.8322e-05 | 4.9433e-05 | 6.3149e-05 |   0.0 |  0.01
Modify  | 0.037972   | 0.041302   | 0.044864   |   0.9 |  7.31
Other   |            | 0.004545   |            |       |  0.80

Nlocal:        83.3333 ave          94 max          77 min
Histogram: 3 9 11 7 4 9 0 3 0 2
Nghost:        1861.00 ave        1881 max        1840 min
Histogram: 3 2 7 3 9 6 7 5 2 4
Neighs:        11489.9 ave       13797 max        9985 min
Histogram: 3 5 7 10 11 6 2 2 0 2

Total # of neighbors = 551515
Ave neighs/atom = 137.87875
Neighbor list builds = 142
Dangerous builds = 7

#############################
# L I N E A R  Q U E N C H  #
#############################

# Define solid atoms. This closely follows ten Wolde  Ruiz-Montero and Frenkel  Faraday Discuss  1996  104  93-110
# Compute components of the per-atom q6 vector
compute q6 all orientorder/atom degrees 1 6 components 6 nnn NULL cutoff 1.3 # compute the Q6 parameter.
                                                                             # Use all neighbours within 1.3 unit cell.

# get number of connections
compute coord_number all coord/atom orientorder q6 0.5

# An atom is solid if it has 8 or more connections (of a possible 14)
variable is_solid atom c_coord_number>=8
group solid dynamic all var is_solid    # Must be dynamic to update
dynamic group solid defined

# do clustering
compute cluster solid cluster/atom 1.3 # Create a cluster where all atoms within are solid and max 1.3 units from another member

# define chunks one chunk per cluster
compute clus_chunks solid chunk/atom c_cluster nchunk every compress yes  # Says which atoms are in which chunk

# count the size of each chunk
compute size_chunks solid property/chunk clus_chunks count


# Find the maximum entry in the vector of chunk sizes
variable max_n equal max(c_size_chunks)


# Thermo style which includes this variable
# thermo_style custom step temp pe vol v_max_n

thermo ${N}  # Print the thermo information every 100 steps
thermo 1000  

# Reset the npt fix at a lower temperature (below freezing)
fix 1  all npt temp  ${temp} ${temp}  0.1  iso  5.68  5.68  0.5  mtk yes tchain  5  pchain  5
fix 1  all npt temp  0.45 ${temp}  0.1  iso  5.68  5.68  0.5  mtk yes tchain  5  pchain  5
fix 1  all npt temp  0.45 0.45  0.1  iso  5.68  5.68  0.5  mtk yes tchain  5  pchain  5

dump dmp2 all dcd ${N} traj.dcd
dump dmp2 all dcd 1000 traj.dcd


compute msd all msd com yes
variable twopoint equal c_msd[4]/6/(step*dt+1.0e-6)
fix 9 all vector 10 c_msd[4]
variable fit equal slope(f_9)/6/(10*dt)
thermo_style custom step temp pe c_msd[4] v_twopoint v_fit v_max_n

fix 1 all npt temp 1.25 ${temp} 0.1 iso 5.68 5.68 0.5 mtk yes tchain 5 pchain 5
fix 1 all npt temp 1.25 0.45 0.1 iso 5.68 5.68 0.5 mtk yes tchain 5 pchain 5
run 500000 # 5000000  # Run for this many steps
Neighbor list info ...
  update every 1 steps, delay 10 steps, check yes
  max neighbors/atom: 2000, page size: 100000
  master list distance cutoff = 3.8
  ghost atom cutoff = 3.8
  binsize = 1.9, bins = 8 8 8
  4 neighbor lists, perpetual/occasional/extra = 1 3 0
  (1) pair lj/cut, perpetual
      attributes: half, newton on
      pair build: half/bin/atomonly/newton
      stencil: half/bin/3d
      bin: standard
  (2) compute orientorder/atom, occasional
      attributes: full, newton on
      pair build: full/bin/atomonly
      stencil: full/bin/3d
      bin: standard
  (3) compute coord/atom, occasional
      attributes: full, newton on
      pair build: full/bin/atomonly
      stencil: full/bin/3d
      bin: standard
  (4) compute cluster/atom, occasional
      attributes: full, newton on
      pair build: full/bin/atomonly
      stencil: full/bin/3d
      bin: standard
Per MPI rank memory allocation (min/avg/max) = 9.811 | 9.816 | 9.821 Mbytes
Step Temp PotEng c_msd[4] v_twopoint v_fit v_max_n 
   12000    1.2662055    -6.880326 1.6875707e-30 1.171924e-32 8.3333333e+20            1 
   13000     1.227849   -6.8913913   0.51720776 0.0033154343  0.042230247            2 
   14000    1.2275457   -6.8955086     1.025377 0.0061034345  0.042460113            1 
   15000    1.2654661   -6.8982764    1.4952405 0.0083068913  0.041012725            2 
   16000    1.2447693   -6.9366437    1.9520977  0.010167175  0.040436306            1 
   17000    1.2553904    -6.929424    2.3837897  0.011685243  0.039561775            1 
   18000    1.2675518   -6.9457642    2.8372395  0.013135368  0.039027326            1 
   19000     1.270079   -6.9005887    3.3207869  0.014564854  0.038823784            1 
   20000     1.229234   -6.9831242    3.7809322  0.015753884  0.038622521            1 
   21000      1.22837   -6.9708265    4.1248168   0.01636832  0.038284828       -1e+20 
   22000    1.2192043   -6.9466562    4.6796596  0.017725983  0.038028736            1 
   23000    1.2343827   -6.9545297    5.2031659   0.01885205  0.038307207            2 
   24000     1.202768   -7.0095523    5.6421621   0.01959084  0.038498342            2 
   25000    1.2133824   -6.9485599      6.20119  0.020670633  0.038742316            2 
   26000    1.1946944   -6.9377425     6.683554  0.021421647  0.038953921            1 
   27000    1.2315089   -6.9590952    7.2235531  0.022294916   0.03915383            2 
   28000    1.2265804   -6.9911794    7.6697097  0.022826517  0.039356481            2 
   29000      1.23017   -6.9875439    8.0628426  0.023169088  0.039406014            1 
   30000    1.2494268   -6.9663833    8.5325701  0.023701583  0.039370786            1 
   31000    1.2166771   -6.9975231    9.0754367  0.024396335  0.039386632            2 
   32000    1.2229187   -6.9206915    9.6544378  0.025141765  0.039534269            4 
   33000    1.1911242    -6.997456     9.926076  0.025065848  0.039620416            2 
   34000    1.2111339   -6.9598299    10.342799  0.025349997  0.039535151            2 
   35000    1.2030369    -6.985076    10.713671   0.02550874  0.039398132            1 
   36000    1.2271671   -7.0511556    11.071271  0.025627942  0.039226483            3 
   37000    1.2158744   -7.0116245    11.473121  0.025840361  0.039017657            1 
   38000     1.187972   -7.0101367    11.910993  0.026120597  0.038797579            1 
   39000    1.2179091   -7.0095312    12.396699  0.026488673  0.038622237            1 
   40000    1.1986536   -7.0187482     12.76989  0.026603938  0.038468607            2 
   41000    1.1934486   -6.9881817    13.310935  0.027054746  0.038308843            2 
   42000     1.206877   -6.9970067    13.740803  0.027263497  0.038212138            1 
   43000    1.2172354   -7.0148037    14.073214  0.027273671  0.038109873            1 
   44000    1.2154322   -7.0091124    14.562352  0.027580212  0.037995976            1 
   45000    1.1889693    -6.967869    15.116507  0.027993531  0.037927011            2 
   46000     1.183544   -7.0268137    15.396726  0.027892619  0.037851536            1 
   47000    1.1781662   -7.0243325    15.780392  0.027979417  0.037740923            1 
   48000    1.2097103   -7.0400921     16.21192  0.028145695  0.037640773            3 
   49000    1.1956381   -7.0063904    16.771244  0.028522524   0.03757107            1 
   50000    1.1936231   -7.0089821    17.190009  0.028650015  0.037504855            2 
   51000    1.1994749   -7.0182434    17.573155  0.028714305  0.037441315            1 
   52000     1.207647   -7.0874378     18.00861  0.028859952  0.037393368       -1e+20 
   53000     1.180286   -7.0445883    18.476709  0.029051428  0.037348539            1 
   54000    1.2022178   -7.0129328    18.741223   0.02892164  0.037259226            4 
   55000    1.1741129   -6.9961241    19.110988  0.028956042  0.037150597            2 
   56000    1.1885324   -7.0876776    19.473391  0.028978261  0.037051236            1 
   57000    1.1778444   -7.0605844    19.828226  0.028988635  0.036954335            3 
   58000    1.1689532   -7.0800414    20.177161  0.028990174  0.036844395            1 
   59000    1.2022149   -7.1034644    20.583245  0.029072379  0.036740234            2 
   60000    1.1801665   -7.0881788    20.923152  0.029059934  0.036636113            2 
   61000    1.1638639   -7.0965832    21.320185  0.029125935  0.036510063            1 
   62000    1.1692474   -7.0699683    21.704886  0.029173234  0.036381892            3 
   63000     1.173423   -7.0769984    22.119284  0.029258312   0.03626721            3 
   64000    1.1625151   -7.0210883    22.685805  0.029538808  0.036170642            2 
   65000    1.1482983   -7.0895419    22.847169  0.029291242  0.036074423            1 
   66000    1.1728272   -7.0837469    23.226864  0.029326848  0.035971989            1 
   67000    1.1570571   -7.0747339    23.502663  0.029232167  0.035870692            1 
   68000    1.1497991    -7.065923    23.980658  0.029388061  0.035759867            1 
   69000    1.1971718   -7.1231607    24.191421  0.029216691   0.03564744            1 
   70000    1.1694256   -7.1004646    24.515119  0.029184665  0.035522076            3 
   71000     1.129482   -7.0731566    24.877174  0.029198561  0.035407746            1 
   72000     1.140739   -7.0948018    25.303574  0.029286544   0.03529918            1 
   73000    1.1680178   -7.1436639    25.413175  0.029010473   0.03516124            1 
   74000    1.1534621   -7.1149204    25.816236  0.029072337  0.035023448            1 
   75000    1.1600965   -7.1292367    26.052888  0.028947653  0.034886919            1 
   76000    1.1804185   -7.1171038    26.396675  0.028943722  0.034746748            2 
   77000    1.1402397   -7.0671004    26.868947  0.029078947  0.034619432            3 
   78000    1.1206708   -7.1197023    27.094693  0.028947322  0.034490547            1 
   79000    1.1460173   -7.1373371    27.371683  0.028873084  0.034361693            2 
   80000    1.1401966   -7.1508676    27.597284   0.02874717  0.034228704            1 
   81000    1.1495298   -7.1375747    27.764106  0.028563895  0.034083909            2 
   82000     1.119135   -7.1122749    28.054662  0.028510835  0.033932335            4 
   83000    1.1148995   -7.1361495    28.350653  0.028464511  0.033783336            2 
   84000    1.1310157   -7.1728709    28.788587  0.028560106  0.033645255            1 
   85000    1.1477882   -7.1694505    29.173639  0.028601606  0.033517606            1 
   86000    1.1519826   -7.2049612    29.502966  0.028588145  0.033393229            2 
   87000    1.1512022   -7.1551041    30.030581  0.028764924  0.033281988            2 
   88000    1.1161305   -7.1152602    30.445823  0.028831272  0.033180063            1 
   89000    1.1434499   -7.1667246    30.617911  0.028668456  0.033080774            1 
   90000    1.1374296   -7.2018564    31.040424  0.028741133  0.032977413            3 
   91000    1.1116663   -7.1715462    31.481021  0.028828774   0.03288692            1 
   92000    1.1283506   -7.1288706    31.895212   0.02889059  0.032804406            1 
   93000    1.1292298   -7.1910845    32.076807  0.028742658  0.032723654            2 
   94000    1.1453352   -7.2180947    32.374564  0.028700854  0.032634993            4 
   95000    1.0712062   -7.2144087     32.76449  0.028740781  0.032548801            2 
   96000    1.1173446   -7.1629321    32.967483  0.028617606  0.032461856            1 
   97000    1.1221545   -7.2378333    33.251567  0.028566638  0.032373773            1 
   98000    1.1331536   -7.2682318    33.582161  0.028556259   0.03228875            3 
   99000    1.1037016   -7.1987715    34.148685  0.028744684  0.032211997            3 
  100000    1.1193788   -7.1624937    34.542721    0.0287856  0.032135707            4 
  101000     1.108545   -7.1936621    34.614084  0.028559475   0.03205703            3 
  102000    1.0921769    -7.196528    34.899924   0.02851301  0.031973392            3 
  103000    1.1020838   -7.2293983    35.232172  0.028504994  0.031890821            2 
  104000    1.1250596   -7.2463424     35.47777    0.0284277  0.031808177            1 
  105000    1.1033447    -7.197082    35.798142  0.028411224  0.031722912            2 
  106000    1.1130575   -7.2225033    36.080396  0.028365091  0.031641637            1 
  107000    1.1177255   -7.2243134      36.4916  0.028420249  0.031564854            2 
  108000    1.0982912   -7.2353501    36.694726  0.028313831  0.031495416            3 
  109000    1.0750964   -7.2436412    37.116974  0.028376891  0.031419418            1 
  110000    1.0987601    -7.228427    37.455347  0.028375263  0.031348696            1 
  111000    1.0688692    -7.221733    37.721962  0.028319792  0.031278616            2 
  112000    1.0896035   -7.2014124    38.157231  0.028390797  0.031212439            1 
  113000    1.0946536   -7.2884769    38.177206  0.028154281   0.03114512            1 
  114000    1.0908017   -7.2398375    38.590303  0.028209286  0.031078632            2 
  115000    1.0945989   -7.2445899    39.031517  0.028283708  0.031013351            2 
  116000    1.0757869   -7.2830809    39.175057     0.028143  0.030949248            1 
  117000    1.0952859   -7.2889132    39.504911  0.028137401  0.030883152            2 
  118000    1.0827514   -7.2569567    39.880137  0.028163938  0.030816228            1 
  119000    1.0514141   -7.2748858    40.253129  0.028188466  0.030752552            2 
  120000    1.0710396   -7.2784008    40.510859  0.028132541  0.030689766            1 
  121000    1.0703675   -7.3125724    40.632509  0.027983821  0.030627118            3 
  122000    1.0830018    -7.247861     41.13247  0.028095949  0.030567037            1 
  123000    1.0919268    -7.253289    41.419983  0.028062319  0.030507991            1 
  124000    1.0858957   -7.3225585    41.653596  0.027993008  0.030448561            3 
  125000    1.0671643   -7.2951394    41.958117  0.027972078  0.030385858            2 
  126000    1.0665943   -7.2761207    42.315959  0.027986745  0.030325598            1 
  127000    1.0645353   -7.3141617    42.575116  0.027936428  0.030269835            1 
  128000    1.0819572   -7.3122705    42.919902  0.027942644  0.030213729            1 
  129000     1.052931   -7.2698509    43.392629  0.028031414  0.030156063            2 
  130000    1.0613005   -7.2845608    43.530344  0.027904067  0.030098345            5 
  131000    1.0269998   -7.2915456    43.655567  0.027770717  0.030041407            1 
  132000    1.0293731   -7.3290497    43.840068  0.027676811  0.029981675            1 
  133000    1.0620974   -7.3029836    43.903276  0.027508318  0.029914906            1 
  134000    1.0683227   -7.3120972    44.261333  0.027525705  0.029848877            2 
  135000    1.0697761   -7.3317976    44.434637  0.027428788  0.029785771            1 
  136000    1.0444842    -7.353667    44.924337  0.027527167  0.029722826            2 
  137000    1.0452522    -7.354204    45.197887  0.027492632  0.029662797            2 
  138000    1.0233365   -7.3426096     45.64601  0.027564015  0.029603144            2 
  139000    1.0574607    -7.363555    46.143591  0.027664023  0.029549413            2 
  140000    1.0575769   -7.3382961    46.355591  0.027592614   0.02949677            2 
  141000    1.0448035   -7.3167409    46.636557  0.027562977  0.029445485            2 
  142000    1.0523648   -7.3257696    46.709239  0.027411525  0.029392633            1 
  143000    1.0533775   -7.3710016    47.025896  0.027404368  0.029335221            1 
  144000    1.0468733   -7.3866746    47.174873  0.027300274  0.029275529            3 
  145000     1.030245     -7.38508    47.384699  0.027232586  0.029216687            1 
  146000     1.011352   -7.3541794    47.665039  0.027206072  0.029158569            1 
  147000    1.0308873   -7.3561972    47.948744  0.027181828  0.029101769            1 
  148000    1.0268596   -7.3912762    48.011047  0.027033247  0.029041524            3 
  149000    1.0119882   -7.3603494    48.605141  0.027184083  0.028983379            2 
  150000    1.0140975   -7.3363979    48.908382  0.027171323  0.028927498            2 
  151000    1.0354845   -7.4031582    49.078174  0.027085085   0.02887437            2 
  152000    1.0358524   -7.4164359    49.548852  0.027164941  0.028820414            2 
  153000    1.0189887   -7.3954386     49.88418  0.027170033  0.028770132            1 
  154000    1.0339989   -7.4100003    49.761098  0.026927001  0.028718426            2 
  155000    1.0123776   -7.3969468    50.240159  0.027010838  0.028664757            2 
  156000    1.0141052   -7.4414569    50.126965  0.026777225  0.028608281            1 
  157000    1.0416603    -7.409775    50.480684  0.026794418   0.02855021            3 
  158000    1.0104589   -7.4122607    50.809998  0.026798522  0.028493365            2 
  159000    1.0193648   -7.4264943    51.027635  0.026744043  0.028436898            1 
  160000    1.0300442   -7.4524526    51.122523  0.026626314  0.028379902            1 
  161000    1.0018718   -7.4477014    51.381013  0.026594727  0.028319388            2 
  162000    1.0162591   -7.4102034    51.448458  0.026465256  0.028257661            5 
  163000    1.0025663   -7.4669713     51.80376   0.02648454  0.028193136            3 
  164000   0.98799002   -7.4215571        51.97   0.02640752  0.028130134            1 
  165000   0.99399192   -7.4674286    52.168588  0.026347772  0.028066518            3 
  166000   0.99225385   -7.4814213    52.286051  0.026248018  0.028002723            2 
  167000    1.0155167    -7.378944    52.746751  0.026320734  0.027942391            2 
  168000    1.0013636   -7.4473316    52.812333  0.026196594  0.027881311            2 
  169000   0.99235642   -7.4664167    53.284542  0.026274429  0.027820988            1 
  170000   0.96909088    -7.478446    53.352184  0.026153031  0.027761712            1 
  171000    1.0005184   -7.4485018     53.77852  0.026207856  0.027703302            1 
  172000   0.98802971   -7.4831086     54.01399  0.026169569  0.027646791            2 
  173000   0.98786802   -7.4700955    54.379502  0.026194365  0.027591521            1 
  174000   0.98419412   -7.4402144    54.867447  0.026277513  0.027538907            5 
  175000   0.98191779   -7.4904333    54.939423   0.02616163  0.027486946            2 
  176000   0.96381748   -7.5057354    54.864916  0.025977706  0.027432065            2 
  177000   0.97226748   -7.4911335    54.879943  0.025838014  0.027373753            3 
  178000    1.0013109   -7.4731661    55.256191  0.025869003  0.027315427            2 
  179000   0.96413128   -7.4623639     55.34779  0.025767127  0.027258511            1 
  180000   0.98369098     -7.52201    55.192772  0.025552209  0.027196367            2 
  181000   0.99892371   -7.5332552    55.562478  0.025581251  0.027133927            3 
  182000   0.96272498   -7.4950445    55.934841  0.025611191  0.027072727            2 
  183000   0.98789438   -7.4745834    56.154279  0.025571165  0.027012595            2 
  184000    0.9714103   -7.4921413    56.455197  0.025568477   0.02695303            2 
  185000   0.97650406   -7.5200527    56.381363   0.02539701  0.026892827            3 
  186000   0.99494941   -7.5183154    56.519718  0.025322454  0.026830847            1 
  187000   0.98115991   -7.5037138    56.907524  0.025359859  0.026769647            1 
  188000   0.93838402   -7.5476518    57.217092  0.025362186  0.026709622            2 
  189000   0.96361286   -7.5449777    57.625602  0.025408114  0.026650998            2 
  190000   0.99416036   -7.5200282    57.780433  0.025342295  0.026594641            2 
  191000   0.97075027   -7.5598424    57.920658  0.025270793  0.026538216            1 
  192000    0.9571003   -7.5347826    58.155742  0.025241207  0.026481199            4 
  193000   0.92401513   -7.4977777    58.439994  0.025233158  0.026423718            2 
  194000   0.94530146   -7.6082236    58.447699    0.0251064  0.026366975            2 
  195000   0.95187911   -7.5794393    58.679353  0.025076646  0.026310943            2 
  196000   0.96557562   -7.5246034    59.077858  0.025118137  0.026254844            2 
  197000   0.96519546   -7.5371809    59.169795  0.025029524  0.026199877            1 
  198000   0.95403802   -7.5288834    59.529482  0.025054496  0.026143553            1 
  199000   0.94704612   -7.5786235    59.289201  0.024827973  0.026086095            1 
  200000   0.93185903   -7.5800279    59.326234  0.024719264  0.026026868            3 
  201000   0.95799571   -7.5649429    59.476892  0.024658745  0.025967676            2 
  202000   0.91757698   -7.5798239    59.945614  0.024730039  0.025909579            1 
  203000     0.958585   -7.5926902     60.17147  0.024700932  0.025851271            1 
  204000   0.92195629   -7.6013771    60.146557  0.024569672  0.025792806            2 
  205000    0.9437179   -7.6162007    60.318124  0.024519563  0.025732564            3 
  206000   0.94331183    -7.642959    60.270494  0.024381268  0.025671974            1 
  207000   0.92557512   -7.5912026     60.70199  0.024437194  0.025610547            1 
  208000   0.92937166   -7.5993068    60.662387  0.024303841  0.025548886            3 
  209000    0.9144693   -7.5963216    60.554462  0.024144522  0.025484531            1 
  210000   0.92205991   -7.5983712    60.590034  0.024043664  0.025420166            8 
  211000   0.95255474   -7.5828749    60.890305  0.024048304  0.025357091            2 
  212000   0.94492027   -7.6282273    61.244449  0.024074076  0.025293865            3 
  213000   0.93331905   -7.6607485    61.216731  0.023950208  0.025230179            1 
  214000   0.91659158   -7.6286238    61.583087  0.023980953  0.025165752            2 
  215000   0.91079055   -7.6155852    61.603483  0.023877319  0.025102007            1 
  216000   0.92377903   -7.6422403    61.662547  0.023789563  0.025037497            2 
  217000   0.94422699   -7.6744685    61.672014  0.023683569   0.02497273            1 
  218000   0.91474447   -7.6180885    62.025364  0.023710002   0.02490782            5 
  219000   0.93958552   -7.6151912    62.363606  0.023730444  0.024843699            1 
  220000   0.91125177   -7.6322161    62.178593  0.023552497  0.024779231            3 
  221000    0.9250482   -7.6549247    62.212876  0.023458852  0.024714259            2 
  222000   0.91445115   -7.6859138    62.237106  0.023362277   0.02464702            2 
  223000   0.90452952   -7.6844965    62.275047  0.023271692  0.024579673            3 
  224000   0.91215256   -7.6594171    62.359584   0.02319925  0.024511048            4 
  225000   0.91624681   -7.6644652    62.417215  0.023117487  0.024442083            2 
  226000   0.91574222   -7.6432576    62.443796  0.023024999  0.024372957            2 
  227000   0.89430635   -7.6581233    62.749319  0.023035727  0.024304625            7 
  228000   0.90038168   -7.6734624    62.983396  0.023020247  0.024237149            3 
  229000   0.91351108   -7.6853594    63.030022  0.022936689  0.024169831            2 
  230000   0.91070861   -7.6986283    63.135249   0.02287509  0.024102578            2 
  231000   0.89406565   -7.7260159    63.242508  0.022814758  0.024035797            2 
  232000   0.88435381    -7.686447    63.409922  0.022776552  0.023968833            3 
  233000   0.90740388   -7.6988961     63.47545  0.022702235  0.023901716            2 
  234000   0.86811432   -7.7200096     63.72216  0.022693077  0.023835682            1 
  235000   0.90236726    -7.715802    63.948834  0.022676891  0.023770338            3 
  236000   0.89317446   -7.7265616    63.971234  0.022588713  0.023705328            1 
  237000   0.86593081    -7.735153    64.099263  0.022538419  0.023638922            4 
  238000   0.88309892   -7.7094933    64.425433  0.022557925   0.02357446            2 
  239000   0.89641964   -7.7601683    64.285717  0.022414825  0.023510079            2 
  240000   0.88940913   -7.7561251    64.457937  0.022381228   0.02344545            3 
  241000   0.88678134   -7.7498973    64.599185  0.022337201   0.02338134            1 
  242000    0.8750447   -7.7520363    64.593984  0.022243107  0.023317162            1 
  243000   0.88281723   -7.7461883    64.682282  0.022181852  0.023251762            3 
  244000    0.8877207   -7.7041368    65.025518  0.022208169  0.023187071            2 
  245000   0.87337455   -7.7743449    64.872043  0.022065321  0.023122065            2 
  246000   0.89604999   -7.7513895    65.148929   0.02206942  0.023057788            2 
  247000   0.87546767   -7.7580281    65.195146  0.021995663  0.022993722            2 
  248000   0.88355833   -7.7695774    65.247159  0.021924448    0.0229295            3 
  249000   0.88549628   -7.7851814    65.149765  0.021803804  0.022864282            1 
  250000   0.85253632   -7.7446636    65.474345  0.021824782   0.02279892            3 
  251000   0.86432053    -7.771958    65.620141  0.021786235  0.022733786            3 
  252000   0.85685111   -7.7898328    65.463392  0.021647947  0.022667748            4 
  253000   0.89992589   -7.7733474    65.623506   0.02161512  0.022601837            1 
  254000   0.85906053   -7.7729808     65.80902  0.021590886  0.022535967            1 
  255000   0.86560942   -7.8227898    65.635524  0.021449517  0.022470211            3 
  256000   0.85239561   -7.8135182    65.701108  0.021387079    0.0224039            3 
  257000   0.86086102   -7.7954852    65.627865  0.021280112  0.022336404            5 
  258000   0.86244847   -7.7942204    65.861236  0.021273009  0.022269093            2 
  259000   0.86228781   -7.7827632    65.888825  0.021199751  0.022201982            2 
  260000   0.83253438   -7.7922757    65.981625  0.021147957  0.022135191            3 
  261000   0.84269721   -7.7880328    65.945642  0.021055441  0.022068241            2 
  262000   0.83330602   -7.8387608    65.768623  0.020918773  0.022000564            3 
  263000   0.85411316   -7.8219272    66.112149  0.020948083  0.021932288            4 
  264000   0.87020955   -7.8219518    66.311311  0.020931601  0.021864723            2 
  265000   0.83912363   -7.7992672    66.204398  0.020818993   0.02179731            3 
  266000    0.8456499    -7.791112    66.530727  0.020842959  0.021730554            2 
  267000   0.83317344   -7.8217042     66.41232   0.02072794  0.021663657            1 
  268000   0.83843702   -7.8331812    66.548584  0.020692968  0.021597145            1 
  269000   0.84548741   -7.8321594    66.583754  0.020626937  0.021530017            2 
  270000    0.8367382   -7.8858148    66.327225  0.020471366  0.021462428            3 
  271000   0.83526161   -7.8458007    66.590872  0.020476898  0.021394777            1 
  272000   0.84027997   -7.8552214    66.580636  0.020398479  0.021327875            3 
  273000   0.82497536   -7.8669573    66.744471   0.02037377  0.021260871            1 
  274000   0.83703963   -7.8597961    66.896228  0.020345568  0.021194623            1 
  275000   0.82902649   -7.8612231    66.951292   0.02028827  0.021128611            2 
  276000   0.83081465    -7.862557    66.987802  0.020225786   0.02106276            7 
  277000   0.81798341   -7.8913335     66.82379  0.020103427  0.020996746            3 
  278000   0.81136868   -7.8453636    66.941388  0.020066363  0.020930382            3 
  279000   0.83141713   -7.8699158    67.338146  0.020112947  0.020864483            1 
  280000   0.82361683   -7.8685464    67.234702  0.020010328  0.020799429            5 
  281000   0.81398854   -7.8558564    67.302592   0.01995925  0.020734088            5 
  282000   0.80956638   -7.8628995    67.343486  0.019900557  0.020668575            1 
  283000   0.81708554   -7.8858968     67.40351  0.019847912  0.020602907            2 
  284000    0.8045563   -7.9106513     67.29728  0.019746854  0.020537449            2 
  285000   0.80725457   -7.8949437    67.593927  0.019764306  0.020472527            2 
  286000   0.82101078   -7.9252191    67.515178  0.019672255  0.020408016            2 
  287000   0.79372718   -7.9461299    67.753813     0.019673  0.020343774            5 
  288000    0.8143377   -7.9102925    67.669486  0.019580291  0.020279975            4 
  289000   0.80331746   -7.9230212    67.768446  0.019541074  0.020215731            3 
  290000   0.79502029   -7.9409669    67.910039  0.019514379  0.020152098            2 
  291000   0.79560689   -7.9030371    67.814959  0.019420091  0.020088311            7 
  292000   0.80329533   -7.9271429    67.899169  0.019377617  0.020025186            1 
  293000   0.78335419   -7.9435974    67.856405  0.019299319  0.019961497            1 
  294000   0.81180873    -7.959341     67.96292  0.019263866  0.019898059            3 
  295000   0.79786548   -7.9775036     68.09156  0.019234904   0.01983495            2 
  296000   0.80198067   -7.9533953    68.099148  0.019172057   0.01977243            3 
  297000   0.79248264   -7.9844873    68.101225  0.019108088  0.019709703            4 
  298000    0.7766487   -7.9890329     68.21137  0.019074768  0.019646845            1 
  299000   0.77933677   -8.0059123     68.19929  0.019007606  0.019584596            2 
  300000   0.78978232   -7.9990483    67.973004   0.01888139  0.019521853            2 
  301000   0.78909254   -7.9824124    68.091628  0.018851503  0.019458779            4 
  302000   0.80476104   -7.9913997    68.367969  0.018865334   0.01939654            2 
  303000   0.78217508   -8.0030026    68.246795  0.018769746  0.019334465            4 
  304000   0.77082299   -7.9718904    68.215457  0.018699412  0.019272038            1 
  305000   0.78393965   -8.0008471    68.260581  0.018650432  0.019209646            3 
  306000   0.78003271   -8.0180076    68.338736  0.018610767  0.019147361            2 
  307000   0.78607145   -8.0164643    68.301111  0.018539932  0.019085231            3 
  308000   0.79017883   -7.9855971    68.517829  0.018538374   0.01902321            2 
  309000   0.78312111   -7.9859504    68.447339  0.018459369  0.018961668            2 
  310000   0.76158877   -8.0242427    68.563702  0.018431103  0.018899918            2 
  311000   0.77779684    -8.002369    68.527865  0.018362236  0.018838197            2 
  312000    0.7827903   -8.0234897    68.453952  0.018283641  0.018776576            1 
  313000   0.78570612   -8.0460061    68.470473  0.018229625  0.018715274            1 
  314000   0.76178972   -8.0724227    68.504729  0.018180661  0.018653659            1 
  315000   0.76485955   -8.0406205    68.672008  0.018167198  0.018592438            1 
  316000   0.76419429   -8.0361566    68.786703  0.018139953  0.018531994            1 
  317000    0.7633755    -8.019083    68.886548  0.018108977  0.018471821            3 
  318000   0.76185865   -8.0576314    68.648057  0.017989533  0.018411315            2 
  319000   0.74967797   -8.0390182    68.701545  0.017947112  0.018350885            3 
  320000   0.75596937   -8.0850135    68.713855  0.017894233  0.018290733            3 
  321000   0.75478698   -8.0389472    68.818394  0.017865627  0.018230721            1 
  322000   0.74374546   -8.0691271    68.849671  0.017818238  0.018170756            2 
  323000   0.74299367    -8.074245     68.85781  0.017765173  0.018110568            2 
  324000   0.76469071   -8.0719899    68.841104  0.017706045  0.018050503            2 
  325000   0.76160758   -8.0893443    68.929844  0.017674319   0.01799086            1 
  326000    0.7565239   -8.0475565    68.928119  0.017619662  0.017931212            3 
  327000   0.76030834   -8.0848342    68.964024   0.01757493  0.017871872            3 
  328000   0.74502418   -8.0602778    69.051995  0.017543698  0.017813196            3 
  329000   0.73400392   -8.0715463    68.983688  0.017473072  0.017754571            2 
  330000   0.74186022    -8.074061     69.00875  0.017426452  0.017695744            2 
  331000   0.73001496   -8.0926227    68.926805  0.017353173  0.017636992            4 
  332000   0.73333571   -8.0861442    69.044583  0.017330468  0.017578683            1 
  333000   0.74822446   -8.0833741    69.191707  0.017315242  0.017520656            2 
  334000    0.7525972   -8.0936664    69.235706  0.017274378  0.017462647            1 
  335000   0.73563053    -8.107355    69.071157   0.01718188  0.017404864            2 
  336000   0.74556472   -8.0914224     69.02102  0.017118308   0.01734705            2 
  337000   0.72070994   -8.1060453    69.151756  0.017099841  0.017289276            3 
  338000   0.72533475    -8.105978    69.060556  0.017026764  0.017231563            4 
  339000   0.74407825   -8.1407853    69.104553  0.016987353  0.017173746            5 
  340000    0.7319902    -8.153129    68.981067  0.016907124  0.017116117            3 
  341000   0.71970593   -8.1427645    69.165714  0.016902667  0.017058738            3 
  342000   0.71717521   -8.1808471    69.236998  0.016870614  0.017001801            3 
  343000    0.7185188   -8.1707408    68.978738  0.016758683   0.01694491            1 
  344000   0.71445107    -8.186125     69.07053  0.016732202  0.016888254            2 
  345000   0.70429027   -8.1702168    69.239075  0.016724414  0.016831454            1 
  346000   0.71102586   -8.1864808    69.192132  0.016664772   0.01677466            4 
  347000   0.70737594   -8.1988973    69.127202  0.016601153  0.016717976            5 
  348000   0.70750121   -8.1711951    69.215144  0.016574508  0.016661297            2 
  349000   0.70318313   -8.2021435    69.160419  0.016513949  0.016604875            4 
  350000   0.70440485   -8.1893533    69.115261  0.016456015  0.016548638            2 
  351000    0.7111526   -8.1940791    69.256767  0.016442727  0.016492548            2 
  352000   0.72584167   -8.2048522    69.102931  0.016359595  0.016436814            2 
  353000   0.70802871   -8.1912897    69.185732  0.016332798   0.01638124            2 
  354000   0.71225861   -8.1847214    68.977135  0.016237555  0.016325733            3 
  355000   0.70279565   -8.2056793    69.149116  0.016232187  0.016270195            2 
  356000   0.70197612   -8.2093742    69.126266  0.016181242  0.016214929            3 
  357000   0.68452775   -8.2007015    69.310995  0.016179037  0.016159857            3 
  358000   0.68401055   -8.2024253    69.126125  0.016090811  0.016104803            5 
  359000   0.71279406    -8.228425    69.252378  0.016075297  0.016049976            1 
  360000   0.69288521   -8.2016745     69.10225  0.015995891   0.01599544            6 
  361000   0.69437631   -8.2200807    69.384231  0.016016674  0.015941159            1 
  362000   0.67667769   -8.2544693     69.17755   0.01592485  0.015886947            2 
  363000   0.69317219   -8.2380025    69.238634  0.015895003  0.015832802            1 
  364000   0.68609044   -8.2474037    69.090337  0.015817385  0.015778875            4 
  365000   0.68580183   -8.2647379    69.112057  0.015779008  0.015725119            2 
  366000   0.67922769   -8.2358697    69.179126  0.015751167  0.015671343            3 
  367000   0.68071118    -8.237679    69.023446  0.015672899  0.015617677            2 
  368000   0.67463616     -8.24896    69.206266  0.015671709  0.015564188            5 
  369000   0.68655088   -8.2559104    69.213037  0.015630767  0.015510783            4 
  370000   0.66827718   -8.2560517    69.191355  0.015583639  0.015457788            2 
  371000   0.67481381   -8.2640387    69.315131  0.015569436  0.015404971            4 
  372000   0.66281092   -8.2632684    69.221441  0.015506595  0.015352296            2 
  373000   0.67687032   -8.2726107    69.242842  0.015469804  0.015299927            2 
  374000   0.66136386   -8.2678448    69.223373  0.015424103  0.015247629            1 
  375000   0.67663128   -8.2509098    69.270784  0.015393507  0.015195624            2 
  376000   0.65925873   -8.2628113    69.309986  0.015361256  0.015143805            1 
  377000   0.66373198   -8.2630053    69.168469  0.015289228   0.01509213            1 
  378000   0.67213633   -8.2641464    69.217114  0.015259505  0.015040565            4 
  379000    0.6759742   -8.2963612    69.168876  0.015208636  0.014989216            3 
  380000   0.67128136    -8.290666    69.289389  0.015195042  0.014938212            1 
  381000   0.66633403   -8.2751642    69.243043  0.015145023   0.01488749            2 
  382000   0.65680828   -8.2944805     69.35606   0.01513003  0.014836754            1 
  383000   0.65444542   -8.2839315    69.271663  0.015072163  0.014786097            2 
  384000   0.65529232   -8.2893586    69.308942  0.015041003  0.014735492            3 
  385000   0.64535411     -8.31101    69.146382  0.014966749  0.014685028            2 
  386000   0.66267163   -8.3160729    69.130719  0.014924594    0.0146346            1 
  387000   0.62765961   -8.3151984    69.133152  0.014886553  0.014584331            2 
  388000   0.66041356   -8.3017136    69.169548  0.014856002  0.014534375            3 
  389000   0.63451897   -8.3185547    69.112623  0.014805618  0.014484524            2 
  390000   0.64465036   -8.3323142    69.159337  0.014777636  0.014434856            2 
  391000   0.64052332   -8.3188821    69.252676  0.014759735  0.014385377            3 
  392000   0.62030949     -8.31111    69.316657  0.014735684  0.014336181            2 
  393000   0.64267814   -8.3391524    69.172935  0.014667713   0.01428709            2 
  394000   0.62930035   -8.3493632    69.143396  0.014624238  0.014238023            1 
  395000   0.61721892   -8.3397804    69.082505  0.014574368  0.014189172            3 
  396000     0.644251   -8.3626487    69.143924  0.014550489  0.014140397            7 
  397000   0.62439876   -8.3243388    69.046075  0.014493299  0.014091807            1 
  398000   0.62752129   -8.3446193    69.127832  0.014474002  0.014043506            2 
  399000   0.61674724   -8.3523171    69.140448  0.014440361  0.013995399            2 
  400000   0.62683371   -8.3539136    69.173453  0.014411136  0.013947441            2 
  401000   0.63408162   -8.3589814    69.155766  0.014371522  0.013899568            2 
  402000   0.62649943   -8.3603495    69.136945  0.014331871   0.01385197            2 
  403000   0.61133198   -8.3555147    69.110017   0.01429074  0.013804472            2 
  404000    0.6169409   -8.3939043    69.224213  0.014278922  0.013757277            1 
  405000   0.62293989   -8.3601063    69.051735  0.014208176  0.013710241            2 
  406000   0.63180639   -8.3855316    69.225483  0.014208843   0.01366328            5 
  407000   0.61836124   -8.4072399    69.122197  0.014152784  0.013616455            5 
  408000   0.61155401    -8.396693    69.151305  0.014124041   0.01356979            3 
  409000   0.61878374     -8.40423    68.908522  0.014040041  0.013523361            4 
  410000   0.60260317   -8.3940269    68.972201   0.01401874  0.013477133            4 
  411000   0.59780125   -8.4194192    69.138119  0.014018272  0.013431072            2 
  412000   0.61265833   -8.4227381    69.137458  0.013984114  0.013385137            2 
  413000   0.59846673   -8.4099792     69.15332  0.013953454  0.013339254            4 
  414000   0.60114168   -8.3903878    69.035574  0.013896049  0.013293568            2 
  415000   0.60517025    -8.417371    69.018851  0.013859207  0.013247911            3 
  416000   0.61738186   -8.4485445    68.930349  0.013808163  0.013202546            3 
  417000   0.61232395   -8.4221149    68.876814  0.013764351  0.013157237            3 
  418000   0.60634915    -8.434472    68.802199  0.013716547  0.013111949            2 
  419000   0.58777494   -8.4162723    68.907193  0.013704692  0.013066826            2 
  420000   0.59800945   -8.4341115    68.882849  0.013667232  0.013021822            2 
  421000   0.60168707   -8.4420025    68.786989  0.013615793  0.012977012            2 
  422000   0.59409849   -8.4328336    68.953064  0.013616324  0.012932416            3 
  423000   0.58375557   -8.4314525    69.023125  0.013597936  0.012888065            3 
  424000   0.59408386   -8.4275314    68.822493  0.013526433    0.0128439            1 
  425000   0.59282622   -8.4382126    68.839661  0.013497973  0.012799806            2 
  426000   0.58276402   -8.4560642    68.936578  0.013485246   0.01275592            5 
  427000   0.58469847   -8.4602207    68.945688  0.013455443  0.012712221            1 
  428000   0.58789961    -8.458784    68.802664  0.013396157  0.012668652            1 
  429000   0.58845289   -8.4404771    68.894419  0.013382754  0.012625247            2 
  430000   0.57170803   -8.4570967     68.80935  0.013335145  0.012581899            2 
  431000   0.58440624   -8.4577577    68.820692  0.013306398  0.012538678            2 
  432000   0.57157128   -8.4784188    68.923627  0.013295453  0.012495757            2 
  433000    0.5853931   -8.4664498    68.814152  0.013243678  0.012452926            2 
  434000   0.57757473   -8.4967882    68.790408  0.013208604  0.012410341            1 
  435000   0.57791026   -8.4734306    68.934897  0.013205919  0.012367929            2 
  436000   0.57669481   -8.4773773    68.742022  0.013138766  0.012325717            1 
  437000   0.57411035   -8.4951762    68.857742  0.013130767  0.012283675            2 
  438000   0.57034038   -8.5012275    68.869539  0.013103032  0.012241757            3 
  439000   0.57951583   -8.4900962    68.775154  0.013055268  0.012199924            2 
  440000   0.56324573   -8.5032548    68.754166  0.013021622    0.0121583            2 
  441000   0.56559761   -8.5033572    68.560928   0.01295558  0.012116869            2 
  442000   0.55815332   -8.5078716    68.737607  0.012959579   0.01207566            2 
  443000   0.55862803   -8.4998757    68.850775  0.012951613  0.012034576            3 
  444000   0.55473431   -8.4992265    68.676664  0.012889764  0.011993628            2 
  445000    0.5609303   -8.4982953     68.78178  0.012880483  0.011952859            3 
  446000   0.55823701     -8.51669     68.87563  0.012869139  0.011912325            2 
  447000   0.55499126   -8.5255245    68.675602  0.012803058  0.011871924            3 
  448000   0.54670013   -8.5410588    68.636435  0.012767194  0.011831546            1 
  449000   0.54861044   -8.5206116    68.654133  0.012742044  0.011791366            2 
  450000   0.55107431   -8.5314806    68.767226  0.012734671   0.01175145            3 
  451000   0.54645889   -8.5230857    68.683116  0.012690893   0.01171158            3 
  452000   0.54206542   -8.5516357     68.70375  0.012666621  0.011671885            2 
  453000   0.54156651   -8.5194882    68.606963  0.012620854   0.01163236            1 
  454000    0.5425316   -8.5595958    68.655605  0.012601983  0.011592941            2 
  455000   0.52741602   -8.5540199    68.636255  0.012570743  0.011553653            4 
  456000   0.54732597   -8.5460835    68.667545  0.012548894  0.011514583            1 
  457000    0.5273006   -8.5464558    68.522976  0.012495072  0.011475651            3 
  458000    0.5300803   -8.5537571    68.495527  0.012462796  0.011436957            3 
  459000   0.54355847   -8.5377014    68.567765  0.012448759  0.011398372            4 
  460000   0.53140298   -8.5436342      68.7487  0.012454475  0.011359904            2 
  461000   0.53420647   -8.5480533    68.647658  0.012409193  0.011321625            2 
  462000   0.52217172   -8.5586983    68.653532  0.012383393  0.011283528            1 
  463000   0.52520824   -8.5526066     68.52426   0.01233338  0.011245567            3 
  464000   0.52712296    -8.582422    68.561808  0.012313543  0.011207743            2 
  465000   0.53747454   -8.5588541    68.613099  0.012296254   0.01117008            2 
  466000   0.52104793   -8.5512625    68.568644  0.012261918   0.01113259            2 
  467000   0.52034147    -8.561188    68.557175  0.012233614   0.01109529            2 
  468000   0.51958426   -8.5681432    68.622345  0.012219078  0.011058221            2 
  469000   0.52252452   -8.5650871    68.634011  0.012195098   0.01102117            2 
  470000   0.51462478   -8.5873632     68.47083  0.012140218  0.010984319            2 
  471000    0.5049561   -8.5803322    68.436809  0.012108423  0.010947617            2 
  472000   0.51273488   -8.5785701    68.460657   0.01208698  0.010911125            3 
  473000   0.50619924    -8.581015    68.539154  0.012075256  0.010874736            4 
  474000   0.51992269   -8.5973544    68.554325  0.012052448  0.010838564            1 
  475000   0.50000891   -8.5884728    68.469798  0.012012245  0.010802517            2 
  476000   0.51215149   -8.5892829    68.480674  0.011988913  0.010766596            1 
  477000   0.50550279   -8.6030805    68.539672  0.011974087  0.010730747            1 
  478000   0.51013878   -8.5964975     68.55533  0.011951766  0.010695109            3 
  479000   0.49058593   -8.5766067    68.395724  0.011899047  0.010659602            2 
  480000   0.50217259   -8.5889819     68.51278   0.01189458  0.010624192            1 
  481000   0.50119839   -8.5932105    68.463889  0.011861381  0.010588971            3 
  482000    0.4998712   -8.6072219    68.480309  0.011839611   0.01055387            1 
  483000   0.49767476   -8.6232434     68.54942  0.011827022  0.010518925            1 
  484000   0.49428282   -8.6266534    68.525106    0.0117984  0.010484094            1 
  485000   0.49157389   -8.6198503    68.430398    0.0117578  0.010449504            3 
  486000    0.4903733   -8.6300361     68.47055  0.011740492  0.010415003            2 
  487000   0.48430882   -8.6318163    68.345041  0.011694908  0.010380609            1 
  488000   0.48650046   -8.6308282    68.467668  0.011691883  0.010346337            2 
  489000   0.48914517   -8.6347805    68.449318  0.011664846  0.010312254            3 
  490000   0.49574415   -8.6303527    68.420094   0.01163607  0.010278294            1 
  491000   0.48484629   -8.6290929    68.351526  0.011600734  0.010244449            2 
  492000   0.48150106   -8.6281472    68.437737  0.011591758  0.010210803            1 
  493000   0.47633515   -8.6391603    68.393272  0.011560729  0.010177312            1 
  494000   0.48735532   -8.6428754    68.376259  0.011534457  0.010143961            2 
  495000   0.48053443   -8.6587471    68.439069  0.011521729  0.010110737            2 
  496000   0.46610154   -8.6458482    68.465839  0.011502997  0.010077656            2 
  497000   0.46935235   -8.6555188    68.321783  0.011455698  0.010044635            2 
  498000   0.47540696   -8.6670184    68.360141  0.011439113  0.010011789            2 
  499000   0.47311861   -8.6491371    68.437041  0.011429031 0.0099791011            6 
  500000   0.48111657   -8.6672218    68.401333  0.011400222 0.0099465007            5 
  501000   0.47758024   -8.6513613    68.319237  0.011363812 0.0099140434            3 
  502000   0.46309618   -8.6623306    68.298436  0.011337722 0.0098816918            2 
  503000   0.47098134   -8.6583196      68.2141  0.011301209 0.0098494474            2 
  504000    0.4680455   -8.6661293    68.225598  0.011280688 0.0098173044            1 
  505000   0.45759046   -8.6601491    68.166494  0.011248596 0.0097853393            1 
  506000   0.46562921   -8.6690613    68.159672  0.011225242 0.0097534949            1 
  507000   0.45866981   -8.6578851    68.281776  0.011223172 0.0097217784            5 
  508000   0.46711112   -8.6771711    68.247811  0.011195507 0.0096901792            2 
  509000   0.46453177   -8.6779298    68.245382  0.011173114 0.0096587488            1 
  510000   0.45383701   -8.6765372    68.264755  0.011154372 0.0096274099            3 
  511000   0.45586571   -8.6751319    68.165411  0.011116342 0.0095961673            1 
  512000    0.4513211   -8.6811522    68.288627  0.011114685 0.0095651156            3 
Loop time of 1209.22 on 48 procs for 500000 steps with 4000 atoms

Performance: 71450.834 tau/day, 413.489 timesteps/s
99.4% CPU use with 48 MPI tasks x no OpenMP threads

MPI task timing breakdown:
Section |  min time  |  avg time  |  max time  |%varavg| %total
---------------------------------------------------------------
Pair    | 74.926     | 79.842     | 85.219     |  26.5 |  6.60
Neigh   | 7.878      | 8.2171     | 8.5179     |   6.2 |  0.68
Comm    | 76.27      | 82.343     | 87.225     |  28.9 |  6.81
Output  | 0.85202    | 0.85248    | 0.86188    |   0.1 |  0.07
Modify  | 1023.7     | 1026.3     | 1029.4     |   4.0 | 84.87
Other   |            | 11.68      |            |       |  0.97

Nlocal:        83.3333 ave          91 max          77 min
Histogram: 4 1 6 11 4 10 4 6 0 2
Nghost:        2072.90 ave        2095 max        2041 min
Histogram: 2 1 4 2 4 10 10 9 1 5
Neighs:        13448.3 ave       15091 max       11935 min
Histogram: 2 5 8 4 3 12 5 5 1 3
FullNghs:      26896.0 ave       29528 max       24684 min
Histogram: 3 3 6 9 9 4 8 3 1 2

Total # of neighbors = 1291010
Ave neighs/atom = 322.75250
Neighbor list builds = 26769
Dangerous builds = 0

#clear
#
#next RN
#
#jump SELF
Total wall time: 0:20:12
