
units lj                  # Use reduced LJ style units
atom_style atomic         # Uncharged point particles
atom_modify map hash      # Needed for indexing of clusters etc
                          # Used to be able to find where atoms are in relation to each other.

lattice fcc 1.0 spacing 1 1 1
Lattice spacing in x,y,z = 1.5874011 1.5874011 1.5874011
region box block 0 10 0 10 0 10 units lattice
create_box 2 box
Created orthogonal box = (0.0000000 0.0000000 0.0000000) to (15.874011 15.874011 15.874011)
  3 by 4 by 4 MPI processor grid
create_atoms 1 box
Created 4000 atoms
  using lattice units in orthogonal box = (0.0000000 0.0000000 0.0000000) to (15.874011 15.874011 15.874011)
  create_atoms CPU = 0.003 seconds
set type 1 type/fraction 2 0.61 78393
Setting atom values ...
  2454 settings made for type/fraction
mass 1 1.0
mass 2 1.0
pair_style lj/cut  3.5
pair_modify tail  yes
pair_coeff 1  1  1.0  1.0   # Intearaction between 1 and 1 set with epsilon = 1 and sigma = 1
pair_coeff 1  2  1.5  0.8
pair_coeff 2  2  0.5  0.88

write_data data.0
System init for write_data ...
Neighbor list info ...
  update every 1 steps, delay 10 steps, check yes
  max neighbors/atom: 2000, page size: 100000
  master list distance cutoff = 3.8
  ghost atom cutoff = 3.8
  binsize = 1.9, bins = 9 9 9
  1 neighbor lists, perpetual/occasional/extra = 1 0 0
  (1) pair lj/cut, perpetual
      attributes: half, newton on
      pair build: half/bin/atomonly/newton
      stencil: half/bin/3d
      bin: standard
WARNING: Not all mixed pair coeffs generated from mixing. Use write_data with 'pair ij' option to store all pair coeffs. (../write_data.cpp:312)


#############################
#   M E L T   S Y S T E M   #
#############################

velocity all create 2.4 8172548 mom yes dist gaussian # Assign velocities
                                                    # Temperature 2.4, random number seed, zero linear momentum
                                                                                # Gaussian distribution

timestep 0.002   # simulation timestep
thermo 1000       # output thermodynamic data every 1000 steps bf 100

# Define a fix  in this case with index 1 applied to all
# particles in the simulation. This fix is for simulations
# in the anisotropic NPT ensemble. Note that we use the MTK
# correction.
fix 1 all npt temp 2.4 2.4 0.1 iso 5.68 5.68 0.5 mtk yes tchain 5 pchain 5 # Use NPT ensemble
                                                                         # Set temperature and pressure and damping
                                                                         # Numbers of thermostats in chain and in barostat
run 10000          # run for 10000 steps
Per MPI rank memory allocation (min/avg/max) = 3.642 | 3.644 | 3.648 Mbytes
Step Temp E_pair E_mol TotEng Press Volume 
       0          2.4   -4.6675525            0   -1.0684525   -4.0420614         4000 
    1000    2.3354912   -4.4125265            0  -0.91016553    5.3918399    3628.7082 
    2000    2.3374572   -4.4002103            0   -0.8949011    5.4235186    3631.1943 
    3000    2.4123869   -4.3735809            0  -0.75590515    5.6857241    3635.1322 
    4000     2.429982   -4.4065076            0  -0.76244583    5.9839783    3593.3869 
    5000    2.4079663   -4.3838352            0  -0.77278876    5.7557625    3622.4331 
    6000    2.3966631   -4.4186967            0   -0.8246008    5.8012051     3598.387 
    7000    2.3683613   -4.4350022            0   -0.8833483    5.7129592    3590.4255 
    8000    2.4192131   -4.4546961            0  -0.82678371    6.0106808    3567.8565 
    9000    2.4041816   -4.4267201            0  -0.82134923     5.854821    3590.5339 
   10000    2.4077173   -4.4938274            0  -0.88315428    5.4204885    3601.6288 
Loop time of 2.80572 on 48 procs for 10000 steps with 4000 atoms

Performance: 615884.756 tau/day, 3564.148 timesteps/s
99.4% CPU use with 48 MPI tasks x no OpenMP threads

MPI task timing breakdown:
Section |  min time  |  avg time  |  max time  |%varavg| %total
---------------------------------------------------------------
Pair    | 1.2241     | 1.269      | 1.3321     |   2.4 | 45.23
Neigh   | 0.21688    | 0.22225    | 0.2353     |   0.7 |  7.92
Comm    | 0.8288     | 0.92565    | 0.99577    |   4.1 | 32.99
Output  | 0.00025402 | 0.00026308 | 0.00051236 |   0.0 |  0.01
Modify  | 0.31911    | 0.3727     | 0.45443    |   6.1 | 13.28
Other   |            | 0.01587    |            |       |  0.57

Nlocal:        83.3333 ave          93 max          76 min
Histogram: 6 2 10 4 8 7 1 6 2 2
Nghost:        1762.17 ave        1781 max        1732 min
Histogram: 1 1 3 4 5 6 11 6 8 3
Neighs:        10604.5 ave       11912 max        9554 min
Histogram: 5 6 6 7 5 4 4 6 4 1

Total # of neighbors = 509014
Ave neighs/atom = 127.25350
Neighbor list builds = 900
Dangerous builds = 167

# Equilibrate just above the melting temperature to avoid step fn in T

fix 1 all npt temp 1.25 1.25 0.1 iso 5.68 5.68 0.5 mtk yes tchain 5 pchain 5
run 2000
Per MPI rank memory allocation (min/avg/max) = 3.644 | 3.646 | 3.650 Mbytes
Step Temp E_pair E_mol TotEng Press Volume 
   10000    2.4077173   -4.4938274            0  -0.88315428    5.4204885    3601.6288 
   11000    1.2351197   -6.4502747            0   -4.5980582    5.7135995    2767.2345 
   12000    1.2349645   -6.5241044            0   -4.6721207    5.3298408    2761.7121 
Loop time of 0.727114 on 48 procs for 2000 steps with 4000 atoms

Performance: 475303.930 tau/day, 2750.601 timesteps/s
99.4% CPU use with 48 MPI tasks x no OpenMP threads

MPI task timing breakdown:
Section |  min time  |  avg time  |  max time  |%varavg| %total
---------------------------------------------------------------
Pair    | 0.29505    | 0.32297    | 0.34431    |   1.8 | 44.42
Neigh   | 0.042155   | 0.044206   | 0.047301   |   0.5 |  6.08
Comm    | 0.21548    | 0.26094    | 0.314      |   5.1 | 35.89
Output  | 5.2658e-05 | 5.5978e-05 | 0.00017866 |   0.0 |  0.01
Modify  | 0.048131   | 0.093994   | 0.11628    |   7.8 | 12.93
Other   |            | 0.004948   |            |       |  0.68

Nlocal:        83.3333 ave          91 max          78 min
Histogram: 3 4 6 16 8 0 7 0 1 3
Nghost:        2106.27 ave        2127 max        2077 min
Histogram: 2 0 1 6 6 9 8 6 5 5
Neighs:        13813.0 ave       15789 max       12364 min
Histogram: 2 2 7 17 5 8 2 3 1 1

Total # of neighbors = 663026
Ave neighs/atom = 165.75650
Neighbor list builds = 145
Dangerous builds = 13

#############################
# L I N E A R  Q U E N C H  #
#############################

# Define solid atoms. This closely follows ten Wolde  Ruiz-Montero and Frenkel  Faraday Discuss  1996  104  93-110
# Compute components of the per-atom q6 vector
compute q6 all orientorder/atom degrees 1 6 components 6 nnn NULL cutoff 1.3 # compute the Q6 parameter.
                                                                             # Use all neighbours within 1.3 unit cell.

# get number of connections
compute coord_number all coord/atom orientorder q6 0.5

# An atom is solid if it has 8 or more connections (of a possible 14)
variable is_solid atom c_coord_number>=8
group solid dynamic all var is_solid    # Must be dynamic to update
dynamic group solid defined

# do clustering
compute cluster solid cluster/atom 1.3 # Create a cluster where all atoms within are solid and max 1.3 units from another member

# define chunks one chunk per cluster
compute clus_chunks solid chunk/atom c_cluster nchunk every compress yes  # Says which atoms are in which chunk

# count the size of each chunk
compute size_chunks solid property/chunk clus_chunks count


# Find the maximum entry in the vector of chunk sizes
variable max_n equal max(c_size_chunks)


# Thermo style which includes this variable
# thermo_style custom step temp pe vol v_max_n

thermo ${N}  # Print the thermo information every 100 steps
thermo 1000  

# Reset the npt fix at a lower temperature (below freezing)
fix 1  all npt temp  ${temp} ${temp}  0.1  iso  5.68  5.68  0.5  mtk yes tchain  5  pchain  5
fix 1  all npt temp  0.45 ${temp}  0.1  iso  5.68  5.68  0.5  mtk yes tchain  5  pchain  5
fix 1  all npt temp  0.45 0.45  0.1  iso  5.68  5.68  0.5  mtk yes tchain  5  pchain  5

dump dmp2 all dcd ${N} traj.dcd
dump dmp2 all dcd 1000 traj.dcd


compute msd all msd com yes
variable twopoint equal c_msd[4]/6/(step*dt+1.0e-6)
fix 9 all vector 10 c_msd[4]
variable fit equal slope(f_9)/6/(10*dt)
thermo_style custom step temp pe c_msd[4] v_twopoint v_fit v_max_n

fix 1 all npt temp 1.25 ${temp} 0.1 iso 5.68 5.68 0.5 mtk yes tchain 5 pchain 5
fix 1 all npt temp 1.25 0.45 0.1 iso 5.68 5.68 0.5 mtk yes tchain 5 pchain 5
run 2000000 # 5000000  # Run for this many steps
Neighbor list info ...
  update every 1 steps, delay 10 steps, check yes
  max neighbors/atom: 2000, page size: 100000
  master list distance cutoff = 3.8
  ghost atom cutoff = 3.8
  binsize = 1.9, bins = 8 8 8
  4 neighbor lists, perpetual/occasional/extra = 1 3 0
  (1) pair lj/cut, perpetual
      attributes: half, newton on
      pair build: half/bin/atomonly/newton
      stencil: half/bin/3d
      bin: standard
  (2) compute orientorder/atom, occasional
      attributes: full, newton on
      pair build: full/bin/atomonly
      stencil: full/bin/3d
      bin: standard
  (3) compute coord/atom, occasional
      attributes: full, newton on
      pair build: full/bin/atomonly
      stencil: full/bin/3d
      bin: standard
  (4) compute cluster/atom, occasional
      attributes: full, newton on
      pair build: full/bin/atomonly
      stencil: full/bin/3d
      bin: standard
Per MPI rank memory allocation (min/avg/max) = 9.843 | 9.850 | 9.854 Mbytes
Step Temp PotEng c_msd[4] v_twopoint v_fit v_max_n 
   12000    1.2349645   -6.5241044 1.9721523e-34 1.3695501e-36 8.3333333e+20            2 
   13000    1.2406615   -6.5033678    0.5037343 0.0032290659   0.04084582            2 
   14000    1.2406599   -6.5648086   0.97508148 0.0058040562   0.04057872            3 
   15000     1.278328   -6.5609568    1.4161624 0.0078675686  0.039315809            2 
   16000    1.2449303   -6.5210287    1.8585333 0.0096798604  0.038267474            2 
   17000    1.2495506   -6.5656111    2.2694524  0.011124766  0.037511884            4 
   18000    1.2589867   -6.5463804    2.7923108  0.012927364   0.03753748            3 
   19000    1.2589746   -6.5423103    3.2322024  0.014176326  0.037712673            3 
   20000    1.2386378   -6.5548908    3.7094137   0.01545589  0.037870874            2 
   21000    1.2589381   -6.5445925    4.1350971  0.016409115  0.037928783            2 
   22000    1.2358838   -6.5911251    4.5857589  0.017370299  0.037906362            3 
   23000    1.2582734   -6.6006918    4.9985677  0.018110752  0.037789228            1 
   24000    1.2801128   -6.5761212    5.3401141  0.018542062  0.037466199            2 
   25000    1.2382307   -6.6064841    5.7094007  0.019031335  0.037064034            1 
   26000    1.2460668   -6.5523394    6.2169674  0.019926177  0.036757366            4 
   27000    1.2438349    -6.551918    6.6232537  0.020442141  0.036645795            3 
   28000    1.2696106   -6.5639824    7.0579754  0.021005879  0.036521595            3 
   29000    1.2387742     -6.58052    7.5377157  0.021660102  0.036415369            1 
   30000    1.2541252   -6.5829136    8.0162424  0.022267339  0.036441208            2 
   31000    1.2536326   -6.4904214    8.4422964  0.022694345  0.036437583            1 
   32000    1.2384102   -6.5849052    8.9008439  0.023179281  0.036429743            3 
   33000    1.2231439   -6.5886472    9.2827123  0.023441192  0.036418276            2 
   34000    1.2262905   -6.6248156    9.7740895  0.023956101  0.036464402            4 
   35000    1.2142969   -6.5815644    10.270787  0.024454255   0.03652672            3 
   36000    1.2493183   -6.5665236    10.754117   0.02489379  0.036599773            1 
   37000    1.2266297   -6.6036682    11.035201  0.024854057   0.03662034            1 
   38000    1.2440754   -6.5694618    11.475183  0.025164875  0.036575292            6 
   39000    1.2372081   -6.5758436    11.838238   0.02529538  0.036523266            4 
   40000    1.2439482   -6.5876124    12.329989  0.025687477  0.036505943            2 
   41000    1.2365895   -6.5692732    12.754072   0.02592291  0.036439956            2 
   42000    1.2265797   -6.5676786    13.025111  0.025843473  0.036346774            1 
   43000    1.2371885    -6.578628    13.458912  0.026083163  0.036245936            2 
   44000    1.2177746   -6.6096765    13.820879  0.026175908  0.036151504            3 
   45000    1.2459315   -6.5966797    14.347023  0.026568561  0.036084304            3 
   46000     1.221554    -6.548267    14.827077  0.026860646  0.036024335            4 
   47000    1.2553973   -6.5694978    15.274052  0.027081652  0.036000351            1 
   48000    1.2217216   -6.5693954    15.724317  0.027299161  0.035989358            3 
   49000    1.2568204   -6.5897397    16.238282  0.027616126  0.036015397            2 
   50000    1.2393706    -6.597569     16.73443  0.027890716  0.036063162            3 
   51000    1.2470311   -6.6107218     17.19813   0.02810152  0.036109034            7 
   52000    1.2442378   -6.6143979    17.720367  0.028398024   0.03616326            4 
   53000    1.2296428   -6.5877931     18.11852  0.028488239  0.036220468            1 
   54000    1.2328062   -6.6401057    18.640996  0.028766969  0.036266799            2 
   55000    1.2388553   -6.5800206    19.050941  0.028865062  0.036304442            2 
   56000    1.2503938    -6.608371    19.572743  0.029126106  0.036373587            3 
   57000     1.237778   -6.5630044    20.105445  0.029393925  0.036446718            4 
   58000    1.2336546   -6.6081773    20.496709  0.029449294  0.036517412            1 
   59000    1.2185436   -6.6388333    20.960823  0.029605682   0.03657577            2 
   60000    1.2485329   -6.6418336    21.296335  0.029578243  0.036624371            3 
   61000    1.2442494   -6.6344333    21.606602  0.029517216  0.036638881            5 
   62000    1.2216632   -6.5905323    22.212303  0.029855245  0.036660734            6 
   63000    1.2208586   -6.6049996    22.739988  0.030079349  0.036701925            2 
   64000    1.2328526   -6.5812585    23.178487  0.030180321  0.036731481            1 
   65000    1.2235294   -6.5843445    23.785525  0.030494263  0.036773215            3 
   66000    1.2649393   -6.5930869    24.190797  0.030543935  0.036827246            1 
   67000     1.212174   -6.6482544    24.526538  0.030505644  0.036861895            2 
   68000    1.2320411   -6.5699779    25.156323  0.030828826  0.036911097            3 
   69000     1.209798   -6.5517193    25.730376  0.031075334  0.036975181            1 
   70000    1.2203764   -6.6508366    26.049875  0.031011756  0.037027725            5 
   71000    1.2185895   -6.6240928    26.594647  0.031214374  0.037076103            3 
   72000    1.2732128   -6.6098632    26.932155  0.031171476  0.037123671            1 
   73000     1.182815   -6.6137293    27.448184  0.031333543  0.037158499            5 
   74000     1.244011   -6.6017928    27.782395   0.03128648  0.037181964            2 
   75000    1.2163607   -6.6271093    28.136235  0.031262483  0.037195453            3 
   76000    1.2309446   -6.6628732    28.597122  0.031356493  0.037209641            3 
   77000    1.2231349   -6.5998715    29.153518  0.031551426  0.037232721            4 
   78000    1.2358708   -6.5845777    29.585624  0.031608572  0.037247839            2 
   79000    1.2002684   -6.6664536    29.843353   0.03148033  0.037260778            4 
   80000    1.2196709   -6.6222587    30.357326  0.031622215  0.037271772            2 
   81000    1.1957881   -6.6128903    30.709387  0.031594019  0.037266641            3 
   82000    1.2495324   -6.6199743    31.082097  0.031587497   0.03725257            5 
   83000     1.216316   -6.5554777    31.505652  0.031632181  0.037234168            3 
   84000    1.2068614   -6.6505776    31.826128   0.03157354  0.037206682            3 
   85000    1.2120717    -6.576829    32.133966  0.031503888  0.037176974            2 
   86000    1.2316678   -6.6159703    32.582324  0.031572019  0.037141848            5 
   87000    1.1994663   -6.6515428    32.962063  0.031572857  0.037106732            4 
   88000    1.2154936   -6.6846236    33.338249  0.031570311  0.037083957            2 
   89000    1.1982753   -6.6579265    33.744895  0.031596344  0.037051593            3 
   90000    1.2349919   -6.6358449    34.347736  0.031803459  0.037018802            5 
   91000    1.2121152   -6.6118453    34.847367  0.031911508  0.037000905            3 
   92000    1.2377184   -6.6457018    35.240626  0.031920856  0.036983765            2 
   93000    1.2192812   -6.6254056    35.719106  0.032006367  0.036965019            2 
   94000    1.2083642   -6.6362749    36.014892  0.031928096  0.036938382            3 
   95000    1.1902263    -6.663601    36.364667  0.031898831  0.036911624            3 
   96000    1.2303149   -6.6539529     36.78239  0.031929158  0.036886112            2 
   97000    1.2414808   -6.6212924    37.590495  0.032294239  0.036871108            1 
   98000    1.2484654   -6.6328605    37.912907  0.032238867  0.036863789            3 
   99000    1.2212457   -6.6978738    38.302434  0.032241106  0.036851578            4 
  100000    1.2538034    -6.673878    38.643351  0.032202792  0.036833565            2 
  101000    1.2218786    -6.647782    39.269113  0.032400258  0.036821613            5 
  102000    1.2137285   -6.6264781    39.877978  0.032580048  0.036817934            2 
  103000    1.2092813   -6.6140032    40.113631  0.032454394  0.036817035            2 
  104000    1.2343447   -6.5921798    40.522209  0.032469719  0.036805962            3 
  105000    1.2072715    -6.600283    40.912696  0.032470393  0.036797221            1 
  106000    1.2134024   -6.6367095    41.218498  0.032404479  0.036783114            3 
  107000    1.2044246    -6.649724    41.657711    0.0324437  0.036766093            3 
  108000    1.2001484   -6.6186671     42.33008  0.032662099  0.036752797            3 
  109000    1.2052532   -6.6405969    42.635097   0.03259564   0.03674007            3 
  110000    1.1971053   -6.5979891    43.115069  0.032662931  0.036729012            1 
  111000    1.1987917   -6.6276228    43.312378    0.0325168  0.036709053            2 
  112000    1.2302339   -6.6388987    43.782116  0.032575979  0.036689952            2 
  113000    1.2027994   -6.6507245    44.171303  0.032574707  0.036671341            4 
  114000    1.2105741   -6.6711052    44.479818  0.032514487   0.03664963            2 
  115000    1.2215117    -6.602957    45.162124  0.032726177  0.036633157            3 
  116000    1.1864349   -6.6426777    45.625492  0.032776934  0.036616038            1 
  117000    1.2058987   -6.6977677    45.621961  0.032494274   0.03659798            2 
  118000    1.2291904   -6.6180997    46.214027  0.032637025  0.036578821            2 
  119000    1.2090754   -6.6516245    46.726596  0.032721705  0.036557322            3 
  120000    1.2085215   -6.6317762    47.056422  0.032678071  0.036536148            3 
  121000    1.2039775   -6.6472865    47.309123  0.032582041  0.036511124            3 
  122000    1.2297183   -6.6728957    47.709386  0.032588378   0.03648292            1 
  123000    1.2295888   -6.6198823    48.028578  0.032539687  0.036455252            2 
  124000    1.2062538   -6.6649141    48.160652  0.032366029  0.036421698            2 
  125000     1.177878   -6.6607984    48.714011  0.032476007  0.036383516            2 
  126000    1.2280901   -6.6783156    48.917539   0.03235287  0.036340698            5 
  127000    1.1904268   -6.6802506    49.455339   0.03245101   0.03630343            1 
  128000    1.1917662   -6.6731512    49.832395  0.032442965  0.036270452            5 
  129000    1.1903827   -6.6958289    50.662634    0.0327278  0.036244638            2 
  130000    1.2294036   -6.6898893     50.75398  0.032534603   0.03621823            2 
  131000    1.2147587   -6.6486392     51.29612   0.03263112  0.036187535            2 
  132000    1.2097991   -6.6708802    51.614982  0.032585216  0.036155417            3 
  133000    1.2099282   -6.6377536    52.144894   0.03267224  0.036125107            2 
  134000    1.2152295   -6.6302328    52.507014  0.032653616  0.036100093            2 
  135000    1.2124985   -6.6845111    52.521262  0.032420532  0.036066466            3 
  136000     1.184152   -6.6789556     53.03186  0.032495012  0.036030566            1 
  137000    1.2022081   -6.6802389    53.239783  0.032384296  0.035992508            3 
  138000    1.1851267    -6.670958    53.911936  0.032555517  0.035961386            2 
  139000    1.2046649   -6.6776975     54.27223  0.032537308  0.035931128            3 
  140000    1.1917162   -6.6253736    54.820953   0.03263152  0.035900899            3 
  141000    1.1933219   -6.6545439    55.210176  0.032630127  0.035871541            2 
  142000    1.1798651   -6.6671233    55.570373  0.032611721  0.035844773            2 
  143000    1.1716251   -6.6552623    55.681909  0.032448665  0.035812107            2 
  144000     1.203066   -6.6939128    56.017522  0.032417547  0.035778385            3 
  145000    1.1638815   -6.6694579     56.53312  0.032490299   0.03574354            2 
  146000    1.2033844   -6.7017408    56.964566  0.032514022  0.035711202            2 
  147000    1.2253832    -6.659524    57.498991    0.0325958  0.035685454            2 
  148000    1.2210792    -6.700939    57.908281  0.032606014  0.035660302            1 
  149000    1.1775809   -6.6738192    58.450488  0.032690429  0.035638231            4 
  150000    1.1790619   -6.7112678    58.868722  0.032704846   0.03561804            2 
  151000    1.1828133   -6.7210738    59.573271  0.032877081   0.03560492            6 
  152000    1.2186097    -6.711547    60.026346  0.032909181  0.035594255            2 
  153000    1.1972021   -6.6766227    60.523634  0.032964942  0.035583609            3 
  154000     1.198811   -6.6806838     60.92624  0.032968744  0.035573822            2 
  155000    1.2102713   -6.7578352    60.929886  0.032758003   0.03556302            2 
  156000    1.2227241   -6.6841648    61.769341  0.032996442  0.035553021            1 
  157000    1.1808625   -6.7247101    61.884113  0.032847194  0.035538256            4 
  158000    1.2007841   -6.7224552    62.015453  0.032708572  0.035520084            1 
  159000    1.2010433   -6.7180624    62.733517  0.032879202  0.035503763            2 
  160000    1.1799784    -6.701015    62.820997  0.032719269  0.035485325            2 
  161000    1.1846279   -6.6913296     63.27299  0.032749994  0.035466993            2 
  162000    1.1939918   -6.6664644    63.715578  0.032775503   0.03544884            1 
  163000    1.1901752   -6.6872871    64.009026  0.032724451  0.035429874            3 
  164000    1.1831079   -6.7002746    64.532542  0.032790926  0.035412262            2 
  165000    1.1812287   -6.6931386    64.824099  0.032739444  0.035395489            3 
  166000    1.1893661   -6.7401067    64.954938  0.032607901  0.035374277            3 
  167000     1.188644   -6.7230206    65.552495  0.032710826  0.035352629            2 
  168000    1.1799673   -6.7006133    65.970841  0.032723632  0.035332436            3 
  169000    1.1671702   -6.7107092     66.53585  0.032808604  0.035312612            4 
  170000    1.1705821   -6.7274744    66.515068  0.032605425  0.035290495            2 
  171000     1.200373   -6.6966734    67.269448  0.032782382  0.035268238            2 
  172000     1.209711   -6.7357075    67.017059  0.032469505  0.035245151            5 
  173000    1.2062047   -6.7159373    67.447316  0.032489073    0.0352169            3 
  174000    1.1589277   -6.7541733    67.487197  0.032321454  0.035186817            2 
  175000    1.1574853   -6.7152831    68.158976  0.032456655   0.03515848            5 
  176000    1.1843716   -6.7628191    68.169996   0.03227746   0.03512784            2 
  177000    1.1816811   -6.7208418    68.821236  0.032401712  0.035095898            2 
  178000    1.1989371   -6.6756242    69.547522  0.032559701  0.035069415            4 
  179000    1.1879618   -6.7092284    70.009997  0.032593108  0.035044472            2 
  180000    1.1705666   -6.7200909    70.438419  0.032610379  0.035017903            2 
  181000    1.1671091   -6.7112006    70.699457  0.032550394  0.034993924            2 
  182000    1.1839341   -6.7055473    70.615502  0.032333105  0.034968672            4 
  183000    1.1604442   -6.7185386      71.1915  0.032418716  0.034942009            5 
  184000    1.1675906   -6.7282089    71.727156  0.032485125  0.034916293            2 
  185000     1.211843    -6.698256    72.031806   0.03244676  0.034888897            3 
  186000    1.1951113   -6.7299773    72.686579  0.032565672  0.034865968            3 
  187000    1.1792725   -6.7522014    72.645327   0.03237314  0.034842278            4 
  188000    1.1663674   -6.7374262    73.008922  0.032362111  0.034816035            2 
  189000    1.1870955    -6.693456    73.612458  0.032456992  0.034791486            2 
  190000    1.1909457   -6.7440876    73.800795  0.032368769  0.034766608            2 
  191000    1.1705925   -6.7659266    74.137815  0.032346341  0.034741854            4 
  192000    1.1709561    -6.748879    74.418653  0.032299762  0.034715719            3 
  193000    1.1990675   -6.7317693    74.780976   0.03228885  0.034692425            2 
  194000    1.1558022   -6.7258675    75.441712  0.032406233  0.034669132            2 
  195000    1.1815795   -6.7089121    76.208204  0.032567609   0.03464552            1 
  196000     1.144695   -6.6831521    76.319354  0.032448705  0.034623036            3 
  197000    1.1806171   -6.7767743    76.255629  0.032257034  0.034598127            3 
  198000    1.1772354   -6.7460305    76.844258  0.032341859  0.034576649            5 
  199000    1.1677914   -6.7532755    77.011978  0.032249572  0.034551318            2 
  200000    1.1532613   -6.7050845    77.528241  0.032303434    0.0345252            3 
  201000    1.1905475   -6.7892133    77.551916  0.032152536  0.034497905            2 
  202000    1.1831028   -6.7292302    78.267865  0.032288723  0.034471592            4 
  203000    1.1629609   -6.7460901    78.368493  0.032170974  0.034446327            6 
  204000    1.1577176   -6.8032292    78.601828   0.03210859  0.034419113            2 
  205000    1.1654177   -6.7482849    79.010414  0.032118054  0.034390777            5 
  206000      1.15477   -6.7466657    79.334246  0.032093142  0.034361126            1 
  207000    1.1692717    -6.756365    79.564733  0.032030891  0.034331323            2 
  208000      1.19374     -6.74447    79.563294   0.03187632  0.034302277            3 
  209000    1.1806058   -6.7550156    79.983856   0.03189149  0.034272602            3 
  210000    1.1624041   -6.7329285    80.633618  0.031997468  0.034240712            2 
  211000    1.1974883   -6.7393959    80.375545  0.031743896  0.034207016            3 
  212000    1.1576257   -6.7849094    80.825329  0.031770963   0.03417054            3 
  213000    1.1738725   -6.7897639    81.084302  0.031723123  0.034133574            2 
  214000    1.1654883   -6.7362593    81.578994  0.031767521  0.034098115            2 
  215000    1.1608936    -6.740119    82.039126  0.031798111  0.034067052            2 
  216000    1.1513316    -6.778366    82.316512  0.031757914  0.034034201            2 
  217000    1.1578021    -6.763014    82.786887  0.031792199  0.034000563            4 
  218000    1.1714512   -6.7593393    82.683323  0.031606775  0.033965808            5 
  219000    1.1763903   -6.7949296    83.046466  0.031600634    0.0339315            2 
  220000     1.179389   -6.7629698    84.087764  0.031851426  0.033900206            2 
  221000     1.156654   -6.7181557     84.19023  0.031745939  0.033871383            3 
  222000    1.1614836   -6.7202202    84.924468  0.031878554  0.033840334            6 
  223000    1.1746275   -6.7460103    85.136855  0.031814968  0.033812179            2 
  224000    1.1893521   -6.7446576    85.684342  0.031876615  0.033785694            2 
  225000    1.1790022   -6.7375811     85.84781  0.031795485  0.033759491            3 
  226000    1.1778394   -6.7696333    85.765548  0.031624464  0.033731186            5 
  227000    1.1381217   -6.7318676    86.613793  0.031796547  0.033703268            2 
  228000    1.1718601   -6.7731562     86.68754  0.031684042  0.033675431            2 
  229000    1.1754973   -6.7668292    87.079162  0.031688196  0.033646021            3 
  230000    1.1722071   -6.7304107    87.328006  0.031640582  0.033617379            2 
  231000    1.1931781   -6.7732463    87.512704   0.03157024  0.033588313            3 
  232000    1.1927467   -6.7721491    87.896237  0.031571924  0.033559646            2 
  233000    1.1676337   -6.7749207    88.485166  0.031647055  0.033531109            3 
  234000    1.1574903   -6.7381762    88.809024  0.031627145  0.033504232            3 
  235000    1.1399425   -6.7764214    89.204397  0.031632765  0.033477212            5 
  236000    1.1262579   -6.7982746    89.439765  0.031581838  0.033449673            3 
  237000    1.1435666   -6.7504188    90.003699   0.03164687   0.03342153            2 
  238000    1.1622531   -6.7740735    90.170773    0.0315724  0.033393655            1 
  239000    1.1521141   -6.7503278     90.14966  0.031432936  0.033365425            2 
  240000    1.1822585    -6.787937    90.331091  0.031364962  0.033336611            8 
  241000    1.1302005   -6.7574821    90.763305  0.031384269  0.033307611            2 
  242000    1.1551845    -6.782791    91.285914  0.031434543    0.0332785            5 
  243000    1.1577151   -6.7716757    91.590456  0.031409621   0.03325071            1 
  244000    1.1644616   -6.7818705    91.732146  0.031329285  0.033221669            3 
  245000    1.1638094   -6.7817223     92.24647   0.03137635  0.033192974            5 
  246000     1.146751   -6.8193903    92.438969  0.031314014  0.033164764            7 
  247000    1.1601305   -6.7588004    93.288166   0.03147374   0.03313583            2 
  248000     1.150979   -6.7583494    93.521029  0.031425077  0.033108344            2 
  249000    1.1571313   -6.8012271    93.318556   0.03123111  0.033080615            4 
  250000    1.1476302   -6.7874596    93.686423  0.031228808  0.033051945            4 
  251000      1.15408   -6.7852089    94.111917  0.031245656  0.033025008            2 
  252000    1.1381904   -6.8129534    94.205492   0.03115261  0.032997754            2 
  253000     1.156427   -6.7899649    95.012996  0.031295453  0.032970542            3 
  254000    1.1758549   -6.7849871    95.135741  0.031212513  0.032944705            4 
  255000    1.1537282   -6.8372921    95.364489  0.031164866  0.032917626            5 
  256000    1.1619468   -6.7681987    96.071343  0.031273224  0.032892076            5 
  257000    1.1234983   -6.8127354     95.97896  0.031121582    0.0328659            3 
  258000    1.1694821   -6.8305979    96.363673  0.031125217  0.032839628            6 
  259000    1.1173616   -6.8119535    96.741978  0.031126762  0.032813751           11 
  260000    1.1227918   -6.8171352    96.951564  0.031074219   0.03278561            6 
  261000    1.1679348   -6.7728395    97.427698  0.031107183  0.032756626            4 
  262000    1.1563692   -6.7627137    97.893737  0.031136685  0.032729919            4 
  263000    1.1535527   -6.8291918    97.979579  0.031045494  0.032704224            2 
  264000    1.1433352   -6.8065942    98.627627  0.031132458  0.032678767            2 
  265000    1.1170376   -6.7980817    98.693478  0.031035685  0.032652453            2 
  266000    1.1708978   -6.7318213    99.196721  0.031076667  0.032626524            3 
  267000    1.1519616   -6.8155813    99.277599  0.030985518  0.032601464            3 
  268000    1.1360908   -6.8091474    99.604738  0.030971622  0.032574426            2 
  269000    1.1485131   -6.8278801    99.766417  0.030906573  0.032547346            2 
  270000    1.1545795   -6.8633412    100.10459   0.03089648  0.032520481            3 
  271000    1.1081352   -6.7857668    100.37472  0.030865536  0.032493508            3 
  272000    1.1395928   -6.8902083    100.59925  0.030820848  0.032465697            7 
  273000    1.1529472   -6.8174739     101.1924  0.030889012  0.032437981            3 
  274000    1.1308914   -6.7776326    101.38835  0.030835873  0.032411298            3 
  275000    1.1355452   -6.8367492    101.71748  0.030823479  0.032383634            5 
  276000     1.136229   -6.8034831    102.10477  0.030828736  0.032356675            5 
  277000    1.1477297   -6.8772202    102.03398  0.030696144  0.032330752            3 
  278000    1.1214953   -6.8320829    102.25847  0.030653018  0.032303224            2 
  279000    1.1353371   -6.8132154    102.97536  0.030757275  0.032275356            2 
  280000    1.1379333   -6.8518226    102.54649   0.03051979  0.032246699            7 
  281000    1.1380346   -6.8137097    103.51156  0.030697378  0.032216316            2 
  282000    1.1218413   -6.8513555    103.38345  0.030550665  0.032186827            2 
  283000    1.1452456   -6.8062049    103.55794  0.030494093  0.032156557            3 
  284000    1.1386402    -6.861546    103.64038   0.03041091  0.032126295            2 
  285000    1.1512532   -6.8209288      104.226  0.030475439  0.032095519            3 
  286000    1.1420786    -6.833976    104.48248  0.030443613  0.032066577            2 
  287000    1.1288941   -6.9154265    104.02114  0.030203583   0.03203569            3 
  288000    1.1470184   -6.8318096    104.83257  0.030333498  0.032004756            2 
  289000    1.1609092   -6.8464169    105.04046  0.030288484  0.031974862            3 
  290000    1.1580156   -6.8352169    105.75817  0.030390279  0.031943776            2 
  291000    1.1385722   -6.8235959    105.93607  0.030336789  0.031913568            6 
  292000    1.1377185   -6.8319874    106.14046  0.030291227  0.031883407            2 
  293000    1.1304583   -6.8557454     106.2524  0.030219681  0.031852319            4 
  294000    1.1105538   -6.8346488    106.48612  0.030183142  0.031820127            5 
  295000    1.1651819   -6.8480367    106.75751  0.030157489  0.031788272            2 
  296000    1.1192809   -6.8251432    107.42503  0.030243533   0.03175659            3 
  297000    1.1427557   -6.8521237    107.31465  0.030110731  0.031724647            3 
  298000    1.1440902   -6.8667758     107.2805  0.030000141  0.031692474            2 
  299000    1.1299862   -6.8285377    108.01178  0.030103617  0.031660155            4 
  300000    1.1474916   -6.8283012    108.26591  0.030073863    0.0316287            3 
  301000    1.1302835   -6.8611571    108.20067  0.029955887  0.031597052            3 
  302000     1.119504   -6.8366198    108.91798  0.030054632  0.031566362            5 
  303000     1.139939   -6.8671114    108.87228  0.029942872  0.031535776            1 
  304000    1.1220793   -6.8222521    109.54909  0.030029905  0.031504947            5 
  305000    1.1311106   -6.8916888    109.23696  0.029846165  0.031473052            1 
  306000    1.1520323   -6.8272605    110.29684  0.030037267  0.031439945            4 
  307000    1.1477355   -6.8761603    109.97931  0.029853234  0.031408845            2 
  308000    1.1164758   -6.8474632    110.27137  0.029835327  0.031376422            3 
  309000    1.1060288   -6.8435488    110.73191  0.029862976  0.031344757            2 
  310000     1.127598   -6.8466425    110.91325  0.029815389    0.0313141            2 
  311000    1.1245134   -6.8560412    111.14957  0.029782842  0.031283738            2 
  312000    1.1251456   -6.8598651    111.34508  0.029739605  0.031252873            4 
  313000    1.1264574   -6.8925221    111.79038  0.029763147  0.031222371            3 
  314000    1.1350684    -6.871073    111.91983  0.029702716  0.031191019            5 
  315000     1.117328   -6.8850554    111.88301  0.029598681  0.031159177            2 
  316000    1.1177269   -6.9173045    112.37967  0.029635989  0.031128305            3 
  317000    1.1388351    -6.856748    112.82565   0.02965974  0.031096777            4 
  318000    1.1078852   -6.8739423    113.26263  0.029680981  0.031066352            3 
  319000    1.1343024   -6.8468068    113.52192  0.029655675  0.031035805            3 
  320000    1.1347405   -6.8691619    113.64315   0.02959457  0.031006211            1 
  321000    1.1077581   -6.8519217    114.09248  0.029619023   0.03097567            2 
  322000    1.1300662   -6.8392295    114.21325  0.029558295  0.030945427            5 
  323000    1.1368054   -6.8804987    114.56847  0.029558428  0.030915019            2 
  324000    1.0987195    -6.855582    115.06268  0.029594311  0.030885555            1 
  325000    1.1322919   -6.8777674    115.24469   0.02954992  0.030854763            2 
  326000    1.1054213   -6.9016721    115.29069  0.029471035   0.03082455            1 
  327000    1.1111602   -6.8695296    115.57501  0.029453368  0.030793978            3 
  328000    1.1121884   -6.9007034    115.34591  0.029305364  0.030763884            2 
  329000    1.1332748    -6.890375    116.17927  0.029427372   0.03073481            7 
  330000    1.1255835   -6.8567613    116.72732  0.029476595  0.030705185            3 
  331000    1.1280092   -6.8506894    117.31632   0.02953583  0.030677341            4 
  332000    1.1172246   -6.8271446    117.63121  0.029525906   0.03065122            4 
  333000    1.1345612   -6.8612234    117.69465  0.029453115  0.030624532            2 
  334000    1.1261668   -6.8981095    118.03114  0.029448888  0.030598559            5 
  335000    1.1270405   -6.8748895    118.10522  0.029379407   0.03057205            3 
  336000    1.1275546   -6.8506415    118.86149  0.029479535  0.030546064            9 
  337000     1.134327   -6.9077231    118.89663  0.029400749  0.030519645            3 
  338000     1.115722    -6.892249    119.33926  0.029422894   0.03049252            5 
  339000    1.1240569   -6.8723638    119.69559  0.029423695  0.030465684            2 
  340000    1.0968116   -6.8924789    119.41809  0.029269139  0.030440228            2 
  341000    1.1367403   -6.8408927    120.36242  0.029414081  0.030414774            2 
  342000    1.1079158   -6.8678888     120.6605  0.029400707  0.030389883            2 
  343000    1.1131581   -6.8818605    121.03704  0.029406472  0.030364772            4 
  344000    1.1367324   -6.8988888     121.0118  0.029314875  0.030339888            3 
  345000    1.1153595   -6.8474196    122.11038   0.02949526  0.030315345            3 
  346000    1.1068233   -6.9325497     121.5531  0.029275796  0.030291569            2 
  347000    1.1214746   -6.9066127    122.16027  0.029337241  0.030267404            5 
  348000    1.1105462   -6.9076004    122.18758  0.029259479  0.030242527            2 
  349000    1.1435862   -6.9119678    122.55749  0.029263967  0.030217685            4 
  350000    1.1374366   -6.9926239    122.23496  0.029103561   0.03019257            6 
  351000    1.1135463   -6.8917616    123.09721  0.029225358  0.030168092            2 
  352000    1.1336059   -6.8787573    123.74918  0.029296682  0.030145689            3 
  353000    1.1021605   -6.8936946    124.12097  0.029301455  0.030123835            5 
  354000    1.1028275   -6.8894742    124.61034  0.029333885  0.030102244            4 
  355000    1.1166084   -6.8734249    125.17952  0.029384864  0.030080794            3 
  356000      1.09504   -6.9018952    125.50387  0.029378247  0.030059408            2 
  357000    1.1423421   -6.8996651    125.46103  0.029285954  0.030037433            4 
  358000    1.1154043    -6.920603    125.35577  0.029179649  0.030014837            2 
  359000    1.1296311   -6.9217126    125.60045  0.029155165  0.029992312            3 
  360000     1.103115   -6.9197451    125.97338  0.029160506  0.029969204            8 
  361000    1.1055672   -6.9585711    126.49198   0.02919944  0.029946689            3 
  362000    1.1029299   -6.8827486    126.53208   0.02912801  0.029924456            6 
  363000    1.1401892   -6.9115004    126.69304  0.029084719   0.02990178            4 
  364000    1.1155107   -6.8770176    127.24048  0.029130146   0.02987959            2 
  365000    1.1044374   -6.9131812    126.81793  0.028953864   0.02985576            3 
  366000    1.1037012   -6.9524635    127.09978   0.02893893  0.029831839            4 
  367000    1.1222567   -6.9604239    126.90336  0.028815478  0.029807923            7 
  368000      1.10655    -6.930047    127.64206  0.028904451  0.029784624            3 
  369000    1.1247697   -6.9178022    128.27201  0.028968386  0.029761516            2 
  370000    1.1026503   -6.8943673    129.05749  0.029067002  0.029738954            3 
  371000    1.1100167   -6.9291067     128.6523  0.028897641  0.029716038            4 
  372000    1.1229894   -6.9563172     128.6896  0.028828316  0.029693247            2 
  373000    1.0871603   -6.9442336    128.73841  0.028761934   0.02967017            2 
  374000    1.1061263   -6.8800863     129.3745  0.028826761  0.029646684            3 
  375000    1.1335462   -6.9127208    129.77733  0.028839407  0.029622608            5 
  376000    1.0809472   -6.9085005    129.91565  0.028793362  0.029599301            5 
  377000    1.1287762   -6.9359697    130.22943  0.028786346  0.029576282            4 
  378000    1.1250805   -6.9316774    130.19311  0.028702184  0.029553098            4 
  379000     1.097582   -6.9390607    130.49837  0.028693572  0.029529099            4 
  380000    1.0940402   -6.9751514    130.14057  0.028539598  0.029505294            8 
  381000    1.1009608   -6.9600309    130.31988  0.028503911  0.029480772            2 
  382000    1.1239633   -6.9510304    131.14094  0.028608407  0.029455931            6 
  383000    1.1193814   -6.9213757    131.44198  0.028599212  0.029432615            7 
  384000    1.0671914   -6.9566109     131.7072  0.028582291  0.029409224            2 
  385000    1.0758563   -6.9770459    131.69465  0.028505335  0.029385473            2 
  386000    1.1125598   -6.9496751    132.31743  0.028565939  0.029362429            5 
  387000    1.1018563   -6.9370522    133.41285  0.028728003  0.029339954            4 
  388000    1.0809476   -6.9306778    133.08812  0.028584218  0.029317853            2 
  389000    1.0707569   -6.9440344    133.33693  0.028564038  0.029294896            2 
  390000     1.109409   -6.9291433    134.16159  0.028667007  0.029272875            4 
  391000     1.084395   -6.9210258    134.11736  0.028584263  0.029251706            3 
  392000    1.0953593   -6.9669958    134.43146  0.028578116   0.02923014            4 
  393000    1.1044906   -6.9597792    134.65795  0.028553425  0.029208884            4 
  394000    1.1063344    -6.950504    134.70495  0.028490895  0.029187447            4 
  395000    1.1013136   -6.9620383    135.08955  0.028499906  0.029166331            4 
  396000    1.0880041    -6.921064    135.69209  0.028554732  0.029144991            3 
  397000    1.0766409   -6.9698627    135.78746  0.028502825  0.029123939            4 
  398000     1.117771   -6.9263655    135.96105  0.028467557  0.029103069            3 
  399000    1.1073437   -6.9463336     136.4314  0.028494445  0.029081585            3 
  400000    1.1220718   -6.9975295    135.89666  0.028311804  0.029059595            2 
  401000    1.0778947   -6.9480768    136.90866  0.028451509  0.029037535            3 
  402000    1.0736302   -6.9536759    137.01644  0.028403075   0.02901605            6 
  403000    1.1013731   -6.9827947    137.41312  0.028414623  0.028995279            3 
  404000    1.0996543   -7.0004781    137.27631  0.028316071  0.028973853            4 
  405000    1.1091919   -6.9553775    137.87485  0.028369311  0.028952599            3 
  406000    1.1065036   -6.9766374    137.65811  0.028254949  0.028931474            3 
  407000    1.0992162   -6.9398373    138.18674  0.028293764  0.028909606            3 
  408000    1.0945379   -6.9811749    138.45809  0.028279838  0.028888705            3 
  409000     1.112381   -6.9608016    139.11015  0.028343552  0.028868161            3 
  410000    1.0887927   -6.9641151    139.21703  0.028296144  0.028847034            2 
  411000    1.1117045   -6.9512662    139.52995  0.028290744  0.028826491            2 
  412000    1.0714302   -6.9850446    139.15409  0.028146053  0.028805645            7 
  413000    1.0955455   -6.9993073    139.54828   0.02815744  0.028784863            3 
  414000    1.1087955   -7.0094679    139.93523  0.028167318  0.028763889            6 
  415000    1.0738118   -6.9931204    140.53831  0.028220544   0.02874387            3 
  416000    1.0729756   -6.9939566    140.37432  0.028119857  0.028723089            3 
  417000     1.101033   -6.9761775    140.45869  0.028069283  0.028702502            3 
  418000    1.0960015   -6.9479769    141.51714  0.028213146  0.028681961            2 
  419000    1.0850551   -6.9548889    140.83013  0.028009175   0.02866174            2 
  420000    1.0588944   -6.9602024    141.42289  0.028060096  0.028640749            6 
  421000    1.1038348    -6.954253    141.77331  0.028062809   0.02861989            3 
  422000    1.1063997   -6.9859764    142.16285  0.028073233  0.028599297            2 
  423000    1.1105447   -6.9732724     142.0604  0.027986683  0.028578434            5 
  424000    1.0667063   -6.9674738    142.96121  0.028097722  0.028557706            3 
  425000    1.1029469   -6.9759556     143.1556  0.028069726  0.028537207            4 
  426000    1.0761664     -6.97468     143.2674  0.028025704  0.028516892            2 
  427000    1.0908177   -6.9766829    143.19302  0.027945554  0.028497039            4 
  428000    1.1076922   -7.0283298    143.36806  0.027914342  0.028476886            6 
  429000    1.0684531   -6.9904963    143.66843   0.02790762  0.028456639            2 
  430000    1.0815825   -6.9735161    144.67607  0.028037998  0.028436905            4 
  431000    1.0697293   -6.9729617    144.27632  0.027895654  0.028417263            2 
  432000    1.1010323   -6.9959838    144.56138  0.027886069  0.028397356            3 
  433000     1.076813   -6.9642585    145.01735  0.027909421  0.028377211            2 
  434000    1.0795746   -6.9705284    145.10635  0.027862202  0.028357304            4 
  435000    1.0796632   -6.9952758    145.00245  0.027778247  0.028337187            3 
  436000      1.05817   -7.0105335    144.66522   0.02765008  0.028315758            3 
  437000    1.0577884    -7.033301    144.91736  0.027634888  0.028294054            2 
  438000    1.0893001   -7.0034828    145.55211  0.027692562  0.028272029            6 
  439000    1.0892003    -7.010921    145.90356  0.027696196  0.028250941            4 
  440000    1.0748157   -6.9563734    146.87812  0.027817825  0.028230113            5 
  441000    1.0935358   -6.9998203    146.68752  0.027718729  0.028209524            4 
  442000    1.0881267   -6.9930847     146.7367   0.02766529  0.028189146            2 
  443000     1.069989   -7.0155965    146.79853  0.027614472  0.028168321            3 
  444000    1.0881916   -7.0389592    146.84136  0.027560316  0.028147903            4 
  445000    1.0593536   -6.9834203    147.70632   0.02766036  0.028127521            4 
  446000    1.0609267   -7.0303545    147.36933  0.027535375  0.028106916            3 
  447000    1.0958499   -7.0595279     147.3677  0.027473472  0.028085082            3 
  448000    1.0896001   -6.9961845    147.72942  0.027479431  0.028063835            3 
  449000    1.0521367   -6.9530062    149.39105  0.027726623  0.028043477            7 
  450000    1.0709432   -7.0189787    148.32901  0.027468335   0.02802281            5 
  451000    1.0807675   -6.9846335    149.46027  0.027616457  0.028002428            5 
  452000    1.0772769   -7.0307264    149.27999  0.027522121  0.027982595            4 
  453000     1.073117   -7.0303217    148.84284  0.027380949  0.027962485            1 
  454000    1.0715975   -7.0472218    149.21418    0.0273888  0.027941668            2 
  455000    1.0739407   -7.0044714      150.019  0.027476007  0.027920967            6 
  456000    1.0945296   -7.0294415    149.95791  0.027404589  0.027900695            3 
  457000    1.0899896   -7.0268027    150.26652  0.027400898  0.027880301            3 
  458000    1.0748103   -6.9964781    151.24718  0.027519501  0.027859975            5 
  459000    1.0604281   -6.9920517    151.23865  0.027457998   0.02784003            1 
  460000    1.0721137   -7.0500072    150.98478  0.027352315   0.02782045            5 
  461000    1.0572927   -6.9844499    151.60286  0.027404711  0.027801022            7 
  462000    1.0357185   -7.0668675    151.51401  0.027329367  0.027781199            2 
  463000    1.0777735   -7.0346783    152.64455  0.027473821  0.027761739            4 
  464000    1.0542442   -7.0098749     152.7781  0.027438595  0.027743824            3 
  465000    1.0784166   -7.0305838     152.8248  0.027387958  0.027725493            4 
  466000    1.0550383   -7.0669887    152.60847  0.027290499   0.02770659           11 
  467000    1.0746958   -7.0288869    153.28002  0.027351895  0.027687848           10 
  468000    1.0719852   -7.0032217    153.76993  0.027380685  0.027669329            4 
  469000    1.0438415   -7.0053829    153.69216  0.027308486   0.02765058            2 
  470000    1.0802962   -6.9546506    154.27921   0.02735447  0.027632517            1 
  471000    1.0751964   -7.0501235    153.86281   0.02722272  0.027613903            5 
  472000    1.0503796   -7.0648573    154.30484  0.027243086  0.027594559            6 
  473000     1.102927   -7.0227486    154.76312  0.027266229  0.027575537            5 
  474000    1.0446607   -7.0280031    154.55138  0.027171481  0.027556397            3 
  475000    1.0504915   -7.0645168     154.9751  0.027188614  0.027537187            3 
  476000    1.0391188   -7.0555081    155.10066  0.027153477  0.027517601            5 
  477000    1.0971527   -7.0177162     155.4578  0.027158944  0.027498781            3 
  478000    1.0578136   -7.0528637    155.50244   0.02710991  0.027480199            2 
  479000    1.0594135   -7.0366905     156.0282   0.02714478  0.027461434            3 
  480000    1.0649452   -7.0774799    155.61337  0.027016211  0.027442273            3 
  481000     1.082038   -7.0419782    156.27085  0.027073951   0.02742334            3 
  482000    1.0698327   -7.0562576    156.13172  0.026993727  0.027404015            4 
  483000    1.0648764   -7.0572582    156.52851  0.027006299  0.027384584            5 
  484000    1.0630357    -7.054365    156.65007   0.02697143  0.027365506            7 
  485000    1.0774849    -7.060462    156.88164  0.026955609  0.027346205            5 
  486000    1.0410391   -7.0500546     157.7629  0.027051252  0.027327211            4 
  487000     1.046663    -7.057009    157.61282  0.026970023  0.027308387            7 
  488000    1.0504796   -7.0402687    157.84706  0.026954757  0.027289138            2 
  489000    1.0625459   -7.0561247    157.77609  0.026887541  0.027270117            3 
  490000    1.0760525   -7.0380143    158.33127  0.026927086  0.027251144            2 
  491000    1.0569518   -7.0567436    158.79603  0.026951124  0.027232242            3 
  492000    1.0577311   -7.0718409    158.43554  0.026835288  0.027213261            6 
  493000    1.0812285   -7.0742145     158.8231  0.026846366    0.0271939            5 
  494000     1.036863   -7.0906013    159.13443   0.02684454  0.027175096            6 
  495000    1.0327056   -7.0336188    160.12183  0.026956537  0.027156185            4 
  496000    1.0540063   -7.0830677    159.59984   0.02681449  0.027137352            4 
  497000    1.0582851   -7.0490144    160.14143  0.026851347  0.027118596            2 
  498000    1.0705001    -7.044234    160.37535  0.026836571  0.027100005            5 
  499000    1.0414882   -7.0855935     160.4282  0.026791616  0.027081483            4 
  500000    1.0636761   -7.0962774     160.5723  0.026762051  0.027062688            9 
  501000    1.0400592   -7.0739471    160.96607  0.026774131  0.027044019            3 
  502000    1.0502033   -7.0642284    161.17162  0.026754917  0.027025562            4 
  503000    1.0530667   -7.0263797     161.4612  0.026749702  0.027007104            3 
  504000     1.059103   -7.0735572    160.84041  0.026593983  0.026988605            6 
  505000    1.0489701   -7.0656968    161.94952  0.026724343  0.026970187            5 
  506000    1.0380011   -7.0556681    162.20242  0.026713178  0.026951761            5 
  507000    1.0502283   -7.0736436     162.3007  0.026676644  0.026933385            4 
  508000    1.0545656   -7.0694227    162.20441  0.026608335  0.026915001            3 
  509000     1.077846   -7.0481658    162.67191  0.026632598   0.02689651            3 
  510000    1.0414285   -7.0488757    163.41387  0.026701613  0.026878221            2 
  511000    1.0621333   -7.0529947    163.08942  0.026596448  0.026859375            4 
  512000    1.0483714   -7.0407388    163.29618  0.026578154  0.026840372            7 
  513000    1.0554592   -7.0499684    163.80642   0.02660923  0.026821743            8 
  514000    1.0265458   -7.0530436    163.43381  0.026497051  0.026802594            5 
  515000     1.026301   -7.0831226    163.48427  0.026453766  0.026783036            1 
  516000    1.0722839   -7.1056594    163.62416   0.02642509  0.026763151            6 
  517000    1.0244912   -7.0960696    164.18095  0.026463725  0.026743686            3 
  518000    1.0316818   -7.1087142    164.10409  0.026400273  0.026724166           10 
  519000    1.0456482   -7.0988407    164.59354  0.026427992  0.026704797            4 
  520000    1.0265163    -7.051332    164.86312  0.026420372  0.026685608            4 
  521000    1.0573622   -7.0866422    165.43277  0.026460775  0.026667172            3 
  522000    1.0501514   -7.0870489    165.11778  0.026359798  0.026648162            4 
  523000    1.0529079   -7.0958657    164.92569  0.026278791  0.026628849            5 
  524000    1.0491888   -7.1377977    165.06753  0.026251198  0.026609386            5 
  525000     1.045163   -7.0872086    165.46761    0.0262647  0.026589897            3 
  526000    1.0416299   -7.0839278    165.70044  0.026251655  0.026571087            3 
  527000    1.0478827   -7.1017937    165.64678  0.026193355  0.026551868            2 
  528000    1.0140424   -7.0979519    166.15217  0.026223512  0.026532782            3 
  529000    1.0438441   -7.1121381    166.16349  0.026175723  0.026513542            6 
  530000    1.0368143   -7.0932928    166.69927  0.026210577   0.02649478            3 
  531000    1.0568254   -7.0768198    166.78978   0.02617542  0.026475802            3 
  532000    1.0474421   -7.1319047    167.29714  0.026205692  0.026457084            2 
  533000    1.0508352   -7.0817693    167.25195   0.02614946  0.026438362            3 
  534000    1.0207543   -7.1336081    167.47355  0.026135073  0.026419808            4 
  535000    1.0409692   -7.0950529    167.63434  0.026111267  0.026400839            2 
  536000    1.0269955   -7.0768159    168.15477  0.026143465  0.026382119            5 
  537000    1.0354335   -7.1078563    168.47473  0.026144434  0.026363401            5 
  538000    1.0298828   -7.1118896    168.13816  0.026043705  0.026344726            4 
  539000    1.0057681   -7.1078914     168.2392  0.026011008  0.026325788            3 
  540000    1.0413781   -7.0882125    169.11296   0.02609768  0.026306771            2 
  541000    1.0437804   -7.1536291    168.25536  0.025917338   0.02628762            8 
  542000    1.0370354      -7.1762     168.8104  0.025954859  0.026267889            2 
  543000    1.0335872   -7.1149943    169.40457  0.025998247  0.026248487            6 
  544000    1.0597847   -7.1315262    169.10376  0.025904374  0.026228944            8 
  545000    1.0164497   -7.1745564    168.78399   0.02580795  0.026209305            2 
  546000    1.0427759   -7.1303289    169.45355  0.025862874  0.026189551            5 
  547000    1.0568256   -7.1251007    169.93213  0.025888502  0.026170559            6 
  548000     1.024065   -7.1283536    170.77213  0.025968997  0.026151672            3 
  549000    1.0332166   -7.0957431     170.7512  0.025918519  0.026132554            5 
  550000    1.0240266   -7.1309874    170.66436  0.025858237  0.026113463            7 
  551000    1.0279768   -7.1062502    171.40166  0.025922815  0.026094824            3 
  552000     1.013983    -7.119001    170.77657  0.025781487  0.026075898            5 
  553000    1.0466169   -7.1253526     170.8176  0.025741048  0.026056554            6 
  554000    1.0354822   -7.1347817    171.74825  0.025834574  0.026037406           10 
  555000    1.0454209   -7.1074404     171.8511  0.025803468  0.026018574            4 
  556000    1.0200597   -7.1490517    171.21726   0.02566206  0.025999566            5 
  557000    1.0131485     -7.16478    170.93455  0.025573691  0.025980215            4 
  558000    1.0223674   -7.1624214     170.9733  0.025533646  0.025960686            2 
  559000    1.0368694   -7.1716472    171.40045  0.025551647  0.025941139            2 
  560000    1.0455834   -7.1543586    171.79887  0.025565309  0.025921207            6 
  561000    1.0426894     -7.16949    171.79973  0.025519865  0.025901152            5 
  562000    1.0262968   -7.1538661     172.5118  0.025580041  0.025881564            5 
  563000    1.0338012   -7.1287998     172.7008  0.025562581  0.025862184            4 
  564000    1.0323588   -7.1342231    173.08759  0.025574407  0.025843025            3 
  565000    1.0080071   -7.1383248    173.25131   0.02555329  0.025823734            7 
  566000    1.0348703   -7.1790614    173.54299  0.025551088  0.025804368            6 
  567000    1.0169499   -7.1025028    173.88393  0.025556133  0.025784605            6 
  568000    0.9987699   -7.1481167    173.56039  0.025463672  0.025765245            4 
  569000    1.0209723   -7.1506135    174.09437  0.025497125  0.025745746            1 
  570000    1.0228222    -7.159621    173.84016  0.025415228  0.025726546            3 
  571000   0.99921311   -7.1152526    174.87367  0.025521551  0.025707443            3 
  572000    1.0097809   -7.1079488    175.21998  0.025527386  0.025688573            4 
  573000   0.98705739   -7.1246729    175.05243  0.025458469  0.025669695            2 
  574000    1.0219604   -7.1682553    174.77096  0.025373251  0.025650627            9 
  575000    1.0241064   -7.0948111    176.13368   0.02552662  0.025631856            6 
  576000     1.027481     -7.12685    175.55183  0.025398123     0.025613            5 
  577000    1.0361117   -7.1408597    175.77376  0.025386159  0.025594407            4 
  578000    1.0031451   -7.1235951    176.02168  0.025377981  0.025575615            5 
  579000    1.0327034   -7.1611725    176.16406  0.025354644  0.025556458            6 
  580000    1.0278899   -7.1211419    176.48107  0.025356475   0.02553748            4 
  581000    1.0225932   -7.1470755    176.30163  0.025287095  0.025518651            4 
  582000    1.0353052   -7.1358678    176.57388  0.025282628  0.025499527            4 
  583000    1.0218873   -7.1725416    176.43587  0.025219536  0.025480674            7 
  584000    1.0128418   -7.1965713    176.13177  0.025132958  0.025461297            5 
  585000    1.0190875   -7.1682956    176.75764   0.02517915  0.025442366            4 
  586000    1.0356384    -7.149623     177.0037  0.025171175  0.025423366            5 
  587000    1.0197934   -7.1803388    177.18314  0.025153768  0.025403914            4 
  588000    1.0367193   -7.1772854    177.36871  0.025137288   0.02538481            5 
  589000    1.0419937   -7.1858439    177.52962  0.025117377  0.025365328            9 
  590000    1.0150878   -7.1685186    178.05733   0.02514934  0.025346004            3 
  591000    1.0080959    -7.209809    177.96723  0.025094082  0.025327025            6 
  592000    1.0085182   -7.1505747     178.0446  0.025062584  0.025308294            5 
  593000    1.0025669   -7.1879698    178.48535  0.025082258  0.025289199           10 
  594000     0.995304   -7.1484997    178.24192  0.025005881   0.02527018            3 
  595000    1.0184677   -7.1844683    178.34394  0.024978143  0.025250861            4 
  596000    1.0046527    -7.174684    178.93889   0.02501942  0.025231571            3 
  597000     1.009098   -7.1558811     179.0779  0.024996914  0.025212357            4 
  598000    1.0282352   -7.1821226    179.01667  0.024946581   0.02519307            9 
  599000    1.0258252   -7.1974565    179.64437   0.02499226  0.025174175            7 
  600000   0.98079144   -7.1510012    179.63429  0.024949207  0.025155365            4 
  601000    1.0192455   -7.1760248    179.93321  0.024949141  0.025136304            6 
  602000    1.0313522   -7.1921576    179.88468  0.024900981  0.025117467            8 
  603000    1.0238664   -7.2102516     179.5127  0.024808278   0.02509828            7 
  604000    1.0131916   -7.1811184    180.48093  0.024900791  0.025078854            4 
  605000    1.0231717   -7.1606256     180.2408  0.024826556  0.025059883            5 
  606000    1.0097444   -7.1963779    180.27921   0.02479087  0.025040703           11 
  607000    1.0423423   -7.1906582    180.37012   0.02476251  0.025021253            3 
  608000    1.0127451   -7.1540154    180.69698  0.024766582  0.025001662            5 
  609000    1.0179871   -7.2218765    180.42479  0.024688669   0.02498198            8 
  610000    1.0122091   -7.1505221    181.35251  0.024774934  0.024962531            7 
  611000    1.0094379   -7.1729734    180.39306  0.024603526  0.024943074            3 
  612000     1.010996   -7.1534886    181.54205  0.024719778  0.024923889            8 
  613000    1.0045328   -7.1669588    181.12402  0.024622624  0.024904392            5 
  614000     1.003487   -7.2078346    181.36076  0.024614653  0.024884901            4 
  615000   0.98916357   -7.1842423    181.68198  0.024618155  0.024865483            2 
  616000    1.0121093   -7.1286071    182.42396  0.024678566  0.024846344            2 
  617000    1.0088328    -7.154763    181.94648  0.024574079  0.024827439            2 
  618000    1.0350413   -7.2178489    182.54816  0.024615448  0.024808529            3 
  619000    1.0078565   -7.2224036    182.62466   0.02458598   0.02478941            3 
  620000    1.0123085   -7.2087498    182.34247  0.024508397  0.024770332            4 
  621000   0.98854017   -7.2142742    182.50822  0.024491172   0.02475088            4 
  622000    1.0038606   -7.2165447     182.7247  0.024480801  0.024731631            6 
  623000    1.0255137     -7.26899    182.51419  0.024413348  0.024711964            6 
  624000    1.0034552   -7.2309175    183.26091  0.024473947  0.024692184            5 
  625000   0.98230128    -7.224989    183.41752   0.02445567  0.024672478           17 
  626000    1.0099283   -7.2240367    182.92416  0.024350926  0.024652768            6 
  627000   0.99749589   -7.2375625    183.49337  0.024387743  0.024633382            3 
  628000   0.99515884   -7.2165427    184.14574  0.024435476  0.024614128            3 
  629000   0.98369631   -7.1831802    184.57674  0.024453729   0.02459508            6 
  630000   0.96828141   -7.2264586    183.97303  0.024335057  0.024576442            6 
  631000   0.99941566   -7.2507154    184.27198  0.024335972  0.024557429            3 
  632000    1.0017416   -7.2279861    184.46731  0.024323222  0.024538026            5 
  633000    1.0145104    -7.176558    184.72533  0.024318764  0.024519213            2 
  634000   0.99234678   -7.2052057      185.198  0.024342534  0.024500327            5 
  635000   0.99519714   -7.2170828    184.61677  0.024227922  0.024481152            6 
  636000    0.9982302   -7.1864256    185.71739   0.02433404   0.02446205            3 
  637000    1.0089492     -7.20305    185.67008  0.024289649   0.02444334            3 
  638000    1.0253917   -7.2109717    185.41918  0.024218806  0.024424428            3 
  639000    1.0007039   -7.1720643    185.76982  0.024226633   0.02440531            5 
  640000    1.0277997   -7.2657924    185.61939  0.024169191  0.024386275            3 
  641000   0.98903202   -7.2112731       186.21  0.024208269  0.024367692            5 
  642000   0.99506821   -7.1263764    186.66946    0.0242302  0.024349602            2 
  643000   0.99427866   -7.2452566     186.4522   0.02416436  0.024331248            7 
  644000    1.0260888   -7.2437961    187.09065  0.024209453  0.024312814            6 
  645000    1.0229144    -7.248071    187.65428  0.024244739  0.024294721            4 
  646000    1.0181277   -7.2154367    187.63108  0.024204215  0.024276979            6 
  647000   0.98214528   -7.2259661    187.94341  0.024207034  0.024258974            5 
  648000   0.99178347   -7.2399644    188.20491  0.024203306  0.024240878            3 
  649000    1.0194365   -7.2668841    187.80303  0.024114411   0.02422315            4 
  650000   0.98563054   -7.2176469    188.32276  0.024143943  0.024205559           12 
  651000   0.98164995   -7.2198572    188.48635  0.024127798  0.024188057            2 
  652000    1.0043144   -7.2287762    189.03782  0.024161275  0.024170742            7 
  653000     1.004055   -7.2298551    188.92467  0.024109835  0.024153272            2 
  654000   0.98564479   -7.2408202      189.491  0.024145132  0.024135888            3 
  655000   0.99419508   -7.2339743    189.34415  0.024089587  0.024118261            5 
  656000   0.99735743   -7.2357062    189.49121  0.024071546  0.024100689            8 
  657000   0.98998465   -7.2695025    189.41121   0.02402476  0.024082961            4 
  658000    1.0218668   -7.2742813    189.10262  0.023949167  0.024065079            4 
  659000   0.99915277   -7.2450155    189.49065  0.023961893  0.024047212            4 
  660000   0.98141853   -7.1991657    190.25382  0.024021946   0.02402951            5 
  661000   0.98540958   -7.2404455    190.46282  0.024011954  0.024011736            3 
  662000   0.97699907   -7.2877018    190.05372  0.023924184  0.023994056           13 
  663000   0.98745148   -7.2386501    190.80801  0.023982908  0.023976507            3 
  664000   0.97848551     -7.24513    190.01774  0.023847608  0.023958706            5 
  665000   0.99076738   -7.2066665    190.71734  0.023899416  0.023941207            2 
  666000   0.99133404   -7.2368887    190.65724  0.023856011  0.023923585            4 
  667000    1.0010636   -7.2548146    190.69447  0.023824896  0.023905934            3 
  668000    1.0096922   -7.2697686    190.76824  0.023798433  0.023887921            4 
  669000    1.0028357   -7.2595374    191.37387  0.023838299  0.023870002            2 
  670000   0.97114704   -7.2576819    190.92892  0.023747378  0.023852374            6 
  671000   0.99254965   -7.2565361    191.11956  0.023735664  0.023834627            4 
  672000   0.97664046   -7.2702013    191.96495  0.023805178  0.023816753            7 
  673000    1.0069466   -7.3104805    191.46961  0.023708471  0.023798457            4 
  674000   0.97513835   -7.2858675    191.50339  0.023677472  0.023780298            7 
  675000   0.97390757   -7.2700041    191.89562  0.023690817  0.023762258            6 
  676000    1.0168821   -7.2891644    191.70069  0.023631742  0.023744049            4 
  677000   0.97159879   -7.2677442    191.07036  0.023519247  0.023725584            9 
  678000   0.97777089     -7.26066    191.70173   0.02356216  0.023707131            5 
  679000   0.98387662   -7.2965445    192.00122  0.023564215  0.023688824            4 
  680000   0.97930378    -7.272601     192.3234  0.023569044  0.023670607            3 
  681000   0.98532065   -7.2468292    192.51666  0.023558084  0.023652544            7 
  682000   0.97231906   -7.2534053    192.96328  0.023578113   0.02363464            4 
  683000    1.0070029    -7.263772    192.97422  0.023544926    0.0236165            6 
  684000   0.98503933    -7.265372    192.42761   0.02344391   0.02359842           10 
  685000   0.99488556   -7.2622697    193.05758  0.023486323  0.023580242            4 
  686000   0.97184947   -7.3144647    192.96214  0.023440493  0.023562046            6 
  687000   0.98486594   -7.3031656    193.18407  0.023433294  0.023543765            3 
  688000   0.98104871   -7.3009752    193.35062  0.023419407  0.023525546           12 
  689000   0.95396967   -7.2648348    193.75519  0.023434348  0.023507549            4 
  690000   0.98989784   -7.2775993    194.07544  0.023439063  0.023489092            5 
  691000   0.98416244   -7.2735717    193.87822  0.023381358  0.023470841            5 
  692000   0.99490905   -7.3127139    193.93615  0.023354546  0.023452632            5 
  693000   0.98641263   -7.3013517    193.91193  0.023317933   0.02343451            5 
  694000   0.97280083    -7.313036    194.27331  0.023327727  0.023416235            8 
  695000   0.97898876   -7.3099385     194.1497   0.02327934  0.023398015            4 
  696000   0.97454312   -7.2828915    194.80012   0.02332377  0.023379957            8 
  697000   0.98472381   -7.2474892    195.29557  0.023349542  0.023362289           11 
  698000   0.97668729   -7.2849651    195.75353  0.023370765  0.023344714            4 
  699000   0.95368262    -7.250937    196.05886  0.023373732   0.02332749            4 
  700000   0.97874042   -7.2816961    195.49012  0.023272634  0.023310036            3 
  701000   0.98542802   -7.3237153    195.36838  0.023224962  0.023292372           11 
  702000   0.97440462   -7.3123439    195.74897  0.023237058  0.023274807            2 
  703000   0.97273655   -7.3190163    195.48453  0.023172657   0.02325682            4 
  704000   0.97342613   -7.2631838    196.25422   0.02323085  0.023238893            5 
  705000   0.97479342   -7.3293386    195.35724  0.023091872  0.023220943            6 
  706000   0.97422473   -7.2881093    196.19422  0.023157958  0.023202924            7 
  707000   0.95728984   -7.3101836    195.79025  0.023077588  0.023184912            4 
  708000    0.9718639   -7.3042511    195.86557  0.023053857   0.02316692            4 
  709000   0.95136563   -7.3001316    196.09999  0.023048894   0.02314899            6 
  710000   0.95479186   -7.3108487    196.26323   0.02303559  0.023130793            5 
  711000   0.95366282   -7.3393363    196.40958  0.023020345  0.023112642            5 
  712000   0.97523538   -7.3396164     196.7893  0.023032455  0.023094608            5 
  713000   0.96083071   -7.3302082     196.7471   0.02299522  0.023076633            5 
  714000   0.97465218   -7.3139812     197.1274    0.0230074  0.023058532            5 
  715000    0.9612148   -7.3226984    196.61774  0.022915821  0.023040331            6 
  716000   0.98925352   -7.3167041    196.79595  0.022904556  0.023022105           10 
  717000   0.96680127   -7.2684273    197.74867  0.022983341  0.023004191            8 
  718000   0.94457014    -7.270329    198.00983  0.022981643   0.02298666            4 
  719000   0.96989778   -7.3230439    197.82191  0.022927899  0.022969187            6 
  720000   0.95599926   -7.3146853    198.30061   0.02295146  0.022951489            3 
  721000   0.95902923   -7.2845548    198.16138  0.022903535  0.022934003            4 
  722000    0.9805515   -7.3202948    198.25567  0.022882695  0.022916312            5 
  723000   0.97091866   -7.2850317    198.60231  0.022890999  0.022898716            3 
  724000   0.96136034   -7.3328582    197.92433  0.022781346  0.022880905            4 
  725000    0.9959483   -7.3070743    198.80876  0.022851581  0.022863144            7 
  726000   0.97019369   -7.3144845    198.53401  0.022788568  0.022845537            8 
  727000   0.96150502   -7.3373477    198.83188  0.022791366  0.022827961            3 
  728000   0.98055748   -7.3336742    199.01226  0.022780707  0.022810007            6 
  729000   0.96752335   -7.3162306    198.58007  0.022700053  0.022792143            4 
  730000   0.95396083   -7.3035041    199.62643  0.022788405  0.022774201            7 
  731000   0.94695148   -7.3580365    199.13401  0.022701095    0.0227562            6 
  732000   0.98955436   -7.3627942    198.83071  0.022635554  0.022737729            6 
  733000   0.96842936   -7.3561383    199.31296    0.0226595  0.022719086            6 
  734000   0.96931668   -7.3959485    198.63776  0.022551971  0.022700453            5 
  735000   0.95094442    -7.331082    199.20098  0.022585145  0.022681957            8 
  736000   0.96211649   -7.3612614    199.02153  0.022534141  0.022663824            6 
  737000   0.97432743   -7.3139795    199.45043  0.022552061  0.022645483            5 
  738000   0.96158644   -7.3241463    199.86183  0.022567958  0.022627131            6 
  739000   0.97305174   -7.3381646    199.42926   0.02248864  0.022608915            6 
  740000   0.94118562   -7.3150172    199.90249  0.022511542   0.02259078            4 
  741000   0.96596248    -7.307277    200.31261  0.022527284  0.022572504            9 
  742000   0.97123176   -7.3364062    199.71198  0.022429468  0.022554251            3 
  743000    0.9687134   -7.3438144    200.46368  0.022483589  0.022535763            4 
  744000   0.95621149   -7.3413219    199.69042  0.022366758  0.022517137           12 
  745000   0.97708521   -7.3387163    200.01915  0.022373506  0.022498646            3 
  746000   0.96640351   -7.3344871    200.29032  0.022373807  0.022480127            6 
  747000   0.96025666   -7.3075806    201.17251   0.02244227  0.022461729            4 
  748000   0.95388199   -7.3685205    200.42925  0.022329462   0.02244324            8 
  749000   0.96426049   -7.3406504    200.87608  0.022349363  0.022424841            4 
  750000   0.96666435   -7.3208141    200.68738  0.022298598  0.022406349            5 
  751000   0.95991948   -7.3684192    200.29039  0.022224855  0.022387932            4 
  752000   0.95190115   -7.3287551    201.23979  0.022300509  0.022369518            7 
  753000   0.95912674   -7.3566179    201.24264  0.022271208  0.022351138            6 
  754000    0.9468232   -7.3794737    201.69804  0.022292002  0.022332801            9 
  755000   0.95252069   -7.4080949    201.18936  0.022206331  0.022314335            7 
  756000   0.96245049   -7.3881946     201.2126   0.02217952  0.022295759            3 
  757000    0.9490738   -7.3956962    201.64342  0.022197647  0.022277325            8 
  758000   0.94050787   -7.3637283    201.69248  0.022173755  0.022258823            7 
  759000   0.95708138   -7.3816142    201.45293   0.02211824  0.022240314            8 
  760000   0.97514508   -7.3914479    201.89295  0.022137385  0.022221775            5 
  761000   0.95004823   -7.3607037    201.78672  0.022096662  0.022203343            9 
  762000   0.94452064   -7.3864352    201.88625  0.022078549  0.022184521            5 
  763000   0.94238109   -7.3597905    201.50017  0.022007445  0.022165962           16 
  764000   0.94284246    -7.338882    201.87014  0.022018995  0.022147192            6 
  765000   0.94432052   -7.3869762    202.20969  0.022027199  0.022128656            7 
  766000   0.93065986   -7.3659073    202.82091  0.022064938  0.022110175           11 
  767000   0.94165749   -7.4010088    202.12769  0.021960853  0.022091566            3 
  768000   0.93690543   -7.4077948    201.97355  0.021915533  0.022073038            4 
  769000   0.93433048   -7.3797718    202.76417   0.02197271  0.022054682            8 
  770000   0.96054447   -7.3655013    203.06933    0.0219772  0.022036294            6 
  771000   0.94495943   -7.3819624    203.43674  0.021988407  0.022017922            4 
  772000   0.93543757   -7.4210316    202.67225  0.021877402  0.021999324            6 
  773000   0.92824048   -7.4136764     202.7921   0.02186202  0.021980668            4 
  774000   0.94624138   -7.4236975    202.76954  0.021831346  0.021961918            5 
  775000   0.93076468    -7.369038    203.61147  0.021893707  0.021943455            5 
  776000   0.96121573   -7.3462544    203.09853  0.021810409  0.021925171            3 
  777000    0.9402769   -7.3708357     203.3458  0.021808859  0.021906712            3 
  778000   0.95791649   -7.3946905    203.49323  0.021796619  0.021888411            3 
  779000   0.94926376    -7.381711     203.6971  0.021790447  0.021870014            5 
  780000   0.95331471   -7.3926896    203.73384  0.021766436  0.021851489            4 
  781000   0.93800196   -7.4136716    203.44302  0.021707536  0.021832933            8 
  782000   0.94889421   -7.4410397    203.45789   0.02168136  0.021814403            4 
  783000   0.96367504   -7.4371256    203.58842  0.021667563  0.021795839           12 
  784000   0.93790099   -7.3825749     203.9508  0.021678444  0.021777252            5 
  785000   0.94110011   -7.4204147    203.79776  0.021634582  0.021758753            4 
  786000   0.93414845   -7.4043745     203.8006  0.021607358  0.021740218            5 
  787000   0.92962767   -7.3849561    204.37847  0.021641091  0.021721696            9 
  788000   0.95113939   -7.3567012    204.19293  0.021594007  0.021703248            5 
  789000   0.92174301   -7.3703286    204.74449  0.021624893  0.021684723           11 
  790000   0.94302901    -7.388643    204.28537  0.021549089  0.021666031            4 
  791000   0.94016495     -7.40263    204.86123  0.021582515  0.021647532            5 
  792000   0.93280809    -7.389242    205.41579  0.021613614  0.021628994            4 
  793000    0.9244729   -7.3809539     204.5248  0.021492729  0.021610535            9 
  794000   0.93482183   -7.3976323     205.1199  0.021528118  0.021591802            3 
  795000   0.93327076   -7.4004333    204.83246  0.021470908  0.021573302            7 
  796000   0.91805747   -7.4321655    204.99323  0.021460765  0.021554695           15 
  797000   0.95038248   -7.4043127    205.01825  0.021436455  0.021536198            7 
  798000   0.94575212   -7.3789553    205.72355  0.021483245  0.021517877            3 
  799000    0.9330207   -7.4249442    205.59898  0.021443364   0.02149958           10 
  800000   0.93059227   -7.3650835    205.57825  0.021414401   0.02148114            9 
  801000   0.91503616    -7.353634    206.11415   0.02144342  0.021462931            3 
  802000   0.92641027    -7.406108    205.36725  0.021339074  0.021444813            3 
  803000   0.92607894   -7.4493121    205.81983  0.021359468  0.021426259            5 
  804000   0.91467608   -7.4390546    206.44772  0.021397981  0.021407903            6 
  805000   0.92922501   -7.4257879      206.529  0.021379814  0.021389719            7 
  806000   0.93831235   -7.4184599    206.70007  0.021370975  0.021371556            5 
  807000   0.92986664   -7.4080352    206.36358  0.021309746  0.021353448            5 
  808000   0.90964865   -7.4448282     206.2257  0.021269152  0.021335419            5 
  809000   0.92261912   -7.4028709    207.06816  0.021329641  0.021317371            8 
  810000   0.91827324   -7.3758199    207.52476  0.021350284  0.021299471            5 
  811000   0.93624643    -7.423996    207.11749  0.021282109  0.021281664            4 
  812000   0.94539371   -7.4166273    207.64193  0.021309721  0.021263935            6 
  813000     0.945155   -7.3853817    207.37777  0.021256434   0.02124606            5 
  814000   0.92062099   -7.4186357    206.87409  0.021178756  0.021228181            5 
  815000   0.93916527   -7.3710515    207.13006  0.021178942  0.021210263            6 
  816000   0.92646795   -7.4313493    207.07848  0.021147721  0.021192309            3 
  817000   0.91635911   -7.4075006    207.00309  0.021114146  0.021174208            9 
  818000   0.94183632   -7.4554347    206.77539  0.021065138  0.021155907            6 
  819000   0.91801125   -7.4225654    207.43058  0.021106083  0.021137664            3 
  820000   0.91726921    -7.423332      207.675  0.021105183  0.021119567           13 
  821000   0.91444778   -7.4560006    207.56211  0.021068018  0.021101389            9 
  822000    0.9373016    -7.452999    207.72736  0.021059141  0.021083186            6 
  823000   0.91419593   -7.4190263    208.42565  0.021104257  0.021064998            4 
  824000   0.91650791   -7.4488995    207.98731  0.021034315  0.021046985            6 
  825000   0.94535625   -7.4329959    208.47483  0.021058064  0.021028912            4 
  826000   0.93372607   -7.4858041    207.84222  0.020968747  0.021010886            9 
  827000   0.90903723   -7.4773925    207.71182  0.020930251  0.020992706            3 
  828000   0.91941121   -7.4265794    208.22402  0.020956524   0.02097462            5 
  829000    0.9137756   -7.4451189    208.30435   0.02093932  0.020956604            4 
  830000   0.91343756   -7.4678041    207.98036  0.020881562  0.020938661            8 
  831000   0.89331727   -7.4349259    208.63909  0.020922492  0.020920606            6 
  832000   0.91333117   -7.4490876    208.66549  0.020899989  0.020902488           14 
  833000   0.92040331   -7.4364495    209.15101   0.02092347  0.020884454            7 
  834000   0.92239733   -7.4411616    209.34969  0.020918234  0.020866621            5 
  835000   0.91970439   -7.4609701    209.32377  0.020890596  0.020848699            4 
  836000   0.90844696   -7.4578295    208.67243  0.020800681   0.02083084            6 
  837000   0.91889378   -7.4333371    209.38968   0.02084724  0.020812981            5 
  838000   0.92577474    -7.430315    209.38481  0.020821879  0.020795289            8 
  839000   0.92566943   -7.4422433    208.72958   0.02073198  0.020777271            3 
  840000   0.91734846   -7.4561471    209.43196   0.02077698  0.020759022            4 
  841000   0.91772033   -7.4105667    208.96748  0.020706251  0.020741007            5 
  842000   0.91158825    -7.443889    209.38256   0.02072274  0.020722824            3 
  843000   0.91886854   -7.4698546    209.35862  0.020695791  0.020704569           22 
  844000   0.93714019   -7.4800361    209.31703  0.020667164  0.020686507            5 
  845000   0.92033338   -7.4736126    209.14909  0.020626143  0.020668486            8 
  846000   0.92654153   -7.4704704    209.19022  0.020605814  0.020650444            6 
  847000   0.91645007   -7.4642813    210.45454  0.020705878  0.020632527            3 
  848000   0.91658048    -7.480474    209.38973  0.020576821  0.020614642            5 
  849000   0.91455154   -7.4592715    210.16359  0.020628543  0.020596712            7 
  850000   0.92948166   -7.4421439    210.33519  0.020621097  0.020578951            7 
  851000   0.91042926   -7.4426966     210.8928  0.020651469  0.020561255            7 
  852000   0.92922637   -7.4913538    210.09782  0.020549474   0.02054347            5 
  853000   0.89806787   -7.4826446    210.22242  0.020537556  0.020525595           11 
  854000   0.89064939   -7.4959137    210.44459  0.020535187  0.020507864            7 
  855000   0.90594715   -7.4734529    210.62227  0.020528486  0.020490047           13 
  856000   0.89823935    -7.494054     210.5857  0.020500944  0.020472383           10 
  857000   0.90805769   -7.4954344    210.99718  0.020517034  0.020454767            6 
  858000    0.9029123    -7.455663    211.08976  0.020502114  0.020437284           11 
  859000   0.91188389   -7.4930224    210.32699  0.020404248  0.020419624            9 
  860000   0.91188548   -7.5640793     209.8803  0.020337238  0.020401791            8 
  861000   0.91560917    -7.507922     210.6514   0.02038825  0.020383704            8 
  862000   0.90609059    -7.484223    211.25596  0.020423044  0.020365934            6 
  863000   0.91547897   -7.4915345    211.21155   0.02039509  0.020348284            4 
  864000    0.9166747    -7.491337    211.14914  0.020365465  0.020330743            6 
  865000   0.91634545   -7.5158056    211.14758  0.020341771  0.020313335           11 
  866000   0.90314504   -7.4839366    211.32709  0.020335555  0.020295901            8 
  867000   0.91749558    -7.501061     211.5248  0.020331103  0.020278272           10 
  868000   0.91078706   -7.5141576    211.64714  0.020319426  0.020260645            5 
  869000   0.90076427     -7.51585    211.23686  0.020256699  0.020243072            4 
  870000   0.88885423   -7.5182746    211.60485  0.020268664  0.020225368           15 
  871000   0.90460794    -7.495364    211.55684    0.0202408  0.020207827           14 
  872000    0.9167555   -7.4738969    211.69487  0.020230779  0.020190041           11 
  873000   0.90208133   -7.4859039    211.87429  0.020224732  0.020172287            4 
  874000   0.93477576   -7.5219163    211.46913  0.020162961   0.02015472            9 
  875000   0.90441205   -7.5107776    212.33916  0.020222777  0.020137144            6 
  876000   0.90415274   -7.5236137    212.22029  0.020188384  0.020119492            8 
  877000   0.90362281   -7.5325518    211.87564  0.020132615  0.020101978           10 
  878000      0.89434   -7.5054967    212.42177   0.02016152  0.020084424           26 
  879000   0.88505974   -7.5246574     212.0045  0.020099024  0.020066868           14 
  880000   0.92002748   -7.5224107    212.26487   0.02010084   0.02004922            5 
  881000   0.89502486   -7.5253793    212.48628  0.020098967  0.020031782            6 
  882000   0.89909506   -7.5179873     212.7725  0.020103222  0.020014362           21 
  883000   0.88985502   -7.5285089     212.7486  0.020078199  0.019996967           12 
  884000   0.89567286   -7.5044994    212.76658  0.020057181  0.019979458           13 
  885000   0.92254182   -7.5288923    212.54608  0.020013755  0.019962007            8 
  886000   0.90852506   -7.5262214    212.82744   0.02001763  0.019944453           11 
  887000   0.89877507   -7.5736573    212.55009  0.019969005  0.019926921            4 
  888000   0.92146158   -7.5815938    212.20483  0.019914117  0.019909172           11 
  889000   0.89315699   -7.5103183    212.89343  0.019956265  0.019891504           14 
  890000   0.89324278   -7.5328926    212.46459  0.019893688  0.019873881           19 
  891000    0.8974983   -7.5098147    212.61194  0.019885142  0.019856287            4 
  892000   0.88596298   -7.5660488    212.68754  0.019869912  0.019838793            9 
  893000   0.89113016   -7.5419045    213.12505  0.019888489  0.019821214            9 
  894000   0.89024295   -7.5519135    213.12437  0.019866179  0.019803539            7 
  895000   0.89750183   -7.5544228    212.81505  0.019815181  0.019786186           13 
  896000   0.90126965   -7.5434413    213.32634   0.01984062  0.019768543            6 
  897000   0.87918373    -7.518708    213.68324  0.019851657  0.019751029            5 
  898000   0.89477629   -7.5533388    213.96682  0.019855866  0.019733605            7 
  899000   0.90022961   -7.5631162    213.76555  0.019815123  0.019716237            6 
  900000   0.88737227   -7.5522951    213.49849  0.019768379  0.019698802            4 
  901000   0.89948605   -7.5018196    214.24571  0.019815549  0.019681408           10 
  902000   0.89187828   -7.5211234    214.15694  0.019785378  0.019664138            6 
  903000   0.88303155   -7.5190897    214.45494  0.019790969  0.019646895            7 
  904000   0.89998829   -7.5547526    213.58927  0.019689276  0.019629494            8 
  905000   0.89863071   -7.5122932    213.69586  0.019677335  0.019612034           12 
  906000   0.90571113    -7.510429    214.26719  0.019708167  0.019594585            3 
  907000   0.88960173   -7.5530597    214.56226  0.019713548  0.019577337            8 
  908000   0.89823924   -7.5570568    213.73881  0.019616264  0.019559908           10 
  909000   0.89350062   -7.5697712    213.65558  0.019587053  0.019542448            3 
  910000   0.89445161   -7.5580089    213.58824  0.019559363  0.019524949            7 
  911000   0.89054062   -7.5171673     214.9555  0.019662962  0.019507577            6 
  912000   0.87724722   -7.5679662    214.35788  0.019586794  0.019490323           27 
  913000   0.89013199   -7.5992182    213.92216  0.019525572  0.019472901           10 
  914000   0.88074896      -7.5652    214.79846  0.019584105  0.019455413            5 
  915000   0.91747024   -7.5517025    214.86863  0.019569092  0.019438182            7 
  916000   0.85725329   -7.5836905    214.43893  0.019508636  0.019420943            4 
  917000   0.88388611   -7.5374703    214.63484  0.019505166  0.019403673           12 
  918000   0.90144219   -7.5516317    214.62926  0.019483412  0.019386444            4 
  919000   0.86850902   -7.5689902    214.50449  0.019450897  0.019369197            4 
  920000   0.88890265   -7.5441854    215.03674  0.019477966  0.019351919           12 
  921000   0.88414754   -7.5818695    215.01415  0.019454773  0.019334942            8 
  922000   0.89310441   -7.5817997    215.03184  0.019435271  0.019317812            8 
  923000   0.87550596   -7.5450147    215.30573  0.019438943  0.019300777           17 
  924000   0.87363688    -7.575392    215.60142  0.019444573  0.019283726            8 
  925000   0.89327593   -7.5728251    215.75269   0.01943718  0.019266712            3 
  926000   0.89733702   -7.5694149     214.7436  0.019325378  0.019249672            8 
  927000   0.86599076   -7.5420581    215.49422  0.019372009   0.01923272            5 
  928000    0.8793322   -7.5621822    215.39895  0.019342578  0.019215828            7 
  929000   0.87173401   -7.5738175    216.02393  0.019377819  0.019198856           10 
  930000   0.86826828   -7.5692916    216.27033  0.019379062  0.019181996            6 
  931000   0.86706645    -7.533698    216.75846  0.019401938   0.01916533           11 
  932000   0.89185617   -7.5484812    216.25899  0.019336462  0.019148404            8 
  933000   0.88820313   -7.6064341    215.57608  0.019254741  0.019131448            6 
  934000   0.87476737   -7.6069565    215.76413  0.019250903  0.019114352            5 
  935000   0.88784492   -7.6128911    215.19622  0.019179699  0.019097294           11 
  936000   0.89549479   -7.6004988    215.42342  0.019179435  0.019080336           17 
  937000   0.88852615   -7.5818054    216.34155  0.019240622  0.019063301            7 
  938000   0.87108317   -7.5763359    216.36769  0.019222432  0.019046489            6 
  939000    0.8655517    -7.579014    216.16994   0.01918441  0.019029652            7 
  940000   0.87037209   -7.5615043     216.6927  0.019210346  0.019012961            4 
  941000   0.86929946   -7.5803873    217.04999  0.019221572  0.018996396           10 
  942000   0.89318624   -7.5363774    217.49905  0.019240892  0.018979825            7 
  943000   0.87741559   -7.5603981    217.73756  0.019241566  0.018963364            5 
  944000   0.86763689   -7.6041963    216.99558  0.019155683  0.018946841            5 
  945000    0.8704508   -7.6038766    216.93891  0.019130415  0.018930279           12 
  946000    0.8742904   -7.5785387    217.30228  0.019142202  0.018913747            8 
  947000     0.855017   -7.5965744    217.38719  0.019129461  0.018897193           11 
  948000    0.8933694   -7.5820028    217.67451  0.019134539   0.01888073            8 
  949000   0.87432005    -7.620969    217.25166  0.019077244  0.018864186           11 
  950000   0.89194497    -7.596674    217.96941  0.019120123  0.018847748            8 
  951000   0.87848585   -7.6425225    217.07429  0.019021581  0.018831272           10 
  952000   0.88303963   -7.6119443    217.92669  0.019076216  0.018814631           12 
  953000    0.8759378   -7.6121794     217.4613  0.019015504  0.018798232           11 
  954000   0.88371111   -7.6147791    217.62767  0.019010104  0.018781758            8 
  955000    0.8823913   -7.6313436    217.61464  0.018989061  0.018765319           13 
  956000   0.86557938    -7.582364    217.93815  0.018997398  0.018748969            6 
  957000   0.86833787   -7.6102613    217.80074  0.018965582  0.018732748            6 
  958000    0.8750899   -7.6315169     218.1318  0.018974583   0.01871643           13 
  959000   0.89183457   -7.6253103    217.95823  0.018939714  0.018700136            6 
  960000   0.85487649   -7.6438759    217.87456  0.018912722  0.018683795            7 
  961000   0.85294699   -7.6221905    217.91218  0.018896304  0.018667362            7 
  962000   0.86494916   -7.6120321    218.55146  0.018932039  0.018651058           10 
  963000   0.88509596   -7.6193756    218.20699  0.018882571  0.018634727            6 
  964000   0.88208047   -7.6502229    218.62152  0.018898817  0.018618467           19 
  965000   0.87525106   -7.6072752    218.76861  0.018891935   0.01860221           13 
  966000   0.88565211    -7.652846    218.10479  0.018815113  0.018585862            6 
  967000    0.8851973   -7.6607163    217.89875    0.0187779  0.018569587            9 
  968000   0.85530049   -7.6568727    218.74317  0.018831195  0.018553212           14 
  969000   0.88305131   -7.6405499    218.99756   0.01883364   0.01853695           10 
  970000   0.87128179   -7.6414185    218.85679   0.01880213  0.018520576           16 
  971000   0.89125677    -7.640162    218.81274  0.018778986  0.018504281           15 
  972000   0.86863516   -7.6370695    218.63865   0.01874474  0.018488142           14 
  973000   0.87907992   -7.6479685    218.97944  0.018754662  0.018472022            8 
  974000   0.85886858   -7.6329012    219.06711  0.018742908  0.018455912           12 
  975000   0.86502357   -7.6210249    218.84303  0.018704533  0.018439733           12 
  976000   0.84570948     -7.64049    218.91525  0.018691534  0.018423576            6 
  977000   0.87140961   -7.6341058    218.78305  0.018661127  0.018407457            6 
  978000   0.84635061   -7.6418545    219.88522  0.018735959  0.018391416            7 
  979000    0.8873006   -7.5965939    219.48351  0.018682628  0.018375414            6 
  980000    0.8584655   -7.6190643    220.25747  0.018729376  0.018359451            5 
  981000   0.83597768   -7.6195785    220.21452  0.018706636   0.01834363           15 
  982000    0.8546466   -7.6414034    219.38189  0.018616929  0.018327742            7 
  983000   0.85131461   -7.6618185    219.34153  0.018594568  0.018311686            8 
  984000   0.85159345   -7.6543096    218.88826  0.018537285   0.01829559            7 
  985000   0.84273046   -7.6344015    219.58288  0.018577232  0.018279726            6 
  986000   0.87000902   -7.6217305    220.11411  0.018603288  0.018263756            8 
  987000    0.8489374   -7.6425229    219.87921  0.018564608  0.018247823            6 
  988000   0.85390961   -7.6507168    220.42037  0.018591462  0.018231842            6 
  989000   0.83402385   -7.6700159    219.88757   0.01852777  0.018215873            8 
  990000   0.87588071   -7.6920158    219.30589  0.018460091  0.018199835           11 
  991000   0.85882013   -7.6838856    219.69721   0.01847437  0.018183693           12 
  992000    0.8685946   -7.6667708    219.50091  0.018439257  0.018167671           11 
  993000   0.85924072   -7.6734687    220.08395  0.018469616  0.018151741           11 
  994000   0.86728462   -7.6433963    220.17383  0.018458571  0.018135867           14 
  995000   0.84295356   -7.6619659     220.1086  0.018434556  0.018120037            7 
  996000   0.85937686   -7.6672319    220.00897  0.018407711  0.018104235            6 
  997000   0.85961816   -7.6650492    219.82908  0.018374213  0.018088351            6 
  998000   0.85984041   -7.6580438    220.53874  0.018415058  0.018072474           18 
  999000   0.86233233   -7.6536748    220.08652  0.018358902  0.018056661            9 
 1000000   0.85311386   -7.6690269    220.73209  0.018394341  0.018040724            7 
 1001000   0.85570942   -7.6669855    221.03954   0.01840156  0.018024854           10 
 1002000   0.84673183   -7.6565945    220.78652  0.018362153  0.018009044           11 
 1003000    0.8537861   -7.6486118    220.99459  0.018361132  0.017993176           17 
 1004000   0.84477488   -7.6818342    220.24869  0.018280934  0.017977351            7 
 1005000   0.83569205   -7.6675322    220.38995  0.018274457  0.017961424            9 
 1006000   0.86139064   -7.6835352     221.2419  0.018326864  0.017945565           16 
 1007000   0.86089091   -7.6897395    220.44975  0.018243111  0.017929714            8 
 1008000   0.85070757   -7.7135404    220.96647  0.018267731  0.017913935            7 
 1009000   0.87940502   -7.6818308    220.70999  0.018228443  0.017898073           10 
 1010000   0.84282782   -7.6741549    220.93769  0.018229182  0.017882289           14 
 1011000   0.85273375    -7.688885    220.08554  0.018140911  0.017866401            8 
 1012000   0.86344671   -7.7005553    220.42589  0.018151012  0.017850479           16 
 1013000   0.85062601   -7.7199051    220.39592  0.018130628  0.017834596            6 
 1014000   0.84545901   -7.7257076    220.09404  0.018087939  0.017818704            8 
 1015000   0.85560301   -7.6975157    220.85677   0.01813274   0.01780281           17 
 1016000   0.86431119   -7.7037636    220.55197  0.018089892  0.017786936           16 
 1017000   0.84263936   -7.7171851    220.69483  0.018083811  0.017771052            7 
 1018000   0.83371434   -7.7065454    220.14947  0.018021404  0.017755171           10 
 1019000    0.8374522   -7.7114289    220.58829  0.018039605  0.017739178            9 
 1020000   0.85337604   -7.7192267    220.63179  0.018025473  0.017723132            9 
 1021000   0.85002052   -7.7215461     220.6564  0.018009827  0.017707152           13 
 1022000   0.86701509   -7.6719812    221.12326  0.018030272  0.017691266            4 
 1023000    0.8631451   -7.6949983    220.56203   0.01796693  0.017675401           18 
 1024000   0.84585091   -7.7037088    220.56489  0.017949617  0.017659424           13 
 1025000   0.83342081   -7.7413468     220.6125  0.017935976  0.017643524           10 
 1026000   0.85897713   -7.7445252    220.63337  0.017920189  0.017627557            8 
 1027000   0.84049794   -7.7234995    221.35077  0.017960952  0.017611618            7 
 1028000   0.83301768   -7.7088202    220.44196  0.017869809  0.017595636           10 
 1029000   0.85401409   -7.7160676    221.34428  0.017925517  0.017579815           21 
 1030000   0.84380714   -7.7306064    221.27239  0.017902297  0.017564043           11 
 1031000   0.82491439   -7.7427777    221.24559  0.017882767  0.017548229           14 
 1032000   0.84554852   -7.7255036    221.56178   0.01789097  0.017532527           14 
 1033000   0.84737585   -7.6998072    221.93326  0.017903619  0.017516858           17 
 1034000   0.84154894    -7.739202    221.32772  0.017837502  0.017501235           18 
 1035000   0.84104835   -7.7115166    221.34456  0.017821623  0.017485564           15 
 1036000   0.84751636   -7.7066412    222.31921   0.01788282  0.017470075           13 
 1037000   0.84467092   -7.7387711    221.49415  0.017799272  0.017454525           10 
 1038000   0.84066972   -7.7324706    221.91861  0.017816202  0.017438879           16 
 1039000   0.85129973   -7.7102167    221.36507  0.017754657  0.017423247           15 
 1040000   0.84131159   -7.7187368    221.64313  0.017759867  0.017407589           11 
 1041000   0.85062436   -7.7199883    221.98634   0.01777028   0.01739191            6 
 1042000   0.82475278   -7.7339364    221.33153  0.017700858  0.017376278           16 
 1043000   0.82943315    -7.707091    222.16678  0.017750622  0.017360679            7 
 1044000   0.85468343   -7.7264831    221.04589  0.017644148  0.017345203           10 
 1045000    0.8384593   -7.7070547    221.79142  0.017686716  0.017329568           14 
 1046000   0.82962465   -7.7466245    221.84441  0.017674028  0.017314056           18 
 1047000   0.83958218    -7.700044    222.11816  0.017678937  0.017298561            7 
 1048000    0.8211827   -7.6889744    222.74941  0.017712262  0.017283115           10 
 1049000   0.82151698   -7.7066034    222.16924  0.017649288  0.017267745            9 
 1050000   0.82896352   -7.6949654    222.45114  0.017654853  0.017252425            5 
 1051000   0.83996794   -7.7367418    222.70774    0.0176584  0.017237127           18 
 1052000    0.8327272   -7.7276525    222.21347  0.017602461  0.017221758           17 
 1053000   0.84691048    -7.737767    222.18342  0.017583367  0.017206349            7 
 1054000   0.83217841   -7.7263893    222.76831  0.017612927  0.017190917           12 
 1055000   0.82282345   -7.7292044    222.79425  0.017598282  0.017175448            7 
 1056000   0.81498261   -7.7537491    222.13049  0.017529237  0.017159988            8 
 1057000   0.82575697   -7.7336718    222.74071  0.017560762  0.017144544           15 
 1058000   0.82281867     -7.77637    221.80674    0.0174706  0.017129143            7 
 1059000    0.8444435   -7.7613194    222.22911  0.017487339  0.017113696           17 
 1060000   0.82201278   -7.7468712    223.04111  0.017534678   0.01709824           12 
 1061000   0.83868137   -7.7477846    222.58791  0.017482556  0.017082862           10 
 1062000   0.82568801   -7.7374989    222.38262  0.017449986  0.017067436            9 
 1063000   0.82492985   -7.7318754     222.1901  0.017418478  0.017051934            9 
 1064000    0.8523335   -7.7535658    222.17581  0.017400988  0.017036428            5 
 1065000   0.83396745   -7.7275726    222.42027  0.017403777  0.017020973           13 
 1066000   0.82264096   -7.7557235    222.04521  0.017358131  0.017005541           10 
 1067000   0.84083423   -7.7672055    222.23058   0.01735634  0.016990038            8 
 1068000   0.82038002   -7.7638278    221.74522  0.017302218  0.016974529           15 
 1069000   0.82633424   -7.7524633    222.39972  0.017337053  0.016959126           16 
 1070000   0.81100725   -7.7563924    222.27046  0.017310784  0.016943693            8 
 1071000   0.85499853   -7.7484495    222.61426  0.017321371  0.016928344            9 
 1072000   0.83581091   -7.7500984    222.88665  0.017326387  0.016913012           10 
 1073000     0.836621   -7.7544007    222.47164  0.017278009  0.016897665           10 
 1074000   0.83446984    -7.753443    222.57625  0.017270038  0.016882232            7 
 1075000   0.82510769   -7.7667705    223.22795  0.017304492  0.016866845            7 
 1076000   0.83109604   -7.7684588    223.15606  0.017282842   0.01685155           18 
 1077000   0.82239739    -7.782931    222.25633  0.017197178   0.01683633            6 
 1078000   0.83519835   -7.7492766    222.86166  0.017228019  0.016821006            7 
 1079000   0.84285938   -7.7747687    223.22249   0.01723992  0.016805688            4 
 1080000   0.82348347   -7.8114923     222.3019  0.017152925  0.016790365            9 
 1081000   0.82831312   -7.7963062    222.20101  0.017129279  0.016775038           18 
 1082000   0.83053543   -7.7664605    222.82223  0.017161293  0.016759755           14 
 1083000   0.81759646    -7.788842     222.8004  0.017143767  0.016744516            7 
 1084000   0.82604315   -7.7532225    222.98575  0.017142201  0.016729344           25 
 1085000   0.81833517    -7.744728    223.07538  0.017133286  0.016714118            9 
 1086000   0.80186444   -7.7641632    223.51258  0.017151057  0.016699005           11 
 1087000   0.81933975   -7.7878187    222.82123  0.017082278  0.016683853           17 
 1088000    0.8300774    -7.777352     223.3905  0.017110179  0.016668733           15 
 1089000   0.83500022   -7.7976318    223.41936  0.017096676  0.016653573           12 
 1090000   0.82357968   -7.7961445    222.77051  0.017031384  0.016638232            5 
 1091000   0.82225886   -7.7981019    223.24312  0.017051873  0.016622901           21 
 1092000   0.81480541   -7.7858009    222.77001  0.017000154  0.016607548           11 
 1093000   0.80618597   -7.7928646    223.35391  0.017029118  0.016592262           26 
 1094000   0.81136972   -7.8057636    222.41023  0.016941669  0.016577075           13 
 1095000   0.81524921   -7.7789533     223.3166  0.016995175    0.0165618            5 
 1096000   0.81762053   -7.7848273    223.08333  0.016961932  0.016546531            9 
 1097000    0.8195081   -7.7808042    223.37946  0.016968965  0.016531301           14 
 1098000   0.80658409   -7.8183931    222.53383  0.016889331  0.016516103           14 
 1099000    0.8296354   -7.7893042    222.93713  0.016904544  0.016500894            7 
 1100000   0.80644497   -7.8126473    223.47274  0.016929753  0.016485722            5 
 1101000   0.81572647   -7.7921841    223.57529  0.016922138  0.016470534           20 
 1102000   0.81682832   -7.7832863    223.26735  0.016883496  0.016455299           26 
 1103000   0.82259783    -7.815792    223.37064  0.016875993   0.01644017           26 
 1104000   0.82552273   -7.7954401    222.88651  0.016824163  0.016425019           11 
 1105000   0.80678736   -7.8194713    223.71872  0.016871699  0.016409884            8 
 1106000   0.81814663   -7.8175277    223.07082  0.016807627  0.016394726            7 
 1107000   0.81026151   -7.7960858    223.53701  0.016827538   0.01637956           12 
 1108000   0.80357464   -7.8148136    223.56488  0.016814446  0.016364451           20 
 1109000   0.82985143   -7.7667589    224.00972  0.016832711  0.016349425           14 
 1110000   0.80345552   -7.8414399    223.08962   0.01674847  0.016334436           21 
 1111000   0.81086917   -7.8313858    223.99278  0.016801139  0.016319406           20 
 1112000   0.80898316   -7.8078286     223.4683  0.016746725  0.016304366           18 
 1113000    0.8129365   -7.8011929    223.52665  0.016736047  0.016289279           14 
 1114000   0.81234957   -7.8239831    223.46549  0.016716449  0.016274255           17 
 1115000    0.8178249   -7.8286808    223.58846  0.016710648  0.016259258           20 
 1116000   0.81806415    -7.807093    224.10899  0.016734542  0.016244332            8 
 1117000   0.79736954   -7.8198299    224.06291  0.016716123  0.016229464           18 
 1118000   0.79489094   -7.8206086    223.76633  0.016679065  0.016214647           13 
 1119000   0.80656009   -7.8016825    224.12768   0.01669107   0.01619983           19 
 1120000   0.79771778   -7.8142555    223.62938  0.016639091  0.016185008           13 
 1121000    0.8214417   -7.8259953    223.46365  0.016611928   0.01617014           16 
 1122000   0.78546744   -7.8294487     224.1267  0.016646368  0.016155314           30 
 1123000   0.80824136   -7.7691382     224.9064  0.016689404  0.016140608            6 
 1124000   0.81461616   -7.8221273    224.48566  0.016643361   0.01612596           10 
 1125000   0.81099643   -7.8049686    224.45095  0.016625996  0.016111217            7 
 1126000   0.80079116   -7.8099978    225.23549  0.016669293  0.016096608           10 
 1127000   0.78912858   -7.7962691    224.55175  0.016603945  0.016081946           20 
 1128000   0.80984901    -7.832096    224.43453  0.016580565  0.016067215           10 
 1129000   0.78981278   -7.8219612    223.75389   0.01651564  0.016052484           15 
 1130000   0.80532709   -7.8272327    223.98441  0.016518024  0.016037747           10 
 1131000   0.82107591   -7.8243467    224.00995  0.016505301  0.016022976           19 
 1132000   0.79891336   -7.8309553    224.64448  0.016537432  0.016008198           17 
 1133000   0.80035222   -7.8274743    223.92387  0.016469835  0.015993462           11 
 1134000   0.79959037   -7.8347945    224.15616  0.016472381  0.015978729           29 
 1135000   0.80301099   -7.8534761    223.91932  0.016440479  0.015963994           31 
 1136000   0.80384431   -7.8417781     224.1012  0.016439349   0.01594929           24 
 1137000   0.79260042   -7.8716625    224.36688  0.016444363  0.015934554           12 
 1138000   0.79971502   -7.8438865    223.76791  0.016386051   0.01591983           21 
 1139000   0.80484132   -7.8773924    223.49249  0.016351514  0.015905015           13 
 1140000   0.78687814   -7.8531274    223.95085  0.016370676  0.015890223           15 
 1141000   0.80068036   -7.8665661    224.04842  0.016363455  0.015875419           26 
 1142000   0.77095523   -7.8604941    223.65787  0.016320627  0.015860623           19 
 1143000   0.81094874   -7.8774728    224.01876   0.01633266  0.015845852           20 
 1144000   0.79791303   -7.8650297    224.00887  0.016317662  0.015831085           23 
 1145000   0.78349045   -7.8389123    223.55157  0.016270129  0.015816267           18 
 1146000   0.79533819   -7.8496065    224.23529  0.016305649  0.015801566           16 
 1147000   0.79967676   -7.8822153    223.80475  0.016260154  0.015786817           22 
 1148000   0.79108082   -7.8618106    223.80203  0.016245792   0.01577205           18 
 1149000   0.78935342   -7.8665221    223.98299  0.016244777  0.015757327           25 
 1150000   0.80319841    -7.858227    224.18817   0.01624552  0.015742582           11 
 1151000   0.76875245   -7.8930099    223.57473  0.016186992  0.015727817           11 
 1152000   0.79365916   -7.8794687    224.03001  0.016205875   0.01571301           14 
 1153000   0.81414537   -7.9033095    223.61788  0.016162032  0.015698189           16 
 1154000   0.79390108   -7.8927125    223.98622  0.016174626  0.015683434           40 
 1155000   0.79827109   -7.8766789    224.15178  0.016172567  0.015668668           26 
 1156000   0.81808344   -7.8993433    223.43701  0.016107051  0.015653874           21 
 1157000   0.77997843   -7.9113847     223.8563  0.016123329   0.01563913           33 
 1158000   0.79836122   -7.9014914    223.34833  0.016072851  0.015624392           15 
 1159000   0.79586774   -7.8874292    223.96007  0.016102967   0.01560951           25 
 1160000   0.78209329   -7.9269034    223.75885   0.01607463  0.015594647           19 
 1161000   0.78436432   -7.8996076    223.59742  0.016049198  0.015579823           16 
 1162000   0.77532399   -7.9166149    224.00841   0.01606486  0.015565085           16 
 1163000   0.79338341   -7.9352402    223.45861  0.016011652   0.01555031           46 
 1164000   0.79710673   -7.8946109    223.76082  0.016019532  0.015535535           38 
 1165000   0.80507489   -7.9196361    223.96223  0.016020188  0.015520787           32 
 1166000   0.80677654   -7.9239924    224.38363  0.016036566  0.015506081           10 
 1167000   0.77742727   -7.9274748    223.42469  0.015954348  0.015491371           21 
 1168000   0.79720554   -7.9210192    223.45517  0.015942863  0.015476668           29 
 1169000   0.78378022   -7.9145652    224.15116  0.015978839   0.01546196           38 
 1170000   0.79901536   -7.9238307    224.04688  0.015957755  0.015447263           50 
 1171000   0.80250372   -7.9272033    224.00311  0.015941012  0.015432611           60 
 1172000   0.78739947   -7.9575499    223.72585  0.015907697  0.015417951           46 
 1173000   0.78215514   -7.9357137    224.07673  0.015919063  0.015403259           66 
 1174000   0.79182454    -7.917246    223.87023  0.015890846  0.015388629           46 
 1175000   0.78532525   -7.9510751    223.92302  0.015881065  0.015373974           54 
 1176000    0.7865498   -7.9363181    223.40537  0.015830879  0.015359305           52 
 1177000   0.78464396    -7.929122    223.73296  0.015840623   0.01534468           53 
 1178000   0.79010889   -7.9273594     223.3817  0.015802328  0.015330085           71 
 1179000   0.77931592   -7.9521892    223.94167  0.015828504  0.015315379           49 
 1180000   0.78615144   -7.9142053    223.72568  0.015799836  0.015300701           59 
 1181000   0.77543995   -7.9291878    224.16739  0.015817626   0.01528601           54 
 1182000   0.78543888   -7.9530929    224.02655  0.015794314   0.01527135           81 
 1183000   0.78649597   -7.9299782     223.7179  0.015759221  0.015256661           87 
 1184000   0.77924511   -8.0056318    223.69506  0.015744303  0.015241986           72 
 1185000   0.77646871   -7.9496339    223.70567  0.015731763  0.015227327           95 
 1186000   0.77344622   -7.9204601    224.09255  0.015745682  0.015212715           73 
 1187000   0.76394953   -7.9358392    223.69649  0.015704612  0.015198131           54 
 1188000   0.78671625   -7.9743932    223.86884  0.015703482  0.015183569           71 
 1189000   0.76793587   -7.9310153    224.04931  0.015702924  0.015169009           80 
 1190000   0.78850253   -7.9301491    223.88496  0.015678219  0.015154461           69 
 1191000   0.78130958   -7.9481258    223.97935  0.015671659  0.015139918          101 
 1192000   0.78778358   -7.9575612     224.3183  0.015682207  0.015125478           93 
 1193000   0.79635668   -7.9396482    224.43856  0.015677463   0.01511105           91 
 1194000   0.76731544   -7.9588981    223.92395  0.015628416  0.015096671          121 
 1195000   0.78091486   -7.9324342    224.10805  0.015628177  0.015082257          101 
 1196000   0.78067689   -7.9245753    224.24951  0.015624966  0.015067831          119 
 1197000    0.7701846   -7.9194585    224.17442  0.015606685  0.015053483          128 
 1198000   0.76027797   -7.9619036    224.28831   0.01560158  0.015039141          110 
 1199000   0.75948376   -7.9452139    224.04757  0.015571836  0.015024788          102 
 1200000   0.77042183   -7.9371495    224.06246  0.015559893  0.015010414          103 
 1201000   0.79018293   -7.9568818    223.49396  0.015507491  0.014995993          107 
 1202000   0.76168322    -7.947789    224.24853  0.015546903   0.01498166          101 
 1203000   0.78040171   -7.9668317     223.4402  0.015477985   0.01496733          125 
 1204000   0.79151502   -7.9532356    224.20142  0.015517817     0.014953           90 
 1205000   0.80508238   -7.9578299    223.89653  0.015483854   0.01493873          139 
 1206000   0.78505546   -7.9367766    223.83512  0.015466772  0.014924452           81 
 1207000   0.76194772   -7.9802538    224.03737  0.015467921  0.014910157          106 
 1208000   0.76553134   -7.9431435    224.53036  0.015489125  0.014895868          113 
 1209000   0.76156572   -7.9634436    224.44441  0.015470389  0.014881616          103 
 1210000   0.78125414   -7.9638273    224.18602  0.015439808  0.014867402           75 
 1211000   0.77770483   -7.9727114    223.76864  0.015398337  0.014853194          113 
 1212000   0.77690901   -7.9532218    224.44504   0.01543214  0.014838894          130 
 1213000   0.76409931   -7.9489433    224.09249  0.015395197   0.01482468           99 
 1214000   0.76844905   -8.0020636    224.09872  0.015382943   0.01481039          110 
 1215000   0.78393204   -7.9934852    223.68571  0.015341955  0.014796109           94 
 1216000   0.78224746   -8.0039635    223.69762  0.015330155  0.014781833          138 
 1217000   0.76861025   -7.9958767    223.97701   0.01533669  0.014767575          122 
 1218000   0.75945752   -7.9787086    224.16587  0.015337019  0.014753289          124 
 1219000   0.78367698     -8.01204       224.36  0.015337708  0.014739022          109 
 1220000    0.7601582   -7.9917892    224.11302  0.015308266  0.014724747          103 
 1221000   0.77866587   -7.9891453    224.08109  0.015293549  0.014710446          165 
 1222000   0.76658381   -7.9883907    223.70843  0.015255621  0.014696203          114 
 1223000   0.75261171   -8.0076511     223.0139  0.015195823  0.014681896          225 
 1224000   0.76962973    -8.018459    223.75534  0.015233887  0.014667604          175 
 1225000   0.76304882   -7.9950529    223.30385  0.015190738  0.014653281          118 
 1226000   0.77521422   -8.0086473    223.84987  0.015215461  0.014638979          245 
 1227000   0.76503933   -7.9899222    223.68438  0.015191822  0.014624729           99 
 1228000   0.75610162   -8.0019785    223.53487  0.015169305  0.014610515          161 
 1229000     0.768746    -8.010179    223.80562   0.01517532  0.014596241          132 
 1230000   0.75630236   -8.0112567    223.96037  0.015173467  0.014581999          159 
 1231000   0.75838809   -7.9957413    223.64644  0.015139889  0.014567821          112 
 1232000   0.74546807   -7.9961057    223.74889   0.01513453  0.014553653          183 
 1233000   0.78351159   -8.0030393    224.11358  0.015146903  0.014539561          172 
 1234000   0.74580983    -8.021639     224.1046  0.015134022  0.014525467          210 
 1235000   0.75248967   -7.9728391    223.92823  0.015109867  0.014511359          182 
 1236000   0.77339744   -8.0023292    223.78601  0.015088053   0.01449729          165 
 1237000   0.74643483    -8.016091    223.71135  0.015070827  0.014483182          225 
 1238000   0.76928228   -8.0196577     223.2557  0.015027982  0.014469038          205 
 1239000   0.75655294   -8.0004333    223.49381  0.015031868  0.014454958          231 
 1240000   0.74829832   -8.0090614    223.49837  0.015020052  0.014440864          199 
 1241000   0.75124959   -8.0335034    223.90426  0.015035204   0.01442677          222 
 1242000   0.77358771   -8.0330151    223.69771   0.01500924  0.014412685          260 
 1243000   0.75677544   -8.0542984     223.3401   0.01497319   0.01439861          235 
 1244000   0.76501728   -8.0164543    223.58676  0.014977677  0.014384564          216 
 1245000   0.75867497   -8.0385002    223.38324  0.014952024  0.014370489          227 
 1246000   0.77195834   -8.0151465    223.62811  0.014956401  0.014356405          235 
 1247000   0.75175351   -8.0526831    223.64754  0.014945706  0.014342401          216 
 1248000    0.7628354   -8.0514074    223.49398  0.014923476  0.014328382          194 
 1249000   0.74233204   -8.0408535    223.60011  0.014918609  0.014314378          213 
 1250000   0.75505731    -8.009689    224.56871  0.014971247  0.014300437          196 
 1251000   0.74111716    -8.026677    223.62313  0.014896292  0.014286565          208 
 1252000   0.75167951    -8.028045    224.02785  0.014911332  0.014272632          183 
 1253000    0.7633889   -8.0215232     224.3352  0.014919872  0.014258736          226 
 1254000   0.75756906   -8.0270946    224.20771  0.014899502  0.014244833          215 
 1255000   0.75754494   -8.0201801    224.15392  0.014884058   0.01423096          181 
 1256000   0.74692426   -8.0385529    223.97132  0.014860093  0.014217096          247 
 1257000   0.75132091   -8.0232862    224.15202   0.01486025  0.014203263          197 
 1258000   0.74837047   -8.0560165    223.61623  0.014812946  0.014189427          222 
 1259000   0.75849979   -8.0557293    224.00726  0.014827062  0.014175617          257 
 1260000    0.7465194    -8.051359    223.81335   0.01480247   0.01416176          243 
 1261000   0.75917315   -8.0538461    223.78108  0.014788599  0.014147882          260 
 1262000   0.75770042   -8.0444775    223.66595  0.014769278   0.01413407          265 
 1263000    0.7351494   -8.0652507    223.83393  0.014768668  0.014120283          266 
 1264000   0.76686869   -8.0689898    224.14056    0.0147772  0.014106462          321 
 1265000   0.75303424   -8.0796008    223.66182   0.01473398  0.014092662          318 
 1266000   0.73443683    -8.062443    223.41058  0.014705805  0.014078865          260 
 1267000   0.74137259    -8.056425     223.2504  0.014683662   0.01406507          321 
 1268000   0.74839282   -8.0569702    223.44778  0.014685054  0.014051286          281 
 1269000   0.74883038   -8.0911412     223.6493  0.014686715  0.014037508          326 
 1270000   0.74277065   -8.0583248       223.56  0.014669292  0.014023759          335 
 1271000   0.74838511   -8.0762098    223.70291   0.01466712  0.014009999          405 
 1272000   0.74733134   -8.0712293    223.80589  0.014662336  0.013996247          379 
 1273000   0.74832146   -8.0558929    223.60131  0.014637425  0.013982538          395 
 1274000   0.74100702   -8.0681796    223.39507  0.014612445  0.013968818          370 
 1275000   0.75726756   -8.0748931    223.34307  0.014597586  0.013955109          304 
 1276000   0.74789313   -8.0950585    223.59285  0.014602459    0.0139414          353 
 1277000   0.73983342   -8.0801478    223.31443  0.014572855  0.013927749          407 
 1278000    0.7404517   -8.0667617    223.56495  0.014577788  0.013914074          322 
 1279000   0.73784532   -8.0815491    223.26801  0.014547042  0.013900436          283 
 1280000   0.72527168   -8.0782248    223.81546  0.014571319  0.013886798          358 
 1281000    0.7386321   -8.0356491    224.12983  0.014580395  0.013873178          344 
 1282000   0.72791586   -8.0567715    223.29376  0.014514675  0.013859577          321 
 1283000   0.72747921   -8.0857003    224.07301  0.014553976  0.013845996          317 
 1284000   0.75224628    -8.088562    223.00336  0.014473219  0.013832408          452 
 1285000   0.73683123   -8.0700619    223.43028  0.014489642  0.013818816          437 
 1286000   0.73480596   -8.0682281    224.00507  0.014515621  0.013805207          379 
 1287000    0.7351525   -8.1127283    223.13844  0.014448228  0.013791609          404 
 1288000   0.73624788   -8.0922814    223.34436  0.014450334  0.013778024          392 
 1289000   0.73962543   -8.0740446    223.98783  0.014480724  0.013764472          447 
 1290000   0.74336537   -8.1033589    223.48754   0.01443718  0.013750934          454 
 1291000   0.73886447   -8.0724831    223.71556  0.014440715   0.01373735          419 
 1292000     0.737897   -8.0716133    223.57056  0.014420186  0.013723779          463 
 1293000   0.73835515   -8.0553431    223.50801  0.014405002  0.013710293          521 
 1294000   0.72886205   -8.0695557    223.85791  0.014416403  0.013696799          488 
 1295000   0.75360443   -8.0977621    223.00714  0.014350524  0.013683293          579 
 1296000   0.73554251   -8.1034953    223.40678  0.014365148  0.013669795          490 
 1297000   0.74649776   -8.0644198    223.72781  0.014374699  0.013656311          563 
 1298000   0.73031077   -8.0888397    223.82308  0.014369741  0.013642856          553 
 1299000   0.73419142   -8.1168381    223.49492  0.014337626  0.013629447          489 
 1300000   0.73890248   -8.0855839    223.47139  0.014325089  0.013616024          549 
 1301000   0.73266297   -8.0928104    223.39813  0.014309386  0.013602632          591 
 1302000    0.7281802   -8.1553277    222.57884  0.014245958  0.013589181          652 
 1303000   0.72707232   -8.0970759    223.55682  0.014297571  0.013575735          674 
 1304000   0.74950001   -8.1119254    223.21841   0.01426498  0.013562355          680 
 1305000   0.75896309   -8.1010289      223.296  0.014259004   0.01354897          646 
 1306000   0.72024878   -8.1240407    222.44027  0.014193484  0.013535557          692 
 1307000   0.72017426   -8.1409438    223.32083  0.014238768  0.013522128          749 
 1308000   0.74153814   -8.1381081    223.16345  0.014217855  0.013508743          610 
 1309000   0.73096899    -8.140423    222.77197  0.014182071  0.013495331          760 
 1310000   0.72736783   -8.1388653    223.20999  0.014199109  0.013481961          707 
 1311000    0.7227927   -8.1498689    223.19391  0.014187256  0.013468582          707 
 1312000   0.72993317   -8.1476743    222.85628  0.014154998  0.013455135          690 
 1313000   0.72460736   -8.1558646    222.61001  0.014128587  0.013441762          603 
 1314000   0.71340857   -8.1974956    221.96129  0.014076693  0.013428383          682 
 1315000   0.70872241   -8.1598077    222.89528  0.014125176  0.013414982          651 
 1316000   0.73097993   -8.1614987    223.08531  0.014126476  0.013401635          707 
 1317000   0.71572969   -8.1303797    223.28613  0.014128457  0.013388329          750 
 1318000   0.73796336   -8.1736885      223.031  0.014101606  0.013375063          833 
 1319000   0.72173591   -8.1522127    222.95001  0.014085798   0.01336177          849 
 1320000   0.73229972   -8.1334694    223.05898  0.014082006   0.01334847          760 
 1321000   0.71928299   -8.1752918    222.83753  0.014057376  0.013335204          842 
 1322000   0.73807545   -8.1660506    222.92062   0.01405198  0.013321936          892 
 1323000   0.70487396   -8.1697005    222.44106  0.014011153  0.013308666          913 
 1324000   0.73625879   -8.1738506     223.0121  0.014036512  0.013295411          859 
 1325000   0.72478013   -8.1742843    222.64444  0.014002795  0.013282155          957 
 1326000   0.72335869   -8.1633036    222.55725  0.013986755  0.013268895          790 
 1327000   0.73795033   -8.1657764     223.2924  0.014022381  0.013255688          976 
 1328000   0.71854489    -8.158314    223.30307  0.014012492  0.013242459          905 
 1329000   0.72534538    -8.193215    222.68127  0.013962959  0.013229221          814 
 1330000   0.73637181   -8.1794432    222.35968  0.013932311  0.013216018         1015 
 1331000   0.73373894   -8.1920025    222.55663  0.013934174  0.013202801         1008 
 1332000   0.70324208   -8.1961733    222.06846  0.013893172  0.013189598         1035 
 1333000    0.7153763   -8.2074222    222.52984  0.013911593  0.013176374         1047 
 1334000   0.73548948   -8.1802036    223.03105  0.013932475  0.013163174         1073 
 1335000   0.72621089   -8.1777154    222.33969  0.013878882  0.013149985         1072 
 1336000   0.73352862   -8.2071866    222.44283  0.013874927  0.013136809          970 
 1337000   0.71413778   -8.1898734    222.66814  0.013878593  0.013123632         1063 
 1338000   0.72748081   -8.2106008    222.30012  0.013845299  0.013110441         1115 
 1339000   0.73187572   -8.1906076    222.65267    0.0138569  0.013097328         1098 
 1340000   0.71622881   -8.2003837    222.37426  0.013829245  0.013084177         1059 
 1341000    0.7270379   -8.2001681    221.85311  0.013786546  0.013071023         1059 
 1342000   0.71257617   -8.2106017    222.70295  0.013829045  0.013057916         1099 
 1343000   0.69340103   -8.2217086    221.98167  0.013773993  0.013044753         1150 
 1344000   0.71176621   -8.2407927    221.98492  0.013763946  0.013031609         1149 
 1345000   0.72020204   -8.2219233    222.57641   0.01379036  0.013018484         1134 
 1346000   0.70967386   -8.2409781    221.88614  0.013737378   0.01300539         1122 
 1347000   0.71094546   -8.2323663    221.96208  0.013731878  0.012992303         1148 
 1348000   0.72326645   -8.2145999    222.64014  0.013763609  0.012979243         1195 
 1349000   0.72005048   -8.2645007    221.86599  0.013705584  0.012966169         1316 
 1350000   0.70855269   -8.2501275    222.63404  0.013742842  0.012953114         1202 
 1351000   0.71928853   -8.2180798    222.62128  0.013731883  0.012940099         1145 
 1352000   0.71239285   -8.2284414    222.60528   0.01372074  0.012927105         1167 
 1353000   0.71777198   -8.2300111    222.51758  0.013705197  0.012914095         1237 
 1354000   0.72747675   -8.2422987    222.37332  0.013686196  0.012901152         1175 
 1355000   0.71089581   -8.2144477    222.27504  0.013670052  0.012888226         1030 
 1356000   0.70337278   -8.2329961    222.50437  0.013674064  0.012875303         1224 
 1357000   0.71709175   -8.2430451    221.88763  0.013626114  0.012862374         1278 
 1358000   0.71338483   -8.2486976    222.53111  0.013655566  0.012849454         1181 
 1359000   0.69986688   -8.2174066    222.51846  0.013644742  0.012836527         1301 
 1360000   0.69789119   -8.2410547    222.53877  0.013635954  0.012823635         1315 
 1361000   0.71260325   -8.2743941    221.93456   0.01358894  0.012810741         1259 
 1362000   0.70491525   -8.2719281    221.98215  0.013581874  0.012797807         1364 
 1363000   0.72370783   -8.2528126    222.05523  0.013576378  0.012784937         1351 
 1364000   0.71657602   -8.2509206    222.14815  0.013572101   0.01277205         1408 
 1365000   0.69133176    -8.250766    222.55727  0.013587135  0.012759181         1338 
 1366000   0.71520497   -8.2654558    222.14216  0.013551864  0.012746363         1377 
 1367000    0.7113797   -8.2653866    222.53402  0.013565839  0.012733534         1343 
 1368000   0.71232913   -8.2840824     221.8363   0.01351342  0.012720716         1427 
 1369000   0.71246787   -8.2614135    221.65584  0.013492564  0.012707905         1471 
 1370000   0.70052599    -8.271306    221.85281  0.013494696  0.012695104         1441 
 1371000   0.69828203   -8.2781741    221.96816  0.013491865  0.012682308         1484 
 1372000   0.71422897   -8.2715845    221.97729  0.013482586  0.012669538         1492 
 1373000   0.69661688   -8.2902987    222.54405  0.013507165  0.012656798         1580 
 1374000   0.69562872   -8.2712048    222.27474  0.013481001   0.01264403         1601 
 1375000   0.70418268   -8.2784406    221.93591  0.013450661  0.012631284         1514 
 1376000   0.70107392   -8.2757199    222.34023  0.013465372   0.01261859         1448 
 1377000   0.70268453   -8.2913684    221.97494  0.013433487  0.012605926         1534 
 1378000   0.68961047   -8.2760467    221.88547  0.013418328  0.012593263         1571 
 1379000   0.69945926   -8.2674051    222.68029  0.013456629  0.012580637         1667 
 1380000   0.69242329   -8.2644748    222.12731  0.013413485  0.012567961         1611 
 1381000   0.70159383   -8.2632725    222.09808  0.013402008  0.012555309         1696 
 1382000   0.69655667   -8.2749976    221.52994  0.013358052  0.012542672         1658 
 1383000   0.70249848   -8.3146205    221.71881  0.013359774   0.01253003         1656 
 1384000   0.69604739   -8.3141201    221.67787  0.013347656  0.012517378         1574 
 1385000   0.69508177   -8.3160747    221.94505  0.013354095  0.012504735         1667 
 1386000   0.70798272   -8.3177715    221.86808  0.013339832  0.012492094         1659 
 1387000   0.70537932   -8.3138918    221.83768  0.013328388  0.012479467         1709 
 1388000   0.69120737   -8.3113133    221.74518  0.013313231  0.012466866         1738 
 1389000   0.70464047   -8.3256258    221.59566  0.013294676  0.012454261         1756 
 1390000   0.69530875   -8.2979658     221.8085  0.013297872  0.012441676         1728 
 1391000   0.69850643    -8.336051    221.70413  0.013282059  0.012429088         1853 
 1392000   0.70991349   -8.2932617    221.61344  0.013267088   0.01241652         1709 
 1393000     0.690161   -8.3006793      221.393  0.013244376  0.012403971         1757 
 1394000   0.69585136   -8.2964356    221.79979  0.013259194  0.012391473         1772 
 1395000   0.71027426   -8.3009826     221.4347  0.013227879  0.012378958         1781 
 1396000   0.69326652   -8.3268631     221.7994  0.013240174  0.012366416         1822 
 1397000   0.69440896   -8.3410603    221.38277  0.013205844  0.012353877         1832 
 1398000   0.71065852   -8.3170558    221.53142  0.013205258  0.012341333         1935 
 1399000   0.68083463   -8.3439937    221.13702  0.013172326  0.012328797         1981 
 1400000   0.69043354   -8.3332607    221.28641   0.01317181  0.012316271         1958 
 1401000    0.6786939   -8.3259578    221.25435  0.013160502  0.012303734         1965 
 1402000   0.70092335   -8.3550963    221.12343  0.013143333  0.012291217         1964 
 1403000   0.70107308   -8.3404653    221.56235  0.013160035  0.012278708         1847 
 1404000   0.68923006   -8.3332767    221.08061  0.013122068  0.012266211         1993 
 1405000   0.69152398   -8.3600825     221.1978   0.01311968  0.012253735         1971 
 1406000   0.70685281   -8.3548597    221.27173  0.013114731  0.012241271         1920 
 1407000   0.70460011   -8.3663253    221.03244  0.013091237  0.012228801         2032 
 1408000   0.67620017   -8.3759698     220.8525  0.013071289  0.012216331         2067 
 1409000   0.69576033   -8.3438998    221.48435  0.013099382  0.012203889         2067 
 1410000   0.69359475   -8.3690261    220.69559  0.013043475  0.012191448         2100 
 1411000   0.69005939   -8.3968559    221.11056  0.013058738  0.012178998         2023 
 1412000   0.70100026   -8.3598873    220.93836  0.013039327  0.012166586         1978 
 1413000   0.68570046   -8.3674075    221.23928  0.013047846  0.012154177         2070 
 1414000   0.72497862   -8.3496025    220.74275  0.013009356  0.012141797         2115 
 1415000   0.69152792   -8.3655038    221.31607  0.013033927  0.012129439         2152 
 1416000   0.70348564   -8.3712716    220.71848  0.012989553  0.012117069         2125 
 1417000    0.6840127   -8.3652566     221.3938  0.013020101  0.012104701         2123 
 1418000   0.67528035   -8.3782748    220.73134  0.012971988  0.012092378         2070 
 1419000   0.68125683    -8.383904    220.85038  0.012969837  0.012080062         2076 
 1420000    0.6809635    -8.376097    221.06759   0.01297345  0.012067755         2218 
 1421000   0.68032435   -8.3563768    221.21858  0.012973175  0.012055477         2246 
 1422000   0.69013507   -8.3711547    221.18237   0.01296193  0.012043181         2287 
 1423000   0.68675453   -8.3838347    221.01209  0.012942849  0.012030909         2171 
 1424000   0.68989795   -8.3954011     220.4267  0.012899502   0.01201862         2221 
 1425000   0.70140052   -8.4049769    220.65923  0.012904048  0.012006336         2247 
 1426000    0.7001287   -8.4104051    220.96332   0.01291277  0.011994064         2214 
 1427000   0.70268772   -8.4002251    221.12949  0.012913425  0.011981789         2256 
 1428000   0.69093882   -8.4212169    220.45454  0.012864994  0.011969537         2274 
 1429000   0.68839781   -8.3809838    220.35307  0.012850074  0.011957299         2228 
 1430000   0.68422368   -8.4124692    220.45202  0.012846854  0.011945072         2285 
 1431000   0.69674276   -8.4012962    220.22076   0.01282441  0.011932861         2303 
 1432000   0.69514109   -8.3883703     220.7691  0.012847364  0.011920671         2314 
 1433000   0.68722989   -8.4044093     220.5407  0.012825117  0.011908479         2287 
 1434000   0.67973355   -8.4178582    220.40765  0.012808441  0.011896323         2290 
 1435000     0.686904   -8.4027572    220.57757  0.012809383  0.011884171         2334 
 1436000    0.6626061   -8.4131379     221.2503  0.012839502  0.011872031         2278 
 1437000   0.69470665   -8.3906464    220.44526  0.012783882  0.011859909         2352 
 1438000   0.68564877   -8.4294572    220.55232  0.012781196  0.011847805         2362 
 1439000   0.68924686   -8.4032134    220.55498  0.012772468  0.011835715         2329 
 1440000   0.67637725    -8.416334    220.59807  0.012766092  0.011823636         2293 
 1441000    0.6911669   -8.4187979     220.9849  0.012779603  0.011811547         2384 
 1442000   0.67158222   -8.4055757    220.62578  0.012749987  0.011799474         2411 
 1443000   0.66866537   -8.4436147     220.1982  0.012716459  0.011787414         2323 
 1444000   0.69392319   -8.4391634    220.81615  0.012743314   0.01177536         2353 
 1445000   0.66930131   -8.4222484     220.3828  0.012709504  0.011763316         2439 
 1446000   0.67788153   -8.4439301    220.16078   0.01268792  0.011751276         2360 
 1447000   0.67147847    -8.426215    220.39653  0.012692728  0.011739255         2464 
 1448000   0.69792355   -8.4519696    220.08347  0.012665946  0.011727236         2436 
 1449000   0.67948397   -8.4370282    220.05659  0.012655659  0.011715196         2490 
 1450000   0.69999654   -8.4502502    219.99867  0.012643601  0.011703168         2452 
 1451000   0.67904342   -8.4356819      220.327  0.012653745  0.011691151         2513 
 1452000    0.6636361   -8.4195922    220.18048   0.01263662  0.011679154         2405 
 1453000   0.66588403   -8.4529156    220.53415  0.012648208  0.011667187         2512 
 1454000    0.6768715   -8.4581306    220.44331  0.012634303  0.011655212         2509 
 1455000   0.69446499   -8.4781213    219.95196  0.012597478  0.011643253         2500 
 1456000   0.67028943   -8.4517037    220.00182  0.012591679   0.01163131         2578 
 1457000   0.67476713    -8.434324    220.41598  0.012606725  0.011619381         2517 
 1458000   0.68395557   -8.4414022    219.99941  0.012574269  0.011607458         2578 
 1459000   0.66458713   -8.4617602     220.1333  0.012573298  0.011595553         2553 
 1460000   0.67644747   -8.4240501    220.04558  0.012559679  0.011583665         2535 
 1461000   0.66499551   -8.4621644    219.94883  0.012545564  0.011571784         2567 
 1462000   0.67651828    -8.455575    219.82287  0.012529804  0.011559917         2541 
 1463000   0.67189363   -8.4520114    220.01073  0.012531939  0.011548061         2595 
 1464000   0.67950413   -8.4605788    219.65387  0.012503066  0.011536227         2651 
 1465000   0.66766274   -8.4691085    219.76569  0.012500893  0.011524413         2557 
 1466000   0.66863472   -8.4560803    219.91472  0.012500837  0.011512603         2726 
 1467000   0.66295466    -8.456685    220.01793  0.012498178  0.011500791         2617 
 1468000   0.65934699   -8.4720822    219.73173  0.012473418  0.011488984         2614 
 1469000   0.67211392   -8.4659178    219.79319  0.012468414  0.011477186         2709 
 1470000   0.67621325   -8.4706715    219.62033  0.012450132   0.01146543         2700 
 1471000   0.65303788   -8.4918106    219.73241  0.012448018  0.011453687         2704 
 1472000   0.66405352   -8.4588629    220.05621  0.012457892  0.011441934         2723 
 1473000    0.6692997   -8.4461105    220.20177  0.012457669  0.011430211         2676 
 1474000   0.66415399   -8.4839953    220.10041  0.012443487  0.011418503         2731 
 1475000   0.66698338   -8.4791593    219.37241  0.012393922  0.011406813         2650 
 1476000   0.67341269   -8.5122446    219.84182  0.012412027  0.011395146         2745 
 1477000   0.66167802   -8.4785899    219.68733  0.012394907  0.011383462         2733 
 1478000   0.66174511   -8.4817889    219.88562  0.012397701  0.011371814         2764 
 1479000   0.65657442   -8.4722551     219.7354  0.012380854  0.011360168         2753 
 1480000   0.67621851   -8.4911644    220.13868  0.012395196  0.011348547         2718 
 1481000   0.66946466   -8.4644376    219.97763  0.012377765  0.011336938         2719 
 1482000   0.65403919     -8.44956    219.95342  0.012368051  0.011325338         2675 
 1483000   0.66232238   -8.4878212     219.7312  0.012347224   0.01131375         2727 
 1484000   0.65978075   -8.4995794    219.41445  0.012321117  0.011302177         2682 
 1485000   0.65820925   -8.4999294     219.9265  0.012341554  0.011290598         2651 
 1486000   0.66441854   -8.5094068    220.04673  0.012339992  0.011279052         2717 
 1487000   0.65385299     -8.49019    219.70252  0.012312403  0.011267489         2763 
 1488000   0.65209845   -8.4918579    219.23316  0.012277843  0.011255934         2737 
 1489000   0.66444026   -8.5002093    219.67303  0.012294215  0.011244382         2770 
 1490000   0.64914148   -8.5151558      219.495  0.012276007  0.011232852         2755 
 1491000   0.66110483   -8.4948685    219.31153  0.012257519  0.011221332         2755 
 1492000   0.66864131    -8.490041    219.01306  0.012232633  0.011209825         2765 
 1493000   0.66120311   -8.5098983    219.57559  0.012255838  0.011198329         2800 
 1494000   0.65063854    -8.504659    219.19199  0.012226238  0.011186834         2782 
 1495000   0.66902512   -8.5254068    219.30257  0.012224223  0.011175363         2788 
 1496000    0.6713036    -8.492045    219.37607  0.012220147  0.011163913         2733 
 1497000    0.6562276   -8.5100033    219.57781  0.012223214  0.011152472         2708 
 1498000   0.64888739   -8.5104098    219.48304  0.012209782  0.011141059         2834 
 1499000   0.65264444    -8.518745    219.19419  0.012185579  0.011129648         2802 
 1500000   0.64460242   -8.5222875    219.17182  0.012176212   0.01111826         2853 
 1501000   0.65445836   -8.5385586     218.9676  0.012156762  0.011106878         2752 
 1502000   0.64329083    -8.508254    219.09297  0.012155624  0.011095508         2787 
 1503000   0.63617824   -8.5089114    219.61069  0.012176242   0.01108415         2827 
 1504000    0.6424319   -8.5039852    219.48878  0.012161391  0.011072796         2845 
 1505000   0.65641302    -8.526881    219.47373  0.012152477  0.011061469         2878 
 1506000   0.65001386   -8.5193516    219.25133  0.012132101  0.011050154         2838 
 1507000   0.66074214   -8.4951141     219.1709  0.012119603  0.011038872         2843 
 1508000   0.64907455   -8.5264982    219.18474  0.012112331  0.011027601         2858 
 1509000   0.65027748   -8.5368825    219.59909  0.012127186  0.011016332         2893 
 1510000   0.65502252   -8.5500775    219.38676  0.012107437  0.011005063         2875 
 1511000   0.65568395    -8.538556    218.84262  0.012069414   0.01099381         2810 
 1512000   0.63684857   -8.5425453    219.13306  0.012077439  0.010982575         2915 
 1513000   0.64864735   -8.5019128    219.82935  0.012107807   0.01097135         2816 
 1514000     0.641935   -8.5195013    219.24875  0.012067853  0.010960146         2965 
 1515000   0.65081836   -8.5207743    219.19829  0.012057112  0.010948969         2838 
 1516000   0.65443119   -8.5296764    218.88378   0.01203187  0.010937805         2931 
 1517000   0.65386662   -8.5441458    219.37053  0.012050677  0.010926655         2897 
 1518000   0.65559953   -8.5578758    219.09825  0.012027791  0.010915519         2907 
 1519000   0.65504143   -8.5207508    218.79899  0.012003456  0.010904399         2859 
 1520000   0.64511196   -8.5413556    219.03091  0.012008274  0.010893289         2831 
 1521000   0.65467283   -8.5239536    218.87497  0.011991835  0.010882188         2844 
 1522000   0.65026312    -8.523237    219.35043  0.012009988  0.010871082         2893 
 1523000   0.65717697   -8.5385947    219.14486  0.011990855  0.010860004         2865 
 1524000   0.63649515   -8.5319277    219.24523  0.011988475  0.010848936         2869 
 1525000   0.63757292    -8.516145    219.46735  0.011992751  0.010837884         2864 
 1526000   0.65138774   -8.5171422    219.24596  0.011972803  0.010826844         2940 
 1527000   0.62692213   -8.5297058    219.57155   0.01198273   0.01081582         2906 
 1528000   0.63310599   -8.5675173    219.06154  0.011947074  0.010804796         2941 
 1529000   0.64876479    -8.521215    219.25545  0.011949828  0.010793795         2953 
 1530000   0.64322265   -8.5487979    219.28737  0.011943756  0.010782809         2953 
 1531000   0.63599124   -8.5265459    220.02554  0.011976134  0.010771829         2860 
 1532000   0.63412154   -8.5269017    219.30637  0.011929198  0.010760879         2910 
 1533000   0.65148719   -8.5592044     218.8277  0.011895396  0.010749948         2983 
 1534000   0.64682798   -8.5557964    218.76668  0.011884327  0.010739007         2943 
 1535000   0.64611247   -8.5471803    219.47623  0.011915105  0.010728077         3001 
 1536000   0.64071515    -8.549833    219.40964  0.011903735  0.010717156         2959 
 1537000   0.64319975    -8.551735     219.3739  0.011894052  0.010706249         2940 
 1538000   0.64294037   -8.5434619    219.38546  0.011886945  0.010695367         2978 
 1539000   0.64812677   -8.5477859    218.84916  0.011850182  0.010684496         2917 
 1540000   0.64960603   -8.5593875    219.01575  0.011851502  0.010673643         2976 
 1541000   0.62455117   -8.5497563    218.96863  0.011841263  0.010662796         2940 
 1542000   0.62721648   -8.5477943    219.04102  0.011837496  0.010651951         2983 
 1543000   0.63988091   -8.5664565    219.53781  0.011856654  0.010641134         2934 
 1544000   0.63795278   -8.5524782    219.39404  0.011841215  0.010630334         2893 
 1545000   0.63362095   -8.5600347    219.24849  0.011825701  0.010619554         2945 
 1546000   0.63355143   -8.5468626     218.9018  0.011799364  0.010608764         2932 
 1547000   0.62477249   -8.5651982    218.54126  0.011772315  0.010597999         2913 
 1548000    0.6310109   -8.5574371    218.90814  0.011784461  0.010587236         2960 
 1549000   0.63751271   -8.5660354    218.83071  0.011772687  0.010576492         2915 
 1550000   0.62881912   -8.5486465    219.09478  0.011779289  0.010565774         2932 
 1551000   0.63181411   -8.5540335    219.07513  0.011770639  0.010555053         2902 
 1552000   0.63893021   -8.5599963    219.13036   0.01176602  0.010544355         2977 
 1553000   0.62737262   -8.5654672    219.13851  0.011758881  0.010533657         2981 
 1554000   0.62665886   -8.5718558    218.39001  0.011711176  0.010522994         2983 
 1555000   0.62912229   -8.5703327    218.99082  0.011735842  0.010512332         2972 
 1556000   0.62871314   -8.5490085    218.76854  0.011716396  0.010501685         2943 
 1557000   0.62465971    -8.554672    218.87563  0.011714603  0.010491045         2905 
 1558000   0.62922264   -8.5546669    218.79302  0.011702665  0.010480428         2953 
 1559000   0.62058427   -8.5609915    218.76456  0.011693637  0.010469821         2885 
 1560000    0.6437564   -8.5656026    219.18105  0.011708389  0.010459237         2893 
 1561000   0.61906701   -8.5638829    218.49804  0.011664426  0.010448648         2946 
 1562000   0.63394176   -8.5736151    218.66164  0.011665687  0.010438069         2990 
 1563000   0.62944017   -8.5524286     219.6188  0.011709256  0.010427521         2960 
 1564000    0.6328615   -8.5696877    218.84818  0.011660708  0.010416985         2962 
 1565000   0.62170818   -8.5766866    218.87937  0.011654919  0.010406448         2927 
 1566000   0.62155268   -8.5643921    218.87117   0.01164704  0.010395919         2971 
 1567000   0.62364856   -8.5774607    218.64987  0.011627838  0.010385414         2938 
 1568000   0.62803207    -8.559697    218.80953  0.011628908   0.01037491         2960 
 1569000   0.62678608    -8.566344     218.8056  0.011621287  0.010364426         2914 
 1570000   0.61906995   -8.5712355    218.62275   0.01160418  0.010353952         2877 
 1571000   0.63197072   -8.5734052    219.07019  0.011620528  0.010343495         2951 
 1572000   0.62593351   -8.5946888    218.52983   0.01158449  0.010333059         2915 
 1573000   0.62345194    -8.575611    219.10193  0.011607434  0.010322625         2950 
 1574000   0.62600943   -8.5681019    218.72639  0.011580178  0.010312207         2949 
 1575000   0.62452596   -8.5796774    218.78277  0.011575808  0.010301792         2943 
 1576000   0.61519314   -8.5813419     218.8417  0.011571579   0.01029139         2947 
 1577000   0.62481266   -8.5993457    218.92434  0.011568608  0.010281001         2949 
 1578000   0.62692094   -8.5986715    218.33854  0.011530341  0.010270636         2950 
 1579000   0.62356564   -8.5851641    218.46128  0.011529517  0.010260271         3016 
 1580000    0.6223165   -8.5656316    218.67544  0.011533515  0.010249918         3008 
 1581000   0.63129257   -8.6045302    218.69281  0.011527135  0.010239592         2968 
 1582000   0.62185546   -8.6037985    218.47964   0.01150862  0.010229277         3004 
 1583000   0.62157919   -8.5951291    218.75378  0.011515781  0.010218976         2961 
 1584000   0.61820835   -8.5782966    218.73928  0.011507748  0.010208668         3032 
 1585000    0.6234337   -8.5824175    218.41844  0.011483619  0.010198398         3036 
 1586000   0.63339115   -8.5982003    218.39611  0.011475206  0.010188123         3042 
 1587000   0.62366228    -8.580441    218.76038  0.011487102  0.010177871         3020 
 1588000   0.61474351   -8.6033012    218.70824  0.011477133  0.010167626         3048 
 1589000   0.61950865    -8.630118    218.53413  0.011460779  0.010157381         3034 
 1590000   0.61759675   -8.6091143    218.52038   0.01145285  0.010147163         3038 
 1591000    0.6210634   -8.5863054    218.65035  0.011452459  0.010136948         3003 
 1592000    0.6086159   -8.6014161    218.54605  0.011439806   0.01012676         3056 
 1593000   0.62600841   -8.6224125    218.38932  0.011424425  0.010116578         3036 
 1594000   0.62673224   -8.5773358    218.69884   0.01143344  0.010106427         2926 
 1595000    0.6085097   -8.6022768    219.01089  0.011442575  0.010096282         2977 
 1596000   0.62255175   -8.5850622    218.85743  0.011427393  0.010086138         2995 
 1597000    0.6223773   -8.6190406     218.4526  0.011399113  0.010076019         3009 
 1598000   0.61991776    -8.604994     218.1961  0.011378603  0.010065889         3096 
 1599000   0.61199726   -8.6092782    218.53596  0.011389199   0.01005577         3092 
 1600000   0.62050767   -8.6279106    218.48919  0.011379645  0.010045659         3143 
 1601000   0.61115242   -8.6052734    218.61191  0.011378925  0.010035555         3055 
 1602000   0.62261927    -8.618579    218.65623  0.011374128  0.010025466         3100 
 1603000   0.62655338   -8.6370067    218.42044  0.011354774  0.010015405         3117 
 1604000   0.62215277   -8.6056073    218.49126  0.011351375  0.010005345         3085 
 1605000   0.60551851   -8.6056219    218.47693  0.011343558 0.0099952952         3114 
 1606000   0.62686364   -8.6016763    218.05786   0.01131475 0.0099852657         3087 
 1607000   0.61939202   -8.5996358    218.42233  0.011326609 0.0099752526         3076 
 1608000   0.61587424   -8.5990287    218.36105  0.011316389 0.0099652468         3122 
 1609000   0.61437952   -8.6113415    218.27748  0.011305028  0.009955249         3134 
 1610000    0.6237871   -8.6007002    218.50417  0.011309739 0.0099452606         3112 
 1611000    0.6144882   -8.6144478    218.57685  0.011306479 0.0099353016         3100 
 1612000   0.59669791   -8.5952237    217.92551  0.011265793 0.0099253402         3044 
 1613000   0.61664935   -8.6190072    218.55464  0.011291312 0.0099153907         3094 
 1614000   0.60726674    -8.628773    218.39328  0.011275985 0.0099054582         3157 
 1615000   0.61909196    -8.617215    218.38968  0.011268818 0.0098955315         3170 
 1616000   0.59089491   -8.6077726    217.94807  0.011239071  0.009885625         3068 
 1617000   0.61023049   -8.6303905    218.18961  0.011244569 0.0098757207         3109 
 1618000   0.61385552   -8.6380598    217.94615   0.01122508 0.0098658412         3132 
 1619000   0.61508162   -8.6080064    218.46149  0.011244672 0.0098559739         3097 
 1620000   0.61108745   -8.6141965    218.29982  0.011229415 0.0098461159         3156 
 1621000   0.60840212   -8.6409912    218.15459  0.011215021 0.0098362679         3175 
 1622000   0.59667688   -8.6099791    218.29289  0.011215212 0.0098264397         3113 
 1623000   0.60264491   -8.6350272    218.05624  0.011196151 0.0098166251         3182 
 1624000   0.59411801    -8.626669    218.19283  0.011196266 0.0098068175         3154 
 1625000   0.61162054   -8.6294779    218.19545   0.01118951 0.0097970264         3155 
 1626000    0.6123374   -8.6399344    218.07764  0.011176591 0.0097872427         3192 
 1627000   0.60384927   -8.6471062     218.2544  0.011178775 0.0097774639         3205 
 1628000   0.59703925   -8.6284248    218.22394  0.011170349  0.009767712         3235 
 1629000   0.59346403   -8.6213931    217.86684  0.011145224 0.0097579521         3143 
 1630000   0.60707878   -8.6383395    217.85362  0.011137711 0.0097482044         3219 
 1631000   0.60882727   -8.6381539    217.61193  0.011118533 0.0097384745         3216 
 1632000   0.60387159   -8.6377458    218.01572  0.011132339 0.0097287493         3165 
 1633000   0.60880366   -8.6483944    217.97919  0.011123658 0.0097190345         3212 
 1634000   0.59211428   -8.6568508    217.64235  0.011099671 0.0097093296         3212 
 1635000   0.59998707    -8.633831    217.87266  0.011104621 0.0096996387         3189 
 1636000   0.59673437   -8.6450616    218.28061  0.011118613 0.0096899649         3259 
 1637000   0.59341718   -8.6339015    217.84416  0.011089603 0.0096803011         3231 
 1638000   0.59106545   -8.6421993     218.1699  0.011099405 0.0096706478         3214 
 1639000   0.57882452   -8.6318945    218.02289  0.011085158 0.0096610067         3207 
 1640000   0.59081812    -8.646971    218.04403  0.011079473 0.0096513752         3236 
 1641000   0.60668644   -8.6462426    218.04485  0.011072763 0.0096417655         3247 
 1642000   0.60510143   -8.6578487    217.75655  0.011051388 0.0096321495         3253 
 1643000   0.59100824   -8.6243073    217.85215  0.011049511  0.009622545         3238 
 1644000   0.59835572   -8.6380171    218.02403  0.011051502 0.0096129592         3261 
 1645000   0.60740281   -8.6689574    217.91175  0.011039096 0.0096033882         3279 
 1646000   0.59073474   -8.6411053    217.69368  0.011021349 0.0095938295         3225 
 1647000   0.59416289   -8.6505119     217.7938  0.011019723  0.009584285         3291 
 1648000   0.60328578     -8.64605      217.579  0.011002175  0.009574738         3289 
 1649000   0.58202283   -8.6357752    217.86388  0.011009899 0.0095652175         3226 
 1650000   0.59948249   -8.6694665    218.10589  0.011015449 0.0095556997         3243 
 1651000   0.58907724   -8.6532602    217.97697   0.01100227 0.0095461853         3236 
 1652000   0.59781229   -8.6525398     217.3026  0.010961592 0.0095366896         3190 
 1653000   0.60423096   -8.6339169    218.13327  0.010996838 0.0095272137         3260 
 1654000   0.58830883   -8.6500085    217.93082  0.010979989 0.0095177475         3276 
 1655000   0.58366199   -8.6536235    217.90391  0.010971999 0.0095082884         3208 
 1656000   0.60650963   -8.6585516    217.93866  0.010967122 0.0094988582         3248 
 1657000   0.60106741   -8.6841701    217.49086  0.010937983 0.0094894315         3259 
 1658000   0.58154943   -8.6668942    217.45605  0.010929637 0.0094800134         3322 
 1659000   0.58967131    -8.659225    217.73536  0.010937079 0.0094706012         3251 
 1660000    0.5980315   -8.6498026    218.10661  0.010949127 0.0094612112         3288 
 1661000   0.59664061   -8.6659483     218.0469  0.010939539  0.009451839         3324 
 1662000   0.58082621   -8.6696041     218.1122  0.010936231 0.0094424712         3344 
 1663000   0.57898118   -8.6695589    217.65615  0.010906802 0.0094331042         3305 
 1664000   0.58775613   -8.6648228    217.53942  0.010894402 0.0094237467         3318 
 1665000   0.56938903   -8.6793947    217.88134  0.010904972 0.0094144091         3311 
 1666000   0.62159597   -8.6532036    217.94112  0.010901417 0.0094050899         3308 
 1667000   0.59742192   -8.6577738    217.78511  0.010887078 0.0093957892         3245 
 1668000   0.57892817   -8.6829246    217.53551  0.010868081 0.0093864839         3282 
 1669000   0.59888348   -8.6657749    217.89989  0.010879763 0.0093771932         3272 
 1670000   0.58063062   -8.6668671    217.86139  0.010871327 0.0093679103         3385 
 1671000   0.59458145   -8.6689506     217.7443  0.010858982 0.0093586476         3260 
 1672000   0.58286944   -8.6710125    217.85016  0.010857763 0.0093493895         3333 
 1673000   0.58518904   -8.6709067    217.26976  0.010822363 0.0093401396         3269 
 1674000   0.57892925   -8.6709885    217.67658   0.01083615 0.0093308994         3268 
 1675000   0.58202835   -8.6648105     217.7458  0.010833125 0.0093216795         3299 
 1676000   0.59545644   -8.6738359    217.74866  0.010826803 0.0093124789         3275 
 1677000   0.58613491   -8.6663877    217.46206  0.010806105  0.009303282         3316 
 1678000   0.58220131   -8.6870991     218.0356  0.010828149 0.0092940899         3296 
 1679000   0.59532464   -8.6838241    217.37982  0.010789151 0.0092849135         3315 
 1680000   0.59339107   -8.6793915    217.44307  0.010785867 0.0092757627         3303 
 1681000    0.5836923   -8.6809065    217.19599  0.010767202 0.0092666138         3291 
 1682000   0.58974672   -8.6765778    217.79037  0.010790248   0.00925748         3248 
 1683000   0.57750038   -8.6824534    217.30191  0.010759651 0.0092483557         3261 
 1684000   0.57103545   -8.6808454    217.16459  0.010746466 0.0092392369         3285 
 1685000   0.58660455   -8.6937623    217.45561  0.010754481 0.0092301325         3318 
 1686000   0.58570782   -8.6812882    217.57482  0.010753995 0.0092210411         3305 
 1687000   0.58200563    -8.670464     217.5657   0.01074717  0.009211966         3302 
 1688000   0.57778273   -8.6802595    217.57828  0.010741424 0.0092029039         3270 
 1689000   0.57914075    -8.667998    218.00728  0.010756231 0.0091938521         3328 
 1690000   0.57591771   -8.6796226    217.91209  0.010745172 0.0091848184         3295 
 1691000   0.59817674   -8.6956359    217.50977  0.010718991 0.0091757859         3276 
 1692000    0.5790395   -8.6896135    217.26839  0.010700768 0.0091667619         3371 
 1693000    0.5771521   -8.6831297    217.35279  0.010698601 0.0091577516         3282 
 1694000   0.58328438   -8.6985937    217.55656   0.01070231 0.0091487477         3263 
 1695000   0.57624541   -8.6914188    217.14031  0.010675532 0.0091397615         3299 
 1696000   0.56410968   -8.6889542    217.42451  0.010683201 0.0091307849         3280 
 1697000   0.57161795   -8.6753753    217.48394  0.010679824 0.0091218158         3306 
 1698000   0.57521799   -8.6866303    217.53595  0.010676087 0.0091128555         3356 
 1699000   0.57359765   -8.6874138    217.68031  0.010676884 0.0091039033         3376 
 1700000   0.58076407   -8.6998041    217.66663  0.010669933  0.009094966         3357 
 1701000   0.56684521   -8.6899903     217.7293  0.010666731 0.0090860311         3308 
 1702000   0.57434201   -8.7054347    217.16733  0.010632948 0.0090771038         3328 
 1703000   0.58247586   -8.6962869    217.09474  0.010623152 0.0090682036         3280 
 1704000   0.57459858   -8.6961151    217.29487  0.010626705  0.009059308         3315 
 1705000   0.56939379   -8.6914602    217.04926  0.010608468 0.0090504139         3400 
 1706000    0.5887499    -8.706572    217.61916  0.010630088  0.009041529         3383 
 1707000   0.58246693   -8.7070784    217.21013  0.010603892 0.0090326534         3379 
 1708000   0.57094002   -8.7438808    217.00787  0.010587815 0.0090237931         3383 
 1709000   0.58702505    -8.691335    217.72262  0.010616473 0.0090149403         3383 
 1710000   0.56304861   -8.7178527    217.31619  0.010590458 0.0090060971         3431 
 1711000    0.5749059   -8.7078772     217.1194  0.010574683  0.008997275         3450 
 1712000   0.57466502   -8.7004302    216.97767  0.010561608 0.0089884623         3289 
 1713000    0.5763942   -8.7068623    217.33684  0.010572915 0.0089796646         3377 
 1714000   0.55922293   -8.6964798    216.73787  0.010537625 0.0089708599         3333 
 1715000   0.56623398   -8.7130185    216.92124  0.010540391 0.0089620652         3301 
 1716000   0.57376376   -8.7242596    217.30546  0.010552907  0.008953289         3359 
 1717000   0.57247608   -8.7156814    217.32491  0.010547705   0.00894454         3377 
 1718000   0.56415931   -8.6990269    217.24654  0.010537764 0.0089357918         3394 
 1719000   0.57384168   -8.7158327    217.25722  0.010532152 0.0089270535         3303 
 1720000   0.57681646   -8.7080602    217.34383  0.010530224 0.0089183277         3388 
 1721000   0.56443556   -8.7174318     217.7756  0.010545012  0.008909618         3331 
 1722000   0.57596862    -8.719819     217.1387  0.010508067 0.0089009091         3368 
 1723000   0.55926527     -8.70118     217.5768  0.010523157 0.0088922183         3380 
 1724000   0.56500614   -8.7291019     217.3918  0.010508111 0.0088835338         3339 
 1725000   0.55188528    -8.712535    217.31072  0.010498103  0.008874858         3301 
 1726000   0.55642166   -8.7172701    217.00944  0.010477474 0.0088661973         3344 
 1727000   0.55671975   -8.7091644    217.59848   0.01049983 0.0088575473         3346 
 1728000   0.55686507   -8.7131593    217.41626  0.010484966 0.0088489021         3316 
 1729000   0.55996958   -8.7247307    217.24713  0.010470751 0.0088402831         3319 
 1730000   0.56382527   -8.7360194    217.29324  0.010466919 0.0088316603         3328 
 1731000   0.55717299   -8.7178665     217.1841  0.010455618  0.008823055         3341 
 1732000   0.56387926   -8.7231181    217.05489  0.010443365 0.0088144605         3371 
 1733000   0.56798554    -8.733643    217.39189  0.010453544 0.0088058744         3336 
 1734000   0.56958236   -8.7209815    217.25633     0.010441 0.0087973019         3349 
 1735000   0.55287604    -8.716429    217.69145  0.010455881 0.0087887372         3307 
 1736000   0.55713386   -8.7260518    216.97264  0.010415353 0.0087801833         3264 
 1737000   0.54999618    -8.722444     217.3257  0.010426295 0.0087716438         3360 
 1738000   0.56447061   -8.7206297    217.15744  0.010412229 0.0087631097         3305 
 1739000     0.554912   -8.7390882    217.31969  0.010414016 0.0087545876         3330 
 1740000   0.56748883   -8.7270745    216.87105  0.010386545 0.0087460706         3307 
 1741000   0.55713272   -8.7221487    217.03627  0.010388487 0.0087375742         3389 
 1742000   0.55775848   -8.7240122    217.11086  0.010386092 0.0087290778         3326 
 1743000   0.55513258   -8.7248955    217.30989  0.010389649 0.0087205926         3293 
 1744000   0.55550066   -8.7386725    216.75863   0.01035735 0.0087121175         3378 
 1745000    0.5565065   -8.7313713    216.94771  0.010360445 0.0087036473         3368 
 1746000   0.55603616   -8.7274218    217.00937  0.010357454 0.0086951999         3328 
 1747000    0.5413091   -8.7342487    217.36777  0.010368621 0.0086867594         3311 
 1748000   0.54319457   -8.7291024    217.00933  0.010345601 0.0086783253         3294 
 1749000   0.55385917   -8.7452155    217.25159  0.010351229 0.0086699038         3335 
 1750000   0.55045942   -8.7304331    216.99566  0.010333127 0.0086615061         3230 
 1751000   0.54808424   -8.7298864    217.19176  0.010336558  0.008653119         3338 
 1752000   0.55276503   -8.7361213    217.38419  0.010339811 0.0086447351         3397 
 1753000    0.5497132   -8.7136681    217.47312   0.01033814 0.0086363644         3255 
 1754000   0.55617536   -8.7326163    216.97146  0.010308412 0.0086279913         3283 
 1755000   0.55327245   -8.7316871     217.0008  0.010303932  0.008619637         3316 
 1756000   0.55788574   -8.7448634    216.80949  0.010288985 0.0086112871         3284 
 1757000   0.55756831   -8.7389275    216.72877  0.010279301 0.0086029538         3315 
 1758000   0.55057578   -8.7277052    217.11014  0.010291531 0.0085946323         3369 
 1759000   0.54381217   -8.7247143    217.38273  0.010298594 0.0085863213         3347 
 1760000   0.55347487   -8.7210929    217.09195  0.010278975 0.0085780292         3353 
 1761000   0.55257006   -8.7381003    216.56924  0.010248403 0.0085697487         3343 
 1762000   0.55694498   -8.7519202    216.89809  0.010258139 0.0085614703         3335 
 1763000    0.5532406   -8.7456223    216.71165  0.010243508 0.0085532126         3326 
 1764000   0.54221104   -8.7231875    217.10951  0.010256496 0.0085449594         3304 
 1765000   0.56165603   -8.7378518    216.90787  0.010241165 0.0085367136         3382 
 1766000   0.55667112     -8.75289    216.84192  0.010232253 0.0085284795         3368 
 1767000   0.54440861   -8.7519341    217.00721  0.010234258 0.0085202495         3404 
 1768000   0.55174214   -8.7541015    216.75862  0.010216752 0.0085120365         3379 
 1769000   0.55700563   -8.7302447    216.71423  0.010208886 0.0085038349         3308 
 1770000   0.54500048   -8.7428044     216.6763  0.010201332 0.0084956492         3351 
 1771000   0.54286803   -8.7350633    216.77913  0.010200411 0.0084874573         3317 
 1772000   0.53880545   -8.7445322    216.68142  0.010190059 0.0084792867         3288 
 1773000   0.54546781   -8.7508372    216.83183  0.010191381 0.0084711315         3377 
 1774000   0.54226324    -8.757588    216.69271  0.010179101  0.008462988         3347 
 1775000   0.54873995   -8.7505521    216.95799  0.010185821 0.0084548575         3361 
 1776000   0.54515026   -8.7443649    217.37965  0.010199871 0.0084467398         3320 
 1777000   0.54958748   -8.7368513    216.97569  0.010175187 0.0084386278         3317 
 1778000    0.5383076   -8.7606066    217.05558  0.010173209 0.0084305188         3365 
 1779000   0.54087107   -8.7365202    217.21001  0.010174724 0.0084224264         3365 
 1780000   0.54423841   -8.7604542    216.87245  0.010153205 0.0084143421         3338 
 1781000   0.54845227   -8.7493452    216.71746  0.010140252 0.0084062729         3389 
 1782000   0.54964708    -8.761048    217.07209  0.010151145 0.0083982154         3365 
 1783000   0.54253475     -8.75118    217.05392  0.010144603 0.0083901563         3372 
 1784000   0.53915929   -8.7398944    216.88216  0.010130893 0.0083821051         3355 
 1785000   0.54527249   -8.7410706     217.3089   0.01014514 0.0083740745         3361 
 1786000   0.54207427   -8.7676873    216.98985  0.010124573 0.0083660525         3384 
 1787000   0.53687165   -8.7570586     216.8772  0.010113654 0.0083580438         3366 
 1788000   0.54044288   -8.7649683    216.48717   0.01008982 0.0083500349         3307 
 1789000   0.53530847    -8.762107    216.77433  0.010097556 0.0083420421         3333 
 1790000    0.5269284    -8.743912    216.66388  0.010086773 0.0083340597         3317 
 1791000   0.52947219   -8.7652546    216.42008  0.010069797 0.0083260862         3347 
 1792000   0.54543031   -8.7669663    216.91715  0.010087293 0.0083181261         3322 
 1793000   0.53519272    -8.762829    216.80676  0.010076537 0.0083101697         3399 
 1794000   0.52923182    -8.769089     216.4505  0.010054371 0.0083022119         3341 
 1795000   0.52946077   -8.7301564     216.8483  0.010067238 0.0082942754         3353 
 1796000   0.52860263   -8.7628154    216.87768  0.010062995 0.0082863433         3425 
 1797000   0.53664913   -8.7733161    216.82126  0.010054779 0.0082784248         3351 
 1798000   0.53386671   -8.7760759    216.74364  0.010045589 0.0082705217         3373 
 1799000   0.52778617   -8.7698107    216.38976  0.010023613 0.0082626193         3378 
 1800000   0.53690801   -8.7729812     216.8358  0.010038694 0.0082547316         3366 
 1801000   0.52290485    -8.763573    216.67503  0.010025681 0.0082468565         3411 
 1802000   0.52596394   -8.7614902    216.70711  0.010021601 0.0082389936         3348 
 1803000   0.53549511   -8.7736825     216.6203  0.010012031 0.0082311363         3389 
 1804000   0.54168402   -8.7693276    216.76431  0.010013134 0.0082232883         3311 
 1805000   0.52486826   -8.7568086    216.49963  0.009995366 0.0082154469         3363 
 1806000   0.53895296   -8.7599498    216.86211  0.010006557 0.0082076193         3333 
 1807000   0.53818403   -8.7531838    216.57981 0.0099880008 0.0081998055         3343 
 1808000   0.52091126    -8.769029    216.72869 0.0099893384 0.0081919967         3412 
 1809000   0.53616167   -8.7922144    216.67327 0.0099812636 0.0081841944         3370 
 1810000   0.52380923   -8.7715045    216.94012 0.0099880352 0.0081764062         3387 
 1811000   0.53711807   -8.7569081    216.71075 0.0099719654 0.0081686267         3340 
 1812000   0.51983036   -8.7520024     216.6584 0.0099640543 0.0081608595         3391 
 1813000   0.53587186   -8.7752125    216.46923 0.0099498633  0.008153103         3373 
 1814000   0.53669782   -8.7711045    216.49274 0.0099454585 0.0081453531         3337 
 1815000   0.54881065   -8.7745497    216.36246 0.0099339971  0.008137616         3365 
 1816000   0.52377601   -8.7787275    216.46821 0.0099333796 0.0081298806         3319 
 1817000   0.51251187   -8.7796504    216.45826 0.0099274565 0.0081221578         3302 
 1818000   0.53284815     -8.77883    216.62196 0.0099294995 0.0081144518         3357 
 1819000   0.52147582   -8.7840981    216.49372 0.0099181656 0.0081067463         3366 
 1820000   0.51718457   -8.7798667    216.64363 0.0099195802 0.0080990529         3315 
 1821000   0.53854818   -8.7859346    216.43673 0.0099046644 0.0080913756         3342 
 1822000   0.52316801   -8.7649892    216.59478 0.0099064573 0.0080837011         3438 
 1823000   0.51195778   -8.7733042    216.41766 0.0098929265 0.0080760327         3383 
 1824000   0.52141969   -8.7842398    216.54481 0.0098933121 0.0080683818         3353 
 1825000   0.52532494   -8.7927668    216.49507 0.0098856198 0.0080607366         3356 
 1826000   0.52828976   -8.7802639    216.29762 0.0098711946  0.008053095         3364 
 1827000   0.52371377   -8.7820665    216.55582 0.0098775687 0.0080454696         3351 
 1828000   0.52515165    -8.783231    216.41984 0.0098659664 0.0080378487         3421 
 1829000   0.52117104   -8.8085641    216.59148 0.0098683924 0.0080302392         3383 
 1830000   0.53033152   -8.8056164    216.31029 0.0098501954 0.0080226382         3391 
 1831000   0.51569643   -8.7920073    216.40974 0.0098493418 0.0080150451         3385 
 1832000   0.51532927   -8.7745613    216.11461 0.0098305407 0.0080074639         3375 
 1833000   0.51332818   -8.7960551     216.1594  0.009827214 0.0079998896         3413 
 1834000   0.51143624   -8.7902275    216.60828 0.0098422521 0.0079923239         3327 
 1835000   0.51238436   -8.7868781    216.45147 0.0098297672 0.0079847659         3378 
 1836000    0.5162329    -8.784305     216.3144 0.0098181916 0.0079772222         3344 
 1837000   0.51995817   -8.7764523    216.39198 0.0098163662 0.0079696878         3332 
 1838000   0.51888658   -8.7961946    216.42753 0.0098126374 0.0079621649         3358 
 1839000   0.52748595   -8.7892401    216.53004 0.0098119466 0.0079546491         3355 
 1840000   0.52482423   -8.7835711    216.51246 0.0098058179 0.0079471453         3323 
 1841000   0.52401408   -8.7978441    216.46418 0.0097983063 0.0079396492         3402 
 1842000   0.50415768   -8.7868067    216.43091 0.0097914816 0.0079321689         3403 
 1843000   0.52000813   -8.8018527    216.30042 0.0097802684 0.0079246864         3385 
 1844000   0.50604399    -8.798661    216.60943 0.0097889293 0.0079172155         3399 
 1845000   0.51753077    -8.804568    216.50789 0.0097790376 0.0079097584         3378 
 1846000   0.51823704   -8.7817062    216.51377 0.0097740056 0.0079023119         3369 
 1847000    0.5132588   -8.7886556    216.56495 0.0097710226 0.0078948754         3423 
 1848000   0.51421531   -8.7873877    216.39812 0.0097582126 0.0078874393         3402 
 1849000   0.51856751    -8.812625    216.07149 0.0097382139 0.0078800171         3423 
 1850000   0.50749601   -8.8069395     216.3821 0.0097469415 0.0078726009         3413 
 1851000   0.51032579   -8.7907218    216.31724 0.0097387558 0.0078651986         3385 
 1852000   0.51696504   -8.7941129    216.22499 0.0097293462 0.0078578006         3404 
 1853000   0.52239341   -8.7995781    216.30763 0.0097278119 0.0078504078         3402 
 1854000   0.51924888   -8.8087262     216.3891 0.0097262269 0.0078430275         3430 
 1855000   0.52026428    -8.800909    216.28905  0.009716489  0.007835654         3413 
 1856000   0.50020349    -8.794186    216.44282 0.0097181581 0.0078282969         3378 
 1857000   0.51621139   -8.8151033    216.40607 0.0097112756 0.0078209501         3419 
 1858000   0.50275091   -8.8043799    216.51119 0.0097107636 0.0078136032         3411 
 1859000   0.51090671   -8.7979381    216.29671 0.0096959258 0.0078062663         3378 
 1860000   0.50699934   -8.8274783    215.99143 0.0096770352 0.0077989429         3448 
 1861000   0.50967078   -8.8035436    216.38312  0.009689375 0.0077916322         3390 
 1862000   0.52771061   -8.8113558    216.34079 0.0096822768 0.0077843227         3426 
 1863000   0.50604543     -8.80419    216.28799 0.0096747175 0.0077770246         3422 
 1864000   0.50518094   -8.8004647    216.49472 0.0096787695 0.0077697282         3415 
 1865000   0.52070215   -8.8137399    215.94491 0.0096490132 0.0077624469         3470 
 1866000   0.51706372    -8.816025    216.23068 0.0096566041 0.0077551778         3439 
 1867000    0.5028983   -8.8027083    216.33118 0.0096559175 0.0077479156         3411 
 1868000   0.51023555   -8.8237179    216.17011 0.0096435632 0.0077406649         3359 
 1869000   0.50079244   -8.8068937     215.9249 0.0096274699 0.0077334193         3404 
 1870000   0.50693289   -8.8159539    216.12102 0.0096310615 0.0077261899         3443 
 1871000   0.50901536   -8.7942624    215.96255 0.0096188558 0.0077189626         3396 
 1872000   0.50818293   -8.8113125    216.38933 0.0096327157 0.0077117386         3375 
 1873000   0.49998766   -8.8191507    215.95417 0.0096082117 0.0077045252         3443 
 1874000   0.51760571   -8.8172289    215.91215 0.0096012161 0.0076973278         3385 
 1875000   0.49467764   -8.8155624    215.88914 0.0095950728 0.0076901358         3403 
 1876000   0.50456692   -8.8156005     215.9936 0.0095945984 0.0076829598         3413 
 1877000    0.5000317   -8.8106279    216.30987 0.0096035282 0.0076757868         3393 
 1878000   0.51456344   -8.8035236    216.41496 0.0096030778  0.007668629         3396 
 1879000   0.49638723   -8.8340784    216.20847 0.0095888094 0.0076614725         3426 
 1880000   0.50250272   -8.8286986    216.05292 0.0095768137 0.0076543253         3407 
 1881000   0.50771026    -8.824139    216.23767 0.0095799074 0.0076471895         3451 
 1882000   0.50092302   -8.8088755    215.96389 0.0095626946 0.0076400583         3383 
 1883000   0.49246206   -8.8168169    215.93744 0.0095564453 0.0076329449         3400 
 1884000   0.50556569   -8.8159388    215.65296 0.0095387896 0.0076258428         3407 
 1885000   0.49427356   -8.8166399    215.96219 0.0095474003 0.0076187424         3429 
 1886000    0.4939689   -8.8147265    216.01274 0.0095445714 0.0076116548         3393 
 1887000   0.50107153   -8.8155913    216.33782 0.0095538693 0.0076045768         3383 
 1888000   0.49626509   -8.8243441     215.9592 0.0095320975 0.0075975031         3429 
 1889000   0.49585189   -8.8155999    216.53637 0.0095525133 0.0075904386         3394 
 1890000   0.50057233   -8.8258891    216.43769 0.0095431078 0.0075833833         3441 
 1891000   0.49357931   -8.8143625     216.1611 0.0095258727 0.0075763396         3455 
 1892000   0.49357792   -8.8268692    216.13897 0.0095198631 0.0075693005         3413 
 1893000   0.49549454   -8.8140143    215.82246 0.0095009005 0.0075622676         3416 
 1894000   0.49718706   -8.8177361    216.33155 0.0095182837  0.007555249         3379 
 1895000   0.50512731   -8.8178305    216.15999 0.0095057163 0.0075482394         3436 
 1896000   0.49468892   -8.8191875    216.24197 0.0095043061 0.0075412352         3418 
 1897000   0.49339753   -8.8220539    216.08367 0.0094923419 0.0075342375         3417 
 1898000   0.49622232   -8.8186233    215.89924 0.0094792431 0.0075272421         3320 
 1899000   0.50737577   -8.8288065    216.01426 0.0094792989 0.0075202586         3371 
 1900000   0.49596264   -8.8373166    216.16742 0.0094810272 0.0075132857         3380 
 1901000   0.50157491   -8.8174156    215.89172 0.0094639541 0.0075063234         3439 
 1902000   0.49392499   -8.8366659    216.18248 0.0094717174 0.0074993672         3406 
 1903000   0.48214534   -8.8217473    216.11021 0.0094635753 0.0074924187         3378 
 1904000   0.49946966   -8.8355177    215.64568  0.009438274 0.0074854823         3369 
 1905000   0.49279792   -8.8334942    215.92381 0.0094454859 0.0074785507         3395 
 1906000   0.49398885    -8.811939    215.88367 0.0094387753 0.0074716314         3401 
 1907000   0.47839855    -8.813379    216.02537  0.009440018 0.0074647216         3369 
 1908000   0.49036221   -8.8292815    216.26953 0.0094457344 0.0074578125         3408 
 1909000    0.4977374    -8.852571    215.88278 0.0094239036  0.007450924         3395 
 1910000   0.49420006   -8.8299387    215.77432 0.0094142373 0.0074440387         3476 
 1911000   0.49035208   -8.8230885    215.90409 0.0094149697 0.0074371635         3443 
 1912000    0.4940649   -8.8361554    216.26735 0.0094258784 0.0074302967         3406 
 1913000   0.48543925   -8.8312972    216.16532 0.0094165063 0.0074234383         3399 
 1914000   0.47602029   -8.8421309    215.76842 0.0093943059 0.0074165869         3405 
 1915000   0.49148531   -8.8462718    216.09414 0.0094035746 0.0074097404         3444 
 1916000   0.48137273   -8.8277794    216.23791 0.0094049196 0.0074029097         3435 
 1917000   0.48611166   -8.8543991    215.61486 0.0093729291 0.0073960818         3415 
 1918000   0.49562402   -8.8411033    216.13876 0.0093908047 0.0073892646         3435 
 1919000   0.48455472   -8.8275248    216.13271 0.0093856485 0.0073824519         3446 
 1920000   0.47993136   -8.8349637    215.86893 0.0093693112  0.007375652         3392 
 1921000   0.48814215   -8.8278983    215.64079 0.0093545372 0.0073688621         3429 
 1922000   0.47476552   -8.8335551    215.81439 0.0093571968 0.0073620793         3447 
 1923000   0.47295257   -8.8284363    215.92865 0.0093572823 0.0073553024         3401 
 1924000    0.4899826   -8.8207274    216.15134 0.0093620644 0.0073485338         3416 
 1925000   0.49048459   -8.8295824    216.38315 0.0093672359 0.0073417819         3390 
 1926000   0.47592076   -8.8314457     215.7706 0.0093358689 0.0073350305         3404 
 1927000   0.48787082   -8.8448444     216.0197 0.0093417966 0.0073282853         3464 
 1928000   0.48406093   -8.8345031    215.83756 0.0093290785 0.0073215493         3507 
 1929000   0.48047652   -8.8277321    215.79463 0.0093223877 0.0073148194         3437 
 1930000   0.47851245   -8.8451442    216.19305 0.0093347604 0.0073080987         3429 
 1931000   0.48898706   -8.8273071    215.55996 0.0093026048 0.0073013863         3396 
 1932000   0.47925336   -8.8436215    215.60222 0.0092996125 0.0072946799         3431 
 1933000   0.48157272   -8.8425955    215.55339 0.0092926965 0.0072879901         3402 
 1934000   0.48092455   -8.8319254    215.69663 0.0092940639 0.0072813019         3414 
 1935000    0.4775996   -8.8559213    216.10197 0.0093067172 0.0072746217         3409 
 1936000   0.47929098   -8.8472621    215.77291 0.0092877458 0.0072679454         3396 
 1937000   0.47636216   -8.8426793    215.63653 0.0092770837 0.0072612808         3426 
 1938000   0.48898788   -8.8549468     215.5229 0.0092674107 0.0072546264         3476 
 1939000   0.46514505   -8.8516904    215.76878 0.0092731984 0.0072479716         3377 
 1940000   0.47505114   -8.8532393    215.58446  0.009260501 0.0072413273         3414 
 1941000   0.47555155   -8.8314865     215.7815 0.0092641892 0.0072346953         3400 
 1942000   0.48248941   -8.8589704    215.77632 0.0092591967 0.0072280717         3393 
 1943000   0.48402966   -8.8259876    215.84284 0.0092572845 0.0072214576         3396 
 1944000   0.46515153   -8.8605016    215.72657  0.009247538 0.0072148539         3468 
 1945000   0.47529377   -8.8500829    215.73496 0.0092431432 0.0072082557         3431 
 1946000   0.47210895   -8.8636419     215.3977 0.0092239507 0.0072016603         3443 
 1947000   0.48120508   -8.8517501    215.55501 0.0092259464 0.0071950802         3395 
 1948000   0.48110611   -8.8560902    215.54193 0.0092206508 0.0071885045         3413 
 1949000   0.48726864    -8.861549    215.55638 0.0092165374 0.0071819364         3445 
 1950000   0.47887101    -8.846035     215.7691 0.0092209016 0.0071753814         3415 
 1951000   0.46748098   -8.8463904    215.87614 0.0092207474 0.0071688315         3424 
 1952000   0.46519489   -8.8674034    215.60537  0.009204464 0.0071622865         3475 
 1953000   0.47709279   -8.8567843    215.92221 0.0092132705 0.0071557522         3438 
 1954000   0.46418078   -8.8644279    215.51642 0.0091912498 0.0071492237         3420 
 1955000   0.47202201   -8.8563597    215.35789 0.0091797905 0.0071427028         3449 
 1956000   0.47343954   -8.8708794    215.46967   0.00917986 0.0071361944         3463 
 1957000     0.467403   -8.8556342    215.60171 0.0091807917 0.0071296922         3398 
 1958000   0.47536641   -8.8653503    215.72649 0.0091814136 0.0071231904         3420 
 1959000   0.46843747   -8.8764998    215.66076 0.0091739305 0.0071167075         3472 
 1960000   0.46444674   -8.8550363    215.48881 0.0091619392 0.0071102231         3460 
 1961000   0.45605828   -8.8585541    215.66564 0.0091647817 0.0071037505         3405 
 1962000   0.46749015   -8.8601249    215.65719 0.0091597515 0.0070972869         3485 
 1963000   0.47791507   -8.8526506    215.80767 0.0091614736 0.0070908324         3460 
 1964000   0.46780963   -8.8637688    215.42548 0.0091405922 0.0070843871         3449 
 1965000   0.46368939   -8.8414908    215.44461 0.0091367518 0.0070779447         3467 
 1966000   0.46970847   -8.8684287    215.31888 0.0091267752 0.0070715081         3443 
 1967000   0.46823956   -8.8680921    215.93341 0.0091481703 0.0070650832         3379 
 1968000   0.47331984    -8.858068    215.36505 0.0091194551 0.0070586687         3432 
 1969000   0.45472745    -8.867337    215.36007 0.0091146126 0.0070522569         3456 
 1970000   0.45948065   -8.8730089    215.66806 0.0091230143 0.0070458516         3430 
 1971000   0.46726825   -8.8689284     215.6065 0.0091157831 0.0070394526         3404 
 1972000   0.45296985   -8.8785739    215.43277  0.009103819 0.0070330608         3423 
 1973000   0.46895032   -8.8759849    215.87061 0.0091176976 0.0070266793         3426 
 1974000   0.46163234   -8.8903329    215.29997 0.0090889889 0.0070203028         3471 
 1975000   0.46166959   -8.8572138    215.19192 0.0090798278 0.0070139327         3449 
 1976000   0.45552969    -8.876731    215.53155 0.0090895557 0.0070075754         3412 
 1977000   0.46286926   -8.8700941    215.47319 0.0090824985 0.0070012258         3468 
 1978000   0.46313893   -8.8829148    215.31634 0.0090712986 0.0069948843         3419 
 1979000   0.46985092   -8.8635915    215.51548 0.0090751001  0.006988546         3403 
 1980000   0.47129903   -8.8678634    215.30103 0.0090614912 0.0069822167         3436 
 1981000   0.46620771   -8.8740263     215.5196 0.0090661112 0.0069758993         3408 
 1982000    0.4562185    -8.868263    215.57145  0.009063717  0.006969587         3407 
 1983000    0.4663655   -8.8860078    215.56069 0.0090586942 0.0069632821         3407 
 1984000   0.46015535   -8.8683609    215.38735 0.0090468476 0.0069569845         3408 
 1985000   0.46280731   -8.8706145    215.42741 0.0090439717 0.0069506972         3411 
 1986000   0.46148067   -8.8659669    215.26379 0.0090325524 0.0069444181         3433 
 1987000   0.46542366   -8.8724488    214.97362 0.0090158372 0.0069381426         3460 
 1988000   0.45844916   -8.8725469    215.37414 0.0090280911 0.0069318788         3403 
 1989000   0.46593769   -8.8852059    215.39915 0.0090245997 0.0069256215         3389 
 1990000   0.45985422   -8.8814169    215.22563 0.0090127984 0.0069193728         3409 
 1991000   0.46099982   -8.8852856    215.33816 0.0090129818 0.0069131292         3492 
 1992000   0.46146082    -8.868856    215.24603  0.009004603  0.006906898         3456 
 1993000   0.46130942   -8.8848582    215.55109 0.0090128403 0.0069006692         3429 
 1994000   0.45350679   -8.8897887    215.12686  0.008990591 0.0068944483         3431 
 1995000   0.45351089   -8.8803727     215.4963 0.0090015165  0.006888235         3439 
 1996000   0.45663859   -8.8872944    215.36506 0.0089915271 0.0068820282         3415 
 1997000   0.44977682   -8.8830886    215.12414 0.0089769713 0.0068758289         3450 
 1998000   0.46394124   -8.8776166    215.44797 0.0089859848 0.0068696368         3445 
 1999000   0.46274672    -8.867796    215.26096 0.0089736934 0.0068634574         3390 
 2000000   0.46368191   -8.8816985    215.66046 0.0089858526 0.0068572809         3387 
 2001000   0.44817601   -8.9003526     215.2499 0.0089642638 0.0068511114         3439 
 2002000   0.45053452   -8.8872159    215.30142 0.0089619308 0.0068449461         3456 
 2003000   0.45482392   -8.8804895    215.26165 0.0089558016 0.0068387925         3420 
 2004000   0.45487778   -8.8855857    215.07463 0.0089435557 0.0068326445         3430 
 2005000   0.45209915   -8.8779258    215.36816 0.0089512949 0.0068265023         3430 
 2006000   0.44857731   -8.8865795    215.55381  0.008954545 0.0068203725         3431 
 2007000   0.44585627   -8.8952825    214.78824 0.0089182959 0.0068142425         3421 
 2008000   0.44827991   -8.8794726    215.16062 0.0089293087 0.0068081273         3450 
 2009000    0.4530274   -8.8875935    215.15682 0.0089247064 0.0068020162         3417 
 2010000   0.44510205   -8.8779889    215.32607  0.008927283 0.0067959158         3479 
 2011000   0.43958952   -8.9018556    215.23259 0.0089189703 0.0067898181         3443 
 2012000   0.44032833    -8.894924    215.30032 0.0089173424 0.0067837299         3445 
Loop time of 5244.85 on 48 procs for 2000000 steps with 4000 atoms

Performance: 65893.154 tau/day, 381.326 timesteps/s
99.4% CPU use with 48 MPI tasks x no OpenMP threads

MPI task timing breakdown:
Section |  min time  |  avg time  |  max time  |%varavg| %total
---------------------------------------------------------------
Pair    | 368.56     | 404.31     | 441.84     |  81.8 |  7.71
Neigh   | 36.753     | 38.53      | 40.453     |  14.7 |  0.73
Comm    | 327.24     | 366.42     | 399.34     |  92.0 |  6.99
Output  | 5.6055     | 5.6083     | 5.6691     |   0.4 |  0.11
Modify  | 4359.8     | 4381.1     | 4392.6     |  10.7 | 83.53
Other   |            | 48.86      |            |       |  0.93

Nlocal:        83.3333 ave          89 max          75 min
Histogram: 2 1 2 4 5 11 5 7 5 6
Nghost:        2446.44 ave        2476 max        2423 min
Histogram: 5 4 4 8 6 8 8 2 1 2
Neighs:        17036.6 ave       20369 max       14319 min
Histogram: 2 4 7 5 12 10 2 2 2 2
FullNghs:      34074.2 ave       37366 max       30012 min
Histogram: 3 2 2 5 9 7 5 6 6 3

Total # of neighbors = 1635564
Ave neighs/atom = 408.89100
Neighbor list builds = 106489
Dangerous builds = 1

#clear
#
#next RN
#
#jump SELF
Total wall time: 1:27:28
