
units lj                  # Use reduced LJ style units
atom_style atomic         # Uncharged point particles
atom_modify map hash      # Needed for indexing of clusters etc
                          # Used to be able to find where atoms are in relation to each other.

lattice fcc 1.0 spacing 1 1 1
Lattice spacing in x,y,z = 1.5874011 1.5874011 1.5874011
region box block 0 10 0 10 0 10 units lattice
create_box 2 box
Created orthogonal box = (0.0000000 0.0000000 0.0000000) to (15.874011 15.874011 15.874011)
  3 by 4 by 4 MPI processor grid
create_atoms 1 box
Created 4000 atoms
  using lattice units in orthogonal box = (0.0000000 0.0000000 0.0000000) to (15.874011 15.874011 15.874011)
  create_atoms CPU = 0.002 seconds
set type 1 type/fraction 2 0.52 78393
Setting atom values ...
  2077 settings made for type/fraction
mass 1 1.0
mass 2 1.0
pair_style lj/cut  3.5
pair_modify tail  yes
pair_coeff 1  1  1.0  1.0   # Intearaction between 1 and 1 set with epsilon = 1 and sigma = 1
pair_coeff 1  2  1.5  0.8
pair_coeff 2  2  0.5  0.88

write_data data.0
System init for write_data ...
Neighbor list info ...
  update every 1 steps, delay 10 steps, check yes
  max neighbors/atom: 2000, page size: 100000
  master list distance cutoff = 3.8
  ghost atom cutoff = 3.8
  binsize = 1.9, bins = 9 9 9
  1 neighbor lists, perpetual/occasional/extra = 1 0 0
  (1) pair lj/cut, perpetual
      attributes: half, newton on
      pair build: half/bin/atomonly/newton
      stencil: half/bin/3d
      bin: standard
WARNING: Not all mixed pair coeffs generated from mixing. Use write_data with 'pair ij' option to store all pair coeffs. (../write_data.cpp:312)


#############################
#   M E L T   S Y S T E M   #
#############################

velocity all create 2.4 5300450 mom yes dist gaussian # Assign velocities
                                                    # Temperature 2.4, random number seed, zero linear momentum
                                                                                # Gaussian distribution

timestep 0.002   # simulation timestep
thermo 1000       # output thermodynamic data every 1000 steps bf 100

# Define a fix  in this case with index 1 applied to all
# particles in the simulation. This fix is for simulations
# in the anisotropic NPT ensemble. Note that we use the MTK
# correction.
fix 1 all npt temp 2.4 2.4 0.1 iso 5.68 5.68 0.5 mtk yes tchain 5 pchain 5 # Use NPT ensemble
                                                                         # Set temperature and pressure and damping
                                                                         # Numbers of thermostats in chain and in barostat
run 10000          # run for 10000 steps
Per MPI rank memory allocation (min/avg/max) = 3.642 | 3.644 | 3.648 Mbytes
Step Temp E_pair E_mol TotEng Press Volume 
       0          2.4   -5.1913276            0   -1.5922276   -4.1950394         4000 
    1000     2.429861   -4.7899869            0   -1.1461066    5.7876547    3687.1526 
    2000    2.4257021   -4.7574607            0   -1.1198172    5.6421589    3713.0503 
    3000    2.3770463   -4.8304645            0   -1.2657865    5.8097245    3658.2224 
    4000    2.4030524   -4.8830511            0   -1.2793736    5.4131551    3668.7582 
    5000    2.4136013   -4.8495579            0    -1.230061    5.9106029    3659.8085 
    6000    2.4351604   -4.8026652            0   -1.1508377    5.5992072    3697.2349 
    7000    2.3791503   -4.9179828            0   -1.3501495    5.6933617    3631.0358 
    8000    2.3718961   -4.9118355            0   -1.3548808    5.4192168     3656.131 
    9000    2.3556453   -4.8469381            0   -1.3143535    5.2598367    3689.9295 
   10000     2.368486    -4.843996            0   -1.2921552    5.3965054     3691.675 
Loop time of 2.67743 on 48 procs for 10000 steps with 4000 atoms

Performance: 645396.157 tau/day, 3734.931 timesteps/s
99.6% CPU use with 48 MPI tasks x no OpenMP threads

MPI task timing breakdown:
Section |  min time  |  avg time  |  max time  |%varavg| %total
---------------------------------------------------------------
Pair    | 1.1723     | 1.2716     | 1.4291     |   4.3 | 47.49
Neigh   | 0.21515    | 0.22482    | 0.256      |   1.4 |  8.40
Comm    | 0.74586    | 0.90911    | 1.0176     |   5.7 | 33.95
Output  | 0.00024383 | 0.0002493  | 0.0003111  |   0.0 |  0.01
Modify  | 0.21667    | 0.25595    | 0.32233    |   6.8 |  9.56
Other   |            | 0.01567    |            |       |  0.59

Nlocal:        83.3333 ave          93 max          72 min
Histogram: 1 2 7 3 9 6 6 6 3 5
Nghost:        1731.15 ave        1760 max        1706 min
Histogram: 7 3 4 8 3 8 2 7 5 1
Neighs:        10343.8 ave       11687 max        8977 min
Histogram: 2 6 3 4 10 8 3 5 4 3

Total # of neighbors = 496500
Ave neighs/atom = 124.12500
Neighbor list builds = 906
Dangerous builds = 218

# Equilibrate just above the melting temperature to avoid step fn in T

fix 1 all npt temp 1.25 1.25 0.1 iso 5.68 5.68 0.5 mtk yes tchain 5 pchain 5
run 2000
Per MPI rank memory allocation (min/avg/max) = 3.644 | 3.646 | 3.649 Mbytes
Step Temp E_pair E_mol TotEng Press Volume 
   10000     2.368486    -4.843996            0   -1.2921552    5.3965054     3691.675 
   11000    1.2472479   -6.9462698            0   -5.0758656     5.839022    2851.0708 
   12000    1.2440955   -7.0444738            0   -5.1787971    5.6254461    2828.7831 
Loop time of 0.662984 on 48 procs for 2000 steps with 4000 atoms

Performance: 521279.305 tau/day, 3016.663 timesteps/s
99.6% CPU use with 48 MPI tasks x no OpenMP threads

MPI task timing breakdown:
Section |  min time  |  avg time  |  max time  |%varavg| %total
---------------------------------------------------------------
Pair    | 0.28826    | 0.32395    | 0.36166    |   3.2 | 48.86
Neigh   | 0.040669   | 0.044018   | 0.048885   |   0.9 |  6.64
Comm    | 0.20333    | 0.24611    | 0.28657    |   4.2 | 37.12
Output  | 5.2766e-05 | 5.4396e-05 | 6.9692e-05 |   0.0 |  0.01
Modify  | 0.040802   | 0.043966   | 0.047239   |   0.9 |  6.63
Other   |            | 0.004894   |            |       |  0.74

Nlocal:        83.3333 ave          92 max          75 min
Histogram: 2 0 5 5 13 13 4 3 2 1
Nghost:        2076.81 ave        2096 max        2059 min
Histogram: 3 8 6 2 5 6 4 8 4 2
Neighs:        13502.4 ave       15714 max       12423 min
Histogram: 7 5 14 7 4 6 2 2 0 1

Total # of neighbors = 648114
Ave neighs/atom = 162.02850
Neighbor list builds = 143
Dangerous builds = 12

#############################
# L I N E A R  Q U E N C H  #
#############################

# Define solid atoms. This closely follows ten Wolde  Ruiz-Montero and Frenkel  Faraday Discuss  1996  104  93-110
# Compute components of the per-atom q6 vector
compute q6 all orientorder/atom degrees 1 6 components 6 nnn NULL cutoff 1.3 # compute the Q6 parameter.
                                                                             # Use all neighbours within 1.3 unit cell.

# get number of connections
compute coord_number all coord/atom orientorder q6 0.5

# An atom is solid if it has 8 or more connections (of a possible 14)
variable is_solid atom c_coord_number>=8
group solid dynamic all var is_solid    # Must be dynamic to update
dynamic group solid defined

# do clustering
compute cluster solid cluster/atom 1.3 # Create a cluster where all atoms within are solid and max 1.3 units from another member

# define chunks one chunk per cluster
compute clus_chunks solid chunk/atom c_cluster nchunk every compress yes  # Says which atoms are in which chunk

# count the size of each chunk
compute size_chunks solid property/chunk clus_chunks count


# Find the maximum entry in the vector of chunk sizes
variable max_n equal max(c_size_chunks)


# Thermo style which includes this variable
# thermo_style custom step temp pe vol v_max_n

thermo ${N}  # Print the thermo information every 100 steps
thermo 1000  

# Reset the npt fix at a lower temperature (below freezing)
fix 1  all npt temp  ${temp} ${temp}  0.1  iso  5.68  5.68  0.5  mtk yes tchain  5  pchain  5
fix 1  all npt temp  0.45 ${temp}  0.1  iso  5.68  5.68  0.5  mtk yes tchain  5  pchain  5
fix 1  all npt temp  0.45 0.45  0.1  iso  5.68  5.68  0.5  mtk yes tchain  5  pchain  5

dump dmp2 all dcd ${N} traj.dcd
dump dmp2 all dcd 1000 traj.dcd


compute msd all msd com yes
variable twopoint equal c_msd[4]/6/(step*dt+1.0e-6)
fix 9 all vector 10 c_msd[4]
variable fit equal slope(f_9)/6/(10*dt)
thermo_style custom step temp pe c_msd[4] v_twopoint v_fit v_max_n

fix 1 all npt temp 1.25 ${temp} 0.1 iso 5.68 5.68 0.5 mtk yes tchain 5 pchain 5
fix 1 all npt temp 1.25 0.45 0.1 iso 5.68 5.68 0.5 mtk yes tchain 5 pchain 5
run 2000000 # 5000000  # Run for this many steps
Neighbor list info ...
  update every 1 steps, delay 10 steps, check yes
  max neighbors/atom: 2000, page size: 100000
  master list distance cutoff = 3.8
  ghost atom cutoff = 3.8
  binsize = 1.9, bins = 8 8 8
  4 neighbor lists, perpetual/occasional/extra = 1 3 0
  (1) pair lj/cut, perpetual
      attributes: half, newton on
      pair build: half/bin/atomonly/newton
      stencil: half/bin/3d
      bin: standard
  (2) compute orientorder/atom, occasional
      attributes: full, newton on
      pair build: full/bin/atomonly
      stencil: full/bin/3d
      bin: standard
  (3) compute coord/atom, occasional
      attributes: full, newton on
      pair build: full/bin/atomonly
      stencil: full/bin/3d
      bin: standard
  (4) compute cluster/atom, occasional
      attributes: full, newton on
      pair build: full/bin/atomonly
      stencil: full/bin/3d
      bin: standard
Per MPI rank memory allocation (min/avg/max) = 9.841 | 9.847 | 9.851 Mbytes
Step Temp PotEng c_msd[4] v_twopoint v_fit v_max_n 
   12000    1.2440955   -7.0444738 7.5493989e-31 5.2426379e-33 8.3333333e+20            3 
   13000    1.2437273   -7.0224504    0.4615678 0.0029587679  0.037714285            1 
   14000    1.2206937   -7.0666274   0.86655896 0.0051580888  0.035357846            2 
   15000    1.2494879   -7.0673726    1.3677891 0.0075988283  0.036729305            3 
   16000    1.2498029   -7.0298521    1.7795379 0.0092684261  0.037171527            2 
   17000    1.2496641   -7.1071436    2.2002403  0.010785491  0.036533648            4 
   18000     1.246863   -7.0841839     2.510206  0.011621324  0.035655577            3 
   19000    1.2248649   -7.0890507    2.8605836  0.012546419  0.034420977            3 
   20000    1.2338843   -7.1073537     3.260394  0.013584975  0.033568715            2 
   21000    1.2163512   -7.0876895    3.6363584  0.014429993  0.033127415            2 
   22000    1.2395747   -7.0984945    4.0452923  0.015323077  0.032857239            1 
   23000    1.2312301   -7.0828834    4.4338113  0.016064533  0.032819206            1 
   24000    1.2498797   -7.0995902    4.7615568  0.016533183  0.032645493            3 
   25000    1.2638851   -7.1257926    5.1356153  0.017118717  0.032472565            2 
   26000     1.248146   -7.1203678    5.4834967   0.01757531  0.032256373            2 
   27000    1.2524785   -7.0604401    5.8208933   0.01796572  0.032035029            2 
   28000    1.2454663   -7.0450014    6.1995353  0.018450998  0.031849058            2 
   29000    1.2478612   -7.0742054    6.6937048  0.019234784  0.031776364            1 
   30000    1.2470641    -7.096366    7.1097251  0.019749236  0.031841545            2 
   31000    1.2494058   -7.0566358    7.5457756  0.020284343   0.03194274            2 
   32000    1.2197929   -7.0564953    7.9166935  0.020616389  0.032062462            1 
   33000    1.2303371   -7.1052488    8.2806617  0.020910762    0.0321283            3 
   34000    1.2466034   -7.0303562    8.7610001  0.021473039  0.032176967            2 
   35000    1.2380481   -7.0826812    9.0537369  0.021556516  0.032208302            1 
   36000    1.2592691   -7.0812694      9.39926  0.021757546  0.032211269            2 
   37000    1.2177408   -7.1113699    9.7350427  0.021925772  0.032167234            2 
   38000    1.2710946   -7.1054992    10.097294  0.022143188  0.032091634            1 
   39000    1.2474325   -7.1103193    10.480083   0.02239334  0.032043095            2 
   40000    1.2614737   -7.1029598    10.830702  0.022563962  0.032000418            2 
   41000    1.2308318   -7.0949954    11.138863  0.022639966  0.031923935            2 
   42000    1.2592443    -7.109564    11.485985  0.022789653  0.031849265            1 
   43000    1.2478825   -7.0932762    11.885807   0.02303451  0.031784095            2 
   44000    1.2145582   -7.0614857    12.298615  0.023292831  0.031730068            1 
   45000    1.2650846   -7.1170745    12.727575  0.023569582   0.03171895            2 
   46000    1.2611279   -7.0895567    12.915316  0.023397311  0.031666579            3 
   47000    1.2175024   -7.0839743    13.245713  0.023485307  0.031572685            1 
   48000    1.2464432   -7.1084034    13.571966  0.023562441  0.031466934            3 
   49000    1.2610155   -7.0763265    13.939963  0.023707419  0.031358385            2 
   50000    1.2350521   -7.1041254    14.236766  0.023727943  0.031252648            2 
   51000    1.1975834   -7.1065324    14.682981  0.023991798  0.031176617            2 
   52000    1.2354621     -7.10941     15.21243  0.024378894  0.031139161            2 
   53000    1.2255735   -7.1084856    15.688226  0.024667022  0.031135505            3 
   54000    1.2709973   -7.0821719    16.055867  0.024777572   0.03115037            4 
   55000    1.2128661    -7.084406    16.441446  0.024911282  0.031179803            4 
   56000    1.2391266    -7.077743    16.822636  0.025033684  0.031193941            2 
   57000    1.2298278   -7.0952932    17.201168  0.025147906  0.031206658            3 
   58000    1.2558166    -7.083289    17.476772  0.025110304  0.031209666            2 
   59000    1.2480116    -7.125288    17.751484  0.025072717  0.031211091            1 
   60000     1.201305   -7.0826749    18.119492  0.025165961  0.031194272            2 
   61000    1.2439531   -7.0823384    18.472419  0.025235545  0.031167716            3 
   62000    1.2121488   -7.1264059    18.788684  0.025253607  0.031122801            3 
   63000    1.2366481   -7.1026318    19.207795  0.025407136  0.031083276            3 
   64000    1.2430397   -7.1070115    19.620045  0.025546934    0.0310599            2 
   65000    1.2161814    -7.118936    20.074839  0.025736973  0.031049263            2 
   66000    1.2404421   -7.1176789    20.399465    0.0257569  0.031048728            4 
   67000    1.2126911   -7.1047428    20.691597  0.025735817  0.031032455            3 
   68000    1.2352184   -7.1503229    21.073706   0.02582562  0.031015886            2 
   69000    1.2226446   -7.1513596    21.283599   0.02570483  0.030983662            3 
   70000    1.2497736   -7.1554789    21.670388  0.025798081  0.030959268            2 
   71000    1.1961005   -7.1220471    22.108004  0.025948362  0.030939258            2 
   72000    1.2247881   -7.0967565    22.506224   0.02604887  0.030923449            1 
   73000    1.2218503   -7.0993781    22.879557  0.026118216  0.030912119            2 
   74000    1.2318037   -7.0864175    23.280097  0.026216326  0.030895817            2 
   75000    1.2372306   -7.1406669    23.731896  0.026368773  0.030894136            1 
   76000    1.1827548    -7.123761    24.000967   0.02631685  0.030888504            1 
   77000    1.2188569   -7.1335352    24.319155  0.026319432  0.030875865            1 
   78000    1.2229211   -7.1017854    24.801126  0.026496929  0.030868534            3 
   79000    1.2182513   -7.0778517    25.213126  0.026596124  0.030871452            3 
   80000     1.209128    -7.082616    25.657463  0.026726524  0.030880345            3 
   81000    1.2042049     -7.08342    26.158205  0.026911733  0.030900034            2 
   82000    1.2079843   -7.0995822    26.594003  0.027026425   0.03092303            3 
   83000    1.2174848   -7.1211626    26.909613  0.027017684  0.030944632            4 
   84000     1.224363   -7.1090774    27.327219  0.027110336  0.030959035            2 
   85000    1.2225228   -7.1291594    27.721105  0.027177554  0.030974287            1 
   86000    1.2191191   -7.1260242    27.972017  0.027104668  0.030998315            2 
   87000    1.2032866   -7.0976057    28.388274  0.027191833  0.031011219            3 
   88000    1.1945802   -7.1925115    28.654584  0.027135022  0.031021944            1 
   89000    1.2167757     -7.13913    29.045368  0.027196037  0.031027431            5 
   90000    1.2369262   -7.1306757    29.382241  0.027205778  0.031032881            3 
   91000    1.2563089   -7.1577811    29.786197  0.027276737  0.031034243            1 
   92000    1.2045601   -7.1456353    30.211452  0.027365445   0.03104059            2 
   93000    1.2384669   -7.1350937    30.492464  0.027322997  0.031040195            2 
   94000    1.2113526   -7.1193615    30.825031  0.027327155  0.031038221            3 
   95000    1.2341477   -7.1505689    31.123481  0.027301299  0.031035873            2 
   96000    1.2099507   -7.1217857    31.558902   0.02739488  0.031030472            4 
   97000    1.2222382   -7.1723338    31.789063  0.027310191  0.031024265            2 
   98000    1.2167298   -7.1121183    32.223607  0.027401026  0.031016428            6 
   99000    1.2396601   -7.1792985    32.366858   0.02724483   0.03100244            3 
  100000    1.2199397    -7.157675    32.650001  0.027208334  0.030981734            2 
  101000    1.2056303   -7.1775906    33.120677  0.027327292  0.030956882            1 
  102000    1.2005436   -7.1554529    33.440956  0.027321043  0.030935713            3 
  103000    1.1897682   -7.1632809    33.776291  0.027327096  0.030916733            2 
  104000    1.1898964   -7.1865889     33.93044  0.027187852  0.030892066            2 
  105000    1.1872828   -7.1410973    34.559128  0.027427879  0.030867798            3 
  106000    1.1980525   -7.1896609    34.807364  0.027364279  0.030848694            2 
  107000    1.2294765   -7.1270379    35.296695  0.027489638  0.030830681            6 
  108000    1.2287226   -7.1132565    35.752952  0.027587154  0.030818883            4 
  109000    1.2314133   -7.1530369    36.075192  0.027580422  0.030807221            3 
  110000    1.2320461    -7.199828    36.234097  0.027450073  0.030794303            2 
  111000    1.1978037   -7.1368353    36.563025  0.027449719  0.030776392            2 
  112000    1.2233906   -7.1993135    36.933836  0.027480533  0.030757193            1 
  113000    1.2124707   -7.1312812    37.529513  0.027676632  0.030747124            1 
  114000    1.1776582   -7.1618093    37.741096  0.027588521   0.03073505            2 
  115000    1.2235476   -7.1801302     38.01772  0.027549073   0.03072405            4 
  116000    1.2099737   -7.1369562    38.598867  0.027729071  0.030711698            4 
  117000    1.1677566   -7.1484168    38.602792  0.027494866  0.030695053            1 
  118000     1.192362   -7.1778232    38.930939  0.027493601  0.030671816            4 
  119000    1.2212307   -7.1199838    39.375777  0.027574074  0.030647898            3 
  120000    1.1905967   -7.1846244    39.675924  0.027552725  0.030627456            1 
  121000    1.1823359   -7.2219285    39.883895  0.027468247  0.030603799            2 
  122000    1.2142576   -7.1763635    40.196967  0.027456944   0.03057794            3 
  123000    1.1961292   -7.1421707     40.60915  0.027512974  0.030552166            3 
  124000    1.2094404   -7.1584175    40.971319  0.027534489  0.030529133            3 
  125000    1.2227542    -7.168849    41.171929  0.027447952  0.030508577            1 
  126000    1.2154752   -7.1907695    41.363485  0.027356802  0.030482107            2 
  127000    1.2218512   -7.1725947    41.981841   0.02754714  0.030454308            4 
  128000    1.1768671   -7.1381985    42.395624  0.027601317  0.030427313            1 
  129000    1.2158282   -7.1839183    42.518683   0.02746685  0.030404914            2 
  130000    1.1897361    -7.199865     42.78769  0.027428006  0.030377174            2 
  131000    1.2002456    -7.164417    43.017291  0.027364689  0.030347664            2 
  132000    1.2024121    -7.178924    43.364977  0.027376879  0.030319604            4 
  133000    1.1966637   -7.1656789    43.917468  0.027517211  0.030291801            2 
  134000    1.1981152   -7.1875315    44.273854  0.027533491  0.030269931            1 
  135000    1.2128495   -7.2045555    44.769013  0.027635193  0.030252507            2 
  136000    1.2075172   -7.2105573    45.116296  0.027644789  0.030238489            3 
  137000    1.1901625   -7.1660224    45.600195  0.027737345  0.030222848            3 
  138000    1.1791329   -7.1461466    45.908233  0.027722363  0.030206446            2 
  139000    1.1911496   -7.1492222    46.337907   0.02778052  0.030190452            3 
  140000    1.1963436   -7.1677043     46.57596  0.027723786  0.030176698            2 
  141000    1.1882557   -7.1945345    46.786104  0.027651362  0.030162208            2 
  142000    1.1813448   -7.1529895      47.1873  0.027692078  0.030141983            2 
  143000    1.1948763   -7.1452954    47.586675  0.027731163  0.030124471            1 
  144000    1.2095157   -7.1496843    47.937435  0.027741571   0.03010806            3 
  145000    1.1879818   -7.1372859      48.0903  0.027638103  0.030092347            2 
  146000    1.1936921   -7.2284715     48.37738   0.02761266  0.030075636            4 
  147000    1.1796683   -7.1805577    48.717871  0.027617841  0.030055674            2 
  148000    1.2230926   -7.1860054    48.932126  0.027551873  0.030031805            2 
  149000    1.1929296   -7.2111515    49.174699  0.027502628  0.030008344            2 
  150000    1.1979449   -7.2265232    49.358682   0.02742149  0.029982748            2 
  151000    1.2092805   -7.1737558    49.722591  0.027440724  0.029955271            2 
  152000    1.2035439   -7.1661196    50.071912  0.027451706  0.029928114            1 
  153000    1.1765654   -7.2068363    50.295454  0.027394038  0.029902004            5 
  154000    1.1933857    -7.209876    50.434349  0.027291314   0.02987313            2 
  155000    1.2103978   -7.2445443    50.918235  0.027375395  0.029842799            2 
  156000    1.1854283   -7.2196319     51.37333  0.027443018  0.029815844            2 
  157000    1.1704237    -7.277616    51.452834  0.027310421  0.029790169            2 
  158000     1.215091   -7.2541079    51.875884  0.027360698  0.029762344            1 
  159000    1.1939577   -7.2227301    52.187591  0.027351987  0.029737415            1 
  160000    1.1935206   -7.2000208    52.649897  0.027421821  0.029712579            3 
  161000    1.1695785   -7.2405386    52.810789  0.027334777  0.029688113            2 
  162000    1.2067267   -7.2036114     53.34501  0.027440849  0.029664057            1 
  163000    1.1977627   -7.2359355     53.50216  0.027352842  0.029642111            3 
  164000    1.1987376   -7.2411743    53.994097  0.027436025  0.029619695            3 
  165000    1.1757754   -7.1674038    54.460821  0.027505465  0.029597065            3 
  166000    1.2016134   -7.2010577    54.807117  0.027513613  0.029575332            2 
  167000    1.2217074   -7.2163462    55.079904  0.027484982  0.029555803            2 
  168000    1.1876862   -7.2344269     55.30606  0.027433561  0.029537248            2 
  169000    1.1934996   -7.2338137    55.717952  0.027474335  0.029519217            1 
  170000    1.1952233   -7.2225071    56.081942  0.027491148  0.029502406            2 
  171000    1.1978138   -7.2054692    56.495059  0.027531705  0.029485325            2 
  172000    1.1887392   -7.2428663    56.731828  0.027486351  0.029467659            4 
  173000    1.1982313   -7.2066319    56.994791  0.027454138  0.029447208            3 
  174000    1.1937983   -7.2060189    57.557075  0.027565649  0.029430147            2 
  175000    1.2016062   -7.2088307    57.566881  0.027412801  0.029412956            1 
  176000     1.168107    -7.220573    58.079514   0.02749977  0.029395108            3 
  177000    1.1495791   -7.2382795    58.424863  0.027506998  0.029378341            1 
  178000    1.1979168   -7.2239146    58.764142  0.027511302   0.02936148            3 
  179000     1.190588   -7.2449876    58.868025   0.02740597  0.029343024            4 
  180000    1.1828687   -7.1519479     59.40045  0.027500208  0.029324346            1 
  181000    1.1984827   -7.1744805     59.49107  0.027389995  0.029306002            2 
  182000    1.2054756   -7.1956145     60.11606  0.027525669  0.029288183            3 
  183000     1.142918   -7.1883538    60.148591  0.027390069  0.029270288            1 
  184000    1.1861356   -7.1747229    60.663485  0.027474405   0.02925185            2 
  185000    1.1914102   -7.2323457    60.834508  0.027402932  0.029234758            1 
  186000    1.1928298    -7.244704    61.203458  0.027420904  0.029216006            2 
  187000    1.1982358   -7.2494271    61.789354  0.027535363  0.029200481            4 
  188000    1.1651649   -7.2254832    61.853177  0.027417188  0.029182722            3 
  189000    1.1697735    -7.251231     61.89915  0.027292394  0.029163931            5 
  190000    1.1627993   -7.2235755    62.271441  0.027312035  0.029143651            6 
  191000     1.195536    -7.197224    62.671205  0.027343458  0.029123636            1 
  192000    1.1650983    -7.278126    62.924223  0.027310861  0.029105318            4 
  193000    1.1881203   -7.2643972    63.435192  0.027389979  0.029089143            2 
  194000    1.1768088   -7.1919355    63.814822  0.027411865  0.029071966            1 
  195000     1.172659   -7.2647011    64.181709  0.027428081  0.029056294            2 
  196000    1.1812202    -7.234933    64.634976  0.027480857  0.029041586            4 
  197000    1.1815274   -7.2282218    65.008936   0.02749955  0.029027945            3 
  198000    1.1750793   -7.2429763    65.284051  0.027476452  0.029013672            3 
  199000    1.1598532   -7.2602525    65.868685  0.027583201  0.029001591            2 
  200000    1.1807941   -7.2350478    65.911149  0.027462979  0.028992293            3 
  201000    1.1762527   -7.2538341    66.261606  0.027471644   0.02898126            3 
  202000    1.1950256   -7.2811265    66.660569  0.027500235  0.028968292            2 
  203000    1.1681348   -7.2448689    67.066218  0.027531288  0.028955971            3 
  204000     1.178637   -7.2928964    67.303018  0.027493063  0.028943733            2 
  205000    1.1722861   -7.2579689     67.35625  0.027380589  0.028932083            2 
  206000    1.1377977   -7.2416603     67.91702  0.027474523  0.028918109            2 
  207000    1.1935776    -7.194681    68.555635  0.027598887  0.028905517            3 
  208000    1.1567936    -7.243429    68.567097  0.027470792  0.028894273            1 
  209000    1.1639602   -7.2783401    68.854474  0.027453937  0.028882261            3 
  210000    1.1400452   -7.2496903    69.193636  0.027457792  0.028870297            4 
  211000    1.1760878   -7.2470004    69.439823  0.027424891  0.028859105            2 
  212000    1.1544519   -7.2584835    69.856332   0.02745925  0.028848843            3 
  213000    1.1729523    -7.296575    69.641548  0.027246302  0.028835528            3 
  214000    1.1776159   -7.2484755    70.539199  0.027468535  0.028821621            2 
  215000    1.1785218   -7.3324574    70.237829  0.027223965  0.028807553            4 
  216000    1.1666719   -7.2326656    70.935291  0.027367011  0.028792328            6 
  217000    1.1750872   -7.2323483    70.965723  0.027252582  0.028776241            3 
  218000    1.1967431   -7.2234735    71.370543  0.027282318  0.028760635            4 
  219000    1.1638294   -7.2967211    71.450728  0.027188253  0.028742859            3 
  220000    1.1720448   -7.3216415    71.534979  0.027096583  0.028723962            1 
  221000    1.1770508   -7.2483155    72.093548  0.027184596  0.028705978            4 
  222000    1.1508834   -7.2354516    72.721281  0.027297778  0.028690279            5 
  223000    1.1693933   -7.2831648    72.770959  0.027193931  0.028675588            2 
  224000    1.1925137    -7.306265    73.274563  0.027259882  0.028659753            1 
  225000     1.171703   -7.2724874    73.410199  0.027188963  0.028645749            3 
  226000    1.1544885   -7.3062651    73.998842  0.027285708  0.028631603            3 
  227000    1.1692795   -7.2754709    74.138569  0.027216802  0.028616418            3 
  228000    1.1328208    -7.318147    74.558013  0.027250736  0.028601312            3 
  229000    1.1664886   -7.2919428    74.751193  0.027202035  0.028584983            3 
  230000    1.1639623   -7.2500561    74.978708  0.027166199  0.028568681            2 
  231000    1.1527289   -7.2640887      75.4774  0.027228499  0.028552273            4 
  232000    1.1926533   -7.2718674    75.587412  0.027150651  0.028536489            3 
  233000    1.1979117   -7.2425796    76.074844  0.027208456  0.028520161            2 
  234000    1.1748047   -7.2889743    76.174546  0.027127687  0.028503868            2 
  235000    1.1596464   -7.2331687    76.841397  0.027248722  0.028490119            3 
  236000    1.1633107   -7.2624893    77.284193  0.027289616   0.02847727            1 
  237000    1.1641471   -7.2748038    77.356931  0.027200046  0.028462541            3 
  238000    1.1651915   -7.2893584    77.553328  0.027154527  0.028447783            2 
  239000    1.1705268   -7.2937124    77.913318  0.027166429  0.028435309            5 
  240000    1.1745369   -7.3295622    78.022474  0.027091137  0.028422565            1 
  241000    1.1676898   -7.2740878    78.566437  0.027166818  0.028407251            2 
  242000    1.1570829   -7.3020166    78.842312  0.027149557  0.028393764            2 
  243000    1.1574902   -7.2713879    79.259563   0.02718092  0.028381573            2 
  244000    1.1376417   -7.2895982    79.468323  0.027140821  0.028367832            7 
  245000    1.1737596   -7.2910494     79.75256  0.027126721   0.02835274            1 
  246000    1.1571657   -7.3087894    79.981669  0.027094061  0.028337762            4 
  247000    1.1532118   -7.3048424    80.367804  0.027114644  0.028323956            1 
  248000    1.1320568   -7.2820692    80.702464  0.027117763  0.028309707            4 
  249000    1.1590078   -7.3093849    81.097761  0.027141152  0.028295556            3 
  250000    1.1530806   -7.2930376    81.267784  0.027089261  0.028282867            5 
  251000    1.1660666   -7.3134471    81.578256  0.027084414  0.028270423            1 
  252000    1.1872628    -7.327813    82.098858  0.027149093  0.028258449            3 
  253000    1.1600329   -7.3182279    82.096978  0.027041165  0.028246187            2 
  254000    1.1437178   -7.3183709    82.564319  0.027088031   0.02823287            3 
  255000    1.1677895     -7.28793    83.125686  0.027165257  0.028221009            3 
  256000    1.1690113   -7.3254107    83.390372  0.027145303  0.028210861            3 
  257000    1.1621932   -7.3118804    83.742822  0.027153963  0.028201477            2 
  258000     1.133958   -7.3215692    83.897516  0.027098681  0.028190715            2 
  259000    1.1294345   -7.3443753    83.735827  0.026942029  0.028179183            2 
  260000    1.1678036   -7.2706282    84.826394  0.027187947   0.02816731            4 
  261000    1.1663105   -7.3082077     84.73043  0.027053139  0.028154339            1 
  262000    1.1576929   -7.3462079    84.618378  0.026914242  0.028140187            2 
  263000    1.1428617   -7.2860527     85.30074  0.027028118  0.028126435            1 
  264000    1.1437411   -7.3396818    85.378451  0.026950269   0.02811203            2 
  265000     1.136849   -7.3088922     85.63778  0.026930119   0.02809768            4 
  266000    1.1396915   -7.3257473     85.88873  0.026907497  0.028083233            2 
  267000    1.1335138   -7.2781681    86.378221  0.026959495  0.028069737            5 
  268000    1.1495098   -7.3414387    86.408116  0.026868195  0.028056561            5 
  269000    1.1305815   -7.3101408    86.788279  0.026886084  0.028041649            4 
  270000    1.1409502   -7.3425942     87.23478  0.026924315  0.028026306            2 
  271000    1.1532219   -7.3025457    87.534655  0.026917175  0.028012225            2 
  272000    1.1572987   -7.3130711    87.544968  0.026821375  0.027997447            3 
  273000    1.1476715   -7.3187635    88.291902   0.02695113  0.027982744            2 
  274000    1.1569257   -7.2839134    88.514483  0.026920463  0.027969004            6 
  275000    1.1270275   -7.3201146    88.411244  0.026791286  0.027954889            2 
  276000    1.1608211   -7.3315939    88.895481  0.026840423  0.027940166            3 
  277000    1.1280276   -7.3568504      88.8735  0.026736913  0.027923932            1 
  278000    1.1304521   -7.3495687    88.908596  0.026651258   0.02790706            3 
  279000    1.1289568   -7.3155893    89.220775  0.026648977  0.027889136            2 
  280000    1.1228436    -7.376157    89.567095  0.026656873  0.027872195            3 
  281000    1.1311933   -7.3461499    90.295112   0.02677791  0.027856612            4 
  282000    1.1269506   -7.3124434    90.439539  0.026725632  0.027840801            2 
  283000    1.1343589    -7.334711    90.626667  0.026686298  0.027825697            4 
  284000    1.1553795    -7.373456    90.829707  0.026651909  0.027809546            3 
  285000    1.1130259   -7.3645803     90.82959   0.02655836  0.027793354            3 
  286000    1.1472406   -7.3411567    91.454115  0.026647469  0.027776251            1 
  287000    1.1434379   -7.3824251     91.32222  0.026516324  0.027758229            2 
  288000    1.1370075   -7.3670251    91.814334  0.026566648  0.027740824            1 
  289000     1.146496   -7.3375327    92.632101  0.026710525  0.027724804            3 
  290000    1.1273165   -7.3482118    92.841247  0.026678519  0.027709661            3 
  291000    1.1076755   -7.3708472    92.361397  0.026449426  0.027693521            2 
  292000    1.1262056    -7.359945    93.214844   0.02660241  0.027676359            2 
  293000    1.1622605   -7.3420974    93.723263  0.026656218  0.027661092            2 
  294000    1.1521411   -7.3293526    93.945381  0.026628509  0.027646844            6 
  295000    1.1291872   -7.2950144    94.663343  0.026741057   0.02763315            1 
  296000    1.1315055   -7.3538052    94.533762  0.026614235  0.027619673            1 
  297000    1.1114187   -7.3093378    94.896526   0.02662641  0.027605175            5 
  298000    1.1481776   -7.3735738     94.62527  0.026461205  0.027589863            2 
  299000    1.1372303   -7.3324899    95.499564  0.026616378  0.027573362            2 
  300000    1.1386431   -7.3694594    95.311355  0.026475376  0.027558169            3 
  301000    1.1453284   -7.3620965    95.451469   0.02642621  0.027543193            3 
  302000    1.1531659   -7.2886498    96.314059  0.026576727  0.027528073            2 
  303000    1.1372307   -7.3459647    96.337666  0.026495508  0.027513282            2 
  304000    1.1338704   -7.3388217    96.756667  0.026523209  0.027497464            3 
  305000    1.1420969   -7.3397697    96.717113  0.026425441   0.02748181            5 
  306000    1.1438811   -7.3353747    96.869583  0.026380605   0.02746498            3 
  307000    1.1165721   -7.3466897    97.396981  0.026437834  0.027448735            3 
  308000      1.14109   -7.3465865    97.440767  0.026363844  0.027432192            3 
  309000    1.1417216   -7.3690818    97.461675  0.026284163  0.027415105            3 
  310000     1.140265   -7.3960178    98.040552  0.026354987  0.027398348            3 
  311000    1.1406148   -7.3735829    98.389015  0.026363616   0.02738193            4 
  312000    1.1277125    -7.394299    98.284078  0.026251089   0.02736454            2 
  313000    1.1426484    -7.352287    99.068095  0.026375957  0.027348927            2 
  314000    1.1087441   -7.3355596    99.442185  0.026391238  0.027332907            5 
  315000    1.1285338   -7.4034363    99.376353   0.02629004   0.02731732            4 
  316000    1.1458083   -7.3943588    99.657908  0.026281094  0.027301531            2 
  317000    1.1163165   -7.4008687    100.06596  0.026305457  0.027285678            1 
  318000     1.123063   -7.3719387    100.11906  0.026236651  0.027269461            5 
  319000    1.1234885    -7.353462    100.61908  0.026285026  0.027254076            3 
  320000    1.1381811   -7.3707318    100.98649  0.026298564  0.027237798            2 
  321000    1.1382848   -7.3635845    100.92194  0.026199882  0.027222685            2 
  322000    1.1306571   -7.3737804    101.14455  0.026176126  0.027206881            3 
  323000    1.1351346    -7.435227    101.04234  0.026068714  0.027191481            1 
  324000    1.1341871   -7.4050104    101.40028   0.02608032  0.027173816            4 
  325000    1.1259577   -7.3981346    101.81528  0.026106483  0.027156142            3 
  326000    1.1142071     -7.36944    102.15366  0.026112899  0.027138832            2 
  327000    1.1232039   -7.3852925    102.20234  0.026045448  0.027121329            1 
  328000    1.1033569   -7.3956367     102.6486  0.026079421  0.027104089            2 
  329000    1.1013684   -7.3873301    102.72236  0.026018834  0.027086357            5 
  330000    1.1097271   -7.3855381    103.24409   0.02607174  0.027068735            2 
  331000    1.0970941   -7.3585477    103.51314  0.026060711  0.027051437            1 
  332000    1.1238672   -7.3795539    103.87031  0.026071864  0.027033987            4 
  333000     1.108648   -7.4361203    103.25947  0.025840708  0.027014989            2 
  334000     1.129901   -7.4002106    103.56685  0.025840031  0.026995104            4 
  335000    1.1220685   -7.3579096     104.2694  0.025937661  0.026976005            2 
  336000    1.1497855    -7.354739    104.31111  0.025870811  0.026956776            2 
  337000    1.1138662   -7.4273938    104.35344   0.02580451  0.026936607            4 
  338000    1.1151342   -7.3760892    104.55682  0.025778308  0.026916632            1 
  339000    1.1094677   -7.4124424    105.06613  0.025827467  0.026896733            4 
  340000    1.1198413   -7.3818943    105.33213  0.025816699  0.026877451            2 
  341000    1.1356119   -7.3685279    105.72508  0.025837019  0.026857876            7 
  342000    1.1360955   -7.4504551     105.1417  0.025619323  0.026837092            2 
  343000    1.1085655   -7.3624765    106.42146  0.025855553  0.026816474            2 
  344000    1.1172793   -7.3735223    106.09942  0.025702378  0.026796734            5 
  345000     1.130156   -7.4484241    105.62971  0.025514424  0.026776342            2 
  346000    1.1236342    -7.405816    106.34834  0.025613762  0.026755597            2 
  347000    1.1018194   -7.4190226    106.66273   0.02561545  0.026735135            2 
  348000    1.1135098   -7.4340431    106.73649  0.025559504  0.026714978            2 
  349000    1.1268611   -7.4174112     107.0876  0.025570106  0.026693988            5 
  350000    1.0947398   -7.4308653    107.50203  0.025595722   0.02667322            3 
  351000     1.121786   -7.4542403    107.26246  0.025465922  0.026652112            2 
  352000    1.1064643   -7.3925996      108.045  0.025578836  0.026632143            2 
  353000    1.1087816   -7.3541874    108.37141  0.025583431  0.026612757            4 
  354000    1.1008138   -7.4135872    108.60082  0.025565165   0.02659412            4 
  355000    1.1386112   -7.4059856    108.92414  0.025569047  0.026575327            2 
  356000    1.1032961   -7.4233167    109.08671  0.025535279   0.02655673            2 
  357000    1.1176172     -7.37183    109.44432  0.025547226  0.026538216            1 
  358000    1.1037353   -7.3860282    109.87405  0.025575895  0.026519154            5 
  359000    1.1288281    -7.467861    109.09308   0.02532337  0.026498675            3 
  360000    1.0860049   -7.3632691    110.13588  0.025494416  0.026478552            4 
  361000    1.1273317   -7.4387631    109.96359  0.025384024  0.026458481            5 
  362000    1.1012109   -7.4093933    110.91311  0.025532483  0.026439119            2 
  363000    1.1239713   -7.4466028    110.76383  0.025427876  0.026420966            2 
  364000    1.1112563   -7.4169794    111.37711  0.025498422  0.026402382            8 
  365000    1.1089584   -7.4497206    111.27886  0.025406133  0.026384307            2 
  366000    1.0992264   -7.4525534    112.05572  0.025513597  0.026365595            3 
  367000    1.1189798   -7.4594521    111.71832  0.025367466   0.02634723            2 
  368000    1.1145498   -7.4281755    112.01019  0.025364626  0.026328404            2 
  369000    1.0880464   -7.4481159    112.80883  0.025476249   0.02630985            3 
  370000    1.1227303   -7.4302905    112.65419  0.025372564  0.026292212            1 
  371000    1.1204566   -7.4153589    112.67373  0.025308564  0.026273636            2 
  372000    1.1188334   -7.4237466    113.19024  0.025356236  0.026255112            2 
  373000     1.112741   -7.4594376    113.42127  0.025339872   0.02623623            2 
  374000    1.0976296   -7.4068973    113.72223  0.025339178  0.026217719            2 
  375000    1.0915141    -7.404669    113.89299  0.025309552  0.026199243            3 
  376000    1.0869054   -7.4800667    113.50282  0.025155766  0.026180121            3 
  377000    1.0909774   -7.4753082    114.03494  0.025206663  0.026160378            2 
  378000     1.083271   -7.4407288    114.03958  0.025141001  0.026140741            3 
  379000     1.119633   -7.3980153    114.19537  0.025108921  0.026119895            2 
  380000    1.1045755   -7.4380637    114.04104     0.025009  0.026098972            8 
  381000    1.0950344   -7.3960621    114.44082    0.0250308   0.02607831            8 
  382000    1.1043754   -7.4457664    114.77024  0.025037139  0.026057741            2 
  383000    1.0977205   -7.4409974     115.1215  0.025048194  0.026037132            2 
  384000    1.1080096   -7.4457296    115.53658  0.025073043  0.026016907            2 
  385000    1.1061501   -7.4672662    115.92381  0.025091733  0.025997328            5 
  386000    1.0786664   -7.4560783    116.35904   0.02512069   0.02597788            3 
  387000    1.1019515   -7.4242991    116.20171  0.025021902   0.02595829            1 
  388000    1.0939626    -7.436661    116.47671  0.025016476  0.025938722            1 
  389000    1.0862649   -7.4042911    116.55546  0.024969035  0.025918796            2 
  390000    1.0962552   -7.4725128    116.27199  0.024844442  0.025898024            3 
  391000    1.1119848   -7.4435933    116.37599  0.024803066   0.02587649            2 
  392000    1.1070266   -7.4661757    116.63809  0.024795512   0.02585492            1 
  393000    1.0779847    -7.452618    116.77822  0.024762133  0.025833627            5 
  394000    1.0856201   -7.4792774    117.05937   0.02475875  0.025811895            3 
  395000    1.0815791   -7.3927286    117.85404  0.024863721  0.025790685            2 
  396000    1.1151111   -7.4718166    117.42447  0.024710537  0.025770174            2 
  397000    1.0768702    -7.457406    117.87787  0.024743465  0.025749094            2 
  398000    1.0701144   -7.4892414    117.97991  0.024702661  0.025727904            1 
  399000    1.1083634   -7.5502731    118.15956  0.024678271  0.025705953            3 
  400000    1.0800488   -7.5215213    118.49185  0.024685803  0.025684814            1 
  401000    1.0842925   -7.4894272    118.78127  0.024684387  0.025663485            3 
  402000    1.0716768   -7.4881022    119.45741  0.024763144  0.025642382            3 
  403000    1.0878427   -7.4980644    119.13682  0.024635405  0.025621659            6 
  404000    1.0779785    -7.499084    119.68573   0.02468765  0.025600864            2 
  405000    1.1132182   -7.4478769    120.52425  0.024799227  0.025580388            3 
  406000     1.088001   -7.4957945    119.89028  0.024608021   0.02556037            3 
  407000    1.0896908   -7.4744546    120.46258  0.024664738  0.025540642            2 
  408000    1.0920288   -7.4123823    121.12622  0.024739832  0.025521754            1 
  409000    1.1133311   -7.4747362    120.81303  0.024615531  0.025502788            2 
  410000    1.0806968    -7.467616    121.50051  0.024695225  0.025483681            3 
  411000    1.0945222   -7.4763907    121.44218  0.024623313  0.025464919            3 
  412000    1.0965852   -7.4726784    121.78285  0.024632453  0.025446422            4 
  413000    1.0888778   -7.4324385    122.13959  0.024644792  0.025427268            3 
  414000    1.0872089   -7.5145622    121.79164  0.024515226  0.025408143            4 
  415000    1.0937784   -7.4615638    122.62564  0.024623622   0.02538878            3 
  416000    1.0706281   -7.4904077    122.85898  0.024611173  0.025370314            3 
  417000    1.0704781     -7.45957    123.31941  0.024644167  0.025352516            2 
  418000    1.0939595   -7.5063414    123.08283  0.024538045  0.025334187            3 
  419000    1.0681844   -7.4503047    123.37366  0.024537322  0.025316513            2 
  420000    1.0891547   -7.4951068    123.93679  0.024590633  0.025298776            3 
  421000    1.0948353   -7.4884552    123.87641  0.024520271  0.025281118            5 
  422000    1.0799994   -7.4981663    124.43862  0.024573188  0.025263367            2 
  423000    1.1122898   -7.4470816    125.16062  0.024657333  0.025245961            2 
  424000    1.0618805   -7.4874971     125.0903  0.024585359  0.025228992            1 
  425000     1.067918    -7.481461    125.37214  0.024582772  0.025212123            3 
  426000    1.0738634   -7.4963598    125.65831  0.024581047   0.02519563            2 
  427000    1.0927389   -7.5207957    125.65843  0.024523503  0.025179095            1 
  428000    1.0953777   -7.5518789    126.12192  0.024556449  0.025162939            6 
  429000    1.0894057   -7.4987861    126.74249  0.024619752  0.025147462            4 
  430000    1.0934536    -7.528442    126.20972  0.024459247   0.02513124            9 
  431000    1.0876152   -7.4996882    126.65664   0.02448891  0.025114692            4 
  432000    1.0821346   -7.4967148    127.02161  0.024502625  0.025097982            4 
  433000    1.0982482   -7.5101263    126.51372   0.02434829  0.025081138            1 
  434000    1.1004151   -7.4872576    127.25142  0.024433836  0.025064109            3 
  435000    1.0954206   -7.4967695    127.07684  0.024344222  0.025046601            2 
  436000    1.0813292   -7.4473408    128.01011  0.024466763  0.025029556            3 
  437000    1.0841812   -7.4703627    127.96067  0.024401348  0.025012404            1 
  438000    1.0535927   -7.4847442    127.72771  0.024301315  0.024995273            9 
  439000    1.0790386   -7.5081555     128.3747  0.024368773   0.02497849            3 
  440000    1.1051492   -7.5070499    128.32272  0.024303545  0.024961271            2 
  441000    1.0561952   -7.5210344     128.2596  0.024236508  0.024943873            4 
  442000    1.1110002   -7.4776869    128.86722  0.024296233  0.024926421            4 
  443000    1.0807756   -7.5226695    129.04843  0.024275476  0.024908896            5 
  444000    1.0689004   -7.4728597    129.68439  0.024340163  0.024891981            5 
  445000    1.0705889   -7.4721401    129.61828  0.024273086  0.024874684            3 
  446000    1.0669251   -7.5174581    129.15475  0.024132053  0.024856649            4 
  447000    1.0696643   -7.5498832    129.56342  0.024154254  0.024838867            2 
  448000    1.0998027   -7.5320639    129.61475  0.024109887  0.024821201            3 
  449000    1.0838033     -7.53846    129.77594  0.024086106  0.024802917            2 
  450000    1.0671902   -7.5021009    130.47786  0.024162566  0.024785207            2 
  451000    1.0703236   -7.5288076     130.3745  0.024089893  0.024767673            8 
  452000    1.0335377   -7.4928728    131.01609  0.024154883  0.024750618            3 
  453000     1.100166   -7.5310988    131.13221  0.024122922  0.024733792            3 
  454000    1.0823304   -7.5135619    131.61851   0.02415905  0.024716893            2 
  455000    1.0764763     -7.55494    131.93012  0.024163026  0.024699782            8 
  456000    1.0674787   -7.5299029    131.90191  0.024104882  0.024683004            2 
  457000    1.0709056   -7.5306525    131.51307   0.02398123  0.024665394            5 
  458000    1.0806419   -7.4991018    131.95122  0.024008592  0.024647553            4 
  459000    1.0764476   -7.5397979    131.84525  0.023937047  0.024629254            3 
  460000     1.062198   -7.5447082     132.0129   0.02391538  0.024611011            4 
  461000    1.0595494   -7.5614172    131.91606  0.023845999  0.024592403            7 
  462000    1.0611564   -7.5324758    132.31056  0.023865541  0.024573715            2 
  463000    1.0746211   -7.5463829    132.66247  0.023877335  0.024554935            3 
  464000    1.0834249   -7.5781593    132.08936  0.023722945  0.024535486            3 
  465000     1.057884   -7.5479013    132.58871  0.023761418  0.024515802            6 
  466000    1.0763536   -7.5186638     132.4822   0.02369138  0.024496235            2 
  467000    1.0622833   -7.5369936    133.11299   0.02375321   0.02447651            4 
  468000    1.0404352   -7.4898877    133.68633  0.023804545  0.024457489            5 
  469000    1.0502472   -7.5404143    133.24141  0.023674735  0.024438473            9 
  470000    1.0755209   -7.5318877    133.39666   0.02365189  0.024419158            4 
  471000    1.0697798    -7.564014    133.60987  0.023639397  0.024399376            3 
  472000    1.0324042   -7.5408759    133.77823  0.023619038  0.024379552            2 
  473000    1.0784517   -7.5809116    133.88673  0.023588218  0.024359621            3 
  474000    1.0851953   -7.5376908    134.10551  0.023576918  0.024339906            4 
  475000    1.0767492   -7.5169914    134.32693  0.023566128  0.024320362            3 
  476000    1.0636186   -7.4966135    135.23831  0.023676175  0.024301366            3 
  477000    1.0452665   -7.5525659    134.76377  0.023543636  0.024281726            2 
  478000     1.077016   -7.5467238    134.83126  0.023506147  0.024261893            5 
  479000    1.0778283   -7.5435674    134.96814  0.023480886  0.024242302            7 
  480000    1.0725023    -7.541696    135.35449  0.023499043  0.024222822            4 
  481000    1.0483709   -7.5242906    135.44477   0.02346583  0.024202983            2 
  482000    1.0494491   -7.5568175    135.72978  0.023466421  0.024184035            2 
  483000    1.0719613   -7.5839651    135.70976  0.023414381  0.024164456            2 
  484000    1.0670904   -7.5182659    136.51455  0.023504572   0.02414562            2 
  485000    1.0587306    -7.569842    136.36268  0.023430013   0.02412652            2 
  486000    1.0471323   -7.5764552    136.25144  0.023362729  0.024107054            3 
  487000    1.0514173   -7.5796193     136.3649  0.023334171  0.024087123            3 
  488000    1.0578378   -7.5124286    137.28213  0.023442986   0.02406746            9 
  489000    1.0532758   -7.5761522    136.96735  0.023341403  0.024048233            2 
  490000    1.0700824   -7.5689698    137.56974  0.023396215  0.024029098            5 
  491000    1.0607228    -7.519596    138.25998  0.023465713   0.02401059            3 
  492000    1.0493216   -7.5677615    137.66401  0.023317074  0.023992008            6 
  493000    1.0471146   -7.5970988    137.92693  0.023314221  0.023973322            3 
  494000    1.0479064   -7.6227229    138.29085  0.023328416   0.02395503            4 
  495000    1.0890163   -7.5556592    138.39173  0.023298271  0.023936345            3 
  496000    1.0551938   -7.5407613     138.6341   0.02329202  0.023917971            4 
  497000    1.0338748   -7.5517728    139.21846  0.023343135   0.02389984            4 
  498000    1.0570254   -7.5834592    138.99725  0.023259245  0.023881564            4 
  499000    1.0614237   -7.5545874    139.43663   0.02328601  0.023863393            1 
  500000    1.0505001   -7.5779799    139.69587  0.023282644  0.023845114            2 
  501000    1.0326899   -7.5651033    139.35862  0.023180077  0.023826623            4 
  502000    1.0642245   -7.5574169    139.44985  0.023149045  0.023808416            4 
  503000    1.0636306   -7.5904678    139.65958   0.02313777  0.023790198            3 
  504000    1.0285032   -7.5957554    139.88602  0.023129303  0.023771897            2 
  505000    1.0548649   -7.5732538    140.21151  0.023137213  0.023753815            3 
  506000    1.0463091   -7.5909907    140.57759  0.023151778  0.023735868            1 
  507000    1.0748315    -7.590043    140.35852  0.023070105  0.023717408            3 
  508000     1.063016   -7.5767039    140.66739  0.023075359  0.023698669            2 
  509000    1.0660493   -7.6143135    140.82219  0.023055368  0.023679657            4 
  510000    1.0451662    -7.588987    140.72111  0.022993646  0.023660581            4 
  511000    1.0501087   -7.5833042    141.52185  0.023079231   0.02364166            3 
  512000    1.0659478   -7.5746925    141.82878  0.023084111  0.023623157            2 
  513000    1.0575651   -7.6020832    141.53928  0.022992085  0.023604487            3 
  514000    1.0383653   -7.5954523    142.03796  0.023028203  0.023585961            3 
  515000    1.0370523   -7.5908921    142.16211  0.023003578  0.023567475            5 
  516000    1.0334102   -7.5886761    142.09794  0.022948633  0.023548792            2 
  517000      1.03785   -7.5844423    142.21989  0.022923903  0.023530019            2 
  518000     1.054983    -7.606162    141.92432  0.022832097  0.023511818            3 
  519000    1.0526568   -7.5847692    142.83889  0.022934954  0.023493205            8 
  520000    1.0745534   -7.6248583      142.996  0.022916025  0.023474969            2 
  521000    1.0316948   -7.5966325    143.02083  0.022876012  0.023456438            3 
  522000    1.0520291   -7.5842896    143.54888  0.022916488  0.023438402            2 
  523000    1.0463684   -7.6204127    143.48039  0.022861757  0.023420058            2 
  524000    1.0436203   -7.6023315    143.43612  0.022811088  0.023401347            2 
  525000    1.0462427   -7.5651395    144.11387  0.022875217  0.023383087            5 
  526000    1.0408294   -7.6274749    144.17793  0.022841877  0.023365275            2 
  527000    1.0269986   -7.5807716    144.02194  0.022773868  0.023347398            4 
  528000    1.0347743   -7.6052857    144.45259  0.022798704  0.023329443            5 
  529000    1.0596787    -7.618535    144.44182  0.022753909  0.023311229            3 
  530000    1.0511909   -7.6393945    144.27284  0.022684408  0.023292706            6 
  531000    1.0331694   -7.5502206    145.38154  0.022815685   0.02327439            1 
  532000     1.059081   -7.5788013     145.2234  0.022748027  0.023256511            1 
  533000    1.0379564   -7.5798911    145.53651  0.022754301  0.023238452            2 
  534000    1.0444554   -7.5911414    145.74395  0.022744062   0.02322055            3 
  535000    1.0098726   -7.6540531    145.37569  0.022644188  0.023202415            2 
  536000    1.0579722   -7.6236722     145.6869  0.022650326  0.023184079            6 
  537000    1.0191997   -7.6287751    145.67635  0.022606509  0.023165911            3 
  538000    1.0256054   -7.6282051    145.88581  0.022596934   0.02314782            3 
  539000    1.0315009   -7.6753088    145.82146  0.022545061  0.023129429            9 
  540000     1.042507   -7.6352497    146.09244   0.02254513  0.023111026            2 
  541000    1.0418234   -7.6728052    146.14373  0.022511357  0.023092727            2 
  542000    1.0483567   -7.6082064    146.41748  0.022511913  0.023074179            3 
  543000    1.0438789   -7.6212744    146.97532  0.022556065  0.023055655            4 
  544000    1.0356201   -7.6294441    146.48112  0.022438897  0.023037072            6 
  545000    1.0520881   -7.6527495    146.76881  0.022441714  0.023018263            2 
  546000    1.0350485   -7.6273159    147.00727  0.022437008  0.022999365            1 
  547000    1.0522012    -7.615408    147.49102  0.022469686  0.022980564            1 
  548000    1.0442356   -7.6128201    148.02229  0.022509473  0.022962349            3 
  549000    1.0521639   -7.6023543    148.03233  0.022469995  0.022944134            4 
  550000    1.0308708   -7.6133766    148.07249  0.022435226  0.022925719            3 
  551000    1.0361283   -7.6176625    148.08973  0.022397117  0.022907197            3 
  552000    1.0434535   -7.6528266    148.39643  0.022402842  0.022888683            1 
  553000    1.0475255    -7.601716    148.54479  0.022384688  0.022870656            4 
  554000    1.0501635   -7.6544223    148.20413  0.022293041  0.022852474            4 
  555000    1.0385487   -7.6745162    148.46508  0.022292055  0.022833741            4 
  556000    1.0260035   -7.6518614    149.05076  0.022339742  0.022815361            3 
  557000    1.0525302   -7.5990775    149.63265  0.022386693  0.022797242            2 
  558000    1.0107302   -7.6236578    149.31641  0.022299345  0.022779227            3 
  559000    1.0078547   -7.6249213    149.32841  0.022261242  0.022761319            2 
  560000    1.0438049   -7.6450795    150.03361   0.02232643  0.022743482            4 
  561000    1.0214431   -7.6366419    149.57492  0.022218497  0.022725517            3 
  562000    1.0367902   -7.6574943    149.81577  0.022214675  0.022707713            4 
  563000    1.0408757   -7.6257132    150.18102   0.02222928  0.022689823            2 
  564000    1.0208685   -7.6406659    150.34505  0.022214103  0.022671935            1 
  565000    1.0352686   -7.6906664    150.17971  0.022150399  0.022653823            5 
  566000    1.0301526   -7.6552601    150.55415  0.022166394  0.022635924            5 
  567000    1.0191432   -7.6572311    150.85979  0.022172221  0.022618438            4 
  568000      1.04139   -7.6289307    151.21043  0.022184628  0.022601143            4 
  569000    1.0511527   -7.6760804    151.05304  0.022122589  0.022583615            4 
  570000    1.0064286   -7.6437486    151.22296   0.02210862  0.022565869            5 
  571000    1.0541757   -7.6755159    151.02234  0.022040622  0.022548008            4 
  572000    1.0358477   -7.6856565    151.57202  0.022082171  0.022530295            4 
  573000    1.0187963    -7.658751    151.90171  0.022091581  0.022512822            3 
  574000    1.0444914   -7.7209083    151.12338  0.021940096   0.02249526            4 
  575000    1.0211743   -7.6665333    152.59458  0.022115156  0.022477803            5 
  576000    1.0334422   -7.6637612     153.0083  0.022136618  0.022460608            2 
  577000    1.0409167   -7.6626377    152.27119  0.021991795  0.022443104            9 
  578000    1.0528409   -7.6792508    152.55029  0.021993987  0.022425469            2 
  579000    1.0220468   -7.6583067    153.04845  0.022027699  0.022407907            4 
  580000    1.0064704   -7.6585014    153.30694  0.022026859  0.022390694            2 
  581000    1.0225602   -7.6588085    152.92918  0.021934765  0.022373418            2 
  582000   0.99464574   -7.6397464     153.1641  0.021930714   0.02235611            3 
  583000    1.0248932   -7.6850752    153.44786  0.021933657  0.022338849            3 
  584000    1.0192937   -7.6752281    153.78926  0.021944814  0.022321578            3 
  585000    1.0289134   -7.6600353    154.03973  0.021942981  0.022304111            9 
  586000    1.0112552   -7.6653368    153.55835   0.02183708  0.022286441            5 
  587000    1.0158613   -7.6534851      153.983  0.021860165  0.022269083            2 
  588000    1.0093603   -7.6781933    154.37053  0.021877909  0.022251886            4 
  589000    1.0163429   -7.6815527    154.39702  0.021844514  0.022234441            5 
  590000    0.9760783    -7.670612    155.16082   0.02191537  0.022216936            2 
  591000    1.0205252   -7.6705488    154.57204  0.021795268  0.022199554            2 
  592000    1.0232824   -7.6700303    154.85019  0.021797606  0.022182047            2 
  593000    1.0053802   -7.6975201    155.09794  0.021795664  0.022164944            3 
  594000    1.0213044    -7.697036    155.66114  0.021837983  0.022147917            4 
  595000    1.0245175   -7.6840836    155.71521  0.021808853   0.02213065            4 
  596000     1.025093   -7.6853236    155.50465  0.021742821  0.022113208            2 
  597000   0.98875768   -7.7096369    155.45549  0.021699538  0.022095788            2 
  598000    1.0245461   -7.6874365    155.96167   0.02173379  0.022078902            1 
  599000    1.0092567   -7.6791857    156.42746  0.021762307  0.022062126            6 
  600000    1.0181544   -7.6897577    156.11959  0.021683276  0.022045351           12 
  601000    1.0040242   -7.6780884    156.72801   0.02173156  0.022028417            1 
  602000    1.0302356   -7.6653813    157.01312  0.021734928  0.022011493            3 
  603000    1.0204291   -7.6989459    156.71069  0.021657089  0.021994633            5 
  604000    1.0357304   -7.7150482    157.13354  0.021679572  0.021978048            5 
  605000    1.0006623   -7.7472863      156.413   0.02154449  0.021961031            4 
  606000    1.0283434   -7.7131222    157.45751  0.021652573  0.021944066            3 
  607000    1.0246195   -7.6970237     157.1671  0.021577032  0.021927169            2 
  608000    1.0256485   -7.7301128    157.11363  0.021534214  0.021910334            4 
  609000    1.0195089   -7.6770371    158.02251  0.021623222   0.02189355            3 
  610000    0.9993295   -7.6894944    158.08045   0.02159569  0.021876925            3 
  611000    1.0166368   -7.6749318    157.74974  0.021515241  0.021860302            5 
  612000    1.0159744   -7.7401644    157.88538  0.021498554  0.021843364            8 
  613000    1.0291437   -7.7028692    158.14961  0.021499404  0.021826455            3 
  614000    1.0245125   -7.7207217    158.51138  0.021513489  0.021809786            3 
  615000     1.014552   -7.7219477    158.74711  0.021510448  0.021793141           11 
  616000     1.016404   -7.7164633    158.87816  0.021493257  0.021776634            3 
  617000    1.0267201   -7.6710781     159.6694   0.02156529  0.021760379            4 
  618000    1.0079864   -7.7141038    159.57513  0.021517682  0.021744266            3 
  619000    0.9962843   -7.6921694    159.41704  0.021461637  0.021727798            4 
  620000     1.034809   -7.7344244    159.64001  0.021456991  0.021711367            4 
  621000    1.0048575   -7.7413673    159.33799   0.02138191  0.021695119            4 
  622000    1.0055342   -7.6777213    160.10493  0.021450285  0.021678873            3 
  623000   0.99378069   -7.7119339     160.3643  0.021450549  0.021662755            3 
  624000    1.0290467   -7.7160677    160.63143  0.021451847  0.021646723            4 
  625000     1.008573   -7.6871371    160.60428  0.021413903  0.021630766            4 
  626000    1.0112477   -7.7371509    160.96676  0.021427949  0.021614829            6 
  627000   0.99914739   -7.7212554     160.8661  0.021380396   0.02159918            6 
  628000   0.99236056   -7.7376386    161.06562  0.021372826  0.021583414            5 
  629000   0.99865888   -7.7213696    161.23337  0.021361072  0.021567811            3 
  630000    1.0031259   -7.7191089    162.15662  0.021449289  0.021552782            4 
  631000   0.99655204   -7.7397224    162.10687  0.021408725  0.021538025            3 
  632000    0.9855205     -7.74695    162.10361  0.021374421  0.021522912            3 
  633000     0.993293   -7.7208775    162.54139  0.021398287  0.021507901           10 
  634000    1.0007081   -7.7231921    162.60102  0.021372373   0.02149274            1 
  635000   0.96878921   -7.7798829    162.34862  0.021305593  0.021477297            3 
  636000   0.99172041   -7.7420781    162.50133  0.021292103  0.021461979            4 
  637000   0.98626042   -7.7115536    163.43965   0.02138143  0.021446924            5 
  638000    1.0102665   -7.7184928    163.03473  0.021295027  0.021431689            5 
  639000    1.0079881   -7.7441505     163.3496  0.021302765  0.021416361            3 
  640000    1.0002276   -7.7426894    163.22696   0.02125351  0.021400898            3 
  641000   0.97091234   -7.7472418    163.01005  0.021192155  0.021385398            2 
  642000   0.99738032   -7.7633984    163.49756  0.021222425  0.021369847            3 
  643000    1.0100755   -7.7605597    163.64765  0.021208871  0.021354419            3 
  644000   0.99145036    -7.757818    163.71354  0.021184464  0.021339255            4 
  645000   0.99780587   -7.7644156    163.94011  0.021180892  0.021324047            4 
  646000    1.0066307   -7.7583194    163.98128  0.021153416  0.021308946            2 
  647000   0.98958052   -7.7586036    164.49951  0.021187469  0.021293598            9 
  648000   0.99284865   -7.7507628    164.40646  0.021142806  0.021278334            5 
  649000   0.99636885   -7.7409602    164.72065  0.021150571  0.021263084            3 
  650000    1.0076048     -7.71349    165.02402  0.021156926  0.021248085            4 
  651000   0.99012337   -7.7059682    165.48754  0.021183761  0.021233262            2 
  652000   0.99054391   -7.7599063    164.91734  0.021078392   0.02121819            3 
  653000   0.98504757   -7.7592906    165.16787  0.021078085  0.021203142            4 
  654000   0.99507403   -7.7746856    165.29433  0.021061968   0.02118816            3 
  655000   0.99747272   -7.7197067    166.04433  0.021125233   0.02117362            5 
  656000   0.99255887   -7.7532824    165.81628   0.02106406  0.021158663            5 
  657000   0.99323632   -7.7554935    166.05116  0.021061792  0.021143943            2 
  658000     1.010955   -7.7659266    165.94903  0.021016848  0.021129332            1 
  659000   0.97567909   -7.7160472    166.60505  0.021067913  0.021114701            5 
  660000   0.96783183   -7.7408384    166.62942  0.021039068   0.02110001            2 
  661000    0.9948534   -7.7336808    166.94401    0.0210469  0.021085091            6 
  662000   0.98319695   -7.7715568    166.63371  0.020976046  0.021070314            3 
  663000   0.96850309   -7.7627029    166.99561  0.020989896  0.021055639            5 
  664000   0.98777294   -7.7259492    167.53871  0.021026445  0.021041089            1 
  665000   0.97242176   -7.7292598    167.58254  0.021000318  0.021026511            3 
  666000    1.0106141   -7.7340894    167.38783  0.020944423  0.021012117            2 
  667000   0.98800533   -7.7319995    167.78845  0.020963075  0.020997501            3 
  668000    1.0016914   -7.7637422    167.40127  0.020883392  0.020982637            3 
  669000   0.99989684   -7.7780524     166.9831  0.020800087  0.020967651            3 
  670000   0.98130043   -7.7678386    167.47852  0.020830661  0.020952507            4 
  671000   0.99212515   -7.7338465    167.84716    0.0208454  0.020937333            2 
  672000   0.95850544   -7.7767636    167.35662   0.02075355  0.020922008            3 
  673000     0.988074   -7.7479455    167.95286   0.02079654  0.020906613            2 
  674000   0.97759098   -7.7836327    167.21715  0.020674722  0.020891043            5 
  675000   0.98272419    -7.762618    167.37234  0.020663252  0.020875384            5 
  676000   0.95910862   -7.7744088    167.59114  0.020659657  0.020859542            6 
  677000    1.0079537   -7.7983698    167.60683  0.020631072  0.020843596            4 
  678000   0.98578066   -7.7864082    167.58695    0.0205982  0.020827689            5 
  679000   0.97295054   -7.8241532    167.31546  0.020534543   0.02081142            9 
  680000   0.97601526   -7.8160624    167.87914  0.020573424  0.020795048            6 
  681000    0.9694321   -7.8298784    167.99287  0.020557131  0.020778706            9 
  682000   0.97858216    -7.832917      167.829  0.020506965  0.020762453            6 
  683000   0.97128499   -7.8081765    168.27729  0.020531636  0.020746342            3 
  684000     0.985864   -7.7715216    168.42493  0.020519607  0.020730306            2 
  685000   0.98926913   -7.8116327    168.27137  0.020470969  0.020714112            7 
  686000   0.96560951   -7.7777794    168.09897  0.020420186  0.020697839            3 
  687000    1.0015445   -7.7932777    168.14669   0.02039625  0.020681503            3 
  688000   0.99417832    -7.775097    168.56329  0.020417066  0.020665093            5 
  689000   0.98636053   -7.7489243    169.07345  0.020449135  0.020648674            6 
  690000   0.98221072   -7.7893351    168.39967  0.020338125   0.02063213            2 
  691000   0.97644206   -7.7699046    169.24461   0.02041059  0.020615826            2 
  692000   0.99489737   -7.7871532    169.32663  0.020390972  0.020599514           12 
  693000   0.99539145   -7.7938292    169.49447   0.02038173  0.020583158            3 
  694000   0.95985616   -7.7941597    169.04958  0.020298941  0.020566866            3 
  695000    1.0027814   -7.7926046    169.56236  0.020331219  0.020550528            4 
  696000   0.97135432   -7.8024933    169.69604  0.020318012  0.020534242            4 
  697000    0.9907415   -7.8150707    169.78643  0.020299668  0.020518003            6 
  698000    0.9642279    -7.795461    169.84389  0.020277446  0.020501677            5 
  699000    0.9629034   -7.8203435    169.70224   0.02023155  0.020485592            3 
  700000    0.9919797    -7.838611    169.90739   0.02022707  0.020469325            1 
  701000   0.96591103   -7.7877652    170.59439  0.020279885  0.020453099            9 
  702000   0.96479208   -7.7870615    169.97163  0.020177069  0.020436828            4 
  703000   0.98547533   -7.8091422    170.62095  0.020225338   0.02042079            9 
  704000   0.96992245   -7.7766823    170.83814  0.020222317  0.020405078            3 
  705000   0.95805137   -7.7961071    170.79172  0.020188147  0.020389043            1 
  706000   0.97223314   -7.8034303    171.01637  0.020186068  0.020373115            5 
  707000   0.96068278   -7.7879714    170.51751  0.020098716  0.020357019            5 
  708000   0.96849216   -7.7750196    170.90939  0.020116454  0.020340961            5 
  709000   0.96911024   -7.8123944    170.85434   0.02008161   0.02032459            6 
  710000   0.97075334   -7.8309929    170.92163  0.020061224  0.020308292            4 
  711000   0.98816136   -7.8455061    171.06349  0.020049635   0.02029206            3 
  712000   0.95690548   -7.8235777    171.05276   0.02002022  0.020275505            3 
  713000   0.96202387   -7.8244243    171.83495  0.020083561  0.020259019            3 
  714000   0.97542464   -7.8003542    171.55229  0.020022443   0.02024274            2 
  715000   0.97574319   -7.8139846     172.0952  0.020057716  0.020226542            6 
  716000   0.98260796   -7.8349089    171.88971  0.020005785  0.020210529            5 
  717000   0.95997626   -7.8228044    172.09509  0.020001754   0.02019441            8 
  718000   0.96312036   -7.8607819    171.87008   0.01994778  0.020178269            6 
  719000   0.98365008   -7.8208317    172.63934  0.020009196  0.020162349            4 
  720000   0.96672639   -7.8578065     172.5345  0.019969271  0.020146527            3 
  721000   0.95712313   -7.8706177    172.47048  0.019934175  0.020130778            5 
  722000   0.95632195   -7.8109375    172.57984  0.019919187  0.020114945            7 
  723000   0.95855929   -7.8109369     172.6973  0.019905175  0.020099164            3 
  724000   0.97298472   -7.8100193     172.8669  0.019897204  0.020083386            4 
  725000   0.98236635   -7.8284385    172.98821  0.019883702  0.020067453            3 
  726000   0.95976382   -7.7815687    173.28661  0.019890566  0.020051676            3 
  727000   0.95296726   -7.8277719    173.31906  0.019866926  0.020035747            4 
  728000   0.96916387    -7.824799    173.21494  0.019827717  0.020019765            3 
  729000   0.96074502   -7.8340843    173.48258  0.019831113  0.020003825           11 
  730000   0.97698086   -7.8575509    173.97773  0.019860471  0.019988008            7 
  731000   0.95798932   -7.8388575    173.42043  0.019769771  0.019972232            3 
  732000   0.94115724   -7.8014715    174.40305  0.019854627  0.019956525            3 
  733000   0.95722741   -7.8434184    173.99205  0.019780815  0.019940835            3 
  734000    0.9679695   -7.8325063    174.25595  0.019783827  0.019925033            7 
  735000   0.96218114   -7.8821771    173.93067   0.01972003  0.019909055            4 
  736000   0.97259286   -7.8908909    173.79846  0.019678268  0.019892976            6 
  737000   0.96598158   -7.8335982     174.6593  0.019748903  0.019877055            6 
  738000   0.94491955   -7.8402442    174.53521  0.019708131   0.01986115            5 
  739000    0.9843987   -7.8093812    175.17144  0.019753207   0.01984538            5 
  740000    0.9639069   -7.8705986    174.48911  0.019649674  0.019829655            3 
  741000   0.97037004   -7.8794492    174.31671  0.019603769  0.019813757            6 
  742000   0.94924781   -7.8041151    175.22305  0.019679139  0.019797845            4 
  743000   0.96936295   -7.8433661    175.08525  0.019637197  0.019782073            2 
  744000   0.99763171   -7.8376444    174.30529  0.019523442  0.019766021            9 
  745000   0.96299322   -7.8438265    175.37601  0.019617004  0.019749998            7 
  746000   0.96014859   -7.8350276     174.9693  0.019545275  0.019733953            4 
  747000   0.95301119    -7.801903    175.60373  0.019589885  0.019717913            5 
  748000   0.94153769   -7.8640862    175.66358  0.019570363  0.019701694            9 
  749000   0.95247891   -7.8743618    175.01827  0.019472437  0.019685299            5 
  750000   0.94227269   -7.8562401    175.15058  0.019461175  0.019668994            5 
  751000   0.94902516   -7.8602177    174.87978  0.019405213  0.019652482            5 
  752000    0.9477404   -7.8889929    174.78341  0.019368729  0.019636146            3 
  753000   0.95770428   -7.8417019    176.16939  0.019496391  0.019619859            7 
  754000   0.95465227   -7.8616182    175.10062  0.019352411  0.019603543            3 
  755000   0.97511652   -7.8396901    176.22798  0.019451212  0.019587173            4 
  756000   0.93573045   -7.7977715    176.15982  0.019417969  0.019571036            2 
  757000   0.94352139   -7.8161196    175.73092  0.019345103  0.019554757            2 
  758000   0.95987684   -7.8804189    175.90108   0.01933829  0.019538447            3 
  759000   0.95153748   -7.8602024    175.81099   0.01930292  0.019522061            8 
  760000   0.94010353   -7.8531298    176.36516  0.019338285  0.019505806            4 
  761000   0.94340996   -7.8278742    176.59887  0.019338466  0.019489409            4 
  762000   0.94941202    -7.877178    176.13568  0.019262432  0.019473036            2 
  763000   0.95242992   -7.8812112    176.13542  0.019237158  0.019456608            3 
  764000   0.93339727   -7.8484785     176.1168  0.019209948  0.019440101            2 
  765000   0.94455567   -7.8960146    175.68793  0.019138119  0.019423602            3 
  766000   0.94155701   -7.8575133    176.31416  0.019181262  0.019406895            4 
  767000   0.94906841   -7.8875304    176.01094  0.019123309  0.019390131            5 
  768000   0.94607884   -7.9014378    176.40265  0.019140912  0.019373449           15 
  769000   0.95567404   -7.8912525     176.6324  0.019140919  0.019356722           10 
  770000   0.95166927   -7.8907007    176.74488  0.019128233  0.019339863            9 
  771000   0.96646626   -7.8619882    176.54817  0.019082162    0.0193231            2 
  772000   0.95331637   -7.8582247    176.55871  0.019058583  0.019306401            7 
  773000   0.94265193   -7.8556803    176.90566   0.01907133  0.019289823           11 
  774000   0.97485934    -7.935569     176.5274  0.019005964  0.019273002            3 
  775000   0.94685192   -7.8908646    176.81554  0.019012423  0.019256374            8 
  776000   0.95714507   -7.8709238    176.96515  0.019003989  0.019239795            5 
  777000   0.94900862   -7.8952344    176.88353  0.018970778  0.019223121            7 
  778000   0.93775813   -7.8539728    177.02258  0.018961288  0.019206331            5 
  779000   0.93999539   -7.8793142     177.2494  0.018961211  0.019189591            5 
  780000   0.94470537   -7.9029136    176.52327  0.018859323  0.019172635            5 
  781000   0.94023297   -7.8947756    176.95214  0.018880936  0.019155672            6 
  782000   0.93662176    -7.912207    176.92953  0.018854383  0.019138755            2 
  783000   0.93553629   -7.9214555    177.53088  0.018894304   0.01912172           16 
  784000   0.93373308   -7.9054687    177.26206  0.018841631  0.019104551            4 
  785000   0.92258606   -7.9042742    177.00138  0.018789956  0.019087478            3 
  786000   0.94499424   -7.8661477    177.40723  0.018809078  0.019070551            5 
  787000   0.92440867    -7.900624    177.23384   0.01876682  0.019053645           13 
  788000   0.95679159   -7.8933174    177.69177  0.018791431  0.019036654            4 
  789000   0.96683362   -7.8587875    177.86499  0.018785909  0.019019877            2 
  790000   0.94874362   -7.9144424    177.45839   0.01871924  0.019003031            2 
  791000   0.94276431   -7.8549548    177.88377  0.018740389  0.018986076            3 
  792000   0.94494687   -7.9068478    177.93882  0.018722519  0.018969134            4 
  793000   0.94899015   -7.9295465    177.78552    0.0186828  0.018952206            8 
  794000   0.92906476   -7.9638597    177.79536  0.018660302  0.018935097            2 
  795000   0.94269711   -7.9498284    177.39874  0.018595256  0.018917756           10 
  796000   0.92416073   -7.9117957    177.61609   0.01859465  0.018900668            9 
  797000   0.93584148   -7.9495769    177.44989  0.018553941  0.018883417           10 
  798000   0.93888145   -7.9480439    177.61122  0.018547537  0.018866263            4 
  799000   0.90726861   -7.9073884    178.28048  0.018594126  0.018849254            3 
  800000   0.94924039   -7.9422215    177.80984  0.018521859  0.018832272            5 
  801000    0.9090804   -7.8763273    178.67969  0.018589231  0.018815265            6 
  802000   0.92199269   -7.9325452    178.40719  0.018537738  0.018798262            5 
  803000   0.92598894   -7.9249771    178.75768  0.018551025  0.018781309            3 
  804000     0.913417   -7.9300791    179.02658  0.018555823  0.018764553            3 
  805000   0.93408169   -7.9504709    179.14471  0.018545001  0.018747764            3 
  806000   0.95728073   -7.9118236    178.77379  0.018483642  0.018730989            4 
  807000   0.91909261   -7.9548917    178.53919  0.018436513  0.018714066            5 
  808000    0.9675756   -7.9056509    179.16086  0.018477812  0.018697191            3 
  809000   0.93177703   -7.9178808    178.91371  0.018429513  0.018680356            2 
  810000   0.92378395   -7.9295968    179.21785   0.01843805  0.018663632            2 
  811000   0.93409002   -7.9339964    179.48743  0.018443016  0.018646903            5 
  812000   0.93117203   -7.9180282    179.40076  0.018411408  0.018630275            7 
  813000   0.94904248   -7.8911613    179.43403  0.018392172  0.018613722            5 
  814000   0.92678323   -7.9210644    179.80006   0.01840705  0.018597184            5 
  815000   0.92831024   -7.9155713    179.76203  0.018380576  0.018580529            4 
  816000   0.94249065   -7.9439936    179.80117  0.018362047  0.018563891            4 
  817000   0.94434089   -7.9048939    180.16606  0.018376791  0.018547391            6 
  818000   0.94381442   -7.9291247     179.9477   0.01833208  0.018530832            3 
  819000   0.93163286   -7.9306791    179.86029  0.018300803  0.018514313            4 
  820000   0.92732807   -7.9479503    179.87801  0.018280285  0.018497732            9 
  821000   0.94542454   -7.9374884     180.3762  0.018308587  0.018481141            5 
  822000   0.92776904   -7.9043851    180.46701   0.01829552  0.018464546            5 
  823000   0.92561695   -7.9038543    180.51182  0.018277827  0.018448072           13 
  824000   0.91774719   -7.9108205    180.39619  0.018243952  0.018431549            5 
  825000   0.93299425     -7.92192    180.36531  0.018218718  0.018415111            4 
  826000   0.91551606   -7.9018451    180.35302  0.018195421  0.018398501            9 
  827000   0.93806955   -7.9107744    181.25261  0.018264068  0.018382005            2 
  828000   0.92397586   -7.9520882    180.14011  0.018130044  0.018365457            4 
  829000   0.91093934   -7.9440721     180.6001  0.018154413  0.018348852            9 
  830000   0.91460891   -7.9369131    180.53948  0.018126454  0.018332205            4 
  831000   0.91498536    -7.949639    180.44031  0.018094696  0.018315549            7 
  832000   0.94312953    -7.957681    180.46726  0.018075647  0.018298661            2 
  833000    0.9138735   -7.9608374    180.40638  0.018047857  0.018281783           13 
  834000   0.91054112   -7.9808092     179.9158  0.017977198  0.018264948            9 
  835000   0.94633923   -7.9892582    180.55133  0.018019094  0.018247925            7 
  836000   0.90298163   -7.9659757    180.77281  0.018019618  0.018231026           10 
  837000   0.93141523   -7.9456188     181.0816  0.018028833  0.018214331           11 
  838000   0.93284436   -7.9734919    181.22286  0.018021366  0.018197664           12 
  839000    0.9262591   -7.9636057    180.87099  0.017964938   0.01818103            9 
  840000   0.92075476   -7.9815452    181.06548  0.017962845  0.018164503           10 
  841000   0.93671464   -8.0069653    181.39084  0.017973726   0.01814785            8 
  842000   0.89544427   -7.9882856    181.07112  0.017920737  0.018131139            8 
  843000   0.90819479   -7.9885693    181.15853  0.017908119  0.018114473            3 
  844000   0.92348491   -7.9934885    181.34734  0.017905543   0.01809782            4 
  845000   0.92331707   -7.9553408    181.72127   0.01792123  0.018081158            8 
  846000    0.9130223   -8.0009125    181.36568   0.01786502  0.018064573            4 
  847000    0.8996951    -7.975888    181.72892  0.017879665  0.018048015            3 
  848000   0.91944605   -7.9754779    181.88619  0.017874036  0.018031402            4 
  849000   0.89950679   -7.9878786    181.50547  0.017815613  0.018014818            5 
  850000   0.92203714   -7.9850122    181.90831  0.017834148  0.017998221            2 
  851000   0.91607937   -8.0065964    181.54693  0.017777804  0.017981652           11 
  852000   0.90090574   -7.9543136    182.17352  0.017818224  0.017965204            7 
  853000   0.93287276   -7.9829415    182.39403  0.017818878  0.017948746            3 
  854000   0.93476376   -8.0045502    181.70233  0.017730516  0.017932304           14 
  855000    0.9297358   -8.0114272    182.54632  0.017792039  0.017916034            8 
  856000   0.91938747   -8.0362142    182.41489  0.017758459  0.017899812            7 
  857000   0.89559126   -8.0253277    182.03441   0.01770074  0.017883486            8 
  858000   0.91889405   -8.0189388    182.39806  0.017715429  0.017867128            4 
  859000   0.90689127   -7.9983667    182.42114  0.017697045  0.017851016            5 
  860000   0.90308352   -7.9852397    182.85747  0.017718747  0.017834851           12 
  861000   0.91473212    -8.004094    182.77704  0.017690383  0.017818582            5 
  862000   0.89988805   -8.0071026    182.39126  0.017632566  0.017802244            9 
  863000   0.91855906   -7.9978039    182.64287   0.01763643  0.017785867            7 
  864000   0.91904069   -7.9876374    182.87502  0.017638409  0.017769676            2 
  865000   0.89009977   -7.9760618    182.87627  0.017618138  0.017753493            5 
  866000    0.9129454   -7.9852364    183.63262  0.017670576  0.017737521           10 
  867000   0.91998858   -8.0110849    183.55472  0.017642707  0.017721589            2 
  868000   0.91173904   -8.0006223    183.20889  0.017589179  0.017705478            6 
  869000   0.90492232    -7.974343    183.95097    0.0176401  0.017689464            5 
  870000   0.91381838   -8.0236306    182.98576  0.017527372  0.017673516            7 
  871000   0.91439694   -8.0200172    183.66749  0.017572473  0.017657451           13 
  872000   0.92760067   -7.9714819    183.87182  0.017571848  0.017641595           14 
  873000   0.90063967    -7.965652    184.00808  0.017564727  0.017625659           21 
  874000   0.91216894   -8.0018402    183.99575  0.017543454  0.017609874           14 
  875000   0.92084706   -8.0347439    184.17326  0.017540311  0.017594111           17 
  876000    0.8941673   -8.0105994    184.23451  0.017526114  0.017578442           14 
  877000   0.88946638   -8.0318912    184.51053  0.017532357  0.017562628            3 
  878000   0.89818457   -8.0360502    183.83348  0.017448129  0.017546789            7 
  879000   0.89545516   -8.0365418     183.8819  0.017432869  0.017531031            8 
  880000    0.8976109   -8.0226271    184.56926   0.01747815  0.017515302            9 
  881000   0.89761987    -7.969801    184.69042  0.017469771  0.017499668            9 
  882000   0.88744881   -7.9969248    184.63785  0.017444997  0.017484028            6 
  883000   0.92227615   -8.0139481    184.72597  0.017433557  0.017468418           11 
  884000   0.89847412   -7.9859865    184.77231  0.017418205  0.017452787            5 
  885000   0.88736853   -7.9911167    184.44944  0.017368121  0.017437217            5 
  886000   0.90082774   -8.0305236    184.98165  0.017398575  0.017421579            5 
  887000   0.92082244   -7.9911616    184.98236  0.017379027  0.017406084            7 
  888000   0.89614454   -7.9984575    185.71967  0.017428648  0.017390776            4 
  889000   0.88866766   -8.0319316    185.45957  0.017384662  0.017375458           13 
  890000   0.93575758   -8.0312024     185.4327  0.017362612   0.01736005            7 
  891000   0.88474507   -8.0244618    185.67368  0.017365664  0.017344554            4 
  892000   0.89519095   -8.0407312    185.34997  0.017315954  0.017329202            7 
  893000   0.89930064   -8.0300058    185.49695  0.017310279  0.017313865            5 
  894000    0.8875295   -8.0509182    185.58287  0.017298925  0.017298428           16 
  895000   0.89214715   -8.0380834    185.39397  0.017262008  0.017282972           11 
  896000   0.89607002    -8.055104    185.41746  0.017244927  0.017267455           11 
  897000    0.9066207     -8.03935    185.90166  0.017270686  0.017251938           14 
  898000   0.89504245   -8.0549607    185.37677  0.017202744  0.017236348            6 
  899000   0.89031098   -8.0355578    185.21899  0.017168983  0.017220829           24 
  900000   0.87752803   -8.0242221    185.85471  0.017208769  0.017205468           22 
  901000   0.90538395    -8.061252     185.7746   0.01718226   0.01719008            2 
  902000   0.91364605   -8.0405971     186.3369  0.017215161  0.017174587           10 
  903000   0.89842558   -8.0292464    185.88915  0.017154776  0.017159072            9 
  904000   0.88771886   -8.0431509    185.95977  0.017142309  0.017143767           10 
  905000   0.90150992   -8.0444263    185.80544  0.017109157   0.01712842            8 
  906000   0.90262666   -8.0364068    186.26898  0.017132909   0.01711317           11 
  907000   0.87876412   -8.0333918    186.62192  0.017146446  0.017098079           15 
  908000   0.89756062   -8.0127031    186.50263  0.017116614  0.017082975            6 
  909000   0.90714824   -8.0390436    186.05507  0.017056754  0.017067805           29 
  910000   0.90125503    -8.032216    186.47088  0.017076088  0.017052497           17 
  911000    0.8798876   -8.0207995    186.65765  0.017074428  0.017037327            8 
  912000    0.8841783   -8.0237175    187.01241  0.017088123  0.017022129           31 
  913000   0.89420356   -8.0452396    186.18588  0.016993965  0.017006948            9 
  914000   0.90214027   -8.0346089    186.76091    0.0170278  0.016991709            8 
  915000   0.88723746   -8.0747924    187.31122  0.017059309   0.01697649           10 
  916000   0.87914252   -8.0505232    186.62583  0.016978332   0.01696121           12 
  917000   0.87396195   -8.0591143    186.85243   0.01698041  0.016946006            5 
  918000   0.87869453   -8.0665343    186.45047  0.016925424  0.016930741            3 
  919000   0.87467116   -8.0567634    186.99459  0.016956346  0.016915485            8 
  920000   0.87209515    -8.086013    186.60588  0.016902707  0.016900324            5 
  921000   0.89059878   -8.0570251    186.63236   0.01688675  0.016885197            6 
  922000    0.9117449    -8.042156    187.24426   0.01692374  0.016870008            4 
  923000   0.87976903   -8.0662469    186.98614    0.0168821  0.016854862            5 
  924000   0.89070829   -8.0761979     187.1111  0.016875099  0.016839711            3 
  925000   0.90811818   -8.0668525    186.73336  0.016822825   0.01682444            8 
  926000   0.86985702   -8.0958321    187.21382  0.016847896  0.016809135            7 
  927000   0.88216258   -8.0485496    186.91292  0.016802671  0.016793918           15 
  928000   0.89919858   -8.0663879    187.14024  0.016804979  0.016778751            6 
  929000   0.86295506   -8.0601022    187.09383  0.016782726  0.016763509           11 
  930000   0.87124049   -8.0525764    187.63911   0.01681354  0.016748318           12 
  931000   0.86885498   -8.1094494    186.69369  0.016710857  0.016733039            3 
  932000   0.87721962    -8.096931    187.29922  0.016747069  0.016717755            9 
  933000   0.88052916   -8.0881874    187.23188  0.016723105  0.016702616            6 
  934000   0.88053179   -8.0989528    187.65285  0.016742759  0.016687454            9 
  935000   0.87331748   -8.0924921    187.26316  0.016690121  0.016672355            5 
  936000   0.89125528   -8.0781735    187.21534  0.016668033  0.016657125            6 
  937000   0.86540713   -8.0932976    187.38612  0.016665432  0.016641923           14 
  938000   0.88250452   -8.1075248    187.40676  0.016649499  0.016626596            8 
  939000    0.8789674   -8.0870333    187.56851  0.016646123  0.016611426           10 
  940000   0.87626401   -8.0851826    187.78771  0.016647847  0.016596318            6 
  941000   0.88654977    -8.096335    187.87819  0.016638168  0.016581284           13 
  942000   0.87551004   -8.0744432    188.54497  0.016679492  0.016566331           12 
  943000   0.87275201   -8.0813062     188.6636  0.016672287   0.01655147            3 
  944000   0.88397746    -8.069721    188.34765  0.016626735  0.016536699           11 
  945000   0.88245505   -8.0616319    188.36577  0.016610738  0.016521882            9 
  946000   0.87460453   -8.0763562    188.24623  0.016582648  0.016507154            9 
  947000   0.88662658   -8.0963702     187.9663  0.016540505  0.016492376            9 
  948000   0.85283486   -8.0908236    188.98939  0.016612992  0.016477494           20 
  949000   0.88086141   -8.0924725    188.42813  0.016546201  0.016462695           29 
  950000   0.86698083   -8.1032995    188.77657  0.016559348  0.016447894           43 
  951000   0.87477856   -8.1123705     188.4098  0.016509797  0.016433085           29 
  952000   0.86834645   -8.0890593    188.19345  0.016473516   0.01641824            9 
  953000   0.87364964   -8.1091761    188.95062   0.01652244  0.016403389           25 
  954000   0.86116952   -8.1105256    188.85934  0.016497147  0.016388537           13 
  955000   0.86722218   -8.1197685    188.69952  0.016465926  0.016373708           15 
  956000    0.8895639   -8.1259279     189.0751  0.016481441  0.016358867           22 
  957000   0.88320091   -8.1126333    188.77086  0.016437727  0.016344015            8 
  958000   0.87070392   -8.1299992    189.07144  0.016446715  0.016329284           10 
  959000   0.88979787    -8.159358    188.66177  0.016393967  0.016314425           26 
  960000    0.8665727   -8.1132638    189.19077   0.01642281   0.01629962           14 
  961000    0.8710621   -8.1191566    188.91633  0.016381923  0.016284857           14 
  962000   0.85144574   -8.1144577    189.31314  0.016399267  0.016270274           24 
  963000   0.86776759   -8.1250302    189.23861  0.016375788  0.016255716           10 
  964000   0.86907639   -8.1337993    189.50334  0.016381686   0.01624114           10 
  965000   0.86511796   -8.1153713    189.49579  0.016364058  0.016226531           16 
  966000    0.8680004   -8.1559862    189.28673  0.016329083  0.016211852           22 
  967000   0.87913234   -8.1268473    189.14968  0.016300386  0.016197183           29 
  968000   0.87400846   -8.1022133    189.57771  0.016320395  0.016182602           17 
  969000   0.86943339   -8.1000045    189.66051  0.016310673  0.016168058           10 
  970000   0.85313917   -8.1270949    189.50133  0.016280183  0.016153561           10 
  971000   0.86063701   -8.1270591    189.79263  0.016288416  0.016139032           10 
  972000   0.85404409   -8.1337059    189.05329  0.016208272  0.016124501            7 
  973000   0.87141977    -8.129002    189.54682  0.016233883  0.016110059            9 
  974000   0.87584947    -8.139082    189.27942  0.016194338  0.016095507            8 
  975000   0.87181636   -8.1596186    189.39385  0.016187509  0.016080864           15 
  976000   0.86060795   -8.1306733    189.63659  0.016191649   0.01606625            6 
  977000   0.86470856   -8.1453844    190.07332  0.016212327  0.016051644            7 
  978000   0.86061359    -8.134649    190.25856  0.016211534  0.016037003            6 
  979000   0.86588111    -8.128346    189.91722  0.016165919   0.01602249            4 
  980000   0.85962419   -8.1576098    189.81905  0.016141076  0.016007986            6 
  981000   0.87083642   -8.1183717     190.0733   0.01614622  0.015993555            5 
  982000   0.86118266   -8.1020919    189.96902  0.016120928  0.015979163            6 
  983000   0.85167144   -8.1262728    189.98244  0.016105666  0.015964755           10 
  984000   0.87473391   -8.1399017    190.28596  0.016115004  0.015950332           14 
  985000   0.84438193   -8.1671501    190.10779  0.016083569  0.015935988            5 
  986000   0.84938008   -8.1283808    190.22019  0.016076757  0.015921591            9 
  987000   0.86488851   -8.1343643     190.7767  0.016107455  0.015907297           10 
  988000   0.87089492    -8.119599    190.88055  0.016099912  0.015892972            8 
  989000   0.84095596   -8.1721386    190.45224  0.016047543  0.015878778            6 
  990000   0.85626045   -8.1301969    190.89011  0.016068191  0.015864483            6 
  991000   0.83276896    -8.149974    190.87704  0.016050878  0.015850279            8 
  992000   0.87116121   -8.1595104     190.6844  0.016018514  0.015836054            2 
  993000   0.84718097   -8.1313308    191.01122  0.016029811  0.015821903            6 
  994000   0.85319126   -8.1356878    190.78439  0.015994667  0.015807823            8 
  995000   0.87133101    -8.155787    190.90066   0.01598833  0.015793639            7 
  996000   0.84194161    -8.166833    190.87291  0.015969956  0.015779506           13 
  997000   0.84178162   -8.1294297    191.06851  0.015970286  0.015765359           13 
  998000   0.84122868   -8.1923888    190.65949  0.015920131  0.015751208           17 
  999000   0.85228497   -8.1621286     191.4913  0.015973582  0.015737118            9 
 1000000    0.8644701   -8.1637376    191.73832  0.015978193  0.015723016            6 
 1001000   0.85044229   -8.1626236    191.06027  0.015905783  0.015708853            7 
 1002000   0.87914865   -8.1711294    191.01704  0.015886314  0.015694688           14 
 1003000    0.8571778    -8.167548    191.17729  0.015883789  0.015680464            6 
 1004000   0.84252831   -8.1759174    191.53721  0.015897843  0.015666388           14 
 1005000   0.84236352   -8.1430205    191.16844  0.015851446  0.015652374            6 
 1006000   0.84808137   -8.1658166    190.93039   0.01581597  0.015638265            6 
 1007000   0.84175689    -8.154816    191.40686  0.015839694   0.01562421            8 
 1008000   0.85198517   -8.1403993    191.72254  0.015850078  0.015610149           15 
 1009000   0.85207774   -8.1788147    191.31989  0.015801114  0.015596105           14 
 1010000   0.87397329   -8.1747058    191.08848  0.015766376  0.015581982            4 
 1011000   0.85934536   -8.1767268     191.7704   0.01580699  0.015567923            9 
 1012000   0.84876272   -8.2001133    191.39706  0.015760628  0.015553858            3 
 1013000   0.85493777   -8.1440175    191.79286  0.015777629  0.015539853            6 
 1014000   0.86021474    -8.147706    192.00275  0.015779319  0.015525867           10 
 1015000   0.84965861   -8.1495086    191.92453  0.015757351  0.015512045            3 
 1016000   0.85438675   -8.1524921    192.40373  0.015781146   0.01549819            7 
 1017000   0.85564945   -8.1732553    192.33928  0.015760347  0.015484469            9 
 1018000   0.85299851   -8.1688667    192.92471  0.015792789  0.015470797            5 
 1019000   0.85090033   -8.1315378    192.00992   0.01570248  0.015457121           11 
 1020000    0.8457397   -8.1571332    192.04787  0.015690186  0.015443413            5 
 1021000   0.84595087   -8.1573194    192.40091  0.015703632  0.015429648            7 
 1022000   0.85440997   -8.1634954     191.9647  0.015652699  0.015415892            9 
 1023000   0.84864618   -8.1935941    192.00589  0.015640754  0.015402149            6 
 1024000   0.84154868   -8.1902165    192.07789  0.015631339  0.015388339           14 
 1025000   0.84266798   -8.1793499    192.25718  0.015630665  0.015374516           10 
 1026000   0.85527417   -8.2162371    192.12469   0.01560467  0.015360624            9 
 1027000   0.84612358   -8.2034581    192.45727  0.015616461  0.015346809            6 
 1028000   0.84059332   -8.1752239    192.69051  0.015620178  0.015333034            3 
 1029000    0.8551373   -8.1530198    192.46955  0.015587103  0.015319368            8 
 1030000   0.85118665   -8.1864837    192.44136  0.015569689  0.015305614            7 
 1031000   0.85075912    -8.166466    193.09164  0.015607149  0.015291843            8 
 1032000   0.83803503   -8.2165998    192.40244  0.015536373  0.015278138           11 
 1033000   0.85342998   -8.2057234    192.53586  0.015532095  0.015264304            7 
 1034000     0.843487   -8.1661273    192.47677  0.015512312  0.015250501           12 
 1035000   0.83967929   -8.2157634    192.21862  0.015476539  0.015236711           13 
 1036000   0.84780779    -8.178361    192.80907  0.015509095  0.015223003           12 
 1037000   0.85284531   -8.1836869    192.69663  0.015485104  0.015209256           13 
 1038000   0.84382438   -8.1646727    192.96549   0.01549177  0.015195578            8 
 1039000   0.83171891   -8.2082445    192.34559   0.01542714  0.015181928            8 
 1040000   0.84351707   -8.2481921    192.63557  0.015435543  0.015168274            5 
 1041000   0.84157046    -8.222095     192.7931  0.015433326  0.015154594            9 
 1042000   0.82059538   -8.2360646    192.52391  0.015396986   0.01514089            6 
 1043000   0.83720585   -8.1974978    192.82023  0.015405899  0.015127202            5 
 1044000   0.84200116   -8.2197285    193.09805  0.015413318  0.015113566           10 
 1045000   0.85858581   -8.2377676    192.55818  0.015355516  0.015099881            6 
 1046000   0.84809425   -8.2268605    192.85258  0.015364291  0.015086103           10 
 1047000   0.82457425   -8.2253739    192.29559  0.015305284  0.015072347           13 
 1048000   0.85499999   -8.2201581    192.97542  0.015344738  0.015058668           13 
 1049000    0.8232248   -8.2282329    192.86386  0.015321247  0.015045036            9 
 1050000   0.82543059   -8.2290213    192.98563   0.01531632  0.015031453           21 
 1051000   0.83379627   -8.2489127    193.17356  0.015316648  0.015017834            6 
 1052000   0.83778166   -8.2141532    193.20128  0.015304284  0.015004268           10 
 1053000   0.83775128   -8.2062285    193.52479  0.015315353  0.014990766           10 
 1054000   0.83453181   -8.2441044    193.08107  0.015265739  0.014977237           10 
 1055000   0.81890292   -8.2124809    193.49906  0.015284286  0.014963695           17 
 1056000   0.83208749   -8.2175922    193.21972  0.015247768  0.014950196           23 
 1057000   0.84852398   -8.1917391    194.07863  0.015301059  0.014936794           26 
 1058000   0.82510447   -8.2193843    193.38855  0.015232243  0.014923304           16 
 1059000   0.81735806   -8.2222287    193.03017  0.015189657  0.014909811           15 
 1060000   0.83662311   -8.1884456    193.76791  0.015233327  0.014896401           20 
 1061000    0.8205189   -8.2573321    193.30868    0.0151829  0.014882968           10 
 1062000   0.84715204   -8.2185785    193.47864   0.01518194  0.014869687           18 
 1063000   0.82950116   -8.2252217    193.42507  0.015163458  0.014856272           15 
 1064000   0.82489281   -8.2402788    193.60333  0.015163168  0.014842803            7 
 1065000   0.82925956    -8.233454     193.6788  0.015154835  0.014829375           19 
 1066000   0.83970807    -8.237795    193.81686  0.015151412  0.014815921           20 
 1067000   0.80908587    -8.247196    193.40324  0.015104908  0.014802551           23 
 1068000   0.83847441    -8.235447     193.9401  0.015132654  0.014789143           28 
 1069000   0.83310066   -8.2150166    193.56114  0.015088957  0.014775768           25 
 1070000   0.82062714    -8.252524     193.2381  0.015049696  0.014762345           47 
 1071000   0.81997546    -8.200479    194.07105  0.015100455   0.01474897           44 
 1072000   0.80533453   -8.2256305    194.18024  0.015094857   0.01473561           40 
 1073000   0.84318501   -8.2372525    193.84016  0.015054377  0.014722255           33 
 1074000   0.81426493   -8.2169833    194.22316  0.015070078  0.014708911           28 
 1075000   0.81010461    -8.249838    193.54087  0.015003168  0.014695595           34 
 1076000   0.82148058   -8.2204197    194.47849  0.015061841  0.014682285           56 
 1077000   0.83097624   -8.2716518    193.74738  0.014991286  0.014668952           24 
 1078000    0.8227809   -8.2771843    193.60191  0.014966134  0.014655585           48 
 1079000   0.81471275   -8.2726097      193.706  0.014960303  0.014642143           67 
 1080000   0.82519914   -8.3037566    193.75363  0.014950126  0.014628696           99 
 1081000    0.8262733    -8.277807    193.92764   0.01494971  0.014615299           76 
 1082000   0.79401393    -8.298567    193.48614   0.01490189  0.014601807           89 
 1083000   0.82401312   -8.2938019    193.67665  0.014902789  0.014588354          111 
 1084000   0.81703376     -8.30492    193.74785  0.014894515  0.014574862           98 
 1085000   0.81092588   -8.3087669    193.12688  0.014833094  0.014561393           51 
 1086000   0.82462016   -8.2918305    193.66201  0.014860498   0.01454799           92 
 1087000   0.81506581   -8.2873983    194.28631  0.014894688  0.014534634          102 
 1088000   0.82040936   -8.3222048    193.30672  0.014805968  0.014521216          110 
 1089000   0.83820738   -8.3146615    193.29625  0.014791571  0.014507818          132 
 1090000   0.81904469   -8.3389141    193.49444  0.014793153  0.014494417          131 
 1091000   0.82462378   -8.3048505    193.78407  0.014801716  0.014481042          124 
 1092000   0.81408108   -8.3326728     193.2722  0.014749099  0.014467605          154 
 1093000   0.81370263   -8.3568159    193.61919  0.014762061  0.014454193          132 
 1094000   0.80831724   -8.3200034    194.04457  0.014780969  0.014440768          135 
 1095000   0.81187724   -8.2868327    193.73241  0.014743715  0.014427373          140 
 1096000   0.82498939   -8.3178265    194.10109  0.014758295  0.014413942          151 
 1097000   0.81182522   -8.3372277    193.59353  0.014706284  0.014400521          168 
 1098000   0.81976322   -8.3376425    193.64764  0.014696997  0.014387097          186 
 1099000    0.8231344   -8.3539804    193.36576  0.014662251  0.014373606          169 
 1100000   0.79007388   -8.3248847    193.91471  0.014690508  0.014360119          161 
 1101000   0.80959412   -8.3456781     193.7915   0.01466784  0.014346686          230 
 1102000   0.82583874   -8.3190987    193.41886  0.014626351  0.014333285          224 
 1103000   0.78061496    -8.346634    193.51141  0.014620083  0.014319936          219 
 1104000   0.82145523   -8.3290231    193.40382  0.014598718  0.014306568          220 
 1105000   0.80143506   -8.3581318    193.64974  0.014604053  0.014293188          274 
 1106000   0.80926157   -8.3570825    193.61072  0.014587908    0.0142798          268 
 1107000   0.81293349   -8.3471944    193.78399  0.014587774  0.014266449          257 
 1108000   0.81467729   -8.3664287    193.83686  0.014578584   0.01425307          241 
 1109000   0.79970328   -8.3301927    194.55674  0.014619533  0.014239756          229 
 1110000   0.82098209   -8.3484004    194.02734  0.014566617  0.014226508          246 
 1111000    0.8141816   -8.3890027    193.28105  0.014497529  0.014213174          291 
 1112000    0.7900652   -8.3860724    193.84215   0.01452654  0.014199782          286 
 1113000   0.81778138    -8.343566    193.85094  0.014514146  0.014186415          310 
 1114000   0.79878142   -8.3602726    193.50728   0.01447541  0.014173039          326 
 1115000   0.79599001   -8.3800625    193.21474  0.014440564   0.01415964          341 
 1116000   0.81413463   -8.3870281    193.85664  0.014475555  0.014146208          449 
 1117000   0.79602561   -8.3865313    193.39564  0.014428203  0.014132822          339 
 1118000   0.81524491   -8.4044938    193.50998  0.014423821    0.0141194          441 
 1119000   0.81025626   -8.3849361    194.13271  0.014457307  0.014106024          376 
 1120000    0.8129338   -8.3773832    193.80072  0.014419696  0.014092664          511 
 1121000   0.81206363   -8.4089455    193.16593  0.014359644  0.014079273          447 
 1122000    0.8007443   -8.4232016    193.33119   0.01435912  0.014065786          530 
 1123000   0.81436059   -8.4181437    193.51686  0.014360112  0.014052338          592 
 1124000   0.78963219   -8.4303195     193.4819  0.014344743   0.01403886          476 
 1125000   0.80471249   -8.4301592    193.72316  0.014349864  0.014025378          481 
 1126000   0.81452836   -8.4668381    193.31731  0.014307083  0.014011906          561 
 1127000   0.81479638   -8.4774448    193.01797  0.014272254  0.013998333          590 
 1128000    0.8161374   -8.4382167    193.05719  0.014262499  0.013984775          640 
 1129000   0.80834666   -8.4959758    192.79475  0.014230495  0.013971266          521 
 1130000   0.80103376   -8.4466074    193.61568  0.014278443  0.013957839          528 
 1131000   0.80708684     -8.44873    193.49413  0.014256862  0.013944485          580 
 1132000    0.8097485   -8.4293749    193.61695  0.014253309   0.01393111          576 
 1133000   0.77663574   -8.4487383    193.55424  0.014236117  0.013917708          680 
 1134000   0.80290524   -8.4518063    193.18083  0.014196122  0.013904276          754 
 1135000   0.79435972   -8.4945271    192.71949  0.014149743  0.013890818          596 
 1136000   0.79388488   -8.4782578    193.18878  0.014171712  0.013877342          753 
 1137000   0.79667061   -8.4750613    193.15751  0.014156956  0.013863851          622 
 1138000   0.79165761   -8.4849047    193.21826  0.014148964  0.013850396          824 
 1139000   0.81823287   -8.4951324    193.69134  0.014171154  0.013836937          849 
 1140000   0.79204898   -8.5076821    193.08914  0.014114703  0.013823445          828 
 1141000   0.80164347   -8.4738123    193.21575   0.01411158  0.013809944          849 
 1142000   0.80263058   -8.5051817    192.79278  0.014068358  0.013796462          897 
 1143000   0.79608252   -8.5105477    192.89517  0.014063515  0.013782988         1001 
 1144000   0.79959281   -8.5214773    192.34773  0.014011344  0.013769478         1055 
 1145000   0.80513684   -8.5352317    193.01339  0.014047554  0.013755934         1077 
 1146000   0.79248334   -8.5536926    192.86684   0.01402464  0.013742355         1069 
 1147000   0.80442856   -8.5467573    193.03543  0.014024661  0.013728828          782 
 1148000   0.79646242   -8.5559614    192.82107  0.013996884  0.013715287         1170 
 1149000    0.7875411   -8.5638456    192.76071  0.013980324  0.013701732         1195 
 1150000   0.79174288   -8.5816043    192.45904  0.013946307  0.013688128         1267 
 1151000   0.79657377   -8.5659975    192.58518  0.013943323  0.013674483         1327 
 1152000   0.79933653   -8.5795291    192.40672   0.01391831   0.01366078         1225 
 1153000    0.8053038   -8.5872746    192.16667  0.013888889  0.013647106         1386 
 1154000   0.78021155   -8.5690242    192.13697  0.013874709  0.013633448         1389 
 1155000   0.81260423   -8.5888849    192.43769  0.013884393  0.013619809         1465 
 1156000   0.78255951   -8.5945313     192.1435  0.013851175  0.013606137         1548 
 1157000   0.80159138   -8.6370074    192.27959  0.013849006  0.013592442         1571 
 1158000   0.80427367   -8.6308385    192.10763  0.013824671  0.013578664         1659 
 1159000   0.79042932   -8.6400041     191.5271  0.013771002  0.013564874         1507 
 1160000   0.78825341   -8.6354834    192.10935  0.013800959  0.013551065         1700 
 1161000   0.77288083   -8.6538416    191.70856  0.013760304  0.013537268         1614 
 1162000   0.78504676   -8.6762905    191.69352  0.013747384  0.013523461         1782 
 1163000   0.79922491   -8.6770322    191.19012  0.013699493  0.013509604         1732 
 1164000    0.7995972   -8.6683952    191.79538  0.013731055  0.013495741         1807 
 1165000   0.78619731   -8.6828201    191.66471  0.013709922  0.013481907         1865 
 1166000   0.77264786   -8.6848717    191.69402  0.013700258  0.013468042         1832 
 1167000   0.79914402   -8.6726123    191.57874  0.013680287  0.013454162         1943 
 1168000   0.79496651   -8.7095289    191.10877  0.013635043  0.013440257         2010 
 1169000   0.79891108   -8.6964875    191.37097  0.013642071  0.013426367         1899 
 1170000    0.7859233   -8.7183924    190.93007  0.013599008  0.013412514         2072 
 1171000    0.7909512   -8.7555734     190.8343  0.013580579  0.013398624         2051 
 1172000   0.79840225    -8.721041    191.48254  0.013615084  0.013384712         2042 
 1173000   0.81141399   -8.7438823    190.94735  0.013565455  0.013370824         2112 
 1174000   0.77809913   -8.7559131    191.00834   0.01355823  0.013356849         2066 
 1175000    0.8009533    -8.745005    191.22153  0.013561811  0.013342906         2060 
 1176000   0.77118209   -8.7861354    190.66581  0.013510899  0.013328925         2174 
 1177000   0.78021158   -8.7631179    191.27786  0.013542754  0.013314974         2144 
 1178000   0.77232833   -8.7623387    190.62716  0.013485227  0.013301031         2155 
 1179000   0.79030689   -8.8164392     190.7304  0.013481086  0.013287103         2288 
 1180000   0.79102979   -8.8097265    191.09563  0.013495454  0.013273109         2320 
 1181000   0.77909967   -8.8047578    190.41294  0.013435855   0.01325908         2371 
 1182000   0.78826638   -8.8319913    190.18599  0.013408488  0.013245043         2431 
 1183000   0.79462642   -8.8296626    190.27334  0.013403307  0.013231017         2418 
 1184000   0.76705296   -8.8536048    190.21595  0.013387947   0.01321696         2515 
 1185000   0.79443865   -8.8411347    190.36802  0.013387343  0.013202862         2486 
 1186000   0.78077096   -8.8431224    189.77799  0.013334597  0.013188764         2533 
 1187000   0.79948115   -8.8604194    190.04603  0.013342181  0.013174677         2537 
 1188000   0.78295918   -8.8443019    190.12025  0.013336156  0.013160579         2571 
 1189000   0.77835178    -8.887268    190.07628  0.013321859   0.01314651         2639 
 1190000   0.77878093   -8.8850934    189.48443  0.013269218  0.013132395         2666 
 1191000   0.78772088   -8.8553379    190.34221  0.013318095  0.013118276         2746 
 1192000   0.75924556   -8.9055411    189.61283  0.013255931  0.013104143         2731 
 1193000   0.78406782   -8.9074702    189.59468  0.013243552  0.013090013         2767 
 1194000   0.77264908   -8.8653068    190.14182  0.013270646  0.013075902         2761 
 1195000   0.77424652   -8.9073696    189.71339  0.013229665  0.013061767         2758 
 1196000   0.76430219   -8.9274893    189.24678  0.013186091  0.013047643         2781 
 1197000   0.78644686   -8.9292048    189.27949  0.013177353   0.01303353         2845 
 1198000   0.76546217   -8.9390563    189.36398   0.01317223  0.013019368         2900 
 1199000   0.76351119   -8.9513323    189.31312  0.013157709  0.013005215         2855 
 1200000   0.75981936   -8.9580256     189.6472  0.013169944  0.012991071         2903 
 1201000   0.77895025   -8.9661922    188.96209  0.013111441  0.012976911         2938 
 1202000   0.77877632   -8.9800919    189.23971   0.01311978   0.01296274         2932 
 1203000   0.76493412   -8.9714249    189.28541   0.01311204  0.012948586         2991 
 1204000   0.76972319   -8.9825641    189.14591  0.013091494  0.012934449         2959 
 1205000   0.77531909    -8.993526    189.10272  0.013077643  0.012920332         3006 
 1206000   0.76779279    -8.988334    189.05626  0.013063589  0.012906227         3004 
 1207000   0.77962586   -8.9893269    189.72445  0.013098898  0.012892106         2989 
 1208000   0.76516496   -8.9911914     189.4501  0.013069129  0.012878026         3065 
 1209000   0.77099075   -8.9802419    189.21753  0.013042289  0.012863926         3060 
 1210000   0.77310811   -8.9996945    189.29735  0.013037008  0.012849831         3076 
 1211000   0.76373631   -9.0266936    189.11849  0.013013934  0.012835739         3111 
 1212000   0.75711582   -9.0194634    189.18588   0.01300783  0.012821605         3135 
 1213000   0.77035186   -9.0314311     189.0191  0.012985649  0.012807484         3063 
 1214000    0.7542334   -9.0332676    189.22723  0.012989238  0.012793352         3108 
 1215000   0.77658529   -9.0364396    189.05831  0.012966963  0.012779238         3129 
 1216000   0.76865502   -9.0239823    189.02434  0.012953971   0.01276515         3158 
 1217000   0.76309252   -9.0506462    188.77614  0.012926331  0.012751052         3169 
 1218000   0.78244984   -9.0530423    189.06686  0.012935609  0.012736978         3137 
 1219000   0.75750804   -9.0279354    188.71347  0.012900839  0.012722912         3144 
 1220000   0.75181977   -9.0629104    188.82076  0.012897593  0.012708843         3193 
 1221000   0.77174949    -9.080519    188.68839  0.012877996  0.012694781         3268 
 1222000    0.7672811   -9.0499831    188.64502  0.012864499   0.01268072         3221 
 1223000   0.76361552   -9.0524964    188.44432  0.012840305  0.012666652         3236 
 1224000   0.75851493   -9.0762709    188.60464   0.01284073  0.012652571         3251 
 1225000   0.74874922   -9.0624208     188.6685  0.012834592  0.012638525         3220 
 1226000   0.75739468   -9.0573054    188.60573  0.012819856  0.012624494         3193 
 1227000   0.77378733   -9.0765727       188.65  0.012812415  0.012610467         3221 
 1228000   0.76323847   -9.0867926    188.48271  0.012790629  0.012596447         3244 
 1229000   0.76907049   -9.0907382    188.43112  0.012776724  0.012582459         3271 
 1230000   0.75654952   -9.0716217    188.62704   0.01277961  0.012568478         3264 
 1231000   0.76440602   -9.1018722    188.55115  0.012764091  0.012554489         3309 
 1232000   0.75996724   -9.1018813    188.34943  0.012740086  0.012540503         3346 
 1233000   0.75465797   -9.1075518    188.14821  0.012716154  0.012526544         3316 
 1234000   0.77077396   -9.1073041    188.21496  0.012710356   0.01251255         3356 
 1235000   0.76327068   -9.1017609    188.00729  0.012686052  0.012498578         3339 
 1236000   0.75752753   -9.1027904    188.31858  0.012696776  0.012484639         3333 
 1237000   0.74870888   -9.1159678    187.97984  0.012663692  0.012470671         3377 
 1238000   0.75005655    -9.105091    188.38427  0.012680686  0.012456739         3363 
 1239000   0.75087344   -9.1173444     188.0725  0.012649482  0.012442822         3384 
 1240000   0.76315915   -9.1368914    188.19158  0.012647284  0.012428917         3394 
 1241000   0.76925181   -9.1276406     188.3105  0.012645078  0.012415034         3365 
 1242000   0.77481002   -9.1164002    188.25732  0.012631329  0.012401134         3355 
 1243000   0.78606873   -9.1153365    187.88098  0.012595936  0.012387281         3317 
 1244000   0.76237573    -9.142182    187.72455  0.012575331  0.012373422         3416 
 1245000   0.74885839   -9.1144561    188.20055  0.012597092   0.01235959         3353 
 1246000   0.74922673   -9.1128928    188.41059   0.01260103  0.012345739         3347 
 1247000   0.77353643   -9.1531796    188.15472  0.012573825   0.01233191         3361 
 1248000   0.73776033   -9.1196798    187.89535  0.012546431  0.012318108         3369 
 1249000   0.77559329   -9.1164261    187.85972  0.012534008   0.01230431         3357 
 1250000   0.76652047   -9.1462332    187.75043  0.012516696  0.012290539         3400 
 1251000   0.75637912   -9.1136386    187.73065  0.012505372  0.012276765         3352 
 1252000   0.76784068   -9.1350999    188.04317  0.012516185  0.012263019         3354 
 1253000   0.75321828   -9.1351457    187.62744  0.012478548  0.012249285         3343 
 1254000   0.76768939   -9.1322807    188.24342  0.012509531  0.012235566         3390 
 1255000   0.76325463   -9.1572272    187.90314  0.012476968  0.012221884         3386 
 1256000   0.74817469    -9.131187     187.8889   0.01246609  0.012208209         3405 
 1257000   0.75291845   -9.1561271    187.62113   0.01243842  0.012194537         3400 
 1258000   0.76187448   -9.1466328    187.72567  0.012435458  0.012180875         3451 
 1259000   0.74252125   -9.1428719    188.17083  0.012455045  0.012167227         3388 
 1260000   0.76072916   -9.1353297    187.73569  0.012416382  0.012153587         3410 
 1261000   0.74231721   -9.1322275    188.20334   0.01243744  0.012139993         3397 
 1262000   0.76254752   -9.1572281     187.8247  0.012402582  0.012126396         3390 
 1263000    0.7482309   -9.1730103    187.84061  0.012393811  0.012112806         3443 
 1264000   0.74725757   -9.1284786     187.9356  0.012390269  0.012099229         3400 
 1265000   0.73937512    -9.168304    187.79318  0.012371092  0.012085658         3440 
 1266000   0.74602811   -9.1638348    187.69732  0.012355011  0.012072094         3370 
 1267000   0.73297971   -9.1194337    188.09648  0.012371513  0.012058577         3384 
 1268000   0.74847363   -9.1805299    187.73538  0.012338024  0.012045043         3379 
 1269000   0.73961207   -9.1856371    187.70328  0.012326194  0.012031539         3450 
 1270000    0.7220868   -9.1724633    187.78322  0.012321733  0.012018032         3416 
 1271000   0.74355854   -9.1605444    187.61771  0.012301188  0.012004549         3386 
 1272000   0.73773507   -9.1474562    187.71198  0.012297693  0.011991116         3383 
 1273000   0.73673727   -9.1477209    187.69587  0.012286978  0.011977689         3447 
 1274000   0.75645103   -9.1665892    187.63874  0.012273596  0.011964264         3455 
 1275000   0.74163597   -9.1768733    187.50846  0.012255455  0.011950865         3476 
 1276000    0.7314423    -9.166135     187.6109  0.012252541  0.011937463         3450 
 1277000   0.75852458   -9.1873382    187.34541  0.012225621   0.01192407         3477 
 1278000   0.73809602   -9.2023163    187.04311  0.012196343   0.01191069         3469 
 1279000   0.74634878   -9.1980014    187.49832  0.012216466  0.011897312         3458 
 1280000   0.73702546   -9.1790092    187.64571  0.012216518  0.011883953         3460 
 1281000   0.73557969   -9.1786606    187.44836  0.012194143  0.011870603         3493 
 1282000   0.75345383   -9.1898943     187.6062   0.01219489  0.011857269         3476 
 1283000   0.75854184   -9.1834224    187.40826  0.012172529  0.011843939         3498 
 1284000   0.74816482   -9.1652715    187.92979  0.012196897   0.01183064         3491 
 1285000   0.73027803   -9.1867513    187.69488  0.012172171  0.011817357         3495 
 1286000   0.73608505   -9.1770659    187.14089  0.012126807  0.011804082         3448 
 1287000   0.73271055   -9.1699149    187.81398  0.012160968  0.011790833         3537 
 1288000   0.73635864   -9.1713494    187.57533  0.012136085  0.011777588         3501 
 1289000   0.74305493   -9.1798029    187.56654  0.012126102  0.011764363         3484 
 1290000   0.74325923   -9.1714849    187.34217  0.012102207  0.011751168         3471 
 1291000   0.75932659   -9.1999501    187.30584  0.012090488  0.011737992         3477 
 1292000   0.74672636    -9.180068    187.77689  0.012111513  0.011724822         3432 
 1293000   0.75041897   -9.1706997    187.75078  0.012100463  0.011711671         3503 
 1294000   0.72920639   -9.1640884    187.42834  0.012070346  0.011698536         3488 
 1295000   0.75681074   -9.2119687    187.07172  0.012038078  0.011685438         3447 
 1296000   0.73478476     -9.20072     187.4709  0.012054456  0.011672344         3500 
 1297000   0.73839118   -9.1829501     187.6173  0.012054568  0.011659261         3527 
 1298000   0.75435689   -9.1777659    187.67425  0.012048937  0.011646203         3451 
 1299000   0.73315045   -9.1854728    187.18998  0.012008595  0.011633156         3527 
 1300000   0.71985844   -9.2012468    187.34481  0.012009282  0.011620127         3526 
 1301000   0.72821772    -9.200837    187.38769  0.012002798   0.01160712         3508 
 1302000   0.73504852    -9.182533    187.43853  0.011996834  0.011594114         3497 
 1303000   0.73584194   -9.1901024    187.32479  0.011980352  0.011581142         3482 
 1304000   0.72420365   -9.1884027    187.35521  0.011973109  0.011568191         3519 
 1305000   0.73231869   -9.1798524    187.12761  0.011949401  0.011555231         3463 
 1306000   0.74414641   -9.1833969    187.37132  0.011955802  0.011542291         3473 
 1307000    0.7300922   -9.1970162    187.64117  0.011963859  0.011529372         3457 
 1308000   0.73957253   -9.2251281    186.86484  0.011905252  0.011516463         3468 
 1309000   0.74174803   -9.2032502    187.37265  0.011928486  0.011503577         3463 
 1310000    0.7263402   -9.2112264    187.21846  0.011909571  0.011490702         3457 
 1311000   0.74046445   -9.1898035    186.88214  0.011879109  0.011477842         3442 
 1312000   0.72021419   -9.2190343    187.13469  0.011886096  0.011465001         3502 
 1313000   0.73606869   -9.2204008    187.07734  0.011873403  0.011452158         3503 
 1314000   0.73911529   -9.1961174    187.00583  0.011859832  0.011439355         3493 
 1315000   0.73152832   -9.2084976    187.13332  0.011858893  0.011426566         3499 
 1316000   0.71515395   -9.2039784    187.23047  0.011856033  0.011413796         3501 
 1317000   0.75252695   -9.2280125    187.12404  0.011840296   0.01140103         3498 
 1318000   0.71513915   -9.2126837    187.44479  0.011851593  0.011388267         3508 
 1319000   0.71180844   -9.2561743    187.04479  0.011817336  0.011375537         3481 
 1320000   0.71089222    -9.217315    187.13921  0.011814344  0.011362825         3502 
 1321000    0.7306956   -9.2174739    187.37662  0.011820377  0.011350123         3491 
 1322000   0.71471126   -9.2222275    187.10267  0.011794167  0.011337446         3547 
 1323000   0.71597028   -9.2494599    187.08221  0.011783964   0.01132476         3533 
 1324000   0.71160212   -9.2210635    187.46358  0.011799067  0.011312109         3507 
 1325000   0.73101591   -9.2221409    187.21624  0.011774606  0.011299463         3496 
 1326000   0.71887676   -9.2109851    187.16205  0.011762321   0.01128684         3463 
 1327000   0.72535152   -9.2128222    186.84806  0.011733739  0.011274242         3460 
 1328000   0.72179238   -9.2333065    186.92308  0.011729611  0.011261683         3513 
 1329000   0.71638974   -9.2504339    186.95397  0.011722722  0.011249121         3477 
 1330000    0.7376112   -9.2155355    187.33019  0.011737481  0.011236584         3495 
 1331000   0.71409394   -9.2274183    187.19736  0.011720345  0.011224067         3479 
 1332000   0.69673372   -9.2256831    187.08589  0.011704573  0.011211557         3498 
 1333000   0.69843641   -9.2254227    187.44154  0.011718026   0.01119907         3439 
 1334000   0.71673327   -9.2282441      187.364  0.011704398  0.011186588         3477 
 1335000    0.7057531   -9.2384647    186.99955  0.011672881  0.011174108         3516 
 1336000   0.71865036   -9.2248911     186.9461  0.011660809  0.011161639         3541 
 1337000   0.70929456   -9.2475285    186.76007  0.011640493  0.011149176         3481 
 1338000   0.72902356   -9.2177246    186.98282  0.011645667  0.011136742         3538 
 1339000   0.72175966   -9.2344802    187.09347  0.011643855  0.011124325         3467 
 1340000   0.71978265   -9.2475077    187.30109  0.011648078  0.011111931         3535 
 1341000    0.7092239   -9.2360844     187.2043  0.011633377   0.01109954         3539 
 1342000   0.70325301   -9.2398892    186.76422  0.011597381  0.011087173         3551 
 1343000    0.7204694   -9.2511303    186.86136  0.011594773  0.011074819         3573 
 1344000   0.72683713   -9.2397991    187.26775  0.011611344  0.011062479         3539 
 1345000   0.71546167   -9.2540881    186.90894   0.01158048  0.011050151         3539 
 1346000     0.715494    -9.224377    187.20644  0.011590295  0.011037847         3543 
 1347000    0.7180759   -9.2265678    186.84914  0.011559585  0.011025554         3490 
 1348000   0.71103905   -9.2607395    186.99483  0.011560017  0.011013292         3542 
 1349000   0.71857799   -9.2513255    186.93384   0.01154768  0.011001028         3494 
 1350000   0.73244633   -9.2719621    186.94497  0.011539813  0.010988776         3542 
 1351000   0.72246147   -9.2429215    186.87743  0.011527105  0.010976558         3546 
 1352000    0.7046659   -9.2424248    187.15775  0.011535857  0.010964328         3535 
 1353000   0.70717605   -9.2796364    186.54931  0.011489856  0.010952112         3576 
 1354000   0.71794065   -9.2428437    186.90308  0.011503144  0.010939926         3513 
 1355000   0.71625882   -9.2408461    187.22338  0.011514353  0.010927757         3565 
 1356000   0.70001542   -9.2472356    186.87632  0.011484533  0.010915614         3494 
 1357000   0.70878822   -9.2517731    186.93081  0.011479416   0.01090349         3560 
 1358000   0.71300366   -9.2783288     186.9617  0.011472858  0.010891356         3513 
 1359000   0.69750541   -9.2476239    186.78168  0.011453377  0.010879275         3547 
 1360000   0.71249899   -9.2719101    186.74819  0.011442904  0.010867194         3525 
 1361000   0.70014096   -9.2557282    186.81424   0.01143854  0.010855137         3551 
 1362000   0.70459605   -9.2677615    187.05202   0.01144469  0.010843095         3503 
 1363000   0.71792192   -9.2682568     186.7171  0.011415817  0.010831065         3558 
 1364000   0.72112907   -9.2638452    186.46202  0.011391863  0.010819048         3560 
 1365000   0.70538647   -9.2843939    186.77878  0.011402856  0.010807051         3549 
 1366000   0.69672479   -9.2433944    187.13614  0.011416309  0.010795075         3529 
 1367000   0.71134311   -9.2723221    186.73056  0.011383233  0.010783091         3524 
 1368000    0.7171174   -9.2402261    186.94442   0.01138794  0.010771135         3494 
 1369000    0.7104254   -9.2403482      186.393  0.011346055  0.010759196         3477 
 1370000   0.71907585   -9.2674687    187.01104  0.011375367  0.010747263         3551 
 1371000   0.70481125   -9.2526953    187.08276   0.01137143  0.010735362         3568 
 1372000   0.69994509    -9.284709    186.61131  0.011334506  0.010723466         3579 
 1373000   0.70728863   -9.2794774    186.91492  0.011344679  0.010711576         3559 
 1374000   0.71420753    -9.267663    186.88146  0.011334392  0.010699705         3556 
 1375000    0.6922751   -9.2452834    187.04286  0.011335931  0.010687867         3542 
 1376000   0.70087929   -9.2675508    186.65032   0.01130392  0.010676052         3527 
 1377000   0.70390107   -9.2860137    186.48733  0.011285846  0.010664238         3598 
 1378000   0.70641482   -9.2895463    186.50509  0.011278731  0.010652433         3510 
 1379000   0.70801025   -9.2569623    186.39108  0.011263662  0.010640648         3526 
 1380000   0.71447656   -9.2707456    186.55068  0.011265138  0.010628878         3553 
 1381000   0.69840061   -9.2929258    186.62819  0.011261658  0.010617111         3576 
 1382000   0.70047087   -9.2858261    186.94652  0.011272704  0.010605363         3536 
 1383000   0.71167937     -9.27594    186.74275  0.011252275  0.010593633         3567 
 1384000   0.70699005   -9.2703558    186.76131  0.011245262  0.010581931         3579 
 1385000   0.69837864   -9.2850441    186.14721  0.011200193  0.010570232         3508 
 1386000   0.69782772   -9.2573833    186.89824  0.011237268   0.01055855         3542 
 1387000   0.69442113   -9.2993802    186.72588  0.011218811  0.010546893         3590 
 1388000   0.71494815   -9.2779352    186.75076  0.011212222  0.010535246         3558 
 1389000    0.7007341   -9.2999884    186.69114  0.011200573  0.010523613         3565 
 1390000   0.68158904   -9.2808638     186.8194  0.011200204  0.010511991         3527 
 1391000    0.7004015   -9.2721994    186.80489  0.011191283  0.010500395         3493 
 1392000   0.69623924   -9.2780969    186.54315  0.011167574  0.010488815         3533 
 1393000    0.7060956   -9.2822057    186.45701  0.011154404  0.010477248         3576 
 1394000   0.71353981   -9.2886787    186.71698  0.011161943  0.010465701         3537 
 1395000   0.68774445   -9.2848412    186.44711   0.01113782  0.010454174         3557 
 1396000   0.69278725   -9.2657404    186.25839  0.011118577  0.010442661         3536 
 1397000   0.70741717   -9.2995281    186.48606  0.011124198  0.010431166         3509 
 1398000   0.70034225   -9.3003591    186.81734  0.011135988  0.010419679         3589 
 1399000   0.69031506   -9.2888758    186.50883  0.011109652  0.010408224         3558 
 1400000   0.68693988   -9.3057467    186.43445  0.011097289  0.010396769         3527 
 1401000   0.70022513   -9.2756877    186.74609  0.011107904  0.010385337         3561 
 1402000   0.68132061   -9.2917422    186.42641   0.01108098  0.010373927         3547 
 1403000   0.69841751   -9.2951596    186.74534  0.011092025  0.010362534         3565 
 1404000   0.68335766   -9.2914009    186.68565  0.011080582  0.010351135         3562 
 1405000   0.69420419   -9.2874847    186.57476  0.011066119  0.010339745         3567 
 1406000   0.68316116   -9.2840366    186.56777  0.011057834  0.010328377         3567 
 1407000   0.69686672   -9.2940614    186.54216  0.011048458  0.010317034         3574 
 1408000   0.70010884   -9.3091061    186.34241  0.011028789  0.010305704         3607 
 1409000   0.70098003   -9.2893821    186.31338  0.011019244  0.010294386         3559 
 1410000   0.69648384   -9.2898485    186.24772  0.011007548  0.010283071         3565 
 1411000   0.68189828   -9.3132661    186.32263  0.011004171  0.010271781         3545 
 1412000   0.69749696   -9.2806829    186.25821  0.010992576  0.010260502         3546 
 1413000   0.68335861   -9.2675933    186.56816  0.011003076  0.010249252         3606 
 1414000   0.67958175   -9.2618643    186.44761   0.01098819  0.010238009         3554 
 1415000   0.70664849   -9.3131193    186.32169  0.010973009   0.01022676         3597 
 1416000   0.69068218   -9.2871219    186.42229   0.01097118  0.010215538         3576 
 1417000   0.68652568   -9.3188194     186.5252   0.01096949  0.010204356         3537 
 1418000   0.68136056    -9.308639    186.47731  0.010958939  0.010193188         3569 
 1419000   0.69028908   -9.2874035    186.45172  0.010949713  0.010182016         3550 
 1420000   0.68524002   -9.3121316    186.43956  0.010941289  0.010170866         3565 
 1421000   0.67529795   -9.2972808    186.66334  0.010946713  0.010159738         3571 
 1422000   0.69497686   -9.3236264    186.28583  0.010916891  0.010148637         3520 
 1423000   0.67900056   -9.3197289    186.45939  0.010919384  0.010137535         3561 
 1424000   0.67496195   -9.2913305    186.27699  0.010901041  0.010126439         3564 
 1425000    0.6879155    -9.290768    186.62267  0.010913607  0.010115361         3549 
 1426000   0.68316953    -9.305544    186.25714  0.010884592  0.010104306         3528 
 1427000   0.70012434   -9.3026016     186.4465  0.010888023  0.010093264         3542 
 1428000   0.68585661   -9.3230147    186.57116  0.010887673   0.01008225         3548 
 1429000   0.67739237   -9.2861127    186.65944  0.010885202  0.010071245         3565 
 1430000    0.6805084   -9.3026364    186.56776  0.010872247  0.010060262         3549 
 1431000   0.67534369   -9.3207869    186.43818  0.010857103  0.010049286         3522 
 1432000   0.68313197   -9.3088228    186.51434  0.010853953  0.010038323         3524 
 1433000   0.68782742    -9.310217    186.43168  0.010841572  0.010027391         3578 
 1434000   0.69411394    -9.316065    186.72494  0.010851054  0.010016473         3529 
 1435000   0.67776842    -9.333172    186.20956  0.010813563  0.010005573         3532 
 1436000   0.68079388   -9.3189654    186.16069  0.010803197 0.0099946714         3558 
 1437000   0.68901991   -9.3244845     186.2684  0.010801925  0.009983801         3575 
 1438000   0.67791829   -9.3098237    186.44967  0.010804918 0.0099729435         3568 
 1439000   0.67859281   -9.3424683    186.16078   0.01078068 0.0099620797         3575 
 1440000   0.68957391   -9.3222139    186.32674  0.010782798 0.0099512618         3545 
 1441000   0.68706994   -9.3178422    186.26121  0.010771525 0.0099404617         3554 
 1442000    0.6619685   -9.3156574    186.17299  0.010758957 0.0099296707         3529 
 1443000   0.67224468   -9.3245459    186.53102  0.010772177 0.0099188958         3529 
 1444000   0.67669638    -9.322226    186.32166  0.010752635 0.0099081399         3475 
 1445000   0.68594345   -9.3166885    186.58397  0.010760321 0.0098973897         3541 
 1446000   0.68199858   -9.3223236    186.35111   0.01073946 0.0098866654         3544 
 1447000   0.68078403   -9.3036688    186.43008  0.010736586 0.0098759617         3543 
 1448000   0.67313265   -9.3237005    186.53429  0.010735169 0.0098652627         3547 
 1449000    0.6748286   -9.3010432    186.35327  0.010717349 0.0098545713         3519 
 1450000   0.69506072   -9.3168392    186.49217  0.010717941 0.0098439015         3547 
 1451000   0.66705103   -9.3203321    186.58114  0.010715664 0.0098332426         3528 
 1452000   0.67274283   -9.3309012    186.38857  0.010697232 0.0098225906         3550 
 1453000   0.67906952   -9.3423436    186.28953  0.010684189 0.0098119542         3564 
 1454000   0.66501467   -9.3476186    186.28322   0.01067648 0.0098013394         3565 
 1455000   0.67706934   -9.3327254    186.15685  0.010661904 0.0097907325         3539 
 1456000   0.66883898    -9.331039    186.12592  0.010652811 0.0097801383         3602 
 1457000   0.68510013   -9.3438279    186.23851   0.01065194 0.0097695669         3571 
 1458000   0.67035096   -9.3214292    186.33722  0.010650275 0.0097590103         3528 
 1459000   0.68758947   -9.3213786    186.18849  0.010634481 0.0097484607         3604 
 1460000   0.67232919   -9.3154937    186.30585  0.010633896 0.0097379234         3510 
 1461000   0.67279328   -9.3315618     186.0796  0.010613712 0.0097274011         3518 
 1462000   0.67441802   -9.3122602    186.23443  0.010615278 0.0097169008         3541 
 1463000   0.65967116   -9.3490554    186.18893   0.01060543   0.00970641         3531 
 1464000   0.66329147   -9.3256016    186.27136  0.010602878 0.0096959213         3578 
 1465000   0.66830352   -9.3066464     186.4041  0.010603191 0.0096854523         3588 
 1466000   0.66672649   -9.3258597    185.93843  0.010569488 0.0096750037         3597 
 1467000   0.68130136   -9.3428634    186.41821  0.010589537 0.0096645663         3552 
 1468000    0.6857746   -9.3398308    186.30833  0.010576086 0.0096541439         3542 
 1469000    0.6759999   -9.3238291    186.28956  0.010567822 0.0096437253         3511 
 1470000   0.67625502   -9.3446865    185.93407   0.01054048 0.0096333238         3550 
 1471000   0.67004787   -9.3313179    186.34047  0.010556338 0.0096229411         3548 
 1472000     0.679764   -9.3530085    186.27839  0.010545651 0.0096125698         3563 
 1473000   0.66570723   -9.3133375    186.20045  0.010534083 0.0096022197         3580 
 1474000   0.65462787   -9.3243875    186.13608  0.010523297 0.0095918724         3580 
 1475000   0.65085496   -9.3706423    186.17666  0.010518455 0.0095815187         3578 
 1476000   0.65658614   -9.3612405    185.76977  0.010488357 0.0095711891         3575 
 1477000   0.67352693   -9.3616654    185.76849  0.010481183 0.0095608832         3535 
 1478000   0.65579274   -9.3441727    185.95539  0.010484629 0.0095505816         3584 
 1479000   0.65966938   -9.3522925    186.18402  0.010490422  0.009540301         3557 
 1480000   0.67038203   -9.3600268    186.13298  0.010480461 0.0095300241         3605 
 1481000   0.66000389    -9.361101     185.9973  0.010465749  0.009519772         3572 
 1482000   0.65522182   -9.3523797    186.03475  0.010460793 0.0095095196         3570 
 1483000   0.65705843   -9.3630721    186.10969  0.010457951 0.0094992834         3579 
 1484000   0.66022002   -9.3572924    185.88712  0.010438405 0.0094890616         3554 
 1485000   0.66628395    -9.357553    185.86539  0.010430156 0.0094788563         3611 
 1486000   0.65557144   -9.3597615     186.2853  0.010446686  0.009468663         3546 
 1487000   0.64848018   -9.3700139    186.13684  0.010431341 0.0094584948         3555 
 1488000   0.66179087   -9.3634188    186.08826   0.01042161 0.0094483264         3566 
 1489000   0.66933379   -9.3604562    186.29899  0.010426404 0.0094381853         3577 
 1490000   0.66351971   -9.3402828    185.99692  0.010402512 0.0094280538         3554 
 1491000   0.65842341   -9.3539289    186.14812  0.010403986  0.009417931         3617 
 1492000    0.6484206   -9.3479234    185.84966  0.010380343 0.0094078294         3585 
 1493000   0.65802424   -9.3472562    186.00301   0.01038195 0.0093977358         3563 
 1494000   0.63851643   -9.3472627    186.15672  0.010383574 0.0093876481         3576 
 1495000   0.66524314   -9.3565581    186.05318  0.010370857 0.0093775825         3556 
 1496000   0.68042968   -9.3461193     186.0809  0.010365469 0.0093675367         3558 
 1497000   0.65557868   -9.3445928    186.08853   0.01035897 0.0093574974         3592 
 1498000   0.65866022   -9.3647065    186.33104  0.010365545  0.009347476         3568 
 1499000   0.66029215   -9.3625758     185.7577  0.010326757 0.0093374766         3569 
 1500000    0.6694136   -9.3495181    185.88115  0.010326731 0.0093274798         3560 
 1501000   0.65942939   -9.3954185    185.73252  0.010311599 0.0093174934         3585 
 1502000   0.64705422   -9.3525286     185.9039  0.010314242 0.0093075237         3567 
 1503000   0.64572228   -9.3470785    186.02276   0.01031397 0.0092975778         3549 
 1504000   0.64709797   -9.3636082     185.9884  0.010305209 0.0092876376         3571 
 1505000    0.6478673     -9.36315    185.97584  0.010297666 0.0092777099         3575 
 1506000   0.65063645    -9.353018    186.01951  0.010293244 0.0092678006         3573 
 1507000   0.66345609   -9.3731342    185.58412  0.010262338 0.0092578933         3558 
 1508000   0.65155777   -9.3786869    185.88538  0.010272181 0.0092480075         3580 
 1509000   0.65248272   -9.3610713    186.02886  0.010273297 0.0092381328         3564 
 1510000   0.65806257   -9.3577697    185.96992   0.01026324 0.0092282735         3552 
 1511000   0.64913888   -9.3644911    185.89739  0.010252448 0.0092184252         3618 
 1512000   0.65603124   -9.3714341    186.19498  0.010262069 0.0092086053         3584 
 1513000   0.65671805   -9.3697222    186.13294  0.010251869  0.009198788         3568 
 1514000   0.65058372   -9.3705307    185.68617  0.010220507 0.0091889793         3603 
 1515000   0.64871776   -9.3744711    185.87443  0.010224116 0.0091791813         3586 
 1516000   0.64994057   -9.3561956    185.54029  0.010199005 0.0091694051         3566 
 1517000   0.64490763   -9.3761386    186.01744  0.010218493 0.0091596417         3599 
 1518000   0.65191804   -9.3647484    185.86006  0.010203121 0.0091498886         3571 
 1519000   0.65328224    -9.374073    185.77681  0.010191837 0.0091401629         3575 
 1520000   0.64519079   -9.3633645    185.90578  0.010192203  0.009130435         3573 
 1521000   0.64796056    -9.355225    186.01967  0.010191742 0.0091207299         3591 
 1522000   0.64712597   -9.3696612    185.65177  0.010164902 0.0091110275         3607 
 1523000   0.63429959    -9.377261    185.54276  0.010152263 0.0091013396         3586 
 1524000   0.64349335   -9.3480646    185.97598   0.01016929 0.0090916664         3597 
 1525000   0.65315727   -9.3789411    186.00532  0.010164225 0.0090820086         3584 
 1526000   0.64742052   -9.3840576    186.15201  0.010165575  0.009072354         3586 
 1527000   0.63762867   -9.3819377    186.02165  0.010151804 0.0090627157         3563 
 1528000    0.6410772   -9.3642861    185.67834  0.010126436 0.0090530961         3567 
 1529000    0.6456391   -9.3932877    185.85372  0.010129372  0.009043492         3600 
 1530000   0.64640165    -9.351936    185.99319  0.010130348    0.0090339         3583 
 1531000   0.63738443   -9.3743624    185.93103  0.010120348  0.009024324         3556 
 1532000   0.63358429   -9.3698805    185.67265  0.010099687 0.0090147552         3548 
 1533000   0.64653851   -9.3635244    185.37489  0.010076913 0.0090051992         3566 
 1534000   0.64461141   -9.3789813    185.47979  0.010076042 0.0089956612         3576 
 1535000   0.64262169   -9.3750743      185.867    0.0100905 0.0089861257         3611 
 1536000   0.63988352   -9.3981485    185.78835  0.010079663 0.0089766119         3592 
 1537000   0.63909378   -9.3780761    185.83781  0.010075786 0.0089671064         3592 
 1538000   0.63553131   -9.4029101    185.19266  0.010034279 0.0089576138         3591 
 1539000   0.63255734   -9.3850167     185.3431  0.010035905 0.0089481297         3629 
 1540000   0.64918528   -9.3827359    185.30146  0.010027135 0.0089386542         3573 
 1541000   0.64435367   -9.3963405    185.92304  0.010054242 0.0089291969         3593 
 1542000   0.64705082    -9.399064    185.66096  0.010033558 0.0089197592         3608 
 1543000   0.64314969   -9.3871724    185.38944  0.010012392 0.0089103519         3590 
 1544000   0.63289721   -9.3990398    185.51053  0.010012442 0.0089009539         3564 
 1545000   0.63577884   -9.4012911     185.7838  0.010020701 0.0088915654         3596 
 1546000   0.64657532    -9.382678    185.59091  0.010003822 0.0088821853         3592 
 1547000   0.63010691   -9.3851095     185.5808 0.0099968108 0.0088728164         3638 
 1548000   0.64150851   -9.4073647    185.59049 0.0099908745  0.008863466         3594 
 1549000   0.63066247   -9.4030338    185.84517 0.0099981261 0.0088541318         3630 
 1550000   0.63289913   -9.3733435    185.98222 0.0099990442 0.0088448006         3534 
 1551000   0.64157077    -9.356348    185.88004 0.0099871072  0.008835495         3601 
 1552000   0.64077241   -9.3800785    186.11336 0.0099932003 0.0088261949         3600 
 1553000   0.62209601   -9.4049694    185.56247 0.0099572046 0.0088168987         3581 
 1554000   0.64179963   -9.3843519    185.94916 0.0099715334 0.0088076235         3566 
 1555000    0.6244534   -9.3871507    185.86967 0.0099608611 0.0087983553         3621 
 1556000    0.6355828   -9.4024746    185.71169 0.0099459991 0.0087891038         3623 
 1557000   0.64633419   -9.3931813    185.43342 0.0099247175 0.0087798657         3604 
 1558000    0.6399392   -9.3853937    185.60192 0.0099273598 0.0087706435         3619 
 1559000   0.62735898   -9.4107467    185.38226 0.0099092506 0.0087614308         3612 
 1560000   0.63999458    -9.387114    185.68586 0.0099191165 0.0087522255         3567 
 1561000    0.6249822   -9.3887001    185.54538 0.0099052629 0.0087430351         3612 
 1562000   0.65270066   -9.3878248    185.58495 0.0099010323 0.0087338551         3640 
 1563000    0.6350386   -9.4007293    185.44049 0.0098869954 0.0087246908         3566 
 1564000   0.62382176   -9.3961983     185.4796 0.0098827576 0.0087155498         3565 
 1565000   0.62923537   -9.4086892    185.73765 0.0098901839 0.0087064041         3613 
 1566000   0.62232346   -9.4010055    185.69105 0.0098813883 0.0086972803         3599 
 1567000   0.62499891   -9.4093093    185.59136 0.0098697809 0.0086881701         3577 
 1568000   0.63462788   -9.3862854    185.78629  0.009873846 0.0086790764         3593 
 1569000    0.6264938   -9.3931098    185.55285 0.0098551546 0.0086699875         3602 
 1570000   0.62755645   -9.4195662    185.94422 0.0098696509 0.0086609099         3584 
 1571000   0.61621979   -9.4232209    185.47543 0.0098385016 0.0086518388         3591 
 1572000   0.62691184   -9.4137238    185.39902 0.0098281923 0.0086427916         3635 
 1573000   0.61681005   -9.3953578    185.36188 0.0098199769 0.0086337479         3615 
 1574000   0.63495067   -9.3926976    185.69618  0.009831437 0.0086247248         3625 
 1575000   0.62698382   -9.4030504    185.56297 0.0098181466 0.0086157024         3640 
 1576000   0.62401353   -9.4035362    185.38433 0.0098024709 0.0086067008         3590 
 1577000   0.62760315   -9.3969709    185.56766 0.0098059426 0.0085977082         3592 
 1578000    0.6197275   -9.4077932    185.37317 0.0097894575 0.0085887236         3633 
 1579000    0.6187289   -9.4185861    185.63077 0.0097968531  0.008579753         3614 
 1580000   0.61765449    -9.406512    185.54359 0.0097860541 0.0085708014         3616 
 1581000   0.64222659   -9.4110994    185.78027 0.0097923397 0.0085618623         3626 
 1582000   0.62835535   -9.3958119    185.87014 0.0097908841 0.0085529363         3605 
 1583000   0.61690399    -9.411487    185.47674 0.0097639892 0.0085440154         3645 
 1584000   0.63164705   -9.4319742    185.41564 0.0097546107 0.0085350976         3628 
 1585000   0.61931881    -9.415764    185.59974 0.0097581355 0.0085261919         3610 
 1586000    0.6288472   -9.4115487    185.40135 0.0097415591  0.008517312         3620 
 1587000   0.60886508   -9.4209299    185.86608 0.0097598238 0.0085084376         3602 
 1588000   0.62163802   -9.4014496    185.64671 0.0097421659 0.0084995768         3596 
 1589000   0.62263728    -9.396054    185.65696 0.0097365723 0.0084907351         3615 
 1590000   0.61249397   -9.4490141    185.48173 0.0097212647 0.0084819054         3590 
 1591000   0.60922713    -9.415958    185.47189 0.0097146391 0.0084730745         3646 
 1592000   0.62266389   -9.4164112    185.39732 0.0097046338 0.0084642552         3615 
 1593000   0.59855934   -9.4060556    185.49883 0.0097038517 0.0084554512         3601 
 1594000   0.61981945   -9.4148053    185.65456 0.0097059053 0.0084466632         3624 
 1595000   0.61339332   -9.4384267    185.47578 0.0096904797 0.0084378785         3608 
 1596000   0.63297667   -9.4302993    185.34561  0.009677611 0.0084291019         3578 
 1597000   0.61820376   -9.4078212    185.28603 0.0096684425 0.0084203423         3614 
 1598000   0.62128265   -9.4244838    185.20668  0.009658254 0.0084116014         3630 
 1599000   0.62087801   -9.4090372    185.61639 0.0096735665  0.008402881         3611 
 1600000   0.60163323   -9.4194483    185.31379 0.0096517597 0.0083941656         3630 
 1601000   0.61048381    -9.421911    185.35304 0.0096477745  0.008385455         3647 
 1602000   0.62238481   -9.4294113      185.237 0.0096357159 0.0083767632         3622 
 1603000   0.61120383    -9.425705    185.41771 0.0096390993 0.0083680748         3614 
 1604000   0.60627354    -9.408547    185.20991 0.0096222937 0.0083593947         3605 
 1605000   0.62519028   -9.4178154    185.25445 0.0096186112 0.0083507381         3628 
 1606000   0.61512331   -9.4123957    185.34578 0.0096173608  0.008342088         3624 
 1607000   0.60879988   -9.4320275    185.29255  0.009608616 0.0083334509         3599 
 1608000   0.60616532   -9.4203847     185.4712 0.0096118987 0.0083248303         3625 
 1609000   0.62271569   -9.4444075    185.55408 0.0096102176 0.0083162254         3631 
 1610000   0.60375953   -9.4332039    185.23147 0.0095875504 0.0083076207         3600 
 1611000    0.6075734   -9.4320863     185.4248 0.0095915993 0.0082990366         3604 
 1612000   0.60132601     -9.43744    185.06408 0.0095670016  0.008290457         3625 
 1613000   0.62210353   -9.4282057     185.1228 0.0095641042 0.0082818833         3597 
 1614000   0.59089885   -9.4347304    185.50922 0.0095781297 0.0082733301         3631 
 1615000   0.60126004   -9.4304126    185.13657 0.0095529704 0.0082647875         3642 
 1616000   0.60589848   -9.4261439    185.39669 0.0095604728 0.0082562644         3636 
 1617000    0.6087651   -9.4351535    185.31555  0.009550379  0.008247739         3629 
 1618000    0.6069227   -9.4240202    185.11621 0.0095342094 0.0082392218         3583 
 1619000   0.61385757   -9.4277033    185.15984 0.0095305661 0.0082307218         3593 
 1620000   0.60953418   -9.4330422    185.64671 0.0095497278 0.0082222288         3628 
 1621000   0.60466881   -9.4102899    185.45577 0.0095340205 0.0082137574         3643 
 1622000   0.60076735   -9.4107423       185.55 0.0095329838 0.0082052947         3597 
 1623000   0.60556703    -9.456021    185.12934 0.0095055112 0.0081968447         3581 
 1624000   0.60702476   -9.4433209    185.20517 0.0095035495 0.0081883946         3658 
 1625000   0.60499563   -9.4563844    185.38942 0.0095071499 0.0081799646         3628 
 1626000   0.60387308   -9.4349857    185.09728 0.0094863305 0.0081715457         3618 
 1627000   0.60467934     -9.44062     185.3774 0.0094948476 0.0081631367         3609 
 1628000   0.60392451   -9.4524264    185.31514  0.009485828  0.008154747         3619 
 1629000   0.60421972   -9.4171741    185.45174 0.0094869932 0.0081463692         3649 
 1630000   0.60420893   -9.4391238    185.44083 0.0094806148 0.0081379972         3617 
 1631000   0.60372614   -9.4395914      185.088 0.0094567749 0.0081296326         3621 
 1632000   0.60739689   -9.4413683    185.35918 0.0094648274 0.0081212857         3609 
 1633000   0.59222734   -9.4760001    185.31532 0.0094567931 0.0081129424         3656 
 1634000   0.59510112   -9.4466767    185.14307 0.0094422209 0.0081046095         3611 
 1635000   0.59952969   -9.4288986    185.25175  0.009441985 0.0080963008         3587 
 1636000   0.59345694   -9.4395584    185.17864 0.0094324898 0.0080879956         3614 
 1637000   0.60534096   -9.4278315    185.23757 0.0094297276 0.0080796945         3625 
 1638000   0.59930273   -9.4590629    185.11377 0.0094176726 0.0080714172         3594 
 1639000   0.59719168   -9.4426837    185.38451 0.0094256919 0.0080631451         3634 
 1640000    0.5929451   -9.4336201    185.40052 0.0094207582 0.0080548784         3615 
 1641000   0.59057871    -9.440161    185.24484 0.0094071114 0.0080466275         3607 
 1642000   0.60683409   -9.4634519    185.35897 0.0094071749 0.0080383926         3630 
 1643000   0.59858622     -9.45362     185.1751 0.0093921231  0.008030162         3621 
 1644000   0.60261399   -9.4455283    185.04048 0.0093795864 0.0080219495         3619 
 1645000   0.58532479   -9.4566771    184.81554 0.0093624892 0.0080137461         3595 
 1646000   0.61675023   -9.4681852    185.24928 0.0093787605 0.0080055498         3631 
 1647000   0.60249003   -9.4396681    185.10516  0.009365774  0.007997363         3595 
 1648000   0.59465518   -9.4466543    185.35175 0.0093725603 0.0079891886         3596 
 1649000   0.58764612    -9.455245    185.34221 0.0093663941 0.0079810217         3617 
 1650000   0.60146609   -9.4584274    185.19003 0.0093530319 0.0079728622         3630 
 1651000   0.58657826   -9.4456208    184.81937 0.0093286579 0.0079647211         3606 
 1652000   0.59139439   -9.4563119    185.12448 0.0093384019 0.0079565889         3639 
 1653000   0.59718105   -9.4472114    185.33966 0.0093436003 0.0079484696         3654 
 1654000   0.60208242   -9.4615643    185.15765 0.0093287811 0.0079403719         3624 
 1655000   0.58891715   -9.4557254    185.11255 0.0093208736 0.0079322728         3637 
 1656000   0.60227806   -9.4600243    185.21155 0.0093202272 0.0079241906         3594 
 1657000   0.59857863   -9.4540144      185.275 0.0093177933 0.0079161177         3658 
 1658000   0.60640528   -9.4478581    185.19565 0.0093081848 0.0079080599         3631 
 1659000   0.59545501   -9.4723734    185.29076 0.0093073518 0.0079000101         3616 
 1660000   0.59624293   -9.4691635    184.87411  0.009280829 0.0078919755         3651 
 1661000    0.5907562   -9.4660953    184.99845 0.0092814798 0.0078839436         3606 
 1662000   0.58902487   -9.4648125    184.79034 0.0092654604 0.0078759237         3601 
 1663000   0.59689245   -9.4726364    184.99035 0.0092699112 0.0078679157         3621 
 1664000   0.58657812   -9.4480391    184.98186 0.0092639151 0.0078599195         3638 
 1665000    0.5987672   -9.4763007    185.01363 0.0092599413 0.0078519319         3625 
 1666000    0.5738288   -9.4780952     184.9158 0.0092494898 0.0078439597         3632 
 1667000    0.5988868   -9.4640219    185.45948 0.0092711198 0.0078360003         3594 
 1668000   0.58490169   -9.4404181    185.18479 0.0092518381 0.0078280454         3618 
 1669000   0.58471051   -9.4748781    184.93436 0.0092337908 0.0078201071         3633 
 1670000   0.58496324   -9.4666235    185.22575 0.0092428019 0.0078121705         3651 
 1671000   0.59596518    -9.458903     185.1231 0.0092321513  0.007804246         3635 
 1672000   0.59371535   -9.4587035    184.84743 0.0092128901 0.0077963369         3612 
 1673000   0.60148238   -9.4721907    185.00071 0.0092150183 0.0077884358         3627 
 1674000    0.5868267   -9.4516027     185.0511  0.009212022 0.0077805512         3645 
 1675000   0.59288398   -9.4717677    184.80701 0.0091943788 0.0077726698         3631 
 1676000   0.58895679   -9.4559886    185.22882 0.0092098658 0.0077648018         3622 
 1677000   0.58748052   -9.4431957    185.26376   0.00920611 0.0077569451         3622 
 1678000   0.58719122   -9.4722649    185.22351 0.0091986249 0.0077491006         3635 
 1679000   0.57856688   -9.4767779    184.76197 0.0091702386 0.0077412613         3610 
 1680000   0.57849449   -9.4910193    184.73219 0.0091633029 0.0077334381         3616 
 1681000   0.57921549   -9.4651599    184.95013 0.0091686562 0.0077256238         3619 
 1682000   0.58130318   -9.4750672     184.9109 0.0091612614 0.0077178207         3622 
 1683000   0.58874832   -9.4850369    184.52172  0.009136548  0.007710028         3640 
 1684000   0.58239131   -9.4906699    184.70249 0.0091400676 0.0077022395         3644 
 1685000   0.58572278   -9.4856076    184.74166 0.0091365806 0.0076944621         3626 
 1686000   0.57771898   -9.4580365    185.16238 0.0091519564 0.0076866995         3638 
 1687000   0.58126502   -9.4818889     184.7302 0.0091251829 0.0076789422         3615 
 1688000   0.57899483   -9.4944303    184.61766 0.0091142209 0.0076711945         3619 
 1689000   0.59373509    -9.471275    184.98265 0.0091268328 0.0076634586         3602 
 1690000   0.58321856   -9.4841143    184.82644   0.00911373 0.0076557407         3610 
 1691000    0.5855076   -9.4889499    184.65541 0.0090999118 0.0076480214         3624 
 1692000   0.57112446   -9.4663592    184.82501 0.0091028865 0.0076403186         3602 
 1693000   0.57600425   -9.4720066     184.9997 0.0091061084  0.007632625         3612 
 1694000   0.58928866   -9.4823956    185.22283 0.0091117095 0.0076249443         3619 
 1695000   0.57112779   -9.5000013    184.89995 0.0090904595 0.0076172728         3617 
 1696000   0.58723173    -9.487002    185.04417 0.0090921859 0.0076096092         3607 
 1697000   0.56935332   -9.4663258    184.86107 0.0090778371 0.0076019613         3608 
 1698000   0.56532813   -9.4859831    184.79443   0.00906922 0.0075943206         3592 
 1699000   0.58183389   -9.4688437    184.88979 0.0090685596 0.0075866897         3615 
 1700000   0.57564133   -9.4562194     184.6654 0.0090522257 0.0075790665         3636 
 1701000    0.5764808   -9.5014655    185.05661 0.0090660697 0.0075714571         3637 
 1702000   0.56793509   -9.4861878    184.91811 0.0090539613 0.0075638551         3602 
 1703000   0.57947754   -9.4832072    184.73292 0.0090395831 0.0075562638         3600 
 1704000   0.57049504   -9.4788345    184.69251 0.0090323021 0.0075486852         3626 
 1705000   0.56481918   -9.4678931    184.95147 0.0090396611 0.0075411163         3615 
 1706000   0.57188234   -9.4939663    184.91475 0.0090325688 0.0075335601         3587 
 1707000   0.56492551   -9.4977094     184.5878 0.0090113161 0.0075260093         3613 
 1708000   0.57088136    -9.493169    185.06021 0.0090290892  0.007518467         3672 
 1709000   0.57681386   -9.4924637    184.79864 0.0090110513  0.007510936         3657 
 1710000   0.57661997    -9.481352    184.98403 0.0090148163 0.0075034176         3608 
 1711000   0.58019931   -9.4831201    184.73635 0.0089974844 0.0074959034         3629 
 1712000   0.56829401   -9.4923843    184.79152 0.0089949141 0.0074883969         3614 
 1713000   0.56744506   -9.4894097    184.87962 0.0089939492   0.00748091         3608 
 1714000   0.57116835   -9.4952355    184.74808 0.0089823065 0.0074734296         3651 
 1715000   0.57554473   -9.5021731    184.71199 0.0089753152 0.0074659644         3632 
 1716000   0.56854785   -9.4825182    184.97913 0.0089830579 0.0074585058         3597 
 1717000    0.5601275   -9.5083816     185.0528 0.0089814016 0.0074510521         3599 
 1718000   0.56584033   -9.4686918    184.63231 0.0089557776 0.0074436128         3625 
 1719000   0.55922741   -9.4950437    184.61757 0.0089498533 0.0074361851         3626 
 1720000   0.56847697   -9.5063745    184.81355 0.0089541448 0.0074287741         3615 
 1721000   0.55892883    -9.494061    185.14687 0.0089650818 0.0074213676         3649 
 1722000   0.56279938    -9.482124    185.04109 0.0089547566 0.0074139668         3652 
 1723000    0.5620941   -9.4816869    184.74456 0.0089352175 0.0074065706         3602 
 1724000   0.57682763   -9.5115625    184.95683 0.0089402953 0.0073991832         3655 
 1725000   0.55378481   -9.5006344    184.67318 0.0089214099 0.0073918064         3626 
 1726000   0.56800293   -9.5039468    184.79538 0.0089221407 0.0073844408         3651 
 1727000   0.55844513   -9.5028902    184.53955 0.0089046299 0.0073770839         3617 
 1728000   0.55346827   -9.4774364    184.50621 0.0088978689 0.0073697349         3600 
 1729000   0.57073296   -9.4937761    184.63519 0.0088989392 0.0073623968         3632 
 1730000   0.56537846   -9.5003719    184.87051 0.0089051304 0.0073550722         3644 
 1731000   0.56552885   -9.4938333    184.81285 0.0088972102 0.0073477554         3568 
 1732000   0.57540033   -9.5001693    184.68476 0.0088859103 0.0073404528         3627 
 1733000   0.56388427   -9.4958179    184.36801 0.0088655515 0.0073331568         3643 
 1734000   0.56865457   -9.5056178    184.53879 0.0088686464 0.0073258618         3637 
 1735000   0.56729217   -9.5176433    184.54515 0.0088638402 0.0073185816         3649 
 1736000   0.56503413   -9.5110671     184.6009 0.0088614104 0.0073113115         3623 
 1737000   0.56684833   -9.5083956    184.46337 0.0088497106 0.0073040634         3639 
 1738000   0.56096859   -9.5077752    184.44763 0.0088438643 0.0072968158         3627 
 1739000    0.5551536   -9.5163281    184.44525 0.0088386643 0.0072895782         3640 
 1740000   0.56286248   -9.5132894    184.67247 0.0088444671 0.0072823483         3619 
 1741000   0.56443244   -9.5254377    184.45015 0.0088287452 0.0072751307         3599 
 1742000   0.55828596   -9.5142884    184.39986 0.0088212715 0.0072679224         3615 
 1743000   0.56236423   -9.4912981    184.64862 0.0088281038 0.0072607265         3648 
 1744000   0.56143894   -9.5201019    184.68844 0.0088249446 0.0072535372         3631 
 1745000   0.54801786   -9.5058962    184.62347 0.0088167848 0.0072463552         3643 
 1746000   0.55476052   -9.5238877    184.50945  0.008806293 0.0072391842         3637 
 1747000   0.55470081   -9.4952931     184.8682 0.0088183649 0.0072320214         3625 
 1748000   0.55406963   -9.4904753    184.61755 0.0088013704 0.0072248689         3631 
 1749000   0.56465063   -9.5137834    184.38376  0.008785199 0.0072177248         3643 
 1750000    0.5464309   -9.5348555    184.30215  0.008776293 0.0072105891         3617 
 1751000   0.54833088   -9.4969844    184.75876 0.0087930116 0.0072034677         3645 
 1752000    0.5553903   -9.5091095    184.70688 0.0087855252 0.0071963545         3623 
 1753000   0.54660133   -9.5025489    184.30967 0.0087616311 0.0071892494         3632 
 1754000   0.55762116   -9.5319562    184.72221 0.0087762359 0.0071821506         3626 
 1755000   0.55424255   -9.5127697    184.60842 0.0087658319 0.0071750573         3631 
 1756000   0.55658171   -9.5099629    184.57996 0.0087594893 0.0071679789         3620 
 1757000    0.5503471   -9.5066066    184.30311 0.0087413731 0.0071609117         3632 
 1758000    0.5553825   -9.4940229     184.8301 0.0087613812 0.0071538486         3658 
 1759000   0.54743104   -9.5244165    184.50823 0.0087411518 0.0071467996         3661 
 1760000    0.5449621   -9.5085565    184.51846 0.0087366695 0.0071397581         3617 
 1761000   0.55431103   -9.5222245    184.42421 0.0087272482 0.0071327269         3608 
 1762000   0.54777344   -9.5254438    184.63921 0.0087324635  0.007125701         3627 
 1763000   0.54573412   -9.5050006    184.44076 0.0087181302  0.007118687         3636 
 1764000   0.54174302   -9.5188328    184.37657 0.0087101554 0.0071116868         3621 
 1765000   0.55558566   -9.5141789    184.49751 0.0087109305 0.0071046906         3599 
 1766000   0.56115975   -9.5092305    184.42546 0.0087025981 0.0070977066         3617 
 1767000    0.5469298   -9.5331244    184.26558  0.008690133 0.0070907296         3640 
 1768000    0.5483067   -9.5324384    184.48824 0.0086957129 0.0070837623         3631 
 1769000   0.55206826   -9.5293787    184.67637 0.0086996592 0.0070768021         3655 
 1770000   0.55478028   -9.5052713    184.53661 0.0086881642 0.0070698564         3614 
 1771000     0.544411   -9.5393785    184.45585 0.0086794584 0.0070629247         3647 
 1772000   0.55121352    -9.531217     184.6335  0.008682915 0.0070559959         3606 
 1773000   0.54811092   -9.4995638    184.61112 0.0086769658 0.0070490809         3647 
 1774000   0.54437267   -9.5232582    184.49941  0.008666827 0.0070421727         3611 
 1775000   0.54552075   -9.5193532    184.75127 0.0086737686 0.0070352655         3644 
 1776000   0.54688847   -9.5210979    184.47865 0.0086560927 0.0070283774         3655 
 1777000   0.54059648   -9.5410359    184.43943 0.0086493826 0.0070214944         3600 
 1778000   0.54224097   -9.5194119    184.65683 0.0086547072 0.0070146218         3623 
 1779000   0.54411548   -9.5404648    184.63731 0.0086489278 0.0070077547         3605 
 1780000   0.54521588   -9.5192609    184.39217 0.0086325921 0.0070009009         3604 
 1781000   0.54657931   -9.5235537    184.50523 0.0086330351 0.0069940568         3635 
 1782000   0.54715195   -9.5406717    184.19204 0.0086135449 0.0069872193         3625 
 1783000   0.54507007   -9.5302657    184.33613  0.008615448 0.0069803938         3609 
 1784000    0.5403678   -9.5219147     184.3081 0.0086093098 0.0069735707         3625 
 1785000   0.54392946   -9.5316247    184.41086 0.0086092837 0.0069667604         3675 
 1786000   0.52745222   -9.5288277      184.563 0.0086115623 0.0069599584         3667 
 1787000   0.53627365   -9.5313927    184.39114 0.0085987286 0.0069531652         3618 
 1788000   0.52395682   -9.5204692    184.64988 0.0086059787  0.006946375         3605 
 1789000   0.54619654   -9.5476731    184.28241 0.0085840509 0.0069396002         3664 
 1790000   0.54586585   -9.5316869    184.37322 0.0085834834 0.0069328301         3577 
 1791000   0.53230954   -9.5186242    184.45053  0.008582288 0.0069260684         3651 
 1792000   0.52541289   -9.5495008     184.5594 0.0085825615 0.0069193193         3623 
 1793000   0.54735094   -9.5505888     184.2891 0.0085652122 0.0069125754         3647 
 1794000   0.54854653   -9.5336681    184.43382 0.0085671598 0.0069058444         3604 
 1795000   0.53720854   -9.5387194    184.48756 0.0085648823 0.0068991213         3646 
 1796000   0.53325356   -9.5248025    184.53065 0.0085621124 0.0068924065         3630 
 1797000   0.54766847   -9.5410772    184.01852 0.0085335984 0.0068857016         3609 
 1798000   0.54185362   -9.5464914    184.24108 0.0085391676 0.0068790022         3642 
 1799000   0.53784085   -9.5311769    184.60283  0.008551178 0.0068723221         3682 
 1800000   0.52827208   -9.5363948    184.63862 0.0085480844 0.0068656414         3620 
 1801000   0.52786291   -9.5476382    184.50649 0.0085372244 0.0068589727         3626 
 1802000   0.53988565   -9.5421831    184.46839 0.0085307246 0.0068523122         3648 
 1803000   0.53129104   -9.5460773    184.42349 0.0085239181 0.0068456631         3658 
 1804000   0.53451125   -9.5405872    184.43397  0.008519677 0.0068390196         3620 
 1805000   0.53947575   -9.5590796    184.38971 0.0085129135 0.0068323775         3637 
 1806000   0.52819536    -9.552376    184.29375 0.0085037719 0.0068257498         3633 
 1807000   0.53167657   -9.5594869    184.31687 0.0085001321 0.0068191297         3601 
 1808000   0.53088134   -9.5449939    184.17811 0.0084890351   0.00681252         3648 
 1809000   0.52834884   -9.5632326    184.18674 0.0084847401 0.0068059158         3639 
 1810000   0.53036495   -9.5380115    183.99525  0.008471236 0.0067993271         3600 
 1811000   0.54433643   -9.5559327    184.36578 0.0084836087 0.0067927394         3608 
 1812000   0.53342188   -9.5596388    184.39854 0.0084804332 0.0067861679         3637 
 1813000   0.53547633   -9.5456792    184.20127  0.008466688 0.0067795974         3633 
 1814000   0.51674141   -9.5693804    183.75244 0.0084414023 0.0067730323         3625 
 1815000   0.53437397   -9.5543048    184.23509 0.0084589114 0.0067664785         3614 
 1816000    0.5303179   -9.5675327    184.05391 0.0084459392 0.0067599346         3643 
 1817000    0.5291999   -9.5383935    184.47561 0.0084606314 0.0067533993         3676 
 1818000   0.52701085   -9.5674043    184.08118  0.008437898  0.006746872         3658 
 1819000   0.52175998   -9.5384125    184.27254  0.008442026 0.0067403476         3651 
 1820000   0.53890011   -9.5614508    184.16488 0.0084324577  0.006733833         3646 
 1821000   0.52837157   -9.5691988    184.43725 0.0084402914  0.006727334         3632 
 1822000   0.51431454   -9.5564749    184.39208 0.0084335932 0.0067208482         3666 
 1823000   0.52724022   -9.5726469    184.27167 0.0084234628 0.0067143683         3631 
 1824000   0.53022709   -9.5579408    183.96858  0.008404997 0.0067078968         3648 
 1825000   0.52522597   -9.5398782    184.15186 0.0084087608 0.0067014271         3635 
 1826000    0.5231382   -9.5693404    184.15412 0.0084042588 0.0066949718         3652 
 1827000   0.51537167   -9.5676084      184.271 0.0084049899 0.0066885216         3636 
 1828000   0.50963078    -9.557948    183.88863  0.008382961 0.0066820759         3608 
 1829000   0.53512488   -9.5750567    184.09191 0.0083876393 0.0066756414         3610 
 1830000   0.52959892   -9.5710896    184.14221 0.0083853464 0.0066692136         3633 
 1831000   0.52452303   -9.5727113    184.17954 0.0083824661  0.006662799         3637 
 1832000   0.52624362    -9.573227    184.01427 0.0083703723 0.0066563891         3636 
 1833000    0.5348642   -9.5738649    184.08163 0.0083688683  0.006649991         3678 
 1834000   0.53218375   -9.5639612    184.38889 0.0083782664 0.0066435982         3642 
 1835000   0.52247855   -9.5671204    183.96736 0.0083545578  0.006637214         3616 
 1836000   0.51885268   -9.5492564    184.34051 0.0083669441 0.0066308386         3603 
 1837000   0.51725065   -9.5691591    184.33556 0.0083621646 0.0066244716         3631 
 1838000   0.50769981   -9.5805038    184.07744 0.0083459121 0.0066181081         3652 
 1839000    0.5179645   -9.5710922    184.25855 0.0083495807  0.006611752         3628 
 1840000   0.52014417   -9.5568221    183.89474 0.0083285659 0.0066054078         3611 
 1841000   0.51965418   -9.5622891     184.0554 0.0083313144 0.0065990705         3654 
 1842000   0.52611227   -9.5786762    184.14016 0.0083306261 0.0065927454         3651 
 1843000   0.52308483   -9.5821391    184.31102 0.0083338315 0.0065864206         3625 
 1844000   0.51534955   -9.5617812    183.90161 0.0083108102 0.0065801108         3638 
 1845000   0.50876033   -9.5700843     184.0248 0.0083118699 0.0065738084         3656 
 1846000   0.51624629   -9.5656933    184.09668 0.0083106124 0.0065675142         3616 
 1847000      0.51873   -9.5638153    183.87576  0.008296145 0.0065612308         3619 
 1848000   0.50409105   -9.5709178    184.10231  0.008301872 0.0065549495         3624 
 1849000   0.52298919   -9.5788661    184.04796 0.0082949326 0.0065486802         3657 
 1850000   0.51015243   -9.5798511     184.2747 0.0083006621 0.0065424173         3666 
 1851000   0.52909401    -9.586457    183.98378 0.0082830804 0.0065361613         3649 
 1852000    0.5025613   -9.5787937    183.72734 0.0082670691  0.006529915         3660 
 1853000    0.5091994   -9.5744589    183.88445 0.0082696729 0.0065236731         3682 
 1854000    0.5138719   -9.5806193    184.14539 0.0082769414 0.0065174422         3631 
 1855000   0.51090761   -9.5769891     183.9702 0.0082646093 0.0065112258         3635 
 1856000   0.51118358   -9.5812064    184.23385 0.0082719942 0.0065050061         3635 
 1857000   0.51804931   -9.5636259    183.99539 0.0082568385 0.0064988013         3639 
 1858000   0.50881452   -9.5894246    184.07981 0.0082561808 0.0064926082         3637 
 1859000   0.50306903   -9.5847803    183.65049 0.0082324945 0.0064864117         3654 
 1860000     0.501505   -9.5730314    183.99635  0.008243564 0.0064802281         3585 
 1861000   0.50891638   -9.5816455    184.21841  0.008249078 0.0064740549         3665 
 1862000   0.51812026    -9.575789    184.02782 0.0082361181 0.0064678912         3619 
 1863000   0.50384333   -9.5781209    183.98512 0.0082297872 0.0064617302         3648 
 1864000    0.5115963   -9.5744925    183.86815 0.0082201425 0.0064555789         3642 
 1865000   0.50112988   -9.5722924    184.06347 0.0082244625 0.0064494327         3639 
 1866000   0.50399352    -9.588144    183.96399 0.0082156123 0.0064432974         3639 
 1867000    0.5021357   -9.5902637    183.91857 0.0082091845 0.0064371726         3643 
 1868000   0.50036208   -9.5744323    183.75657 0.0081975629 0.0064310509         3642 
 1869000   0.50116802   -9.5841179    184.01793 0.0082048299 0.0064249385         3683 
 1870000    0.4947364   -9.5763941    183.78681 0.0081901429 0.0064188332         3623 
 1871000   0.50618756   -9.5702525    183.63973 0.0081792149 0.0064127411         3638 
 1872000   0.49414165   -9.5929982    183.83042 0.0081833344 0.0064066489         3626 
 1873000   0.50113891   -9.5999247    184.11472 0.0081916143 0.0064005686         3650 
 1874000   0.49876402   -9.5811631    183.67735  0.008167794 0.0063944906         3669 
 1875000   0.52031302   -9.5742387     183.9424 0.0081752179 0.0063884296         3643 
 1876000   0.50677425    -9.592229    183.72417 0.0081611659 0.0063823687         3644 
 1877000   0.50942065   -9.6076069    183.70722 0.0081560654 0.0063763152         3661 
 1878000   0.50288284    -9.584073    184.14165 0.0081709996 0.0063702691         3653 
 1879000   0.50085888   -9.5797631    184.19621  0.008169071 0.0063642373         3615 
 1880000   0.49004582   -9.6010031    183.90295 0.0081517264 0.0063582104         3646 
 1881000    0.5067786    -9.602275     183.8119 0.0081433589 0.0063521852         3659 
 1882000   0.50072373   -9.5828421    183.87114 0.0081416549 0.0063461748         3670 
 1883000     0.509627   -9.5941283    184.04228 0.0081449051 0.0063401692         3647 
 1884000   0.51413231   -9.5979925    183.83497 0.0081314124 0.0063341746         3656 
 1885000    0.5006332   -9.5999852    184.08572 0.0081381837 0.0063281836         3613 
 1886000   0.49395605   -9.6125908    183.94144 0.0081274937 0.0063222005         3662 
 1887000   0.49567075   -9.5824776    183.72423 0.0081135942 0.0063162266         3591 
 1888000   0.49276551   -9.6061874    183.98283 0.0081207112  0.006310265         3666 
 1889000   0.49667494   -9.6018951     183.7577 0.0081064804 0.0063043092         3649 
 1890000   0.50578066   -9.5833783    183.93549 0.0081100305 0.0062983625         3619 
 1891000   0.49679907    -9.595879    183.85102 0.0081020194 0.0062924212         3640 
 1892000   0.49428201   -9.6061145    183.47093 0.0080809959 0.0062864847         3644 
 1893000   0.50263547   -9.6144008    183.71534 0.0080874865 0.0062805571         3640 
 1894000   0.49240358   -9.6125186    183.88838 0.0080908298 0.0062746385         3653 
 1895000   0.49832909   -9.5976458    183.93293 0.0080885192 0.0062687316         3650 
 1896000   0.49581648   -9.5930584    183.80296 0.0080785407 0.0062628261         3649 
 1897000   0.48624604   -9.6096647    183.94704 0.0080806115 0.0062569288         3656 
 1898000    0.5094647   -9.6036673    183.86983  0.008072964 0.0062510373         3635 
 1899000   0.49629872   -9.6016923    183.69121 0.0080608748 0.0062451561         3602 
 1900000   0.49709389   -9.6283583    183.74237 0.0080588758 0.0062392807         3665 
 1901000   0.49534781   -9.6047007    183.74632 0.0080548097 0.0062334119         3638 
 1902000   0.49295009   -9.6004751    183.62415 0.0080452222 0.0062275543         3643 
 1903000   0.48963714   -9.6102879    184.08205 0.0080610461 0.0062216973         3638 
 1904000   0.49368916   -9.6070518    183.69224 0.0080397514 0.0062158507         3643 
 1905000   0.48945655     -9.59647    183.99594 0.0080488164 0.0062100139         3658 
 1906000    0.4881029   -9.5942883    183.87728 0.0080394052 0.0062041847         3646 
 1907000   0.49817675   -9.6066267    183.39283 0.0080140198 0.0061983581         3633 
 1908000   0.49364155   -9.6328486    183.74317  0.008025121 0.0061925389         3634 
 1909000   0.48338773   -9.6072953    183.66995 0.0080177209 0.0061867307         3640 
 1910000   0.48239246   -9.5928884     184.0046 0.0080281239 0.0061809316         3660 
 1911000   0.49205672   -9.6096489    183.51671 0.0080026472 0.0061751343         3672 
 1912000    0.4979568   -9.6090751    183.88728 0.0080146129 0.0061693475         3658 
 1913000   0.48094086   -9.6036561    183.84636 0.0080086409 0.0061635695         3641 
 1914000   0.48590544   -9.6049239    183.52238 0.0079903508 0.0061577964         3641 
 1915000   0.49854269    -9.611033    183.75645 0.0079963641 0.0061520301         3635 
 1916000   0.48149471   -9.6089625    183.77654 0.0079930644 0.0061462734         3645 
 1917000    0.4871957   -9.5959311    183.61385 0.0079818226 0.0061405191         3663 
 1918000   0.48395407   -9.5957527    183.79811 0.0079856671 0.0061347804         3641 
 1919000   0.48934008   -9.6185731    183.76963 0.0079802689 0.0061290431         3652 
 1920000   0.48505083   -9.6049041    183.76057 0.0079757191 0.0061233114         3634 
 1921000   0.48120506    -9.627066    183.83227 0.0079746775 0.0061175914         3663 
 1922000   0.48861884     -9.61326    183.37629 0.0079507583  0.006111875         3665 
 1923000   0.49755126   -9.6166322    183.70781 0.0079609901 0.0061061673         3654 
 1924000   0.48532533   -9.6096052    183.89829 0.0079651025 0.0061004695         3674 
 1925000   0.48781755     -9.60171     183.5815 0.0079472509 0.0060947758         3646 
 1926000    0.4751127   -9.6274782    183.57882 0.0079430087 0.0060890889         3645 
 1927000   0.48914279    -9.617098    183.98784 0.0079565749 0.0060834082         3644 
 1928000   0.48335719   -9.6254617    183.57386  0.007934555 0.0060777382         3642 
 1929000   0.48942277   -9.6110094    184.05968 0.0079514289 0.0060720779         3645 
 1930000   0.47563944    -9.628734    183.51997 0.0079240054 0.0060664207         3689 
 1931000   0.48755511   -9.6289135    183.55209 0.0079212883 0.0060607724         3661 
 1932000    0.4812962   -9.6064122    183.45944 0.0079131918  0.006055131         3676 
 1933000   0.48954241   -9.6239835    183.52972 0.0079121279  0.006049494         3627 
 1934000   0.48582869   -9.6282839    183.80224 0.0079197794 0.0060438651         3652 
 1935000   0.47475641   -9.6156002    183.65442 0.0079093204 0.0060382434         3637 
 1936000   0.48090607   -9.6275903    183.68963 0.0079067505 0.0060326283         3684 
 1937000   0.47766134   -9.6228012    183.56692 0.0078973894 0.0060270248         3690 
 1938000   0.48341814   -9.6302543    183.25493 0.0078798988 0.0060214233         3625 
 1939000   0.48996653   -9.6290268    183.50197 0.0078864521 0.0060158285         3654 
 1940000   0.49106951    -9.628698     183.8418 0.0078969843 0.0060102424         3679 
 1941000   0.48102539    -9.629165    183.48392 0.0078775511 0.0060046653         3654 
 1942000    0.4683692   -9.6319917    183.41542 0.0078705552 0.0059990937         3668 
 1943000   0.46789521   -9.6260679     183.3823 0.0078650843 0.0059935286         3673 
 1944000   0.48040592   -9.6325975    183.64587 0.0078723366 0.0059879765         3680 
 1945000   0.47531952    -9.645393    183.59072 0.0078659264 0.0059824243         3616 
 1946000   0.48507995   -9.6206375    183.56329 0.0078607097 0.0059768818         3660 
 1947000   0.47796036   -9.6211909    183.46503 0.0078524665 0.0059713472         3680 
 1948000   0.48172587   -9.6299858    183.78292 0.0078620345 0.0059658202         3670 
 1949000   0.46893717   -9.6302904    183.34731 0.0078393753 0.0059602949         3695 
 1950000   0.46722278   -9.6263848    183.46594 0.0078404248 0.0059547791         3652 
 1951000   0.46312384   -9.6321043    183.77454 0.0078495874 0.0059492692         3651 
 1952000   0.47791193   -9.6240694    183.41505 0.0078302191  0.005943773         3653 
 1953000   0.47014799   -9.6290532    183.67635 0.0078373593 0.0059382797         3641 
 1954000   0.47598263   -9.6273669    183.14502 0.0078106881 0.0059327881         3652 
 1955000   0.46740598   -9.6375455    183.50411 0.0078219994 0.0059273013         3638 
 1956000   0.46447738   -9.6519581     183.4302 0.0078148517 0.0059218215         3664 
 1957000   0.46861764   -9.6492451    183.63116 0.0078194158 0.0059163514         3654 
 1958000   0.46684702   -9.6350908    183.50327 0.0078099793 0.0059108913         3648 
 1959000   0.47771984   -9.6419796    183.37344 0.0078004697 0.0059054362         3650 
 1960000   0.47520509   -9.6446578    183.65816 0.0078085953  0.005899986         3636 
 1961000   0.46456479   -9.6246616    183.63325 0.0078035546 0.0058945425         3633 
 1962000   0.46779161   -9.6330028    183.52086 0.0077948036 0.0058891039         3649 
 1963000   0.46052287   -9.6331413    183.34904 0.0077835387 0.0058836725         3665 
 1964000   0.47022634   -9.6430906    183.71436 0.0077950764 0.0058782521         3633 
 1965000   0.46540088   -9.6355214    183.61382 0.0077868455 0.0058728402         3638 
 1966000   0.46497046   -9.6413199    183.30182 0.0077696602 0.0058674312         3628 
 1967000   0.47210828   -9.6237573    183.73317 0.0077839847 0.0058620307         3649 
 1968000   0.47570973    -9.657525    183.51784 0.0077709111 0.0058566373         3634 
 1969000   0.46726394   -9.6384457    183.37676 0.0077609936  0.005851249         3653 
 1970000   0.47401582   -9.6468928    183.41195 0.0077585427 0.0058458678         3659 
 1971000   0.46511052   -9.6360823    183.69355 0.0077665123 0.0058404929         3656 
 1972000   0.46659908   -9.6384417    183.49492 0.0077541801  0.005835126         3631 
 1973000   0.46465994   -9.6313882    183.01822 0.0077301157 0.0058297619         3676 
 1974000   0.46005679   -9.6489517    183.34617 0.0077400443 0.0058244085         3663 
 1975000    0.4675091   -9.6519871    183.53195 0.0077439641 0.0058190646         3655 
 1976000   0.45793196   -9.6509325    183.44635  0.007736435 0.0058137227         3634 
 1977000   0.45968861   -9.6356227    183.26007 0.0077246701 0.0058083894         3613 
 1978000   0.47380664    -9.653798    183.84775 0.0077455237 0.0058030641         3638 
 1979000   0.46649931   -9.6477704     183.4724 0.0077258042 0.0057977447         3647 
 1980000   0.46436889   -9.6437296      183.272  0.007713468 0.0057924264         3636 
 1981000   0.45432761   -9.6579631      183.501 0.0077192074  0.005787118         3672 
 1982000   0.46095449   -9.6582554    183.57059 0.0077182387 0.0057818201         3657 
 1983000   0.45674048   -9.6374222    183.23809 0.0077003736 0.0057765276         3680 
 1984000   0.46579812   -9.6529518    183.19429 0.0076946526 0.0057712401         3656 
 1985000   0.46390843   -9.6586592    183.37123 0.0076982045 0.0057659569         3644 
 1986000    0.4654965   -9.6571502    183.30912  0.007691722 0.0057606839         3645 
 1987000   0.46293977   -9.6451975    183.23651  0.007684806 0.0057554153         3670 
 1988000   0.45424431   -9.6495666    183.51776 0.0076927298 0.0057501507         3640 
 1989000   0.46156946   -9.6680858    183.15012 0.0076734589 0.0057448949         3651 
 1990000   0.45362096   -9.6547427    183.42675 0.0076811871 0.0057396457         3661 
 1991000   0.45597784   -9.6714592    183.42459  0.007677239 0.0057344015         3671 
 1992000   0.45973081   -9.6442312    183.40256 0.0076724634 0.0057291625         3638 
 1993000   0.45699364   -9.6491747    183.52012 0.0076735291 0.0057239332         3659 
 1994000   0.45116025   -9.6641569    183.23002 0.0076575568   0.00571871         3656 
 1995000   0.46334787   -9.6605663     183.1611 0.0076508394 0.0057134969         3657 
 1996000     0.463626   -9.6537411    183.34302 0.0076546015 0.0057082849         3652 
 1997000   0.46422903    -9.653123    183.31089 0.0076494278 0.0057030859         3645 
 1998000   0.45068383   -9.6622256    183.01525 0.0076332689   0.00569789         3668 
 1999000   0.45804148   -9.6493996    183.34248 0.0076430916 0.0056926994         3682 
 2000000    0.4459745   -9.6567582    183.30214 0.0076375893 0.0056875133         3610 
 2001000   0.44467205   -9.6631577    183.10891 0.0076257253   0.00568233         3625 
 2002000   0.44898013   -9.6639472    183.52252 0.0076391325 0.0056771566         3680 
 2003000   0.44449756   -9.6571604    183.20953  0.007622297 0.0056719916         3644 
 2004000   0.45926532   -9.6563745    183.34378  0.007624076 0.0056668312         3678 
 2005000   0.45410921   -9.6599964    183.30396 0.0076186183 0.0056616775         3662 
 2006000   0.45415339   -9.6589074    183.30842 0.0076150056 0.0056565315         3653 
 2007000   0.44968963   -9.6497391    183.41015 0.0076154356 0.0056513917         3649 
 2008000   0.44817139   -9.6619268    183.21637 0.0076036011 0.0056462597         3675 
 2009000   0.44936461   -9.6760156    183.03368 0.0075922383  0.005641132         3652 
 2010000    0.4491521   -9.6638315    183.47971 0.0076069532 0.0056360125         3626 
 2011000   0.45654095   -9.6688005    183.18441 0.0075909336 0.0056308937         3660 
 2012000    0.4546087   -9.6780895    182.89942 0.0075753572 0.0056257832         3665 
Loop time of 5216.56 on 48 procs for 2000000 steps with 4000 atoms

Performance: 66250.555 tau/day, 383.394 timesteps/s
99.4% CPU use with 48 MPI tasks x no OpenMP threads

MPI task timing breakdown:
Section |  min time  |  avg time  |  max time  |%varavg| %total
---------------------------------------------------------------
Pair    | 361.58     | 411.18     | 462.4      | 107.1 |  7.88
Neigh   | 35.552     | 37.573     | 39.949     |  16.2 |  0.72
Comm    | 320.69     | 376.98     | 420.93     | 115.0 |  7.23
Output  | 5.9615     | 5.9638     | 6.0139     |   0.3 |  0.11
Modify  | 4317.3     | 4335.8     | 4352.9     |  14.1 | 83.12
Other   |            | 49.06      |            |       |  0.94

Nlocal:        83.3333 ave          88 max          78 min
Histogram: 1 2 5 6 4 4 12 3 5 6
Nghost:        2404.79 ave        2435 max        2388 min
Histogram: 6 11 5 9 5 4 3 2 2 1
Neighs:        16575.5 ave       19118 max       14559 min
Histogram: 5 8 4 5 5 6 5 4 4 2
FullNghs:      33151.6 ave       35452 max       30506 min
Histogram: 3 4 3 8 3 6 6 5 6 4

Total # of neighbors = 1591276
Ave neighs/atom = 397.81900
Neighbor list builds = 106399
Dangerous builds = 1

#clear
#
#next RN
#
#jump SELF
Total wall time: 1:27:00
