
units lj                  # Use reduced LJ style units
atom_style atomic         # Uncharged point particles
atom_modify map hash      # Needed for indexing of clusters etc
                          # Used to be able to find where atoms are in relation to each other.

lattice fcc 1.0 spacing 1 1 1
Lattice spacing in x,y,z = 1.5874011 1.5874011 1.5874011
region box block 0 10 0 10 0 10 units lattice
create_box 2 box
Created orthogonal box = (0.0000000 0.0000000 0.0000000) to (15.874011 15.874011 15.874011)
  3 by 4 by 4 MPI processor grid
create_atoms 1 box
Created 4000 atoms
  using lattice units in orthogonal box = (0.0000000 0.0000000 0.0000000) to (15.874011 15.874011 15.874011)
  create_atoms CPU = 0.003 seconds
set type 1 type/fraction 2 0.9 78393
Setting atom values ...
  3586 settings made for type/fraction
mass 1 1.0
mass 2 1.0
pair_style lj/cut  3.5
pair_modify tail  yes
pair_coeff 1  1  1.0  1.0   # Intearaction between 1 and 1 set with epsilon = 1 and sigma = 1
pair_coeff 1  2  1.5  0.8
pair_coeff 2  2  0.5  0.88

write_data data.0
System init for write_data ...
Neighbor list info ...
  update every 1 steps, delay 10 steps, check yes
  max neighbors/atom: 2000, page size: 100000
  master list distance cutoff = 3.8
  ghost atom cutoff = 3.8
  binsize = 1.9, bins = 9 9 9
  1 neighbor lists, perpetual/occasional/extra = 1 0 0
  (1) pair lj/cut, perpetual
      attributes: half, newton on
      pair build: half/bin/atomonly/newton
      stencil: half/bin/3d
      bin: standard
WARNING: Not all mixed pair coeffs generated from mixing. Use write_data with 'pair ij' option to store all pair coeffs. (../write_data.cpp:312)


#############################
#   M E L T   S Y S T E M   #
#############################

velocity all create 2.4 8172548 mom yes dist gaussian # Assign velocities
                                                    # Temperature 2.4, random number seed, zero linear momentum
                                                                                # Gaussian distribution

timestep 0.002   # simulation timestep
thermo 1000       # output thermodynamic data every 1000 steps bf 100

# Define a fix  in this case with index 1 applied to all
# particles in the simulation. This fix is for simulations
# in the anisotropic NPT ensemble. Note that we use the MTK
# correction.
fix 1 all npt temp 2.4 2.4 0.1 iso 5.68 5.68 0.5 mtk yes tchain 5 pchain 5 # Use NPT ensemble
                                                                         # Set temperature and pressure and damping
                                                                         # Numbers of thermostats in chain and in barostat
run 10000          # run for 10000 steps
Per MPI rank memory allocation (min/avg/max) = 3.642 | 3.644 | 3.648 Mbytes
Step Temp E_pair E_mol TotEng Press Volume 
       0          2.4   -3.1995671            0   0.39953293    -2.596694         4000 
    1000    2.4082253   -2.2591476            0    1.3522873    5.6519098    3983.3089 
    2000    2.3827798   -2.2408782            0    1.3323979    5.5688526    4014.8803 
    3000    2.3511153   -2.2287133            0     1.297078    5.6841074    4014.0292 
    4000    2.3706765    -2.254415            0    1.3007108    5.7049148    3997.3058 
    5000    2.4155662   -2.2634069            0    1.3590365    5.9443746    3940.9034 
    6000    2.3876884   -2.2485788            0    1.3320585    5.8190436    3969.7773 
    7000    2.3640342    -2.246824            0    1.2983407    5.5685954    4018.2169 
    8000    2.3906451   -2.2817957            0    1.3032754    5.5922646    3983.0991 
    9000    2.4127081   -2.2260619            0    1.3920955    5.8941388    3985.2089 
   10000    2.3956436   -2.2354469            0    1.3571201    5.7606609    3997.6228 
Loop time of 2.44758 on 48 procs for 10000 steps with 4000 atoms

Performance: 706004.347 tau/day, 4085.673 timesteps/s
99.6% CPU use with 48 MPI tasks x no OpenMP threads

MPI task timing breakdown:
Section |  min time  |  avg time  |  max time  |%varavg| %total
---------------------------------------------------------------
Pair    | 1.0865     | 1.1542     | 1.2336     |   2.8 | 47.16
Neigh   | 0.20472    | 0.21449    | 0.22559    |   0.9 |  8.76
Comm    | 0.77298    | 0.83084    | 0.90305    |   3.3 | 33.95
Output  | 0.00024238 | 0.00024705 | 0.00031178 |   0.0 |  0.01
Modify  | 0.20064    | 0.23275    | 0.26119    |   3.1 |  9.51
Other   |            | 0.015      |            |       |  0.61

Nlocal:        83.3333 ave          92 max          70 min
Histogram: 1 2 1 3 3 12 10 7 6 3
Nghost:        1643.79 ave        1677 max        1616 min
Histogram: 4 6 6 4 9 6 3 4 3 3
Neighs:        9547.75 ave       10584 max        7431 min
Histogram: 1 1 1 0 4 5 14 10 8 4

Total # of neighbors = 458292
Ave neighs/atom = 114.57300
Neighbor list builds = 907
Dangerous builds = 201

# Equilibrate just above the melting temperature to avoid step fn in T

fix 1 all npt temp 1.25 1.25 0.1 iso 5.68 5.68 0.5 mtk yes tchain 5 pchain 5
run 2000
Per MPI rank memory allocation (min/avg/max) = 3.643 | 3.645 | 3.649 Mbytes
Step Temp E_pair E_mol TotEng Press Volume 
   10000    2.3956436   -2.2354469            0    1.3571201    5.7606609    3997.6228 
   11000    1.2558454   -3.3543879            0   -1.4710909    5.5666297    3106.2502 
   12000    1.2460166   -3.3500535            0   -1.4814958    5.8426292    3088.2417 
Loop time of 0.59968 on 48 procs for 2000 steps with 4000 atoms

Performance: 576307.123 tau/day, 3335.111 timesteps/s
99.6% CPU use with 48 MPI tasks x no OpenMP threads

MPI task timing breakdown:
Section |  min time  |  avg time  |  max time  |%varavg| %total
---------------------------------------------------------------
Pair    | 0.26571    | 0.29198    | 0.3143     |   2.2 | 48.69
Neigh   | 0.038167   | 0.041276   | 0.044407   |   0.7 |  6.88
Comm    | 0.19324    | 0.21747    | 0.24696    |   2.9 | 36.26
Output  | 5.1059e-05 | 5.2096e-05 | 6.7642e-05 |   0.0 |  0.01
Modify  | 0.041023   | 0.044089   | 0.046765   |   0.9 |  7.35
Other   |            | 0.004808   |            |       |  0.80

Nlocal:        83.3333 ave          91 max          74 min
Histogram: 1 1 4 2 9 16 2 8 4 1
Nghost:        1955.27 ave        1978 max        1936 min
Histogram: 2 2 10 7 9 4 6 5 0 3
Neighs:        12356.8 ave       13618 max       10512 min
Histogram: 2 0 2 1 7 14 7 8 5 2

Total # of neighbors = 593128
Ave neighs/atom = 148.28200
Neighbor list builds = 143
Dangerous builds = 15

#############################
# L I N E A R  Q U E N C H  #
#############################

# Define solid atoms. This closely follows ten Wolde  Ruiz-Montero and Frenkel  Faraday Discuss  1996  104  93-110
# Compute components of the per-atom q6 vector
compute q6 all orientorder/atom degrees 1 6 components 6 nnn NULL cutoff 1.3 # compute the Q6 parameter.
                                                                             # Use all neighbours within 1.3 unit cell.

# get number of connections
compute coord_number all coord/atom orientorder q6 0.5

# An atom is solid if it has 8 or more connections (of a possible 14)
variable is_solid atom c_coord_number>=8
group solid dynamic all var is_solid    # Must be dynamic to update
dynamic group solid defined

# do clustering
compute cluster solid cluster/atom 1.3 # Create a cluster where all atoms within are solid and max 1.3 units from another member

# define chunks one chunk per cluster
compute clus_chunks solid chunk/atom c_cluster nchunk every compress yes  # Says which atoms are in which chunk

# count the size of each chunk
compute size_chunks solid property/chunk clus_chunks count


# Find the maximum entry in the vector of chunk sizes
variable max_n equal max(c_size_chunks)


# Thermo style which includes this variable
# thermo_style custom step temp pe vol v_max_n

thermo ${N}  # Print the thermo information every 100 steps
thermo 1000  

# Reset the npt fix at a lower temperature (below freezing)
fix 1  all npt temp  ${temp} ${temp}  0.1  iso  5.68  5.68  0.5  mtk yes tchain  5  pchain  5
fix 1  all npt temp  0.45 ${temp}  0.1  iso  5.68  5.68  0.5  mtk yes tchain  5  pchain  5
fix 1  all npt temp  0.45 0.45  0.1  iso  5.68  5.68  0.5  mtk yes tchain  5  pchain  5

dump dmp2 all dcd ${N} traj.dcd
dump dmp2 all dcd 1000 traj.dcd


compute msd all msd com yes
variable twopoint equal c_msd[4]/6/(step*dt+1.0e-6)
fix 9 all vector 10 c_msd[4]
variable fit equal slope(f_9)/6/(10*dt)
thermo_style custom step temp pe c_msd[4] v_twopoint v_fit v_max_n

fix 1 all npt temp 1.25 ${temp} 0.1 iso 5.68 5.68 0.5 mtk yes tchain 5 pchain 5
fix 1 all npt temp 1.25 0.45 0.1 iso 5.68 5.68 0.5 mtk yes tchain 5 pchain 5
run 5000000 # 5000000  # Run for this many steps
Neighbor list info ...
  update every 1 steps, delay 10 steps, check yes
  max neighbors/atom: 2000, page size: 100000
  master list distance cutoff = 3.8
  ghost atom cutoff = 3.8
  binsize = 1.9, bins = 8 8 8
  4 neighbor lists, perpetual/occasional/extra = 1 3 0
  (1) pair lj/cut, perpetual
      attributes: half, newton on
      pair build: half/bin/atomonly/newton
      stencil: half/bin/3d
      bin: standard
  (2) compute orientorder/atom, occasional
      attributes: full, newton on
      pair build: full/bin/atomonly
      stencil: full/bin/3d
      bin: standard
  (3) compute coord/atom, occasional
      attributes: full, newton on
      pair build: full/bin/atomonly
      stencil: full/bin/3d
      bin: standard
  (4) compute cluster/atom, occasional
      attributes: full, newton on
      pair build: full/bin/atomonly
      stencil: full/bin/3d
      bin: standard
Per MPI rank memory allocation (min/avg/max) = 9.825 | 9.829 | 9.834 Mbytes
Step Temp PotEng c_msd[4] v_twopoint v_fit v_max_n 
   12000    1.2460166   -3.3500535 8.4684218e-31 5.8808482e-33 8.3333333e+20            2 
   13000    1.2615801   -3.3602566   0.99239267 0.0063614912  0.083785092            2 
   14000    1.2576906   -3.3872264    2.0476493  0.012188388  0.085829437            3 
   15000    1.2631848   -3.3716195    3.0913194  0.017173996   0.08644393            1 
   16000    1.2518383   -3.3455637    4.2006379  0.021878322  0.087797804            2 
   17000    1.2592126   -3.3835139    5.2164441  0.025570804  0.088220601            1 
   18000    1.2335321   -3.3326847    6.2124002  0.028761111  0.087573181            2 
   19000    1.2582111   -3.3296581    7.3478396  0.032227366  0.087180601            1 
   20000    1.2513779   -3.3632029     8.314072  0.034641966  0.087134888            1 
   21000     1.239909   -3.3790664      9.32181  0.036991309  0.087028137            3 
   22000    1.2394969   -3.3667499    10.344282  0.039182884  0.086804845            2 
   23000    1.2797788   -3.3582793     11.29472  0.040922899  0.086581019       -1e+20 
   24000    1.2257644   -3.3235989    12.530949   0.04351024  0.086526816            2 
   25000    1.2553502   -3.3514786    13.714574  0.045715244  0.086994794            2 
   26000    1.2487675   -3.3623669    14.917535  0.047812612  0.087653242            1 
   27000    1.2575765   -3.3219543    15.964263  0.049272415  0.088223962            2 
   28000    1.2423382    -3.407724    17.117765  0.050945729  0.088648769            2 
   29000    1.2427237   -3.3543714    18.281756  0.052533781  0.089189081            1 
   30000    1.2593964   -3.3490952    19.258366  0.053495461  0.089523954            1 
   31000    1.2341714   -3.3359387    20.359856  0.054730794  0.089639533            5 
   32000    1.2567744   -3.3654545    21.377165  0.055669698  0.089721339            1 
   33000    1.2549146   -3.3851056    22.424724  0.056628091  0.089799504            2 
   34000    1.2657846   -3.3595299    23.411075  0.057380086  0.089787319            1 
   35000    1.2650296   -3.3813873     24.63144  0.058646284  0.089786225            2 
   36000    1.2433137   -3.4086347    25.561696  0.059170592  0.089735376            2 
   37000    1.2436443   -3.3700061    26.544334  0.059784536  0.089613388            2 
   38000    1.2166281   -3.3643073    27.535699  0.060385303  0.089477913            3 
   39000    1.2610453   -3.3517127    28.928945  0.061813985  0.089444355            3 
   40000    1.2329526   -3.3482913    29.947709  0.062391059  0.089465749            2 
   41000    1.2374668   -3.3669449    30.935076   0.06287617  0.089480118            1 
   42000    1.2619038   -3.3706155    31.817936  0.063130826  0.089423258            3 
   43000    1.2395622   -3.3947567    32.839493  0.063642428   0.08931483            3 
   44000    1.2461275    -3.345746    34.230308  0.064830127  0.089275244            1 
   45000    1.2741122   -3.3412827    35.398961  0.065553631  0.089307759            1 
   46000    1.2809698   -3.3615451    36.484472  0.066095058  0.089417427            3 
   47000    1.2414743   -3.3668573    37.822849  0.067061788    0.0895741            3 
   48000    1.2152071   -3.3757644    38.776495  0.067320302  0.089750918            3 
   49000    1.2366179   -3.3474947    39.830575  0.067739073  0.089849596            1 
   50000    1.2278655   -3.3687827    40.908032  0.068180053  0.089899697            2 
   51000    1.2415442   -3.3619138    42.114475  0.068814501  0.089971894            2 
   52000    1.2133023   -3.3533394    43.232668  0.069283121  0.090075119            4 
   53000    1.2241716   -3.3593501    44.618524  0.070154911  0.090206449            3 
   54000     1.224331   -3.3623422     45.66529  0.070471125  0.090316943            2 
   55000    1.2276516   -3.3507678    46.904658  0.071067664  0.090417686            3 
   56000    1.2265062    -3.384233    47.768344  0.071083845  0.090550952            2 
   57000    1.2415361   -3.3628673    48.911274  0.071507709  0.090630236            2 
   58000      1.25067   -3.3650011    49.812868  0.071570212  0.090689511            2 
   59000    1.2535638    -3.383606    50.794413   0.07174352  0.090718942            2 
   60000    1.2180607    -3.354186    52.032448  0.072267288  0.090761948            5 
   61000    1.2363428   -3.3645779    53.285075  0.072793817  0.090799528            2 
   62000     1.211951   -3.3667062     54.38909  0.073103615  0.090817816            2 
   63000    1.2537605   -3.3518753    54.956171  0.072693347  0.090816185            1 
   64000    1.2328718   -3.3416259    56.065506   0.07300196   0.09078357            3 
   65000    1.2456778   -3.4082599    57.266828   0.07341901  0.090778902            2 
   66000    1.2446598   -3.3604142    58.544384  0.073919676  0.090779747            1 
   67000     1.226731    -3.342157    60.208293  0.074885937  0.090814295            2 
   68000    1.2326911   -3.3795334    60.759248  0.074459862  0.090865601            2 
   69000    1.2716047   -3.3580272    62.168749  0.075083029  0.090912293            2 
   70000    1.2517093   -3.3787858    63.511926  0.075609435  0.090985291            2 
   71000    1.2248909   -3.3487537    64.498825  0.075702845  0.091074548            3 
   72000    1.2245709   -3.3739316    66.255275  0.076684345  0.091168923            2 
   73000    1.2358373   -3.3440255    67.069668  0.076563547  0.091268617            2 
   74000    1.2660186   -3.3668962    68.069318  0.076654637  0.091359381            2 
   75000    1.2656399   -3.3745232    69.113357  0.076792619  0.091444545            2 
   76000     1.218255   -3.3809428    69.868677  0.076610391  0.091502928            1 
   77000    1.2178879   -3.3515936    70.509419  0.076308895  0.091507732            2 
   78000     1.225704   -3.4195496      71.8386  0.076750641  0.091514525            4 
   79000    1.1979127    -3.366615    73.301786  0.077322559  0.091504315            1 
   80000    1.2409735   -3.3703059    74.207795  0.077299786  0.091514413            2 
   81000    1.2357972   -3.3928526    74.749531  0.076902809  0.091523249            5 
   82000     1.239212    -3.388838    76.182369  0.077421106  0.091500708            4 
   83000    1.2363745   -3.3571567    76.978205  0.077287354   0.09147508            1 
   84000    1.2266525   -3.3780942    77.884999  0.077266864  0.091434881            1 
   85000    1.2227685   -3.3957716    79.016466  0.077467123  0.091380734            2 
   86000    1.2248737   -3.3587297    80.315525  0.077825121  0.091336319            2 
   87000    1.2379803   -3.3726016    81.218812  0.077795797  0.091306603            2 
   88000    1.2634194   -3.3884927      82.1933  0.077834564  0.091279611            2 
   89000    1.2498099   -3.3633574    83.169009  0.077873604  0.091250427            1 
   90000    1.2237578   -3.3491781    84.352929  0.078104564  0.091213766            1 
   91000    1.2506361   -3.3942077    85.456609  0.078256967  0.091179706            3 
   92000    1.2528681   -3.3904918    85.977536  0.077878202  0.091130539            2 
   93000    1.2314514   -3.3625071    87.240219  0.078172239  0.091067852            2 
   94000    1.2617664   -3.3985292    87.751338  0.077793739  0.090995011            2 
   95000    1.2655151    -3.408207    89.014655   0.07808303  0.090917803            1 
   96000    1.2138403   -3.3834586    89.987325  0.078113997  0.090831419            3 
   97000    1.2543146   -3.3643323    90.382649  0.077648323  0.090757438            4 
   98000    1.2549952   -3.3782662    91.579388  0.077873629  0.090664592            1 
   99000    1.2370719   -3.3902786    92.907802   0.07820522  0.090566435            1 
  100000    1.2250612   -3.3913427    93.276877   0.07773073  0.090472402            2 
  101000    1.2224373   -3.3977032    93.990557  0.077549964  0.090355516            2 
  102000    1.2249886   -3.3644651    95.619044  0.078120133  0.090221598            1 
  103000    1.2474934   -3.3856661    96.128179  0.077773607  0.090093783            1 
  104000    1.2320144    -3.360659    97.451497  0.078086135  0.089982904            4 
  105000    1.2286462   -3.3599067    98.273252  0.077994644  0.089867945            2 
  106000    1.2601911   -3.3406898    99.534715  0.078250562  0.089758379            1 
  107000    1.2159106   -3.3752086    100.33491  0.078142456  0.089655231            3 
  108000    1.2350447   -3.3651604    101.16662  0.078060662  0.089542197            1 
  109000    1.2486823   -3.3799968    102.31462  0.078222189  0.089431875            2 
  110000    1.2427644   -3.3634538     103.1935  0.078176896  0.089313808            1 
  111000    1.2294518   -3.3615671    103.67562   0.07783455  0.089199278            2 
  112000     1.237315   -3.3644495     105.0395  0.078154389  0.089086552            3 
  113000    1.2504388   -3.3696498    106.09925  0.078244284  0.088978791            2 
  114000    1.2437034   -3.3929048    107.70265  0.078730007  0.088880507            1 
  115000    1.2493558   -3.3746008    108.03456  0.078285914  0.088791591            2 
  116000    1.2347927   -3.3963607    108.97372  0.078285715  0.088692488            2 
  117000    1.2052823   -3.3602614    110.00124   0.07834846  0.088583567            2 
  118000    1.2257687   -3.3744023    111.42452  0.078689636  0.088499825            2 
  119000     1.230156   -3.3823684    111.98685  0.078422163  0.088422882            3 
  120000    1.2414628   -3.3853745    113.74936  0.078992613   0.08835036            3 
  121000    1.2445105   -3.4009732    114.68232  0.078982316  0.088278696            1 
  122000    1.2073172   -3.3511441    115.65266  0.078997717  0.088219595            1 
  123000    1.2271806    -3.366564    116.91035  0.079207555  0.088173866            2 
  124000     1.234667   -3.3575013    118.67869  0.079757183   0.08814662            1 
  125000    1.2292651    -3.381768    119.07101  0.079380672  0.088118958            2 
  126000    1.2292342   -3.3553107    120.63081  0.079782282  0.088090033            2 
  127000    1.2389437   -3.3722391     121.3431  0.079621456  0.088056647            3 
  128000    1.2082883   -3.3565698    121.77593  0.079281207   0.08801867            1 
  129000    1.2188537   -3.3847645    123.25204  0.079620179  0.087972277            2 
  130000    1.2180594   -3.3810227    124.23591  0.079638401   0.08793666            1 
  131000    1.2303768   -3.3800391    125.57043  0.079879411  0.087910717            1 
  132000    1.2126754   -3.4099088    125.72104  0.079369345  0.087875466            3 
  133000    1.2352662   -3.3761883    127.57331  0.079933153  0.087832815            1 
  134000    1.2390576   -3.3929149    128.34323  0.079815441  0.087802306            2 
  135000    1.2412539   -3.3912102    129.04776   0.07965911  0.087766197            1 
  136000    1.2289782   -3.3754717    130.33565  0.079862532  0.087720294            2 
  137000     1.225177   -3.3488377    131.29442  0.079862784  0.087674663            1 
  138000     1.252142   -3.3704802    131.90213  0.079651045  0.087623582            7 
  139000    1.2329252   -3.3939475    132.99361  0.079732382  0.087578511            1 
  140000    1.2242922   -3.3661833    134.30374  0.079942701  0.087540012            2 
  141000    1.2296062   -3.3859135    134.54119  0.079516071  0.087500722            1 
  142000     1.247578   -3.3407346    136.53662  0.080127125   0.08746007            1 
  143000     1.269779   -3.3824737    136.90508  0.079781516  0.087424284            4 
  144000    1.2106764   -3.3898824    137.41372  0.079521827     0.087386            2 
  145000    1.2405667   -3.4109107    139.24729  0.080027178  0.087353794            4 
  146000    1.2234417   -3.3866203    140.38431  0.080128033   0.08732982            1 
  147000    1.2603817   -3.3801072    141.90421   0.08044456  0.087312605            2 
  148000    1.2127113   -3.3618044    143.25938  0.080664066  0.087303195            1 
  149000    1.2300133   -3.4065863    143.34811  0.080172322   0.08728912            2 
  150000    1.1885793   -3.3631625    145.48784  0.080826579  0.087271345            3 
  151000    1.2129529   -3.3747223    146.96107  0.081104344  0.087270391            2 
  152000    1.2266036   -3.3861228    147.42662  0.080825999  0.087270181            2 
  153000    1.2147898   -3.3541103    148.12745  0.080679439   0.08726477            3 
  154000    1.2334321   -3.4003629    149.00057  0.080628015  0.087246277            2 
  155000    1.2382933   -3.3861791     150.2362  0.080772149  0.087227492            2 
  156000     1.236653   -3.3568869    151.23008    0.0807853  0.087213329            1 
  157000    1.2219815   -3.3904023    151.06478  0.080183006  0.087191472            1 
  158000    1.2542883   -3.3850297    153.70181  0.081066356  0.087173877            1 
  159000    1.2174267   -3.3731182    154.25155  0.080844626  0.087158136            1 
  160000    1.2355183   -3.3891361    154.61321  0.080527713  0.087138034            1 
  161000    1.2286313   -3.3891009    155.67058  0.080574834  0.087116037            1 
  162000    1.2157931   -3.3631629    157.08733   0.08080624  0.087091001            1 
  163000    1.2151824   -3.4022393    158.27089  0.080915589  0.087068339            1 
  164000    1.2608672   -3.3834743    158.82463  0.080703574   0.08705006            2 
  165000    1.2181562   -3.3994961    159.50784  0.080559516  0.087038133            3 
  166000    1.2318146   -3.3799908    161.27312    0.0809604  0.087026477            2 
  167000    1.2168765   -3.4048824    162.13674  0.080906559  0.087006819            2 
  168000    1.2228822   -3.3977074    162.29781  0.080504866  0.086985372            2 
  169000    1.2277952    -3.408995    163.02325  0.080386219  0.086950314            2 
  170000    1.2388038   -3.4166883    164.26962  0.080524324  0.086921511            1 
  171000    1.2236731   -3.3738414    165.88394  0.080840125   0.08689075            4 
  172000    1.2538302   -3.3982883    167.42565  0.081117076  0.086872989            3 
  173000    1.1963071   -3.4054211    167.68872  0.080774914  0.086853625            2 
  174000    1.2144424   -3.3915311    169.41683  0.081138329  0.086836334            2 
  175000    1.2393226   -3.4126365    170.30321  0.081096766   0.08682165            2 
  176000    1.2397617   -3.4106087    171.82195  0.081355088  0.086805772            2 
  177000    1.2300804   -3.4094221    172.64284  0.081281941  0.086791338            1 
  178000    1.2475373   -3.3778824    173.97478  0.081448869  0.086778046            1 
  179000    1.2151698   -3.3868392    174.81374  0.081384424  0.086762651            1 
  180000     1.237514   -3.3829016    174.79561  0.080923894  0.086748292            2 
  181000    1.2193671   -3.3712264    176.72437   0.08136481   0.08673081            2 
  182000    1.2383651   -3.3939039    176.79645  0.080950757  0.086710774            1 
  183000    1.2304825   -3.4060023     177.0366  0.080617761  0.086683797            2 
  184000    1.2475513   -3.3856397    178.26029  0.080733825  0.086653874            3 
  185000    1.1987133   -3.4146071    179.35876  0.080792233  0.086617579            1 
  186000    1.2123736   -3.3999688    179.80961  0.080559859  0.086583974            3 
  187000    1.2319622   -3.4127318    180.48239  0.080428874     0.086549            3 
  188000     1.219858   -3.4000174    182.78008  0.081019539  0.086512714            2 
  189000    1.2234464   -3.4025069    182.99957  0.080687642  0.086472735            4 
  190000    1.2177627   -3.3946752    183.81567  0.080620906  0.086437164            2 
  191000    1.2349018   -3.3875229    185.98285  0.081144349  0.086405691            1 
  192000    1.2391541   -3.4162666    185.13262  0.080352697  0.086377251            1 
  193000    1.2500698    -3.402921    187.22276  0.080838842  0.086342341            3 
  194000    1.1930633   -3.3958017    187.80253  0.080671188  0.086311186            1 
  195000    1.2130621   -3.3875666    189.78115  0.081103057  0.086278624            1 
  196000    1.2156125    -3.400729     189.8612  0.080723301  0.086252092            1 
  197000    1.2128973    -3.423521    190.57357  0.080614879  0.086224535            2 
  198000    1.2279718   -3.4076227    192.35049  0.080955595  0.086204324            2 
  199000    1.2229845   -3.4107513    193.77257  0.081144292  0.086178411            4 
  200000    1.2224809    -3.376584    193.99093  0.080829552  0.086147606            1 
  201000    1.2139301   -3.3953393     195.3178   0.08097753  0.086123884            2 
  202000    1.2290651   -3.3687532     197.0749  0.081301527  0.086101619            1 
  203000    1.2054194   -3.3719828    198.30018  0.081404013  0.086080636            1 
  204000    1.2216085   -3.3738041    198.55105  0.081107454  0.086061404            3 
  205000    1.2442152   -3.3813681    200.04272  0.081318178  0.086042602            3 
  206000    1.2102597   -3.3896201    201.26278  0.081416982   0.08602589            2 
  207000    1.2211653   -3.3880063    201.01888  0.080925473  0.085999859            1 
  208000    1.2435584    -3.398668    202.60738  0.081172829  0.085973456            2 
  209000    1.1963056   -3.3823823    203.62047  0.081188385   0.08595189            3 
  210000     1.210727   -3.4106346    203.94678  0.080931264  0.085928551            3 
  211000     1.206695   -3.3754354    205.42043   0.08112971  0.085903404            2 
  212000     1.242067   -3.4060517    206.31734  0.081099581  0.085872732            1 
  213000    1.1752289   -3.3926251    207.36893  0.081130255  0.085843366            2 
  214000    1.2183054    -3.399224    207.56788  0.080828615  0.085813088            1 
  215000    1.2238017    -3.413559    209.78048  0.081310263  0.085787493            2 
  216000    1.2247697   -3.3905434    210.32798  0.081145054   0.08576277            2 
  217000    1.1866691   -3.3772024    211.64691  0.081277615  0.085739296            1 
  218000    1.2118029   -3.4150054    211.52643  0.080858728  0.085719048            1 
  219000    1.2143033     -3.41964    213.17551  0.081117014  0.085697989            2 
  220000    1.2239831   -3.3958162    214.26111  0.081159511  0.085676877            1 
  221000    1.2187393   -3.3897653    216.09746  0.081484713  0.085657097            2 
  222000    1.2271104   -3.3730733     215.9891   0.08107699  0.085636636            2 
  223000    1.2391781   -3.3830606     218.0256   0.08147444  0.085621534            2 
  224000    1.2131397   -3.3939438    219.20587  0.081549801    0.0856027            1 
  225000    1.2266901    -3.389031    220.54733  0.081684197  0.085581798            2 
  226000    1.2194564   -3.4041349     219.4328    0.0809118  0.085557052            2 
  227000    1.2261545    -3.396868    221.85621  0.081445009  0.085535504            1 
  228000    1.1907816   -3.3994557    222.92796  0.081479519  0.085518126            2 
  229000    1.2076933   -3.4059751    222.49747  0.080967054  0.085496846            2 
  230000    1.2448198   -3.3939484    224.27226  0.081258067  0.085474014            2 
  231000    1.2198216   -3.4428595    224.76528  0.081084156  0.085454836            3 
  232000    1.2317184   -3.4173784    225.90721  0.081144831  0.085439207            2 
  233000    1.1996355   -3.4110899    226.56678  0.081032466  0.085419467            1 
  234000    1.2076293   -3.4035833     227.8543  0.081144693  0.085396077            2 
  235000    1.2252795   -3.3841144    228.43967  0.081006976  0.085371987            1 
  236000    1.2198507   -3.4288551    230.03826  0.081228199  0.085350268            3 
  237000    1.1980159   -3.3853547    230.62937  0.081093308  0.085325602            2 
  238000    1.2066637   -3.3728496    232.27669  0.081329372  0.085305198            2 
  239000    1.2060686   -3.4401463    231.52915  0.080728436  0.085279618            2 
  240000    1.2249717   -3.4432859    233.45933  0.081062267  0.085257332            1 
  241000     1.183015   -3.4245808    233.43609  0.080717872  0.085232373            2 
  242000    1.1945246   -3.4159166    236.04868  0.081283981  0.085210677            2 
  243000    1.2126533   -3.4109735    236.57101  0.081128605  0.085188501            3 
  244000    1.2384964   -3.3926427     237.1303  0.080987125  0.085165779            2 
  245000    1.2328379     -3.39814    239.13185  0.081337363  0.085145093            2 
  246000    1.1912593   -3.3901855    240.32716   0.08141164  0.085124518            1 
  247000    1.2149047   -3.4383024     239.4315  0.080779857   0.08510354            2 
  248000    1.2118622   -3.3930071    242.29834  0.081417451  0.085086518       -1e+20 
  249000    1.2310263   -3.4149925    242.11142  0.081027919  0.085069685            1 
  250000    1.1949604   -3.4049271    243.92123  0.081307077   0.08505253            3 
  251000     1.231558   -3.3608889    245.19958  0.081407564  0.085036876            1 
  252000    1.1867552   -3.3941581    246.69115  0.081577761  0.085023762            2 
  253000    1.1987191      -3.3896    248.01977  0.081692942  0.085013542            1 
  254000    1.1839407   -3.4153425    247.88143  0.081325927  0.085004475            1 
  255000    1.2096666    -3.417593    248.13722  0.081090596  0.084992214            1 
  256000    1.2124053   -3.3994272    250.69333  0.081605902  0.084982134            2 
  257000    1.1985114   -3.4211124    251.82675  0.081655885  0.084972174            1 
  258000    1.2053335   -3.3661529     252.5699  0.081579426  0.084964664            4 
  259000    1.2404577   -3.3930839    253.74783  0.081643446  0.084956345            1 
  260000    1.1868697   -3.3810115    255.71099  0.081958652  0.084945551            2 
  261000    1.1813131   -3.4369724    255.22604  0.081489796  0.084935613            2 
  262000    1.1992022   -3.4313988    256.69779   0.08164688  0.084927816            1 
  263000    1.1995724   -3.4256906    257.72849  0.081663021  0.084920812            2 
  264000     1.224479   -3.4038644    258.66579  0.081649555  0.084915067            2 
  265000     1.230683   -3.3944076     259.1158  0.081482957  0.084905481            2 
  266000    1.2081489   -3.4186679    258.69216  0.081043911  0.084892215            2 
  267000    1.2286868   -3.4121752    260.45537  0.081290689  0.084876851            1 
  268000    1.2070364   -3.4028962     262.1788  0.081523259  0.084860239            2 
  269000     1.210887    -3.430343    262.55121  0.081335567  0.084843433            2 
  270000    1.2194932    -3.397275    263.34779   0.08128018  0.084823475            2 
  271000    1.2054305   -3.4106039    263.96404  0.081169755  0.084804885            2 
  272000     1.208608   -3.3911898    263.83901   0.08083303  0.084781631            2 
  273000    1.2042839   -3.4236471    265.48056  0.081038023  0.084758386            2 
  274000    1.2007425   -3.3876699     266.3078  0.080993856  0.084737308            2 
  275000    1.2470493   -3.3986732    267.41794  0.081035739  0.084711987            1 
  276000    1.2067902   -3.4039606    269.01162  0.081223314  0.084684312            1 
  277000    1.2239964   -3.3775399    269.36108  0.081035223  0.084654393            2 
  278000    1.2090668   -3.4006027    268.55965  0.080503493  0.084621295            2 
  279000    1.1894492   -3.4083751    271.52288  0.081100023   0.08459118            3 
  280000    1.1968171   -3.3866121    271.69896  0.080862786  0.084562786            2 
  281000    1.2162699   -3.4169127    273.21319  0.081024078  0.084540054            2 
  282000    1.1999324   -3.4068768     274.4845  0.081112439  0.084518138            2 
  283000    1.2392373   -3.3879221     274.5694  0.080850823  0.084494015            2 
  284000    1.2213934   -3.4194307     276.5074    0.0811348  0.084468123            3 
  285000    1.1972557   -3.3954914    277.43977  0.081122741  0.084444843            2 
  286000    1.2074065   -3.4122481    276.51194  0.080568748   0.08442341            2 
  287000    1.2157166   -3.4075935      278.349  0.080821429  0.084401619            2 
  288000    1.2109266   -3.4158029    280.37234  0.081126255  0.084386033            1 
  289000    1.2144818   -3.4018204    281.13475  0.081065383  0.084368203            2 
  290000    1.1981134   -3.3926366    282.29411  0.081118998  0.084354244            2 
  291000    1.2265029    -3.382431    283.80377  0.081272556   0.08433776            1 
  292000    1.2183135    -3.379796    285.27963   0.08141542  0.084322566            2 
  293000    1.1839839   -3.3915879    285.86227  0.081303261  0.084308622            1 
  294000    1.2489953   -3.4108031    286.36471  0.081169134  0.084294404            2 
  295000    1.2020675   -3.4108562    287.50305  0.081215552  0.084281187            3 
  296000    1.2353343   -3.3973935    286.49871  0.080658421  0.084261044            5 
  297000    1.2018896   -3.3964521    288.82413  0.081039318  0.084244334            1 
  298000    1.1939963   -3.4138856    290.20225  0.081152754  0.084229006            3 
  299000    1.2131843   -3.4414621    289.92114  0.080802993  0.084210611            3 
  300000    1.2201689   -3.4135636    293.00935  0.081391486  0.084191496            3 
  301000    1.2323448   -3.3794941    294.11409  0.081426936  0.084177301            1 
  302000    1.2176653   -3.4234603    293.40077  0.080960477  0.084163443            2 
  303000    1.2064649   -3.4183323    295.07931  0.081154924  0.084149161            3 
  304000    1.2041806   -3.4251898    297.24831  0.081482541  0.084132807            2 
  305000    1.1844462   -3.4258689    297.35321  0.081244047  0.084119677            2 
  306000    1.1933183   -3.4290641    298.43081  0.081272008  0.084107958            2 
  307000    1.2111808   -3.4191404    299.20909  0.081218537  0.084094652            1 
  308000    1.2334629   -3.4398209    300.44609  0.081289527  0.084082294            3 
  309000    1.2123679   -3.4327788    300.78583  0.081118077  0.084069434            2 
  310000    1.2014512    -3.412408    302.81414  0.081401651  0.084057383            3 
  311000    1.1830763   -3.4311105    303.95997  0.081446937  0.084046044            1 
  312000    1.2041453   -3.4265931    305.35036  0.081557254  0.084034601            2 
  313000    1.2257552   -3.4172258    305.33705  0.081293145  0.084024422            1 
  314000    1.2241922   -3.4196269    304.90374  0.080919252  0.084016098            1 
  315000    1.2021886   -3.4348755    307.41661  0.081327145  0.084006981            2 
  316000    1.1917999   -3.4244696    308.18274   0.08127182  0.083998619            1 
  317000    1.1985732   -3.3918588    310.45886   0.08161379  0.083989107            3 
  318000    1.1800649   -3.4012339    312.50016  0.081892075  0.083982168            2 
  319000    1.2123347   -3.4202557    312.38609   0.08160556  0.083978814            1 
  320000    1.2249384   -3.4068451    315.21082   0.08208615  0.083974843            4 
  321000    1.2162731   -3.4180514    313.72573  0.081444892   0.08396813            2 
  322000    1.1877433   -3.4632295     314.4843  0.081388275  0.083961242            3 
  323000    1.2149152   -3.4625635    316.71261  0.081711199  0.083957079            2 
  324000    1.2195792   -3.4158918    318.34791  0.081879605  0.083957299            1 
  325000    1.1985397   -3.3878229    318.11177   0.08156712  0.083956292            2 
  326000    1.2058397   -3.4263885     321.1236   0.08208681  0.083956131            5 
  327000    1.2149499   -3.4295021    320.29137  0.081623693  0.083957804            2 
  328000    1.1897921    -3.388431    321.86006  0.081773389  0.083959086            2 
  329000    1.1926859   -3.4127314    324.26323  0.082133543  0.083959405            2 
  330000    1.2157098   -3.3933227    325.01149   0.08207361   0.08396401            3 
  331000    1.2003581   -3.4103439    324.28278   0.08164219  0.083965559            2 
  332000    1.2015588   -3.4208011    327.60586  0.082230387   0.08396501            3 
  333000    1.2190577   -3.4331324    326.78874  0.081778965  0.083965962            2 
  334000    1.2187675   -3.3936684    328.38837  0.081933225  0.083964208            2 
  335000    1.2166979   -3.4617936    327.50245  0.081468271  0.083962383            3 
  336000    1.2018305   -3.4183702    330.81031  0.082046206  0.083958477            1 
  337000    1.2239737   -3.4447066    329.74668  0.081539732  0.083953115            1 
  338000    1.2161346   -3.4250193    331.45213  0.081718968  0.083947068            1 
  339000    1.1942243   -3.4630151    331.90618  0.081589524  0.083942032            2 
  340000    1.2175206   -3.4505972    333.25769  0.081680806  0.083936459            1 
  341000    1.1892349   -3.4412618    335.98065  0.082106708  0.083932408            4 
  342000    1.2213835   -3.4403852     336.4317  0.081976535  0.083932266            1 
  343000    1.1941459   -3.4033132    336.31265  0.081708612  0.083929607            2 
  344000    1.1616886   -3.4378707    338.47079  0.081993893  0.083926424            4 
  345000    1.1845057   -3.4227598    339.11108  0.081910889   0.08392599            1 
  346000    1.1742696   -3.4083177    339.81847  0.081844526  0.083925327            2 
  347000    1.1765754   -3.4203469    341.74269   0.08207077  0.083924716            3 
  348000    1.1797646   -3.4168318    342.94664  0.082123238  0.083921784            1 
  349000    1.1756122   -3.4131958    342.34861  0.081745132  0.083919938            2 
  350000    1.1750958   -3.4589006    345.30652  0.082215839  0.083917822            2 
  351000    1.1727237   -3.4379546    346.24981  0.082205558   0.08391787            3 
  352000    1.2139442   -3.4079159    346.99845  0.082149253  0.083918013            2 
  353000    1.1673108   -3.4206717    347.45991  0.082025475  0.083917375            2 
  354000    1.2073457   -3.4171665    348.42913  0.082021923  0.083914421            2 
  355000    1.1989395   -3.3839723    349.64789  0.082076968  0.083911072            2 
  356000    1.2311101   -3.4158202    350.90728  0.082141217  0.083911621            1 
  357000    1.1689687   -3.4222978    351.02353  0.081938266  0.083911834            1 
  358000    1.2034813   -3.4450697    351.51981   0.08182491  0.083910862            2 
  359000    1.2035428   -3.4481237    353.19253  0.081985268  0.083908116            2 
  360000    1.2173107   -3.4374254    353.47061    0.0818219  0.083904158            2 
  361000    1.2057609   -3.4027252    355.35197  0.082029541   0.08390334            2 
  362000    1.1842704   -3.4328822    353.99153  0.081489764  0.083899688            2 
  363000    1.1857448   -3.4141051    356.24514   0.08178263  0.083895514            3 
  364000    1.2079937   -3.4453969    358.60256  0.082097655  0.083890646            1 
  365000    1.2034774   -3.4579781     358.1286   0.08176452  0.083889506            2 
  366000    1.1881106   -3.4454847    360.47652   0.08207571  0.083886024            4 
  367000    1.1711857   -3.4178621    361.96885  0.082190928  0.083886805            1 
  368000    1.2070885   -3.4421631    363.00697  0.082202666  0.083885355            3 
  369000    1.2009605    -3.429204    365.88256  0.082629304  0.083885567            2 
  370000    1.1931332   -3.4359591    364.29059  0.082047431  0.083888225            2 
  371000     1.188591   -3.4604831    366.02604  0.082216091  0.083887486            4 
  372000    1.1904904   -3.4345451    366.57307  0.082117622  0.083884452            1 
  373000    1.1817685   -3.4528074    365.74766  0.081713061  0.083882206            2 
  374000    1.2278599   -3.4307154    367.16898  0.081811269  0.083878234            2 
  375000    1.1850088   -3.4471044     368.7051  0.081934466   0.08387398            3 
  376000    1.1892674   -3.4585899    369.32163  0.081853199  0.083870408            2 
  377000    1.1860751    -3.442007    370.02015  0.081790483  0.083867477            1 
  378000    1.1828677   -3.4077927    370.80981  0.081748195  0.083864274            3 
  379000    1.1796643    -3.436599    371.59694  0.081705572  0.083858401            2 
  380000    1.2050223   -3.4528869    371.34721  0.081435792  0.083852225            2 
  381000    1.2231118   -3.4194847    373.28428  0.081645731  0.083848657            2 
  382000    1.1761246    -3.413509    375.41087  0.081895915  0.083844033            2 
  383000    1.1670835   -3.4164539    375.59082  0.081721241  0.083839364            1 
  384000    1.1652511   -3.4070057    378.81525  0.082208171  0.083837053            5 
  385000    1.1794852   -3.4114701    379.90634   0.08223081  0.083836362            3 
  386000    1.1619905   -3.4036655    381.19912  0.082296873  0.083838255            1 
  387000    1.1919926   -3.4101189    383.71041   0.08262498  0.083839964            3 
  388000    1.2143951   -3.4340044    382.66358  0.082187196  0.083839784            1 
  389000    1.1838188   -3.4426582    384.54594  0.082379165  0.083838957            3 
  390000    1.1906556   -3.4135388    383.59425  0.081964583  0.083837619            2 
  391000    1.2094406   -3.4345529    386.55456  0.082385882  0.083834893            3 
  392000    1.1807834   -3.4394461    386.48455  0.082160831  0.083834494            3 
  393000    1.1929618   -3.4277043     386.6988    0.0819972  0.083833864            1 
  394000     1.173164    -3.460303    388.02799  0.082070217  0.083832477            3 
  395000    1.1846243   -3.4598457      385.582  0.081346414   0.08382896            1 
  396000    1.1502052   -3.4529889    389.96816  0.082064006  0.083824944            4 
  397000    1.1755984    -3.452583    388.77786  0.081607444  0.083820906            2 
  398000    1.1881442     -3.45333    389.15674   0.08148173  0.083814422            1 
  399000    1.2204922   -3.4400866    391.47622  0.081761951  0.083806791            2 
  400000     1.181346   -3.4160183    391.71047  0.081606348  0.083801421            2 
  401000    1.1790659   -3.4806335    393.49614  0.081773927  0.083792748            1 
  402000    1.1964749   -3.4174789    393.70506  0.081613818  0.083784695            2 
  403000    1.1813204   -3.4387951    396.05764  0.081897775  0.083778086            1 
  404000    1.1813441   -3.4077324    399.55586  0.082416639  0.083773181            3 
  405000    1.1747141    -3.426372    397.65922  0.081822884  0.083767428            1 
  406000     1.176961   -3.4338699    398.60664  0.081815812  0.083760756            3 
  407000    1.1945122   -3.4564435     395.9852  0.081078051  0.083754316            1 
  408000    1.1842438   -3.4376939    398.82694   0.08145975  0.083747697            1 
  409000    1.2093462   -3.4506897    400.98496  0.081700278  0.083738794            1 
  410000    1.1785973    -3.454041    401.00987  0.081506071  0.083730869            1 
  411000    1.1709923   -3.4220198    402.54383  0.081618781  0.083722749            1 
  412000    1.1885562   -3.4357635    405.74211  0.082067578  0.083716138            3 
  413000    1.1957055   -3.4465135    404.39202  0.081596453  0.083707139            1 
  414000      1.16259   -3.4273309    407.32738  0.081990214  0.083696868            2 
  415000    1.1948485   -3.4784746    404.34163  0.081193097  0.083685329            4 
  416000    1.1612721   -3.4191101    406.44352  0.081418975  0.083675681            2 
  417000     1.202664   -3.4358468    407.50033  0.081434919  0.083664739            2 
  418000    1.1650127   -3.4548761    408.23975   0.08138751  0.083655475            4 
  419000    1.1973893   -3.4311519    409.28723  0.081401597  0.083643823            1 
  420000     1.191186   -3.4028551    410.20127  0.081389142   0.08363362            1 
  421000    1.1885625   -3.4192719    412.72996   0.08169635    0.0836244            1 
  422000    1.1811371   -3.4833175    411.27146  0.081214744  0.083613579            2 
  423000    1.1773999   -3.4447578    414.75215  0.081708462  0.083604764            2 
  424000    1.2047445      -3.4173    415.07253  0.081578721  0.083596438            1 
  425000    1.1952181   -3.4468017    416.25663  0.081618947  0.083588947            2 
  426000    1.1925374   -3.4578297    415.64168  0.081307058  0.083580945            4 
  427000    1.1986687   -3.4493366    417.77388  0.081532762  0.083571347            4 
  428000    1.1805549   -3.4545022    417.38942  0.081267411  0.083559785            4 
  429000    1.1881722   -3.4525679    420.71663  0.081724286  0.083551669            2 
  430000    1.1749628    -3.453802     421.0392  0.081596744  0.083542938            2 
  431000    1.1732789   -3.4442224    420.37537  0.081279073  0.083533772            2 
  432000    1.1720741     -3.45262     422.5724  0.081514737  0.083525062            1 
  433000    1.1992331   -3.4623668    422.81803  0.081373755  0.083515835            1 
  434000    1.1980007   -3.4312875    424.36983  0.081484222  0.083507808            2 
  435000     1.207642     -3.39342    425.54482  0.081521995   0.08349971            3 
  436000    1.1853692   -3.4400409    426.24666  0.081469163  0.083491439            8 
  437000    1.1806305   -3.4603869    428.30609  0.081675456   0.08348662            3 
  438000    1.1900108   -3.4571492    429.12673  0.081645116  0.083478193            1 
  439000    1.1642498   -3.4813955    429.62133  0.081553023  0.083471895            2 
  440000    1.1825526   -3.4390645    430.04854  0.081448586  0.083464867            1 
  441000    1.1672085   -3.4319569     432.8253  0.081788605  0.083457356            2 
  442000    1.1409221   -3.4526381    432.40611   0.08152453   0.08345197            2 
  443000    1.1639406   -3.4294909    433.75742  0.081594699   0.08344532            2 
  444000    1.1844855   -3.4156944    437.07536  0.082033663  0.083439912            3 
  445000    1.1780833   -3.4234637    436.20189  0.081685747  0.083432526            1 
  446000    1.1730085   -3.4423814    439.14633  0.082052753  0.083426293            1 
  447000    1.1617886   -3.4285009    439.37802  0.081912382  0.083417021            2 
  448000    1.1512863   -3.4419307     437.5419  0.081388001   0.08341075            1 
  449000    1.1734307   -3.4596698    440.31505  0.081721428  0.083404315            2 
  450000    1.1712269   -3.4020077    443.44683  0.082119783  0.083398673            4 
  451000    1.1677997   -3.4637903    443.15414  0.081883617  0.083394033            2 
  452000    1.1814624   -3.4535399    443.03485  0.081680467  0.083389639            3 
  453000    1.1700146   -3.4140374     444.3215  0.081736847  0.083384337            2 
  454000    1.1977058   -3.4249538    445.68306  0.081806729  0.083379136            1 
  455000    1.1907264   -3.4406431    444.95493  0.081493578  0.083376078            2 
  456000    1.1967557   -3.4591257    445.17216  0.081354562  0.083372041            3 
  457000    1.1631219   -3.4522199    448.71811  0.081823142  0.083365488            1 
  458000    1.1969281   -3.4263934    449.47129  0.081781529  0.083359673            5 
  459000    1.1926518   -3.4606335    450.23424  0.081741874  0.083356294            2 
  460000    1.2113337   -3.4510917    453.44512  0.082145856  0.083355106            2 
  461000     1.188144   -3.4400023    452.69246  0.081831609   0.08335381            2 
  462000    1.1816068   -3.4888208    452.66035  0.081648692  0.083352138            1 
  463000    1.1635261   -3.4251486    458.59669    0.0825408  0.083350476            2 
  464000    1.1918427   -3.4563919    456.86086  0.082051159  0.083350028            2 
  465000    1.1802343   -3.4460252    457.80091  0.082043173  0.083352303            2 
  466000    1.1487775   -3.4525127      459.572  0.082183833  0.083354364            2 
  467000    1.1700246   -3.4595846    461.19754   0.08229792  0.083355071            3 
  468000    1.1669253   -3.4556797     461.4223   0.08216209  0.083357038            1 
  469000      1.19286    -3.432026     462.2991  0.082142696  0.083357147            1 
  470000    1.1727351   -3.4892024    462.20806  0.081951784  0.083358312            7 
  471000    1.1696928   -3.4655797    464.13715  0.082119098  0.083358506            2 
  472000     1.186383   -3.4702658    465.25345  0.082142205  0.083357068            3 
  473000     1.199499   -3.4553436    465.75832   0.08205749  0.083356844            2 
  474000    1.1768014   -3.4394056    466.19433  0.081961028  0.083354063            2 
  475000    1.1603979   -3.4470799    467.43265  0.082005728  0.083351609            2 
  476000    1.1576556   -3.4955602    466.55146  0.081679178  0.083349814            2 
  477000    1.1793813   -3.4855448    466.46089  0.081492119  0.083347542            2 
  478000    1.1998738   -3.4857444    468.61851  0.081697787  0.083344655            2 
  479000    1.1608431   -3.4718702    470.14752  0.081793235  0.083342007            1 
  480000    1.1712265   -3.4568555    469.46091  0.081503629  0.083338029            3 
  481000    1.1456601   -3.4595168    470.35903  0.081489783  0.083333211            2 
  482000    1.1609897   -3.4451025    472.67015  0.081720289  0.083327437            2 
  483000    1.1757682   -3.4523329    474.41802   0.08185266  0.083322572            2 
  484000    1.1765199   -3.4518804     476.8878   0.08210878  0.083318417            3 
  485000    1.1829897   -3.4568381    476.18116  0.081818069  0.083312702            2 
  486000    1.1886475   -3.4417977    475.83961  0.081591154  0.083306536            1 
  487000    1.1650651   -3.4521506    477.85052  0.081767714  0.083303189            1 
  488000    1.1533785   -3.4554105    476.16997  0.081313178  0.083296201            1 
  489000    1.1898614   -3.4776988    477.66278  0.081401292  0.083288451            2 
  490000    1.1569777    -3.444006    481.71359   0.08192408  0.083280602            3 
  491000     1.172333   -3.4542944    479.08977  0.081311909  0.083272248            1 
  492000    1.1568321   -3.4538029    482.34493  0.081697989  0.083264024            3 
  493000    1.1749675   -3.4311946    483.86639   0.08178945  0.083256159            2 
  494000    1.1591884   -3.4490856    482.88754  0.081458761   0.08324795            1 
  495000    1.2087311   -3.4932002    482.38484  0.081209569  0.083238424            2 
  496000    1.1929235   -3.4739247    485.97921  0.081649733  0.083229344            3 
  497000    1.1767508   -3.4363155    485.55709  0.081414669  0.083222295            1 
  498000     1.175972   -3.4691893    486.74689  0.081450282  0.083216315            2 
  499000    1.1464415   -3.4555588    487.89081  0.081478091  0.083210883            2 
  500000    1.1651182   -3.4574339    489.65552  0.081609253  0.083205476            1 
  501000    1.1526138   -3.4677213    488.99732   0.08133688   0.08319924            1 
  502000    1.1536156   -3.4524921    490.43128  0.081412895  0.083192598            2 
  503000    1.1806156   -3.4556878    493.11722  0.081696026  0.083185178            2 
  504000    1.1548794   -3.4649373    491.16723  0.081211513  0.083176284            1 
  505000    1.1529237    -3.427928     493.7453  0.081476122  0.083168298            2 
  506000      1.15092   -3.4503715    494.27155  0.081401771  0.083160145            3 
  507000    1.1714669   -3.4597347    495.37241  0.081422157    0.0831522            4 
  508000    1.1715864    -3.462636    496.37451  0.081426264  0.083144429            1 
  509000    1.1599947    -3.464027    496.33306  0.081259506  0.083137785            3 
  510000    1.1866432   -3.4220196    500.66319   0.08180771  0.083128869            5 
  511000    1.1731504   -3.4402805    497.80402  0.081181347  0.083118993            3 
  512000    1.1494749   -3.4701714    499.54855  0.081306729  0.083107924            1 
  513000    1.1540728   -3.4482127    499.87774  0.081201712  0.083098329            1 
  514000    1.1423551   -3.4855397    498.49888  0.080820181  0.083089112            2 
  515000    1.1714475   -3.4776243    500.99978  0.081067925  0.083076125            3 
  516000    1.1535183   -3.4870252    505.63564  0.081659503  0.083066001            1 
  517000    1.1731816   -3.4665855    503.57656  0.081169659  0.083055844            4 
  518000    1.1557352   -3.4415786     506.6663  0.081510022  0.083046091            1 
  519000    1.1740411   -3.4988588    504.00205  0.080925185  0.083035869            3 
  520000    1.1439644   -3.4559469    505.65333  0.081034187  0.083025742            2 
  521000    1.1798129   -3.4447763     507.2448  0.081133205  0.083016917            5 
  522000    1.1901924   -3.4742927    508.37921  0.081158877  0.083006587            1 
  523000    1.1540623   -3.4692504    509.18026  0.081131336  0.082994512            1 
  524000    1.1797851   -3.4592207    509.51982  0.081030506  0.082984715            3 
  525000    1.1903586   -3.4544505     510.6444  0.081054667  0.082973697            1 
  526000    1.1873864   -3.4810725    512.01129  0.081117125  0.082962363            4 
  527000    1.1754308   -3.4541612    511.79326  0.080928726  0.082951708            2 
  528000    1.1870448   -3.4987527    515.04823  0.081289177  0.082941322            2 
  529000     1.184502   -3.4754419    514.47727  0.081045569  0.082932107            2 
  530000    1.1776155   -3.4582315    514.76398  0.080937732  0.082922059            1 
  531000    1.1657754   -3.4436062    517.96874  0.081288252  0.082913074            5 
  532000    1.1660606   -3.4800809    518.03994  0.081146608  0.082904328            2 
  533000    1.1496777   -3.4988593    518.23011  0.081024095  0.082894719            1 
  534000    1.1572467   -3.4005893    522.90372  0.081601703  0.082885517            1 
  535000    1.1486374   -3.4424891    519.69811  0.080949861  0.082875058            2 
  536000    1.1660214   -3.4781183    520.66968  0.080949887  0.082863375            2 
  537000    1.1647094   -3.4338018    522.36719  0.081062569  0.082853346            1 
  538000    1.1819865   -3.4685273    522.90322  0.080994923  0.082843391            4 
  539000    1.1943958   -3.4889798    523.64342  0.080959093  0.082832545            5 
  540000     1.199201   -3.4576013    526.17509  0.081199859  0.082821276            2 
  541000    1.1699197    -3.441549    528.32327  0.081380663  0.082811188            1 
  542000    1.1590381   -3.4824928    527.34315   0.08107982  0.082802091            3 
  543000     1.160949   -3.4785723    527.80257  0.081001008  0.082791564            4 
  544000    1.1638394   -3.4883695    527.98695  0.080880354  0.082780362            3 
  545000    1.1539487   -3.4701802    528.09553  0.080748552  0.082768789            2 
  546000     1.170353   -3.4635045    531.71646  0.081153305  0.082758069            2 
  547000    1.1810625   -3.4587315    531.38947  0.080955129  0.082747831            7 
  548000    1.1545756    -3.480468    530.42491  0.080660722  0.082736157            3 
  549000    1.1536741   -3.4820969    532.58095  0.080841066  0.082724453            2 
  550000    1.1663731   -3.4930823    532.35893  0.080660443  0.082712327            1 
  551000    1.1640018   -3.4633218    534.41258  0.080824649  0.082699252            1 
  552000    1.1647961   -3.4817864    534.33109  0.080665925  0.082687077            2 
  553000    1.1605736    -3.497418    536.59056  0.080860542   0.08267596            2 
  554000    1.1849568   -3.4973294    536.86991  0.080756605  0.082664886            3 
  555000    1.1411334   -3.4742724    538.72007  0.080888899  0.082653736            1 
  556000    1.1256613   -3.4609484    539.88364  0.080917812  0.082643554            3 
  557000     1.162367   -3.4782855    541.42376  0.081002956  0.082634367            1 
  558000    1.1563206   -3.4732762    540.33506    0.0806952  0.082623424            4 
  559000    1.1540962   -3.4872494    540.08791  0.080513999  0.082612837            3 
  560000     1.142604   -3.4639416    543.85314  0.080930527  0.082601211            1 
  561000    1.1646039   -3.4402278    544.51181  0.080884107  0.082590427            2 
  562000    1.1619809   -3.4678653    546.95554  0.081102542  0.082578285            2 
  563000     1.181258   -3.4680842     545.4589  0.080736959   0.08256847            2 
  564000    1.1838187   -3.4536817    546.53446  0.080752727  0.082558966            2 
  565000    1.1648901   -3.4704179    546.22416  0.080564035   0.08254777            1 
  566000    1.1634415   -3.4867652    548.66769  0.080781462  0.082537005            2 
  567000    1.1782404   -3.4842311    547.59695   0.08048162  0.082525839            2 
  568000     1.174229   -3.4941893    550.02128   0.08069561  0.082514897            2 
  569000      1.17382   -3.4662517    549.63117  0.080496656  0.082504563            2 
  570000    1.1627902   -3.4789387    551.64206  0.080649424  0.082493492            1 
  571000     1.172381   -3.5085922    550.42951  0.080331218  0.082483468            2 
  572000    1.1379518   -3.4677356    554.05121  0.080718416  0.082473157            4 
  573000    1.1508535   -3.4662293    555.19019  0.080743193  0.082461975            2 
  574000    1.1446613   -3.4638517    553.49257  0.080356064  0.082450461            1 
  575000     1.174641   -3.4601821    555.96819    0.0805751  0.082440588            1 
  576000    1.1299996   -3.4761529    556.19418  0.080467908  0.082429542            3 
  577000    1.1555962    -3.487616    559.38247  0.080788918  0.082419477            2 
  578000    1.1580746   -3.4673486    560.20236  0.080767352  0.082410188            4 
  579000    1.1672509   -3.4603669    560.11819  0.080615743   0.08239955            2 
  580000    1.1789388   -3.4872499    564.11541  0.081051065  0.082390676            1 
  581000    1.1560049   -3.4767704    565.99544  0.081181217  0.082381405            3 
  582000    1.1649393   -3.4997433    562.20213  0.080498587  0.082372343            1 
  583000    1.1705379   -3.4914494    564.40069   0.08067477  0.082361136            3 
  584000     1.173476   -3.5060386    566.49192  0.080835034  0.082350186            3 
  585000     1.135988     -3.45082      568.711  0.081012963  0.082341474            2 
  586000    1.1478189   -3.4828105    568.21845  0.080804671  0.082331295            4 
  587000    1.1686921   -3.4935267    569.91927  0.080908471  0.082322264            2 
  588000    1.1369016   -3.4622384    569.85408  0.080761633  0.082312632            5 
  589000    1.1640092   -3.5150019    569.43044  0.080564578  0.082302734            3 
  590000    1.1526447   -3.4875019    570.51928  0.080581819  0.082294146            2 
  591000    1.1613059    -3.477187    572.09343  0.080667432  0.082284659            3 
  592000    1.1535858   -3.4872361    571.99986  0.080517998  0.082274749            5 
  593000     1.153954   -3.5069604    573.68101  0.080618467  0.082264233            1 
  594000    1.1640593   -3.4501864    573.66398  0.080480357  0.082254388            2 
  595000    1.1594278    -3.489604    577.01025  0.080813761   0.08224443            2 
  596000    1.1725753   -3.4869747    576.49083  0.080605541  0.082234057            1 
  597000    1.1547795   -3.4903299    577.98371   0.08067891  0.082223667            1 
  598000    1.1572952   -3.4835315     578.9511  0.080678804  0.082214454            3 
  599000    1.1426756    -3.477045    580.20565  0.080718649  0.082205334            2 
  600000    1.1849956   -3.5081186    580.08518  0.080567387  0.082196577            3 
  601000    1.1637657   -3.5005527    582.11208  0.080714376  0.082187745            2 
  602000    1.1675161   -3.4921944    582.13046  0.080582843  0.082178027            2 
  603000    1.1548938   -3.5189701    585.36847  0.080896693  0.082169265            2 
  604000    1.1388517   -3.4940479    587.75648   0.08109223  0.082161283            1 
  605000     1.139082   -3.4575841    586.18669  0.080741968  0.082154853            3 
  606000    1.1537745   -3.4666749    587.71322   0.08081865  0.082149066            2 
  607000    1.1642042   -3.4598869    590.60673  0.081082747  0.082142931            4 
  608000    1.1239997   -3.4749935    589.72023  0.080827882  0.082135669            3 
  609000    1.1680273    -3.502736    589.25552  0.080631571  0.082128292            1 
  610000    1.1791623   -3.4871847    589.92802  0.080591259  0.082121252            3 
  611000     1.156975   -3.4641307    593.99477  0.081014016  0.082115707            4 
  612000    1.1317541   -3.4641456    593.53092  0.080818481   0.08211016            3 
  613000    1.1620472   -3.5017805    595.76598  0.080990482  0.082104101            2 
  614000    1.1690182   -3.4831551    596.89748  0.081012145  0.082098145            4 
  615000    1.1372287   -3.4839861    596.72337  0.080856826  0.082093594            3 
  616000    1.1375345   -3.4905497    598.33206   0.08094319  0.082088925            4 
  617000    1.1484824   -3.4701187    604.27153  0.081614199  0.082084834            1 
  618000      1.14082   -3.4668829    602.24044  0.081208258  0.082080589            3 
  619000    1.1338393   -3.4859435    600.74253  0.080875408  0.082076128            2 
  620000    1.1845798    -3.478777    604.70206  0.081277159  0.082071128            3 
  621000    1.1533184   -3.4711163    606.52694  0.081391162  0.082068122            2 
  622000     1.164177   -3.5050741    605.15476  0.081076468  0.082063626            3 
  623000     1.151968    -3.506596     607.2374  0.081224906  0.082059905            1 
  624000    1.1476538   -3.4690512    609.69738  0.081423261  0.082057369            2 
  625000    1.1493675   -3.4663471    611.46623  0.081528831  0.082054103            4 
  626000    1.1621139   -3.4905416    612.04926  0.081476205  0.082051873            2 
  627000    1.1422891   -3.4762868    611.50136  0.081273439  0.082050764            2 
  628000    1.1571431    -3.506429    610.39833  0.080997655  0.082049625            2 
  629000      1.12523   -3.4714973    614.28274  0.081383511  0.082046518            2 
  630000    1.1738696   -3.4743694    614.20117  0.081243541  0.082043533            3 
  631000    1.1519323   -3.4760438    614.71014  0.081182004  0.082039975            1 
  632000    1.1585156   -3.5165934    613.86423  0.080942014  0.082036389            3 
  633000    1.1375074   -3.4894307      616.427  0.081151527  0.082032954            5 
  634000    1.1607787   -3.5348166    616.28628  0.081005032  0.082029775            3 
  635000    1.1738864   -3.4826544    617.99891  0.081102219  0.082026316            1 
  636000    1.1584116   -3.4938011     619.4876  0.081169759  0.082023621            2 
  637000     1.143311   -3.4501853    618.89905  0.080965339  0.082019558            2 
  638000    1.1516975   -3.5150939    618.16308  0.080742305  0.082014559            3 
  639000    1.1463663     -3.51043    621.21153  0.081013502  0.082010694            1 
  640000    1.1518226   -3.4718363    622.78684  0.081092036  0.082005449            5 
  641000    1.1378231   -3.5019073    622.45684  0.080922626  0.082001281            3 
  642000     1.143334   -3.4669129    627.79366  0.081489313  0.081998136            3 
  643000    1.1412749   -3.4754771    626.98405  0.081257653  0.081993417            1 
  644000     1.155758   -3.4728255    624.53342  0.080814365   0.08198926            2 
  645000    1.1094331   -3.4409946    629.84032  0.081374719  0.081985827            1 
  646000    1.1634484   -3.4742566    629.26866  0.081175007  0.081982382            1 
  647000    1.1773277   -3.4916118    628.89748  0.081001736   0.08197771            2 
  648000    1.1691735   -3.4973326    630.08806  0.081029843  0.081972526            1 
  649000    1.1340822   -3.4760903    631.82129  0.081127541  0.081967677            2 
  650000    1.1394454   -3.4861796    633.99998  0.081282049  0.081962713            2 
  651000    1.1567042   -3.4725534    630.51983  0.080711704  0.081956082            2 
  652000     1.196699   -3.5310025    628.69835  0.080355107  0.081949932            3 
  653000    1.1633379   -3.4647801    633.57822  0.080854801  0.081943876            2 
  654000    1.1477328   -3.4834458     633.7715  0.080755797  0.081937375            2 
  655000    1.1198385    -3.513435     635.8929  0.080902405  0.081929675            2 
  656000    1.1793035   -3.5125514    636.44136   0.08084875  0.081922346            6 
  657000    1.1558431   -3.4944088     636.7338  0.080762785  0.081916315            2 
  658000    1.1323123   -3.4865679    638.36775   0.08084698  0.081909071            1 
  659000    1.1487942   -3.4859713    637.38625  0.080600184   0.08190121            3 
  660000    1.1344221   -3.4745517    636.58902  0.080377401  0.081892573            1 
  661000    1.1738843   -3.5045039    636.02187    0.0801843  0.081883935            1 
  662000    1.1337924   -3.4807914    640.66076  0.080647125  0.081874933            2 
  663000    1.1457142   -3.5128546    638.26846  0.080224794  0.081864941            1 
  664000    1.1349734   -3.4634542    640.28965  0.080357637  0.081855482            1 
  665000    1.1337423   -3.5287226    640.44695   0.08025651  0.081846262            2 
  666000    1.1384948   -3.5321236    639.29623   0.07999202  0.081835798            2 
  667000    1.1219915   -3.5204887    642.30924  0.080248531  0.081825481            3 
  668000    1.1617107   -3.4833874    645.22982  0.080492742  0.081815575            1 
  669000    1.1344007   -3.4770586    642.53084  0.080036228  0.081804783            1 
  670000     1.151467   -3.5060209    645.79814  0.080323151  0.081794265            1 
  671000     1.120934   -3.4879003    647.22989  0.080381258  0.081782717            4 
  672000    1.1444189   -3.4950372    647.55027  0.080301372  0.081771345            2 
  673000    1.1565132   -3.4616186    648.88561    0.0803474  0.081759727            2 
  674000    1.1381497   -3.5095527    648.40923  0.080169291  0.081747667            2 
  675000    1.1424275   -3.5001909    647.57701  0.079947779  0.081736871            4 
  676000    1.1498027   -3.4721452    652.92674  0.080488996  0.081724754            2 
  677000    1.1395047   -3.5084305    648.25949  0.079795605  0.081714088            1 
  678000    1.1534461   -3.5050326    653.70163  0.080346808  0.081703358            2 
  679000    1.1535818   -3.4705771    653.95426  0.080259482   0.08169269            2 
  680000    1.1396872   -3.4999411    656.74802  0.080483826  0.081682096            1 
  681000    1.1237546   -3.4875571    655.93652  0.080266339  0.081671582            3 
  682000    1.1208544   -3.5113454    656.77864  0.080251544   0.08166164            1 
  683000    1.1224065   -3.5055931    658.08875  0.080293894  0.081650908            1 
  684000    1.1447179   -3.5040001    661.61698  0.080606357   0.08164272            4 
  685000    1.1475661   -3.5208576    661.87049  0.080519524  0.081634477            4 
  686000    1.1717311    -3.499106    660.86178  0.080279613  0.081626955            2 
  687000    1.1420499    -3.472282    664.41807  0.080594137  0.081618748            2 
  688000    1.1456016   -3.5049932    662.66462  0.080264609   0.08161043            1 
  689000    1.1514775   -3.4663141    667.38215  0.080718693  0.081601213            3 
  690000    1.1465298    -3.505835    665.29991  0.080350231  0.081592761            2 
  691000    1.1558827    -3.479292    662.53579  0.079900602  0.081583718            2 
  692000    1.1368588   -3.5008141    666.23058  0.080230079  0.081574222            2 
  693000    1.1369776   -3.5052543    662.65506   0.07968435  0.081563821            7 
  694000    1.1495443   -3.5011076    668.45053  0.080265434  0.081553654            2 
  695000    1.1376477   -3.5266569     665.7076  0.079821055  0.081543011            1 
  696000    1.1331852    -3.522486    668.02474  0.079983805  0.081531273            2 
  697000    1.1453201   -3.5100989    666.25125  0.079657012  0.081520498            2 
  698000     1.166578   -3.4976807    667.38882  0.079678703  0.081508759            2 
  699000    1.1311007   -3.5023869    669.67996  0.079837859  0.081497776            2 
  700000    1.1174193   -3.4825511    671.85333  0.079982539  0.081487269            1 
  701000    1.1531951   -3.5169051    672.25633  0.079916349   0.08147602            3 
  702000     1.130671   -3.4907052    673.32675  0.079929577  0.081464431            1 
  703000    1.1376551   -3.5002769    676.96265  0.080246876  0.081453228            4 
  704000    1.1539649   -3.5032255     675.4388  0.079952509   0.08144288            2 
  705000    1.1259986   -3.5020677    678.03817  0.080146355  0.081433063            3 
  706000    1.1361547   -3.5239098    676.89067  0.079897387  0.081422514            3 
  707000    1.1597497   -3.4821606    679.03821  0.080037507  0.081413254            2 
  708000    1.1504544   -3.5242585     677.5064  0.079744162  0.081402536            1 
  709000    1.1365633   -3.4988347    678.91973  0.079797806  0.081392896            2 
  710000     1.135675   -3.4916427    683.70755  0.080247365  0.081383908            5 
  711000    1.1394705   -3.5128661    682.25897  0.079964718  0.081374937            3 
  712000     1.154337   -3.5045833    683.68541   0.08001936  0.081364483            1 
  713000    1.1400341   -3.4756302    685.85384  0.080160571  0.081353747            1 
  714000    1.1291835   -3.5188901    682.38225  0.079643119  0.081343612            1 
  715000    1.1619202   -3.5100307    680.56237  0.079319623  0.081332075            2 
  716000    1.1409152   -3.5159932    686.38659  0.079886707  0.081320075            1 
  717000    1.1380413   -3.4938488    689.21461  0.080103976  0.081308433            2 
  718000    1.1319793   -3.5209025    683.66433  0.079348228  0.081297399            2 
  719000    1.1380848   -3.4921775    689.78081  0.079946779  0.081286899            2 
  720000    1.1601422   -3.5203727    688.86943  0.079730258  0.081275738            4 
  721000    1.1223726   -3.4829402    691.18978  0.079887862  0.081265057            3 
  722000    1.1532665   -3.5048549    689.96708   0.07963609  0.081253919            2 
  723000     1.122682   -3.4957439    692.25002  0.079789076  0.081242249            1 
  724000    1.1366417   -3.5204571     691.1148  0.079548204  0.081231562            2 
  725000    1.1408769   -3.5077839    693.13223  0.079670372  0.081220666            3 
  726000    1.1349209   -3.5262854    694.01409  0.079661856  0.081209181            1 
  727000    1.1195834   -3.5259251    694.84306  0.079647302  0.081197681            2 
  728000     1.145854   -3.5699331    694.86772  0.079540719   0.08118577            2 
  729000     1.149892   -3.5426723    694.67663  0.079409765  0.081173705            3 
  730000    1.1372406    -3.506803    693.55744  0.079173223  0.081162642            2 
  731000    1.1241518   -3.5194568    699.79315  0.079775781  0.081151142            3 
  732000    1.1228222   -3.4864903    700.22937  0.079716458  0.081140961            3 
  733000    1.1084504   -3.4850197     704.7591  0.080122681  0.081131037            2 
  734000    1.1548066   -3.5440992    701.47829  0.079641041  0.081121291            1 
  735000    1.1282376   -3.5001706    703.76042  0.079791431  0.081109894            5 
  736000    1.1294785   -3.5284069    702.88793  0.079584231  0.081099188            4 
  737000    1.1088622   -3.4551167    706.81542  0.079920333  0.081088074            3 
  738000    1.1474422   -3.4770687    706.79145  0.079809333  0.081077202            2 
  739000    1.1328413   -3.5116763    704.61918  0.079456381  0.081066876            1 
  740000    1.1194892    -3.525181    705.31481  0.079427343  0.081054763            2 
  741000    1.1394548   -3.5083993    708.21464   0.07964627  0.081042254            2 
  742000    1.1459113   -3.5175178    706.67715  0.079366257  0.081029827            2 
  743000     1.113886   -3.5325671    706.77738   0.07927068  0.081016899            1 
  744000    1.1286866   -3.5422537    706.54126  0.079137686  0.081004704            2 
  745000    1.1447084   -3.5388533    709.74498  0.079389819  0.080992561            2 
  746000    1.1120453   -3.5197183    712.17919  0.079555316   0.08098124            2 
  747000      1.12412    -3.494533    711.87751  0.079415162   0.08096911            3 
  748000     1.135619   -3.5241009    714.47387  0.079598248  0.080958112            1 
  749000    1.1327482   -3.5307347    712.31253  0.079251505  0.080947072            3 
  750000       1.1346   -3.5407957    715.01564  0.079446182  0.080936206            2 
  751000    1.1261155   -3.5521948    715.12997  0.079353081  0.080924692            2 
  752000    1.1537788   -3.5340162    712.43532   0.07894895  0.080912352            1 
  753000    1.1226787   -3.5068535    714.31028  0.079051602    0.0808988            1 
  754000    1.1226126   -3.4740178    721.13645  0.079701199   0.08088682            1 
  755000    1.1293111   -3.5441529    718.04664  0.079254596  0.080874651            2 
  756000    1.1707656   -3.5218419    722.84641  0.079678837  0.080862662            2 
  757000    1.1234533   -3.5559582    719.30128  0.079183321  0.080851363            2 
  758000    1.1145047   -3.5250695    723.34666  0.079523599  0.080839225            1 
  759000    1.1173721   -3.4972729    721.24458  0.079188031  0.080827784            1 
  760000    1.1260685   -3.4985906    723.91404  0.079376539  0.080815861            4 
  761000    1.1099707   -3.5072609     723.9756  0.079278975  0.080804578            4 
  762000     1.132581   -3.5223839    725.24065  0.079313282  0.080792215            2 
  763000    1.1321668   -3.5003944    724.47466  0.079125673  0.080780197            2 
  764000    1.1356192   -3.5339265    724.22307  0.078994663  0.080767702            2 
  765000     1.133426   -3.4914742    728.30872  0.079336462  0.080755537            3 
  766000    1.1590274    -3.531831    727.08253  0.079099492  0.080743735            1 
  767000    1.0992292   -3.5458726    728.89672  0.079193473  0.080731688            2 
  768000    1.1204955   -3.4980689    731.72188  0.079396905  0.080719811            2 
  769000    1.1206901   -3.5011443    731.88259  0.079311074  0.080707732            2 
  770000    1.1192632   -3.5142129    729.04145   0.07890059  0.080695813            3 
  771000    1.1485063   -3.5226904    729.86103  0.078886839  0.080682762            2 
  772000    1.0900169   -3.5053679    730.43377  0.078846478  0.080668684            2 
  773000    1.1248664   -3.5222719    732.38157   0.07895446  0.080654726            2 
  774000    1.1511268   -3.5328323    730.04334  0.078600704  0.080639722            3 
  775000    1.1308523   -3.5029081    730.62462  0.078561787  0.080624613            2 
  776000    1.1143546   -3.5251177    733.84037  0.078805882  0.080610517            2 
  777000    1.1354432   -3.5108539    737.64986  0.079113026  0.080596238            3 
  778000    1.1306708   -3.5160664    737.34697  0.078978895  0.080581432            2 
  779000    1.1380936   -3.5318044    739.64435  0.079123272  0.080566828            4 
  780000     1.142497    -3.488972    736.66993  0.078704052  0.080553465            2 
  781000    1.1414434   -3.5516597    737.60823  0.078703396  0.080539432            1 
  782000    1.1324797    -3.518196    737.67214  0.078609563  0.080525909            3 
  783000     1.108601   -3.5309531    740.79694  0.078841735  0.080512022            3 
  784000    1.1272629   -3.5288707    740.89985   0.07875211  0.080497902            1 
  785000    1.1321855   -3.5171308    743.90863  0.078971192  0.080483846            2 
  786000    1.1302278     -3.50046    740.27032  0.078484979  0.080469428            1 
  787000    1.1131605   -3.5231306    744.00107  0.078780291  0.080454833            1 
  788000    1.1270843   -3.5206816    745.99168  0.078890829  0.080439281            2 
  789000    1.1179105   -3.5227174    745.08137  0.078694695  0.080424528            2 
  790000    1.1077119   -3.5108566    746.42423  0.078736734  0.080410339            1 
  791000    1.0844605    -3.536362    747.54456  0.078755221  0.080394331            2 
  792000    1.1097626   -3.5318541    747.13131  0.078612302  0.080379471            2 
  793000    1.1272306   -3.5144414     747.8068  0.078584153   0.08036535            2 
  794000    1.1384935   -3.5143767    748.40924  0.078548409  0.080350616            3 
  795000    1.1039943   -3.4994867    752.25919  0.078853164  0.080336935            2 
  796000    1.1040731   -3.5051534    755.57382  0.079101111  0.080323356            2 
  797000    1.1258187   -3.5369218    748.00532  0.078210511  0.080309544            3 
  798000    1.1225055   -3.5240008    752.56205  0.078588351   0.08029537            2 
  799000    1.1561319   -3.5220868    751.69893  0.078399972  0.080281625            1 
  800000    1.1250469    -3.517395    755.48308  0.078696154   0.08026752            1 
  801000    1.1464279    -3.516458    758.19702  0.078880256  0.080253756            2 
  802000    1.1074461   -3.5167427    754.57831  0.078405892  0.080240238            4 
  803000    1.1292686   -3.5395599    756.73573  0.078532143  0.080226999            2 
  804000    1.1301056   -3.5316527    759.20223  0.078690115  0.080213983            2 
  805000    1.1252343   -3.5300902    759.17651    0.0785897  0.080200088            3 
  806000    1.1241426   -3.5207033    761.52611  0.078735123  0.080187792            3 
  807000     1.109567   -3.5184127    760.17978  0.078498532  0.080174178            4 
  808000    1.1269795   -3.5196807    758.29727  0.078207227  0.080160517            1 
  809000    1.1129522   -3.4966875     762.3634  0.078529399  0.080146765            2 
  810000    1.1273552   -3.5538706    761.69043  0.078363213  0.080132972            2 
  811000      1.14163   -3.5758327    759.27771  0.078018672  0.080118161            2 
  812000    1.1354196   -3.5162854    766.42374  0.078655967  0.080105695            1 
  813000    1.1028921   -3.4963788    769.15362  0.078839034  0.080092292            3 
  814000    1.1440294   -3.5357964    764.83647  0.078300212  0.080078358            1 
  815000     1.126655   -3.5005987    769.44973  0.078675841   0.08006418            3 
  816000    1.1169008   -3.5170921    768.96153  0.078529568  0.080050625            3 
  817000     1.147774    -3.507929    773.59288  0.078905843  0.080037468            2 
  818000     1.130296   -3.5371321    771.11735  0.078557188  0.080024694            1 
  819000    1.1162066   -3.5023017    772.28511  0.078580089  0.080011606            2 
  820000    1.1194294   -3.5401501    772.59847  0.078516105  0.079999367            2 
  821000    1.1375074   -3.5002663    776.58982  0.078825601  0.079986717            1 
  822000    1.1228638   -3.5190838     771.4191  0.078205505  0.079974081            1 
  823000    1.0843679   -3.5337477    770.29094  0.077996247  0.079959947            2 
  824000    1.1345941   -3.5315929    778.77287  0.078759392  0.079945476            1 
  825000    1.1264579   -3.5645673    776.57219  0.078441635  0.079930731            3 
  826000    1.1176693   -3.5459612    778.65951  0.078557255   0.07991707            2 
  827000    1.1253181   -3.5156078    777.87291  0.078383002   0.07990299            3 
  828000    1.1057444   -3.5342663    779.56735  0.078458872  0.079890919            4 
  829000    1.0937026   -3.5249722    782.42141  0.078651127  0.079879412            4 
  830000    1.1374533   -3.5406031    782.22236  0.078536382  0.079867216            7 
  831000     1.120278   -3.5170197    779.56117  0.078175007  0.079855753            3 
  832000    1.0985805   -3.5312489    785.17092  0.078642921  0.079843936            5 
  833000    1.0675018   -3.5457856    786.79362  0.078710847  0.079831973            4 
  834000    1.1332433   -3.5574882    783.35481  0.078272862  0.079819859            1 
  835000    1.0979039   -3.5532768    784.88429  0.078331766  0.079809156            2 
  836000    1.0958693   -3.5517264    785.52829  0.078302262  0.079796316            5 
  837000    1.1168019   -3.5564891    787.22746  0.078377883  0.079784252            4 
  838000    1.0958445   -3.5436136    786.95225  0.078256985  0.079772068            2 
  839000    1.1363262   -3.5038754    787.97968  0.078265761  0.079758985            2 
  840000    1.1047251   -3.5775817    786.73149  0.078048759  0.079746374            3 
  841000    1.1085046   -3.5103752    791.26569   0.07840524  0.079733437            2 
  842000    1.1500822   -3.5230089    791.52073  0.078337365  0.079720436            2 
  843000    1.1243167   -3.5388034    794.05597  0.078495054  0.079707708            4 
  844000    1.1033558   -3.5440245    792.83068   0.07828107  0.079694612            1 
  845000    1.1168291   -3.5277722    792.28572  0.078134687  0.079681844            2 
  846000    1.1287838   -3.5380275    792.66851  0.078080035  0.079668568            1 
  847000    1.1017848   -3.5809702      792.085  0.077930441  0.079656145            1 
  848000     1.116992   -3.5591439    793.73509  0.078000697  0.079642286            2 
  849000    1.1269946    -3.550783    794.81543  0.078014863  0.079628455            3 
  850000    1.1262224   -3.5002521    795.62932  0.078002874  0.079615641            3 
  851000    1.1371605   -3.5364438    802.65161  0.078598865  0.079603385            1 
  852000    1.1145851   -3.5371412    798.20186  0.078071387   0.07959069            5 
  853000    1.1313537   -3.5266443    798.86568  0.078044713  0.079577224            3 
  854000    1.1010192   -3.5291942     800.7499  0.078137188  0.079563906            3 
  855000    1.0758519   -3.5539723     804.3078  0.078392573  0.079550997            3 
  856000    1.1240421   -3.5531841    802.18145  0.078093989  0.079538311            2 
  857000    1.0912074   -3.5389784    802.79633  0.078062653  0.079525741            2 
  858000    1.1175471   -3.5460587    803.41904  0.078032152  0.079513352            2 
  859000    1.1161687   -3.5121344    809.05499  0.078488066  0.079500613            2 
  860000    1.1118138    -3.525872     803.7843  0.077886075  0.079488544            2 
  861000    1.0890691   -3.5655665     806.6535  0.078073316  0.079475505            2 
  862000    1.1042805   -3.5467024      806.492   0.07796713  0.079462666            3 
  863000    1.1242709   -3.5420808      807.688  0.077992275  0.079449738            2 
  864000    1.0887287   -3.5189899     812.0833  0.078325936  0.079437679            2 
  865000    1.1240948   -3.5464633    807.49534  0.077793385  0.079425629            1 
  866000    1.1131067   -3.5436837    813.53359  0.078284603  0.079413576            2 
  867000    1.1236558   -3.5516115    810.97176  0.077948074  0.079402154            2 
  868000    1.1079589   -3.5192611    814.12135  0.078160652  0.079390242            2 
  869000    1.1143502    -3.514336    819.69684  0.078605374  0.079379839            2 
  870000    1.1340181   -3.5354667    816.37239  0.078196589  0.079368198            1 
  871000    1.1171412   -3.5182571    818.49376  0.078309774  0.079356794            2 
  872000    1.1470516   -3.5362594    816.42874  0.078022624  0.079344859            5 
  873000    1.1267683   -3.5502897    818.14545  0.078097122  0.079333529            2 
  874000    1.1249512   -3.5532016    819.59701  0.078146168  0.079321207            1 
  875000    1.1035824   -3.5343368    818.24725  0.077928309  0.079309335            3 
  876000    1.1025031   -3.5382018    820.02998   0.07800894   0.07929697            1 
  877000    1.1256302   -3.5421453    821.63617  0.078072612  0.079284829            2 
  878000    1.1281371   -3.5336438    819.17672  0.077750258  0.079273253            1 
  879000    1.1160272   -3.5169121    824.82235  0.078197037  0.079261562            1 
  880000    1.0935429   -3.5268681    828.76705  0.078481728  0.079249419            1 
  881000    1.0926121   -3.5625461    823.08984  0.077855642  0.079237196            6 
  882000    1.0865465   -3.5487283    823.09291  0.077767659  0.079225039            1 
  883000    1.1075392    -3.597349    824.59072  0.077820943  0.079212594            1 
  884000    1.0969884    -3.548165    829.11904  0.078159788  0.079200563            2 
  885000    1.1032026   -3.5571904    826.63559  0.077837626  0.079188513            2 
  886000    1.1100278   -3.5580718    826.76871  0.077762294  0.079176098            5 
  887000    1.1128107   -3.5657603    831.52365   0.07812135  0.079163429            3 
  888000    1.1167358   -3.5418441    826.37481  0.077550188  0.079150864            2 
  889000    1.0923835   -3.5475144    827.68079  0.077585376  0.079138604            3 
  890000    1.1282808   -3.5384135     831.7288  0.077877228  0.079126224            1 
  891000     1.091621   -3.5516107    834.46566  0.078045797   0.07911408            3 
  892000    1.0990025   -3.5492328    836.02842  0.078104299   0.07910176            2 
  893000    1.1362415   -3.5594948    832.21955  0.077661398  0.079089178            5 
  894000    1.1021481   -3.5350121    834.50155  0.077787243  0.079076854            1 
  895000    1.1076345   -3.5874623    837.28082  0.077959108   0.07906491            3 
  896000    1.1292574   -3.5503323    835.12924  0.077671991  0.079052089            2 
  897000    1.0947887   -3.5389826    832.79613  0.077368648  0.079038647            4 
  898000     1.125474   -3.5556717    835.20663  0.077506183  0.079025879            5 
  899000    1.1013613   -3.5670439     837.2735  0.077611559  0.079012773            2 
  900000    1.1098258   -3.5407805    837.60156    0.0775557  0.078999414            2 
  901000    1.1122216   -3.5448713    842.24323   0.07789893  0.078986077            3 
  902000    1.1287324   -3.5473364    840.18575  0.077622482  0.078972314            2 
  903000    1.0819497   -3.5389053    839.39358  0.077463416   0.07895853            3 
  904000    1.0980532   -3.5504013     841.7171  0.077591915  0.078944718            1 
  905000    1.1244906   -3.5196476    843.91319  0.077708397  0.078931044            4 
  906000    1.1099271   -3.5960804    838.30597  0.077106877  0.078917233            2 
  907000    1.0917884   -3.5595254    845.63852  0.077695564  0.078903673            2 
  908000    1.0879218   -3.5707756    844.36306  0.077492939  0.078889641            2 
  909000    1.1024167   -3.5660413    843.31963  0.077312031  0.078875708            2 
  910000    1.0901616   -3.5604866    844.47031  0.077332446  0.078861618            3 
  911000    1.1132715   -3.5350149    844.54681  0.077254557  0.078846273            4 
  912000    1.0888423   -3.5689273      845.515  0.077258315  0.078831957            1 
  913000    1.1045592   -3.5691677    845.67095  0.077187929   0.07881682            3 
  914000    1.1044686   -3.5493341    845.06105  0.077047871  0.078802603            2 
  915000    1.0998775   -3.5567431    847.71308  0.077205199  0.078788176            3 
  916000     1.095097   -3.5469711    851.27264  0.077444746  0.078774277            3 
  917000    1.1248004   -3.5687889    852.79439  0.077498581  0.078760889            2 
  918000     1.097766   -3.5702722    852.16542  0.077357064  0.078747512            3 
  919000    1.1279942   -3.5326524    856.16325  0.077635405  0.078734174            3 
  920000    1.1197846   -3.5784204    849.95639  0.076988804  0.078720966            3 
  921000    1.0854836   -3.5689391    855.38738  0.077396614  0.078708032            4 
  922000    1.1036244   -3.5231252    856.34332  0.077399071  0.078695932           10 
  923000    1.1033363   -3.5961754    858.40939   0.07750175  0.078683451            3 
  924000     1.132643   -3.5610913    860.43907  0.077600926  0.078671041            2 
  925000    1.0851444   -3.5601324    860.10917  0.077487312  0.078657933            2 
  926000    1.1019027   -3.5489743    862.49803  0.077618613  0.078645994            2 
  927000    1.0988843   -3.5362161    863.92117  0.077662816  0.078634423            3 
  928000     1.106583   -3.5482099    861.51441  0.077363004  0.078622581            3 
  929000    1.0722525   -3.5569784    865.16322  0.077607034  0.078610108            4 
  930000    1.0845973    -3.562679    863.02708  0.077332175  0.078597999            3 
  931000    1.1228639   -3.5534069    865.86247  0.077502907  0.078585934            3 
  932000    1.1148211   -3.5320566    867.92064  0.077603776  0.078574907            3 
  933000    1.1224284   -3.5666126     867.7294  0.077503519  0.078562467            2 
  934000    1.1218017    -3.548316     871.5472  0.077761171  0.078551083            3 
  935000    1.0701248   -3.5366262     869.4483  0.077490936    0.0785401            2 
  936000    1.0882704     -3.55104    865.77629  0.077081222  0.078528291            4 
  937000    1.1128102   -3.5536294    866.46451  0.077060166  0.078515789            6 
  938000    1.1276457   -3.6011297    871.77934   0.07745019  0.078503781            6 
  939000    1.0829308   -3.5399971    872.21893  0.077406721  0.078491694            2 
  940000    1.1071761   -3.5672854    871.88795  0.077295031  0.078478625            2 
  941000    1.1027718   -3.5635276     871.2748   0.07715859  0.078467023            3 
  942000    1.1261227   -3.5500666    873.97769   0.07731579   0.07845499            4 
  943000    1.1041918   -3.5422827    873.82712  0.077220494  0.078442833            6 
  944000    1.0841687   -3.5488292    876.20771  0.077348844  0.078430517            1 
  945000    1.0962313   -3.5194652    874.19135  0.077089184  0.078417715            2 
  946000    1.1124235   -3.5753994    871.33045  0.076755677  0.078405262            4 
  947000    1.0680683   -3.5543557    876.79898  0.077155841  0.078392291            1 
  948000    1.1155631   -3.5771433    875.48429  0.076958886  0.078379112            6 
  949000    1.1047286   -3.5654052    878.78465  0.077167602  0.078366009            1 
  950000    1.1030249   -3.5434909    878.05677  0.077022524  0.078352227            1 
  951000    1.1235407   -3.5685202    878.58898  0.076988168   0.07833886            2 
  952000    1.1021549   -3.5417968    881.37105  0.077150827  0.078324763            2 
  953000     1.129065   -3.5480112    876.00421  0.076600578  0.078310986            2 
  954000    1.1052026   -3.5543765    884.65243  0.077275719  0.078297483            1 
  955000    1.1063561   -3.5494856    880.30369  0.076815331   0.07828338            1 
  956000     1.124701   -3.5474496    881.78168  0.076863815  0.078269221            2 
  957000    1.1147363   -3.5266171    884.19826  0.076993927  0.078255066            2 
  958000     1.083019    -3.561084    881.29314   0.07666085  0.078239817            4 
  959000    1.1001846   -3.5802193    883.97146  0.076813648  0.078224615            3 
  960000    1.1274287   -3.5515827    883.79664  0.076718458  0.078209937            4 
  961000    1.0885955   -3.5746079    882.78578  0.076550969  0.078196068            1 
  962000    1.1039989   -3.5577552    886.11702  0.076759964  0.078181067            5 
  963000    1.0924182    -3.557927    885.77902  0.076651005  0.078166851            2 
  964000      1.09046   -3.5528527    886.99362  0.076676489  0.078152424            2 
  965000    1.0963377   -3.5718845     887.7089    0.0766588  0.078138243            1 
  966000     1.114871   -3.5355233    889.60592  0.076743092  0.078124097            2 
  967000    1.1039458   -3.5534476    882.75377  0.076073231  0.078110039            3 
  968000    1.1073201   -3.5859877    887.88484  0.076436367  0.078094917            2 
  969000    1.0756427   -3.5899931    883.53061  0.075983024  0.078079661            3 
  970000    1.1203853   -3.5746277    890.12863  0.076471531  0.078064284            2 
  971000    1.0950137   -3.5562664    893.19869  0.076656255  0.078049047            4 
  972000    1.0785639   -3.5794943    892.07913  0.076481407  0.078034012            4 
  973000    1.0968049   -3.5498369    893.04179  0.076485251  0.078019298            2 
  974000    1.1098696   -3.5745906    891.47545  0.076272712  0.078003996            2 
  975000    1.0725341   -3.5691479    895.65084  0.076551354  0.077988683            2 
  976000    1.0972508    -3.587966    893.59476  0.076297367  0.077973417            2 
  977000    1.1099669   -3.5245697    895.10304  0.076347922  0.077958299            2 
  978000     1.114462   -3.5799778    896.25089  0.076367663    0.0779427            2 
  979000    1.0799858   -3.5523238    896.04294  0.076271956  0.077926427            1 
  980000    1.1074871   -3.5712183    895.57163   0.07615405  0.077910178            4 
  981000    1.1042903   -3.5742537    896.49149  0.076154561  0.077893929            3 
  982000    1.1011895   -3.5413988    898.88962  0.076280518  0.077878253            2 
  983000    1.1028497   -3.5623788    900.44205  0.076334525  0.077862977            3 
  984000     1.062502   -3.5624795     899.4615  0.076173908  0.077847143            2 
  985000    1.1107568   -3.5421346    903.62671   0.07644896  0.077831178            1 
  986000    1.0816811   -3.5875691    899.04977  0.075984598  0.077814465            3 
  987000    1.0875547   -3.5238113     900.1213  0.075998083  0.077798329            4 
  988000    1.0915061   -3.5384818    902.19268  0.076095874  0.077782705            2 
  989000    1.0823906   -3.5699365    901.62294  0.075970925  0.077767079            3 
  990000    1.0944174   -3.5412423    905.41326  0.076213237  0.077751895            2 
  991000    1.0961421   -3.5800592    904.76005  0.076081404  0.077736447            2 
  992000     1.087186   -3.5692118    903.51795  0.075900365  0.077720913            2 
  993000    1.0789168   -3.5735773    902.60862  0.075747618  0.077704846            3 
  994000     1.079474   -3.5575507    908.10941  0.076132579  0.077688655            2 
  995000    1.0950935   -3.5659711    910.58444  0.076263354  0.077673141            1 
  996000    1.0844095   -3.5626026    905.28046   0.07574301  0.077657679            2 
  997000    1.0810736   -3.5589354    909.01694   0.07597935  0.077642302            2 
  998000    1.0867579     -3.58377    906.44258  0.075688258  0.077626948            3 
  999000    1.1155348   -3.5888433    907.42406  0.075694366  0.077610155            2 
 1000000    1.0836367   -3.5803369    911.98929  0.075999107   0.07759342            4 
 1001000    1.0838906   -3.5426895    918.00943  0.076424361  0.077577486            2 
 1002000    1.0874031   -3.5804174    911.92062  0.075841702  0.077562066            2 
 1003000    1.1158363      -3.6008    909.43156  0.075559286  0.077546055            2 
 1004000    1.0861315   -3.5711137    912.97794  0.075778382  0.077530379            1 
 1005000    1.1039769   -3.5604207    918.95878  0.076198903  0.077514952            4 
 1006000    1.1165102   -3.5498005    914.18404  0.075727637  0.077498823            2 
 1007000    1.0853523   -3.5835642    913.62011  0.075605768  0.077481877            1 
 1008000    1.0965055   -3.5766654    917.33586  0.075837951  0.077465563            2 
 1009000    1.1005638   -3.5694018    920.15521   0.07599564  0.077449418            2 
 1010000    1.0673221   -3.5684454    919.59846   0.07587446  0.077433712            1 
 1011000    1.0866978   -3.5507113    918.88443  0.075740556  0.077417582            2 
 1012000    1.1017252   -3.5898348    917.56541  0.075557099  0.077401941            4 
 1013000    1.0730391   -3.5345056    919.95164  0.075678812  0.077385446            3 
 1014000    1.0810954   -3.5712065    921.44609  0.075726996  0.077368163            2 
 1015000    1.0998596   -3.5510245    919.60917  0.075501574  0.077351611            4 
 1016000    1.0870292   -3.5843179    921.56014  0.075587282   0.07733514            2 
 1017000    1.1064206    -3.558264    926.23178  0.075895754  0.077318699            2 
 1018000    1.0730264    -3.575919    925.96798  0.075799606  0.077303002            2 
 1019000    1.1048324   -3.5797236    927.42222  0.075844146  0.077286695            4 
 1020000    1.0799883   -3.5871449    923.69074  0.075464929  0.077270316            2 
 1021000     1.086318   -3.5472654    924.80054  0.075481598  0.077253555            2 
 1022000    1.1051829   -3.5625712    922.88786  0.075251782   0.07723608            2 
 1023000    1.0604666   -3.5816027    928.83124  0.075662369  0.077218621            1 
 1024000    1.0968603   -3.5579678    925.20926  0.075293722  0.077200828            2 
 1025000    1.1046108   -3.5832209    926.52619  0.075327333  0.077183062            3 
 1026000    1.0744773   -3.6048647    923.68511  0.075023157  0.077165334            2 
 1027000    1.0863939   -3.5787704    927.33406  0.075246191  0.077146911            1 
 1028000    1.1019407   -3.5782694    925.92349  0.075058649  0.077129438            1 
 1029000    1.0811839   -3.5527783    930.43767  0.075351285   0.07711177            2 
 1030000    1.0735665   -3.5720764    933.56198  0.075530905  0.077094285            2 
 1031000    1.0939604   -3.5834053    929.84624   0.07515731  0.077076916            4 
 1032000    1.0570186   -3.5845728    926.07903  0.074780283   0.07705933            2 
 1033000    1.0866527   -3.5883978    930.83239  0.075091351  0.077042156            2 
 1034000    1.0792628    -3.578954    933.71313  0.075250897  0.077024758            3 
 1035000     1.101332   -3.5711236    934.73467  0.075260441  0.077007049            1 
 1036000    1.0960657   -3.5585107    933.65354  0.075100832  0.076989317            3 
 1037000    1.0942992   -3.5782803    929.17224  0.074668293  0.076971061            2 
 1038000    1.1117632   -3.5816958    932.80226  0.074887786  0.076952591            2 
 1039000     1.080303   -3.5873434    934.05138  0.074915895  0.076934428            1 
 1040000    1.0915064   -3.5885122    931.13688  0.074610327  0.076916501            3 
 1041000    1.1032185   -3.5974165    934.60696  0.074816439  0.076897854            5 
 1042000    1.1033785   -3.5596177    937.45463  0.074972379  0.076879148            1 
 1043000    1.1008442   -3.6059198    935.10491  0.074712761  0.076861383            3 
 1044000    1.0736747   -3.5476672    938.97838  0.074950382   0.07684322            2 
 1045000    1.1078733   -3.6133892    939.44475  0.074915849  0.076824944            4 
 1046000    1.1122417   -3.6000265     939.8831   0.07487915  0.076807011            2 
 1047000    1.0575242   -3.6124591    941.83899  0.074963307  0.076789139            3 
 1048000    1.0759876   -3.5966229    938.25287  0.074606621  0.076771033            5 
 1049000     1.081329   -3.5816505    940.27704  0.074696301  0.076753312            3 
 1050000     1.081399   -3.5957678    942.07746  0.074768053  0.076735916            2 
 1051000    1.0872694   -3.5854723    943.17087  0.074783609  0.076718625            2 
 1052000    1.0958422   -3.5906686    943.54267  0.074741973  0.076701287            1 
 1053000    1.0877917   -3.6288168    944.97441  0.074784299  0.076683756            2 
 1054000    1.0857864   -3.5985117    946.31126  0.074819043  0.076665886            1 
 1055000    1.0806409   -3.5666037    949.14005  0.074971568  0.076648669            4 
 1056000    1.0715445   -3.5672391    948.31436  0.074835414  0.076631123            1 
 1057000    1.0724707   -3.5802878    952.08578   0.07506195  0.076613638            4 
 1058000    1.0739897   -3.5819347    948.78924  0.074731352  0.076596832            3 
 1059000    1.0816622   -3.5866133    949.83667  0.074743206  0.076580101            5 
 1060000    1.0889707   -3.5886104    952.94711  0.074917226  0.076563045            2 
 1061000    1.1024897   -3.5802329    953.07374  0.074856561  0.076545757            1 
 1062000    1.0645996   -3.5945855    950.63628  0.074594812   0.07652787            3 
 1063000    1.0781804   -3.6056623    949.85808  0.074463631  0.076510441            2 
 1064000    1.1019403   -3.6156592    949.32275  0.074351719  0.076493364            3 
 1065000    1.1129224   -3.5667346    955.24133  0.074745018  0.076476004            1 
 1066000    1.0519628    -3.582261    957.27961  0.074834241  0.076458967            2 
 1067000    1.1015692   -3.5855538    955.30989   0.07461027  0.076442013            4 
 1068000    1.0847522   -3.5744643    954.36488  0.074466673  0.076424893            3 
 1069000     1.074267    -3.603721    961.04231  0.074917548  0.076407101            3 
 1070000      1.10087   -3.5792643    959.09825  0.074696126  0.076389712            1 
 1071000    1.0615548   -3.5963175    960.25592  0.074716458  0.076372671            3 
 1072000     1.078798   -3.5831588    959.88892   0.07461823     0.076355            2 
 1073000    1.0827888   -3.5787206    963.06908  0.074795673  0.076337542            1 
 1074000    1.1046104   -3.6202527    957.00759   0.07425571  0.076320421            1 
 1075000    1.0686466   -3.6037979    960.25188   0.07443813  0.076302637            3 
 1076000    1.0876987   -3.5978108    960.66394  0.074400862  0.076285526            2 
 1077000    1.0918409   -3.6027412    963.69108  0.074566007  0.076268101            2 
 1078000    1.0864343   -3.6003125    966.71737   0.07473078  0.076250502            9 
 1079000    1.0552569   -3.6176483    967.23724  0.074701671  0.076232403            1 
 1080000    1.0784011   -3.6058742    963.58501  0.074350695  0.076215235            3 
 1081000    1.0792142   -3.6213611    967.99415  0.074621812  0.076197324            3 
 1082000    1.1048022   -3.6125849    965.95703  0.074395951  0.076179863            1 
 1083000    1.0874426   -3.5931196     972.7617  0.074850854  0.076162339            1 
 1084000    1.0629961    -3.583225    967.19889  0.074354158  0.076145243            3 
 1085000    1.0886614   -3.5998224    966.42882  0.074226484   0.07612822            4 
 1086000    1.0604046   -3.6160369    966.84201  0.074189841  0.076110029            3 
 1087000     1.100121   -3.5873508    969.66026  0.074337646  0.076092432            2 
 1088000    1.0729715   -3.5862373    968.78253  0.074202093   0.07607559            1 
 1089000     1.078315   -3.6076928     970.2468  0.074246005  0.076057934            4 
 1090000    1.0451313   -3.5979297    970.48177  0.074195854  0.076039997            4 
 1091000    1.0833012    -3.588528    970.23892  0.074109297  0.076022501            3 
 1092000     1.092181   -3.5910866    969.29676  0.073969533  0.076004499            1 
 1093000    1.0858828   -3.5743539    973.19927  0.074199395  0.075986307            1 
 1094000    1.0682655   -3.5830168    978.37236  0.074525622  0.075968721            2 
 1095000    1.0733576   -3.5861031    974.34093  0.074150756  0.075951075            2 
 1096000    1.0782256   -3.6034591    972.23007  0.073922603  0.075933411            3 
 1097000    1.0954623   -3.6136456     973.7642  0.073971757  0.075915657            3 
 1098000     1.090996   -3.5923385    978.51035  0.074264599  0.075898111            1 
 1099000    1.0629821   -3.5813349     978.3809  0.074187208  0.075881232            3 
 1100000     1.094348   -3.6167903    980.42317  0.074274483   0.07586445            1 
 1101000    1.0862725   -3.6107518    984.74977  0.074534497  0.075847272            2 
 1102000    1.0902357   -3.5470431    986.94385  0.074632777  0.075831106            1 
 1103000    1.0759134   -3.5925809    986.53228  0.074534019  0.075814691            2 
 1104000    1.0861805   -3.6183039    984.05416   0.07427945  0.075797162            2 
 1105000    1.0489818   -3.6290355    982.89219  0.074124599  0.075780155            3 
 1106000    1.0848597   -3.5855946    985.74344  0.074272411  0.075763006            6 
 1107000    1.0624551   -3.5580468    985.16103  0.074161475  0.075746241            1 
 1108000    1.0685263   -3.5774151    983.98521  0.074006108  0.075728732            2 
 1109000     1.077058   -3.5879621     984.3856  0.073969462  0.075711853            1 
 1110000     1.076381    -3.573983     989.7819   0.07430795  0.075694645            3 
 1111000    1.1045868   -3.5792731    987.79767  0.074092234  0.075677468            2 
 1112000    1.0765748   -3.5970905    989.38839  0.074144814  0.075659606            3 
 1113000    1.0832173   -3.5668698    990.39857  0.074153831  0.075642296            2 
 1114000    1.0820825   -3.5857982    988.73213  0.073962607  0.075625925            3 
 1115000    1.0718542      -3.6226    988.34893  0.073867633   0.07560856            7 
 1116000    1.0688544   -3.5922426     989.9532  0.073921236  0.075591159            2 
 1117000    1.0523815   -3.6239955    988.14238  0.073719963  0.075573636            2 
 1118000    1.0779367   -3.5941997    992.54312  0.073982045  0.075556261            3 
 1119000    1.0667587   -3.6112513    988.20731  0.073593038  0.075538538            3 
 1120000    1.0700534   -3.5831279    993.08593  0.073890322  0.075520493            1 
 1121000    1.0441431   -3.5796028    994.02416  0.073894154  0.075503205            2 
 1122000    1.0729674   -3.6155242      991.564  0.073645573  0.075485337            4 
 1123000    1.0794177   -3.5754358    995.93782  0.073904557  0.075467887            1 
 1124000    1.0692704   -3.6273963    994.09163   0.07370193  0.075450332            2 
 1125000    1.0879064   -3.6018402    992.40509  0.073511488  0.075432361            4 
 1126000    1.0721759   -3.6087587     994.0445  0.073567532  0.075414768            3 
 1127000    1.0809279   -3.5821447    993.51873  0.073463379   0.07539664            1 
 1128000    1.0667674      -3.5795    999.10124  0.073810671  0.075379189            1 
 1129000    1.0681554   -3.6223644    994.64696  0.073416516  0.075361283            2 
 1130000    1.0701676   -3.6019483    998.64467  0.073646362  0.075343288            2 
 1131000    1.0665414   -3.5998958    1001.9468   0.07382455  0.075325547            1 
 1132000    1.0574426   -3.6188979    999.89869  0.073608561  0.075307946            2 
 1133000    1.0618422   -3.5841789    1000.5545  0.073591829    0.0752907            3 
 1134000    1.0655069   -3.5702595    1010.0945   0.07422799  0.075274225            3 
 1135000    1.0920671    -3.573568    1002.1206  0.073577137  0.075257385            2 
 1136000    1.0671287   -3.6043751     1006.484  0.073832454  0.075240311            3 
 1137000    1.0400718   -3.6356421    1003.8175  0.073572083  0.075223235            2 
 1138000    1.0882115   -3.5880782     1004.837   0.07358209  0.075206363            2 
 1139000    1.0691197   -3.6093084     1010.589  0.073938321  0.075189641            2 
 1140000    1.0603805   -3.5909911    1012.4925  0.074012611  0.075173219            3 
 1141000    1.0610944   -3.5954808    1009.4243   0.07372366  0.075157682            2 
 1142000     1.055946   -3.6197005    1009.5618  0.073669133  0.075141958            2 
 1143000    1.0730823   -3.6034076    1010.7996  0.073694923  0.075126535            4 
 1144000    1.0542471   -3.6332834    1011.0341  0.073647587  0.075110857            4 
 1145000    1.0515866   -3.6034564    1014.9073   0.07386516  0.075095005            9 
 1146000    1.0680175   -3.5926182    1011.5586  0.073557198  0.075079051            4 
 1147000    1.0592547   -3.6040444    1015.9484  0.073812003  0.075063222            2 
 1148000    1.0759377   -3.6492343    1011.8646  0.073451265  0.075046969            2 
 1149000    1.0613846   -3.6194218    1015.7456  0.073668815  0.075031131            2 
 1150000     1.091204   -3.5898131    1016.5674  0.073664304  0.075015558            2 
 1151000     1.099842    -3.625364    1014.4716   0.07344857  0.074999848            3 
 1152000    1.0843978   -3.6436883    1016.7086  0.073546627  0.074983841            1 
 1153000     1.054729   -3.6112583    1022.4971  0.073901205  0.074968333            2 
 1154000    1.0826666   -3.6276734    1017.8294  0.073500099  0.074952566            5 
 1155000    1.0657031   -3.5860074    1021.8197  0.073724365  0.074937086            4 
 1156000    1.0699926   -3.6143061    1020.4446   0.07356146  0.074921957            2 
 1157000    1.0667598   -3.6175369    1027.1243  0.073978988  0.074906035            1 
 1158000    1.0515472   -3.6048299     1021.207  0.073489275  0.074889757            5 
 1159000     1.068263   -3.5908135    1026.5691   0.07381141  0.074874127            1 
 1160000    1.0630603   -3.6053564    1023.5895  0.073533731  0.074858355            2 
 1161000    1.0489447   -3.6144302    1026.7832  0.073699628  0.074842513            2 
 1162000    1.0750927   -3.6191708    1026.0637  0.073584602  0.074827389            2 
 1163000    1.0564808   -3.6157595     1023.959  0.073370524  0.074812091            2 
 1164000    1.0922516   -3.6023543    1028.2857  0.073617248   0.07479698            3 
 1165000    1.0653866   -3.6220364    1031.5941  0.073790705  0.074781375            2 
 1166000     1.058159   -3.5891259     1032.691  0.073805814  0.074766274            1 
 1167000    1.0595517   -3.6118898    1029.7099  0.073529699  0.074751232            2 
 1168000    1.0689469   -3.5748256    1032.9642  0.073698926  0.074735323            3 
 1169000    1.0630361    -3.607116    1029.7219  0.073404757  0.074719648            4 
 1170000    1.0726552   -3.6085481    1031.9644  0.073501739  0.074704267            2 
 1171000    1.0416089   -3.5891891    1032.6556   0.07348816     0.074689            2 
 1172000    1.0668896   -3.6173913    1034.5484  0.073560037  0.074673875            2 
 1173000    1.0427919    -3.627004    1035.3214  0.073552245  0.074659289            2 
 1174000    1.0795666   -3.5845596     1036.784  0.073593414  0.074644823            2 
 1175000    1.0558289   -3.6261397    1036.4682  0.073508385  0.074630218            4 
 1176000    1.0437648   -3.6033751     1041.045  0.073770193  0.074615498            3 
 1177000    1.0476783   -3.6323426    1038.3178   0.07351443  0.074600858            3 
 1178000    1.0743654   -3.5906234    1040.6052   0.07361384  0.074586443            2 
 1179000    1.0661181   -3.6186781     1037.089  0.073302871  0.074572084            1 
 1180000    1.0642495   -3.6378213    1038.4133  0.073334272  0.074557435            4 
 1181000    1.0713323   -3.6140799    1042.1783  0.073537843  0.074542361            1 
 1182000    1.0656415   -3.6094883    1043.9303  0.073599145  0.074527691            3 
 1183000    1.0749152   -3.6112247    1041.8143  0.073387879  0.074512902            2 
 1184000     1.077394   -3.6398043    1044.6255  0.073523752  0.074498509            7 
 1185000    1.0447628   -3.6170717    1042.3284   0.07330017  0.074483663            1 
 1186000    1.0755251   -3.5886724    1048.9832   0.07370596  0.074469479            3 
 1187000    1.0645538   -3.6061608    1048.5443   0.07361305  0.074455353            1 
 1188000     1.041945   -3.6216837    1048.2288  0.073528953  0.074441266            1 
 1189000    1.0884012   -3.6009157    1046.2278  0.073326869  0.074427015            1 
 1190000    1.0697788   -3.6124953    1050.0805   0.07353505  0.074412836            3 
 1191000    1.0794563   -3.6285609    1051.1393  0.073547391  0.074398431            2 
 1192000    1.0826355   -3.6214196    1048.8308  0.073324301  0.074384403            1 
 1193000    1.0593128   -3.6333726    1046.9166  0.073129127   0.07436978            5 
 1194000     1.074313   -3.5743504    1057.4739   0.07380471  0.074355893            1 
 1195000    1.0638756   -3.6087747    1049.5202  0.073188299  0.074342098            2 
 1196000      1.05945   -3.6245326     1049.637  0.073135241  0.074327667            3 
 1197000    1.0430721   -3.6092974    1052.6273  0.073282326  0.074313036            3 
 1198000    1.0671371   -3.6238895    1051.8975   0.07317039  0.074298618            2 
 1199000    1.0555488   -3.5906685    1054.0611  0.073259735  0.074284614            4 
 1200000    1.0499381   -3.5925698    1053.6702  0.073171544  0.074269473            5 
 1201000     1.060308   -3.6037894    1050.4631  0.072888084  0.074254421            1 
 1202000    1.0533501   -3.6204354    1053.6057  0.073045318  0.074238707            2 
 1203000    1.0600034   -3.6125998    1057.9864  0.073288059  0.074223942            3 
 1204000    1.0728826   -3.6321916    1057.3633   0.07318406   0.07420895            2 
 1205000    1.0749332   -3.6113283     1055.919  0.073023445   0.07419436            3 
 1206000    1.0598861   -3.6149068    1057.2327   0.07305367  0.074179992            1 
 1207000    1.0589002   -3.6061616    1061.9703  0.073320236  0.074165551            2 
 1208000    1.0660435   -3.6373895    1061.1239  0.073201149  0.074151502            4 
 1209000    1.0465229   -3.6016583    1062.1974  0.073214596  0.074137442            2 
 1210000    1.0617933   -3.6339515    1060.9249  0.073066455  0.074123198            3 
 1211000    1.0627953   -3.5898792    1063.2396  0.073165404   0.07410894            2 
 1212000    1.0453611    -3.584867    1068.0942  0.073438821  0.074094998            2 
 1213000    1.0456668   -3.6143243    1065.3804   0.07319184   0.07408118            3 
 1214000    1.0443521    -3.613161    1066.4231  0.073203122   0.07406706            4 
 1215000    1.0674579   -3.6052169    1065.3329    0.0730681  0.074053255            2 
 1216000    1.0706284   -3.6113171    1071.8493  0.073454585  0.074039365            2 
 1217000    1.0782794   -3.6418286    1070.3362   0.07329062  0.074025576            1 
 1218000    1.0511805    -3.627967    1070.3916  0.073234237  0.074011371            2 
 1219000    1.0375463   -3.6390524    1067.9322  0.073006032  0.073997205            3 
 1220000    1.0546903    -3.617698    1071.6868  0.073202649  0.073983757            3 
 1221000    1.0588711   -3.6443369    1070.4366  0.073057374  0.073970092            1 
 1222000    1.0650813   -3.6156015     1077.473  0.073477429  0.073956693            3 
 1223000    1.0494276   -3.6012419    1074.9472  0.073245242  0.073943707            3 
 1224000    1.0573327   -3.6359692    1075.9278  0.073252165   0.07393071            1 
 1225000    1.0581975   -3.5974059    1077.7309  0.073315029  0.073917275            3 
 1226000    1.0581461   -3.6464391    1073.4499  0.072964242  0.073903898            5 
 1227000     1.044583   -3.6245366    1078.0651  0.073218225  0.073890268            2 
 1228000    1.0470009    -3.609661    1075.1769    0.0729626  0.073877176            2 
 1229000    1.0483906   -3.6216447    1076.0082  0.072959601  0.073863972            5 
 1230000     1.046977   -3.6142865    1076.3524  0.072923606   0.07385087            2 
 1231000      1.05498   -3.6182687    1079.8023  0.073097906  0.073837619            3 
 1232000    1.0555525   -3.6127468    1085.2988  0.073410363  0.073824271            2 
 1233000    1.0582182   -3.6222683    1081.8985  0.073121012  0.073811326            1 
 1234000    1.0753819   -3.6447776    1082.9322  0.073131566  0.073798244            4 
 1235000    1.0499307   -3.6340359    1083.0072  0.073077411  0.073785552            4 
 1236000    1.0402508   -3.6050984    1083.8669  0.073076247  0.073772445            1 
 1237000    1.0432087   -3.6305465    1085.4846  0.073126155  0.073759498            2 
 1238000    1.0530173   -3.6218892    1089.1021  0.073310588  0.073746438            2 
 1239000    1.0522657   -3.6500121    1081.7164  0.072754666  0.073733272            1 
 1240000    1.0593419   -3.6218295    1084.4643  0.072880667  0.073720019            2 
 1241000    1.0462719   -3.6224236    1087.2513  0.073009084  0.073706612            3 
 1242000    1.0623244   -3.6015057    1084.2965  0.072752048  0.073693164            7 
 1243000    1.0561181   -3.6112485     1087.786  0.072927457  0.073679908            3 
 1244000    1.0532064   -3.6307805     1084.585  0.072654405   0.07366633            3 
 1245000    1.0455579   -3.6292172    1086.5706  0.072728953  0.073653008            4 
 1246000    1.0644744    -3.628916     1090.002   0.07290008  0.073639841            3 
 1247000    1.0433159   -3.6026192    1092.5699  0.073013222  0.073626586            3 
 1248000     1.061229   -3.6260829    1090.6758  0.072828245  0.073613294            3 
 1249000    1.0707895   -3.6288802    1085.9814  0.072456724  0.073599552            4 
 1250000    1.0351088   -3.6126579    1091.3088  0.072753917  0.073585969            2 
 1251000    1.0816443   -3.6480563    1091.5126   0.07270934  0.073571667            2 
 1252000    1.0569612   -3.6170633    1090.3624  0.072574705  0.073558357            2 
 1253000     1.055842   -3.6328525    1088.9507    0.0724229  0.073544994            2 
 1254000     1.048994   -3.6469745    1090.7531  0.072484922  0.073531428            6 
 1255000    1.0426317   -3.6085288     1097.898  0.072901594  0.073517691            5 
 1256000    1.0435081   -3.6431424    1091.0504  0.072389226  0.073504344            3 
 1257000    1.0574491   -3.6372198    1095.2136   0.07260764  0.073490938            3 
 1258000    1.0567787   -3.6194778    1099.9397   0.07286299  0.073477643            2 
 1259000    1.0728452    -3.658501     1098.738  0.072725576  0.073464354            3 
 1260000    1.0474423    -3.655365    1097.2561  0.072569847  0.073450938            2 
 1261000    1.0360208    -3.645329    1099.8726  0.072685207  0.073437414            1 
 1262000    1.0535312   -3.6187586    1098.6469   0.07254668  0.073424566            2 
 1263000    1.0680627   -3.6304925    1102.2712   0.07272837  0.073411762            3 
 1264000    1.0392502   -3.6546164    1101.1475  0.072596752  0.073398467            4 
 1265000    1.0520772   -3.6539476    1096.5573  0.072236974  0.073385147            2 
 1266000    1.0385834   -3.6373489    1101.5947  0.072511499  0.073371695            3 
 1267000     1.050994   -3.5945547    1102.7916  0.072532989  0.073358563            1 
 1268000    1.0230346    -3.615506    1104.7691  0.072605753  0.073345306            3 
 1269000    1.0473308   -3.6113383    1107.8413  0.072750284  0.073332077            6 
 1270000    1.0659664    -3.595208    1106.8179  0.072625847  0.073319105            1 
 1271000    1.0502109    -3.613078    1107.9522  0.072643078  0.073306072            2 
 1272000    1.0446344   -3.6338496    1108.5928  0.072627935  0.073293017            6 
 1273000    1.0338465   -3.6258957    1109.2263  0.072612352  0.073280068            2 
 1274000     1.050627   -3.6396796    1109.2916  0.072559631  0.073266994            2 
 1275000    1.0401997   -3.6269557    1111.2866  0.072633111  0.073254419            2 
 1276000     1.045758   -3.6168311    1109.5033  0.072459723  0.073241666            2 
 1277000    1.0410498   -3.6544575     1109.655   0.07241288  0.073228746            2 
 1278000    1.0500623   -3.6611654    1111.5745  0.072481381   0.07321518            3 
 1279000    1.0492483   -3.6347509    1110.9389    0.0723833  0.073201969            2 
 1280000    1.0334469   -3.6318914    1112.9369  0.072456832  0.073188938            4 
 1281000    1.0370378     -3.64101    1111.4256  0.072301952  0.073175692            5 
 1282000    1.0501518    -3.625551    1116.4605  0.072572837  0.073162961            3 
 1283000    1.0466979   -3.6495896    1113.6256   0.07233214  0.073149968            1 
 1284000    1.0660253   -3.6298421    1115.4336  0.072393146   0.07313667            4 
 1285000    1.0467075   -3.6346832    1116.8088   0.07242599  0.073123594            4 
 1286000    1.0833655   -3.6310756    1120.0595  0.072580319  0.073110618            2 
 1287000    1.0719902   -3.6505808    1119.3189  0.072475973  0.073097891            2 
 1288000    1.0550564   -3.6473254    1123.0698  0.072662382  0.073084905            1 
 1289000    1.0454216   -3.5974949    1121.8853  0.072529438   0.07307178            1 
 1290000    1.0427392    -3.640192    1122.0035  0.072480845  0.073058842            2 
 1291000    1.0582333   -3.6623712     1120.244  0.072311129  0.073046178            1 
 1292000    1.0424675    -3.677464    1116.6082  0.072020652  0.073032858            2 
 1293000      1.03927   -3.6405122    1123.8373  0.072430867  0.073019711            1 
 1294000    1.0375422   -3.6308364    1122.8782  0.072313124  0.073006485            6 
 1295000    1.0517896   -3.6195083    1129.2237   0.07266562  0.072993162            1 
 1296000    1.0304542   -3.6479188    1122.8766  0.072201428  0.072980371            2 
 1297000    1.0521524   -3.6163908    1125.8879  0.072339236  0.072967309            2 
 1298000    1.0247145   -3.6185709    1127.5424  0.072389729  0.072954391            1 
 1299000    1.0546328   -3.6412378    1127.9623  0.072360936  0.072941445            3 
 1300000    1.0499215   -3.6482823    1132.0626  0.072568112  0.072928507            4 
 1301000    1.0330655    -3.655289    1126.5602  0.072159893  0.072915526            2 
 1302000    1.0355287   -3.6454801    1129.6435  0.072301811  0.072902286            3 
 1303000    1.0332227   -3.6372244    1129.7477  0.072252984   0.07288887            2 
 1304000    1.0637783   -3.6643188    1124.9901  0.071893536  0.072875291            5 
 1305000    1.0389956   -3.6476522    1126.9306  0.071962363  0.072861673            3 
 1306000    1.0670217   -3.6382762    1127.3292  0.071932695  0.072848468            5 
 1307000    1.0298092   -3.6336232    1127.0074  0.071857144  0.072834506            3 
 1308000    1.0383906   -3.6393877    1127.0266  0.071803429  0.072821032            2 
 1309000    1.0498982   -3.6657239    1129.9408  0.071934099  0.072807193            5 
 1310000    1.0077958   -3.6220612    1135.1515  0.072210654  0.072793879            2 
 1311000    1.0412231   -3.6519132    1129.7211  0.071810392   0.07278035            7 
 1312000    1.0577309   -3.6237545    1130.6369  0.071813828  0.072766595            3 
 1313000    1.0329989   -3.6305023    1139.0562  0.072293485  0.072752733            3 
 1314000    1.0548125   -3.6167168    1135.4611  0.072010471   0.07273924            2 
 1315000    1.0223521    -3.651115    1137.8893  0.072109589  0.072725931            2 
 1316000    1.0056858   -3.6427299    1141.2678  0.072268732  0.072712401            2 
 1317000    1.0619909   -3.6548971    1138.7755   0.07205616  0.072699577            3 
 1318000    1.0327416   -3.6783209    1136.6828  0.071869172  0.072686479            4 
 1319000    1.0440566   -3.6631507    1135.2635  0.071725012   0.07267311            2 
 1320000    1.0370597   -3.6518096    1141.2711  0.072049942  0.072660288            2 
 1321000    1.0257208   -3.6437042    1139.5501  0.071886833  0.072647116            1 
 1322000    1.0358375    -3.642474    1141.2374  0.071938814  0.072633821            2 
 1323000    1.0260937   -3.6634512    1140.0511  0.071809717  0.072620179            3 
 1324000     1.030367   -3.6668201    1139.4423  0.071717166  0.072606207            3 
 1325000    1.0247122   -3.6571922    1142.0565  0.071827452  0.072592714            2 
 1326000    1.0515886   -3.6615227    1145.9226  0.072016253  0.072578957            2 
 1327000    1.0540759   -3.6345848    1146.6318  0.072006519  0.072565709            2 
 1328000    1.0493075   -3.6529315    1142.6594  0.071703025  0.072552325            3 
 1329000    1.0250386   -3.6715873    1142.4261  0.071634442  0.072538606            2 
 1330000     1.042699   -3.6536287    1143.7438  0.071663143  0.072524899            3 
 1331000    1.0356362   -3.6715399    1143.0866  0.071568158  0.072511136            3 
 1332000    1.0567006   -3.6506661    1144.8655  0.071625722  0.072497314            2 
 1333000    1.0140929     -3.63492    1151.8942  0.072011392  0.072483695            1 
 1334000    1.0759742   -3.6558993    1146.6073  0.071627145  0.072470014            2 
 1335000    1.0356948   -3.6548675    1148.1519  0.071669905  0.072456595            4 
 1336000    1.0113173   -3.6542221    1151.7728  0.071842115  0.072443259            1 
 1337000        1.035   -3.6394709    1152.8852  0.071857716  0.072429671            3 
 1338000    1.0256551    -3.650629    1149.3243  0.071582232  0.072416297            5 
 1339000     1.060839   -3.6739669    1152.1317  0.071703492  0.072403006            4 
 1340000    1.0175913   -3.6296791    1149.5785    0.0714912  0.072389797            2 
 1341000    1.0196296   -3.6579465    1151.2931  0.071544441  0.072375927            5 
 1342000    1.0296652   -3.6430228    1152.8889  0.071590222  0.072362484            5 
 1343000     1.041708   -3.6680738    1153.3546  0.071565809  0.072348833            2 
 1344000    1.0371094   -3.6843284    1152.4734  0.071457923  0.072335152            7 
 1345000    1.0348801    -3.626573    1153.6179  0.071475706  0.072321836            3 
 1346000    1.0340309   -3.6321886    1157.8751  0.071686176  0.072308411            2 
 1347000     1.028532   -3.6521321    1156.2313  0.071531263  0.072294604            3 
 1348000    1.0375178   -3.6502585    1160.1892  0.071722875  0.072280985            2 
 1349000    1.0629648   -3.6498448    1155.8219  0.071399918  0.072266923            2 
 1350000    1.0450076     -3.64667    1161.3801   0.07169013   0.07225305            3 
 1351000    1.0212659   -3.6686578     1154.703  0.071225202  0.072238974            2 
 1352000    1.0558819   -3.6418001    1163.0293  0.071685729  0.072225016            2 
 1353000    1.0429626   -3.6664809    1156.4505  0.071227548  0.072210625            3 
 1354000    1.0384103   -3.6677261    1160.5232    0.0714256  0.072196437            3 
 1355000    1.0446553   -3.6448861    1161.0829  0.071407313  0.072182259            1 
 1356000    1.0089309   -3.6656187    1159.5373  0.071259668  0.072168588            3 
 1357000    1.0191123   -3.6533182    1164.1016   0.07148745  0.072154709            2 
 1358000    1.0279483   -3.6754686    1159.2442  0.071136736  0.072140869            6 
 1359000    1.0182643   -3.6753991    1161.0318  0.071194002   0.07212667            2 
 1360000    1.0454219    -3.664105     1165.611  0.071422245  0.072112606            3 
 1361000    1.0507426   -3.6259303    1162.0603   0.07115236  0.072098856            2 
 1362000    1.0317696   -3.6476735    1163.4763  0.071186756  0.072085084            2 
 1363000    1.0454885   -3.7009721    1164.2068  0.071179191  0.072071397            2 
 1364000    1.0152719   -3.6551269    1163.1301  0.071061225  0.072057526            2 
 1365000    1.0288341   -3.6239314    1170.1805   0.07143959  0.072043347            2 
 1366000    1.0499328   -3.6354711    1167.2556  0.071208859  0.072029371            4 
 1367000    1.0187813   -3.6700614    1167.2842  0.071158509  0.072014894            3 
 1368000    1.0263788   -3.6638017    1168.6124  0.071187404  0.072000762            3 
 1369000    1.0271261   -3.6577897    1168.9154  0.071153848  0.071987191            3 
 1370000    1.0123575    -3.673784    1172.8096  0.071338785   0.07197358            3 
 1371000    1.0335314   -3.6325425    1168.8212  0.071044322  0.071959764            2 
 1372000     1.063447    -3.663218    1175.3219  0.071387383  0.071945651            3 
 1373000    1.0490575   -3.6412582    1177.5527  0.071470789  0.071931874            2 
 1374000    1.0569371   -3.6680745    1174.3841  0.071226597  0.071918121            2 
 1375000    1.0034101   -3.6882826    1169.2465  0.070863422  0.071904153            3 
 1376000    1.0469343   -3.6494341    1175.9014  0.071214957  0.071890556            6 
 1377000    1.0404082   -3.6473668     1177.909   0.07128474  0.071876908            3 
 1378000    1.0543859   -3.6473116    1176.2705   0.07113392  0.071863366            3 
 1379000    1.0212291   -3.6566029     1174.732  0.070989364  0.071849412            1 
 1380000    1.0213305   -3.6586773    1174.7215  0.070937287  0.071835329            4 
 1381000    1.0390387   -3.6688169    1172.5347  0.070753963  0.071821472            8 
 1382000    1.0411292   -3.6275728    1177.7097  0.071014813  0.071807754            2 
 1383000    1.0274078   -3.6323721    1180.0491  0.071104431  0.071794259            2 
 1384000     1.041202   -3.6671852    1179.8385  0.071040374  0.071780613            3 
 1385000    1.0381174   -3.6440712    1177.2231  0.070831714  0.071766588            2 
 1386000    1.0448015   -3.6337987     1179.447  0.070914323  0.071752702            2 
 1387000    1.0295658   -3.6776163    1183.2314  0.071090569  0.071738562            1 
 1388000    1.0143385   -3.6613194     1180.044   0.07084798  0.071724336            1 
 1389000    1.0246952   -3.6483755    1184.8537  0.071085536  0.071710498            4 
 1390000    1.0142667   -3.6557667     1184.302   0.07100132  0.071696636            2 
 1391000    1.0354849   -3.6914905    1182.7613  0.070857972  0.071682753            2 
 1392000    1.0272611    -3.649477    1185.8406  0.070991415  0.071668898            3 
 1393000    1.0405822   -3.6554438    1184.3701  0.070852484  0.071654948            4 
 1394000    1.0228224   -3.6861126    1186.0334   0.07090109  0.071641267            2 
 1395000    1.0418971    -3.677439    1183.7969  0.070716661  0.071627444            2 
 1396000    1.0443798   -3.6603811    1185.9845  0.070796591  0.071613355            3 
 1397000      1.04259   -3.6641179    1186.9601   0.07080411  0.071599377            2 
 1398000    1.0154862   -3.6493529     1192.345  0.071074449   0.07158556            4 
 1399000    1.0277442   -3.6456616    1188.0984  0.070770696  0.071572222            5 
 1400000     1.044889    -3.647315    1191.7711  0.070938757  0.071558519            3 
 1401000    1.0326516   -3.6686801    1188.9489  0.070720254  0.071544678            5 
 1402000    1.0206338   -3.6526638    1195.1095  0.071035988  0.071530834            4 
 1403000    1.0252895   -3.6844957    1191.6618  0.070780579  0.071517132            5 
 1404000    1.0533866   -3.6398147    1188.7422  0.070556873  0.071503541            2 
 1405000    1.0515068   -3.6446791    1194.5301  0.070849945  0.071490341            2 
 1406000    1.0266524   -3.6818811     1194.884  0.070820529  0.071476869            2 
 1407000    1.0264404   -3.6873846    1193.8476  0.070708816  0.071463491            2 
 1408000    1.0125938   -3.6829494    1196.3158  0.070804676  0.071449641            3 
 1409000    1.0116209   -3.6462341    1195.6773  0.070716663  0.071436281            2 
 1410000    1.0155779   -3.6688378    1195.3381  0.070646462  0.071422991            3 
 1411000    1.0237398   -3.6507045    1199.8972  0.070865649  0.071409745            3 
 1412000      1.04134   -3.6851643    1197.7064  0.070686166  0.071396174            3 
 1413000    1.0175222   -3.6646772    1201.3899   0.07085338  0.071382641            2 
 1414000    1.0189382   -3.6519342    1201.2095  0.070792638  0.071369195            2 
 1415000     1.031773   -3.6957351    1201.6776  0.070770176  0.071356025            8 
 1416000    1.0164856   -3.6495342    1200.3169  0.070640121  0.071342718            1 
 1417000    1.0468149   -3.6783021     1199.473  0.070540636  0.071329335            4 
 1418000    1.0334867   -3.6712359    1204.3245  0.070776006  0.071316097            1 
 1419000    1.0180463   -3.6702657    1205.4271  0.070790878  0.071302839            2 
 1420000    1.0439618   -3.6797816    1205.3115  0.070734242    0.0712895            3 
 1421000    1.0228806     -3.69636    1202.6799   0.07053014  0.071276449            3 
 1422000    1.0165433   -3.6659834    1203.6095  0.070535016  0.071263091            4 
 1423000    1.0303579   -3.6985547    1203.8608  0.070500166  0.071249304            2 
 1424000    1.0222119   -3.6722976    1203.5276  0.070431156   0.07123581            2 
 1425000    1.0252261   -3.6741365    1203.1996  0.070362552  0.071222532            5 
 1426000    1.0610496    -3.651487     1207.511  0.070565159  0.071209337            2 
 1427000    1.0075628   -3.6482567    1207.1731  0.070495979  0.071195928            2 
 1428000    1.0452908   -3.6743246     1204.943  0.070316469    0.0711825            4 
 1429000    1.0081059   -3.6639065    1207.8734  0.070438148  0.071168739            2 
 1430000     1.025059    -3.662378    1209.7246  0.070496769  0.071155141            3 
 1431000    1.0241365   -3.6900494    1212.1866  0.070590881  0.071141665            3 
 1432000    1.0382573   -3.6794634    1213.1979  0.070600434  0.071127815            3 
 1433000    1.0258315   -3.6513797    1214.8704   0.07064843  0.071114271            4 
 1434000    1.0239906   -3.6785975    1211.1854  0.070385016  0.071100364            3 
 1435000    1.0137242   -3.6705507    1211.0651  0.070328985  0.071087094            2 
 1436000    1.0297702   -3.6689527    1213.3786  0.070414266  0.071073592            6 
 1437000   0.98773469   -3.6685316    1213.4087   0.07036701  0.071060023            3 
 1438000    1.0450006   -3.6485333    1216.4259  0.070492922   0.07104658            1 
 1439000    1.0255666    -3.636158     1219.572  0.070626129  0.071033442            3 
 1440000    1.0320337   -3.6641773    1223.0472  0.070778192   0.07102025            2 
 1441000   0.99951983   -3.6689129    1215.4767  0.070291276  0.071006873            2 
 1442000    1.0447807   -3.6900146    1214.6076  0.070192304  0.070993717            3 
 1443000    1.0174391   -3.7060318     1219.019   0.07039842  0.070980358            2 
 1444000    1.0261392   -3.6775277    1216.2623  0.070190576  0.070967136            3 
 1445000    1.0362005   -3.6641274    1225.1599  0.070655124  0.070954207            5 
 1446000    1.0293925   -3.6870412    1219.8629  0.070300998  0.070941571            3 
 1447000    1.0124064   -3.6788109    1223.1327  0.070440723  0.070928585            4 
 1448000    1.0291738    -3.668564    1222.6657  0.070365201  0.070915602            4 
 1449000    1.0439184   -3.6643923    1227.3404  0.070585484  0.070902833            4 
 1450000    1.0143192   -3.6767327    1226.5383  0.070490706  0.070890283            1 
 1451000    1.0356325    -3.661778    1225.0022  0.070353903   0.07087795            2 
 1452000    1.0211773   -3.6681029    1227.1996  0.070431568  0.070865364            4 
 1453000    1.0201964   -3.6534396    1229.6496  0.070523606  0.070852766            3 
 1454000    1.0267788   -3.6753663    1228.1489  0.070389095  0.070839966            2 
 1455000    1.0331404   -3.6772936    1223.8833  0.070096407  0.070827063            6 
 1456000    1.0213597   -3.6748976    1223.4638  0.070024258  0.070813663            4 
 1457000     1.005784   -3.6685079    1227.9575  0.070233212  0.070800522            3 
 1458000    1.0182482   -3.6796246    1226.2262  0.070086091  0.070787413            2 
 1459000    1.0008496   -3.6422219    1229.6926  0.070236043  0.070774434            3 
 1460000    1.0206748   -3.6553512    1229.9597   0.07020318  0.070761547            3 
 1461000    1.0193593   -3.6936227     1230.719   0.07019844  0.070748921            2 
 1462000     1.004769   -3.7050381    1231.2853  0.070182703  0.070735839            4 
 1463000    1.0364472   -3.6799491    1235.5823  0.070379487  0.070723145            6 
 1464000    1.0127661   -3.6653868    1230.1132  0.070020104   0.07070993            3 
 1465000    1.0381456   -3.7047503    1233.2226  0.070149183  0.070697026            2 
 1466000    1.0192982   -3.6896837    1234.3837   0.07016733  0.070684193            2 
 1467000    1.0175801   -3.6946637    1233.6448  0.070077527  0.070670986            3 
 1468000    1.0326715   -3.7214698     1232.125  0.069943514  0.070658356            8 
 1469000    1.0215312   -3.6429572    1239.8293  0.070332953   0.07064522            2 
 1470000    1.0002708   -3.6564001     1238.424  0.070205443  0.070632519            2 
 1471000    1.0036847   -3.6799868    1234.6073  0.069941494  0.070619564            3 
 1472000     1.017325   -3.7054503    1234.9735  0.069914714  0.070606855            4 
 1473000    1.0199554   -3.6904328    1238.1424  0.070046525  0.070593702            3 
 1474000    1.0181951   -3.6833397    1241.9208  0.070212618  0.070580837            4 
 1475000   0.98218135   -3.6530825    1237.5884   0.06992025   0.07056798            1 
 1476000    1.0206689   -3.6880831    1240.0971  0.070014517  0.070554908            2 
 1477000    1.0199332    -3.669297    1242.6389  0.070110524  0.070541751            3 
 1478000    1.0286395   -3.6821572    1241.1814  0.069980906  0.070529236            4 
 1479000    1.0378134   -3.6975431    1242.7682     0.070023  0.070516989            3 
 1480000    1.0120236   -3.6700666    1243.8261  0.070035252  0.070504686            2 
 1481000    1.0237458   -3.6796516    1245.8644  0.070102658   0.07049177            2 
 1482000    1.0116133   -3.6393661    1249.8571  0.070279866  0.070479304            2 
 1483000    1.0143534   -3.7109154    1244.7888  0.069947673  0.070466722            1 
 1484000     1.006919   -3.7113395    1245.6527  0.069949054  0.070454255            3 
 1485000   0.99492133    -3.693777     1248.298  0.070050393  0.070442018            3 
 1486000    1.0082656   -3.6918351    1249.5691  0.070074532  0.070429517            3 
 1487000      1.00663   -3.6817928    1249.8036  0.070040551  0.070417488            4 
 1488000    1.0234702   -3.6733694    1248.3651   0.06991292  0.070405157            5 
 1489000    1.0053809   -3.6708433     1251.148  0.070021714  0.070392884            2 
 1490000    1.0261069   -3.6682545    1254.7572  0.070176576  0.070380664            4 
 1491000    1.0112463   -3.6704232    1252.2392  0.069988779  0.070368111            3 
 1492000    1.0108197   -3.6900017    1249.5788  0.069793275  0.070356046            3 
 1493000    1.0411976    -3.679291    1251.9556  0.069879192  0.070343296            3 
 1494000    0.9967882   -3.7085243    1250.9467  0.069776142  0.070330594            5 
 1495000    1.0292115   -3.6981719    1253.1664    0.0698532  0.070318017            2 
 1496000   0.99881739   -3.6798066    1253.6247  0.069832038  0.070305407            2 
 1497000    1.0081588   -3.7010522     1254.755  0.069848309  0.070293097            3 
 1498000    1.0200296   -3.6857888    1253.9833  0.069758751  0.070280642            5 
 1499000    0.9870817   -3.6658674    1258.2071  0.069947026  0.070268155            1 
 1500000    0.9940829   -3.6697033    1260.4112  0.070022844  0.070255863            2 
 1501000    1.0049525   -3.6741506    1255.8381  0.069722302  0.070243633            5 
 1502000    1.0296333   -3.6829408    1263.3765  0.070094127  0.070231629            3 
 1503000    1.0020804   -3.6860751    1263.1309  0.070033872  0.070219223            3 
 1504000     1.041897   -3.6801817     1260.811  0.069858768  0.070207364            2 
 1505000    1.0244888   -3.6839364    1262.0096  0.069878716  0.070194941            4 
 1506000    1.0178039   -3.7188488    1257.3857  0.069576457  0.070182688            2 
 1507000    1.0018116   -3.6622787    1261.7318  0.069770615  0.070171002            2 
 1508000   0.97311591   -3.6759783     1260.825  0.069674239  0.070158414            3 
 1509000    0.9963888   -3.7262909    1258.8185  0.069517256  0.070145893            2 
 1510000   0.99441355   -3.6966939    1262.9427  0.069698824  0.070133412            6 
 1511000   0.99579787   -3.6872279    1268.6073  0.069965109  0.070121379            2 
 1512000    1.0319984    -3.674253    1262.8485   0.06960144  0.070109342            3 
 1513000    1.0280606   -3.6840833      1268.29  0.069855143  0.070097239            2 
 1514000   0.99576837   -3.7194203    1270.0443  0.069905563  0.070085279            2 
 1515000    1.0272606   -3.6780636     1272.369  0.069987293  0.070073228            7 
 1516000   0.98460437   -3.7011364    1271.0113  0.069866495  0.070060977            5 
 1517000    1.0243697   -3.6863421    1271.5705  0.069851157  0.070049105            2 
 1518000      1.04314   -3.6806577    1268.0339  0.069610998  0.070037669            3 
 1519000    1.0033987   -3.7031339    1274.2575  0.069906599  0.070025721            3 
 1520000    1.0231894   -3.6884462     1273.831  0.069837226  0.070013898            3 
 1521000    1.0145755   -3.7209131    1275.7743  0.069897781  0.070001888            2 
 1522000    1.0034307   -3.6970879    1273.4298  0.069723491  0.069989815            4 
 1523000   0.97478338   -3.6742749     1278.734  0.069967935  0.069977838            2 
 1524000    1.0226869   -3.6950686    1276.5377  0.069801927  0.069965686            2 
 1525000    1.0104973   -3.6889827    1274.0118  0.069618131  0.069953713            5 
 1526000    1.0046084   -3.6624573    1277.1291  0.069742744  0.069942044            2 
 1527000    0.9990283   -3.7094936    1278.1777  0.069754297  0.069930169            4 
 1528000    1.0136721   -3.7033647    1270.9787  0.069316027   0.06991824            1 
 1529000    1.0098079   -3.6883209    1278.3776   0.06967395  0.069906003            1 
 1530000    1.0011654   -3.7080631    1275.1208  0.069451023  0.069893945            4 
 1531000    1.0284412   -3.7222924    1280.7267  0.069710795  0.069881609            3 
 1532000    1.0114205   -3.6612504    1282.5643   0.06976525  0.069869595            2 
 1533000    1.0016615   -3.7035424    1280.8988  0.069629204  0.069857821            2 
 1534000    1.0071099   -3.7381576    1280.4165  0.069557609  0.069845701            3 
 1535000   0.99398459   -3.6953102     1285.147   0.06976911    0.0698335            3 
 1536000   0.99049793    -3.681389    1283.7428  0.069647505  0.069821522            2 
 1537000    1.0120659   -3.6851035    1275.8893  0.069176387  0.069809266            2 
 1538000   0.99643503    -3.684735    1284.0716  0.069574748   0.06979729            3 
 1539000   0.99780684   -3.6893034     1283.707  0.069509803  0.069785328            6 
 1540000   0.99424639   -3.6782973    1280.0326  0.069265832  0.069773443            5 
 1541000   0.98192163   -3.6989403    1282.9225  0.069377161  0.069761127            2 
 1542000    0.9995863   -3.6904963    1282.8766  0.069329691  0.069748685            4 
 1543000    1.0085108   -3.6995739    1284.8865  0.069393311  0.069736254            3 
 1544000    0.9773818    -3.690123    1286.8545   0.06945458  0.069723749            3 
 1545000    1.0052676   -3.6895879    1290.6499  0.069614343  0.069711394            2 
 1546000    1.0152584    -3.718996     1287.029  0.069374136  0.069698677            2 
 1547000    1.0142424   -3.6723994    1285.6245  0.069253636  0.069686417            3 
 1548000    1.0037264   -3.6694257     1288.522  0.069364879   0.06967372            3 
 1549000    1.0083078   -3.6905872    1288.4379  0.069315576  0.069661373            2 
 1550000    1.0148733   -3.6928596    1283.9033  0.069027058  0.069648998            3 
 1551000   0.99848251   -3.7085219    1293.2702  0.069485828  0.069636956            2 
 1552000    1.0030569   -3.6881957    1293.2011  0.069437347  0.069625057            2 
 1553000   0.99053085   -3.6905841    1291.0082  0.069274965  0.069612805            2 
 1554000    1.0104658   -3.6785196    1295.1267  0.069451239  0.069600624            2 
 1555000    1.0167655   -3.6833341    1296.1412  0.069460942  0.069588699            3 
 1556000   0.99849441   -3.6887827    1292.6365  0.069228605  0.069576462            2 
 1557000    1.0089415   -3.6777601    1294.0752  0.069261141  0.069564852            5 
 1558000   0.99846136    -3.688842    1299.1278  0.069486937  0.069553024            3 
 1559000   0.98951859    -3.734053    1294.2221  0.069180143  0.069541489            5 
 1560000    1.0207439    -3.671025    1301.4458  0.069521676  0.069529868            2 
 1561000    1.0148904    -3.684411    1302.4709  0.069531864  0.069518323            3 
 1562000    1.0062807   -3.6974862    1296.4239  0.069164742  0.069506805            3 
 1563000   0.98339844   -3.7117495     1302.375  0.069437781  0.069495391            4 
 1564000    1.0161569   -3.7425072    1298.3688  0.069179926  0.069483972            3 
 1565000     1.008736   -3.6692909    1306.7658  0.069582845  0.069473101            1 
 1566000   0.99006078   -3.7206756    1300.1542  0.069186582  0.069462242            3 
 1567000   0.98549201   -3.7134283    1307.3761  0.069526491  0.069451024            2 
 1568000    1.0232948   -3.7050707    1304.9851  0.069355073   0.06943996            3 
 1569000    1.0173382   -3.6881657    1307.6262  0.069451148  0.069429304            2 
 1570000    1.0117681   -3.7449166    1304.4034  0.069235851  0.069418373            8 
 1571000   0.97518891   -3.7314148    1305.0175  0.069224352  0.069407159            3 
 1572000   0.99626113   -3.6959175    1308.4625   0.06936294  0.069396125            3 
 1573000   0.98428407   -3.7198748    1312.9708  0.069557682  0.069385006            1 
 1574000   0.98978969   -3.6950424    1311.4521  0.069433085  0.069374376            2 
 1575000    1.0079917   -3.7195242    1311.9318  0.069414381  0.069363719            3 
 1576000     1.014832     -3.70236    1317.3091  0.069654667  0.069353227            3 
 1577000   0.98821889   -3.6913081    1316.0794  0.069545517  0.069342607            5 
 1578000    1.0147766   -3.6770258    1313.2131  0.069350079   0.06933212            3 
 1579000    0.9997617   -3.6839083     1319.074  0.069615471   0.06932162            2 
 1580000    1.0011202   -3.6954293    1318.9094  0.069562733  0.069310822            2 
 1581000   0.98374151   -3.7138443    1316.6463  0.069399448  0.069299888            2 
 1582000    1.0148484   -3.6980941    1318.2736  0.069441297  0.069289276            4 
 1583000   0.99625773   -3.7001427    1319.9532  0.069485849  0.069278617            3 
 1584000   0.98935471   -3.7157559    1321.1071  0.069502688  0.069267639            3 
 1585000    1.0122203   -3.7089133    1317.9964  0.069295288  0.069256657            5 
 1586000    1.0113665   -3.7149929    1316.7736  0.069187349  0.069245559            2 
 1587000   0.98970599   -3.6893003    1320.7059  0.069350237  0.069234298            3 
 1588000    1.0047137   -3.7333782    1319.9604  0.069267443  0.069223476            3 
 1589000    1.0383194   -3.6934939    1321.6873  0.069314414  0.069212464            3 
 1590000   0.98505712     -3.74169    1317.8825  0.069071408  0.069201631            4 
 1591000    0.9865246   -3.7205319    1321.6648  0.069226105  0.069190766            1 
 1592000     1.008392   -3.7149505    1320.2911  0.069110713  0.069180096            3 
 1593000    1.0015676    -3.716185    1326.4622  0.069390157  0.069169242            2 
 1594000   0.97404833   -3.7128633    1321.1047  0.069066538   0.06915836            2 
 1595000   0.99771271   -3.7345243    1319.4718  0.068937923  0.069147517            1 
 1596000    0.9992764   -3.6988697    1327.5333  0.069315647  0.069136542            2 
 1597000    1.0018349   -3.7170343    1323.1934  0.069045784  0.069125636            3 
 1598000   0.99055724   -3.7171068    1326.0769  0.069152945  0.069114789            1 
 1599000   0.99266173   -3.7226553    1321.1582  0.068853359  0.069104068            1 
 1600000   0.99701983   -3.6944248     1322.886  0.068900313  0.069092847            5 
 1601000    1.0082263   -3.7215916    1328.1024  0.069128795  0.069081923            3 
 1602000   0.96724705    -3.712705    1331.9541  0.069286002   0.06907126            1 
 1603000   0.98778526   -3.7170327    1326.6771  0.068968448  0.069060375            2 
 1604000   0.96537392   -3.7348575    1323.4613  0.068758378  0.069049275            3 
 1605000   0.98201827   -3.7087362    1327.5262  0.068926595  0.069038098            2 
 1606000    1.0066128   -3.7168654    1331.7198  0.069101277  0.069027051            3 
 1607000    1.0008965    -3.720463    1329.7348   0.06895534  0.069015639            3 
 1608000   0.98043755   -3.6930158    1326.4414  0.068741782  0.069004393            3 
 1609000   0.99119198   -3.6907585     1332.648  0.069020508  0.068993134            6 
 1610000   0.98631398   -3.6831664    1331.8737   0.06893756  0.068981695            3 
 1611000    0.9786949   -3.6998682     1330.951  0.068847043  0.068970615            2 
 1612000    1.0045831    -3.687491    1334.2156  0.068973097  0.068959014            2 
 1613000    1.0079891   -3.7181099     1333.816  0.068909693  0.068947478            3 
 1614000   0.99572707   -3.7194064    1333.9033  0.068871506  0.068935851            1 
 1615000   0.99489375   -3.7302962    1326.6162  0.068452846  0.068924405            3 
 1616000   0.96385557   -3.7601016    1324.1543  0.068283533  0.068912476            2 
 1617000    0.9873966   -3.7452523    1332.4639  0.068669546  0.068900818            4 
 1618000    1.0090721   -3.7191698    1335.4985  0.068783398  0.068889386            5 
 1619000   0.97939285    -3.690571    1337.6225  0.068850242  0.068878111            4 
 1620000   0.97387537   -3.7447893    1334.4374  0.068643898  0.068866767            3 
 1621000    1.0059125   -3.7117672    1333.5647   0.06855669  0.068855166            4 
 1622000    1.0008782   -3.7036645    1335.8573  0.068632206  0.068843031            8 
 1623000   0.98473324   -3.7323926    1332.7731  0.068431564  0.068831621            1 
 1624000   0.96667545   -3.7086771    1343.4044  0.068934952  0.068819852            2 
 1625000    0.9980996   -3.7008338    1348.5191  0.069154828  0.068808505            1 
 1626000    1.0034746   -3.7132332    1337.1118  0.068527666   0.06879697            2 
 1627000   0.98453714   -3.6807826    1339.9518   0.06863101   0.06878541            3 
 1628000   0.99325605   -3.6938758    1345.7474  0.068885512  0.068774051            1 
 1629000    1.0004077   -3.7090202    1340.2159  0.068560257  0.068762634            2 
 1630000   0.99207542   -3.7384579    1341.5541   0.06858661  0.068751093            4 
 1631000   0.99919558   -3.7273182    1343.4217  0.068639978   0.06873941            3 
 1632000   0.99168216   -3.7289237    1341.4873  0.068499149  0.068727978            3 
 1633000   0.97868795   -3.7048314    1346.1252  0.068693877  0.068716708            4 
 1634000   0.98438625    -3.730271    1342.1721  0.068450229  0.068705662            3 
 1635000    1.0018619   -3.7212868    1347.4522  0.068677481  0.068694233            3 
 1636000   0.99171722   -3.7283207    1347.1965   0.06862248  0.068682693            3 
 1637000   0.96962342   -3.7482634    1344.3159  0.068433919  0.068671184            2 
 1638000    1.0030578   -3.7431059    1346.8793  0.068522555  0.068659834            2 
 1639000   0.99056255   -3.7163929    1348.1276  0.068544215   0.06864812            1 
 1640000   0.99382369   -3.6986549    1349.1435  0.068554037  0.068636676            3 
 1641000   0.98227714   -3.7348504    1348.4208  0.068475563  0.068625171            3 
 1642000   0.99777355   -3.7237693    1344.1867  0.068218976  0.068613231            2 
 1643000   0.99813177   -3.6992619    1345.6006  0.068249171   0.06860166            2 
 1644000   0.98589498   -3.7221485    1352.8806  0.068576672  0.068589937            4 
 1645000   0.96915018    -3.704805     1348.762  0.068326343  0.068578236            4 
 1646000   0.97628309    -3.727394    1353.2674   0.06851293  0.068566206            3 
 1647000   0.98412665   -3.7224213     1356.107  0.068615008  0.068554592            2 
 1648000   0.97916807   -3.7376271    1352.0092  0.068366159   0.06854322            1 
 1649000   0.99044278    -3.722259    1353.4123  0.068395607  0.068531617            1 
 1650000   0.99112335   -3.7155711     1356.697  0.068520053  0.068519668            4 
 1651000   0.97679186   -3.7253898    1352.4449  0.068263925  0.068508128            7 
 1652000   0.97054555    -3.727746    1350.2122  0.068109978  0.068496338            5 
 1653000   0.99808011   -3.7379856    1354.5978  0.068289868  0.068484735            2 
 1654000    0.9904946   -3.7367282    1358.4977  0.068445067  0.068473458            4 
 1655000   0.98046271   -3.7180236    1357.2759  0.068342191  0.068461738            2 
 1656000   0.97294465   -3.7394397    1360.7451  0.068475497  0.068449982            2 
 1657000   0.98942074   -3.7543472    1354.8847  0.068139443  0.068438343            4 
 1658000   0.98765752   -3.7292493    1360.1372  0.068362342   0.06842699            2 
 1659000    1.0027323   -3.7128875    1358.3526  0.068231493  0.068415644            4 
 1660000   0.99740145   -3.7054711    1360.5644  0.068301425  0.068404298            2 
 1661000    1.0107552   -3.7437878    1358.4354  0.068153491  0.068393157            3 
 1662000   0.98901369   -3.7326525    1366.3089  0.068507268  0.068381896            1 
 1663000   0.99667009   -3.7022026    1362.4677  0.068273587  0.068370538            3 
 1664000   0.99816344   -3.6941393    1370.1458  0.068617079   0.06835932            3 
 1665000   0.96984229   -3.7423633    1364.1315  0.068274848  0.068348028            2 
 1666000   0.98080627   -3.7438409     1357.571  0.067905714  0.068336336            4 
 1667000   0.96889999   -3.7493966    1364.2405  0.068198384  0.068324542            1 
 1668000   0.98350315   -3.7555356    1361.5694  0.068024053  0.068312863            3 
 1669000   0.99030234   -3.7450846    1357.3883   0.06777453  0.068300786            6 
 1670000    0.9843953   -3.7135657     1363.329   0.06803039  0.068289087            2 
 1671000    1.0133931   -3.7280782    1361.5955  0.067903225  0.068277431            3 
 1672000   0.99384197   -3.7270212    1363.8801  0.067976479  0.068265878            4 
 1673000   0.97822008   -3.7359287    1368.2605  0.068154041  0.068254033            2 
 1674000   0.97855772   -3.6972734     1371.689  0.068283999  0.068242545            2 
 1675000    1.0018318   -3.7329111    1365.0021   0.06791055  0.068231289            3 
 1676000   0.98636746   -3.7365065    1373.6173  0.068298395  0.068219952            3 
 1677000   0.97600984   -3.7232798    1369.9992  0.068077877  0.068208299            2 
 1678000   0.96361512   -3.7253307    1369.6966  0.068022281  0.068196826            3 
 1679000   0.99012297   -3.7329043     1376.282  0.068308618  0.068185438            2 
 1680000    0.9640703   -3.7381418    1368.9265  0.067903101  0.068173936            2 
 1681000   0.97183372   -3.7225333    1372.8271  0.068056071  0.068162291            3 
 1682000   0.94936114   -3.6983249     1376.858  0.068215319  0.068150948            3 
 1683000   0.97130944   -3.7250034    1372.9433  0.067980952  0.068139481            2 
 1684000   0.96421424   -3.7295106    1368.2166  0.067706679  0.068128345            4 
 1685000   0.98154423   -3.7004348    1376.2665  0.068064614  0.068116835            3 
 1686000   0.98122858   -3.7291613    1377.2938  0.068075017  0.068105259            4 
 1687000   0.98594003    -3.725986    1374.3129  0.067887419  0.068093604            2 
 1688000   0.98610402   -3.7654036    1370.9752  0.067682427   0.06808179            3 
 1689000   0.99553798   -3.6895563    1375.3236  0.067856898  0.068070057            8 
 1690000   0.98832897   -3.7489953     1378.662   0.06798136  0.068058532            1 
 1691000   0.98945475   -3.7513641    1374.0051  0.067711665  0.068046606            2 
 1692000    0.9830796   -3.7401926     1380.378  0.067985521  0.068034818            2 
 1693000   0.99548052   -3.6958088     1385.968  0.068220517   0.06802328            8 
 1694000   0.99896172   -3.7545057    1381.0929  0.067940423  0.068011878            5 
 1695000   0.99194522   -3.7526741    1378.0014  0.067748349  0.068000282            1 
 1696000    0.9696641   -3.7309091    1382.3269  0.067920936  0.067988803            2 
 1697000   0.97867801   -3.7171051    1388.4845  0.068183289  0.067977385            3 
 1698000   0.97267077   -3.7475693    1378.4239  0.067649386   0.06796571            4 
 1699000   0.96788272   -3.7185679     1383.985  0.067882335   0.06795425            2 
 1700000   0.98698267   -3.7270487    1380.2541  0.067659514  0.067942725            2 
 1701000   0.96936085   -3.7111018    1382.0565  0.067708038  0.067931449            4 
 1702000   0.98420146    -3.740081    1384.0514  0.067765935  0.067919824            3 
 1703000   0.97155002   -3.7148715    1387.1678  0.067878636   0.06790844            4 
 1704000   0.94937807    -3.702933     1391.763  0.068063527  0.067897056            4 
 1705000   0.98826797   -3.7337831    1381.5815  0.067525977  0.067885562            4 
 1706000   0.97434026   -3.7293558    1386.6501  0.067733985  0.067873929            3 
 1707000   0.97699848   -3.7317253    1387.3824  0.067730051  0.067862426            3 
 1708000   0.99150341   -3.7302232    1385.8261  0.067614466  0.067850348            3 
 1709000   0.95554638   -3.7293815    1394.4889  0.067997312  0.067838382            3 
 1710000   0.98030381     -3.76066    1389.5231  0.067715552  0.067826518            2 
 1711000   0.98185989   -3.7621211    1390.5441  0.067725701  0.067814414            2 
 1712000   0.99063444   -3.7353571     1388.824  0.067602417  0.067802735            2 
 1713000   0.96091327   -3.7782715    1389.7313   0.06760709  0.067790769            3 
 1714000   0.99653021   -3.7111055     1393.793   0.06776512  0.067779102            2 
 1715000   0.97639879   -3.7360259    1391.9504  0.067636075  0.067767284            6 
 1716000   0.97684168    -3.733978    1393.1383  0.067654347  0.067755715            4 
 1717000   0.98769949   -3.7427812    1399.2561  0.067911867  0.067744133            6 
 1718000   0.99792075   -3.7286329    1392.5089  0.067545055  0.067732519            3 
 1719000   0.98118421   -3.7441333    1393.7477  0.067565818  0.067720951            5 
 1720000    0.9689007    -3.744117     1397.704  0.067718219  0.067709554            2 
 1721000   0.98225946   -3.7522366    1395.7985  0.067586604  0.067697897            3 
 1722000   0.97067124    -3.733587    1395.1899    0.0675179  0.067686209            5 
 1723000   0.95791372   -3.7662479    1396.8749  0.067560208  0.067674814            7 
 1724000   0.97546358   -3.7565119    1399.7368   0.06765936  0.067663487            2 
 1725000    0.9540369   -3.7488575    1400.0875  0.067637078  0.067652067            3 
 1726000   0.95449694   -3.7125332    1403.0432  0.067740597  0.067641216            2 
 1727000    0.9771652   -3.7200083     1403.225  0.067710145  0.067629995            7 
 1728000    0.9755535   -3.7038396    1402.6289  0.067642212    0.0676189            3 
 1729000   0.96520615   -3.7248964    1401.0154  0.067525323  0.067607808            2 
 1730000   0.97156746    -3.735529    1402.6464  0.067564855  0.067596634            4 
 1731000   0.99042814   -3.7137181    1406.6352  0.067717852  0.067585551            2 
 1732000    0.9845828   -3.7609822    1400.7417  0.067395192  0.067574408            5 
 1733000   0.97284311   -3.7617555    1397.4869  0.067199791  0.067563027            2 
 1734000    1.0067759   -3.7379887    1405.7248  0.067556938  0.067551825            2 
 1735000   0.96859198   -3.7219608    1407.5985  0.067607998  0.067540616            2 
 1736000   0.98741781    -3.757105     1410.681  0.067717021  0.067529587            5 
 1737000   0.95470395   -3.7705965    1409.3134  0.067612425  0.067518566            4 
 1738000   0.96476077   -3.7267777    1407.2291  0.067473588  0.067507411            3 
 1739000   0.97890489   -3.7502005    1407.0049  0.067424044  0.067496522            3 
 1740000    0.9532611    -3.735221    1412.9565  0.067670329  0.067485165            5 
 1741000   0.97192084   -3.7712222     1408.815  0.067433229    0.0674739            4 
 1742000   0.97068789   -3.7164607    1415.2339  0.067701583  0.067462645            3 
 1743000    0.9548043   -3.7287626    1420.6631  0.067922314   0.06745165            3 
 1744000   0.98932083   -3.7462111    1414.3977  0.067583986  0.067440922            9 
 1745000   0.97318989   -3.7477659    1411.7509  0.067418856  0.067429913            2 
 1746000    0.9586013   -3.7238124    1419.8176  0.067765253  0.067418901            2 
 1747000   0.97089319   -3.7216983    1413.6399  0.067431784  0.067407965            9 
 1748000     0.974688   -3.7272316    1421.9354  0.067788684  0.067397302            2 
 1749000   0.97272294   -3.7509609    1419.0406     0.067612  0.067386561            2 
 1750000   0.97499545   -3.7553794    1416.6572  0.067459867  0.067376147            2 
 1751000    0.9770313   -3.7184301    1420.6543  0.067611569  0.067365619            3 
 1752000   0.95306762   -3.7554446    1416.8393  0.067391519  0.067355043            3 
 1753000   0.98498369   -3.7719307     1419.783  0.067493011  0.067344371            1 
 1754000   0.97360295   -3.7142302    1423.0262  0.067608618  0.067333675            5 
 1755000   0.96570171   -3.7572142    1416.0372  0.067238235  0.067323115            4 
 1756000   0.96787685   -3.7498712     1426.281  0.067686077  0.067312387            3 
 1757000   0.98292079   -3.7254915     1421.495  0.067420554  0.067301716            2 
 1758000   0.96388577   -3.7369571    1423.2069  0.067463352  0.067290817            1 
 1759000   0.98353602   -3.7330023    1424.4999  0.067486257  0.067280166            4 
 1760000   0.95664714   -3.7549351    1425.7476  0.067506989   0.06726957            3 
 1761000   0.97698532     -3.76632    1424.3189  0.067401045  0.067258615            4 
 1762000   0.95940617   -3.7526147     1420.838  0.067198166  0.067248081            4 
 1763000   0.99253878   -3.7560079    1420.6115  0.067149342  0.067237495            3 
 1764000   0.98833714   -3.7527639    1427.2322  0.067424044  0.067226942            6 
 1765000   0.97021114   -3.7784526    1424.5559  0.067259486  0.067216012            3 
 1766000   0.97895684   -3.7608525    1427.2164  0.067346942  0.067205605            4 
 1767000   0.96288212   -3.7559018    1430.6302  0.067469824  0.067195193            2 
 1768000   0.95927477   -3.7355635    1425.1695  0.067174278   0.06718434            9 
 1769000   0.96667074   -3.7657101    1433.6082  0.067533834  0.067173635            2 
 1770000   0.96277912   -3.7460407    1433.6523  0.067497752  0.067162822            6 
 1771000   0.99412303   -3.7699556    1430.1558  0.067295116  0.067152218            2 
 1772000   0.96089639   -3.7585965    1433.2024  0.067400413   0.06714159            2 
 1773000   0.99471213   -3.7508468    1434.3841  0.067417942  0.067130872            4 
 1774000   0.95797771   -3.7583384    1435.9139  0.067451801  0.067119919            6 
 1775000   0.95834869   -3.7507902    1430.3968  0.067154781  0.067109137            4 
 1776000   0.96974638    -3.740705    1435.5331  0.067357972   0.06709833            3 
 1777000   0.95647926   -3.7266432    1433.9719  0.067246854  0.067087757            1 
 1778000   0.99114712   -3.7705689    1430.0019  0.067022963  0.067077116            2 
 1779000   0.96768921   -3.7362649    1435.4818  0.067241979   0.06706641            3 
 1780000   0.94690303    -3.738878    1434.5853  0.067162234  0.067055696            4 
 1781000   0.94094593   -3.7674541    1435.7597  0.067179472  0.067044752            3 
 1782000   0.97644192   -3.7324951    1438.1057  0.067251482  0.067034141            3 
 1783000   0.98478618   -3.7734456    1428.9406   0.06678541  0.067023015            5 
 1784000   0.97433613   -3.7592784    1436.0705  0.067081023  0.067012222            2 
 1785000    0.9477217   -3.7672318    1433.3374  0.066915846  0.067001583            4 
 1786000   0.96906379   -3.7307212    1435.8374  0.066995025  0.066990966            5 
 1787000   0.95053481   -3.7792937    1436.6545  0.066995638  0.066980019            2 
 1788000   0.97709269   -3.7510294    1433.3455  0.066803946  0.066968999            5 
 1789000    0.9682017   -3.7616822    1435.2278  0.066854283  0.066958168            2 
 1790000   0.97204435   -3.7729378    1435.9549  0.066850786  0.066946626            2 
 1791000   0.95255742   -3.7464717    1436.5092  0.066839252  0.066935748            2 
 1792000   0.96068519   -3.7697358    1431.2588  0.066557793   0.06692472            4 
 1793000   0.95856244   -3.7310694    1445.9544  0.067203682  0.066913644            3 
 1794000   0.98310418   -3.7264978    1446.7396  0.067202692  0.066902645            4 
 1795000    0.9537565   -3.7620501    1439.9941  0.066852095  0.066891712            2 
 1796000   0.98966768   -3.7400526    1440.4181  0.066834544  0.066880506            4 
 1797000   0.95741825   -3.7682934    1440.7802  0.066814144  0.066869435            2 
 1798000   0.94318821   -3.7541878    1439.6686  0.066725464  0.066858065            1 
 1799000   0.96382876   -3.7334474    1439.9595  0.066701846  0.066846824            4 
 1800000   0.95348162   -3.7300591    1446.6917  0.066976468  0.066835232            1 
 1801000   0.95488175   -3.7641521    1445.2058  0.066870526  0.066823736            5 
 1802000   0.97602654   -3.7296715    1446.6224  0.066898925  0.066812639            2 
 1803000   0.97372005   -3.7525129    1443.4943  0.066717246    0.0668014            2 
 1804000   0.98808845   -3.7661478    1449.3438  0.066950469  0.066790373            2 
 1805000   0.95218938   -3.7671744    1442.4685  0.066595962  0.066778991            2 
 1806000   0.95876745   -3.7376838    1445.9899   0.06672157  0.066767959            1 
 1807000   0.97415644   -3.7474266    1446.7438  0.066719417  0.066756913            5 
 1808000   0.95516406   -3.7616631     1446.887  0.066689112  0.066745932            6 
 1809000   0.97359962   -3.7723923    1448.9758  0.066748472  0.066734993            8 
 1810000   0.96145425   -3.7763523    1448.3423  0.066682425  0.066723823            2 
 1811000   0.96051941   -3.7251563    1454.2767  0.066918676  0.066712584            3 
 1812000   0.97086714    -3.740562    1452.8821  0.066817608  0.066701513            3 
 1813000   0.95776321   -3.7441076    1457.9372  0.067013108  0.066690752            2 
 1814000   0.94643796   -3.7786326    1452.2489  0.066714851  0.066679975            2 
 1815000   0.97011112   -3.7596034    1455.3653  0.066821178  0.066669097            3 
 1816000   0.94476556   -3.7704306    1453.1902  0.066684571  0.066658157            6 
 1817000   0.98152999   -3.7999336    1448.0907  0.066413992  0.066647077            4 
 1818000   0.95178721   -3.7553677    1462.6754  0.067045992  0.066636326            4 
 1819000   0.95445222   -3.7577772    1457.8162  0.066786524  0.066625717            3 
 1820000   0.97344293   -3.7660739    1458.1092  0.066763242  0.066615069            5 
 1821000    0.9610278    -3.760459    1452.0284  0.066448305  0.066604346            2 
 1822000   0.94728011   -3.7619651    1459.6786  0.066761736  0.066593677            2 
 1823000   0.96361506   -3.7923972    1455.8304  0.066549204  0.066583156            9 
 1824000   0.97216129   -3.7779894    1461.2227  0.066759078  0.066572339            6 
 1825000    0.9435916   -3.7661224    1463.1528  0.066810629  0.066561804            3 
 1826000   0.97920352      -3.7422    1463.7584  0.066801678  0.066551334            2 
 1827000   0.97220442   -3.7573734    1462.3586  0.066701268   0.06654092            2 
 1828000   0.96140929   -3.7338298    1464.7545  0.066774003  0.066530105            3 
 1829000   0.97743983   -3.7519243    1463.8091  0.066694419  0.066519493            3 
 1830000   0.98004558   -3.7364122    1467.7453  0.066837216  0.066508784            2 
 1831000   0.95508752    -3.765249    1464.4155  0.066649166  0.066498078            3 
 1832000   0.94926446   -3.7795082     1462.222   0.06651301  0.066487179            2 
 1833000   0.95822642   -3.7401718    1463.1807  0.066520307  0.066475996            4 
 1834000   0.96333075   -3.7474471    1465.8832  0.066606834   0.06646504            2 
 1835000   0.96282191   -3.7667324      1470.16  0.066764761  0.066454093            2 
 1836000   0.96319123   -3.8052315    1466.1177  0.066544919  0.066443564           10 
 1837000   0.95503448   -3.7535447     1478.442  0.067067773  0.066433019            2 
 1838000   0.95332012   -3.7641075    1469.8704  0.066642656  0.066422259            4 
 1839000   0.94939792    -3.784154    1463.0911  0.066299217  0.066411547            3 
 1840000   0.94628187   -3.7885569    1471.9737  0.066665477  0.066400446            3 
 1841000   0.95323064   -3.7598159    1469.7252  0.066527485   0.06638977            2 
 1842000   0.96365191   -3.7760758    1469.5261   0.06648236  0.066378959            2 
 1843000   0.96921502   -3.7748314    1476.7749  0.066774052  0.066368098            2 
 1844000   0.95907218   -3.7797393    1470.8685   0.06647092  0.066357294            2 
 1845000   0.95081634   -3.7686081    1472.5702  0.066511754   0.06634652            3 
 1846000   0.94442129   -3.7678594    1470.3549  0.066375719  0.066336026            1 
 1847000   0.94480665   -3.7833577     1475.056  0.066551885  0.066325141            2 
 1848000   0.96837582   -3.7504891    1473.1304   0.06642904  0.066314181            3 
 1849000   0.96497785   -3.7882775    1472.0483  0.066344345  0.066303217            3 
 1850000   0.97400151   -3.7605757    1477.2565  0.066543086   0.06629211            9 
 1851000   0.96061147   -3.7960494     1470.898  0.066220871  0.066280984            2 
 1852000   0.95055593   -3.7571534    1476.1891  0.066423197  0.066270247            3 
 1853000   0.97012719   -3.7960145     1478.771  0.066503461  0.066259585            3 
 1854000    0.9594436   -3.7624464     1475.777  0.066333018  0.066248627            6 
 1855000   0.95093947   -3.7622661    1478.2673  0.066409131   0.06623797            2 
 1856000   0.96868045   -3.7747379    1482.7066  0.066572674  0.066227306            5 
 1857000   0.94065662    -3.772422     1478.229   0.06633589  0.066216687            2 
 1858000   0.96549033   -3.7927928    1479.1945  0.066343491  0.066206136            3 
 1859000   0.93885511   -3.7783628    1477.6104  0.066236795  0.066195221            5 
 1860000   0.98412218   -3.7616036    1481.2164  0.066362742  0.066184407            2 
 1861000   0.95655073   -3.7521833    1481.6109  0.066344748  0.066173576            1 
 1862000   0.95204128   -3.8063408    1477.2391  0.066113458    0.0661625            2 
 1863000   0.95840245   -3.8038445    1479.3048   0.06617037  0.066151684            5 
 1864000   0.94682905    -3.780453    1482.1094  0.066260258  0.066140591            4 
 1865000   0.93216078   -3.7865773    1482.5462  0.066244247  0.066129684            5 
 1866000   0.94582416   -3.7995457    1483.9577  0.066271778  0.066119099            2 
 1867000   0.94760554    -3.782603    1478.5978  0.065997045  0.066108307            3 
 1868000   0.97040677     -3.77336    1488.3659  0.066397478   0.06609765            3 
 1869000   0.94739971   -3.7920439    1485.6108  0.066239111  0.066086928            4 
 1870000   0.97687054    -3.773142    1492.4904  0.066510266    0.0660766            3 
 1871000   0.95358819   -3.7610388    1490.4698  0.066384722  0.066066316            3 
 1872000   0.93784901    -3.795493    1484.8493  0.066099061  0.066055618            3 
 1873000   0.94970168   -3.7675828     1490.453   0.06631309  0.066044795            4 
 1874000   0.95772197   -3.7967796    1488.0882  0.066172547  0.066034163            1 
 1875000   0.95631408   -3.7824203    1486.3184  0.066058597    0.0660231            3 
 1876000   0.94400299   -3.7733486    1483.5612  0.065900908  0.066012058            4 
 1877000   0.93512524   -3.8020343    1483.1415  0.065847161  0.066001513            2 
 1878000   0.93860483   -3.7921497    1486.6054  0.065965808  0.065990612            3 
 1879000   0.95364396   -3.7463491    1495.1637  0.066310259  0.065979916            4 
 1880000   0.94619233   -3.7986821    1485.7698  0.065858592  0.065969248            3 
 1881000   0.94512618   -3.7681207      1489.55  0.065991052  0.065958312            4 
 1882000   0.96309161   -3.7990378    1484.8171  0.065746416  0.065947014            6 
 1883000   0.95367389    -3.766766    1494.0035  0.066118051  0.065936027            6 
 1884000   0.96436458   -3.7889303    1487.5434  0.065797212  0.065925379            3 
 1885000   0.95532078   -3.7975271     1487.292  0.065751193  0.065914419            2 
 1886000   0.94677413   -3.7644315    1493.4167  0.065986953    0.0659035            4 
 1887000   0.95436305   -3.7955811    1493.1348  0.065939536  0.065892797            2 
 1888000   0.93451821    -3.776239    1491.8637  0.065848502  0.065882173            2 
 1889000   0.95892592   -3.7772649    1499.9936  0.066172295  0.065871387            2 
 1890000   0.96198586   -3.7708779    1497.7873  0.066040003  0.065860571            3 
 1891000   0.94075418   -3.7879241    1495.2449  0.065893044  0.065849537            3 
 1892000   0.95418731   -3.7787231     1502.885  0.066194723  0.065838873            7 
 1893000    0.9421073   -3.7815939    1498.5609  0.065969401  0.065828011            1 
 1894000   0.95264056   -3.7755063    1499.4185  0.065972302  0.065817088            1 
 1895000   0.94989281   -3.7741052    1495.9763  0.065786118  0.065805739            3 
 1896000   0.92484809   -3.7753918    1497.1584  0.065803375  0.065794507            4 
 1897000   0.92722163   -3.7800223    1493.7861  0.065620546  0.065783352            4 
 1898000   0.95490855   -3.7808349    1497.0759  0.065730414  0.065772046            3 
 1899000   0.95182603   -3.7614526    1504.6708  0.066029086  0.065761053            1 
 1900000   0.93689716   -3.7765647    1499.0429  0.065747496  0.065750199            5 
 1901000   0.95230971   -3.7979684    1499.8957  0.065750292   0.06573882            8 
 1902000   0.94754375   -3.8043583    1493.0397  0.065415338  0.065727688            2 
 1903000   0.94432199   -3.7641481    1505.4507   0.06592445  0.065716622            2 
 1904000   0.91995087   -3.7841736    1502.7262  0.065770578  0.065705773            4 
 1905000   0.95254582   -3.8037883    1501.2495  0.065671459  0.065694457            4 
 1906000   0.94914148   -3.7840349    1501.0986  0.065630405  0.065683219            4 
 1907000   0.94587584   -3.7922726    1502.1024  0.065639853   0.06567164            8 
 1908000   0.95856162   -3.8337379    1501.7154  0.065588548  0.065660492            4 
 1909000   0.96244263   -3.7774808    1502.8658   0.06560441  0.065649238            4 
 1910000   0.94592032   -3.8147819    1501.0003  0.065488669  0.065638224            2 
 1911000   0.93842142   -3.7984566    1500.7766  0.065444643   0.06562692            3 
 1912000   0.93220035   -3.7839125    1508.8918  0.065764112  0.065615686            3 
 1913000   0.92783533   -3.7518381    1508.2324   0.06570101  0.065604456            2 
 1914000   0.94386551   -3.7929099    1504.0163  0.065483119  0.065593042            3 
 1915000   0.93284836   -3.7636777    1504.0705  0.065451284  0.065581861            2 
 1916000    0.9490939   -3.7686551    1513.1401  0.065811591  0.065570818            8 
 1917000   0.97452287   -3.7896141    1505.1557  0.065430171  0.065559474            2 
 1918000   0.94568031   -3.7975136    1502.5331  0.065282112  0.065548258            4 
 1919000   0.93793844   -3.7959587    1511.9692  0.065657862  0.065537119            3 
 1920000   0.93570865   -3.7738065    1514.6462  0.065739854  0.065525862            2 
 1921000   0.94609786   -3.7914728    1515.3755  0.065737269  0.065514797            3 
 1922000   0.93708512   -3.8024584     1512.162  0.065563736  0.065503836            3 
 1923000   0.95007533   -3.7533922    1511.2257  0.065489066  0.065492756            2 
 1924000   0.93961232   -3.8104683    1511.8275  0.065481094  0.065481638            3 
 1925000   0.94430439   -3.7729052     1514.873  0.065578918   0.06547055            1 
 1926000   0.92937853   -3.7942825    1510.5301  0.065356961   0.06545957            2 
 1927000   0.93205109   -3.7853208    1514.0867  0.065476849  0.065448513            6 
 1928000   0.96167255    -3.810295    1515.3072  0.065495643  0.065437693            4 
 1929000   0.94458915   -3.7547354    1515.3256  0.065462483  0.065426931            4 
 1930000   0.94498448   -3.7712373    1512.5174  0.065307313  0.065416173            2 
 1931000   0.94662384   -3.7982643    1512.3123  0.065264641  0.065405228            3 
 1932000      0.95182   -3.7789352    1519.9281  0.065559357  0.065394258            3 
 1933000   0.94052689   -3.8127327    1513.3664  0.065242561  0.065383114            2 
 1934000   0.93000275   -3.7842334     1519.461  0.065471433  0.065371913            3 
 1935000   0.92300267   -3.7988566    1515.2031  0.065254227  0.065360848            2 
 1936000    0.9474199   -3.7639645    1519.0679  0.065386874  0.065349463            4 
 1937000   0.93692748   -3.7793649    1517.6973  0.065294153  0.065338302            3 
 1938000   0.95035437   -3.7821651    1514.7617  0.065134234  0.065326971            2 
 1939000   0.94030699   -3.7963368    1517.4045  0.065214221  0.065315742            3 
 1940000   0.92125519   -3.7902739    1517.3843  0.065179737  0.065304262            5 
 1941000   0.93343713   -3.8108951    1516.0706  0.065089755  0.065292885            3 
 1942000   0.92482649   -3.7818121    1518.0356  0.065140559  0.065281517            2 
 1943000   0.93655408   -3.8125345    1522.1668  0.065284216  0.065270118            2 
 1944000   0.93488579   -3.8018793    1522.4713  0.065263688   0.06525875            3 
 1945000   0.94428356   -3.8303951    1514.1042  0.064871646  0.065247469            2 
 1946000   0.94742033   -3.7768887    1523.1704  0.065226549    0.0652361            2 
 1947000   0.95164501   -3.7949508    1519.0637  0.065017277  0.065224678            2 
 1948000   0.93801977   -3.8056451    1520.2847  0.065036134  0.065213055            4 
 1949000   0.92055519   -3.7987562    1521.8825  0.065071084  0.065201555            3 
 1950000   0.93831102   -3.7902101    1528.3056  0.065312207  0.065190003            6 
 1951000    0.9337838   -3.8006591    1520.1143  0.064928852    0.0651785            6 
 1952000   0.93101036   -3.8175332    1522.0278  0.064977278  0.065166876            2 
 1953000   0.92543227   -3.7773467    1526.8213  0.065148547  0.065155369            5 
 1954000    0.9479134   -3.7920952    1528.0872  0.065169193  0.065143936            2 
 1955000   0.93987479   -3.8025177    1527.8997  0.065127863  0.065132459            2 
 1956000   0.94319398   -3.7937207    1525.1326  0.064976679  0.065120783            3 
 1957000   0.95037269   -3.8191459    1525.3573  0.064953046   0.06510913            6 
 1958000   0.94050767   -3.7856705    1532.2298  0.065212367  0.065097547            1 
 1959000   0.93384163   -3.8070107    1528.4158  0.065016837  0.065085908            4 
 1960000   0.94621073   -3.8288577    1526.8857   0.06491861  0.065074661            2 
 1961000   0.93670159   -3.8094691    1527.9813  0.064932065  0.065063348            1 
 1962000   0.93920115   -3.8052376    1525.9492  0.064812658  0.065052011            4 
 1963000   0.91477552   -3.7826434    1536.2783  0.065218132  0.065040719            2 
 1964000   0.93753548   -3.7893563    1536.6529   0.06520082  0.065029555            2 
 1965000   0.94047267   -3.8112365    1528.5513   0.06482406  0.065018376            3 
 1966000   0.93408643    -3.817319    1533.3572  0.064994794  0.065007063            3 
 1967000   0.95360059   -3.7996859     1537.979  0.065157556   0.06499582            3 
 1968000   0.92123414   -3.8231277    1531.4022  0.064845962  0.064984467            4 
 1969000   0.93590875   -3.8057695    1530.6752  0.064782257  0.064972924            6 
 1970000   0.91970938   -3.7763959    1532.3642  0.064820821  0.064961205            1 
 1971000   0.94981217   -3.8074723    1537.3463  0.064998575  0.064949747            2 
 1972000   0.93900611   -3.7927898    1536.3678  0.064924264  0.064938623            4 
 1973000    0.9295045   -3.7909362     1534.354  0.064806303  0.064927186            5 
 1974000   0.94232847   -3.7816494    1534.2565  0.064769357   0.06491577            5 
 1975000   0.93626171   -3.8163698    1535.9796  0.064809268  0.064904699            4 
 1976000   0.93229757   -3.8001373    1533.7643  0.064683041   0.06489328            2 
 1977000   0.93745773   -3.8169272    1535.7199  0.064732754  0.064881827            4 
 1978000   0.95187594   -3.7941281    1540.0403  0.064882047  0.064870221            5 
 1979000   0.92656091   -3.7966223    1539.6025  0.064830826  0.064859025            3 
 1980000   0.91647861   -3.8129287    1537.0401  0.064690238  0.064847632            2 
 1981000   0.92874101   -3.7971827    1537.5597  0.064679443  0.064836559            3 
 1982000    0.9444097   -3.7831712    1543.7743  0.064908102   0.06482539            2 
 1983000   0.92118177   -3.8000993    1543.8393    0.0648781  0.064814287            4 
 1984000   0.94817364    -3.807645     1542.828  0.064802924  0.064803291            4 
 1985000   0.94475357   -3.8016717    1542.7382  0.064766506  0.064792152            2 
 1986000   0.91825968   -3.7937809    1547.7027  0.064942207  0.064781151            2 
 1987000    0.9215144   -3.8186369    1546.0696  0.064841033  0.064770081            3 
 1988000   0.91576595   -3.7913929    1542.2243   0.06464723  0.064758807            2 
 1989000   0.93821816   -3.8021633    1541.7248  0.064593799    0.0647475            2 
 1990000   0.92902648   -3.8087714     1539.085  0.064450796  0.064736089            4 
 1991000   0.94324812   -3.8348077    1540.9355  0.064495878  0.064724698            3 
 1992000   0.92974193   -3.8085756    1545.5411  0.064656171  0.064713546            2 
 1993000   0.93346581   -3.7994784    1542.9107  0.064513746  0.064702265            6 
 1994000   0.93433757   -3.8125137    1550.7107  0.064807368  0.064691092            2 
 1995000   0.94997508   -3.8292943    1546.8955   0.06461552  0.064679738            5 
 1996000   0.95196901   -3.7987769    1549.4236  0.064688692  0.064668284            7 
 1997000   0.93271077   -3.8219449     1547.542  0.064577782  0.064656863            3 
 1998000   0.93745251    -3.818111    1544.6949  0.064426714  0.064645433            4 
 1999000   0.93741041   -3.8160384    1551.4105  0.064674443  0.064634117            4 
 2000000   0.91657413   -3.8329828    1551.1101  0.064629587  0.064622843            5 
 2001000   0.93354145   -3.8107801    1548.2587  0.064478538  0.064611617            3 
 2002000   0.93695701   -3.8071229    1548.6198  0.064461362  0.064600438            4 
 2003000   0.94024204    -3.808759    1557.8439  0.064812941  0.064589263            3 
 2004000   0.92087281   -3.7943461    1547.7719   0.06436177  0.064577977            2 
 2005000   0.95001598   -3.8142722    1553.7423  0.064577818  0.064566993            1 
 2006000   0.92659053   -3.8025362    1553.1251  0.064519987  0.064556027            4 
 2007000   0.94385848   -3.8152785    1555.2611  0.064576529  0.064545007            2 
 2008000   0.92269418   -3.8184831    1556.3399  0.064589138   0.06453393            2 
 2009000   0.93316652    -3.829792    1555.0393  0.064503039  0.064522901            4 
 2010000   0.92315157   -3.8321817    1556.0302   0.06451203  0.064511876            4 
 2011000   0.95146305   -3.8090757    1560.1075  0.064648912  0.064500828            5 
 2012000   0.93131453   -3.8202417    1557.5711  0.064511723  0.064489831            5 
 2013000   0.90486997   -3.8206563    1557.1604  0.064462674  0.064478719            7 
 2014000   0.89644416   -3.8290341    1554.0253  0.064300947  0.064467446            4 
 2015000   0.93817464   -3.7874594    1559.0077  0.064475091  0.064456488            6 
 2016000   0.94227216   -3.8079899    1555.3858  0.064293394  0.064445402            2 
 2017000   0.94135307   -3.8153649    1566.5458  0.064722601  0.064434254            9 
 2018000   0.93202219   -3.8393589    1562.9397  0.064541611  0.064423096            3 
 2019000   0.91239588   -3.8080825    1563.2936  0.064524254  0.064412014            6 
 2020000   0.92945712   -3.8285896    1558.9335  0.064312438  0.064400675            2 
 2021000   0.93636917   -3.7907673    1564.5399   0.06451179  0.064389694            4 
 2022000   0.93024683   -3.7728786    1566.2412  0.064550001   0.06437888            4 
 2023000   0.92357573   -3.8011749    1563.8685  0.064420354   0.06436815            3 
 2024000   0.91573392   -3.8204889    1563.4396  0.064370866  0.064357279            2 
 2025000   0.92149185   -3.8371904    1567.7833   0.06451783   0.06434641            4 
 2026000   0.94115363   -3.7901132    1565.6967  0.064400162  0.064335545            3 
 2027000   0.93393517   -3.8231174    1563.9394  0.064296142  0.064324766            2 
 2028000   0.92675331    -3.795003    1568.1273  0.064436526  0.064313721            5 
 2029000   0.93031452   -3.8098575    1569.2387  0.064450413  0.064302713            4 
 2030000   0.91916834    -3.813638    1565.9644  0.064284253  0.064291679            5 
 2031000   0.94224953   -3.7948573     1564.877  0.064207987  0.064280819            2 
 2032000   0.90781952   -3.7936602    1575.9808  0.064631758  0.064269945            2 
 2033000   0.94260607   -3.8017539    1572.0606  0.064439277  0.064258998            4 
 2034000   0.93492683   -3.7992899    1566.6506  0.064185947  0.064247768            3 
 2035000    0.9099956     -3.80872    1574.5616  0.064478361  0.064236746            2 
 2036000    0.9366805   -3.8422283    1565.6008  0.064079929  0.064225492            3 
 2037000   0.93416649    -3.805935    1570.6659   0.06425568  0.064214443            3 
 2038000   0.91821142   -3.8443027    1562.8692  0.063905349  0.064203401            3 
 2039000   0.91852372   -3.8381419    1573.2619  0.064298753  0.064192126            3 
 2040000   0.92477523   -3.8085761    1571.8899  0.064211187  0.064181097            3 
 2041000   0.91156377   -3.8010824    1571.4739  0.064162741  0.064169935            4 
 2042000   0.92110036   -3.7929204     1577.683  0.064384714  0.064158901            4 
 2043000   0.91505047   -3.8349961    1572.7505  0.064152003  0.064147718            1 
 2044000   0.93260901   -3.8425163     1574.648  0.064197979  0.064136501            3 
 2045000   0.93323911   -3.8362374    1572.0499  0.064060713  0.064125361            4 
 2046000   0.91991275   -3.8452883    1571.4723  0.064005879  0.064114031            3 
 2047000   0.92321723   -3.8282012    1579.2389  0.064290788  0.064102884            6 
 2048000   0.93518695   -3.8008915    1571.6584  0.063950942  0.064091866            2 
 2049000   0.92396184   -3.8093793    1574.8565  0.064049802  0.064080885            3 
 2050000    0.9147446   -3.8056779     1575.444   0.06404244  0.064069757            6 
 2051000   0.94280386   -3.8060319    1581.6247  0.064262339  0.064058718            3 
 2052000   0.94283365   -3.8273755    1573.6098  0.063905532   0.06404753            3 
 2053000   0.93952244   -3.8155441    1576.2376   0.06398107  0.064036186            1 
 2054000   0.92906454   -3.8040293    1581.3386  0.064156873  0.064024982            3 
 2055000   0.91432261   -3.8281691    1576.4798   0.06392862  0.064013672            3 
 2056000   0.91548774    -3.823068    1577.1845   0.06392609  0.064002171            1 
 2057000   0.93286419   -3.8469564    1574.4055  0.063782431   0.06399072            2 
 2058000   0.93485716   -3.8363986    1579.1682  0.063944289  0.063979336            4 
 2059000   0.90979722   -3.8461602    1579.8249  0.063939815  0.063967837            6 
 2060000   0.93273894   -3.8389532    1578.7533  0.063865423  0.063956631            3 
 2061000   0.94059203   -3.8129033    1582.6147  0.063990568  0.063945437            4 
 2062000   0.91040504   -3.8244183     1582.196  0.063942612  0.063934282            6 
 2063000   0.92394815   -3.8186552    1583.2741  0.063955165  0.063923406            3 
 2064000   0.93069004     -3.80919    1587.7333  0.064104221  0.063912567            3 
 2065000   0.92697666    -3.810271    1586.7506  0.064033518  0.063901616            5 
 2066000   0.92834603   -3.8174117    1583.7654  0.063882116  0.063890633            4 
 2067000   0.92325605   -3.8489092    1580.2471  0.063709365  0.063879411            3 
 2068000   0.89845329   -3.8122173    1587.9982  0.063990901  0.063867974            3 
 2069000   0.91367037   -3.8125214    1585.4446  0.063857123    0.0638568            2 
 2070000    0.9390796   -3.8398565    1583.0984  0.063731821  0.063845595            4 
 2071000   0.93068384   -3.8294683    1585.6916  0.063805392  0.063834479            3 
 2072000   0.91814789   -3.8436699    1585.4966  0.063766755   0.06382353            4 
 2073000   0.92805835   -3.8259435    1587.3585  0.063810841  0.063812538            2 
 2074000   0.92277101   -3.8166608    1588.9523  0.063844113   0.06380151            5 
 2075000   0.94212171   -3.8174226    1589.9967  0.063855289  0.063790374            5 
 2076000   0.89603457   -3.8135673    1590.2522  0.063834787  0.063779264            5 
 2077000   0.92927066   -3.8317496    1585.0188  0.063594078  0.063768296            3 
 2078000   0.92546293    -3.848219     1588.496  0.063702918  0.063757187            4 
 2079000   0.90679961   -3.8413211    1588.6753  0.063679467  0.063746175            4 
 2080000   0.91588762   -3.8437516    1595.3516  0.063916332  0.063734964            5 
 2081000   0.90256405   -3.8160721    1590.0557  0.063673543  0.063724008            4 
 2082000   0.90652406    -3.804104    1590.1715  0.063647594  0.063712876            6 
 2083000   0.89945444   -3.8312844    1590.4896  0.063629766   0.06370179            6 
 2084000   0.93154834    -3.816652    1595.1911  0.063787231  0.063690578            2 
 2085000    0.9293725   -3.8601945    1589.4354  0.063526595  0.063679112            2 
 2086000   0.89688794   -3.8236162    1591.1956  0.063566459  0.063667693            2 
 2087000    0.9327499   -3.8388351    1591.9655  0.063566744  0.063656605            3 
 2088000    0.9380498   -3.8479529    1588.5652  0.063400591  0.063645249            1 
 2089000    0.9257951   -3.8178205    1598.2149  0.063755183  0.063634024            5 
 2090000    0.9188227   -3.8199376    1589.0448  0.063359043   0.06362271            2 
 2091000   0.92077614   -3.8196708    1596.0839  0.063609272  0.063611483            4 
 2092000   0.91798103   -3.8348239    1597.5382  0.063636798  0.063600235            3 
 2093000   0.92997701   -3.8562974    1594.0872   0.06346899  0.063589009            4 
 2094000   0.89707542   -3.8297893    1597.2948  0.063566331  0.063577696            5 
 2095000   0.90865531   -3.8331825    1597.5569  0.063546415  0.063566448            2 
 2096000   0.90717302   -3.8170562    1604.6865   0.06379956  0.063555376            8 
 2097000   0.91764208   -3.8508167    1593.6083  0.063328895  0.063544377            7 
 2098000   0.91453952   -3.8273581    1601.8951  0.063627864  0.063533232            6 
 2099000   0.91600117   -3.8290213    1599.7798   0.06351357  0.063522087            2 
 2100000   0.89294672   -3.8128511     1605.372  0.063705239  0.063510874            2 
 2101000   0.93413324   -3.8253149    1606.0517  0.063701875  0.063499924            2 
 2102000   0.93924741   -3.8597537    1595.5456  0.063255057  0.063488878            4 
 2103000   0.90301638   -3.8399078    1603.1283  0.063525451  0.063477814            2 
 2104000   0.90852619   -3.8415625    1603.8874  0.063525325  0.063466931            4 
 2105000    0.8960167   -3.8653603    1601.2518  0.063390809  0.063455961            2 
 2106000   0.91500117   -3.8379641    1598.7404  0.063261332   0.06344503            4 
 2107000   0.92728838    -3.832286    1609.5902  0.063660427  0.063434049            3 
 2108000   0.91286237   -3.8300526    1606.9979  0.063527748  0.063423425            2 
 2109000   0.91191226   -3.8350855    1606.9282   0.06349487  0.063412576            2 
 2110000   0.91569909   -3.8453288    1604.7642  0.063379314  0.063401573            5 
 2111000   0.94156616   -3.8516754    1606.2178   0.06340667  0.063390515            6 
 2112000   0.91643324   -3.8597068    1607.5733  0.063430132  0.063379769            2 
 2113000   0.88343208   -3.8256307    1611.0688   0.06353797   0.06336891            7 
 2114000   0.90534155   -3.8576314    1604.2948  0.063240887  0.063358025            4 
 2115000   0.91193279   -3.8358318    1612.9771  0.063553078  0.063347195            4 
 2116000   0.89435118   -3.8291079    1612.9987  0.063523895  0.063336494            4 
 2117000   0.92203609    -3.812045    1614.7054  0.063561067  0.063325892            4 
 2118000   0.91005729   -3.8653801    1610.4243  0.063362617  0.063315135            4 
 2119000   0.90652158   -3.8499785     1616.707  0.063579794  0.063304368            3 
 2120000   0.91274257   -3.8503911    1618.8832  0.063635347  0.063293828            7 
 2121000   0.88677133   -3.8252887    1619.8977  0.063645205  0.063283371            8 
 2122000   0.91678326   -3.8368222    1620.6279  0.063643884  0.063272994            3 
 2123000   0.92139435   -3.8314965    1622.8081  0.063699486  0.063262445            4 
 2124000   0.93698434    -3.832612    1616.7244  0.063430806  0.063251939            5 
 2125000   0.90658598     -3.83371    1619.1198  0.063494896  0.063241566            4 
 2126000   0.91973173   -3.8068637    1617.7149  0.063409959  0.063231139            2 
 2127000   0.88907656   -3.8457443    1623.6955  0.063614462  0.063220618            6 
 2128000   0.91620317   -3.8302865      1619.51   0.06342066  0.063210046            4 
 2129000   0.91411321   -3.8846846    1614.1662  0.063181705  0.063199017            9 
 2130000     0.923716   -3.8559912    1623.8233  0.063529864  0.063188384            6 
 2131000   0.90999394   -3.8410864    1619.5996  0.063334882  0.063177928            7 
 2132000   0.89335036   -3.8401939    1620.9101  0.063356398  0.063167363            4 
 2133000   0.90467095   -3.8325418    1627.3349  0.063577704  0.063157038            4 
 2134000   0.91473943   -3.8622937    1618.5819  0.063206105  0.063146473            3 
 2135000   0.92138191   -3.8485595    1622.7781  0.063340286  0.063135764            4 
 2136000   0.92158784   -3.8738424    1623.3644  0.063333504  0.063125179            2 
 2137000    0.9245714   -3.8405726     1626.643  0.063431719  0.063114629            2 
 2138000   0.91093162   -3.8669848    1624.9235  0.063335029     0.063104            2 
 2139000    0.9025858   -3.8561163    1629.5773  0.063486725  0.063093376            2 
 2140000   0.92107238   -3.8563015    1622.5766  0.063184445  0.063082772            3 
 2141000   0.90890522   -3.8576101    1619.3443  0.063029127  0.063072307            6 
 2142000   0.91528415   -3.8514447    1621.9127  0.063099622  0.063061462            4 
 2143000   0.90542204   -3.8506047    1628.3814   0.06332172  0.063050691            3 
 2144000   0.93077098   -3.8631585    1623.0038  0.063083168   0.06304001            6 
 2145000    0.9093089   -3.8580003    1623.8171  0.063085358  0.063028967            3 
 2146000   0.91608744   -3.8511159    1624.5453  0.063084239  0.063017984            2 
 2147000   0.91058154   -3.8465262    1630.1749   0.06327336  0.063007158            2 
 2148000   0.92714021   -3.8420007    1625.8108  0.063074596  0.062996175            5 
 2149000   0.91754972   -3.8595545    1625.6113  0.063037508  0.062985228            4 
 2150000   0.92435342   -3.8263538    1625.3981  0.062999925  0.062974414            3 
 2151000   0.91631782   -3.8407804    1630.7919  0.063179602  0.062963539            4 
 2152000    0.9067806   -3.8567758    1628.1341  0.063047323  0.062952621            3 
 2153000   0.90316481   -3.8517962     1635.384  0.063298655  0.062941774            5 
 2154000   0.91394665   -3.8415755    1631.9977  0.063138257   0.06293099            4 
 2155000   0.91822951   -3.8389494    1631.3471    0.0630838  0.062920192            3 
 2156000      0.90046   -3.8341684     1630.954  0.063039347  0.062909325            1 
 2157000   0.91350513   -3.8142836     1637.577  0.063265993  0.062898391            4 
 2158000   0.92469904   -3.8877623    1625.8717  0.062784667  0.062887559            6 
 2159000   0.91166236   -3.8458066    1626.7395  0.062789081  0.062876435            2 
 2160000    0.9257545   -3.8895319    1627.5205  0.062790142  0.062865426            4 
 2161000   0.90909471   -3.8507753    1631.7936  0.062925869  0.062854523            2 
 2162000   0.88733295   -3.8299505     1629.835  0.062821268  0.062843329            1 
 2163000   0.89805684    -3.860856    1636.8886  0.063063978  0.062832399            4 
 2164000   0.92040441   -3.8450298    1627.7434  0.062682663  0.062821501            6 
 2165000   0.91954558    -3.850368    1632.7106  0.062844902  0.062810586            2 
 2166000     0.895179   -3.8391114    1632.9038  0.062823321  0.062799788            3 
 2167000     0.897272   -3.8620005    1630.0086  0.062682996  0.062788664            9 
 2168000   0.89765075   -3.8542488    1633.2743  0.062779609  0.062777641            4 
 2169000   0.90964035   -3.8670644    1635.5433  0.062837839  0.062766734            2 
 2170000   0.92073585   -3.8503127    1639.1985  0.062949253  0.062755939            3 
 2171000   0.89566024   -3.8437886    1637.8849  0.062869835  0.062745293            5 
 2172000    0.8927303   -3.8628367    1639.5723  0.062905628  0.062734602            3 
 2173000   0.90373987   -3.8383441    1639.3691  0.062868888  0.062724029            3 
 2174000   0.90778018   -3.8357886    1646.5387  0.063114793  0.062713511            2 
 2175000   0.88699035    -3.873408    1641.9618  0.062910412  0.062702958            8 
 2176000   0.92332816   -3.8352252    1644.3659   0.06297357  0.062692418            2 
 2177000   0.89195984   -3.8450193    1646.4772  0.063025464  0.062682027            3 
 2178000     0.903397   -3.8535575    1643.3241  0.062875884  0.062671216            3 
 2179000   0.88393624   -3.8496308     1642.674  0.062822167  0.062660469            8 
 2180000   0.90359944   -3.8427136     1645.136  0.062887461   0.06264966            9 
 2181000   0.87992516   -3.8593237    1643.3002  0.062788485  0.062638644            1 
 2182000   0.90010746   -3.8731742    1641.0145  0.062672413  0.062627725            5 
 2183000    0.9138074   -3.8534864    1647.6536  0.062897144  0.062617152            6 
 2184000   0.89296795   -3.8701759    1645.2932  0.062778282   0.06260655            4 
 2185000   0.91923069   -3.8561528    1643.4505  0.062679271  0.062595923            6 
 2186000   0.90731714   -3.8700949    1639.7768  0.062510552  0.062585247            3 
 2187000   0.91155014   -3.8680541    1644.4095  0.062658494  0.062574275            3 
 2188000   0.91858126   -3.8441583    1645.8781  0.062685791  0.062563618            2 
 2189000   0.89862108   -3.8100754     1645.976   0.06266088  0.062552896            3 
 2190000   0.90261135   -3.8310526    1653.7172  0.062926835  0.062542241            5 
 2191000   0.89468585   -3.8510471    1649.7235  0.062746215  0.062531347            4 
 2192000     0.913575    -3.864547     1648.457  0.062669444  0.062520486            9 
 2193000   0.91186152   -3.8417399    1650.2369  0.062708502  0.062509505            2 
 2194000   0.92160024   -3.8392087    1650.5073  0.062690189  0.062498599            3 
 2195000   0.91531141   -3.8588245    1648.7984  0.062596749  0.062487639            2 
 2196000   0.87975185   -3.8530477    1647.3629  0.062513773  0.062476597            4 
 2197000   0.91181997   -3.8469024    1646.0838  0.062436799  0.062465585            4 
 2198000   0.91814135   -3.8953416    1642.4668  0.062271262  0.062454486            3 
 2199000   0.90128687    -3.870079    1650.5787  0.062550353  0.062443441            3 
 2200000   0.88745278   -3.8763217    1652.8654  0.062608539  0.062432387            7 
 2201000   0.88540931   -3.8250167    1657.8372  0.062768333  0.062421387            3 
 2202000   0.89970222   -3.8592829    1651.2939  0.062492202  0.062410266            3 
 2203000   0.88711665   -3.8259706    1652.3012  0.062501937  0.062399169            5 
 2204000    0.8906907   -3.8591452    1645.9739  0.062234342   0.06238782            2 
 2205000   0.91989739   -3.8509447     1647.257  0.062254611  0.062376477            4 
 2206000   0.90894397   -3.8711944    1643.5607  0.062086759  0.062365104            2 
 2207000   0.89671484   -3.8549822     1649.429  0.062280207  0.062353712            6 
 2208000   0.92035982   -3.8613751    1650.5905  0.062295837  0.062342247            2 
 2209000   0.89023282   -3.8848468    1646.1639  0.062100647  0.062330932            4 
 2210000   0.89079254   -3.8741593    1650.7896  0.062246968   0.06231934            4 
 2211000   0.89720251   -3.8935967    1645.3594   0.06201415  0.062307577            2 
 2212000   0.88333372   -3.8469489     1643.047  0.061898998  0.062295712            6 
 2213000   0.90365806   -3.8474582    1649.3334  0.062107748  0.062284194            2 
 2214000   0.90686112   -3.8796168    1645.6154  0.061939756  0.062272434            6 
 2215000   0.90345154   -3.8857268    1653.6674  0.062214727  0.062260534            2 
 2216000    0.9193172   -3.8502739    1648.4277   0.06198961  0.062248844            3 
 2217000   0.89040941   -3.8674266     1648.186  0.061952563  0.062237006            4 
 2218000   0.90246764    -3.868693    1648.7587  0.061946148  0.062225002            4 
 2219000   0.91491892   -3.8832412    1651.1457  0.062007874  0.062213188            4 
 2220000   0.88830252    -3.865634    1652.4681  0.062029584  0.062201417            3 
 2221000   0.88844636   -3.8705065    1653.5876  0.062043658  0.062189928            3 
 2222000   0.89732884   -3.8696895    1651.4013  0.061933742  0.062178237            4 
 2223000   0.87564527    -3.879577    1654.0503  0.062005184  0.062166876            5 
 2224000   0.89994014   -3.8709404    1652.5209  0.061919997  0.062155358            3 
 2225000   0.89481182   -3.8887439    1650.1779  0.061804415  0.062143761            4 
 2226000   0.91496692   -3.8588801    1651.3474  0.061820432   0.06213226            4 
 2227000   0.91014963   -3.8812166    1661.4649  0.062171267  0.062120802            3 
 2228000   0.89583492   -3.8595528    1662.0186   0.06216407  0.062109265            5 
 2229000   0.89015018   -3.8421616    1666.2513  0.062294426  0.062097967            5 
 2230000   0.89881659   -3.8697152    1661.4547  0.062087248   0.06208676            5 
 2231000   0.86130057   -3.8707697    1660.0475  0.062006855  0.062075312            3 
 2232000   0.89814474   -3.8622972    1662.3531  0.062065155  0.062063716            4 
 2233000    0.8963002   -3.8675496    1661.3933   0.06200154  0.062052257            4 
 2234000   0.89005049   -3.8850057    1655.0049  0.061735487  0.062040852            2 
 2235000   0.89510222   -3.8861872    1660.3856  0.061908485  0.062029453            5 
 2236000   0.89494771    -3.869206    1663.1885  0.061985258  0.062017976            5 
 2237000   0.91445832   -3.8747045    1659.8668   0.06183381  0.062006639            5 
 2238000   0.90979559   -3.8577657    1667.1044  0.062075676  0.061995158            4 
 2239000   0.88329697   -3.8668798    1660.3236  0.061795578  0.061983869            7 
 2240000   0.90008002   -3.8820188    1664.3382  0.061917345  0.061972541            2 
 2241000   0.87698372    -3.898867    1664.3616  0.061890585   0.06196095            3 
 2242000   0.88930741   -3.8654911     1663.806  0.061842327  0.061949598            5 
 2243000   0.90778089    -3.914032    1666.1275  0.061901008  0.061938114            4 
 2244000   0.90719159   -3.8847106      1663.56  0.061778076  0.061926497            2 
 2245000   0.88073103   -3.8600773    1661.8847  0.061688372  0.061915121            5 
 2246000   0.89082487   -3.8804806    1665.0476  0.061778256  0.061903407            7 
 2247000   0.87325828   -3.8843452    1672.4971   0.06202704  0.061892025            3 
 2248000   0.89439937   -3.8872901    1666.4164  0.061774034  0.061880727            6 
 2249000   0.88348341   -3.8567906     1670.294  0.061890249  0.061869237            5 
 2250000   0.88551359   -3.8906688    1668.7097  0.061804062   0.06185778            4 
 2251000   0.88662151   -3.8982525    1668.4264   0.06176612   0.06184649            6 
 2252000    0.9140018    -3.867412    1667.4242  0.061701604  0.061835023            3 
 2253000   0.89234392   -3.8547193    1673.8161  0.061910641  0.061823705            2 
 2254000   0.90226594   -3.8747468     1668.348  0.061681011  0.061812129            2 
 2255000   0.89638605   -3.8674343    1669.5989  0.061699886   0.06180075            4 
 2256000    0.8903744   -3.8761342    1668.6477  0.061637399  0.061789375            4 
 2257000   0.87896091   -3.8606924    1676.0568  0.061883651  0.061777804            5 
 2258000    0.8854002   -3.8594177    1672.3263  0.061718568  0.061766332            2 
 2259000    0.8909003   -3.8823305    1669.5902  0.061590315  0.061754675            5 
 2260000   0.89204901    -3.871066    1670.0039  0.061578314   0.06174316            8 
 2261000   0.88945369   -3.8805659    1671.5739  0.061608945  0.061731721            1 
 2262000   0.89808783   -3.8566337    1673.8179  0.061664378  0.061720225            5 
 2263000   0.89971383   -3.8841284    1673.6985  0.061632735  0.061708651            3 
 2264000    0.8906333   -3.8695175    1675.0828  0.061656463  0.061697051            3 
 2265000   0.88675348    -3.866448    1671.9562  0.061514207  0.061685653            9 
 2266000   0.89218372   -3.8526677    1678.7518  0.061736975  0.061674348           10 
 2267000   0.86661889   -3.8585987    1674.3296  0.061547185  0.061663018            3 
 2268000   0.90658611   -3.8874738    1677.4871  0.061636064  0.061651614            6 
 2269000   0.90313114   -3.8835409    1677.6763  0.061615848  0.061640053            2 
 2270000   0.87460873   -3.8795573    1667.7406  0.061223957  0.061628625            3 
 2271000   0.88192053   -3.8972637    1672.4255   0.06136891  0.061617075            4 
 2272000   0.89376182   -3.8651309    1683.3255  0.061741691  0.061605549            6 
 2273000   0.89735171   -3.8802057    1672.5695   0.06132019  0.061594187            3 
 2274000   0.87906348   -3.8956006    1674.7688  0.061373821  0.061582662            8 
 2275000   0.89336905   -3.8980636    1679.3498  0.061514644   0.06157117            3 
 2276000   0.89395273   -3.8673079     1678.648  0.061461921   0.06155974            5 
 2277000   0.86624316   -3.9080189    1675.6283  0.061324414  0.061548297            6 
 2278000   0.91561095   -3.8995845    1685.4991  0.061658584  0.061536836            4 
 2279000   0.87550662   -3.8835522    1674.2226  0.061219196  0.061525199            4 
 2280000   0.87747756   -3.8721394    1676.3034  0.061268397  0.061513796            5 
 2281000   0.89652062   -3.8675518    1684.4913  0.061540674  0.061502561            3 
 2282000   0.88232639    -3.911558    1678.6145  0.061299097  0.061491195            4 
 2283000   0.89626469     -3.86738    1686.2482  0.061550892  0.061479658            5 
 2284000   0.87626227   -3.9003057    1682.4738  0.061386229  0.061468238            6 
 2285000   0.90022556   -3.8895955    1681.7462   0.06133283  0.061456745            2 
 2286000   0.89797455   -3.8926183    1681.6248  0.061301573  0.061445185            3 
 2287000   0.88582704   -3.8680884     1677.728   0.06113278  0.061433408            2 
 2288000   0.87892089   -3.8662931    1689.7324  0.061543285  0.061422075            5 
 2289000   0.88987806   -3.8728948    1681.4723   0.06121568  0.061410552            4 
 2290000    0.8815878   -3.8834039    1684.2942  0.061291637   0.06139897            4 
 2291000   0.87881229   -3.8997451    1685.5284  0.061309779  0.061387374            2 
 2292000   0.89736322   -3.9083592    1677.5527  0.060993046  0.061375743            4 
 2293000   0.88818571   -3.8975727    1684.7353  0.061227478   0.06136398            3 
 2294000   0.88533323   -3.8558557     1687.798  0.061312046  0.061352207            3 
 2295000   0.87191453   -3.8787145    1681.8148  0.061068077  0.061340597            2 
 2296000    0.8860637   -3.8938341    1688.9117  0.061299059   0.06132883            2 
 2297000   0.87859186   -3.8671858    1690.3988  0.061326324  0.061317341            3 
 2298000   0.88435361   -3.9024442    1681.0047  0.060958975  0.061305885            5 
 2299000   0.90509167   -3.8518917    1687.4021   0.06116435  0.061294104            3 
 2300000   0.89565471   -3.8956728    1685.1456  0.061055999  0.061282406            6 
 2301000   0.88741069   -3.8914736    1678.7923  0.060799373  0.061270784            5 
 2302000   0.89023481   -3.8776249    1683.1409  0.060930383   0.06125912            3 
 2303000   0.88662482   -3.9061682    1683.2169  0.060906677  0.061247539            8 
 2304000   0.88214551   -3.8713489    1689.9999  0.061125573  0.061235922            6 
 2305000   0.88435884    -3.903721    1676.3613  0.060605975  0.061224257            7 
 2306000   0.87249859   -3.9201792    1690.3802  0.061086305  0.061212302            4 
 2307000   0.87280218   -3.8881065     1691.212   0.06108987  0.061200412            3 
 2308000   0.90039709   -3.9040284    1695.0018  0.061200237  0.061188851            2 
 2309000   0.86144791   -3.8820431    1691.6734  0.061053608  0.061177215            6 
 2310000   0.88540255   -3.8725699    1693.5276   0.06109407    0.0611656            7 
 2311000   0.88136876   -3.8557279    1696.5049  0.061174993  0.061153896            3 
 2312000   0.86301606   -3.8813476    1688.5166  0.060860604  0.061142004            2 
 2313000   0.87955093   -3.8584988    1693.9988  0.061031806   0.06113033           14 
 2314000   0.88795295   -3.8637379    1692.3311  0.060945371  0.061118742            4 
 2315000   0.89137161   -3.8998696    1692.2831  0.060917318  0.061106941            4 
 2316000   0.89330697   -3.8959256    1699.7198  0.061158599  0.061095328            6 
 2317000   0.89518619   -3.8807139    1696.3949  0.061012622  0.061083503            3 
 2318000   0.87733166   -3.9138015    1688.6074  0.060706334  0.061071764            6 
 2319000   0.87516464   -3.8963538    1696.9775  0.060980936  0.061059915            4 
 2320000   0.89394341   -3.8594165    1698.6503  0.061014737  0.061048408            3 
 2321000   0.88563406   -3.8822969    1702.2928  0.061119232  0.061036888            3 
 2322000   0.85982399   -3.9069599    1690.5073  0.060669944  0.061025229            7 
 2323000   0.89034221   -3.8971944    1691.6838  0.060686031  0.061013471            6 
 2324000   0.87876911   -3.8830227    1702.5458  0.061049404  0.061001745            4 
 2325000   0.86760635   -3.8963173    1695.7929  0.060781107  0.060990132            3 
 2326000   0.88321536   -3.8541254    1703.3983  0.061027456  0.060978539            3 
 2327000   0.86704402   -3.8878047    1704.3581  0.061035602  0.060967054            3 
 2328000   0.88001598   -3.9196221    1701.9322  0.060922544   0.06095564            5 
 2329000   0.89169344   -3.8932971    1700.3249  0.060838876  0.060944236            4 
 2330000   0.86532708   -3.9099665     1698.876  0.060760942   0.06093269            2 
 2331000   0.86814331   -3.8923387    1702.9385  0.060880112  0.060921363            5 
 2332000   0.88596167   -3.8882921    1701.9109  0.060817283  0.060909982            3 
 2333000   0.88109967   -3.8928674     1698.827  0.060681061  0.060898582            5 
 2334000   0.86128893   -3.8531919    1704.4722  0.060856619  0.060887147            6 
 2335000   0.88110221   -3.9021898    1700.9348   0.06070431  0.060875699           10 
 2336000   0.87578418    -3.879159    1705.6025  0.060844839  0.060864423            2 
 2337000   0.87322362   -3.8963643    1710.0416  0.060977095  0.060853102            5 
 2338000    0.8896555   -3.9178122    1705.3047  0.060782174  0.060841674            2 
 2339000   0.88205844   -3.9045232    1705.5134  0.060763623  0.060830042            2 
 2340000   0.85735236   -3.8891975     1702.403  0.060626886  0.060818611            4 
 2341000   0.87130357   -3.8912423    1705.1404  0.060698434  0.060807037            6 
 2342000   0.85413945   -3.8743786    1700.5461   0.06050904  0.060795654            3 
 2343000    0.9017796   -3.9195473    1711.1805   0.06086145  0.060784197            3 
 2344000   0.90268136    -3.893411    1703.1064  0.060548436  0.060772663            2 
 2345000   0.87102435   -3.9287542    1709.7863  0.060759995  0.060761256            2 
 2346000   0.87568389   -3.8846453    1707.5819  0.060655792  0.060749649            5 
 2347000   0.88214366   -3.9010931    1704.1614  0.060508499  0.060738386            5 
 2348000    0.8943077   -3.8962032    1711.6992  0.060750257   0.06072685            3 
 2349000   0.87540444    -3.903754    1713.1676  0.060776487  0.060715292            3 
 2350000   0.86086756   -3.8922514    1709.6883  0.060627245  0.060703809            3 
 2351000   0.87672172   -3.8954316    1714.1727   0.06076041  0.060692262            2 
 2352000   0.86951394   -3.8857126     1707.843  0.060510311  0.060680647            7 
 2353000   0.86381704   -3.9039841    1705.8499  0.060414006  0.060669153            3 
 2354000   0.88925285   -3.8961831    1712.1301  0.060610665  0.060657643            3 
 2355000   0.88969531   -3.9045762    1716.2406  0.060730384  0.060646294            3 
 2356000   0.85229975    -3.910092    1713.5244  0.060608531  0.060634998            3 
 2357000    0.8837732   -3.8929477    1715.1112  0.060638921  0.060623472            3 
 2358000   0.88735462   -3.8946798    1716.2877  0.060654781  0.060611969            4 
 2359000   0.87464243   -3.8728501     1712.315  0.060488732  0.060600421            4 
 2360000   0.86329705    -3.908242    1707.7096  0.060300479  0.060588876            2 
 2361000   0.88383757   -3.9189317    1716.6233  0.060589555  0.060577239            4 
 2362000   0.85986149   -3.9197785    1712.9018  0.060432607  0.060565643            5 
 2363000   0.85401937   -3.8875152    1718.3865  0.060600453   0.06055417            4 
 2364000   0.86516908   -3.8985733    1714.3248   0.06043164   0.06054262            2 
 2365000   0.88123622   -3.8933874    1715.7608  0.060456689  0.060531204            5 
 2366000   0.87782928   -3.8877515    1717.5778  0.060495131  0.060519884            4 
 2367000   0.86390819   -3.8813718    1718.1434  0.060489486  0.060508608            2 
 2368000   0.86697044   -3.8959604    1716.6157  0.060410179  0.060497137            3 
 2369000   0.87680789   -3.8732469    1717.8843  0.060429307  0.060485807            4 
 2370000   0.87515418   -3.8894098    1717.8615  0.060403005  0.060474345            5 
 2371000   0.87041572   -3.9289454    1717.0258   0.06034816  0.060462752            3 
 2372000    0.8889113   -3.9045347    1715.3428  0.060263589  0.060451139            3 
 2373000    0.8760045   -3.8879447    1717.5768  0.060316646  0.060439612            4 
 2374000    0.8802313   -3.9084506    1721.5508  0.060430735  0.060428217            5 
 2375000   0.87036187   -3.8922724    1717.8528  0.060275535  0.060416609            7 
 2376000   0.86193495   -3.9252748    1713.5201  0.060098208  0.060404974            4 
 2377000   0.88037817   -3.9014526    1715.3649  0.060137601  0.060393262            3 
 2378000     0.883307   -3.9036664     1720.684   0.06029871  0.060381534            4 
 2379000   0.87376388   -3.9251706    1717.6709  0.060167819   0.06036988            4 
 2380000   0.85009756   -3.9353922    1723.5964  0.060350014   0.06035823            3 
 2381000   0.85532076   -3.9102139    1719.8076  0.060192064  0.060346481            3 
 2382000   0.87132778   -3.9059063    1719.1983  0.060145478  0.060334772            5 
 2383000   0.88091908   -3.9112128    1720.6508   0.06017103  0.060323006            4 
 2384000   0.87021452   -3.9065147    1717.6249   0.06004002  0.060311113            2 
 2385000   0.88165181   -3.8884368    1724.4201  0.060252276  0.060299064            3 
 2386000   0.87007785   -3.9153092    1719.7082  0.060062453  0.060286969            6 
 2387000   0.86494408   -3.9119973    1719.1596   0.06001814  0.060275189            7 
 2388000   0.86862444   -3.9018279    1719.7446  0.060013423  0.060263278            4 
 2389000   0.88259037   -3.9157305    1722.6525  0.060089735  0.060251589            3 
 2390000   0.87025175   -3.9226367    1722.2555   0.06005075  0.060239952            4 
 2391000   0.86833293   -3.9168524    1728.9005  0.060257233  0.060228201            4 
 2392000   0.87070311   -3.9343661    1724.1425   0.06006628  0.060216464           12 
 2393000   0.87356816   -3.9280817    1724.4067  0.060050378  0.060204698            3 
 2394000    0.8823228   -3.9116889    1725.8446  0.060075348  0.060193213            3 
 2395000   0.87665037   -3.9106499    1730.1754  0.060200952  0.060181817            6 
 2396000   0.85137357   -3.9052368    1727.3551  0.060077739   0.06017019            4 
 2397000   0.86695227   -3.8979268    1728.5457  0.060094067  0.060158612            4 
 2398000   0.85900052   -3.9094225     1725.443  0.059961184  0.060147171            5 
 2399000   0.87187046   -3.9177998     1728.443  0.060040398  0.060135741           13 
 2400000    0.8631006   -3.9190717    1726.9747  0.059964399  0.060124126            4 
 2401000   0.85503506   -3.9443276     1732.891  0.060144768  0.060112585            5 
 2402000   0.88080685    -3.925432    1733.0528   0.06012534  0.060101035            8 
 2403000   0.87272312   -3.9239384    1733.1992  0.060105395  0.060089596            2 
 2404000   0.87563512   -3.9051578    1727.8921  0.059896425  0.060078192            6 
 2405000   0.87533327   -3.9078109      1738.53  0.060240123  0.060066723            5 
 2406000   0.85598887    -3.884489    1729.5063  0.059902547   0.06005525            3 
 2407000   0.88327069   -3.9269876    1724.0477  0.059688675  0.060043655            4 
 2408000      0.88316   -3.9008309    1734.8974  0.060039362  0.060032281            3 
 2409000   0.88313792   -3.9196932    1730.0833  0.059847909  0.060020785            3 
 2410000   0.86551929   -3.9307515    1728.5984  0.059771727  0.060009128            6 
 2411000   0.85382813   -3.9176545    1728.0903  0.059729374  0.059997567            3 
 2412000   0.85941656   -3.8876277    1738.0858  0.060049951  0.059986089            4 
 2413000   0.85835081   -3.9200903    1729.5313  0.059729634  0.059974843            7 
 2414000   0.87296728    -3.922108    1732.5537  0.059809227  0.059963328           10 
 2415000   0.88087228   -3.9296525    1736.8185  0.059931626  0.059951684            4 
 2416000    0.8531054    -3.916814    1736.3168  0.059889513  0.059940257            4 
 2417000   0.84670654   -3.9391944     1733.708  0.059774789  0.059928751            5 
 2418000   0.89757215   -3.9226088    1731.3017  0.059667139  0.059917203            5 
 2419000   0.87923954   -3.9102155    1738.8612  0.059902893  0.059905699            5 
 2420000    0.8773375   -3.8937257    1734.0511  0.059712503  0.059894274            3 
 2421000   0.85928267   -3.9041603    1739.0622  0.059860328   0.05988295            6 
 2422000    0.8747588   -3.9430158    1738.5746  0.059818834  0.059871495            6 
 2423000   0.84705752   -3.9065396    1743.7542  0.059972288  0.059860221            5 
 2424000   0.85759344   -3.9366606    1737.9068  0.059746521  0.059848854            2 
 2425000   0.85914063   -3.9104742    1744.6512   0.05995365  0.059837432            5 
 2426000   0.87626904   -3.9328004      1734.58  0.059582989  0.059826186            7 
 2427000   0.87138808   -3.8889669    1741.1662  0.059784583  0.059814647            3 
 2428000   0.87197716   -3.9215787    1744.2447  0.059865621  0.059803177            4 
 2429000   0.88119593   -3.9235524    1736.8292  0.059586564   0.05979169            3 
 2430000   0.87388564   -3.9658721    1738.1074  0.059605878  0.059780219            9 
 2431000   0.84569242    -3.903742    1740.5136   0.05966384  0.059768819            3 
 2432000   0.85693861   -3.9084367    1742.2794  0.059699814  0.059757431            4 
 2433000   0.85503612   -3.9409515    1737.7519  0.059520204  0.059746132            4 
 2434000   0.85069109   -3.9325239    1746.5433  0.059796743  0.059734666            4 
 2435000   0.87837755   -3.9164191    1742.5318    0.0596349  0.059723324            5 
 2436000   0.85715064    -3.905092    1741.8696  0.059587767  0.059712117            3 
 2437000   0.86303516   -3.9340737     1743.435  0.059616845  0.059700708            2 
 2438000   0.86420692   -3.9182233    1745.2779  0.059655382  0.059689368            3 
 2439000   0.84567896   -3.9138447    1746.5725  0.059675156  0.059677995            3 
 2440000   0.86052035   -3.9372154    1741.1508  0.059465533  0.059666427            3 
 2441000   0.84052064   -3.9275562     1750.962  0.059776117  0.059654989            4 
 2442000   0.85225704   -3.9262813    1746.9677  0.059615331  0.059643551            3 
 2443000    0.8652994   -3.9427721    1745.3756  0.059536622  0.059632095            3 
 2444000   0.87858313   -3.9099508    1749.2973  0.059645981  0.059620889            4 
 2445000    0.8546626   -3.9188174    1747.5515  0.059562083  0.059609674            3 
 2446000   0.84216064   -3.9188367    1746.8018  0.059512189  0.059598405            3 
 2447000   0.83312198   -3.9250813    1749.5363  0.059580994  0.059586925            5 
 2448000    0.8420856   -3.9260661    1745.4489  0.059417516   0.05957554            3 
 2449000   0.84833668   -3.9332527    1740.4716  0.059223889  0.059564061            3 
 2450000   0.84921788   -3.9097336    1752.0438  0.059593326   0.05955262            2 
 2451000   0.87406716   -3.8767417       1748.6  0.059451926  0.059541174            6 
 2452000   0.85861404   -3.9067117    1746.7857  0.059366019  0.059529778            2 
 2453000   0.84997145   -3.9002755    1750.1306  0.059455449  0.059518307            7 
 2454000   0.85981963   -3.9624574    1747.8168  0.059352648  0.059506736            7 
 2455000   0.86736078   -3.9150463    1748.2571  0.059343419  0.059495253            8 
 2456000    0.8660032   -3.9457997    1740.5715  0.059058479   0.05948358            5 
 2457000   0.85228237   -3.9112015    1747.4502  0.059267745   0.05947183            5 
 2458000   0.87568544   -3.9450265    1746.7591  0.059220203  0.059460384            8 
 2459000   0.86841274    -3.925022    1752.4815  0.059390047  0.059448873            5 
 2460000   0.86019723    -3.913566     1755.667  0.059473815  0.059437334            3 
 2461000   0.83977368   -3.9071317    1750.6789  0.059280742  0.059425781            3 
 2462000   0.85547047   -3.9496784    1753.4713  0.059351183  0.059414212            7 
 2463000   0.87097773   -3.9275803    1748.8615  0.059171116  0.059402583            4 
 2464000   0.85118787   -3.9491242    1746.2174  0.059057678  0.059390851            4 
 2465000   0.85396289   -3.9421486    1748.9357  0.059125617  0.059379265            3 
 2466000   0.85469755   -3.9142397    1754.4077  0.059286554  0.059367693            3 
 2467000   0.87197797   -3.9398008    1752.2704  0.059190326   0.05935609            6 
 2468000   0.85747878   -3.9077374     1759.365  0.059405896  0.059344491            1 
 2469000   0.86660238   -3.9101314    1759.0022  0.059369591  0.059332796            6 
 2470000   0.84058402   -3.9558524    1753.7543    0.0591685  0.059321141            2 
 2471000   0.85101336   -3.9127673     1751.958  0.059083973  0.059309556            2 
 2472000   0.86224104   -3.9175099    1752.4061  0.059075179  0.059297943            4 
 2473000    0.8770652   -3.9202343    1761.3066  0.059351214  0.059286322            3 
 2474000   0.87025973   -3.9356008    1754.0378  0.059082385   0.05927475            4 
 2475000   0.85697859   -3.9249243    1758.7642  0.059217649  0.059263141            2 
 2476000   0.88417411    -3.929038    1758.0636  0.059170152  0.059251441            3 
 2477000   0.86873935   -3.9231465    1756.7515  0.059102122  0.059239854            2 
 2478000   0.86369865   -3.9374343    1756.0258  0.059053866  0.059228186            4 
 2479000   0.83824347   -3.9305759    1757.7008  0.059086352  0.059216579            3 
 2480000   0.85761411   -3.9409139    1759.9901  0.059139452  0.059204946            5 
 2481000   0.87238906   -3.9196237    1759.6412  0.059103895  0.059193362            2 
 2482000   0.85243375   -3.9109122    1761.7503  0.059150896  0.059181861            4 
 2483000   0.84188323    -3.948441    1754.3382  0.058878312  0.059169974            2 
 2484000   0.86612944   -3.9406743    1759.4328  0.059025523  0.059158082            5 
 2485000   0.86990342   -3.9585312    1762.2562  0.059096451  0.059146525            5 
 2486000   0.85070454   -3.9382807    1756.9411  0.058894511  0.059134838            2 
 2487000   0.88287602   -3.9496071    1761.4638  0.059022377  0.059123134            6 
 2488000   0.84867173   -3.9408456    1760.9774  0.058982361  0.059111504            4 
 2489000   0.84089606     -3.92096    1764.4713  0.059075644  0.059099945            3 
 2490000   0.84382398   -3.9137594    1761.3106  0.058946138  0.059088299            4 
 2491000   0.85676501   -3.9487695    1758.4939  0.058828243  0.059076872            6 
 2492000   0.84668039   -3.9650391    1762.0596  0.058923876  0.059065352            9 
 2493000   0.86827936   -3.9372714     1765.084  0.059001337  0.059053758            3 
 2494000   0.86523786   -3.9475324    1757.8834  0.058737081  0.059042072            4 
 2495000   0.84965983   -3.9309891    1760.1861  0.058790451   0.05903059            3 
 2496000   0.86241283   -3.9347155    1765.3022  0.058937706  0.059019162            3 
 2497000   0.85406405    -3.960008    1762.5238  0.058821378  0.059007601            4 
 2498000   0.83972951   -3.9501045    1759.0933   0.05868339  0.058996031            3 
 2499000   0.85211941   -3.9353788    1771.3615  0.059069012   0.05898466            3 
 2500000   0.84664913   -3.9334538    1767.1243  0.058904144  0.058973311            5 
 2501000    0.8566144   -3.9473954    1766.0485  0.058844744  0.058961833            3 
 2502000   0.85099622   -3.9396317    1769.3231  0.058930293  0.058950555            5 
 2503000   0.86445236   -3.9480309    1765.9219  0.058793511  0.058939289            3 
 2504000   0.85460316   -3.9496097    1769.9615  0.058904471  0.058927843            7 
 2505000   0.85911942    -3.913835    1774.0276   0.05901622  0.058916505            5 
 2506000   0.82101091    -3.941954     1769.067  0.058827715  0.058905193            7 
 2507000   0.86175864   -3.9158066    1772.9841  0.058934454  0.058893787            4 
 2508000   0.86563375   -3.9534108    1779.4529  0.059125894  0.058882469            5 
 2509000   0.85110849   -3.9435386    1772.5023  0.058871473  0.058871047           11 
 2510000   0.85055718   -3.9337885    1769.7715  0.058757354  0.058859647            8 
 2511000   0.86429237   -3.9547973    1763.8509  0.058537467  0.058848312            8 
 2512000    0.8523572   -3.9247647    1774.0742   0.05885331  0.058837012            9 
 2513000   0.83660821   -3.9407648    1771.0981  0.058731199  0.058825722            2 
 2514000   0.84561405   -3.9548355    1770.3426  0.058682797  0.058814395            3 
 2515000   0.83126438   -3.9289935    1774.7988  0.058807116  0.058802898            4 
 2516000    0.8391146   -3.9534811    1776.3687  0.058835742  0.058791378            4 
 2517000   0.86689808   -3.9264602    1775.4634  0.058782392  0.058779863            4 
 2518000   0.84611753    -3.930644    1771.9509    0.0586428  0.058768507            4 
 2519000   0.85359926   -3.9675412     1765.806  0.058416238  0.058756831            3 
 2520000   0.85973122     -3.95273    1777.1015  0.058766585  0.058745155            6 
 2521000    0.8343877   -3.9181978    1774.1642   0.05864618  0.058733766            4 
 2522000   0.84481061   -3.9440156    1777.2042  0.058723375  0.058722377            3 
 2523000   0.83961912   -3.9561045     1770.701  0.058485301  0.058710888            3 
 2524000   0.84656066   -3.9372053    1774.0651  0.058573202  0.058699579            4 
 2525000   0.87015195   -3.9788728    1771.5031   0.05846545  0.058688091            3 
 2526000   0.84212346   -3.9556012    1782.9646   0.05882042  0.058676767            3 
 2527000   0.83945323   -3.9558982    1773.4075  0.058481979  0.058665495            4 
 2528000   0.85391313   -3.9298894    1783.8885  0.058804341    0.0586541            4 
 2529000   0.83766741   -3.9542092    1782.1983  0.058725394  0.058642658            3 
 2530000   0.85156759   -3.9576814    1780.1458  0.058634577   0.05863119            5 
 2531000   0.83864384   -3.9329141    1781.6311  0.058660314  0.058619831            4 
 2532000   0.85510619   -3.9645179    1778.3192  0.058528145  0.058608348            7 
 2533000   0.86356723   -3.9465659    1782.2357  0.058633889  0.058596815           12 
 2534000   0.83219145   -3.9231548    1778.1253  0.058475575  0.058585391            2 
 2535000   0.83564251   -3.9557856    1774.1764  0.058322696  0.058573817            3 
 2536000   0.83951649   -3.9378833     1779.357  0.058469931  0.058562252            5 
 2537000   0.87134683   -3.9274052    1779.7709   0.05846048   0.05855062            6 
 2538000    0.8356243   -3.9419148    1778.7206   0.05840296  0.058539152            6 
 2539000   0.84347299   -3.9669403    1775.6021  0.058277606   0.05852744            3 
 2540000   0.85387939   -3.9313069    1782.8135  0.058491257  0.058515881            3 
 2541000   0.83491436   -3.9481831    1775.7031  0.058235049  0.058504292            4 
 2542000   0.84533582   -3.9470981    1785.7501  0.058541506  0.058492671            6 
 2543000    0.8540924   -3.9397149    1783.4082  0.058441741  0.058480932            4 
 2544000   0.84032189   -3.9553121    1778.7175  0.058265119  0.058469359            4 
 2545000   0.85347503   -3.9783223    1779.7912  0.058277381  0.058457807            3 
 2546000   0.84549907   -3.9488569    1777.9498  0.058194221  0.058445888            6 
 2547000   0.85943913   -3.9638386    1782.9058  0.058333522  0.058434357            6 
 2548000   0.84736025    -3.949031    1783.3915  0.058326514  0.058422696            5 
 2549000    0.8369016   -3.9470498    1778.1952  0.058133751  0.058411276            3 
 2550000   0.85180485   -3.9498887    1777.0171  0.058072454  0.058399613            3 
 2551000   0.86243225   -3.9596088    1775.0791  0.057986382  0.058388012            8 
 2552000   0.84229483   -3.9604155    1779.8274  0.058118711  0.058376301            3 
 2553000   0.84887633   -3.9330979     1784.835  0.058259401  0.058364765            3 
 2554000   0.85733028   -3.9450027    1785.2248  0.058249307  0.058353091            3 
 2555000   0.85146204   -3.9436835    1785.1528  0.058224163  0.058341737            6 
 2556000   0.83609949    -3.956307    1783.8008  0.058157304   0.05833004           11 
 2557000    0.8458137   -3.9781001    1776.2125  0.057887254  0.058318469            5 
 2558000   0.83363075    -3.953599    1776.4549  0.057872522  0.058306787            2 
 2559000    0.8354839   -3.9689586    1789.0275  0.058259329  0.058294933            1 
 2560000   0.85233838   -3.9443741    1783.9598  0.058071608  0.058283122            3 
 2561000   0.85025566   -3.9592092    1785.0879  0.058085641  0.058271283            4 
 2562000   0.83248537   -3.9385222    1785.6013  0.058079666    0.0582595            3 
 2563000   0.86496938   -3.9640036    1788.5078  0.058151508  0.058247931            3 
 2564000   0.85162206   -3.9629472     1784.865  0.058010434   0.05823604            2 
 2565000    0.8431826   -3.9453882    1784.0629  0.057961759  0.058224177            3 
 2566000   0.86371226   -3.9714996    1778.2359  0.057749933  0.058212342            4 
 2567000   0.85836659   -3.9610719    1784.2031  0.057921151   0.05820054            6 
 2568000   0.83604163   -3.9560316     1791.418  0.058132724  0.058188783            3 
 2569000   0.84362395   -3.9559182    1788.9111  0.058028777  0.058177168           11 
 2570000   0.83023882   -3.9610007    1786.5857  0.057930795  0.058165571            5 
 2571000     0.828939   -3.9561665     1786.193  0.057895534  0.058153745            5 
 2572000   0.84174778   -3.9389623    1790.3938  0.058009131  0.058141928            3 
 2573000   0.85362442    -3.968252    1784.3401  0.057790519  0.058130326            4 
 2574000   0.86278753   -3.9615941    1785.8669    0.0578175  0.058118526            6 
 2575000   0.83882546   -3.9712049    1789.0498  0.057898051  0.058106788            8 
 2576000   0.84703938   -3.9464134     1785.252  0.057752716  0.058095013            6 
 2577000   0.83082861   -3.9556078    1784.2586  0.057698181  0.058083219            3 
 2578000   0.85709429   -3.9641231     1783.436   0.05764921  0.058071191            3 
 2579000   0.83565446   -3.9283067    1784.7822  0.057670356  0.058059353            4 
 2580000    0.8419626    -3.952479    1788.8754  0.057780214  0.058047362            6 
 2581000   0.82190318   -3.9618648    1796.9472  0.058018443  0.058035485            4 
 2582000   0.84576266   -3.9376482     1798.004  0.058030079  0.058023732            4 
 2583000   0.83983604   -3.9680623    1793.4083  0.057859346  0.058012083            4 
 2584000   0.83479936   -3.9310951    1791.2568  0.057767571  0.058000468            4 
 2585000    0.8455627   -3.9659463    1786.3586  0.057587317  0.057988597            5 
 2586000   0.84942631    -3.960083    1791.0724  0.057716951  0.057976792            4 
 2587000   0.83508138   -3.9614712    1788.1395  0.057600164  0.057965026            5 
 2588000   0.82882282   -3.9629708    1789.3149  0.057615755   0.05795316            2 
 2589000   0.82464646   -3.9534783    1792.3678  0.057691767  0.057941169            4 
 2590000   0.84542911   -3.9392455    1796.5246  0.057803237  0.057929241            4 
 2591000   0.84388048   -3.9359764    1795.3134  0.057741972  0.057917425            5 
 2592000   0.83835906    -3.966832    1787.8906  0.057481051   0.05790556            8 
 2593000   0.83740432   -3.9629307    1797.0602  0.057753574   0.05789367            4 
 2594000   0.83092959   -3.9628892    1796.5651  0.057715406  0.057881915            9 
 2595000   0.82993599   -3.9786783    1790.3988  0.057495144  0.057869811            5 
 2596000   0.82738868   -3.9551036    1796.6814  0.057674673  0.057857922            4 
 2597000   0.85296509   -3.9557998    1791.9713  0.057501325  0.057846085            3 
 2598000    0.8313039   -3.9566375    1797.9698  0.057671599  0.057834202            5 
 2599000   0.82553099    -3.951122    1795.6597  0.057575338  0.057822355            6 
 2600000    0.8362016    -3.947705    1801.6137  0.057744028  0.057810411            3 
 2601000   0.83771738   -3.9804415    1800.5385   0.05768738  0.057798595            3 
 2602000   0.82557042   -3.9523372    1796.1314  0.057524063  0.057786937            5 
 2603000   0.83639498   -3.9543562    1796.5741  0.057516139  0.057775257            7 
 2604000   0.85171462   -3.9510801     1801.774   0.05766046  0.057763392            4 
 2605000   0.84393799   -3.9274494    1799.5479  0.057567112  0.057751561           12 
 2606000   0.81584024   -3.9549029    1797.2722   0.05747225  0.057739639            9 
 2607000   0.82191373   -3.9675056    1802.0928  0.057604297  0.057727726            2 
 2608000   0.85076847   -3.9467362    1796.8567  0.057414898  0.057715817            2 
 2609000   0.82918426   -3.9527349    1802.4088  0.057570232  0.057703979            5 
 2610000   0.83806123   -3.9544585     1805.135  0.057635216   0.05769222            4 
 2611000   0.82379631   -3.9574817    1803.7012  0.057567383  0.057680437            5 
 2612000   0.83613166   -3.9666905    1802.8407  0.057517888  0.057668764            6 
 2613000    0.8155595   -3.9627987    1799.9709  0.057404354   0.05765693            4 
 2614000   0.84081492   -3.9934404    1797.0407   0.05728898  0.057645092            3 
 2615000   0.83645429   -3.9819578    1804.3765  0.057500844  0.057633285            2 
 2616000   0.83666466   -3.9558683    1803.6599  0.057456035  0.057621534            4 
 2617000   0.82939524    -3.978632    1800.5289  0.057334382  0.057609797            6 
 2618000      0.83801   -3.9646974    1802.2307  0.057366652  0.057598025            9 
 2619000   0.83098858   -3.9886407    1801.5683  0.057323669  0.057586082            3 
 2620000   0.83053268   -3.9704159    1804.2537  0.057387206  0.057574471            6 
 2621000    0.8279042   -3.9654972    1796.3086  0.057112699  0.057562588            6 
 2622000   0.83462118   -3.9858727    1804.8276  0.057361672  0.057550591            3 
 2623000   0.84755692     -3.95034    1807.9675  0.057439556  0.057538813            3 
 2624000   0.83214868   -3.9562404    1806.5559  0.057372838   0.05752692            3 
 2625000   0.81539539   -3.9891866    1806.5152  0.057349689  0.057515157            4 
 2626000   0.83731244   -3.9543615    1806.2126  0.057318247  0.057503351            2 
 2627000   0.83321648   -3.9625836    1803.8236  0.057220645  0.057491587            4 
 2628000   0.84138824   -3.9641567    1805.8212  0.057262215  0.057479759            3 
 2629000   0.82883632   -3.9694616    1803.9566   0.05718133  0.057467818            2 
 2630000   0.82259769   -3.9754762    1800.8172  0.057060113  0.057455869            4 
 2631000   0.84008139   -3.9182992    1809.4625  0.057312255  0.057443923            6 
 2632000   0.83489863   -3.9682685    1803.6856  0.057107573  0.057431867            6 
 2633000   0.82861581   -3.9922297     1803.396  0.057076718  0.057419808            6 
 2634000   0.82964761     -3.99219    1801.6381  0.056999433  0.057407838            7 
 2635000    0.8249339    -3.961971    1808.6801  0.057200509  0.057395928            2 
 2636000   0.83229712   -3.9683322     1807.821  0.057151649   0.05738405            8 
 2637000   0.84122345   -3.9590115    1812.7853  0.057286857  0.057372204            2 
 2638000   0.82374406   -3.9747333    1800.2354  0.056868694  0.057360273            2 
 2639000   0.82220946    -3.974932    1809.3473  0.057134877  0.057348337            4 
 2640000   0.82203843   -3.9745554     1810.298  0.057143244  0.057336417            2 
 2641000   0.83959731   -3.9716669    1803.3033  0.056900899  0.057324629            9 
 2642000   0.82734724   -3.9602854    1813.0547  0.057186938  0.057312625            4 
 2643000   0.82519521   -3.9818731    1809.9352  0.057066943   0.05730075            6 
 2644000   0.82113823   -3.9832226    1809.6565  0.057036576  0.057288879            2 
 2645000   0.81856201   -3.9891107    1814.0169  0.057152392  0.057276905            1 
 2646000   0.82046888   -3.9609368    1818.1607  0.057261298  0.057264954            4 
 2647000    0.8241107   -3.9617849    1808.0215   0.05692046   0.05725322            5 
 2648000   0.83014053   -3.9941621    1808.2482  0.056906099    0.0572413            5 
 2649000   0.82210313   -3.9615236    1811.9054  0.056999665  0.057229494            3 
 2650000   0.81623197   -3.9624742    1812.0314  0.056982119  0.057217445            5 
 2651000   0.82585089   -3.9792426    1809.7846  0.056889996  0.057205474            4 
 2652000   0.83547804   -3.9689946    1816.1702  0.057069201   0.05719364            4 
 2653000   0.80930984     -3.97223    1807.3054  0.056769237  0.057181794            4 
 2654000   0.84835572   -3.9847088    1814.6905  0.056979733  0.057169965            7 
 2655000   0.81286302   -4.0037712    1813.9847  0.056936118  0.057158181            6 
 2656000   0.81855123   -3.9951264    1810.7615   0.05681355  0.057146307            3 
 2657000   0.82125925   -3.9610159    1813.3999  0.056874918  0.057134445            6 
 2658000   0.82518445   -3.9891148    1818.1051  0.057001037  0.057122684            6 
 2659000   0.82990512   -3.9690823    1823.4661  0.057147616  0.057110895            7 
 2660000    0.8089765   -3.9712815    1820.8933  0.057045531   0.05709938            4 
 2661000   0.82845146   -3.9853211    1815.0186  0.056840115  0.057087804            2 
 2662000   0.85061587   -3.9776041    1817.7506  0.056904289  0.057076187            2 
 2663000   0.82532311   -3.9742248    1817.2462  0.056867135  0.057064507            4 
 2664000   0.84689971   -3.9925798    1822.9138  0.057023079  0.057052949            6 
 2665000   0.82970081   -4.0099596    1820.9271  0.056939559  0.057041359            5 
 2666000   0.82766183   -3.9861068    1821.0248  0.056921255  0.057029756            5 
 2667000   0.80549776   -3.9780833      1816.41  0.056755719  0.057018204            4 
 2668000   0.83782302   -4.0078546    1822.8095  0.056934329  0.057006664            3 
 2669000   0.83215221   -3.9866322    1821.0509   0.05685809  0.056995219            3 
 2670000   0.82073816   -3.9589122    1819.9496  0.056802421  0.056983829            4 
 2671000   0.80828883   -3.9630963    1826.1084  0.056973306  0.056972585            3 
 2672000   0.82903269   -4.0074398    1819.6593  0.056750853  0.056961284            6 
 2673000   0.81757185   -3.9914838    1829.4577  0.057035095  0.056949766            6 
 2674000   0.83147611   -3.9765741    1829.7778  0.057023742  0.056938381            4 
 2675000   0.83731149   -3.9843743    1820.2036  0.056704161  0.056926964            4 
 2676000    0.8164347   -4.0116946    1825.8428  0.056858583  0.056915498            5 
 2677000   0.82023676   -3.9994581    1830.8502  0.056993221  0.056903872            6 
 2678000   0.83630608   -3.9675292    1830.0547  0.056947185  0.056892454            5 
 2679000   0.82381041   -3.9932279    1829.7944  0.056917829  0.056880934            3 
 2680000   0.82345199   -3.9752265     1831.923   0.05696278  0.056869511            3 
 2681000   0.83861822   -3.9864287    1825.1947  0.056732399  0.056857904            4 
 2682000   0.81492031    -3.997639    1824.1385  0.056678427  0.056846387            2 
 2683000   0.82676862   -3.9896522     1829.778  0.056832464  0.056834938            6 
 2684000   0.81710264   -4.0018797    1826.7491  0.056717248  0.056823422            6 
 2685000   0.82167254   -3.9854563    1828.0261  0.056735756  0.056811892            4 
 2686000   0.81197029   -4.0077911    1831.3753  0.056818545  0.056800437            2 
 2687000   0.81574743   -3.9900582    1824.3408  0.056579232  0.056788778            5 
 2688000    0.8200947   -3.9999309    1832.0762  0.056797996  0.056777426            5 
 2689000    0.8095699   -3.9777266    1828.0738   0.05665284  0.056765905            5 
 2690000   0.80407758   -3.9982232    1827.8407  0.056624557   0.05675424            4 
 2691000   0.83164171   -3.9907299    1830.4901  0.056685561  0.056742604            5 
 2692000   0.82706037   -4.0137091    1830.5077  0.056665049  0.056731035            4 
 2693000   0.82356723    -3.972651    1830.8456  0.056654464  0.056719541            5 
 2694000   0.83600105   -3.9820583    1833.5652  0.056717558  0.056708031            5 
 2695000   0.79749385   -3.9787582    1826.7323   0.05648523  0.056696438            3 
 2696000   0.82819078   -3.9973542    1822.3061  0.056327464  0.056684814            4 
 2697000   0.82377772   -4.0059455    1840.9535  0.056882755  0.056673243            3 
 2698000   0.81797365   -3.9975558    1833.5895  0.056634221  0.056661691            4 
 2699000   0.84135766   -3.9710695    1830.5858  0.056520495   0.05665019            2 
 2700000   0.79739622   -3.9736482     1835.463  0.056650093  0.056638768            3 
 2701000   0.82094419    -3.969104    1835.0087  0.056615103  0.056627412            4 
 2702000   0.82339142   -4.0208006    1834.1531  0.056567761  0.056616169            4 
 2703000   0.81355827   -4.0098875    1831.2022  0.056455858  0.056604716            4 
 2704000   0.83019803    -3.975434    1836.5515  0.056599836  0.056593333            5 
 2705000   0.82640598   -4.0025853    1833.1368  0.056473714  0.056581954            7 
 2706000   0.80998002   -3.9615011    1847.1224  0.056883543  0.056570756            3 
 2707000   0.81595774   -4.0061346    1831.9373  0.056395064  0.056559448            3 
 2708000   0.80919895   -3.9833219    1842.0108  0.056684232  0.056548007            5 
 2709000   0.80563621   -4.0030852    1841.2303  0.056639298   0.05653653            6 
 2710000   0.83389189    -3.987121    1843.7155  0.056694819   0.05652516            5 
 2711000   0.82805174   -4.0209677    1837.9709  0.056497322   0.05651373            4 
 2712000   0.80060492   -3.9897309    1836.0681  0.056418022  0.056502222            4 
 2713000   0.81475854   -4.0079408      1843.65  0.056630116  0.056490665            6 
 2714000    0.8270306   -3.9759722    1837.1094  0.056408418   0.05647914            5 
 2715000      0.81701   -4.0056992    1837.9852  0.056414523  0.056467712           12 
 2716000    0.8163615   -3.9986866    1839.8504  0.056450981  0.056456123            5 
 2717000   0.79687485   -3.9774035      1839.07  0.056406268  0.056444601            6 
 2718000   0.81521374   -3.9957622    1836.6085  0.056310047   0.05643306            7 
 2719000    0.8129441   -4.0207791    1837.3068   0.05631074  0.056421459            4 
 2720000   0.80275337   -3.9877896    1838.6079  0.056329897  0.056409964            6 
 2721000    0.8499019   -4.0052365    1834.9318  0.056196613  0.056398348            5 
 2722000   0.80869096   -3.9889456    1842.8342  0.056417898  0.056386841            6 
 2723000    0.8107992   -4.0146761    1836.5685  0.056205425  0.056375166            7 
 2724000   0.82712417   -3.9993284    1846.1478  0.056477845  0.056363567            3 
 2725000   0.81941719    -3.985554    1836.3107  0.056156291  0.056352115            5 
 2726000   0.81025588   -3.9899545    1844.6273  0.056389927  0.056340725            4 
 2727000   0.82572673    -4.008677    1840.2113  0.056234303   0.05632923            5 
 2728000   0.80678931    -4.036492    1836.2844  0.056093731  0.056317885            3 
 2729000   0.81295566   -4.0240897    1836.8241  0.056089658  0.056306413            3 
 2730000    0.8273166   -3.9825183    1844.0843   0.05629073  0.056294919            4 
 2731000   0.81669722    -4.013274    1838.3857   0.05609623  0.056283386            2 
 2732000    0.8214431   -4.0227348    1838.1104    0.0560673  0.056271841           10 
 2733000   0.82494784   -3.9864913     1847.162  0.056322782  0.056260481            2 
 2734000   0.81835758   -4.0149775    1844.8794  0.056232607  0.056249088            6 
 2735000   0.81248892   -3.9992784    1845.0267  0.056216534  0.056237671            3 
 2736000   0.82343747   -3.9949937     1846.895  0.056252895  0.056226311            5 
 2737000   0.80035452   -4.0059359    1845.5047  0.056190011  0.056214946            7 
 2738000   0.80983893   -4.0170456    1846.7809  0.056208329  0.056203646            7 
 2739000   0.81280408    -3.983491    1849.4603  0.056269329  0.056192326            5 
 2740000   0.80561909   -3.9909513    1846.3103  0.056152988  0.056180917            4 
 2741000   0.79475383   -3.9821832    1850.4041  0.056256965  0.056169545            4 
 2742000    0.8125504    -4.010246    1843.8364  0.056036847  0.056158153            3 
 2743000   0.82879002   -4.0109797    1844.7021  0.056042719  0.056146795            3 
 2744000   0.80763154   -3.9790583    1847.7658  0.056115337  0.056135443            5 
 2745000   0.82241188   -4.0057043    1847.0707  0.056073791  0.056124255            6 
 2746000   0.81050073   -4.0033583    1855.4638  0.056308079  0.056112894            6 
 2747000   0.82019404   -4.0260394    1845.9316   0.05599841  0.056101566            3 
 2748000   0.81429667   -4.0069422    1848.7907  0.056064735  0.056090277            4 
 2749000   0.81994923    -4.005363    1843.9925  0.055898887  0.056079019            8 
 2750000    0.8114954   -4.0066346     1848.892  0.056027029  0.056067559            3 
 2751000    0.8021892   -3.9927067    1856.5615  0.056238988  0.056056356            8 
 2752000   0.82618054   -3.9921209    1852.2281  0.056087333  0.056045089            5 
 2753000   0.82100245   -3.9900991    1854.4347  0.056133754  0.056033841            5 
 2754000   0.81423461   -4.0197392    1856.7765  0.056184233  0.056022388            4 
 2755000   0.79825689   -4.0152888    1851.2985  0.055998138   0.05601109            3 
 2756000   0.81439473   -4.0020713    1850.1129  0.055941972  0.055999714            7 
 2757000   0.81600005   -4.0083997    1853.0457   0.05601033  0.055988364            7 
 2758000   0.83818178   -4.0084602      1849.71  0.055889231  0.055976995            5 
 2759000   0.80345335   -4.0011388    1855.1173  0.056032297  0.055965753            2 
 2760000   0.80442917   -4.0049303    1852.9411   0.05594629  0.055954421            4 
 2761000   0.83263928   -4.0157496    1849.3409  0.055817365  0.055943061            7 
 2762000   0.80390218   -3.9980252    1852.6647  0.055897439  0.055931868            7 
 2763000   0.82113419   -4.0090592     1852.329  0.055867084  0.055920474            2 
 2764000    0.7915191   -4.0155569    1851.0386  0.055807966  0.055909135            3 
 2765000   0.81119662   -4.0038262    1855.8379  0.055932425  0.055897695            6 
 2766000   0.82057638   -4.0247551    1858.8886  0.056004114  0.055886408            3 
 2767000   0.79451606   -4.0214778    1856.7476  0.055919394  0.055874997            3 
 2768000   0.81516746   -4.0062867    1855.2156  0.055853071  0.055863657           11 
 2769000   0.78157763   -4.0227207    1851.2152  0.055712509  0.055852289            6 
 2770000   0.82094879   -4.0340116    1853.4804  0.055760541  0.055840993            3 
 2771000   0.80396652   -3.9848493    1854.0721  0.055758213  0.055829634            3 
 2772000   0.80810174   -3.9874646    1854.5849  0.055753514   0.05581833            5 
 2773000   0.80563564   -3.9945902    1851.4313  0.055638636  0.055807079            8 
 2774000   0.79373388   -4.0053244    1859.3287  0.055855825   0.05579569            6 
 2775000   0.80790412   -4.0045733     1864.265  0.055983934  0.055784601            9 
 2776000   0.79408723   -4.0267709    1859.3112  0.055815058  0.055773261            7 
 2777000   0.78847957   -4.0329121    1853.9979  0.055635516  0.055761795            6 
 2778000   0.80206609   -3.9990213    1859.3412  0.055775774  0.055750298            2 
 2779000   0.81609774   -4.0026132    1862.5385  0.055851582  0.055738902            3 
 2780000    0.8006074   -4.0508323    1856.3758  0.055646755  0.055727569            5 
 2781000     0.809725   -4.0373988    1853.8882  0.055552205  0.055715995            3 
 2782000   0.77977351   -4.0146612    1862.1056  0.055778386  0.055704588            4 
 2783000   0.82335593   -4.0286158    1863.9983  0.055815018  0.055693157            3 
 2784000   0.82064177   -4.0297034    1862.4281  0.055747967  0.055681722            3 
 2785000   0.79935967   -4.0198025    1860.3242  0.055664998  0.055670317            7 
 2786000   0.80480996   -4.0213333    1860.8321  0.055660207  0.055658826            3 
 2787000   0.81487645   -4.0218807    1854.4932    0.0554507  0.055647338            9 
 2788000   0.79276261   -4.0000378    1864.2506  0.055722458  0.055635975            4 
 2789000   0.78385829   -4.0346703    1858.0748   0.05551795  0.055624555            3 
 2790000   0.80491422   -4.0125432    1859.1797  0.055531053  0.055613095           12 
 2791000   0.80501766   -4.0060215    1863.1081  0.055628451  0.055601636            8 
 2792000   0.79279627   -4.0328326     1858.676  0.055476241  0.055590164            2 
 2793000   0.79398248   -4.0282098    1864.8813  0.055641523  0.055578672            5 
 2794000   0.80683402   -4.0091032    1867.2496  0.055692246  0.055567311            7 
 2795000   0.81387315   -4.0047643    1860.1449  0.055460491  0.055555931            6 
 2796000   0.81744268   -4.0463084    1866.1414  0.055619379  0.055544648            4 
 2797000   0.80138826   -4.0018697    1863.6912  0.055526492  0.055533337            3 
 2798000    0.7994625   -3.9992397    1865.1016  0.055548652  0.055521941           10 
 2799000   0.80716249   -4.0268159    1863.5588  0.055482875  0.055510716            5 
 2800000   0.80887562   -4.0559677    1862.5394   0.05543272  0.055499344            6 
 2801000     0.796702   -4.0192315    1865.1667  0.055491096  0.055488006            5 
 2802000   0.79703916   -4.0196951    1865.4135   0.05547863  0.055476511            2 
 2803000   0.79684783   -4.0255125    1860.4088   0.05531005  0.055465018            7 
 2804000   0.78395954   -4.0211241    1858.1028  0.055221791  0.055453483            3 
 2805000   0.79054489   -4.0192865    1864.0915   0.05538002  0.055441988            6 
 2806000   0.78816909   -4.0410944    1866.2808  0.055425302  0.055430407            3 
 2807000   0.81310702   -3.9945984    1868.8668  0.055482331  0.055419107            5 
 2808000   0.80215735   -4.0049205    1868.7504  0.055459118  0.055407801            3 
 2809000   0.82629146   -4.0314148    1869.6849  0.055467097   0.05539642            6 
 2810000   0.80374564   -4.0298162    1868.5046  0.055412354  0.055385011            3 
 2811000   0.83634585   -4.0146587    1869.8489  0.055432495  0.055373615            4 
 2812000   0.79364715   -4.0091157    1867.6602   0.05534792  0.055362167            4 
 2813000   0.80636423   -4.0142166     1869.221  0.055374482  0.055350697            3 
 2814000   0.78319993   -4.0373915    1868.0537  0.055320234  0.055339216            8 
 2815000   0.80579572   -4.0350787    1868.1066   0.05530215  0.055327696            2 
 2816000   0.80581758   -4.0249782    1868.4626  0.055293045  0.055316182            6 
 2817000   0.80630792   -4.0381131    1868.6814  0.055279891  0.055304605            2 
 2818000    0.8014709   -4.0209882    1868.3123  0.055249357   0.05529293            3 
 2819000   0.80276959   -4.0350444    1871.7841   0.05533239  0.055281391           10 
 2820000   0.79703218    -4.024654    1863.8003  0.055076842  0.055269753            3 
 2821000   0.80072588   -4.0235334    1872.3281  0.055309231  0.055258205            4 
 2822000   0.78918791   -4.0497599    1864.3293  0.055053428  0.055246646            3 
 2823000   0.80789403   -4.0488355    1869.0205  0.055172408  0.055234947            4 
 2824000   0.80991059   -4.0298918    1868.2545  0.055130268  0.055223292            4 
 2825000   0.82007781   -4.0256259    1865.5241  0.055030208  0.055211725            4 
 2826000     0.815569    -4.035858      1864.74  0.054987614  0.055200226            5 
 2827000   0.78804036   -4.0435057    1865.9254  0.055003107  0.055188595            4 
 2828000   0.78364767   -3.9933989    1867.6683  0.055035016   0.05517695           12 
 2829000   0.78188654   -4.0271642    1872.6687  0.055162857  0.055165351            5 
 2830000   0.80590234   -4.0340993    1872.2557  0.055131204  0.055153836            5 
 2831000   0.80850084   -4.0048426    1877.3661   0.05526216  0.055142403            5 
 2832000   0.78148897   -4.0187709    1870.8145  0.055049862  0.055130961           12 
 2833000   0.79971429   -4.0329565     1875.657  0.055172873  0.055119423            3 
 2834000   0.81870555   -4.0365014    1875.1509  0.055138524  0.055107798            3 
 2835000   0.80435865   -4.0510022     1871.162  0.055001824   0.05509614           11 
 2836000   0.77526248   -4.0218035    1869.8782  0.054944704  0.055084567            6 
 2837000   0.77999022   -4.0277549    1873.2367  0.055023991  0.055073025           10 
 2838000   0.79229197   -4.0528365    1873.0938  0.055000406  0.055061494            6 
 2839000   0.81715776   -4.0271418    1868.6483  0.054850542  0.055049948            4 
 2840000   0.78937793   -4.0596861     1868.841  0.054836885   0.05503837            5 
 2841000   0.78710489   -4.0546534    1868.3409  0.054802914  0.055026751            5 
 2842000   0.79855758   -4.0353352    1876.2766  0.055016321  0.055015236            4 
 2843000   0.79537118   -4.0208376    1880.8119  0.055129908   0.05500387            2 
 2844000   0.79986232   -4.0183302    1878.5935   0.05504552  0.054992599            3 
 2845000   0.79039893    -3.997753    1875.8416  0.054945566  0.054981284            4 
 2846000   0.80971589   -4.0468905    1876.0903  0.054933541  0.054969994            5 
 2847000   0.77995569    -4.024906    1881.9983  0.055087177  0.054958617            5 
 2848000   0.78759252    -4.032364     1881.549  0.055054687  0.054947297            8 
 2849000   0.79628297   -4.0205669    1880.6365  0.055008673  0.054936005            7 
 2850000   0.81863878   -4.0292416    1879.6175  0.054959576  0.054924804            2 
 2851000   0.78196599   -4.0471826    1878.4761  0.054906937  0.054913365            6 
 2852000   0.79423722   -4.0161167    1878.2998  0.054882533  0.054901945            4 
 2853000    0.7969014   -4.0499465    1876.0137  0.054796523  0.054890601            5 
 2854000   0.78756479   -4.0356828    1879.7353  0.054885986  0.054879295            3 
 2855000   0.77377171   -4.0567669    1876.9904  0.054786642  0.054867795            8 
 2856000    0.7812237   -4.0336216    1876.1486  0.054742898  0.054856335            4 
 2857000   0.82157965   -4.0137578    1877.0585  0.054750278  0.054845001            6 
 2858000   0.79775071   -4.0127169    1879.5295   0.05480317  0.054833627            7 
 2859000   0.79554393   -4.0253649    1877.9301  0.054737381  0.054822188            6 
 2860000   0.78310637   -4.0744642    1875.1274   0.05463658  0.054810704            5 
 2861000   0.77701297    -4.024531    1885.8267  0.054929126  0.054799262            5 
 2862000    0.7821005   -4.0384993    1882.1941  0.054804162  0.054787822            7 
 2863000   0.80410548    -4.018425    1882.3105  0.054788406  0.054776428            4 
 2864000   0.78771437   -4.0349186    1887.4603   0.05491912  0.054765023            4 
 2865000    0.7916375   -4.0296355    1880.5006  0.054697516  0.054753566            7 
 2866000   0.79618349   -4.0207491    1882.7827  0.054744787  0.054742084            5 
 2867000   0.78953812   -4.0628843    1880.0284  0.054645635  0.054730619            4 
 2868000   0.79054774   -4.0330079    1881.7801   0.05467748  0.054719134            7 
 2869000   0.77999542   -4.0438137    1883.3435   0.05470383   0.05470765            3 
 2870000   0.80457973   -4.0186542    1882.7886  0.054668659   0.05469626            5 
 2871000   0.79766153   -4.0316917    1887.5485  0.054787778  0.054684957            6 
 2872000   0.79052151   -4.0315052    1886.5007  0.054738299   0.05467362            7 
 2873000   0.80913172   -4.0426879    1888.6348  0.054781147  0.054662305            6 
 2874000   0.78502557   -4.0300495    1888.9769  0.054772005  0.054650867            7 
 2875000   0.77062729   -4.0460057    1883.7875  0.054602535  0.054639356            7 
 2876000   0.78055945   -4.0104277    1890.5455  0.054779368  0.054628019            7 
 2877000   0.77075723   -4.0368655    1884.0169  0.054571224  0.054616617            3 
 2878000   0.78647716   -4.0538334    1887.9664  0.054666621  0.054605297            2 
 2879000   0.79102512   -4.0427767     1887.222  0.054626087  0.054593973            9 
 2880000   0.77658212   -4.0370976    1889.5373  0.054674111  0.054582669            4 
 2881000   0.79407458   -4.0322308    1888.4988  0.054625096  0.054571507            8 
 2882000   0.79901284   -4.0393987    1884.7402  0.054497462  0.054560102            2 
 2883000   0.79039461   -4.0437251    1886.7823  0.054537584  0.054548836            4 
 2884000   0.79604134   -4.0310845    1889.2877  0.054591068  0.054537616            7 
 2885000   0.79709789   -4.0053012    1891.6324  0.054639872  0.054526361            5 
 2886000   0.77596258   -4.0617251    1889.0665   0.05454685  0.054515129            4 
 2887000   0.80015246   -4.0158879    1888.5667   0.05451353  0.054503786            7 
 2888000   0.79059647   -4.0447711     1891.678  0.054584428  0.054492422           10 
 2889000   0.78494782    -4.049893    1889.7186  0.054509016  0.054481158            4 
 2890000   0.78468607   -4.0653777    1885.1385  0.054358088  0.054469816            3 
 2891000   0.79070197   -4.0604951    1886.4504    0.0543771  0.054458367            4 
 2892000   0.78569955   -4.0496315    1885.3384  0.054326256  0.054447079           11 
 2893000   0.77527116   -4.0401986    1892.4325  0.054511824  0.054435801            6 
 2894000   0.77925412   -4.0490508    1889.3718  0.054404855  0.054424487            7 
 2895000   0.77791087   -4.0421185    1888.1203  0.054350037  0.054413112            4 
 2896000   0.78821533   -4.0522853     1890.559  0.054401446  0.054401817            6 
 2897000   0.79840241   -4.0257033    1892.5328  0.054439443  0.054390466            8 
 2898000   0.78377598   -4.0584235    1887.0317   0.05426247  0.054379129            4 
 2899000   0.79086101   -4.0382599    1897.3258  0.054539664  0.054367742           10 
 2900000   0.79000131   -4.0590718    1890.0358  0.054311374  0.054356497            8 
 2901000   0.78373749   -4.0531618    1893.2042  0.054383666  0.054345352            3 
 2902000    0.7637879   -4.0465607    1897.4588  0.054487101   0.05433417            5 
 2903000   0.77030259   -4.0397444     1894.001  0.054369072  0.054322932            8 
 2904000   0.80328721   -4.0442599    1893.6306  0.054339721  0.054311696            6 
 2905000   0.78426832   -4.0511259    1891.8531  0.054270025   0.05430046           11 
 2906000   0.77040504   -4.0369926      1899.83  0.054480098  0.054289054            6 
 2907000   0.78951857   -4.0519366    1885.7056  0.054056461   0.05427783            4 
 2908000    0.7829237      -4.0382    1891.0329  0.054190534  0.054266572            5 
 2909000   0.78978505   -4.0519509    1895.6998  0.054305596  0.054255275            1 
 2910000    0.7943382   -4.0362802    1897.8522  0.054348574  0.054243951            6 
 2911000   0.77497184   -4.0282023    1901.0294  0.054420858  0.054232617            5 
 2912000   0.80807927   -4.0880515    1894.5285  0.054216131  0.054221304            7 
 2913000    0.7731281   -4.0947394     1898.404  0.054308387  0.054209867            3 
 2914000   0.79546745   -4.0533221    1897.7053   0.05426977   0.05419848           10 
 2915000   0.78869585   -4.0590851    1893.1991  0.054122331  0.054187113            4 
 2916000   0.79928182   -4.0372372    1901.7344   0.05434769  0.054175789            4 
 2917000   0.78540491   -4.0406091     1899.866  0.054275682  0.054164396            4 
 2918000   0.78845849   -4.0443457    1893.9608  0.054088438  0.054153166            2 
 2919000   0.78431364   -4.0265877    1897.2634  0.054164193  0.054142041            4 
 2920000   0.78352404   -4.0245294    1900.2461  0.054230768  0.054130728            9 
 2921000   0.77811943   -4.0809235    1891.4303  0.053960695  0.054119332            4 
 2922000   0.79270286   -4.0717931    1891.6143  0.053947476  0.054107895            5 
 2923000   0.78733355   -4.0763979    1899.5487  0.054155226  0.054096687            9 
 2924000   0.78593682   -4.0673506    1893.0053   0.05395022  0.054085247           12 
 2925000   0.78502536   -4.0400705     1899.218  0.054108774  0.054073912            6 
 2926000   0.78437756   -4.0400207    1901.9339  0.054167633  0.054062621            5 
 2927000   0.79146196   -4.0517203    1900.9845  0.054122096  0.054051372            4 
 2928000   0.77054501   -4.0520706    1896.6507  0.053980268   0.05404003           10 
 2929000   0.77554044   -4.0714899    1896.3401     0.053953  0.054028705            9 
 2930000   0.76949769   -4.0672681    1897.3918    0.0539645  0.054017425            4 
 2931000   0.78122296   -4.0532735    1898.0192  0.053963926   0.05400619            2 
 2932000   0.78981515    -4.044892    1902.2914  0.054066944  0.053995095            3 
 2933000   0.77905304   -4.0354447    1908.6647  0.054229591  0.053983876            4 
 2934000   0.77637285   -4.0603953    1903.8713  0.054074962  0.053972851            3 
 2935000   0.76557287   -4.0468423    1908.4623  0.054186892  0.053961709            2 
 2936000   0.77540823   -4.0459543    1909.8449  0.054207678  0.053950616            4 
 2937000   0.78401287   -4.0734882     1901.646  0.053956589  0.053939507            5 
 2938000   0.78453217   -4.0466339    1906.4591  0.054074741  0.053928412            5 
 2939000   0.77818802   -4.0516138    1913.8782  0.054266706  0.053917366            5 
 2940000   0.79249794   -4.0621692    1901.6127  0.053900587  0.053906242            2 
 2941000   0.79701455   -4.0628461    1909.2983  0.054100032  0.053895199            5 
 2942000   0.76286263   -4.0711486    1899.8858  0.053815028  0.053884074            8 
 2943000   0.78385723   -4.0605756    1905.0899  0.053944102  0.053872833           15 
 2944000   0.79643463   -4.0614195    1908.1803  0.054013255  0.053861784            7 
 2945000   0.79150133   -4.0554042    1905.4724  0.053918291  0.053850685            8 
 2946000   0.76452686   -4.0518957     1908.922  0.053997568  0.053839387            3 
 2947000   0.77189235   -4.0573139    1906.1374  0.053900503  0.053828265           13 
 2948000   0.78109021   -4.0798417    1910.3228  0.054000531  0.053817057           18 
 2949000    0.7853263     -4.06365    1914.2644  0.054093602  0.053805872            4 
 2950000   0.77292317   -4.0850746     1904.259  0.053792628  0.053794726            2 
 2951000   0.78025689   -4.0838657    1902.2724    0.0537183  0.053783603            6 
 2952000   0.76234493   -4.0533364    1910.0134  0.053918627  0.053772414            8 
 2953000   0.80174433   -4.0733888    1909.7097  0.053891796  0.053761236            4 
 2954000   0.78230534   -4.0951141     1906.208  0.053774768  0.053750094           11 
 2955000   0.78200512   -4.0710357    1908.4912   0.05382096  0.053738869            3 
 2956000   0.78022483   -4.0820311     1909.815  0.053840071  0.053727581            5 
 2957000   0.78246758    -4.051487    1906.5239  0.053729116  0.053716512            5 
 2958000   0.80741965   -4.0683524     1910.058  0.053810513   0.05370544            4 
 2959000   0.78017291   -4.0737922    1915.8972  0.053956776  0.053694263            6 
 2960000   0.77714744   -4.0442949    1921.6841  0.054101467  0.053683332            4 
 2961000   0.77678873   -4.0927335    1909.1007  0.053729054  0.053672393            8 
 2962000    0.7785552   -4.0737956    1910.4154    0.0537479  0.053661319            5 
 2963000   0.78749449   -4.0475066    1912.1576   0.05377876  0.053650201            7 
 2964000   0.78648829   -4.0607035    1915.9977  0.053868582  0.053639149            7 
 2965000   0.77585033   -4.0590127    1919.3869  0.053945668  0.053628095            5 
 2966000    0.7809998   -4.0588844    1915.9157  0.053829955  0.053617081            7 
 2967000   0.77345386    -4.061857    1913.7152  0.053750006  0.053605922            4 
 2968000   0.76716888   -4.0766855    1915.6238  0.053785485  0.053594818            3 
 2969000   0.78250393   -4.0485921    1914.2484  0.053728765  0.053583781            3 
 2970000    0.7642433   -4.0915723    1917.3588  0.053797947  0.053572757            3 
 2971000   0.77131294   -4.0734531    1914.7102  0.053705548  0.053561721            5 
 2972000   0.78388591   -4.0699353     1912.891  0.053636468  0.053550687            9 
 2973000   0.78446351    -4.054556    1918.9071  0.053787059   0.05353963            5 
 2974000   0.78417173   -4.0752361    1913.3076  0.053612071  0.053528589            7 
 2975000   0.81165691   -4.0891584    1909.2026  0.053479065  0.053517515            7 
 2976000   0.76164235   -4.0667755    1918.3404   0.05371697   0.05350641            4 
 2977000   0.75501296   -4.0670694    1921.3781  0.053783957  0.053495483            5 
 2978000   0.77616256   -4.0666116    1920.1009  0.053730158  0.053484483            4 
 2979000   0.76994752   -4.0736864    1921.4133  0.053748834  0.053473424            6 
 2980000   0.77818005   -4.0603412    1922.2099  0.053753074  0.053462439            5 
 2981000   0.76575755   -4.1000653    1912.8737  0.053474051  0.053451371            8 
 2982000   0.75586929   -4.0643199    1917.4009  0.053582631  0.053440303            5 
 2983000   0.78436937   -4.0441943    1919.8595  0.053633354  0.053429257            6 
 2984000   0.77481798   -4.0767945    1917.9529  0.053562133  0.053418219            4 
 2985000   0.77463185   -4.0894389     1920.233  0.053607844  0.053407087           12 
 2986000   0.75929379   -4.0501231    1918.3648  0.053537754  0.053396057            2 
 2987000   0.77147663   -4.0801287    1919.3198  0.053546473  0.053384956           10 
 2988000   0.78522663   -4.0785578    1917.7078  0.053483595  0.053373806            8 
 2989000   0.76507478   -4.0602795    1923.3412  0.053622761    0.0533627            3 
 2990000   0.78290825   -4.0800896    1922.6016  0.053584214  0.053351671            3 
 2991000   0.78377875   -4.0792675    1915.1733  0.053359337  0.053340554            6 
 2992000   0.76665374   -4.0836026    1914.5379  0.053323806  0.053329355            5 
 2993000   0.75772955   -4.0976359    1915.6325  0.053336465  0.053318077            3 
 2994000   0.76945595   -4.0694611    1916.7507  0.053349776  0.053306761            7 
 2995000   0.78126146   -4.0395417    1917.1036  0.053341782  0.053295536            4 
 2996000   0.77327456   -4.0602828    1922.2849  0.053468092  0.053284335            5 
 2997000    0.7716237   -4.0775046     1923.133  0.053473835  0.053273052            6 
 2998000   0.75798954   -4.0790561    1914.8564   0.05322594  0.053261786            7 
 2999000   0.76958948    -4.070204    1925.9364  0.053516071  0.053250536           10 
 3000000   0.77105786    -4.067402    1922.6601  0.053407226  0.053239389            4 
 3001000   0.77935264   -4.0805076      1917.04  0.053233365  0.053228277            4 
 3002000   0.76812583   -4.0757781    1919.8768  0.053294381  0.053217048            3 
 3003000   0.77055457   -4.0693555    1912.2412  0.053064746   0.05320587            6 
 3004000   0.77235095   -4.0837661    1918.3911  0.053217686  0.053194738            9 
 3005000    0.7547583   -4.1048261    1919.0698  0.053218796  0.053183442            5 
 3006000   0.75614144   -4.0813598    1922.9489   0.05330863  0.053172201            9 
 3007000   0.76688432   -4.0803072    1920.8095  0.053231613  0.053160937            5 
 3008000   0.76267417    -4.113071    1921.8107  0.053241654  0.053149746            4 
 3009000   0.77767731   -4.0736012    1927.1468  0.053371742  0.053138604            8 
 3010000   0.76342246   -4.0759621    1922.5294  0.053226174  0.053127495            9 
 3011000   0.76769713   -4.0598896    1927.7975  0.053354297  0.053116464            7 
 3012000   0.77297303   -4.0666078      1922.05  0.053177566  0.053105339            3 
 3013000   0.78478183   -4.0838387    1925.5618  0.053257048  0.053094312           15 
 3014000   0.77035569   -4.0526209    1927.5923  0.053295517   0.05308329            4 
 3015000   0.76404645   -4.0846078    1929.1659  0.053321334  0.053072339            6 
 3016000   0.77631736   -4.0785588    1924.3049  0.053169343  0.053061279            6 
 3017000   0.76594336    -4.069727    1927.3552  0.053235973  0.053050181            8 
 3018000   0.78288407   -4.0891296    1930.8363  0.053314456   0.05303913            2 
 3019000   0.74185653   -4.0864247    1925.4352   0.05314771   0.05302799            7 
 3020000   0.75845161   -4.0695736    1928.6133  0.053217805   0.05301684            4 
 3021000   0.76932111   -4.0875468    1926.1177   0.05313135  0.053005713            4 
 3022000   0.76149601   -4.0939893    1922.2384  0.053006794  0.052994537            4 
 3023000   0.74787304   -4.1059003    1923.9288  0.053035857  0.052983315            6 
 3024000   0.76412773   -4.0671156    1927.2159  0.053108903   0.05297231            3 
 3025000   0.76201974   -4.0936705    1930.5973  0.053184499  0.052961321           13 
 3026000   0.76368469   -4.0550918    1934.7835  0.053282206  0.052950349            4 
 3027000   0.77097261   -4.0708389    1931.6953  0.053179586  0.052939416            8 
 3028000   0.77062465   -4.0787585    1927.1921  0.053038093  0.052928362            4 
 3029000   0.74730885   -4.0718787    1929.4008  0.053081347  0.052917434            9 
 3030000   0.75398548   -4.0635331    1934.9795  0.053217259   0.05290649            4 
 3031000   0.76357914   -4.0841393    1932.5957  0.053134161  0.052895565            6 
 3032000    0.7664795   -4.0616657    1938.5821  0.053281169  0.052884613           10 
 3033000   0.76703424   -4.1078994    1930.3667  0.053037881  0.052873775            5 
 3034000   0.77169669   -4.1173451    1931.3342  0.053046972   0.05286281            5 
 3035000   0.75767109   -4.0961858    1932.6086  0.053064486  0.052851843            5 
 3036000   0.78227191   -4.1213075    1932.8828  0.053054535  0.052840861            4 
 3037000   0.77387056   -4.1041193    1933.2698  0.053047684  0.052829836            4 
 3038000   0.75770063   -4.1010033    1932.5567  0.053010663  0.052818867            6 
 3039000   0.75808084   -4.0758552     1940.431  0.053209141  0.052807889            5 
 3040000   0.77643868    -4.074116    1937.2914  0.053105575  0.052796959            5 
 3041000   0.77359128   -4.1054707    1932.3618  0.052953025  0.052785984            5 
 3042000    0.7695436    -4.104192    1931.0416  0.052899452  0.052774896            7 
 3043000   0.76943876     -4.11874    1932.3078  0.052916744    0.0527638            5 
 3044000   0.77045882    -4.105576    1934.1837  0.052950713  0.052752879            8 
 3045000   0.76148143   -4.0785818    1941.0011    0.0531199  0.052741941            7 
 3046000   0.77396007   -4.0844053    1930.9583  0.052827706  0.052731019            6 
 3047000   0.76293065   -4.0847443    1930.4829  0.052797368  0.052720051            6 
 3048000   0.76428382   -4.0898823    1933.1623  0.052853301  0.052708948            5 
 3049000    0.7540508   -4.0977446    1932.4127  0.052815479  0.052697889            5 
 3050000   0.77025638   -4.0777116    1932.4292  0.052798612  0.052686875            4 
 3051000   0.77409533   -4.0873516    1936.3492  0.052888376  0.052675881            8 
 3052000   0.75997128   -4.0788726    1935.5279  0.052848621  0.052665002            3 
 3053000   0.76305563   -4.1266781    1931.3685  0.052717778  0.052654082            6 
 3054000   0.76710954   -4.1054572    1938.7254  0.052901259  0.052643056            3 
 3055000   0.76756978   -4.0977747    1939.7673  0.052912365  0.052632068            4 
 3056000   0.76580335   -4.1064899    1937.6319  0.052836822  0.052621006            5 
 3057000   0.76033722   -4.0938086    1936.6652  0.052793186  0.052609938            3 
 3058000   0.77622009   -4.1089536    1935.6728  0.052748877  0.052598949            6 
 3059000    0.7747737   -4.0626751    1942.5904  0.052920081  0.052588031            2 
 3060000    0.7602917   -4.1048268    1937.4278  0.052762196  0.052577033            5 
 3061000   0.76184725   -4.1022459    1941.2449  0.052848875  0.052566063            2 
 3062000    0.7542515   -4.0716109    1939.0029  0.052770599  0.052555073            9 
 3063000   0.76255107    -4.092573    1940.4432  0.052792557  0.052544067            5 
 3064000   0.74978315   -4.1110674    1935.9666  0.052653574  0.052533057            4 
 3065000   0.77025877   -4.0919751    1932.5568  0.052543688  0.052522045            4 
 3066000   0.74623207   -4.0874545     1939.579   0.05271741  0.052511075            4 
 3067000   0.75435608   -4.0993856    1938.9714  0.052683713  0.052500156            9 
 3068000   0.77199949   -4.0942895    1934.4696  0.052544264   0.05248904            4 
 3069000   0.75399164   -4.1045141    1939.3253  0.052658991  0.052478039            3 
 3070000   0.76155232   -4.0947339    1940.0974  0.052662795  0.052467058            6 
 3071000   0.77704516   -4.1102186    1938.6127  0.052605359  0.052456095            4 
 3072000   0.77420733   -4.0970776    1936.1598  0.052521696  0.052445087            9 
 3073000   0.75189345   -4.1037521    1936.6738  0.052518543  0.052434086            5 
 3074000   0.75139477    -4.095544    1938.1313  0.052540971  0.052423061            4 
 3075000   0.74919043   -4.0837703    1941.4686  0.052614325  0.052412047           10 
 3076000   0.75975961   -4.1215788    1941.4174  0.052595835  0.052401032            9 
 3077000   0.75558656   -4.1116422    1942.1612  0.052598884  0.052389931            5 
 3078000   0.75357202   -4.0913076    1946.1719  0.052690381  0.052378765            4 
 3079000   0.75393989   -4.1129487    1943.0534  0.052588864  0.052367677            5 
 3080000   0.76978275   -4.0959378    1939.0744  0.052464135  0.052356661            3 
 3081000   0.74674492   -4.0997945    1938.5408  0.052432675  0.052345525            4 
 3082000   0.74939198   -4.1044834    1945.0769  0.052592388  0.052334426            7 
 3083000   0.75809958    -4.092658     1941.067  0.052466944  0.052323285            6 
 3084000   0.75226047   -4.0921067    1936.4028  0.052323897  0.052312121            5 
 3085000    0.7440017   -4.1156394    1938.2449  0.052356698  0.052300933            6 
 3086000   0.74626221   -4.0979502    1941.1433  0.052417998  0.052289745            6 
 3087000   0.75974292   -4.1297508    1943.1648  0.052455589  0.052278577            7 
 3088000   0.75243821   -4.0942038    1935.7862  0.052239482  0.052267326            5 
 3089000   0.77610372   -4.0989621    1938.0519  0.052283693  0.052256213            5 
 3090000   0.75032803   -4.1005193    1946.9496   0.05250673  0.052244994            7 
 3091000   0.76412527   -4.1414435    1940.4798  0.052315318  0.052233806            2 
 3092000   0.74831661   -4.0753948    1940.7521  0.052305738  0.052222587            5 
 3093000   0.74464211   -4.1026395    1948.4115   0.05249519  0.052211384            5 
 3094000   0.75486504   -4.1068065    1946.8576  0.052436372   0.05220023            5 
 3095000   0.76021298   -4.1160394    1945.0951  0.052371973  0.052189004            4 
 3096000    0.7643218   -4.1059202    1944.6269  0.052342457  0.052177822            5 
 3097000   0.75191301   -4.1100467    1938.1102  0.052150204  0.052166646            4 
 3098000   0.76793539   -4.0765734    1942.9026  0.052262281   0.05215536            3 
 3099000   0.75539481   -4.1186675    1938.9646  0.052139522  0.052144192           11 
 3100000   0.76403401   -4.1088172    1940.8691  0.052173899  0.052132968            7 
 3101000   0.75436274   -4.1040587    1949.2525  0.052382364   0.05212181            5 
 3102000   0.76458086   -4.1054908    1939.9361  0.052115198  0.052110579            9 
 3103000   0.75137043   -4.1111203    1944.6574  0.052225196  0.052099382            4 
 3104000   0.76570469   -4.1110562    1939.6339  0.052073505  0.052088076            6 
 3105000   0.74298928   -4.1080202    1948.1575  0.052285495  0.052076922            8 
 3106000   0.75472061   -4.1028096    1944.7192  0.052176411  0.052065775            8 
 3107000   0.75548976     -4.09879    1941.0226  0.052060471   0.05205469            5 
 3108000   0.74936126   -4.0965483    1947.2817  0.052211542  0.052043477            6 
 3109000   0.73922317   -4.1022581    1949.5853  0.052256495  0.052032292            6 
 3110000   0.76158745   -4.1037198     1946.263  0.052150671  0.052021232            6 
 3111000   0.76242124   -4.1109131    1944.4138  0.052084372  0.052010177           10 
 3112000   0.74925203   -4.1099832    1950.2164   0.05222302  0.051999162            8 
 3113000   0.74900789   -4.1149764    1941.1385  0.051963232  0.051988103            8 
 3114000   0.75425055    -4.118071    1940.0445  0.051917269  0.051976951            4 
 3115000   0.75846954   -4.1170488    1945.6439  0.052050399  0.051965818            4 
 3116000   0.75631847   -4.1094564    1947.0531  0.052071383  0.051954685            7 
 3117000   0.75287108   -4.1098266    1942.2311  0.051925758   0.05194356            3 
 3118000    0.7532188   -4.0918497    1948.0279  0.052064034  0.051932436            8 
 3119000   0.75993653   -4.1109576    1945.4536  0.051978561  0.051921191            8 
 3120000   0.75374415   -4.1136243    1941.8909  0.051866743  0.051910045            7 
 3121000   0.76211549    -4.087193     1942.524  0.051867031  0.051898837            2 
 3122000   0.75932995   -4.0836317    1952.0224  0.052103951  0.051887643           13 
 3123000   0.74100849   -4.1203776    1947.7692  0.051973774  0.051876438            2 
 3124000   0.73907675   -4.0870115    1946.8853   0.05193356   0.05186529            3 
 3125000   0.75079836   -4.1170452    1947.0944  0.051922516  0.051854092            6 
 3126000   0.75813471   -4.1083241    1949.7211   0.05197593  0.051843022            4 
 3127000   0.74853353    -4.110884    1946.9969   0.05188671  0.051831975            4 
 3128000   0.74535781   -4.1117096    1949.0223  0.051924081  0.051820779            5 
 3129000   0.76051515   -4.0934786    1956.6114  0.052109603  0.051809671            7 
 3130000   0.74221338   -4.1168338    1952.7751  0.051990818  0.051798596            5 
 3131000   0.76340874   -4.1123837    1955.9816  0.052059554  0.051787475            7 
 3132000   0.76402536   -4.1045877    1952.2879  0.051944654  0.051776318            3 
 3133000   0.75483567    -4.119419    1949.4355  0.051852204  0.051765157            5 
 3134000   0.75971555   -4.0780686    1950.8966  0.051874511  0.051754082            3 
 3135000    0.7490165   -4.1174422    1950.7013  0.051852773   0.05174311            6 
 3136000   0.75811926   -4.1150339       1946.9  0.051735225  0.051731959            3 
 3137000   0.75195383   -4.1115572    1952.2359  0.051860479  0.051720895            6 
 3138000   0.75453912    -4.121736    1949.6616   0.05177559  0.051709842           10 
 3139000   0.75311451   -4.1136654    1951.9095  0.051818773   0.05169868            3 
 3140000   0.75162345   -4.0842037    1955.7548  0.051904321  0.051687543            3 
 3141000   0.74403621   -4.1051854    1952.9367  0.051813029  0.051676388            6 
 3142000   0.74819951   -4.1300694    1953.4035  0.051808919  0.051665336            7 
 3143000   0.73558252    -4.102184    1954.9576  0.051833641  0.051654288            4 
 3144000   0.74572253   -4.1249209    1954.6974  0.051810257  0.051643183           11 
 3145000   0.75505314    -4.107475    1959.7286  0.051927096  0.051632159            5 
 3146000   0.74761823   -4.1099992    1951.8285  0.051701326  0.051621112           10 
 3147000   0.75689805   -4.1262432    1947.8763  0.051580244  0.051609916            4 
 3148000   0.75131956   -4.1079172    1948.6214  0.051583583  0.051598763            5 
 3149000   0.75986987   -4.1239732    1951.6306  0.051646834  0.051587557            6 
 3150000   0.74648806   -4.1325201    1949.1815  0.051565648  0.051576303            6 
 3151000   0.74551087   -4.1358299    1950.7324  0.051590299  0.051565081            8 
 3152000   0.73649831   -4.1117548    1957.2584  0.051746469  0.051553919            6 
 3153000   0.74620183   -4.1321356    1959.4586  0.051788208  0.051542829            8 
 3154000   0.73435485   -4.1461587    1957.5759  0.051722043  0.051531704            4 
 3155000   0.74076005   -4.1045006    1959.6636  0.051760792  0.051520612            3 
 3156000   0.75540622   -4.1238181    1960.6762   0.05177113  0.051509656            4 
 3157000   0.73283069   -4.1284303    1960.9398  0.051761688  0.051498722            5 
 3158000   0.74755601     -4.12866    1958.4679  0.051680069  0.051487741            9 
 3159000   0.75975955    -4.124509    1958.7567  0.051671329  0.051476868            5 
 3160000   0.76374596   -4.1165051    1961.9075  0.051738067  0.051465847            3 
 3161000   0.75581501   -4.1203207    1957.5709  0.051607372  0.051454805           10 
 3162000   0.74927652    -4.118516    1961.0053  0.051681565  0.051443706            5 
 3163000   0.73469711   -4.1335277    1956.5603  0.051548116  0.051432611            6 
 3164000   0.74100339   -4.1329159    1958.3762  0.051579651  0.051421565            5 
 3165000   0.76128899   -4.1121912    1955.7259  0.051493573  0.051410473            5 
 3166000   0.74645481    -4.147762    1952.8552  0.051401747  0.051399397            6 
 3167000   0.74407248   -4.1036425    1958.0955  0.051523405  0.051388347            9 
 3168000   0.75594513   -4.1288194     1962.887  0.051633181  0.051377366            4 
 3169000   0.71809656   -4.1331679    1960.1037  0.051543696  0.051366209           18 
 3170000   0.75603448   -4.1451445    1959.4501  0.051510255  0.051355018            4 
 3171000    0.7509052   -4.1350809    1958.9335  0.051480434  0.051343866            5 
 3172000   0.72119802   -4.0889311    1963.9766  0.051596694  0.051332852            5 
 3173000   0.73506427   -4.1347555     1958.534  0.051437493  0.051321791            4 
 3174000   0.74632605   -4.1149656    1968.7389  0.051689216  0.051310767            8 
 3175000   0.73197944   -4.1319987    1962.6491    0.0515131  0.051299762           10 
 3176000    0.7391772   -4.1219557    1963.8985  0.051529664  0.051288588            3 
 3177000   0.73746892   -4.1274825    1961.4639  0.051449582  0.051277518            3 
 3178000   0.73544613    -4.144394    1959.3231  0.051377257  0.051266471            6 
 3179000   0.74640909   -4.1424173    1957.6183  0.051316406  0.051255493            9 
 3180000   0.74033879   -4.1324634     1958.108  0.051313103  0.051244424           17 
 3181000   0.74111204   -4.1273212    1959.1935  0.051325408   0.05123347            7 
 3182000   0.75433441   -4.1318514    1959.5338   0.05131819  0.051222468            5 
 3183000    0.7687676   -4.1212767    1961.2461  0.051346898  0.051211403            4 
 3184000   0.75420227   -4.1393899    1960.6409  0.051314932  0.051200403            6 
 3185000    0.7371232   -4.1332044    1966.3633  0.051448541  0.051189391            7 
 3186000   0.74336877   -4.1410756    1969.7983  0.051522241  0.051178404            5 
 3187000   0.73556241   -4.1497517    1964.7336  0.051373643  0.051167434            9 
 3188000   0.73745734   -4.1448054    1964.1967  0.051343493  0.051156459            7 
 3189000   0.74244343   -4.1151441    1966.7777  0.051394838  0.051145395            5 
 3190000   0.75319958   -4.1398222     1962.777  0.051274216  0.051134308            8 
 3191000   0.74617654   -4.1005362    1966.9144  0.051366197  0.051123257            3 
 3192000   0.74521618   -4.1396522    1962.1511  0.051225748  0.051112234            6 
 3193000   0.73953741   -4.1173212    1961.0086  0.051179889  0.051101134            7 
 3194000   0.72886451   -4.1438334    1964.7037  0.051260272  0.051090065            5 
 3195000   0.74569024   -4.1328496     1961.377   0.05115746  0.051078939            6 
 3196000   0.72823863   -4.1428545    1962.1775  0.051162325  0.051067886           13 
 3197000   0.71864079   -4.1114817    1962.2135  0.051147262  0.051056827            6 
 3198000   0.74661642   -4.1439859    1962.2662   0.05113264  0.051045834            8 
 3199000   0.74668656   -4.1287543    1964.0792  0.051163886   0.05103464            5 
 3200000   0.74344367   -4.1352964    1962.8983  0.051117142  0.051023559            4 
 3201000   0.73508857   -4.1060901    1969.6827  0.051277796  0.051012437            4 
 3202000    0.7389596   -4.1067627    1966.2898  0.051173481  0.051001489            5 
 3203000     0.728146   -4.1319524      1965.25  0.051130452  0.050990535            5 
 3204000   0.73617211   -4.1416845    1963.8472  0.051078007  0.050979517            3 
 3205000   0.72632477   -4.1235426    1967.2974  0.051151779  0.050968475            5 
 3206000   0.73662939   -4.1445968       1965.7  0.051094302  0.050957364           10 
 3207000   0.73070797   -4.1113743     1966.875  0.051108903  0.050946281            2 
 3208000   0.74698063   -4.0999288    1964.0069  0.051018468  0.050935167            4 
 3209000   0.74344628   -4.1440597    1962.4845  0.050963032  0.050924213            8 
 3210000   0.73740543   -4.1455075    1966.5941  0.051053844   0.05091312            2 
 3211000   0.73810128    -4.129751    1970.2396  0.051132555  0.050902068            4 
 3212000   0.75739352   -4.1584572    1962.5947  0.050918293  0.050891123            4 
 3213000   0.75226668   -4.1311264    1966.0633  0.050992408  0.050880075            5 
 3214000   0.71826502   -4.1422127    1969.6335  0.051069112  0.050869096            2 
 3215000   0.73664328   -4.1303773    1966.7619  0.050978795  0.050858151            6 
 3216000   0.74437488   -4.1206559    1970.3535   0.05105601  0.050847076            5 
 3217000   0.72896456   -4.1608607    1967.1368  0.050956814   0.05083604           12 
 3218000   0.75070634    -4.138494    1973.0473  0.051094036  0.050824999            5 
 3219000   0.73958739    -4.134565    1968.9427  0.050971904  0.050814109            4 
 3220000   0.74149455   -4.1578927    1964.0317  0.050828979  0.050803068            4 
 3221000   0.74939425   -4.1428631    1969.2754  0.050948861  0.050792018            4 
 3222000   0.74126928   -4.1519054    1968.9748  0.050925273  0.050781078            4 
 3223000   0.73198971   -4.1468685    1973.8648  0.051035907  0.050770072            3 
 3224000   0.75122622   -4.1198275    1973.9119  0.051021295  0.050759065            7 
 3225000   0.74662174   -4.1569967    1971.4887  0.050942861  0.050748002            3 
 3226000   0.74446739   -4.1373494    1972.0153  0.050940672  0.050736968            3 
 3227000   0.72512693   -4.1291525    1968.4166  0.050831953   0.05072589            6 
 3228000   0.74217093   -4.1201314    1978.6993  0.051081664  0.050714876            3 
 3229000   0.74277846   -4.1186882    1969.2457  0.050821867  0.050703936            4 
 3230000   0.73273794   -4.1558148    1968.9573  0.050798692  0.050692909            9 
 3231000   0.74323814   -4.1446673    1969.9559  0.050808726  0.050681952            8 
 3232000   0.75248826   -4.1467038    1971.3094  0.050827903  0.050670971            5 
 3233000    0.7344083   -4.1390707     1973.837  0.050877333  0.050659931            6 
 3234000   0.73100521   -4.1524463    1970.3793  0.050772503  0.050648924           12 
 3235000   0.72992186   -4.1346118    1973.0499  0.050825603  0.050637994           10 
 3236000    0.7402338   -4.1475881    1974.8369  0.050855916  0.050626971           13 
 3237000    0.7394291    -4.133964    1976.4647   0.05088211  0.050615989            4 
 3238000   0.72844648   -4.1472323    1982.8051  0.051029574  0.050605113            6 
 3239000   0.71518982    -4.146814    1979.0119  0.050916226  0.050594195           11 
 3240000   0.72844855   -4.1327998    1971.7993  0.050715003  0.050583331            4 
 3241000   0.74919711   -4.1341881    1976.3166  0.050815505  0.050572473            3 
 3242000   0.73719785   -4.1342541    1975.9455  0.050790291  0.050561495            6 
 3243000    0.7299334   -4.1616776     1976.511  0.050789161  0.050550579            7 
 3244000   0.72978438   -4.1525323    1979.2126  0.050842905  0.050539706            3 
 3245000   0.73753015   -4.1533109    1972.6063  0.050657583  0.050528715            8 
 3246000    0.7481148   -4.1426964    1976.0735  0.050730989  0.050517719           12 
 3247000   0.73568549   -4.1368261    1976.8696  0.050735798  0.050506933            6 
 3248000   0.74057584   -4.1662128    1979.0311  0.050775633  0.050495996            3 
 3249000    0.7286126   -4.1576999    1975.9184  0.050680168  0.050485005            4 
 3250000   0.73062725   -4.1775929    1972.2007   0.05056925  0.050474048            4 
 3251000   0.74148791   -4.1484425    1973.7665  0.050593829  0.050463088            5 
 3252000   0.71763103    -4.142246    1977.9288  0.050684934  0.050452137            4 
 3253000     0.739152   -4.1435708      1982.57  0.050788246  0.050441212            5 
 3254000   0.75114122   -4.1300976    1973.7429  0.050546582  0.050430189            4 
 3255000   0.74877272   -4.1402791    1974.3942  0.050547727  0.050419107           17 
 3256000   0.73225152   -4.1278573    1976.2376  0.050579383  0.050408135            5 
 3257000    0.7551458   -4.1474258    1972.7694  0.050475116  0.050397195            4 
 3258000   0.71760582   -4.1603391    1977.4929   0.05058044  0.050386191            5 
 3259000    0.7170899   -4.1476015    1983.9466  0.050729943  0.050375179            5 
 3260000   0.72916509    -4.144806    1982.8252  0.050685716  0.050364164            3 
 3261000   0.72931909   -4.1693797    1979.8023  0.050592924  0.050353309            5 
 3262000   0.72515443   -4.1442258    1980.5178  0.050595692   0.05034236           10 
 3263000   0.72304822   -4.1502408    1973.5591  0.050402469  0.050331365            5 
 3264000    0.7167668   -4.1680684    1977.6844  0.050492351  0.050320372            4 
 3265000   0.71003426   -4.1550052    1974.3833   0.05039263  0.050309392            6 
 3266000   0.73691841   -4.1572964    1976.8964  0.050441326  0.050298376           11 
 3267000   0.72022551   -4.1845595    1980.1185  0.050508074  0.050287465           16 
 3268000   0.73432786   -4.1624964    1984.4616  0.050603365  0.050276553            4 
 3269000   0.72309704   -4.1548707    1978.0115  0.050423459  0.050265619            7 
 3270000   0.71837846   -4.1526322    1979.8121  0.050453926  0.050254617            7 
 3271000    0.7296483    -4.184525    1976.5332  0.050354969  0.050243593            5 
 3272000   0.72525801   -4.1815264    1975.9731  0.050325314  0.050232505           14 
 3273000   0.73656886   -4.1407573    1980.3271  0.050420795  0.050221504            9 
 3274000   0.72339779   -4.1414392    1978.9518  0.050370388  0.050210506            7 
 3275000   0.73387543   -4.1460683    1984.6299  0.050499488  0.050199588            7 
 3276000    0.7216405   -4.1809654    1979.3315  0.050349295  0.050188669            7 
 3277000   0.72406768   -4.1621424    1975.2985  0.050231372  0.050177595            4 
 3278000   0.73225785   -4.1709876    1983.0191  0.050412322  0.050166532            3 
 3279000   0.71353413    -4.160175     1982.917  0.050394352  0.050155534            7 
 3280000   0.71780535   -4.1676275    1979.4968  0.050292093  0.050144585            6 
 3281000   0.71169482   -4.1512764    1977.4411  0.050224552  0.050133604            6 
 3282000   0.72397097   -4.1707874    1982.0978  0.050327488  0.050122722            4 
 3283000   0.73608819    -4.141495    1982.8538  0.050331347  0.050111862            2 
 3284000   0.73409047    -4.159934    1985.1624  0.050374604  0.050101023           10 
 3285000   0.73127971   -4.1870877    1983.9769  0.050329197  0.050090165            8 
 3286000   0.72443555    -4.151456    1982.2531  0.050270165  0.050079247            3 
 3287000   0.71516938   -4.1803774     1982.536  0.050262043  0.050068258            7 
 3288000   0.73157487   -4.1570284    1985.3364  0.050317731  0.050057231            3 
 3289000   0.72784375   -4.1794382    1989.8437  0.050416634  0.050046251           15 
 3290000   0.72869983   -4.1533406    1982.4344  0.050213636   0.05003525            5 
 3291000   0.72881526   -4.1643537    1983.0808  0.050214746  0.050024362            5 
 3292000   0.73151207   -4.1643444    1981.1935  0.050151719  0.050013397            4 
 3293000    0.7237667   -4.1642574      1981.37  0.050140955  0.050002454            7 
 3294000   0.71046375   -4.1491269    1986.0746  0.050244753  0.049991522            6 
 3295000   0.73642591    -4.151075    1988.1063  0.050280889  0.049980727           10 
 3296000   0.71821729   -4.1583811    1986.0535   0.05021373  0.049969824            3 
 3297000    0.7132009   -4.1602921    1990.0164  0.050298665  0.049958951            5 
 3298000   0.71504227   -4.1564819    1987.3876  0.050216991  0.049948033            5 
 3299000   0.74009034   -4.1737786     1982.803  0.050085961  0.049937072            5 
 3300000   0.73126954   -4.1698814    1982.7719  0.050069998  0.049926131            4 
 3301000   0.72043917   -4.1703846    1986.3441  0.050145009  0.049915123            4 
 3302000   0.71984106   -4.1670792      1983.91  0.050068394  0.049904198            6 
 3303000   0.71411238    -4.176396    1983.9864  0.050055163  0.049893342            7 
 3304000   0.71800361   -4.1776531    1982.7919  0.050009884  0.049882305            4 
 3305000   0.72668434   -4.1688528    1982.9107  0.049997749  0.049871339           10 
 3306000   0.72581172   -4.1328051    1994.2398  0.050268195   0.04986039            9 
 3307000    0.7244025   -4.1642173     1983.589  0.049984602  0.049849371            2 
 3308000    0.7069214   -4.1654289    1985.4354  0.050016007  0.049838504            4 
 3309000   0.70597726    -4.201653    1985.2031  0.049995042  0.049827444           11 
 3310000   0.72633245   -4.1885294    1992.9119  0.050174017  0.049816512            4 
 3311000   0.70651697   -4.1475554    1993.8637  0.050182816  0.049805564           12 
 3312000   0.72307159   -4.1822586    1991.6218  0.050111257  0.049794657            9 
 3313000    0.7202906   -4.1800243    1991.4692  0.050092294  0.049783713            5 
 3314000    0.7368976   -4.1650084    1990.9517  0.050064166  0.049772773           15 
 3315000   0.71653359   -4.1576496    1986.8022  0.049944751  0.049761825            8 
 3316000   0.70597502   -4.1956732    1991.7897   0.05005503  0.049750993            4 
 3317000   0.70212215   -4.1604876    1992.4706  0.050057044  0.049740078            5 
 3318000   0.71406593   -4.1663037    1987.4043  0.049914715  0.049729116            9 
 3319000   0.72796806   -4.1672698    1992.0034  0.050015151  0.049718214            7 
 3320000   0.71645209    -4.167335    1986.3131  0.049857258   0.04970736            6 
 3321000   0.70307625   -4.1707524    1993.6065  0.050025256  0.049696547            8 
 3322000   0.72588909   -4.1777461    1990.2092  0.049924974  0.049685727           12 
 3323000   0.71357054   -4.1608432    1991.1164    0.0499327  0.049674995            8 
 3324000   0.71624112   -4.1618002     1995.522  0.050028128  0.049664252            9 
 3325000   0.72604636   -4.1460862    1991.3163  0.049907677  0.049653352            8 
 3326000   0.72481582   -4.1707234    1993.4051  0.049945006  0.049642505            4 
 3327000   0.71727269   -4.1764225    1993.8676  0.049941579  0.049631686            4 
 3328000   0.71380128   -4.1586109    2002.5675  0.050144417  0.049620863            5 
 3329000   0.71457995   -4.1745346    1990.8329  0.049835608  0.049609969            9 
 3330000   0.70857409   -4.1539705    1993.2775  0.049881819  0.049598975            2 
 3331000   0.73119918   -4.1740695    1988.6047  0.049749942  0.049588078            7 
 3332000   0.71955819   -4.1787553    1990.2488  0.049776131  0.049577195            4 
 3333000    0.7248998   -4.1715772    1992.2277  0.049810675  0.049566277            8 
 3334000   0.72725424   -4.1790504    1993.1853  0.049819668  0.049555394           13 
 3335000   0.72131069   -4.2005123     1990.054  0.049726486  0.049544496           13 
 3336000   0.70583078   -4.1809421    1995.7547  0.049853983  0.049533612            4 
 3337000   0.71390947   -4.1701487    1993.6801  0.049787237  0.049522736            8 
 3338000   0.71638152   -4.1776952    1997.9161  0.049878073  0.049511886            4 
 3339000    0.7145764   -4.1696656    1995.7457  0.049808968  0.049501111            9 
 3340000   0.72007218   -4.1784918    1993.5448  0.049739143  0.049490307            6 
 3341000   0.70524013   -4.1784655     1992.842  0.049706724  0.049479459            6 
 3342000   0.71375403   -4.1540275    1999.9847  0.049869956  0.049468705            7 
 3343000   0.71348049   -4.1837969    1995.8405  0.049751733  0.049457937            5 
 3344000   0.71376949   -4.1766869    2004.2883  0.049947375  0.049447126            3 
 3345000   0.73117514   -4.1763039     1994.346  0.049684752  0.049436363           11 
 3346000   0.69621984   -4.1731236    1985.3252  0.049445238  0.049425594            5 
 3347000    0.7234105   -4.1508556     2005.456  0.049931681  0.049414843            4 
 3348000   0.72747327   -4.1661021    1999.3467  0.049764703  0.049404258            8 
 3349000   0.69037215   -4.2035588    1996.5527  0.049680319  0.049393565            4 
 3350000   0.70324104   -4.2001378    1999.7099  0.049744026  0.049382791            4 
 3351000   0.70844779   -4.1846928    2004.9114  0.049858535  0.049372143            9 
 3352000   0.71796057   -4.1557372    2005.6249  0.049861399  0.049361415            6 
 3353000   0.71255129   -4.1743148    1998.7882  0.049676613  0.049350849            7 
 3354000   0.70766056   -4.1539329    2002.0679   0.04974329  0.049340297            7 
 3355000   0.71853873   -4.2036999    1999.0604   0.04965376   0.04932964            6 
 3356000   0.68607969   -4.2136012    1995.9553  0.049561863  0.049318923            8 
 3357000   0.73043039   -4.1865117    1999.1157  0.049625551  0.049308327            4 
 3358000   0.71694244    -4.190431    1997.3505  0.049566967  0.049297727            6 
 3359000   0.71005483   -4.1688041    2005.5861  0.049756527  0.049287065            8 
 3360000   0.71457415   -4.1849445    2003.9729   0.04970171  0.049276433           12 
 3361000   0.70369908   -4.1810727    2005.1362  0.049715763  0.049265821            6 
 3362000   0.70545572   -4.1596589    2010.5008  0.049833949  0.049255164           15 
 3363000   0.71101729   -4.1637668     2006.326  0.049715679  0.049244562            5 
 3364000   0.72436686   -4.1660789    2002.0444  0.049594838  0.049233899            3 
 3365000   0.71224343   -4.1623642    2006.5681  0.049692128  0.049223331            3 
 3366000   0.71810593   -4.1849405    2003.1886  0.049593698  0.049212742            4 
 3367000   0.71896446   -4.1704873    2002.7534  0.049568195   0.04920206            6 
 3368000   0.70689963   -4.1860988    2005.2519  0.049615298  0.049191474            7 
 3369000    0.7163589   -4.1595843    2007.7836  0.049663194  0.049180952           14 
 3370000   0.73065984   -4.1754062    2005.1548  0.049583452  0.049170397            8 
 3371000   0.71396737   -4.1889124     2006.442  0.049600564  0.049159802            8 
 3372000    0.7327025   -4.1770111    2000.0671  0.049428309  0.049149197            6 
 3373000   0.71093192   -4.2029372    2006.4121  0.049570415  0.049138607            5 
 3374000   0.70699075   -4.1887749    2008.2612  0.049601394  0.049128056            9 
 3375000    0.7021906   -4.1843204    2011.2024  0.049659319  0.049117597           10 
 3376000   0.72588505   -4.1925937    2005.5756  0.049505716   0.04910707           10 
 3377000   0.70217797   -4.1986695     2007.751  0.049544739  0.049096519            7 
 3378000   0.69927613   -4.1640273    2006.8147  0.049506974  0.049085916            5 
 3379000   0.70075776     -4.20429     2012.473  0.049631867  0.049075353            7 
 3380000    0.7215743   -4.2010612    2006.7848  0.049476942  0.049064771            4 
 3381000   0.70502739   -4.1892141    2007.1258  0.049470715  0.049054227            7 
 3382000   0.70033311    -4.177594    2010.7022  0.049544209  0.049043683            5 
 3383000   0.72128348   -4.1525412    2016.2282  0.049665687   0.04903316            5 
 3384000   0.71177883   -4.1765281    2008.0832  0.049450434  0.049022701           11 
 3385000   0.69954208   -4.1647784    2011.0642  0.049509211  0.049012139            6 
 3386000   0.70557128   -4.1763664    2009.0715  0.049445549  0.049001706           11 
 3387000   0.69445471   -4.1689704    2004.6752  0.049322783  0.048991165            7 
 3388000   0.71376144   -4.1694388    2017.7264   0.04962924    0.0489807            6 
 3389000   0.70063272   -4.1939445    2011.7383  0.049467352  0.048970256            8 
 3390000   0.71849669   -4.1904499    2010.0091  0.049410254  0.048959747            5 
 3391000   0.70462827   -4.1783904    2010.8261  0.049415761  0.048949284            4 
 3392000   0.70614332     -4.19597     2008.818  0.049351858  0.048938817            6 
 3393000   0.70249057   -4.1729329    2006.5575  0.049281793  0.048928305            4 
 3394000   0.70843985   -4.1903286    2008.9091  0.049325012  0.048917842            2 
 3395000   0.70779484   -4.1800714    2014.3198  0.049443295  0.048907374            7 
 3396000   0.71911473   -4.2029034    2008.9218  0.049296274  0.048896787            8 
 3397000   0.71088389   -4.2018873    2005.8648  0.049206772  0.048886241            4 
 3398000   0.70061812   -4.2141647    2004.2308  0.049152217  0.048875733           13 
 3399000   0.70017661   -4.1919856    2016.6246  0.049441616  0.048865241           11 
 3400000   0.71606253   -4.1581356    2015.2499   0.04939338  0.048854843            3 
 3401000   0.70748775   -4.2087867    2009.6742  0.049242237  0.048844375           10 
 3402000   0.71050289   -4.1874211    2018.2253  0.049437226  0.048833888            3 
 3403000   0.71409802   -4.2021819    2012.3509  0.049278845  0.048823487            5 
 3404000   0.70690932    -4.220944    2013.4826  0.049292073  0.048813055            5 
 3405000    0.6947665   -4.1759488    2018.8205  0.049408236  0.048802608            3 
 3406000   0.70964182   -4.1901187     2016.201  0.049329638  0.048792288            7 
 3407000   0.71382061   -4.1932645    2014.2131  0.049266537  0.048781842            8 
 3408000   0.71184813   -4.1843896    2021.6094  0.049432936  0.048771555            5 
 3409000    0.7122815   -4.1759616    2010.5603  0.049148341  0.048761241            6 
 3410000   0.70288389   -4.1762909    2019.7311  0.049358042  0.048750857            5 
 3411000   0.71920056   -4.1789037    2022.1858  0.049403544  0.048740532            7 
 3412000   0.71450419   -4.1930349    2016.2857  0.049244961  0.048730236            7 
 3413000    0.7121173   -4.2007306    2012.5152  0.049138471  0.048719836            5 
 3414000    0.6912285   -4.2137867     2012.508  0.049123902  0.048709442            8 
 3415000   0.69901164   -4.1780126    2014.9162  0.049168281  0.048699052            7 
 3416000   0.70391391   -4.1965034    2016.8984  0.049202245  0.048688573           11 
 3417000   0.70604882   -4.1896009    2020.3953  0.049273128  0.048678168            4 
 3418000   0.70436738   -4.1974775    2013.5886  0.049092759  0.048667726            3 
 3419000   0.69830337   -4.1867627    2014.9188  0.049110822  0.048657247            5 
 3420000   0.70440374   -4.2077207    2017.8832  0.049168693  0.048646801           14 
 3421000   0.69248614   -4.1939211    2011.9145  0.049008929  0.048636373            6 
 3422000   0.68818402   -4.1930788    2019.2871  0.049174145  0.048625924           12 
 3423000   0.71353347   -4.1831849     2016.959  0.049103101  0.048615502            5 
 3424000   0.70814283   -4.1632932    2014.0702  0.049018454  0.048605107            4 
 3425000   0.70936857   -4.1991248    2016.6563  0.049067063  0.048594746            9 
 3426000   0.70336637   -4.1965857    2023.4116  0.049217057  0.048584281           10 
 3427000    0.7011737   -4.1937965    2021.2294  0.049149632  0.048573882            3 
 3428000   0.71726472   -4.1853492    2023.1907  0.049182972  0.048563451            5 
 3429000   0.70881633   -4.1830193    2021.6363  0.049130853   0.04855303            9 
 3430000   0.70486016   -4.2048161     2019.096   0.04905481  0.048542496            8 
 3431000    0.7143343   -4.2095049    2022.0004  0.049111057  0.048532029            5 
 3432000   0.70303421   -4.1968467      2017.38  0.048984556  0.048521526            6 
 3433000   0.69074598   -4.2079648    2014.9373  0.048910995  0.048511162           17 
 3434000   0.70584208   -4.2095165    2017.8873   0.04896834  0.048500702            7 
 3435000   0.69710649   -4.1983078    2016.6542  0.048924167  0.048490333            5 
 3436000   0.70297874    -4.206463    2015.6176  0.048884789  0.048479995            9 
 3437000   0.69972597   -4.2042211    2018.7174  0.048945723  0.048469633            7 
 3438000   0.70573325   -4.2083923    2019.9791  0.048962068   0.04845918            7 
 3439000   0.68507698   -4.2019326    2027.1468  0.049121518  0.048448809           12 
 3440000   0.70099648   -4.2002549    2022.8515  0.049003185  0.048438503           11 
 3441000   0.69272396   -4.2202184    2022.3529   0.04897687   0.04842806           13 
 3442000   0.70435144   -4.2123928    2018.2015  0.048862133   0.04841766            5 
 3443000   0.69175242   -4.2037126    2021.3205   0.04892343  0.048407151            7 
 3444000   0.69421332   -4.2155787    2019.4025  0.048862817  0.048396732            8 
 3445000     0.692124    -4.176812    2023.8062  0.048955158  0.048386324            4 
 3446000   0.69061442   -4.1943834    2018.4522  0.048811478  0.048375871            8 
 3447000   0.70028576   -4.1945533    2021.3609  0.048867636  0.048365311           13 
 3448000   0.69550996   -4.2030873    2021.0272  0.048845398  0.048354845            7 
 3449000   0.70972479   -4.2137442    2018.5315  0.048770935  0.048344385            4 
 3450000   0.70428344   -4.2168447    2023.5995  0.048879214  0.048333938           12 
 3451000   0.69433874    -4.206314     2022.796  0.048845648  0.048323428            4 
 3452000    0.7046062   -4.1978268    2019.1232  0.048742836  0.048313056            4 
 3453000   0.69605495   -4.2194151    2018.6996  0.048718495  0.048302582            6 
 3454000   0.68983296   -4.2290812    2021.4653  0.048771117  0.048292118            5 
 3455000   0.70186833   -4.2079127    2016.0044  0.048625287  0.048281595            5 
 3456000   0.70102085   -4.1816242    2023.0832  0.048781906  0.048271098            7 
 3457000   0.69290674   -4.1963981    2026.3203  0.048845827  0.048260681            8 
 3458000   0.69473973   -4.2385285    2016.2255   0.04858843  0.048250164            7 
 3459000   0.71102183    -4.217523    2023.7567  0.048755822  0.048239659            8 
 3460000   0.68618629   -4.2138714    2017.7469  0.048596987  0.048229179            9 
 3461000   0.69822207   -4.2067113    2021.7047  0.048678242  0.048218644            2 
 3462000   0.71241438   -4.2047215    2027.2116  0.048796736  0.048208139            9 
 3463000   0.70670937   -4.2267314    2019.8416  0.048605295  0.048197739            4 
 3464000   0.69832961   -4.2192459    2025.7695   0.04873387   0.04818732            9 
 3465000   0.69482975   -4.2136393    2023.6349  0.048668468   0.04817694            8 
 3466000   0.69997168   -4.2052819    2022.7139  0.048632282  0.048166499            4 
 3467000    0.6819458   -4.2340464    2024.3861   0.04865845  0.048156045            3 
 3468000   0.68615596   -4.2111023    2022.6663  0.048603091  0.048145579           11 
 3469000    0.7036614   -4.2031351    2028.5994  0.048731609  0.048135157            8 
 3470000   0.68675107   -4.2127295    2022.3666  0.048567882  0.048124762            4 
 3471000   0.69577457   -4.2068481    2023.3353  0.048577146  0.048114342            5 
 3472000   0.71687683   -4.2103606    2026.9309  0.048649455  0.048103948           11 
 3473000     0.707118   -4.2010491     2027.647  0.048652631  0.048093568            7 
 3474000   0.70177299   -4.2439181    2017.6942  0.048399879  0.048083108            4 
 3475000   0.69876194   -4.1979373    2022.1963  0.048493917  0.048072568           10 
 3476000   0.69277965    -4.217712    2023.1336  0.048502435   0.04806214            7 
 3477000   0.67624723   -4.2013791    2022.6572  0.048477067  0.048051649            6 
 3478000   0.69034749   -4.2035289    2022.9862  0.048471014  0.048041172           11 
 3479000   0.67329496   -4.2000546     2027.812  0.048572673  0.048030723            6 
 3480000   0.70082904   -4.2159393    2028.0948  0.048565489  0.048020251            6 
 3481000   0.69785191   -4.2141587     2029.295  0.048580269  0.048009815            9 
 3482000   0.70098527   -4.2182794      2024.22   0.04844486  0.047999327            4 
 3483000   0.68736639    -4.217202    2026.6134  0.048488213  0.047988797            4 
 3484000   0.68976077   -4.2142381    2029.2079  0.048536353  0.047978249            6 
 3485000   0.69471651   -4.2110647    2026.5017  0.048457717  0.047967746           13 
 3486000   0.69324563   -4.2268567    2028.7915  0.048498554   0.04795725            8 
 3487000   0.68504583   -4.2151375    2024.9223  0.048392179  0.047946783            5 
 3488000   0.68427918   -4.2043909    2029.7182  0.048492885  0.047936285            3 
 3489000   0.68162444   -4.2158963    2026.4865  0.048401797  0.047925757            6 
 3490000   0.69511715   -4.2455776    2023.0843  0.048306693  0.047915226            7 
 3491000   0.69439195   -4.2082479    2030.9869  0.048481498  0.047904764           27 
 3492000   0.69133681   -4.2187996    2027.7477  0.048390314  0.047894329           11 
 3493000   0.68357187   -4.2048011    2030.9546  0.048452967  0.047883843            9 
 3494000   0.68982429   -4.2184898    2026.9195  0.048342861  0.047873367            6 
 3495000   0.70301429   -4.1929679    2027.5568  0.048344225  0.047862933            7 
 3496000    0.7094387   -4.2177547    2026.3745  0.048302213  0.047852517            7 
 3497000    0.6921992   -4.2118112    2026.9911  0.048303096  0.047842055            6 
 3498000   0.70915341   -4.2028554    2029.8581  0.048357587  0.047831588           17 
 3499000   0.70265559   -4.2200923    2022.8229  0.048176215  0.047821079           12 
 3500000   0.70621663   -4.2473075    2028.1898  0.048290234  0.047810541            7 
 3501000   0.69811886    -4.211274    2027.7395  0.048265721  0.047799995            4 
 3502000   0.69905567   -4.2241933    2031.5856  0.048343461  0.047789482           10 
 3503000   0.68941854   -4.2517757    2018.1425   0.04800986   0.04777898            9 
 3504000   0.68657683   -4.2197694    2026.4484  0.048193692  0.047768377            6 
 3505000   0.69032088   -4.2344887    2030.4419  0.048274891  0.047757801            3 
 3506000   0.69668293   -4.2187306    2023.9793  0.048107513  0.047747288           13 
 3507000   0.69555768   -4.2380747    2030.3049  0.048244105  0.047736753            9 
 3508000   0.68807337   -4.2257853     2026.265  0.048134383  0.047726261            8 
 3509000   0.69136654   -4.2343316    2024.6833  0.048083102  0.047715754            7 
 3510000   0.68685251    -4.251982    2022.3891  0.048014935  0.047705153            4 
 3511000   0.70127916    -4.243211    2025.1513  0.048066822  0.047694524           12 
 3512000   0.69441493   -4.2008196    2025.8358  0.048069376  0.047683906           11 
 3513000   0.68968964   -4.2473437    2020.4742  0.047928508  0.047673325            4 
 3514000   0.68021939   -4.2357674     2026.142  0.048049279  0.047662804           13 
 3515000   0.68262846   -4.2027445    2034.5413  0.048234738   0.04765227            5 
 3516000   0.69541985   -4.2345949     2034.099  0.048210537  0.047641725            8 
 3517000   0.69028416   -4.2243689    2028.4981   0.04806412  0.047631166            7 
 3518000    0.6823275   -4.2282677    2030.3862  0.048095182  0.047620667            8 
 3519000   0.69182437   -4.2262803    2024.6783  0.047946347  0.047610168            5 
 3520000    0.6922904   -4.2326157    2025.2807  0.047946985  0.047599669            8 
 3521000   0.68504709   -4.2364688    2028.4245  0.048007774  0.047589124           16 
 3522000   0.70249198   -4.2238071    2029.4322  0.048017987  0.047578643            3 
 3523000   0.69235193   -4.2408034    2033.3376  0.048096736   0.04756825            8 
 3524000   0.68850398    -4.219072    2032.6459   0.04806673   0.04755779            6 
 3525000   0.67511167   -4.2463982    2030.1798  0.047994794  0.047547273            7 
 3526000   0.69246357   -4.2204199    2034.5879  0.048085363  0.047536825           12 
 3527000    0.6855464   -4.2228642    2040.3422  0.048207689   0.04752648            4 
 3528000   0.68845751   -4.2425157    2025.6754  0.047847587   0.04751598            5 
 3529000   0.68741653   -4.2347096    2037.1086   0.04810401  0.047505531            5 
 3530000     0.700858   -4.2261455      2038.52  0.048123702  0.047495106            8 
 3531000   0.68721041   -4.2305317    2029.5299  0.047897903  0.047484654            7 
 3532000   0.70466377   -4.2508459    2024.5699  0.047767315  0.047474133            4 
 3533000   0.69443841   -4.2268087    2036.4421  0.048033827  0.047463672            3 
 3534000   0.67879215   -4.2278976    2030.5487  0.047881266  0.047453315            5 
 3535000   0.67414204   -4.2403521    2031.1103  0.047880959  0.047442834            5 
 3536000   0.69735025   -4.2514688    2028.3988  0.047803515  0.047432354           10 
 3537000   0.68371948   -4.2259856    2040.7568  0.048081161  0.047421901           12 
 3538000   0.68835692   -4.2340716    2038.7561  0.048020446  0.047411465           13 
 3539000   0.68869137   -4.2338004     2031.687  0.047840422  0.047401077           11 
 3540000   0.67523384   -4.2367719    2035.9387  0.047926994  0.047390603            2 
 3541000   0.68553463   -4.2089772    2037.8508  0.047958457  0.047380167            9 
 3542000   0.68431824   -4.2276044     2031.649  0.047799008  0.047369744            6 
 3543000   0.68754209   -4.2632158    2029.4115   0.04773289  0.047359311            6 
 3544000   0.67036418   -4.2518522    2029.5604  0.047722922  0.047348854            8 
 3545000   0.68937321   -4.2632486    2031.3327  0.047751122  0.047338369            8 
 3546000   0.68867802   -4.2551673    2034.2084  0.047805236  0.047327813            4 
 3547000   0.66687053   -4.2272322    2030.2347  0.047698399  0.047317384           14 
 3548000   0.69335551   -4.2434735    2029.7003  0.047672406  0.047306862            8 
 3549000   0.68388494   -4.2358549    2033.3991  0.047745823  0.047296385           11 
 3550000   0.69017299   -4.2313916     2033.294  0.047729905  0.047285932            7 
 3551000   0.69360491   -4.2357933    2032.7637   0.04770402  0.047275481            5 
 3552000   0.67413853    -4.230817     2033.538  0.047708755  0.047265001            8 
 3553000   0.70022454   -4.2271029    2034.5253  0.047718484   0.04725456            7 
 3554000   0.68472601    -4.252521    2030.9088  0.047620259  0.047244045            5 
 3555000    0.6845273   -4.2475913    2034.3738  0.047688088  0.047233508           11 
 3556000   0.69085567   -4.2398998    2029.8622  0.047568949  0.047223068           12 
 3557000   0.68138381   -4.2481561    2029.7942  0.047553984  0.047212487           11 
 3558000   0.67270893   -4.2448498     2037.353  0.047717654  0.047201918            6 
 3559000   0.68266447   -4.2562173    2034.9809  0.047648706  0.047191386           12 
 3560000   0.68088008   -4.2533635    2035.7803  0.047654034  0.047180907            5 
 3561000   0.68417846   -4.2562482    2033.2705  0.047581918   0.04717037           12 
 3562000   0.68853732   -4.2280595    2036.9043  0.047653571  0.047159936            7 
 3563000   0.66645797   -4.2372371    2039.1858  0.047693558  0.047149559            8 
 3564000    0.6872031    -4.248653    2036.5661  0.047618922  0.047139083           13 
 3565000   0.67432737   -4.2655863     2034.062   0.04754703  0.047128603            4 
 3566000   0.67277315   -4.2278171    2036.9598  0.047601416  0.047118137            5 
 3567000   0.68871652   -4.2431765    2028.7216  0.047395608  0.047107719            3 
 3568000   0.68127188   -4.2347771    2034.2589  0.047511652  0.047097278            6 
 3569000   0.68133875   -4.2492079    2038.8358  0.047605207  0.047086847            7 
 3570000   0.67165925   -4.1983012    2033.6025  0.047469713  0.047076338            4 
 3571000   0.69043037   -4.2378285     2033.232  0.047447775  0.047065955            9 
 3572000   0.67850424   -4.2282534    2040.1448  0.047595764  0.047055581           11 
 3573000   0.68936612   -4.2091018    2033.8142  0.047434794  0.047045183            9 
 3574000    0.6794559   -4.2462229    2040.8018  0.047584448  0.047034751           13 
 3575000     0.688757    -4.254423    2035.0809  0.047437783  0.047024327            5 
 3576000   0.68285631   -4.2700448    2035.4569  0.047433279  0.047013911            6 
 3577000   0.68225387   -4.2388482    2036.7867  0.047450999  0.047003508            6 
 3578000   0.68421067    -4.235521    2034.0478  0.047373947  0.046993077            7 
 3579000   0.67373448   -4.2456899    2036.6927  0.047422295  0.046982616            4 
 3580000   0.69306536   -4.2364057    2039.0738  0.047464474  0.046972217           12 
 3581000   0.68731527   -4.2423431    2039.4443  0.047459842  0.046961779           10 
 3582000   0.67159466   -4.2522653    2040.9019  0.047480502  0.046951366            5 
 3583000   0.67636757   -4.2427131    2041.7575  0.047487151  0.046941001            7 
 3584000   0.68066208   -4.2389854    2040.9454  0.047455017   0.04693054            7 
 3585000   0.67101724   -4.2602546    2042.8107   0.04748514  0.046920121            9 
 3586000   0.67132758   -4.2427879     2044.009  0.047499744   0.04690972            4 
 3587000   0.66717447   -4.2718935    2041.8547  0.047436454  0.046899329            5 
 3588000   0.69333028   -4.2434956    2039.8751  0.047377256  0.046888916            4 
 3589000   0.67563087   -4.2486586    2044.7421  0.047477063  0.046878561            4 
 3590000   0.67851627   -4.2637129    2039.4444  0.047340864  0.046868204            6 
 3591000   0.67077027   -4.2441634    2036.4989  0.047259326  0.046857731            3 
 3592000   0.67128797   -4.2619911    2041.6421  0.047365491  0.046847369           12 
 3593000   0.67690879   -4.2380377    2044.0524   0.04740821  0.046836966            6 
 3594000   0.68028155   -4.2457103    2038.5477  0.047267383  0.046826557            2 
 3595000   0.68826738   -4.2397093     2045.201  0.047408461  0.046816211           11 
 3596000   0.68342568   -4.2476589    2034.5567  0.047148608  0.046805869            8 
 3597000    0.6751872   -4.2584983    2044.6883  0.047370224   0.04679547            7 
 3598000    0.6740176   -4.2683306    2036.7344  0.047172837   0.04678502            4 
 3599000    0.6865788   -4.2502446    2048.2885  0.047427261  0.046774517           11 
 3600000   0.68233056   -4.2522247    2042.0178  0.047268931  0.046764079            7 
 3601000   0.68562813   -4.2566467    2041.4232  0.047242043  0.046753624            6 
 3602000   0.66233211   -4.2531178    2039.4212  0.047182611  0.046743171           13 
 3603000   0.67246511   -4.2505294    2038.1727  0.047140639   0.04673272            9 
 3604000   0.67288188   -4.2699883    2034.9049     0.047052  0.046722234            8 
 3605000   0.67050344    -4.249664    2040.5321  0.047169027  0.046711645            4 
 3606000   0.68575756   -4.2602286    2040.7217  0.047160327  0.046701172            4 
 3607000   0.68182499     -4.24591    2034.6311  0.047006541  0.046690615            9 
 3608000   0.67830678   -4.2612843    2033.9164  0.046977006  0.046680056            4 
 3609000   0.67200439     -4.22518    2042.7945  0.047168987  0.046669578            4 
 3610000   0.67377181   -4.2773054    2038.6564  0.047060396  0.046659044            5 
 3611000   0.67766061   -4.2413879    2044.0329  0.047171442  0.046648494            7 
 3612000   0.66405617   -4.2702406    2037.8782  0.047016385  0.046637965            6 
 3613000   0.68416316   -4.2436109    2040.5233   0.04706438  0.046627421            7 
 3614000   0.65786233   -4.2524418    2042.9489  0.047107288  0.046616929            7 
 3615000    0.6591934   -4.2637948    2043.2222  0.047100558  0.046606441            7 
 3616000   0.66342949   -4.2476013    2041.8606  0.047056154  0.046596001            4 
 3617000    0.6702571   -4.2290983     2043.223  0.047074533   0.04658558            8 
 3618000   0.69272928   -4.2620273    2040.1611  0.046990996   0.04657517            6 
 3619000   0.68377884   -4.2563347    2040.7464  0.046991489  0.046564778           10 
 3620000    0.6698055   -4.2517093    2048.0573  0.047146808  0.046554269            9 
 3621000   0.66640587   -4.2563866     2040.388  0.046957286  0.046543756            6 
 3622000   0.66380233   -4.2852144    2040.8374   0.04695466  0.046533234            6 
 3623000   0.66408122   -4.2684471    2035.1476  0.046810828  0.046522708            7 
 3624000   0.68963216   -4.2576457    2043.8454  0.046997917  0.046512183            6 
 3625000   0.67052777   -4.2647094    2041.3457  0.046927487  0.046501651            6 
 3626000   0.66127751   -4.2671962    2041.4956   0.04691799  0.046491147            6 
 3627000   0.65637414   -4.2605204    2041.1531  0.046897185  0.046480644            5 
 3628000   0.65509392     -4.27319    2043.0475  0.046927772  0.046470094            4 
 3629000   0.68426121   -4.2683384    2046.7939  0.047000869  0.046459668            7 
 3630000   0.66854187   -4.2867895    2039.6275  0.046823405  0.046449169            6 
 3631000   0.67931791   -4.2920828    2036.2974  0.046734083  0.046438608           10 
 3632000   0.66355991   -4.2626062    2044.0613  0.046899352  0.046428127            7 
 3633000   0.67520765   -4.2689833    2040.3818  0.046802042  0.046417653           13 
 3634000   0.68211322   -4.2594907    2039.7435  0.046774526  0.046407138            5 
 3635000   0.67115373   -4.2937153    2037.3431  0.046706629  0.046396568            9 
 3636000   0.66712602   -4.2628445    2046.4856   0.04690332   0.04638599           10 
 3637000    0.6943541   -4.2888513    2045.2076   0.04686114  0.046375456            3 
 3638000   0.67332986   -4.2617831    2043.2041  0.046802366  0.046364981            7 
 3639000   0.65536696   -4.2733162    2048.2055  0.046904036  0.046354534           16 
 3640000   0.67464449    -4.269374    2047.9008  0.046884175  0.046343966            7 
 3641000   0.66311948   -4.2908721    2040.6498  0.046705343  0.046333482           11 
 3642000   0.66164735   -4.2591631    2045.4143  0.046801535  0.046322985            9 
 3643000   0.66203596   -4.2721853    2045.8131  0.046797811   0.04631255            6 
 3644000   0.67790442   -4.2655019    2044.7494  0.046760643  0.046302017            3 
 3645000   0.66695601   -4.2753086    2044.8183  0.046749389  0.046291549            5 
 3646000   0.66838774   -4.2531766    2048.9679   0.04683141  0.046281105            4 
 3647000   0.67129524   -4.2958713    2040.4352    0.0466236  0.046270606            7 
 3648000   0.66760515   -4.2736538    2039.4797  0.046588991  0.046260093            8 
 3649000   0.66159512   -4.2447675    2048.3844  0.046779584   0.04624966           13 
 3650000   0.68731585   -4.2793132    2039.9183  0.046573477   0.04623922           11 
 3651000   0.65334921   -4.2486747    2046.3449  0.046707406  0.046228682            6 
 3652000   0.67091898   -4.2642432    2046.6322  0.046701172  0.046218252            5 
 3653000   0.67583989   -4.2753457    2041.9101  0.046580666  0.046207771            6 
 3654000   0.66335882   -4.2593071    2046.7719  0.046678796  0.046197271            7 
 3655000    0.6795348   -4.2744855    2045.5878  0.046639028  0.046186808            5 
 3656000   0.67551949   -4.2926745    2049.3002   0.04671089  0.046176323            6 
 3657000   0.66527163   -4.2823018    2049.1175  0.046693954  0.046165872           11 
 3658000   0.65312525    -4.255288    2045.4647  0.046597975   0.04615546            9 
 3659000   0.66267479   -4.2711361    2049.6493  0.046680542  0.046145067            7 
 3660000   0.66022767   -4.2480221    2046.2449  0.046590275  0.046134674            8 
 3661000   0.66620109   -4.2840343    2045.9029  0.046569765  0.046124276            5 
 3662000   0.67553074   -4.2790798    2045.5418  0.046548831  0.046113817            9 
 3663000   0.66605468   -4.2756239    2044.6047  0.046514804  0.046103366            6 
 3664000   0.65725953   -4.2771422    2045.4116   0.04652046  0.046092909            8 
 3665000   0.68057813   -4.2646392    2048.4768  0.046577463  0.046082471            7 
 3666000   0.67394767   -4.2713894    2043.5781  0.046453404  0.046072042            4 
 3667000   0.66545535   -4.2833125    2047.1621  0.046522182  0.046061643            5 
 3668000   0.67184057   -4.2722213    2045.6908  0.046476073  0.046051246            5 
 3669000   0.67833209   -4.2864951    2045.2322  0.046452988  0.046040781            9 
 3670000   0.66711863   -4.2679891    2048.4152  0.046512606  0.046030303            5 
 3671000   0.67391364   -4.2824524    2047.8676  0.046487507  0.046019816            4 
 3672000   0.66466396   -4.2821343    2045.7425  0.046426618  0.046009344            5 
 3673000   0.67217933   -4.2924078    2048.3837  0.046473902  0.045998928            9 
 3674000   0.66847472   -4.2413831    2048.9968  0.046475159   0.04598855           10 
 3675000   0.66866432   -4.2603926    2056.4238  0.046630924  0.045978213            6 
 3676000   0.66466209   -4.2894376    2050.6206  0.046486683  0.045967866            5 
 3677000   0.64934307   -4.2788489     2050.554  0.046472533  0.045957486            6 
 3678000   0.67519508   -4.2771644     2047.985   0.04640169  0.045947062           12 
 3679000   0.67050107   -4.2869095    2056.4188  0.046580112  0.045936689           26 
 3680000   0.67997135   -4.2651627    2051.6523  0.046459518  0.045926291            4 
 3681000    0.6541288   -4.2637948    2052.2191  0.046459728  0.045915899           11 
 3682000   0.65642417   -4.2820518    2047.9443  0.046350359   0.04590548            5 
 3683000    0.6429241    -4.291886    2050.8331  0.046403139  0.045895059            7 
 3684000   0.66847896   -4.2991297    2045.6286  0.046272814  0.045884675            6 
 3685000   0.64713434   -4.2957357    2048.0671  0.046315403  0.045874165            5 
 3686000   0.65975228   -4.2879714    2049.6323  0.046338225  0.045863702            5 
 3687000   0.65853565   -4.2987037    2046.3618  0.046251735  0.045853257           10 
 3688000   0.66735635   -4.2708868    2052.6634  0.046381585  0.045842857           10 
 3689000   0.66877806   -4.2768167    2049.7905  0.046304115  0.045832471           18 
 3690000   0.65292957   -4.2930285    2052.8516  0.046360697  0.045822097           10 
 3691000   0.66991743   -4.2474581    2056.0558  0.046420478  0.045811754            9 
 3692000   0.67276983   -4.2785384    2053.2908  0.046345494  0.045801395            6 
 3693000   0.65775877   -4.2813743    2052.8681  0.046323408  0.045791027            4 
 3694000   0.64836215   -4.2819405    2054.6085  0.046350129  0.045780718            5 
 3695000   0.67012178   -4.2859091    2050.8846  0.046253599  0.045770382           14 
 3696000   0.66231997   -4.2583822     2055.174  0.046337798  0.045760028            7 
 3697000   0.65629852   -4.2817384    2050.7028  0.046224479  0.045749715           21 
 3698000   0.66237271   -4.2652322     2056.775  0.046348815  0.045739348            7 
 3699000   0.66126578   -4.3132563    2051.9553  0.046227703  0.045729064            6 
 3700000   0.67415256   -4.2980748     2051.207  0.046198355  0.045718766            4 
 3701000   0.66420281   -4.2779864    2054.9793  0.046270811  0.045708449           17 
 3702000   0.66230521   -4.2992935     2050.719  0.046162412  0.045698103           12 
 3703000   0.64349585   -4.2818615    2052.3466  0.046186575  0.045687752            7 
 3704000   0.65362209   -4.2992094    2047.1495  0.046057178   0.04567744           16 
 3705000   0.66226278     -4.29794    2060.4429  0.046343746  0.045667155           23 
 3706000   0.65443962   -4.2937241    2059.3768  0.046307266  0.045656924            5 
 3707000   0.66321201   -4.3044027     2055.944  0.046217606  0.045646595            7 
 3708000    0.6579356   -4.2967874    2056.2144   0.04621122  0.045636379            6 
 3709000   0.65432787   -4.2954539    2057.3655  0.046224623  0.045626147           16 
 3710000   0.64776427   -4.2895255    2056.6938  0.046197074  0.045615849            7 
 3711000   0.65463573   -4.3008321    2060.1379  0.046261967  0.045605589            3 
 3712000   0.66619058   -4.2826875    2057.4516  0.046189198  0.045595303           16 
 3713000   0.66886864   -4.2729094    2056.1326  0.046147154  0.045584958            5 
 3714000    0.6596343   -4.2843505    2060.5437  0.046233704  0.045574675            9 
 3715000   0.66283558   -4.2833024    2061.4354  0.046241262  0.045564388           22 
 3716000   0.66866063   -4.2853239     2051.991  0.046017022  0.045554102            7 
 3717000    0.6791049   -4.3076604    2057.1718  0.046120791  0.045543816           10 
 3718000   0.66060849   -4.2950197    2057.5841  0.046117629  0.045533537            7 
 3719000   0.64838226   -4.2928727    2056.6772  0.046084906  0.045523197           15 
 3720000   0.64507284   -4.2838747    2058.7324  0.046118557  0.045512884           14 
 3721000   0.66723011   -4.3069985    2055.8836  0.046042364   0.04550255            4 
 3722000   0.66236482   -4.2795612    2055.9433  0.046031329  0.045492249           11 
 3723000   0.65037095   -4.2909806    2056.5934  0.046033516  0.045481882           12 
 3724000   0.66284907   -4.3141043    2053.1791  0.045944752  0.045471493            9 
 3725000   0.66658471    -4.299512    2054.3098  0.045957713  0.045461109           11 
 3726000   0.67067732   -4.2846587    2059.5761  0.046063161  0.045450836            6 
 3727000   0.65293777   -4.3046006    2055.9922  0.045970669  0.045440498           11 
 3728000   0.65746364   -4.3051668    2053.8932  0.045911419  0.045430082           11 
 3729000   0.66261353   -4.3003088    2058.2326   0.04599608  0.045419753           14 
 3730000   0.66687188    -4.287872    2054.0773  0.045890914  0.045409452            8 
 3731000   0.64734324   -4.3146616    2058.2087  0.045970889  0.045399048           11 
 3732000   0.66298398   -4.2843491    2053.2296  0.045847391  0.045388606            6 
 3733000   0.65468017   -4.3043345    2054.4696  0.045862791  0.045378234           10 
 3734000   0.66435535   -4.2646336    2056.6081  0.045898235  0.045367923            9 
 3735000   0.66942236   -4.3032368    2048.1231  0.045696634  0.045357537            8 
 3736000   0.66193331   -4.2797297    2059.3132  0.045934003  0.045347168            5 
 3737000   0.62602657   -4.3015875    2055.9647   0.04584704   0.04533683           13 
 3738000   0.64809014   -4.2787809     2059.711  0.045918294  0.045326488           15 
 3739000   0.65852647    -4.284534    2054.1991  0.045783167  0.045316205           11 
 3740000   0.65200775   -4.2806749    2057.0682  0.045834852  0.045305903            4 
 3741000    0.6521942    -4.287503    2058.4181  0.045852671  0.045295596            3 
 3742000     0.660626   -4.2875104    2064.5942  0.045977957  0.045285217            4 
 3743000   0.63804519   -4.2945919    2057.8341  0.045815169  0.045274786            5 
 3744000   0.65763354   -4.3074374    2058.7743  0.045823858  0.045264446            7 
 3745000   0.64931432   -4.3126454    2055.4337  0.045737287   0.04525405            5 
 3746000   0.64600648   -4.2940026     2059.559  0.045816849  0.045243735            9 
 3747000   0.65698624   -4.2889079    2052.5921  0.045649678   0.04523338            6 
 3748000   0.64785294   -4.2899293     2054.979  0.045690568  0.045223098            9 
 3749000   0.65350152   -4.2981695     2058.915   0.04576587  0.045212815            7 
 3750000   0.65379546   -4.2962415    2058.6382  0.045747516  0.045202487            7 
 3751000   0.64242622   -4.2868782    2057.3641  0.045707014  0.045192118            9 
 3752000   0.65571184   -4.3216975    2052.7398  0.045592125  0.045181749            6 
 3753000    0.6470002    -4.309137    2054.8924  0.045627773  0.045171321            8 
 3754000   0.64758789   -4.3150196    2052.6016  0.045564767  0.045160914            7 
 3755000   0.66614868   -4.2962635    2064.7583   0.04582242  0.045150603            8 
 3756000   0.64912659   -4.2795158    2063.1552  0.045774653  0.045140278           15 
 3757000   0.63970051   -4.3097576    2056.8821  0.045623328  0.045129911           13 
 3758000   0.63100021   -4.3098799    2061.1473  0.045705768  0.045119538           11 
 3759000   0.64967453   -4.2827292    2057.1199  0.045604324  0.045109221            8 
 3760000   0.65630754   -4.2991581     2056.675  0.045582336  0.045098923            6 
 3761000   0.65525744   -4.2812097     2058.648  0.045613932  0.045088596            9 
 3762000   0.65269282   -4.3092388    2060.9908  0.045653703  0.045078231            6 
 3763000   0.65377924   -4.2892093    2055.8657  0.045528074  0.045067893            6 
 3764000   0.64826397   -4.3045985    2057.8403  0.045559696  0.045057558            8 
 3765000   0.64736891   -4.2935894    2060.1321   0.04559832  0.045047225            5 
 3766000   0.65305301   -4.3048912    2063.2346  0.045654864  0.045036901           22 
 3767000   0.64640744   -4.2858055    2062.6301  0.045629371  0.045026578           11 
 3768000   0.64955623   -4.3162742    2052.9176  0.045402459  0.045016234           11 
 3769000   0.65128105   -4.3011189    2060.3138  0.045553945  0.045005917            6 
 3770000   0.64302382   -4.3115471    2050.6914  0.045329164  0.044995577            4 
 3771000   0.64955051   -4.2787941    2057.8498  0.045475335  0.044985256            9 
 3772000   0.65240943   -4.3026616    2059.6797  0.045503705  0.044974982           17 
 3773000   0.63706313   -4.3039426    2054.9529  0.045387245  0.044964656            4 
 3774000   0.65048489     -4.30756    2062.9618  0.045552063    0.0449543            3 
 3775000   0.64636648    -4.289361    2060.1051  0.045476935  0.044943971            7 
 3776000   0.65945334   -4.2915623    2058.8385  0.045436936  0.044933569           14 
 3777000    0.6510503   -4.3036049    2061.3671  0.045480697  0.044923198           17 
 3778000   0.65735357   -4.2958865      2057.67  0.045387111  0.044912876            8 
 3779000   0.65423664   -4.3143418    2059.5709  0.045417017  0.044902591            5 
 3780000   0.64682911   -4.3175665    2058.0749  0.045372023  0.044892278           11 
 3781000   0.63503572   -4.3106723     2057.749  0.045352838  0.044881837            7 
 3782000   0.66367168   -4.3246109    2052.6163  0.045227752  0.044871445            9 
 3783000   0.64237523   -4.3212293    2064.4001  0.045475375    0.0448611            5 
 3784000   0.65266381   -4.3144979    2064.1237  0.045457271  0.044850724           15 
 3785000   0.64023039   -4.3019315    2057.0115  0.045288673   0.04484038            5 
 3786000   0.64859933   -4.3348881    2059.3184  0.045327488  0.044830017            6 
 3787000   0.65878308   -4.3041836    2061.9353  0.045373103  0.044819663            6 
 3788000   0.62467842   -4.3162316    2060.1019  0.045320791  0.044809313            9 
 3789000   0.65691895   -4.2790563    2062.8785  0.045369898  0.044798945            7 
 3790000   0.65500037   -4.3047931    2062.6894   0.04535377  0.044788629           17 
 3791000   0.64440608    -4.322283    2051.7426  0.045101174  0.044778251            8 
 3792000   0.66037206   -4.3001083    2064.7675  0.045375517  0.044767929           10 
 3793000   0.64935099   -4.2970522    2062.0279  0.045303363  0.044757597            6 
 3794000   0.64367608   -4.2792364    2063.9939  0.045334605  0.044747232            7 
 3795000   0.66052045   -4.3307518    2058.6873  0.045206133  0.044736974           24 
 3796000   0.63154746   -4.3197792    2059.4845  0.045211724  0.044726647            8 
 3797000   0.63734603   -4.3116254    2056.4051  0.045132233  0.044716309            6 
 3798000   0.64321439   -4.3239069    2060.2395  0.045204482  0.044705936           11 
 3799000   0.63375062   -4.3123777    2063.1877  0.045257255  0.044695612           26 
 3800000   0.64609427   -4.3186142    2060.9146  0.045195496  0.044685331           10 
 3801000   0.63417007   -4.3195396     2063.873  0.045248465  0.044674983           10 
 3802000   0.64128799   -4.3111334    2057.5488  0.045097949  0.044664642            7 
 3803000   0.64773756   -4.3157555    2066.8963  0.045290918  0.044654285           12 
 3804000   0.64557813   -4.3079235    2066.6282  0.045273139  0.044644051           10 
 3805000   0.65407904   -4.3090275    2068.7384  0.045307455  0.044633791            6 
 3806000   0.64715333   -4.3182565    2070.6197  0.045336742  0.044623512            5 
 3807000   0.65052297   -4.3096452    2063.0836  0.045159871  0.044613243            7 
 3808000   0.65693056   -4.3214202    2063.0665  0.045147639  0.044602898            5 
 3809000   0.63608358   -4.3170386     2060.555  0.045080839  0.044592558           12 
 3810000   0.64873295   -4.3071255     2062.174  0.045104418   0.04458224            7 
 3811000   0.64296558   -4.3292518    2056.7503  0.044973985  0.044571952            5 
 3812000   0.64510311   -4.3245574    2064.3583  0.045128505  0.044561616           15 
 3813000   0.64404848   -4.3166468    2065.2922   0.04513708  0.044551354            6 
 3814000   0.64364257   -4.3350275    2066.4733   0.04515105  0.044541074           10 
 3815000   0.63602748   -4.3221079    2056.9804  0.044931857   0.04453077            9 
 3816000   0.64972952   -4.3408567     2062.023  0.045030202  0.044520461           21 
 3817000   0.65391737    -4.325341    2057.8517  0.044927337  0.044510114            4 
 3818000    0.6409563   -4.3363216    2067.1821  0.045119218  0.044499862            8 
 3819000   0.64122407   -4.3249396    2061.6925  0.044987616  0.044489637            7 
 3820000   0.63959403   -4.3177038    2066.1295  0.045072633  0.044479386           11 
 3821000   0.63971434   -4.3220445    2068.8939  0.045121127  0.044469169            3 
 3822000   0.63951285   -4.3098669     2063.448  0.044990581  0.044458981           10 
 3823000   0.65342021   -4.3184833    2065.9753  0.045033902  0.044448725            9 
 3824000   0.64571565   -4.3118953    2066.5369  0.045034365  0.044438572            7 
 3825000   0.62967812   -4.3349211    2065.5494  0.045001077  0.044428369           15 
 3826000   0.63223135   -4.3254739    2059.9156  0.044866605  0.044418139           13 
 3827000   0.65703117   -4.3103769    2065.4875  0.044976211  0.044407945           10 
 3828000   0.64406799   -4.3228924    2066.3499  0.044983236  0.044397714            8 
 3829000   0.63173645   -4.3352095    2063.0119   0.04489884  0.044387438            7 
 3830000   0.65410982    -4.326819    2067.4132  0.044982881  0.044377194            8 
 3831000   0.64504096   -4.3427593    2068.4616  0.044993945  0.044366934            4 
 3832000   0.64576052   -4.3248736    2067.6703  0.044964994  0.044356654           17 
 3833000   0.63854705   -4.3088248    2071.0003  0.045025661  0.044346393            7 
 3834000    0.6356016   -4.3238445    2063.1114  0.044842448  0.044336122           18 
 3835000   0.64741215   -4.3244066    2061.4265  0.044794143  0.044325904           12 
 3836000   0.63061116   -4.3304542    2060.9889   0.04477296  0.044315581           10 
 3837000   0.63392789   -4.3417978    2064.5845  0.044839381  0.044305291            6 
 3838000   0.63278973   -4.3320901    2064.0131  0.044815291  0.044295031           10 
 3839000   0.62659301   -4.3119518    2065.5851  0.044837742  0.044284781           10 
 3840000   0.65269013   -4.3279197    2071.4066  0.044952399  0.044274534            9 
 3841000   0.63257963   -4.3210867    2063.3045  0.044764915  0.044264298            8 
 3842000   0.64831928   -4.3326914    2063.0053  0.044746775  0.044254012            6 
 3843000    0.6309296   -4.3313984    2068.6271  0.044857037    0.0442438           11 
 3844000   0.65283998   -4.3270189    2062.3163  0.044708556  0.044233616           10 
 3845000    0.6453005   -4.3088118    2064.4829  0.044743886  0.044223404            8 
 3846000   0.63203849   -4.3330488    2068.4168  0.044817491    0.0442132            4 
 3847000   0.64392565    -4.349046    2065.4541  0.044741663  0.044203009            7 
 3848000   0.63995479   -4.3352197    2064.0295  0.044699184  0.044192748            7 
 3849000   0.62130213   -4.3318767    2065.8829  0.044727697  0.044182507           13 
 3850000   0.64998419   -4.3148204    2068.2374  0.044767042  0.044172292            7 
 3851000   0.64278251   -4.3247245    2070.9632  0.044814403  0.044162129           13 
 3852000   0.63481698   -4.3171758    2061.9025  0.044606751   0.04415199           11 
 3853000   0.64575228   -4.3471982    2061.5985  0.044588599  0.044141818            5 
 3854000   0.62200072   -4.3235695    2068.1132  0.044717895  0.044131577           13 
 3855000    0.6530563   -4.3487893    2069.0521  0.044726591  0.044121347            9 
 3856000   0.63102754   -4.3393778    2069.0959  0.044715937   0.04411109            6 
 3857000   0.63301937   -4.3684488    2061.4149   0.04453839  0.044100818            5 
 3858000   0.64091276   -4.3395739    2064.6593  0.044596926  0.044090497            9 
 3859000   0.64524283   -4.3118049     2066.553  0.044626264  0.044080245           10 
 3860000   0.64636163     -4.32053    2073.1672  0.044757496  0.044070094            4 
 3861000   0.64492014   -4.3417537    2062.0846  0.044506704  0.044059854            8 
 3862000   0.64861111   -4.3226899    2066.5698  0.044591959  0.044049584            9 
 3863000   0.63222279   -4.3169987    2066.2287  0.044573058  0.044039346           11 
 3864000   0.62606403   -4.3084214    2075.3649   0.04475856  0.044029074            9 
 3865000   0.63985367   -4.3413033    2069.0329  0.044610454  0.044018803            4 
 3866000   0.62730013   -4.3407642    2068.8939   0.04459592  0.044008587            6 
 3867000   0.62801434   -4.3296006    2065.6086   0.04451359  0.043998358            6 
 3868000   0.62876089   -4.3488595    2068.7927  0.044570681   0.04398808            6 
 3869000   0.62322336   -4.2933432    2068.6548  0.044556191   0.04397784            6 
 3870000    0.6303834   -4.3330397    2067.0599  0.044510334  0.043967617           10 
 3871000   0.63709406   -4.3291496     2068.333  0.044526242  0.043957392            7 
 3872000   0.63266254   -4.3375678    2069.5779  0.044541536  0.043947196            8 
 3873000   0.62532494   -4.3505858    2070.0263  0.044539683  0.043936934            9 
 3874000   0.62550527   -4.3482972    2062.5393  0.044367132  0.043926642            7 
 3875000   0.62966221   -4.3187812    2068.4346  0.044482465  0.043916383           20 
 3876000   0.64340053   -4.3436059    2072.7162  0.044563042   0.04390612            9 
 3877000   0.62610136   -4.3441442    2065.0486  0.044386738  0.043895924            7 
 3878000   0.61834359   -4.3224915     2073.948  0.044566529  0.043885801            6 
 3879000   0.63398993   -4.3249932    2069.9409  0.044468955   0.04387564            9 
 3880000   0.62620236   -4.3293166    2075.7388  0.044582018  0.043865509           12 
 3881000    0.6255877   -4.3341441    2072.2207   0.04449499  0.043855314           11 
 3882000   0.61784037   -4.3346478    2073.8022  0.044517479  0.043845147           15 
 3883000   0.61995838   -4.3337728    2072.9987  0.044488769  0.043835011           10 
 3884000   0.63175508   -4.3365935    2072.6825  0.044470531   0.04382477            6 
 3885000    0.6407784   -4.3352571    2073.1326  0.044468738  0.043814587           11 
 3886000   0.61607618   -4.3446102    2078.2669  0.044567398  0.043804459           11 
 3887000   0.63752903   -4.3431303    2068.1301   0.04433861  0.043794254            8 
 3888000   0.63863245   -4.3385021    2072.4611  0.044420035  0.043784027           15 
 3889000   0.62586197   -4.3244982    2075.6118  0.044476126  0.043773851           10 
 3890000   0.63484284   -4.3357862    2069.0566  0.044324263  0.043763671            6 
 3891000   0.63191779   -4.3206617    2066.6801  0.044261973  0.043753505            9 
 3892000   0.63135606   -4.3397239    2075.4449  0.044438269  0.043743338            4 
 3893000   0.62149054   -4.3279569    2070.7711  0.044326807  0.043733234            5 
 3894000   0.64748465   -4.3169836    2079.2991  0.044497926  0.043723169            9 
 3895000   0.62508899   -4.3433164    2069.3305  0.044273225  0.043712994            8 
 3896000   0.63014703   -4.3440357    2071.2103  0.044302069  0.043702786            7 
 3897000   0.63887605   -4.3468925    2070.2536  0.044270243  0.043692618           11 
 3898000   0.63049228   -4.3308688    2069.3604  0.044239789  0.043682486            8 
 3899000   0.64378248   -4.3452953    2071.8866  0.044282436  0.043672334           11 
 3900000   0.62681564   -4.3405763    2071.2712  0.044257931  0.043662105            7 
 3901000   0.62006342   -4.3341545    2074.8723  0.044323514  0.043651993            6 
 3902000    0.6317743   -4.3358122    2069.2379  0.044191822  0.043641867           19 
 3903000   0.62221713   -4.3423136    2072.6557  0.044253474  0.043631682           25 
 3904000   0.62029876   -4.3552199    2070.8877  0.044204399  0.043621491            9 
 3905000   0.62048038   -4.3268995    2068.8028  0.044148587  0.043611347           19 
 3906000   0.62849809   -4.3719721    2069.2773  0.044147408  0.043601098            7 
 3907000   0.63121087   -4.3377141    2075.6514  0.044272063  0.043590925            9 
 3908000   0.62979586   -4.3190186    2070.1107  0.044142586  0.043580749            4 
 3909000   0.63585766   -4.3669587    2070.7969  0.044145923  0.043570544           11 
 3910000   0.62885083   -4.3612478    2067.4547  0.044063399  0.043560306           10 
 3911000   0.63113231   -4.3386297     2073.334  0.044177405  0.043550061            5 
 3912000   0.63055838    -4.341578    2072.5118  0.044148598  0.043539829           13 
 3913000   0.63451046   -4.3593789    2068.6508   0.04405509  0.043529656            6 
 3914000   0.62022011   -4.3582375    2070.4787  0.044082753  0.043519477            6 
 3915000   0.63269054   -4.3686816    2070.6821  0.044075822  0.043509278            8 
 3916000   0.62686804   -4.3365029    2069.3285  0.044035762  0.043499066            8 
 3917000   0.62250018    -4.354376    2068.9778  0.044017058   0.04348885            5 
 3918000     0.629643   -4.3535005    2065.9482  0.043941387    0.0434786           15 
 3919000   0.63698688   -4.3485096    2071.6576  0.044051578    0.0434684           20 
 3920000    0.6237188   -4.3418038    2076.3502  0.044140098  0.043458188            5 
 3921000   0.63422933   -4.3530078    2072.7434  0.044052184  0.043447943            7 
 3922000   0.61093755   -4.3304555    2077.8008   0.04414841  0.043437726            4 
 3923000   0.63406956   -4.3705465     2070.103  0.043973639    0.0434275           11 
 3924000   0.63445192   -4.3566342    2067.5774  0.043908796  0.043417226            7 
 3925000   0.61784672   -4.3508657    2070.3197  0.043955832  0.043407006           11 
 3926000   0.62976144   -4.3330898    2075.0533  0.044045112  0.043396812            7 
 3927000   0.62258953   -4.3516308    2070.1571  0.043929995  0.043386602            9 
 3928000   0.62181681   -4.3542995    2072.2935  0.043964136  0.043376446            9 
 3929000   0.62308579   -4.3613472    2071.2819  0.043931491  0.043366204            5 
 3930000   0.62224239   -4.3307755    2073.2151  0.043961304  0.043355975            7 
 3931000   0.62341637   -4.3512718    2070.5509  0.043893643  0.043345799            5 
 3932000   0.62878174   -4.3671384    2075.0691  0.043978236  0.043335603            9 
 3933000   0.62842567   -4.3493114      2072.32  0.043908805  0.043325349           13 
 3934000   0.62191558   -4.3426783    2074.3947  0.043941592  0.043315214           13 
 3935000   0.62429625   -4.3594198    2076.5685  0.043976461  0.043305041            4 
 3936000   0.62362763   -4.3644136    2070.8793  0.043844836  0.043294831           14 
 3937000   0.60643359   -4.3354576    2068.1705  0.043776363  0.043284642           18 
 3938000   0.62988279   -4.3345148    2074.2463  0.043893818  0.043274485            5 
 3939000   0.61534468   -4.3585777    2070.1019  0.043794996  0.043264322           13 
 3940000   0.61076109   -4.3669155     2078.342  0.043958164  0.043254124           10 
 3941000   0.61629526   -4.3354573    2078.8716   0.04395821   0.04324395           11 
 3942000   0.62403776   -4.3629976     2074.256  0.043849485  0.043233779           13 
 3943000   0.61780901   -4.3605783    2076.6517  0.043888995  0.043223579            5 
 3944000   0.61606193   -4.3262857     2077.614    0.0438982  0.043213442           12 
 3945000   0.61652096   -4.3600719    2073.6992  0.043804377  0.043203306           15 
 3946000   0.62384776   -4.3380313    2077.5979  0.043875611   0.04319318            7 
 3947000   0.61159464   -4.3694612    2078.0547  0.043874139  0.043183078            6 
 3948000   0.61931068   -4.3479584     2078.691  0.043876457  0.043172986           10 
 3949000   0.61156344   -4.3477233    2078.6682  0.043864864  0.043162871            6 
 3950000   0.62428178   -4.3498562    2078.4522  0.043849203  0.043152762            6 
 3951000   0.62175644   -4.3402118    2071.8576  0.043699013  0.043142637            7 
 3952000   0.61371377   -4.3623446    2079.2613  0.043844073  0.043132503            8 
 3953000   0.61836478   -4.3666558    2075.3095  0.043749672  0.043122386            5 
 3954000   0.61936698   -4.3691128    2078.4565  0.043804934  0.043112283           11 
 3955000   0.61842141   -4.3392826     2080.056   0.04382756   0.04310214            8 
 3956000   0.62484046   -4.3696768     2069.346  0.043590874  0.043091972            8 
 3957000   0.62210716   -4.3582714    2079.7114  0.043798151  0.043081799            7 
 3958000   0.62863773   -4.3579234    2076.8019  0.043725827  0.043071666           16 
 3959000   0.62840498   -4.3525005    2081.1011  0.043805277  0.043061473           21 
 3960000   0.61911594   -4.3776583    2075.7988  0.043682634  0.043051277            8 
 3961000   0.61655516   -4.3696914    2076.2641  0.043681397  0.043041008           12 
 3962000   0.61072176   -4.3637879    2074.5347  0.043633996  0.043030816            8 
 3963000   0.60966847    -4.360421    2075.7696  0.043648954   0.04302061            7 
 3964000    0.6267452   -4.3528994    2073.9437  0.043599557  0.043010425           13 
 3965000   0.61396821   -4.3543857    2071.4344  0.043535823  0.043000225            4 
 3966000   0.62396523   -4.3721887    2074.9486  0.043598684  0.042990005           13 
 3967000    0.6264482   -4.3699531    2069.0493  0.043463769  0.042979774           14 
 3968000      0.61024   -4.3592006    2075.9238  0.043597191  0.042969556           10 
 3969000   0.61795018   -4.3709122    2072.5057  0.043514439  0.042959314           13 
 3970000   0.61382388   -4.3670298     2072.706  0.043507683  0.042949106            7 
 3971000   0.61238323   -4.3809093    2074.9942  0.043544746  0.042938931            4 
 3972000   0.62789284   -4.3531341    2077.4225  0.043584729  0.042928731            9 
 3973000   0.61964851    -4.359008    2071.3154  0.043445661  0.042918514           13 
 3974000   0.61541413   -4.3754904    2071.7476  0.043443794  0.042908296           16 
 3975000   0.62549012   -4.3694852    2072.1832  0.043441995  0.042898094           13 
 3976000   0.61738725   -4.3729082    2074.2611  0.043474621  0.042887887            7 
 3977000   0.61298189   -4.3510776    2078.8096  0.043558998  0.042877751            9 
 3978000    0.6124635   -4.3767957    2072.3106  0.043411903  0.042867516           14 
 3979000   0.61609319   -4.3540968    2070.0127  0.043352867  0.042857236            6 
 3980000   0.62349481   -4.3768427     2070.768  0.043357788  0.042846985            9 
 3981000   0.63605225   -4.3852355    2070.4957  0.043341197  0.042836729           13 
 3982000   0.61957872   -4.3487865    2070.0674  0.043321351  0.042826469           12 
 3983000   0.62207019   -4.3617534    2065.8375  0.043221975   0.04281626           17 
 3984000   0.61702192   -4.3522038    2072.3305  0.043346939  0.042806023            4 
 3985000   0.60586764   -4.3786406    2069.8063  0.043283277  0.042795753            9 
 3986000   0.61759155   -4.3578901    2073.2901  0.043345252  0.042785519           11 
 3987000   0.61709329    -4.356884     2075.578    0.0433822  0.042775305            9 
 3988000   0.61687826   -4.3905315    2073.7491  0.043333105  0.042765094            6 
 3989000   0.61265228   -4.3637748    2071.2007  0.043269004  0.042754854            9 
 3990000   0.62990068   -4.3936581    2075.6467  0.043351017  0.042744607           18 
 3991000   0.61791382   -4.3787219    2074.6009  0.043318318  0.042734389           11 
 3992000    0.6323401    -4.378674    2074.2113  0.043299334  0.042724178           11 
 3993000   0.61661781   -4.3531922    2076.5931  0.043338198  0.042714052            8 
 3994000   0.59763389   -4.3646851    2070.2001  0.043193959  0.042703868           16 
 3995000   0.60598534   -4.3802137    2071.8408  0.043217371  0.042693649           13 
 3996000   0.61792048   -4.3850448    2076.0002  0.043293296  0.042683459            9 
 3997000   0.61463333   -4.3710866    2073.5575  0.043231538  0.042673266            6 
 3998000    0.6213759   -4.3965613    2069.6434   0.04313914  0.042663073            7 
 3999000   0.62278595   -4.3720734    2073.3437  0.043205462  0.042652792           30 
 4000000   0.60972025   -4.3687696    2077.5456  0.043282201  0.042642594           12 
 4001000   0.61918224   -4.3660975    2073.4136   0.04318532  0.042632421           16 
 4002000   0.61104444   -4.3911438    2071.8461   0.04314189  0.042622225            4 
 4003000   0.61405377   -4.3782202    2075.7241  0.043211843  0.042612095            5 
 4004000   0.61248871   -4.3639143    2073.7039  0.043159005  0.042601951           10 
 4005000   0.61169389   -4.3855349    2075.4591  0.043184749  0.042591772            9 
 4006000   0.60026675   -4.3695714    2074.1304  0.043146331  0.042581578           11 
 4007000    0.6084315   -4.3731554    2079.5467  0.043248205  0.042571484           14 
 4008000   0.60737181    -4.378886    2078.6393  0.043218548  0.042561323           14 
 4009000   0.60756462    -4.368838    2075.1621  0.043135489   0.04255113            7 
 4010000   0.60612984   -4.3845838    2081.2927  0.043252133  0.042540997            6 
 4011000    0.6237443   -4.3994446    2076.4922  0.043141614  0.042530856           11 
 4012000   0.60778734    -4.367369    2081.9413  0.043244045  0.042520723            9 
 4013000   0.61454069   -4.3532868    2072.4703  0.043036595  0.042510616            9 
 4014000    0.6193812   -4.3616573     2079.402   0.04316978  0.042500567           15 
 4015000   0.61809898   -4.3902758    2077.8179  0.043126149  0.042490427           15 
 4016000   0.60927767   -4.3812424    2081.2428  0.043186479  0.042480271           11 
 4017000    0.6097824   -4.3866924    2072.8961  0.043002575   0.04247006            6 
 4018000   0.61692853   -4.3853919    2077.8313  0.043094227  0.042459877            8 
 4019000   0.60557513   -4.3664575    2076.5844   0.04305765  0.042449663           13 
 4020000    0.6134146   -4.3707241    2079.8085  0.043113775   0.04243943            8 
 4021000   0.58948123   -4.3685091    2073.8588  0.042979748  0.042429259           16 
 4022000    0.6068125   -4.4120767    2071.6741  0.042923796  0.042419038            7 
 4023000   0.61078094   -4.3804159    2073.4187  0.042949265  0.042408825           13 
 4024000   0.62074907   -4.3668474    2077.2063  0.043017029  0.042398595           18 
 4025000   0.59703459   -4.3766039    2071.7108  0.042892562  0.042388423            9 
 4026000   0.60300257   -4.3873409     2076.393  0.042978825  0.042378266           10 
 4027000   0.60736602   -4.3835204    2077.2323   0.04298552  0.042368127            6 
 4028000   0.60455432    -4.378153    2077.4857   0.04298009  0.042357955           11 
 4029000   0.60601893   -4.3923838    2072.6402  0.042869202  0.042347765            7 
 4030000   0.59909152   -4.3845424    2072.3056  0.042851646    0.0423376           10 
 4031000   0.61659337   -4.3846307    2070.8388  0.042810693  0.042327438           10 
 4032000    0.6101221   -4.3759165    2074.5308   0.04287638  0.042317232           19 
 4033000   0.62115188    -4.386735    2077.5439  0.042928008  0.042307086           11 
 4034000   0.60336563   -4.3700019    2080.9876  0.042988506  0.042296942            6 
 4035000   0.60972608   -4.3839529    2080.8183  0.042974355  0.042286836           15 
 4036000   0.61481513   -4.3816049    2079.8126  0.042942942  0.042276727            6 
 4037000    0.6097805   -4.3721635    2073.5543   0.04280312  0.042266613           12 
 4038000   0.60315738   -4.3945045    2074.9395  0.042821105  0.042256483            9 
 4039000   0.60336286   -4.3756721    2081.4919  0.042945695  0.042246386           10 
 4040000   0.60766125   -4.3718396     2073.092  0.042761799  0.042236266           10 
 4041000   0.60767163    -4.358188    2079.3596  0.042880467  0.042226153            6 
 4042000   0.61790642   -4.3854077    2077.3339  0.042828095  0.042216008           13 
 4043000   0.60381674   -4.3933082    2074.7021  0.042763255  0.042205852            6 
 4044000   0.60179048   -4.3889385     2077.441   0.04280912  0.042195685            7 
 4045000   0.60944472   -4.3888873    2073.0416  0.042707902  0.042185544            7 
 4046000   0.61591195   -4.3956293    2077.2685  0.042784407  0.042175458           30 
 4047000   0.60590437   -4.3876312    2078.3257  0.042795604  0.042165305           23 
 4048000   0.60205648   -4.3948114    2074.9246  0.042715016  0.042155173           12 
 4049000    0.6176058    -4.386717    2076.7205  0.042741428  0.042145017            9 
 4050000   0.60198046   -4.3945359    2078.0193  0.042757599  0.042134914            8 
 4051000   0.61700339   -4.3996105    2071.7999  0.042619105  0.042124802            7 
 4052000   0.60576841    -4.390015     2077.112  0.042717835  0.042114651           11 
 4053000   0.60275129   -4.3961988    2080.6917  0.042780897   0.04210455           11 
 4054000   0.59402417   -4.3745529    2080.3148  0.042762597  0.042094481            8 
 4055000   0.60875943   -4.4016018    2081.9847  0.042786369  0.042084407           15 
 4056000   0.59473698   -4.4085497     2080.521  0.042745748   0.04207431            7 
 4057000   0.62104988   -4.3821958    2084.7368  0.042821807  0.042064202           11 
 4058000    0.5923066   -4.3812248    2079.7909  0.042709687  0.042054164           17 
 4059000   0.59648413   -4.3981207    2075.4358  0.042609751   0.04204408           11 
 4060000   0.59592146   -4.4025998    2076.5329  0.042621776  0.042033928           12 
 4061000   0.59669182   -4.4115075    2081.1691  0.042706416  0.042023812            8 
 4062000    0.5911591   -4.4035097    2075.4114  0.042577781  0.042013694            9 
 4063000   0.60269909   -4.3748057    2082.2005  0.042706548  0.042003626            9 
 4064000   0.59838364   -4.4116871     2079.171   0.04263392  0.041993546            9 
 4065000   0.59173142   -4.3921142    2081.6194  0.042673624  0.041983437            7 
 4066000   0.59665676   -4.3692382    2078.4134  0.042597423  0.041973391            6 
 4067000   0.59846793   -4.4080312    2079.8786  0.042616969  0.041963347           15 
 4068000   0.59133459   -4.3936605    2081.2003  0.042633568   0.04195332            5 
 4069000   0.60566576   -4.3988997    2078.1558   0.04256074  0.041943259           22 
 4070000   0.61371219   -4.3971859    2078.9764  0.042567084    0.0419332            7 
 4071000   0.60231728   -4.3897136    2080.2554   0.04258281  0.041923131            7 
 4072000   0.59363746   -4.4000978    2078.8428  0.042543444  0.041913071           12 
 4073000   0.59591519   -4.4154679    2081.8868  0.042595279  0.041902952            8 
 4074000   0.59566494   -4.4074922    2079.5716  0.042537465  0.041892828            5 
 4075000   0.61398583   -4.3923666    2081.3206  0.042562793  0.041882742            5 
 4076000   0.59828966   -4.4136767    2073.3199  0.042388777  0.041872575           12 
 4077000   0.59891725   -4.3985669    2075.6304  0.042425607  0.041862344           11 
 4078000   0.58805568    -4.392748    2078.1474  0.042466639  0.041852124            7 
 4079000    0.5866105    -4.397441    2078.7074  0.042467668  0.041842012            7 
 4080000   0.59068425   -4.4002322    2077.5998  0.042434637  0.041831925            7 
 4081000   0.59152113    -4.396305    2074.1113  0.042353004  0.041821795           13 
 4082000   0.58924329   -4.4140834    2079.2559  0.042447654  0.041811741            9 
 4083000   0.59906334   -4.4054327    2080.7375  0.042467496  0.041801663           13 
 4084000   0.60095609   -4.3821327    2080.7321  0.042456989  0.041791548           10 
 4085000   0.60711626   -4.4023773    2078.9443  0.042410124  0.041781455           11 
 4086000    0.5955409   -4.4000046    2077.0166  0.042360429  0.041771372            7 
 4087000    0.5975706   -4.4009289    2080.4152  0.042419363   0.04176123           14 
 4088000   0.60404648   -4.4059237    2081.9816  0.042440916  0.041751077           22 
 4089000   0.61156606   -4.3946182    2080.4222  0.042398758  0.041740927            7 
 4090000     0.589543   -4.4250115    2076.5351  0.042309191   0.04173082            6 
 4091000   0.58865851   -4.4133287    2075.8174   0.04228423  0.041720654           11 
 4092000   0.59311114   -4.4009598    2079.0404  0.042339533  0.041710551           12 
 4093000   0.59710746   -4.3823329    2078.1155  0.042310358  0.041700501            8 
 4094000   0.59303809    -4.422921    2079.2043  0.042322184  0.041690395           14 
 4095000   0.58491124   -4.3975783    2081.1117  0.042350666  0.041680292            9 
 4096000   0.60250377   -4.4059428    2085.0502  0.042420455   0.04167016           22 
 4097000   0.58896728   -4.3995543    2079.1536  0.042290164  0.041660081            7 
 4098000   0.60340633   -4.3991157    2080.3451  0.042304073  0.041650008            9 
 4099000   0.59580656   -4.4038096    2084.9176  0.042386712  0.041639939            6 
 4100000   0.60237294   -4.4185331    2088.8055  0.042455396   0.04162992            4 
 4101000   0.59106772   -4.4188926    2082.0091  0.042306939  0.041619868           12 
 4102000   0.59606865   -4.4041212    2076.4872  0.042184446  0.041609742           10 
 4103000   0.61212448   -4.4309727    2075.7693  0.042159584  0.041599611           13 
 4104000   0.60184843   -4.3988873     2079.231  0.042219603  0.041589476            8 
 4105000    0.6097916   -4.4292531    2074.1192  0.042105545   0.04157937           11 
 4106000   0.59610218   -4.4023597    2082.9863  0.042275255  0.041569265            7 
 4107000   0.59413711   -4.4181037    2074.4176  0.042091096  0.041559172           20 
 4108000   0.59805158   -4.4210278    2076.5511  0.042124129  0.041549067           24 
 4109000   0.58959053   -4.4034223    2085.2252  0.042289796  0.041539047            9 
 4110000   0.59336434   -4.4183231    2081.2503  0.042198912  0.041529018           13 
 4111000    0.5843852   -4.4114525    2080.8298  0.042180123  0.041518887            8 
 4112000    0.5825201   -4.4117594    2077.0632  0.042093531  0.041508811            8 
 4113000   0.58757625   -4.4332385    2082.4046  0.042191518  0.041498762           42 
 4114000   0.58970523   -4.4311118    2077.3215    0.0420783  0.041488717           11 
 4115000   0.59320985   -4.4102558    2079.3777  0.042109715  0.041478666            7 
 4116000   0.58088277    -4.409288    2085.7672  0.042228846  0.041468644           17 
 4117000     0.594494   -4.4211693    2085.1641  0.042206382   0.04145862           22 
 4118000   0.58864206   -4.4207872     2083.312  0.042158653  0.041448549            7 
 4119000   0.59316547   -4.4252575    2074.0528   0.04196109  0.041438457           19 
 4120000   0.59226097    -4.402377     2083.577  0.042143548  0.041428393           13 
 4121000   0.59823986   -4.3993643    2080.0813  0.042062632  0.041418368            7 
 4122000   0.58302318   -4.4122757    2084.1816  0.042135323  0.041408367           14 
 4123000   0.59512453    -4.423915    2081.8428  0.042077832  0.041398357           20 
 4124000   0.60083675   -4.4248549    2077.7603  0.041985135  0.041388319           11 
 4125000   0.59694337   -4.4091204    2084.6494   0.04211413  0.041378249            6 
 4126000   0.59678052   -4.4327129    2075.7844  0.041924875  0.041368199           16 
 4127000   0.59641902   -4.4093684    2077.1138   0.04194156  0.041358181            7 
 4128000   0.58882054   -4.4098892    2081.1715  0.042013313  0.041348163           23 
 4129000   0.60066931   -4.4258613    2085.9731  0.042100046  0.041338097           17 
 4130000   0.58799735   -4.4262067    2083.9705  0.042049445  0.041328055           13 
 4131000    0.5924359   -4.4247827    2078.7362  0.041933676   0.04131801            7 
 4132000   0.58051018    -4.408021    2080.3166    0.0419554  0.041307967            6 
 4133000   0.59682598   -4.4012205    2088.6714  0.042113706  0.041298002            9 
 4134000    0.5817101   -4.4209145    2080.1925  0.041932601   0.04128799           11 
 4135000   0.59024097   -4.4226197    2079.0352  0.041899137   0.04127794            5 
 4136000   0.60898347   -4.4259084    2079.1529  0.041891379  0.041267871           12 
 4137000   0.58904886   -4.4272512    2083.2359  0.041963499  0.041257806           14 
 4138000   0.59700103   -4.4057495    2078.0115  0.041848144  0.041247733           12 
 4139000   0.59047021   -4.4141464    2078.2683  0.041843205  0.041237775            8 
 4140000   0.59558428    -4.405431     2084.094  0.041950363  0.041227784           13 
 4141000   0.59594802   -4.4251212    2081.7329  0.041892718  0.041217784           11 
 4142000   0.58115699   -4.4253321    2085.0483  0.041949306  0.041207795           11 
 4143000   0.57412048   -4.3971547      2084.54  0.041928956  0.041197851           18 
 4144000   0.59841602    -4.424608    2084.6539  0.041921129  0.041187882            9 
 4145000   0.58629203   -4.4122437    2082.5882  0.041869485  0.041177917            7 
 4146000   0.58189514   -4.4177518    2084.8335  0.041904517  0.041167904            7 
 4147000   0.58890842    -4.421165    2081.6898   0.04183124  0.041157917            6 
 4148000   0.57021213   -4.4202089    2083.3728  0.041854966  0.041147955            9 
 4149000   0.57937364   -4.4253551    2083.9619  0.041856711  0.041138002           11 
 4150000   0.57840318   -4.4076676    2084.2121  0.041851649  0.041128037            9 
 4151000   0.58666154   -4.3769473    2089.1894  0.041941487  0.041118102            7 
 4152000    0.5872278   -4.4016936    2087.7776   0.04190305  0.041108211           10 
 4153000      0.58205    -4.444125    2080.5674  0.041748282   0.04109825           10 
 4154000   0.59328855   -4.4156553    2081.8067  0.041763093  0.041088281            8 
 4155000   0.57654611   -4.4347944    2083.0907  0.041778794   0.04107827            6 
 4156000   0.58392489    -4.433015    2082.0828  0.041748532  0.041068266           14 
 4157000   0.58626425   -4.4030617    2082.6678  0.041750217  0.041058276            5 
 4158000   0.58995293   -4.4261882    2080.7074  0.041700886  0.041048291           14 
 4159000    0.5810445   -4.4416345    2081.0389  0.041697501  0.041038313           13 
 4160000   0.58561114   -4.4391963    2087.7642  0.041822199   0.04102834           14 
 4161000   0.59011847   -4.4169251     2085.252  0.041761837  0.041018377            4 
 4162000   0.58938642   -4.4217144    2081.8789  0.041684264  0.041008462           10 
 4163000   0.58002742   -4.4329187    2080.1776  0.041640196  0.040998474           11 
 4164000   0.59039979   -4.4138724    2083.6873  0.041700434  0.040988477            8 
 4165000   0.58027065   -4.4179645    2081.4301   0.04164526  0.040978545           14 
 4166000    0.5752254   -4.4445654    2087.8335  0.041763352  0.040968588           12 
 4167000   0.58344822    -4.433482    2087.2885   0.04174243  0.040958644            5 
 4168000   0.57706701    -4.439733    2084.9656  0.041685973  0.040948745           16 
 4169000   0.58954344   -4.4040436    2089.1082  0.041758778  0.040938837           23 
 4170000   0.59169895   -4.4241734    2082.6874  0.041620452  0.040928945            9 
 4171000   0.57882016   -4.4232881    2084.5547   0.04164778  0.040919054           12 
 4172000    0.5743871   -4.4478504    2081.8074  0.041582922  0.040909159           15 
 4173000   0.59259404   -4.4274952    2081.4042  0.041564905  0.040899233           10 
 4174000   0.58490467   -4.4463665    2082.5316  0.041577456  0.040889328            7 
 4175000   0.59341635    -4.421214    2085.0251  0.041617267  0.040879426            6 
 4176000   0.59237814   -4.4215303    2084.7352  0.041601517  0.040869572            9 
 4177000   0.58519445   -4.4249076    2089.8808  0.041694215  0.040859651           19 
 4178000   0.58549818   -4.4365062    2084.9931  0.041586746  0.040849702           15 
 4179000   0.58570695   -4.4535315    2085.5897  0.041588691  0.040839748           15 
 4180000   0.59067288   -4.4003973    2086.6267  0.041599415  0.040829799           23 
 4181000   0.60308499    -4.434461    2083.0545  0.041518267  0.040819841           16 
 4182000   0.58157345   -4.4398568    2080.3714  0.041454873  0.040809873           13 
 4183000   0.58296232   -4.4368504    2085.3816  0.041544776  0.040799917            7 
 4184000   0.57869155   -4.4361685    2080.5301  0.041438219  0.040790007            9 
 4185000    0.5844701   -4.4551564    2088.3083  0.041583199  0.040780093           13 
 4186000   0.58699617   -4.4604612    2084.4027  0.041495514  0.040770147            7 
 4187000   0.58763358   -4.4153419    2092.5438  0.041647635  0.040760265           17 
 4188000   0.57697298   -4.4205645    2088.9047  0.041565281  0.040750427           14 
 4189000   0.58231925   -4.4350905     2091.723  0.041611423  0.040740614            6 
 4190000   0.58487544   -4.4321756    2085.7174  0.041482048  0.040730805            9 
 4191000   0.57848716   -4.4289111     2091.706  0.041591228  0.040720997            4 
 4192000   0.56189385   -4.4355678    2086.3466  0.041474765  0.040711166            9 
 4193000   0.57734069   -4.4407278    2091.1329  0.041559998  0.040701357            6 
 4194000   0.58683592   -4.4211724    2097.0016  0.041666698  0.040691563            8 
 4195000   0.57775679   -4.4157271    2086.1628  0.041441455  0.040681795           15 
 4196000   0.58402577   -4.4230663    2090.9443  0.041526538     0.040672           10 
 4197000   0.57713726   -4.4361238    2088.7609  0.041473292  0.040662186           12 
 4198000   0.57745777   -4.4336692    2091.0937  0.041509722  0.040652425           21 
 4199000   0.58094264   -4.4278552    2088.9651  0.041457592  0.040642613           12 
 4200000    0.5806293   -4.4204227    2087.0371  0.041409467   0.04063282           12 
 4201000   0.59232081   -4.4448142    2080.9603  0.041279067  0.040622974            7 
 4202000   0.57431062   -4.4280839    2084.2869  0.041335214  0.040613135            7 
 4203000   0.56710654   -4.4369121    2085.1902   0.04134329  0.040603304           11 
 4204000   0.58135061   -4.4292782    2089.0069  0.041409112   0.04059349           10 
 4205000   0.57865889   -4.4460435    2090.5645  0.041430132  0.040583698            6 
 4206000   0.58485354   -4.4524421    2083.9144  0.041288524  0.040573869            6 
 4207000   0.58706702   -4.4361387    2086.9971  0.041339773  0.040564042            7 
 4208000   0.58735115   -4.4174103    2093.5643  0.041460002  0.040554256           15 
 4209000   0.57048886   -4.4397304     2093.911  0.041457016  0.040544471           16 
 4210000   0.57786347   -4.4376446    2087.5896  0.041322042  0.040534676           13 
 4211000   0.58143698   -4.4422979    2086.2679  0.041286075   0.04052486           15 
 4212000   0.57813881   -4.4551052    2087.3083  0.041296856  0.040515054           30 
 4213000   0.58538243   -4.4360753    2086.9816  0.041280592  0.040505211            9 
 4214000    0.5809967   -4.4589628     2081.142  0.041155316  0.040495384           15 
 4215000   0.57917448    -4.452913    2091.0816  0.041342064   0.04048557           16 
 4216000   0.57533327   -4.4347833    2087.6756  0.041264935  0.040475766           13 
 4217000   0.58205582   -4.4399376     2085.965  0.041221347  0.040465946           14 
 4218000   0.58018743   -4.4552845    2091.6038  0.041322977  0.040456105           12 
 4219000    0.5774534   -4.4527184    2086.2489  0.041207413  0.040446256           11 
 4220000   0.57724427   -4.4359626    2088.8737  0.041249481  0.040436417           11 
 4221000   0.57523116   -4.4598299    2089.5397  0.041252857  0.040426598            6 
 4222000   0.56510573   -4.4495971    2090.9246   0.04127042   0.04041677            4 
 4223000   0.57792292   -4.4315418    2086.9866  0.041182939  0.040406963           11 
 4224000   0.57997491   -4.4440248    2087.7189  0.041187635  0.040397174           19 
 4225000   0.57711228   -4.4473737    2088.4656  0.041192616  0.040387352           12 
 4226000   0.57937832   -4.4607752    2089.1905  0.041197162  0.040377559           14 
 4227000   0.58278015   -4.4570774    2087.5514  0.041155103  0.040367754           23 
 4228000   0.57339211    -4.457612    2091.6469   0.04122609  0.040357963           10 
 4229000   0.57268152   -4.4502826    2089.5821  0.041175654  0.040348237           14 
 4230000   0.57741583     -4.45883     2092.235  0.041218183   0.04033848           14 
 4231000   0.56789655    -4.434154     2091.479  0.041193553  0.040328736           10 
 4232000   0.58331269   -4.4550576    2094.8679  0.041250549  0.040318965            9 
 4233000   0.58210768   -4.4544521    2095.5076  0.041253398  0.040309227           14 
 4234000   0.55902784   -4.4644033    2092.9588  0.041193489  0.040299503           14 
 4235000   0.56560103   -4.4454748    2089.6929  0.041119497  0.040289751           13 
 4236000   0.56391667   -4.4697952     2085.757  0.041032362  0.040280022           14 
 4237000   0.57726902   -4.4446328    2090.6777  0.041119457  0.040270276           11 
 4238000   0.57468933   -4.4561527    2092.0658  0.041137049  0.040260544           16 
 4239000   0.56970799   -4.4379351    2092.2482  0.041130931  0.040250824            9 
 4240000   0.58140737   -4.4516948    2092.7495  0.041131084  0.040241113           10 
 4241000   0.57979191   -4.4552372     2090.522  0.041077616  0.040231365           11 
 4242000   0.56477632   -4.4453878    2089.1653   0.04104128  0.040221632           48 
 4243000   0.57149464    -4.471215    2092.2411  0.041092016  0.040211913           10 
 4244000   0.57016879   -4.4489659    2094.1928  0.041120657  0.040202181           14 
 4245000   0.57759284   -4.4609827    2095.5243  0.041137107  0.040192463           22 
 4246000   0.56122693   -4.4604995    2095.2303  0.041121651  0.040182773           16 
 4247000   0.57355781   -4.4541732    2094.2794  0.041093308  0.040173078            9 
 4248000   0.57135055   -4.4382334    2093.1773  0.041062015  0.040163381           14 
 4249000   0.57498884   -4.4580474    2089.2743  0.040975805   0.04015367           20 
 4250000   0.57551759   -4.4594287    2090.0413  0.040981202  0.040143974           22 
 4251000   0.57083703   -4.4580507    2094.1329   0.04105177  0.040134334            3 
 4252000   0.56849123   -4.4275877    2094.5317  0.041049931  0.040124686           16 
 4253000   0.57896564   -4.4760504    2089.7116  0.040945834  0.040115031           26 
 4254000   0.57385521   -4.4239448    2091.5827  0.040972862  0.040105352            6 
 4255000   0.57412123   -4.4552866     2094.446  0.041019311  0.040095681           12 
 4256000   0.57199168    -4.465527    2094.3772  0.041008325  0.040086032           11 
 4257000   0.56695838   -4.4525885    2095.3831  0.041018384  0.040076344            9 
 4258000   0.57271458   -4.4532098    2090.6243  0.040915617  0.040066615           18 
 4259000   0.58486874   -4.4743529    2092.0352  0.040933616  0.040056881           22 
 4260000   0.57476846    -4.467378    2089.0802    0.0408662  0.040047168           10 
 4261000   0.58679642   -4.4622468    2089.5706  0.040866202  0.040037484           13 
 4262000   0.57737748   -4.4645538    2086.3614  0.040793864  0.040027779           18 
 4263000   0.58169169   -4.4876914    2085.9582  0.040776413  0.040018082           20 
 4264000   0.56854564   -4.4588982     2090.303  0.040851762  0.040008349           35 
 4265000   0.57250252   -4.4462973    2093.0803   0.04089645  0.039998644           15 
 4266000    0.5632187   -4.4586741    2088.7227  0.040801741  0.039988955           30 
 4267000   0.57395722   -4.4554167    2090.7884  0.040832521  0.039979225           14 
 4268000   0.55991079   -4.4551373    2092.7662   0.04086157  0.039969571            9 
 4269000   0.56646239   -4.4702286    2091.9155  0.040835393  0.039959845           16 
 4270000   0.57646104   -4.4636773     2084.287  0.040676951  0.039950098           10 
 4271000   0.58128331   -4.4627713    2089.8855  0.040776662  0.039940367           10 
 4272000   0.57506294   -4.4577007    2089.2946  0.040755591  0.039930641            4 
 4273000   0.57082022   -4.4629858    2089.1785  0.040743789  0.039920872           14 
 4274000   0.57659067   -4.4726368    2088.5439  0.040721883  0.039911148           16 
 4275000   0.56555195   -4.4625365    2086.0082  0.040662928  0.039901418           11 
 4276000   0.57066698   -4.4749829    2090.6385  0.040743656  0.039891716            9 
 4277000   0.57444193   -4.4648393    2092.4134  0.040768712  0.039882009           14 
 4278000   0.58174345   -4.4568208    2091.1649  0.040734863  0.039872273           23 
 4279000   0.57110784   -4.4590173    2090.2101  0.040706748  0.039862516           19 
 4280000   0.56159462   -4.4637109    2086.5369  0.040625718  0.039852735            7 
 4281000   0.56821299   -4.4654697    2092.4038  0.040730433  0.039842971            8 
 4282000   0.56045326   -4.4767179     2093.061   0.04073371  0.039833234           14 
 4283000   0.56262422   -4.4670946    2088.2774  0.040631128  0.039823491           13 
 4284000   0.57282883   -4.4570571    2087.7597  0.040611572  0.039813767           30 
 4285000   0.57282524   -4.4631506    2093.1748  0.040707405  0.039804054            8 
 4286000   0.55768027   -4.4836432    2086.9061  0.040576024  0.039794311           19 
 4287000   0.56573519   -4.4638414    2091.5409  0.040656654  0.039784562           19 
 4288000   0.55418647   -4.4867335    2090.2143  0.040621391  0.039774822           23 
 4289000   0.55209594   -4.4836646    2090.9943  0.040627074  0.039765102           13 
 4290000   0.56849253   -4.4788507    2090.5627  0.040609221  0.039755378            7 
 4291000   0.55917381   -4.4742047    2084.5173  0.040482353  0.039745676            9 
 4292000   0.56748309   -4.4686391    2093.6356  0.040649961  0.039735943            8 
 4293000   0.57489128   -4.4739795    2096.9105  0.040704064  0.039726257           11 
 4294000   0.57033362   -4.4734249    2096.4572  0.040685786  0.039716573           11 
 4295000   0.56105449   -4.4657975    2090.5095  0.040560914  0.039706859           14 
 4296000   0.56871252   -4.4757273       2092.7  0.040593964  0.039697149           13 
 4297000   0.56521063   -4.4726029    2090.5746  0.040543297  0.039687489            9 
 4298000   0.57095566   -4.4597321    2092.0695  0.040562849  0.039677874            9 
 4299000    0.5664853    -4.460377    2088.7045  0.040488185   0.03966818           14 
 4300000   0.56928359   -4.4731618    2093.8486  0.040578461  0.039658519            7 
 4301000   0.54966036   -4.4871321    2093.5485  0.040563212  0.039648814           12 
 4302000   0.56886488    -4.469562    2092.1867  0.040527403  0.039639115           10 
 4303000   0.56176837   -4.4885639    2090.3887  0.040483165  0.039629405            7 
 4304000   0.56135745   -4.4642827     2092.631  0.040517175  0.039619709           11 
 4305000   0.56221582   -4.4661477    2090.3115  0.040462864  0.039610069           15 
 4306000   0.57662072    -4.475236    2088.9975  0.040428037  0.039600442            9 
 4307000   0.56483464   -4.4848934    2091.6651  0.040470264  0.039590724           29 
 4308000   0.56000341    -4.461783     2096.801  0.040560217  0.039581031           32 
 4309000   0.56079994   -4.4567232    2094.0783  0.040498149  0.039571351           10 
 4310000   0.55501743   -4.4878572    2091.7286  0.040443321  0.039561692           15 
 4311000   0.57163871   -4.4826259    2096.5344  0.040526839  0.039552046           13 
 4312000   0.55862004   -4.4579344    2096.1642  0.040510286  0.039542425            8 
 4313000   0.57785431   -4.4726575    2091.7944  0.040416462  0.039532818           18 
 4314000   0.55883633   -4.4704665    2096.5118  0.040498219  0.039523234            9 
 4315000   0.55842651   -4.4752777    2095.1346  0.040462237   0.03951365           12 
 4316000   0.56906431   -4.4819468    2093.3609  0.040418615  0.039504042           23 
 4317000   0.55306514    -4.462629    2095.4189  0.040448978  0.039494463            9 
 4318000   0.55687539   -4.4723132    2099.7677  0.040523539  0.039484936           15 
 4319000   0.55947367   -4.4925388    2092.1364  0.040366913  0.039475325           16 
 4320000   0.56061626     -4.47039    2096.8667  0.040448817  0.039465724           14 
 4321000   0.55467055   -4.4623076    2095.6281  0.040415569   0.03945616            7 
 4322000   0.55988215   -4.4789438     2093.487  0.040364935  0.039446632           14 
 4323000   0.56234555   -4.4645663    2096.8882  0.040421161  0.039437027           12 
 4324000   0.56640187   -4.4862595    2094.8701   0.04037292  0.039427426           21 
 4325000   0.55497592   -4.4833106    2093.7483  0.040341971  0.039417836           10 
 4326000   0.57089915   -4.4658056     2100.466  0.040462051  0.039408231           22 
 4327000   0.56969054   -4.4976185    2089.5312  0.040242107  0.039398668           13 
 4328000    0.5659197   -4.4729769     2089.901  0.040239929  0.039389032           14 
 4329000    0.5606458    -4.475103    2091.5803  0.040262962  0.039379411            8 
 4330000   0.55366063   -4.4797201    2092.1948  0.040265488  0.039369834           13 
 4331000   0.55139879   -4.4970296    2092.3989  0.040260119  0.039360221           13 
 4332000   0.57195856   -4.4909524    2095.5515  0.040311471  0.039350662            8 
 4333000    0.5598795   -4.4877741    2097.5487  0.040340578  0.039341108           21 
 4334000   0.55405994   -4.4648652    2105.4376  0.040482957  0.039331604            5 
 4335000   0.55501185   -4.4667977    2096.0583  0.040293316  0.039322076           10 
 4336000   0.55696277   -4.4666058    2093.3496  0.040231964  0.039312529           17 
 4337000   0.56795126   -4.4805917     2096.339  0.040280128  0.039302944           14 
 4338000   0.56341609   -4.4955081    2089.6124  0.040141624  0.039293357           22 
 4339000   0.54742509   -4.4613792    2097.8203  0.040290011  0.039283786           16 
 4340000   0.56187544   -4.4912609    2094.5384  0.040217711  0.039274142           15 
 4341000   0.56405531    -4.486111    2094.0835  0.040199715  0.039264529           23 
 4342000   0.56148371   -4.4963002    2096.5782  0.040238335  0.039254967           12 
 4343000   0.54544394   -4.4776307    2099.7624  0.040290168  0.039245366           12 
 4344000   0.55214757   -4.4922252    2096.5005  0.040218318  0.039235803            7 
 4345000   0.55952992    -4.488736    2099.5541  0.040267628  0.039226255           12 
 4346000   0.55423705   -4.4868969    2089.9776  0.040074736  0.039216695           13 
 4347000   0.55964932   -4.5064142    2095.9211  0.040179456  0.039207123           24 
 4348000   0.55785139   -4.4940964    2090.2171  0.040060892  0.039197485           14 
 4349000    0.5709242   -4.5066918    2094.7627   0.04013878  0.039187853            9 
 4350000   0.55897285   -4.4862981     2094.007  0.040115077  0.039178217           24 
 4351000   0.55016895   -4.4738546    2094.5287  0.040115849  0.039168613           12 
 4352000   0.56238109    -4.480294    2094.3823  0.040103827  0.039159039           30 
 4353000   0.54903092   -4.4815764    2090.9117  0.040028174   0.03914946           39 
 4354000   0.56120866   -4.5021804    2095.7796  0.040112149  0.039139836           23 
 4355000   0.56315131   -4.4536885    2097.0469   0.04012719  0.039130283           12 
 4356000   0.56897178   -4.4804382    2104.6889  0.040264175  0.039120733           14 
 4357000   0.55084707   -4.4769462    2091.1492  0.039995969  0.039111138           10 
 4358000   0.55340193   -4.5062797    2091.1622  0.039987039  0.039101566           12 
 4359000   0.55437615   -4.4949348    2093.1901  0.040016634  0.039091976            5 
 4360000   0.56033478   -4.4863615    2100.8659  0.040154165  0.039082406           11 
 4361000   0.54966206    -4.491902    2097.6014  0.040082577  0.039072846           10 
 4362000   0.55658461   -4.5236466    2092.7003  0.039979755  0.039063273           21 
 4363000   0.55298956   -4.4858925    2099.4586  0.040099675  0.039053732            8 
 4364000   0.54406713   -4.4968843    2095.2176  0.040009502  0.039044188           17 
 4365000    0.5374351   -4.4934438    2097.8941  0.040051434  0.039034614           13 
 4366000   0.55702351   -4.4761387     2095.301  0.039992766  0.039025043           23 
 4367000   0.55249895   -4.4937833    2100.6026  0.040084776  0.039015473            5 
 4368000   0.54813027   -4.5014544    2092.4917  0.039920858  0.039005937           18 
 4369000   0.55816582   -4.5017635    2091.8298  0.039899096  0.038996337           11 
 4370000   0.55199041   -4.5044176    2093.6674  0.039925008  0.038986699           13 
 4371000   0.56476785   -4.5015868    2097.4563   0.03998811  0.038977107            6 
 4372000   0.55015745   -4.5045721    2092.5779  0.039885978  0.038967459           20 
 4373000   0.55557366   -4.4769922    2093.0178   0.03988524  0.038957888           15 
 4374000   0.55587029   -4.4886593    2096.1422  0.039935646  0.038948333           12 
 4375000   0.54675724   -4.4956195    2095.1929  0.039908437  0.038938761           13 
 4376000   0.53572155   -4.5009457    2094.6092    0.0398882  0.038929184           18 
 4377000   0.55375737   -4.4897757    2096.0196  0.039905939  0.038919628           17 
 4378000    0.5551013   -4.4925176    2096.1934  0.039900133  0.038910075           11 
 4379000   0.54763543   -4.4943158    2094.9494  0.039867348  0.038900522           12 
 4380000   0.55036977   -4.4792357    2096.8414  0.039894243   0.03889101           11 
 4381000    0.5507144   -4.4987039    2098.8387  0.039923128    0.0388815           11 
 4382000   0.56101369   -4.4982674    2095.3767   0.03984818  0.038871934           13 
 4383000   0.55307415   -4.4977899    2095.7958  0.039847057  0.038862406           11 
 4384000   0.53854392   -4.5154045    2094.0143  0.039804104   0.03885287           24 
 4385000   0.55344306   -4.5145122    2091.2409  0.039742321  0.038843298           37 
 4386000   0.55093172   -4.5094242    2096.5053  0.039833282  0.038833755           12 
 4387000   0.55672187    -4.504278     2096.527  0.039824614  0.038824185           10 
 4388000   0.56166652   -4.5030697    2097.2651  0.039829556  0.038814667           11 
 4389000   0.54861606    -4.524067    2089.0307  0.039664136  0.038805108            5 
 4390000   0.55170449   -4.4983672    2092.7263  0.039725252  0.038795578           13 
 4391000    0.5450098   -4.5119782     2098.434  0.039824527  0.038786033            7 
 4392000   0.54640834    -4.520802    2094.5266  0.039741322  0.038776517           18 
 4393000   0.54636315   -4.4991501    2096.2264   0.03976452  0.038766978           14 
 4394000   0.55989966   -4.4922585    2095.6883  0.039745264  0.038757477           19 
 4395000   0.54340448   -4.4972728       2101.3  0.039842623  0.038747996           22 
 4396000   0.53565208    -4.488105    2097.2471  0.039756731  0.038738515           19 
 4397000   0.55928038   -4.5145931    2096.4253  0.039732114  0.038729007           12 
 4398000   0.57145409    -4.490801    2097.9222  0.039751443  0.038719513           15 
 4399000   0.54437669   -4.5000228    2096.7878  0.039720918  0.038710035           10 
 4400000   0.56393842   -4.4951895    2096.6403  0.039709096   0.03870055           15 
 4401000   0.54106646    -4.505276    2093.8568  0.039647369  0.038691054           13 
 4402000   0.54841005   -4.4963794    2097.9454  0.039715762  0.038681541           10 
 4403000   0.54196872   -4.5060492    2094.7731  0.039646702  0.038672069           19 
 4404000   0.53907796   -4.4966516    2093.0937   0.03960592  0.038662557           24 
 4405000   0.54210943    -4.510657     2094.874   0.03963061  0.038653023            8 
 4406000   0.55758977   -4.5082001    2094.8408  0.039620986  0.038643513            9 
 4407000   0.55514272   -4.5119929    2098.0296  0.039672295  0.038633969           11 
 4408000   0.56357357   -4.5102014    2094.1829  0.039590572  0.038624435           11 
 4409000   0.55283784    -4.495856     2094.338  0.039584523  0.038614931            8 
 4410000   0.53598397     -4.51173    2100.1477  0.039685331  0.038605449           11 
 4411000   0.55039959   -4.5176758    2096.7926  0.039612949  0.038595962            9 
 4412000   0.54570672   -4.5162541    2099.0901  0.039647364  0.038586451            8 
 4413000    0.5310378     -4.51856    2094.4668  0.039551077  0.038576934           10 
 4414000   0.54162296   -4.5113679    2094.1583  0.039536292  0.038567424           14 
 4415000   0.54382499   -4.4967214    2098.4931  0.039609156  0.038557947           24 
 4416000   0.55081015   -4.5170308    2093.8589  0.039512735  0.038548463           28 
 4417000   0.55891068   -4.5153909    2097.8467  0.039579026  0.038539013           37 
 4418000   0.53813219   -4.5100318    2099.2403  0.039596354  0.038529548           23 
 4419000   0.53974904   -4.5144447    2101.0264  0.039621075  0.038520119           12 
 4420000   0.54204409    -4.525688    2096.1103  0.039519424  0.038510659           14 
 4421000   0.53731733   -4.5118114    2093.4785  0.039460878  0.038501198           11 
 4422000   0.53732707    -4.527739    2097.2902  0.039523786  0.038491722            8 
 4423000   0.54291718   -4.5042962    2100.2223  0.039570094  0.038482268           21 
 4424000   0.53534608   -4.5230881    2095.1007  0.039464675  0.038472843            9 
 4425000    0.5341174   -4.5253457     2096.476  0.039481658  0.038463398           26 
 4426000   0.54445427   -4.5166871    2099.8151  0.039535606   0.03845396           15 
 4427000   0.53192835   -4.5222919    2097.1216  0.039475973  0.038444529           23 
 4428000    0.5439601   -4.5180192    2095.6179  0.039438758  0.038435085           12 
 4429000   0.53858575   -4.5029094    2099.8897  0.039510229  0.038425617           13 
 4430000   0.54524963   -4.4966261    2093.6155  0.039383286  0.038416179           16 
 4431000   0.55078185   -4.5072499    2101.9366  0.039530891   0.03840675           25 
 4432000    0.5487537   -4.5126958    2095.8065  0.039406711  0.038397368           14 
 4433000   0.53880286   -4.5212833    2096.4435  0.039409796   0.03838798            7 
 4434000   0.53912767   -4.5112761    2097.4477  0.039419781  0.038378562           11 
 4435000   0.53583238   -4.5217492    2097.5489  0.039412794  0.038369144            9 
 4436000   0.54797684   -4.5264904    2097.8672  0.039409888  0.038359679            6 
 4437000   0.53967565   -4.5396681    2097.3009  0.039390372   0.03835018           10 
 4438000   0.55087098   -4.5238506     2097.946  0.039393609  0.038340701           14 
 4439000   0.54728984   -4.5234029    2098.7694  0.039400191  0.038331225           55 
 4440000    0.5444328   -4.5152862    2095.0481  0.039321474  0.038321736           12 
 4441000   0.53069226   -4.5134567    2092.9494  0.039273237  0.038312268           18 
 4442000   0.53977905    -4.535116    2100.2851  0.039402016    0.0383028           14 
 4443000   0.54925644   -4.4931318    2097.1486   0.03933432  0.038293325           50 
 4444000   0.53963321   -4.5155255     2094.155  0.039269333  0.038283871           10 
 4445000   0.54566825   -4.5108924    2093.4368  0.039247035   0.03827445           31 
 4446000    0.5445764   -4.5196955    2096.9809  0.039304635  0.038265027           23 
 4447000   0.54354215    -4.537724    2099.6501  0.039345816   0.03825558           10 
 4448000   0.53837602    -4.519752    2093.4859  0.039221483  0.038246176           24 
 4449000   0.54185755   -4.5145961    2095.5363  0.039251074  0.038236768           27 
 4450000   0.54068909   -4.5265307     2093.953  0.039212603  0.038227354           11 
 4451000   0.53749981   -4.5264993    2099.1192  0.039300517  0.038217931           30 
 4452000    0.5344171   -4.5062648    2095.0232   0.03921502  0.038208541           23 
 4453000   0.53578487   -4.5037406    2100.6068  0.039310704  0.038199162           14 
 4454000   0.54139522   -4.5170838    2095.2964  0.039202522  0.038189758           27 
 4455000   0.53627258   -4.5349974    2091.1703  0.039116542  0.038180298           23 
 4456000   0.53940606   -4.5072422    2095.7025  0.039192521  0.038170915            8 
 4457000    0.5480099   -4.5098602    2095.5701  0.039181252  0.038161539           11 
 4458000   0.54715005    -4.515203    2101.0278  0.039274485  0.038152158           18 
 4459000   0.53325165   -4.5055615    2094.3152  0.039140226  0.038142776           28 
 4460000   0.54782647   -4.5120615    2098.3039  0.039205978  0.038133376           28 
 4461000   0.54399074   -4.5093974    2099.2579   0.03921501  0.038123969           53 
 4462000   0.54405846    -4.508249    2095.3384   0.03913302  0.038114551           52 
 4463000   0.54233775   -4.5235439    2102.3022   0.03925428  0.038105148           17 
 4464000   0.52630367   -4.5151411    2097.9387  0.039164028  0.038095777           20 
 4465000   0.52159309   -4.5263806    2093.6375  0.039074982  0.038086361           21 
 4466000   0.52853505   -4.5182809    2094.6881  0.039085835  0.038076958           25 
 4467000   0.54339781   -4.5204822    2093.1891  0.039049122  0.038067543           25 
 4468000   0.53435995   -4.4965486    2101.9104  0.039203043  0.038058156           17 
 4469000   0.53779116   -4.5090843    2097.7438  0.039116578  0.038048794           15 
 4470000   0.54260805   -4.5188652    2095.7674   0.03907098  0.038039398           11 
 4471000   0.52657909   -4.5238765    2099.9448  0.039140104      0.03803           33 
 4472000   0.54199245   -4.5310659    2095.9629   0.03905715    0.0380206           27 
 4473000   0.54295096   -4.5429469    2093.5487  0.039003441  0.038011213           26 
 4474000   0.54827562   -4.5455982    2096.9832  0.039058695  0.038001768           14 
 4475000   0.54899414   -4.5129355    2102.8751  0.039159685  0.037992365            6 
 4476000   0.55054289   -4.5041885    2098.7798  0.039074691  0.037983024           17 
 4477000   0.53135179    -4.532991    2101.0736  0.039108658  0.037973666           20 
 4478000   0.54572595   -4.5464694    2104.4062  0.039161944  0.037964287            8 
 4479000    0.5370369   -4.5131834    2096.2363  0.039001196  0.037954908           15 
 4480000   0.54094819    -4.535039     2101.673   0.03909362  0.037945556           11 
 4481000   0.53950399   -4.5299624    2095.2688  0.038965795  0.037936186           17 
 4482000   0.53656766   -4.5467584    2097.6728    0.0390018  0.037926794           14 
 4483000   0.53799379   -4.5246143    2097.1583  0.038983536  0.037917452           16 
 4484000   0.53286222   -4.5236766    2097.0893   0.03897356  0.037908057           11 
 4485000   0.53317113    -4.538025    2096.5768  0.038955348  0.037898692           13 
 4486000   0.53137735   -4.5456856     2097.362   0.03896125  0.037889326           19 
 4487000   0.53491585   -4.5327215    2094.8611   0.03890612  0.037879918            9 
 4488000   0.52337856   -4.5161935    2096.5032  0.038927941  0.037870525            9 
 4489000   0.53437282   -4.5219117    2092.3807   0.03884274  0.037861128           10 
 4490000   0.53305735   -4.5312352    2097.2219  0.038923939  0.037851738            9 
 4491000   0.53018968   -4.5486641    2096.1879  0.038896086  0.037842311           15 
 4492000   0.53164509   -4.5132003    2093.5848  0.038839136  0.037832893            9 
 4493000    0.5357445   -4.5384652    2097.7071  0.038906949  0.037823507           13 
 4494000    0.5269363   -4.5329092    2098.6648   0.03891605  0.037814149           27 
 4495000   0.54005803    -4.529871    2100.8383  0.038947689   0.03780477           32 
 4496000   0.52689598    -4.540039    2099.5186  0.038914565  0.037795419           32 
 4497000   0.53103707   -4.5504912    2094.8527  0.038819448  0.037786006           23 
 4498000    0.5395939   -4.5248162    2091.4601  0.038747965  0.037776618            8 
 4499000   0.53058899   -4.5168502    2097.5557  0.038852258  0.037767252           37 
 4500000   0.52333639    -4.525939    2094.5061   0.03878715  0.037757861           25 
 4501000   0.53000445   -4.5460749      2102.09  0.038918943  0.037748454            5 
 4502000   0.53609113   -4.5528279    2094.1903  0.038764073   0.03773905           23 
 4503000   0.52955101   -4.5605083    2099.4423   0.03885266  0.037729655            9 
 4504000   0.53910071   -4.5384961    2095.7492  0.038775703  0.037720256           17 
 4505000   0.53537934   -4.5410073    2092.6768  0.038710262  0.037710852           10 
 4506000    0.5146959   -4.5386144    2101.1399  0.038858187  0.037701439           16 
 4507000   0.52604734   -4.5415185    2099.5306  0.038819809  0.037692038           21 
 4508000   0.51002003   -4.5564379    2093.2535  0.038695162  0.037682622           28 
 4509000   0.52324858   -4.5496193    2091.4168  0.038652636  0.037673203           50 
 4510000   0.52423722   -4.5467866    2098.0004  0.038765713  0.037663836           20 
 4511000   0.53742462    -4.546553    2093.6381  0.038676534  0.037654467           14 
 4512000   0.53592363   -4.5509588    2090.6279  0.038612365  0.037645048           35 
 4513000   0.53040537   -4.5678358    2096.6968  0.038715872  0.037635631           20 
 4514000   0.54220854    -4.559294    2093.0966  0.038640833  0.037626221           10 
 4515000   0.52836873   -4.5343135    2095.1268  0.038669745  0.037616863            9 
 4516000   0.53770127   -4.5337464    2101.9476  0.038787047  0.037607517            8 
 4517000   0.53190411   -4.5358495    2100.8305   0.03875785  0.037598216           13 
 4518000   0.54161917   -4.5418653    2097.7002  0.038691533   0.03758887           38 
 4519000   0.53217023   -4.5348299    2098.9643  0.038706283  0.037579534           23 
 4520000   0.53794561   -4.5492371     2095.378    0.0386316  0.037570173           25 
 4521000   0.53821057   -4.5342057    2097.7112  0.038666063  0.037560815           29 
 4522000   0.52341525    -4.533964    2094.8453  0.038604697  0.037551448           12 
 4523000   0.52497542   -4.5525288    2092.9654  0.038561526  0.037542092           10 
 4524000   0.52767925   -4.5184872    2097.8631  0.038643219  0.037532728           14 
 4525000   0.53592758   -4.5495798    2092.1143  0.038528808  0.037523389           18 
 4526000   0.53204017   -4.5538832    2102.0296  0.038702858  0.037514038           13 
 4527000   0.52929637   -4.5244466    2099.8582  0.038654336  0.037504734            6 
 4528000   0.53299695   -4.5389692     2097.081  0.038594689  0.037495416           14 
 4529000   0.53254254    -4.561033    2094.8041  0.038544273  0.037486036           12 
 4530000   0.52885828   -4.5528861    2094.0002  0.038520975  0.037476675           30 
 4531000   0.52783926   -4.5570563    2098.6668  0.038598301  0.037467325           13 
 4532000   0.51370859   -4.5566848    2094.5629  0.038514322  0.037457973           11 
 4533000   0.52944097   -4.5390207    2096.0076  0.038532385  0.037448662           32 
 4534000   0.52311637   -4.5718438    2099.6294  0.038590453  0.037439313           18 
 4535000   0.52326473    -4.545273    2097.5533  0.038543795  0.037429997           17 
 4536000   0.53231095   -4.5178617    2096.1751  0.038509977  0.037420674           21 
 4537000   0.51826374   -4.5287236    2099.8124  0.038568298  0.037411392           19 
 4538000   0.52913168   -4.5547126    2098.2702  0.038531478  0.037402078           12 
 4539000   0.52373177   -4.5499861    2095.2007  0.038466636  0.037392741            6 
 4540000   0.53125418   -4.5520822     2096.794  0.038487408  0.037383415           18 
 4541000   0.52380103   -4.5342274    2094.7219  0.038440906  0.037374104           12 
 4542000   0.52077091   -4.5559595    2097.7442  0.038487895  0.037364795           39 
 4543000   0.52332892   -4.5524621     2095.882  0.038445263  0.037355483           10 
 4544000   0.53119915   -4.5543284    2100.1721  0.038515479  0.037346157           19 
 4545000   0.52605151   -4.5511505    2096.4502  0.038438764  0.037336856           13 
 4546000   0.51791228   -4.5396938    2097.9221   0.03845729  0.037327544           22 
 4547000   0.52002519    -4.559235     2098.078  0.038451689  0.037318226            8 
 4548000   0.52305536    -4.547966    2098.0947   0.03844354  0.037308915           21 
 4549000   0.53518521   -4.5580531    2095.4852  0.038387287  0.037299602            8 
 4550000   0.52746996    -4.554245    2094.4729  0.038360309  0.037290264           30 
 4551000   0.51707852     -4.58533    2095.0106  0.038361726  0.037280898           19 
 4552000   0.51689685   -4.5534749    2092.3439  0.038304479  0.037271563           25 
 4553000   0.51991392   -4.5629976    2095.7081  0.038357641  0.037262236           13 
 4554000   0.52042596   -4.5448276    2098.4412  0.038399231  0.037252911           13 
 4555000   0.52618632   -4.5538955    2098.9255  0.038399662  0.037243604           15 
 4556000   0.52668747   -4.5525136    2096.4428  0.038345822  0.037234277           42 
 4557000   0.52443518   -4.5635657    2091.1311  0.038240274   0.03722492           56 
 4558000    0.5321965   -4.5609316    2096.5398  0.038330771   0.03721557           21 
 4559000   0.51681265    -4.572376    2093.9451  0.038274935  0.037206235           20 
 4560000   0.52439522   -4.5677628    2088.8394  0.038173234  0.037196868           15 
 4561000   0.52515987   -4.5662914    2092.8242  0.038237671  0.037187513           14 
 4562000    0.5149503   -4.5595203    2090.3861  0.038184753  0.037178156           11 
 4563000   0.52125527    -4.555221     2092.725  0.038219099  0.037168823           17 
 4564000   0.52939796    -4.545815     2093.011  0.038215947  0.037159473           18 
 4565000   0.52617761   -4.5712171    2093.7278  0.038220661  0.037150153           27 
 4566000   0.51993341   -4.5494817    2097.5813   0.03828262  0.037140836           19 
 4567000   0.53202559   -4.5469579    2093.6667  0.038202807  0.037131534           18 
 4568000   0.51483962   -4.5599649    2098.4032  0.038280852  0.037122195            9 
 4569000    0.5195164   -4.5771318    2093.6632  0.038186022   0.03711287           23 
 4570000   0.50843168   -4.5432067    2097.2013  0.038242184  0.037103595           10 
 4571000    0.5044025   -4.5593974    2094.8549  0.038191039  0.037094304           17 
 4572000   0.51775653   -4.5496646    2096.4531  0.038211816  0.037084983           12 
 4573000   0.52828767   -4.5629234    2098.5571  0.038241802  0.037075643           12 
 4574000   0.52536723   -4.5615076    2093.6147  0.038143395  0.037066345           30 
 4575000   0.52122423   -4.5731189    2091.8744  0.038103359  0.037057031           15 
 4576000   0.52723116   -4.5634213    2092.7846  0.038111607  0.037047725           38 
 4577000   0.52521843   -4.5634879    2095.1356  0.038146086  0.037038435           26 
 4578000   0.50525621   -4.5754675    2099.4354  0.038216023  0.037029178           23 
 4579000   0.51725083   -4.5479347    2095.4758  0.038135616  0.037019907           31 
 4580000   0.52448278    -4.563923    2101.8715  0.038243658  0.037010643           17 
 4581000   0.51530894   -4.5446083    2092.8859  0.038071854  0.037001346           17 
 4582000   0.51929279   -4.5618979    2097.3047  0.038143908  0.036992044            9 
 4583000   0.51511852   -4.5673013    2096.3804  0.038118779  0.036982735           10 
 4584000   0.52164157   -4.5579201    2095.7258  0.038098565  0.036973448           36 
 4585000   0.50462798   -4.5550263    2099.9998  0.038167935   0.03696417           13 
 4586000   0.51118427   -4.5672862    2097.6376  0.038116689   0.03695489            9 
 4587000   0.51068407   -4.5666616    2093.8479   0.03803953  0.036945604           14 
 4588000   0.51462245   -4.5410275    2097.6516  0.038100328  0.036936375           12 
 4589000   0.52420682   -4.5546774    2095.2679  0.038048737  0.036927118           15 
 4590000   0.52364007   -4.5754802    2091.7447  0.037976483  0.036917858           26 
 4591000   0.51267631   -4.5610533    2099.6079   0.03811094  0.036908598           14 
 4592000   0.51380921   -4.5590303    2096.0613  0.038038279  0.036899341           26 
 4593000   0.50439405   -4.5542087    2098.0618  0.038066293  0.036890108           23 
 4594000   0.50568155   -4.5653342    2096.5322   0.03803026  0.036880894           24 
 4595000    0.5286892   -4.5596064    2098.2022   0.03805227  0.036871672           14 
 4596000   0.51484666   -4.5769698    2094.9479  0.037984985  0.036862423           34 
 4597000   0.51947162   -4.5715561    2095.5473  0.037987589  0.036853165           13 
 4598000   0.50592487   -4.5575358    2098.8954  0.038040006  0.036843963           25 
 4599000   0.52771423   -4.5569043    2095.6491  0.037972912   0.03683479           14 
 4600000   0.51013417   -4.5753511    2096.7337  0.037984306  0.036825588           17 
 4601000   0.50788462   -4.5742541    2097.8706  0.037996642   0.03681639           22 
 4602000   0.51494962   -4.5657875    2098.2682  0.037995585  0.036807187           24 
 4603000   0.50733864   -4.5652591    2101.3651  0.038043397  0.036797964           45 
 4604000   0.50372038    -4.581166    2094.6218   0.03791308  0.036788727           20 
 4605000   0.51322317   -4.5779628    2093.1678  0.037878535  0.036779485           22 
 4606000   0.51794081   -4.5654554    2099.7278  0.037988997  0.036770241            9 
 4607000   0.51903138   -4.5812677    2095.3775   0.03790206  0.036761023           20 
 4608000   0.51298612   -4.5948907    2092.3831  0.037839683  0.036751784           38 
 4609000   0.52061416   -4.5624877     2096.481  0.037905566  0.036742554           10 
 4610000   0.52024573   -4.5888912    2093.1746  0.037837575  0.036733338           11 
 4611000   0.50977068   -4.5598653    2099.0226  0.037935057  0.036724125           18 
 4612000   0.51893092   -4.5858751    2094.0992  0.037837873  0.036714862           11 
 4613000   0.51878629   -4.5843442    2098.4678  0.037908588  0.036705664           16 
 4614000    0.5153824   -4.5491178    2098.0024  0.037891966  0.036696452           25 
 4615000   0.51697846   -4.5864847    2094.3559   0.03781791  0.036687255           12 
 4616000   0.50220076   -4.5904731    2099.1096  0.037895537  0.036678045           23 
 4617000   0.50695204   -4.5626673    2098.7354  0.037880575  0.036668868           19 
 4618000   0.50747249    -4.587789    2095.1789  0.037808194   0.03665968           26 
 4619000   0.49782849   -4.5770497    2096.7439  0.037828244  0.036650486           19 
 4620000   0.52317631   -4.5834955     2101.489  0.037905647  0.036641278           14 
 4621000    0.5176791   -4.5872771    2091.4309  0.037716059  0.036632077            8 
 4622000   0.50062138   -4.5924343    2098.4679  0.037834773  0.036622869           36 
 4623000   0.52132196   -4.5668806    2096.4761  0.037790685  0.036613649           18 
 4624000   0.51025343   -4.5731284    2093.1087  0.037721827  0.036604411           18 
 4625000   0.51251601   -4.5827752    2097.9119  0.037800214  0.036595234           17 
 4626000   0.50467472   -4.5727203    2100.4406  0.037837596  0.036586079           20 
 4627000    0.5131144   -4.5683447    2098.1664  0.037788459  0.036576932           24 
 4628000    0.5257278    -4.586036    2095.4511  0.037731401  0.036567775           12 
 4629000    0.5166319   -4.5729278    2101.5303   0.03783269  0.036558634           30 
 4630000   0.50497142   -4.5780564    2094.1119  0.037690999  0.036549483            9 
 4631000   0.51280895     -4.58413    2094.9169  0.037697346  0.036540324            7 
 4632000   0.50723669   -4.5756629    2097.2128  0.037730513  0.036531196           34 
 4633000   0.50621209   -4.5838085    2099.0408  0.037755248  0.036522018           10 
 4634000   0.51605089   -4.5831553      2098.39  0.037735397  0.036512839           14 
 4635000   0.50354708   -4.5998261    2097.1749   0.03770541  0.036503665           74 
 4636000   0.52134934   -4.5704171    2098.8555  0.037727485  0.036494499           17 
 4637000   0.50625791   -4.5558063    2100.8037  0.037754362  0.036485393           12 
 4638000   0.50227176   -4.5798631    2098.8558  0.037711222  0.036476289           41 
 4639000   0.49598789   -4.5808122    2097.0867  0.037671314  0.036467141           43 
 4640000   0.52239104    -4.572876    2099.3967  0.037704681  0.036458029           58 
 4641000   0.51125449   -4.5833676     2094.888  0.037615599  0.036448888           20 
 4642000   0.49754372   -4.5861548    2093.0946  0.037575301  0.036439744           26 
 4643000    0.5013103    -4.579828    2100.6339  0.037702525  0.036430585           22 
 4644000   0.51484141   -4.5682357    2096.5232  0.037620643  0.036421454           19 
 4645000   0.50938883   -4.5768387     2095.824       0.0376  0.036412318           27 
 4646000   0.52080489    -4.569258    2101.0742  0.037686077  0.036403214           14 
 4647000   0.52099822   -4.5860873    2101.9226  0.037693182  0.036394143           23 
 4648000   0.50877621   -4.5766978    2098.2233  0.037618749  0.036385077           12 
 4649000   0.49602869   -4.5664498    2099.9912  0.037642345  0.036376023            7 
 4650000   0.50247723   -4.5670015    2096.7215  0.037575655   0.03636695           33 
 4651000   0.49928383   -4.5807795    2094.8942  0.037534835  0.036357845           13 
 4652000   0.49342582   -4.5970394    2099.7957  0.037614569  0.036348753           19 
 4653000   0.50687878   -4.5741335    2100.1781  0.037613335  0.036339656           30 
 4654000   0.50980293   -4.5803262    2101.4957  0.037628844  0.036330598           13 
 4655000   0.50476301   -4.5885906    2098.3814  0.037565009  0.036321515           24 
 4656000   0.50023503   -4.5654481    2102.4095  0.037629037  0.036312422           21 
 4657000   0.51409509   -4.5743946    2098.2385   0.03754632  0.036303317           12 
 4658000   0.50408313      -4.5859    2100.7712  0.037583569  0.036294243           18 
 4659000   0.51373834   -4.5744044    2098.6855  0.037538197  0.036285182           18 
 4660000   0.50140967   -4.5916977    2101.9094  0.037587794   0.03627611           16 
 4661000   0.51613614    -4.581596    2101.5538  0.037573371  0.036267029           35 
 4662000   0.51199376   -4.5873829    2103.8578  0.037606495  0.036257974            7 
 4663000   0.50947597   -4.5915629    2095.7212  0.037453019  0.036248893           11 
 4664000   0.50454775    -4.597685    2096.2518   0.03745447  0.036239809           16 
 4665000    0.5022059   -4.5784674    2101.0736  0.037532576  0.036230725           17 
 4666000   0.50226879   -4.5907659    2096.4638  0.037442203  0.036221621           14 
 4667000   0.50424455   -4.5961962    2101.6462  0.037526717  0.036212522           24 
 4668000   0.50605103   -4.5836548    2096.5301  0.037427345  0.036203443           21 
 4669000   0.51180638   -4.5749678    2101.6157  0.037510097    0.0361944           22 
 4670000   0.49981126   -4.6003175    2095.4828  0.037392626  0.036185328           19 
 4671000   0.50197578    -4.581896     2096.643  0.037405319  0.036176203           14 
 4672000   0.49632715   -4.6051276    2093.9182  0.037348713  0.036167102            8 
 4673000   0.50404313   -4.5790134    2099.6371  0.037442704  0.036158018           11 
 4674000   0.50336157   -4.6043837    2090.9428  0.037279682  0.036148928           24 
 4675000    0.5030388    -4.598258    2096.7714  0.037375604  0.036139831           13 
 4676000   0.49973229   -4.5737422     2101.047  0.037443809  0.036130762           20 
 4677000   0.49497713   -4.5735882    2098.8762  0.037397124  0.036121678           30 
 4678000   0.49824868   -4.6031337    2098.3596  0.037379927  0.036112634           35 
 4679000   0.50949695   -4.5870648     2099.894  0.037399267  0.036103556           14 
 4680000   0.49517503   -4.5964515    2098.0917  0.037359183  0.036094473            9 
 4681000   0.50771235   -4.5868999    2095.2458  0.037300538  0.036085378           13 
 4682000   0.50037292   -4.6121645    2097.7906  0.037337864  0.036076296           12 
 4683000   0.50587648   -4.6135864    2097.6097  0.037326672  0.036067206           29 
 4684000   0.51194176   -4.6111755    2091.6069  0.037211907  0.036058124           29 
 4685000   0.49467906   -4.5931218    2097.1928  0.037303322  0.036049035           13 
 4686000    0.5134283   -4.5814378    2097.4436  0.037299822  0.036039985           18 
 4687000   0.50272999   -4.5941063    2099.8956   0.03733546  0.036030939           17 
 4688000   0.49435832   -4.5904939     2099.582  0.037321921  0.036021907           26 
 4689000   0.50499263   -4.6016667    2096.7249  0.037263185  0.036012841           65 
 4690000   0.51078685   -4.5922867    2094.8352  0.037221662  0.036003791           18 
 4691000   0.49385408   -4.5904237    2095.6903  0.037228919  0.035994715           37 
 4692000   0.50864448   -4.5954491    2091.0178  0.037137997  0.035985661           25 
 4693000   0.50218391   -4.6096045    2094.0601  0.037184106  0.035976575           46 
 4694000   0.49866467   -4.6028501    2093.9801  0.037174764  0.035967466           82 
 4695000   0.50498261    -4.601358    2092.8353  0.037146526  0.035958359           53 
 4696000   0.51550583   -4.6073412    2098.1527  0.037232977  0.035949258           50 
 4697000    0.4942885   -4.6166567    2095.1507  0.037171788  0.035940171           16 
 4698000   0.49231876   -4.5954162    2098.2318   0.03721853  0.035931073           15 
 4699000   0.49722836   -4.6149543    2095.7201  0.037166066  0.035922008           13 
 4700000   0.50617921   -4.6043398    2092.3065  0.037097632  0.035912917           14 
 4701000   0.49953872   -4.6036854    2096.8031  0.037169452  0.035903838           10 
 4702000   0.50108432   -4.6025754    2095.6161  0.037140509   0.03589475           17 
 4703000   0.49476475   -4.6067423    2093.9226  0.037102604  0.035885641           20 
 4704000   0.50155724   -4.6202939    2096.5342  0.037140984   0.03587655           47 
 4705000   0.49622556   -4.5919593    2094.6322  0.037099401  0.035867429           44 
 4706000   0.48788947   -4.6091035    2100.4746  0.037194975  0.035858357           37 
 4707000   0.50921781   -4.6095547    2099.8516  0.037176043  0.035849268           23 
 4708000   0.49894886   -4.6021785    2089.0261  0.036976531  0.035840194           37 
 4709000   0.50193654   -4.6013058     2097.753  0.037123115  0.035831104           21 
 4710000    0.4981252   -4.5967092     2095.541  0.037076096  0.035822024           31 
 4711000   0.49648689   -4.6075523    2101.4342  0.037172472  0.035812951           13 
 4712000   0.49785087   -4.6083982    2099.7883  0.037135475  0.035803891           10 
 4713000   0.50699294   -4.6138579    2094.5565   0.03703509  0.035794821           11 
 4714000   0.49274141   -4.5852688    2097.9687  0.037087553  0.035785783           14 
 4715000   0.49446269   -4.6044768    2098.5134  0.037089314   0.03577674           13 
 4716000   0.49569362   -4.6023915    2094.1626   0.03700457  0.035767726           48 
 4717000   0.49586762   -4.6056961    2099.8792  0.037097718  0.035758714           13 
 4718000    0.4968976   -4.6032813    2099.3367  0.037080272  0.035749701           12 
 4719000    0.4943752   -4.5998356    2099.4018  0.037073564  0.035740682           41 
 4720000   0.49976742   -4.6167221    2097.4934  0.037032017   0.03573166           12 
 4721000    0.4971582   -4.6145974    2096.1568   0.03700058  0.035722593           18 
 4722000   0.49578688   -4.6035396    2097.2959  0.037012846  0.035713555           21 
 4723000   0.49373805   -4.6120931    2100.4685  0.037060987  0.035704527           14 
 4724000   0.49689207   -4.6153805    2094.5655   0.03694901  0.035695507           35 
 4725000   0.48831036   -4.6007504     2101.653   0.03706619  0.035686486           51 
 4726000   0.49174339   -4.6077044    2095.7631  0.036954491  0.035677504            8 
 4727000   0.49791294   -4.5981861    2092.5633  0.036890263  0.035668489           33 
 4728000   0.49160077   -4.6132973    2093.5467  0.036899794  0.035659466           28 
 4729000   0.49914306   -4.6148478    2097.6158  0.036963696  0.035650438           59 
 4730000   0.49629386   -4.6127541    2095.4754  0.036918171  0.035641435           22 
 4731000   0.49357331   -4.6265248    2096.0938   0.03692126  0.035632413           39 
 4732000   0.47496286   -4.6244353     2095.551  0.036903898  0.035623381           16 
 4733000   0.49417079    -4.624548    2092.8611  0.036848741  0.035614308           18 
 4734000   0.49258897   -4.6286498    2095.2357  0.036882758  0.035605222           25 
 4735000   0.49324676   -4.6026912    2100.6537  0.036970323  0.035596189           27 
 4736000   0.49837493   -4.6106166    2095.3483  0.036869163  0.035587129           24 
 4737000   0.49080532   -4.6365866    2094.1557    0.0368404  0.035578059           24 
 4738000   0.49417052   -4.6149985    2095.5455  0.036857069  0.035568986           51 
 4739000   0.49246789   -4.6045887    2091.6873  0.036781447  0.035559916           23 
 4740000   0.48890825   -4.6398532    2096.8677  0.036864762  0.035550843           14 
 4741000   0.49050023   -4.6227788    2087.2907  0.036688651  0.035541739           23 
 4742000   0.48792012   -4.5995686    2091.5592  0.036755926   0.03553268           40 
 4743000     0.484088    -4.627748    2091.2398  0.036742565  0.035523601           33 
 4744000   0.49031654   -4.6091956    2093.6418  0.036777013  0.035514541           36 
 4745000   0.48774754   -4.6029129    2097.5173  0.036837326  0.035505515           10 
 4746000     0.486905   -4.6167557    2097.5563  0.036830247  0.035496489           38 
 4747000   0.49408421   -4.6353336     2090.307  0.036695228   0.03548744           23 
 4748000     0.487275   -4.6145892    2097.0616  0.036806051  0.035478388           28 
 4749000   0.48621909   -4.6307573    2091.6498  0.036703337  0.035469333           20 
 4750000   0.49425537   -4.6201485    2093.4559  0.036727296   0.03546029           20 
 4751000   0.48481781   -4.6160063    2088.2514  0.036628279  0.035451251           13 
 4752000   0.48383566   -4.6179683    2091.8565  0.036683792  0.035442193           28 
 4753000   0.49987396   -4.6324161     2093.465  0.036704274  0.035433171           27 
 4754000   0.48666752   -4.6346714    2091.6447  0.036664646  0.035424109           30 
 4755000   0.48410102   -4.6423706    2091.4262  0.036653106  0.035415083           11 
 4756000   0.49671882    -4.632222    2091.9571  0.036654701  0.035406049           24 
 4757000   0.48512538    -4.625632    2093.4532  0.036673205  0.035397013           18 
 4758000   0.49318281     -4.62852    2094.1486  0.036677676  0.035387968           38 
 4759000   0.48788489   -4.6249665    2093.1932   0.03665324  0.035378923           14 
 4760000   0.48291017   -4.6101699    2093.6527  0.036653584   0.03536991            8 
 4761000   0.49531455   -4.6233914    2092.2577  0.036621468  0.035360925           12 
 4762000   0.48388247   -4.6294167    2094.5459  0.036653819   0.03535193           31 
 4763000   0.49389218    -4.626564    2090.3501  0.036572715  0.035342913           24 
 4764000   0.48350753   -4.6249009    2094.8773  0.036644229  0.035333893           61 
 4765000   0.47728888   -4.6237712    2096.0456  0.036656971  0.035324888           15 
 4766000   0.49362794   -4.6315058     2091.945  0.036577581  0.035315877           35 
 4767000   0.49418717   -4.6307118    2089.3864  0.036525179  0.035306855           27 
 4768000   0.49790541   -4.6100286    2093.7714   0.03659416  0.035297854           20 
 4769000   0.48596913   -4.6048628    2095.1514  0.036610599   0.03528887           16 
 4770000   0.49597486   -4.6235271    2091.8425  0.036545118  0.035279878           19 
 4771000   0.48749755    -4.630485    2093.8046  0.036571728  0.035270855           21 
 4772000   0.48765194   -4.6246466    2092.2335  0.036536629  0.035261837           57 
 4773000   0.47781653   -4.6266999    2095.1561  0.036580001   0.03525285           18 
 4774000   0.48283603   -4.6339035     2091.242  0.036504014  0.035243837           27 
 4775000   0.48442663   -4.6174364    2092.4552  0.036517544   0.03523484           26 
 4776000   0.48472964   -4.6268719    2089.7079  0.036461961  0.035225807           46 
 4777000   0.48624466   -4.6275676    2093.8522  0.036526624  0.035216763           50 
 4778000   0.48927841    -4.631508    2098.0122  0.036591535  0.035207749           18 
 4779000   0.48933895   -4.6267058    2091.7948  0.036475462   0.03519874           33 
 4780000   0.48578558   -4.6284928    2095.1753  0.036526766   0.03518975           24 
 4781000   0.49065959   -4.6444479    2089.8135  0.036425669  0.035180741           21 
 4782000   0.47818764   -4.6347907    2088.7476  0.036399478  0.035171722           40 
 4783000   0.49699892   -4.6296433    2094.0133   0.03648361  0.035162719           25 
 4784000   0.48396589   -4.6224701    2088.4276  0.036378686  0.035153727           34 
 4785000   0.48784562    -4.626475    2094.8326  0.036482629  0.035144738           28 
 4786000   0.48646916   -4.6294285    2093.5516  0.036452702  0.035135761           21 
 4787000   0.48545022   -4.6326759    2095.0999   0.03647204  0.035126789           33 
 4788000   0.49244673   -4.6288537    2093.7626  0.036441148  0.035117826           22 
 4789000   0.48514141   -4.6380333    2091.7366  0.036398283  0.035108857           37 
 4790000   0.48563339   -4.6420574    2086.4471  0.036298662  0.035099881           23 
 4791000   0.48243944   -4.6402231    2092.4951  0.036396284   0.03509089           34 
 4792000   0.48742998   -4.6406578    2094.8166  0.036429059  0.035081909           43 
 4793000   0.48290915   -4.6345937    2091.8315  0.036369557  0.035072935           55 
 4794000   0.47799884    -4.621899    2090.9083  0.036345924  0.035063985           27 
 4795000   0.48648876   -4.6384261    2097.4468  0.036451979  0.035055056           42 
 4796000   0.48439948   -4.6248676    2094.8944  0.036400028  0.035046129           67 
 4797000   0.47906054   -4.6368159    2094.6498  0.036388191  0.035037215           28 
 4798000   0.47810509   -4.6282767    2096.7522  0.036417121  0.035028297           55 
 4799000   0.48824554    -4.622173     2090.398  0.036299194  0.035019375           35 
 4800000   0.48942327   -4.6346515    2094.0453  0.036354953  0.035010445           37 
 4801000   0.48745579   -4.6291445    2090.3075  0.036282501  0.035001511           63 
 4802000   0.47907487   -4.6292991    2095.5135  0.036365291  0.034992583           42 
 4803000   0.47925971   -4.6432318    2093.7676  0.036327428  0.034983666           17 
 4804000   0.48975449   -4.6426187    2091.4568   0.03627978   0.03497473           29 
 4805000   0.47901599     -4.63364    2089.9513   0.03624612  0.034965786           25 
 4806000   0.48067902   -4.6407112    2097.7259  0.036373386  0.034956867           28 
 4807000   0.48892355   -4.6453814    2091.9843  0.036266284  0.034947946           23 
 4808000   0.48227956   -4.6366878    2093.1503  0.036278951  0.034939024           24 
 4809000   0.49043437   -4.6196163    2093.3077  0.036274134  0.034930125           25 
 4810000    0.4869747   -4.6397582    2095.6365  0.036306939  0.034921228           58 
 4811000   0.49438529   -4.6438544    2092.6275  0.036247273  0.034912285           67 
 4812000   0.48815645   -4.6390507    2092.7897  0.036242548  0.034903341           45 
 4813000   0.47139859    -4.621709    2097.0122  0.036308128  0.034894415           71 
 4814000    0.4775388   -4.6431684     2090.414  0.036186366  0.034885509           33 
 4815000   0.48784555   -4.6551673    2091.5725  0.036198901  0.034876588           33 
 4816000   0.46697084   -4.6368233    2091.8316  0.036195868  0.034867677           15 
 4817000   0.48594018   -4.6381285    2092.6111  0.036201839  0.034858772           17 
 4818000   0.48841732   -4.6445306    2091.1772  0.036169523  0.034849843           14 
 4819000    0.4882896   -4.6465196    2087.8858  0.036105101   0.03484093           17 
 4820000   0.49170327   -4.6430729    2091.6899   0.03616338  0.034832014           38 
 4821000   0.47832368   -4.6376118    2094.7852  0.036209382   0.03482309           25 
 4822000   0.47586137   -4.6370176    2094.5979  0.036198636  0.034814184           29 
 4823000   0.47608585   -4.6432317     2094.986  0.036197837  0.034805304           10 
 4824000   0.47131018   -4.6241725    2093.7696   0.03616932  0.034796412           22 
 4825000   0.48912048    -4.644465    2088.8394  0.036076673  0.034787512           21 
 4826000   0.47508977   -4.6310142    2090.9237  0.036105189   0.03477859           10 
 4827000   0.47305712   -4.6377768    2095.8596  0.036182923  0.034769682           13 
 4828000   0.49409817    -4.647102    2091.9419  0.036107806  0.034760797           12 
 4829000   0.48166838   -4.6318116    2090.0422  0.036067546   0.03475189           17 
 4830000   0.48353188   -4.6512157    2097.1635  0.036182945   0.03474299           23 
 4831000   0.46914726   -4.6341522    2092.4117  0.036093488  0.034734071           29 
 4832000   0.47056369   -4.6574929    2094.5347  0.036122633   0.03472516           34 
 4833000   0.47971557   -4.6356159    2092.3479  0.036077451  0.034716298           23 
 4834000   0.48723226   -4.6389622    2093.1017  0.036082983  0.034707411           26 
 4835000   0.48046398   -4.6480632    2094.3914  0.036097749  0.034698541           19 
 4836000   0.47287943    -4.632824    2097.0872  0.036136738  0.034689706           56 
 4837000   0.47816365   -4.6438396    2093.5763  0.036068781  0.034680836           47 
 4838000   0.47997335   -4.6485719    2089.8477  0.035997101  0.034671954           17 
 4839000   0.48336856   -4.6507545    2095.1861  0.036081597  0.034663069           11 
 4840000   0.48110662   -4.6425518     2090.813  0.035998847   0.03465418           16 
 4841000   0.47093167   -4.6517256    2098.1379  0.036117502  0.034645301           19 
 4842000   0.46218792   -4.6240813     2092.309  0.036009723  0.034636448           21 
 4843000   0.48232673   -4.6456414     2091.747  0.035992618  0.034627603           33 
 4844000   0.47799947   -4.6412592    2087.9087  0.035919156  0.034618745           18 
 4845000   0.47959566   -4.6319716     2095.694  0.036045648  0.034609881           59 
 4846000   0.47304526   -4.6481454    2093.3314  0.035997582  0.034601036           25 
 4847000   0.46958494   -4.6487149    2095.6753  0.036030453  0.034592172           24 
 4848000   0.47082203   -4.6588058    2089.8988  0.035923728  0.034583302           23 
 4849000   0.47958103   -4.6558752    2093.4938  0.035978103  0.034574423           20 
 4850000   0.47926614   -4.6712769    2091.9619  0.035944363  0.034565534           69 
 4851000   0.47332934   -4.6756615    2086.8701  0.035849483  0.034556629           48 
 4852000   0.47267745   -4.6594089     2091.838  0.035927419  0.034547754           45 
 4853000   0.48725317   -4.6769144    2088.8937  0.035869456  0.034538876           18 
 4854000   0.46537364   -4.6465293    2088.6879  0.035858534  0.034530001           30 
 4855000   0.47398371   -4.6738765    2086.9882  0.035821974  0.034521109           10 
 4856000   0.46952346   -4.6267686    2090.1989  0.035869695  0.034512226           24 
 4857000   0.46984018   -4.6489706     2092.615  0.035903765   0.03450337           11 
 4858000   0.48574652   -4.6543182    2093.0249  0.035903405  0.034494477           23 
 4859000   0.46623077   -4.6460935    2094.9584  0.035929176  0.034485603           38 
 4860000   0.47733144   -4.6783347    2088.3877  0.035809117  0.034476726           51 
 4861000   0.47603167   -4.6666704    2090.8413  0.035843813  0.034467854           31 
 4862000   0.48167953   -4.6434218    2091.6746  0.035850724  0.034458981           21 
 4863000    0.4832221   -4.6544844    2088.6754  0.035791957  0.034450129           19 
 4864000   0.48379757   -4.6576146    2094.9598  0.035892267  0.034441283           38 
 4865000   0.47456053   -4.6440789    2092.5854  0.035844217  0.034432463           27 
 4866000   0.47578797   -4.6584531    2091.4032  0.035816605  0.034423638           87 
 4867000   0.48725589   -4.6346391    2095.0438  0.035871581  0.034414825           27 
 4868000   0.47011977   -4.6528225    2093.6297  0.035840005  0.034405995           29 
 4869000   0.46884334   -4.6646209    2087.4442  0.035726779  0.034397157           30 
 4870000    0.4792318   -4.6617916    2092.1075  0.035799238  0.034388305           20 
 4871000   0.46530375   -4.6609681    2089.3185  0.035744174  0.034379492           29 
 4872000   0.47400873   -4.6606334    2095.1319  0.035836274  0.034370634           24 
 4873000   0.48064155   -4.6674978    2092.8873  0.035790535  0.034361801           42 
 4874000    0.4701651   -4.6664252    2089.4459  0.035724352  0.034352978           28 
 4875000   0.46207055   -4.6636215    2090.5057  0.035735141  0.034344126           32 
 4876000   0.46353233   -4.6623176    2092.0297  0.035753858  0.034335277           23 
 4877000   0.46839911   -4.6490098    2090.4138  0.035718915  0.034326441           15 
 4878000   0.46502634    -4.660575    2091.0395  0.035722281  0.034317597           16 
 4879000   0.47918211     -4.66075    2090.8579  0.035711859  0.034308744           23 
 4880000   0.46994966   -4.6717121    2088.0299  0.035656249  0.034299897           14 
 4881000   0.47719977   -4.6531194    2092.1843  0.035719872  0.034291056           16 
 4882000   0.47169224    -4.651083    2094.2461  0.035747749  0.034282254            9 
 4883000   0.46685062   -4.6631461    2091.3561  0.035691107  0.034273438           20 
 4884000   0.46490074   -4.6318481    2095.1562  0.035748639  0.034264619           14 
 4885000   0.46929823   -4.6663803    2092.8986  0.035702808  0.034255781            8 
 4886000   0.47918991   -4.6690674    2088.5795  0.035621836  0.034246943           15 
 4887000   0.46603809   -4.6596359    2086.5171  0.035579378  0.034238136           22 
 4888000    0.4796965   -4.6661829    2089.8357  0.035628678    0.0342293           17 
 4889000   0.46971546   -4.6566834    2092.2177  0.035661991  0.034220471           20 
 4890000   0.46668892   -4.6401253     2087.071  0.035566991  0.034211646           15 
 4891000   0.47098518   -4.6910998    2083.8204  0.035504335  0.034202799           28 
 4892000   0.46761028   -4.6570675    2092.1888   0.03563963  0.034193953           15 
 4893000   0.46355886   -4.6710337    2085.7176  0.035522134  0.034185122           31 
 4894000   0.46982843   -4.6548529    2088.6414  0.035564661   0.03417632           31 
 4895000    0.4683576   -4.6689007    2090.5715  0.035590253  0.034167495           21 
 4896000   0.47700126   -4.6585226    2091.8759  0.035605186  0.034158657           17 
 4897000    0.4729274   -4.6600555    2089.8474  0.035563397  0.034149835           17 
 4898000   0.47359173   -4.6524929    2088.1699  0.035527595  0.034141043           28 
 4899000   0.46592029   -4.6553392    2088.4208   0.03552461  0.034132247           22 
 4900000    0.4634738   -4.6600562    2093.6303  0.035605957  0.034123463           24 
 4901000   0.46341297   -4.6817493    2084.9665   0.03545138  0.034114639           21 
 4902000    0.4736081   -4.6560668    2087.0214  0.035479081  0.034105803           44 
 4903000   0.46994184   -4.6826314     2086.296  0.035459514  0.034096977           17 
 4904000    0.4804038   -4.6640749    2090.4699  0.035523211  0.034088155           21 
 4905000   0.46290442   -4.6597172     2091.037  0.035525603  0.034079345           22 
 4906000   0.46349937   -4.6536674     2089.215  0.035487413  0.034070531           28 
 4907000   0.46159132   -4.6499543      2088.55  0.035468887  0.034061738           21 
 4908000   0.46844983   -4.6599789    2090.6843  0.035497899  0.034052953           15 
 4909000   0.46116009   -4.6625801    2086.0176  0.035411449  0.034044179           38 
 4910000   0.46833688   -4.6585857    2087.4597  0.035428711  0.034035396           20 
 4911000   0.46144398    -4.669076    2086.0608  0.035397761  0.034026597           26 
 4912000    0.4637326    -4.663172    2087.3961  0.035413207  0.034017786           25 
 4913000   0.46524612    -4.661083    2085.0309  0.035365882   0.03400897           25 
 4914000   0.47127553   -4.6857784    2088.8592  0.035423606  0.034000158           47 
 4915000   0.45722108   -4.6718082    2091.2216  0.035456453  0.033991352           17 
 4916000   0.46352877   -4.6785452    2083.1149   0.03531182  0.033982549           29 
 4917000   0.46901158   -4.6703567    2085.5706  0.035346258  0.033973738           50 
 4918000   0.47744054   -4.6653895    2085.6919  0.035341127  0.033964917           36 
 4919000   0.46680719   -4.6852232    2088.3196  0.035378457  0.033956116           28 
 4920000   0.46454066   -4.6773203    2089.7395  0.035395317  0.033947315           20 
 4921000   0.45954428   -4.6585575    2090.0186   0.03539285  0.033938514           19 
 4922000   0.46391052   -4.6828612    2088.1855  0.035354624  0.033929711           32 
 4923000   0.46386826   -4.6614409    2086.7134  0.035322524  0.033920898           37 
 4924000   0.46623165   -4.6784296    2088.7841  0.035350394  0.033912076           25 
 4925000   0.46491467   -4.6852235    2086.2038  0.035299558  0.033903255           64 
 4926000   0.47538665   -4.7000076     2091.184  0.035376642  0.033894441           41 
 4927000   0.47550125    -4.675119    2082.4327  0.035221446  0.033885642           19 
 4928000   0.46438593    -4.699503    2085.7192  0.035269873  0.033876833           35 
 4929000   0.45741088   -4.6727917    2088.1824  0.035304362   0.03386803           74 
 4930000   0.46589123   -4.6829062    2086.7741  0.035273396  0.033859232           28 
 4931000    0.4595102   -4.6763142    2089.1283  0.035306028   0.03385042           34 
 4932000   0.47555263   -4.6621821    2087.7926    0.0352763  0.033841636           34 
 4933000   0.45713694   -4.6883085    2085.0573  0.035222942  0.033832833           87 
 4934000   0.47325146   -4.6934446    2082.6847  0.035175731  0.033824032           19 
 4935000   0.46296068    -4.682384      2089.33  0.035280818   0.03381521           30 
 4936000   0.46641217   -4.6916152    2087.1289  0.035236509  0.033806414           29 
 4937000   0.46070234   -4.6774721    2084.6743   0.03518794  0.033797626           47 
 4938000    0.4586766   -4.6948822    2086.8688  0.035217848  0.033788831           28 
 4939000   0.46249119   -4.6762609    2084.2486  0.035166508  0.033780013           37 
 4940000   0.45298908   -4.6905582     2085.529  0.035180989  0.033771205           22 
 4941000   0.47577468   -4.6945436     2084.655  0.035159128  0.033762415           24 
 4942000   0.45324544   -4.6824457    2091.2313  0.035262904  0.033753643           76 
 4943000   0.45875342   -4.6943738    2086.7206  0.035179725  0.033744873           29 
 4944000   0.45347707    -4.701682    2085.1206  0.035145641  0.033736092           77 
 4945000    0.4587829   -4.6863812    2083.0205  0.035103143  0.033727313           58 
 4946000   0.45779993   -4.6825762    2089.4994  0.035205205  0.033718548           90 
 4947000   0.46012529   -4.6869005    2080.8774   0.03505285  0.033709757           80 
 4948000   0.46680996   -4.6861729    2087.1613  0.035151598  0.033700962           41 
 4949000   0.47063938   -4.6965801     2083.919    0.0350899  0.033692173           54 
 4950000   0.45877796   -4.6993593    2084.3443  0.035089972  0.033683368           79 
 4951000   0.45882245   -4.6918619    2080.3763  0.035016096  0.033674566           50 
 4952000   0.46500327   -4.6812425    2087.7435  0.035133002  0.033665795           85 
 4953000   0.46495963   -4.6728647    2087.1737  0.035116321  0.033657022           89 
 4954000   0.45939595   -4.6967415     2085.126  0.035074788   0.03364825           47 
 4955000   0.46779216   -4.6937327    2082.0106  0.035015314  0.033639451           52 
 4956000   0.47102302   -4.6934858      2083.91  0.035040187  0.033630669           64 
 4957000   0.46663016   -4.6842261    2085.7223  0.035063586  0.033621877           56 
 4958000   0.45444299   -4.6960446    2082.0409  0.034994636  0.033613078           88 
 4959000   0.45473679    -4.685211    2082.4678  0.034994753  0.033604293           50 
 4960000   0.44818148   -4.6976269      2084.53  0.035022345    0.0335955           40 
 4961000   0.46742192   -4.6729463    2085.6368  0.035033878  0.033586733           57 
 4962000   0.46001446   -4.7007614    2083.5067  0.034991044  0.033577965          107 
 4963000   0.44943446   -4.6816977    2080.1759  0.034928066  0.033569195           46 
 4964000    0.4563135   -4.6884622    2085.6401  0.035012761  0.033560434           78 
 4965000   0.47208295   -4.6854882    2087.5684  0.035038073  0.033551659           89 
 4966000   0.45222726   -4.6819513    2084.1012  0.034972836  0.033542928           48 
 4967000   0.46082834   -4.6974301    2082.6644  0.034941688  0.033534179           36 
 4968000   0.46042698   -4.6876782    2085.7348  0.034986159  0.033525414           60 
 4969000    0.4510158   -4.6736965    2087.2322   0.03500423  0.033516672           47 
 4970000   0.45314727   -4.7160555    2084.1003  0.034944673  0.033507931           64 
 4971000    0.4522483   -4.6982252    2077.8259  0.034832459  0.033499161           78 
 4972000   0.45333069   -4.6925545    2081.8936  0.034893631  0.033490376           26 
 4973000   0.45957811   -4.6974421    2086.3081  0.034960588  0.033481619           77 
 4974000   0.44924644   -4.7078345    2085.2943  0.034936575  0.033472853           52 
 4975000   0.46262845   -4.6990783    2086.5245   0.03495016  0.033464095           76 
 4976000     0.444113   -4.7192373    2088.0377  0.034968476  0.033455345           69 
 4977000   0.46242711   -4.6938614     2083.472  0.034885005  0.033446597          158 
 4978000   0.45809116   -4.7041277    2082.8026   0.03486679  0.033437839          117 
 4979000   0.45893134   -4.7159514    2085.3227  0.034901967  0.033429091           61 
 4980000   0.45508573    -4.697601    2084.6031  0.034882917   0.03342035           81 
 4981000   0.45447328    -4.705677    2089.2006  0.034952832   0.03341161           87 
 4982000   0.47505102   -4.7018526    2082.8302  0.034839257  0.033402858          138 
 4983000   0.46077649   -4.6957795    2080.3215  0.034790313  0.033394121          110 
 4984000   0.46044856   -4.6990942     2084.403  0.034851576  0.033385385          118 
 4985000   0.44780057   -4.7003057    2078.0708  0.034738729  0.033376623          136 
 4986000   0.45767822   -4.7092257    2085.1628  0.034850294  0.033367876          108 
 4987000   0.45214584   -4.7007715    2087.0619   0.03487504  0.033359136          135 
 4988000   0.45601752   -4.6977721    2083.0977  0.034801819  0.033350412          137 
 4989000   0.45464536   -4.7218296     2083.323  0.034798607  0.033341673          174 
 4990000   0.45899961   -4.7141632    2076.6205  0.034679702  0.033332928          220 
 4991000   0.45234628   -4.6971257    2080.3248  0.034734602  0.033324187          248 
 4992000   0.45125309   -4.6892591     2080.389  0.034728715  0.033315455          235 
 4993000   0.45905898   -4.7020446    2084.3209  0.034787384   0.03330673          174 
 4994000   0.44770044   -4.7083629    2083.6973  0.034770012  0.033297995          149 
 4995000   0.46028836    -4.734871    2080.0069  0.034701483  0.033289254          292 
 4996000   0.45428568   -4.7013625    2085.2137  0.034781386  0.033280531          293 
 4997000   0.46142687   -4.7082267    2082.6533  0.034731728  0.033271789          295 
 4998000   0.46241921   -4.6949541    2074.1344  0.034582739  0.033263031          270 
 4999000   0.45359009   -4.7102871    2080.6181  0.034683905  0.033254252          525 
 5000000   0.44753655   -4.7269755    2080.7617  0.034679361  0.033245485          497 
 5001000   0.45452162   -4.7182124    2075.1996  0.034579744  0.033236711          447 
 5002000   0.43804287   -4.7223406    2078.3696  0.034625644  0.033227926          356 
 5003000   0.44368448   -4.7140766    2078.7759  0.034625489  0.033219146          416 
 5004000   0.44970846   -4.7109661      2083.11  0.034690748  0.033210387          359 
 5005000   0.44812479   -4.6953585    2082.7076  0.034677116   0.03320162          362 
 5006000   0.45150833   -4.7283371    2080.6681  0.034636237  0.033192866          430 
 5007000   0.45462277   -4.7087919    2079.8687  0.034616015  0.033184113          487 
 5008000   0.45039687   -4.7091801    2082.0061  0.034644671  0.033175367          378 
 5009000   0.43675745    -4.716432    2080.3982  0.034611004  0.033166602          435 
 5010000   0.45025964   -4.7295295    2077.3504    0.0345534  0.033157842          422 
 5011000   0.45568162   -4.7184234     2080.725  0.034602624  0.033149078          447 
 5012000   0.44684668   -4.7019344    2080.6492   0.03459446  0.033140325          485 
Loop time of 12492.3 on 48 procs for 5000000 steps with 4000 atoms

Performance: 69162.444 tau/day, 400.246 timesteps/s
99.4% CPU use with 48 MPI tasks x no OpenMP threads

MPI task timing breakdown:
Section |  min time  |  avg time  |  max time  |%varavg| %total
---------------------------------------------------------------
Pair    | 845.2      | 915.72     | 986.15     | 109.3 |  7.33
Neigh   | 83.297     | 86.725     | 90.537     |  21.4 |  0.69
Comm    | 780.52     | 863.24     | 937.03     | 122.8 |  6.91
Output  | 69.818     | 69.824     | 69.912     |   0.2 |  0.56
Modify  | 10416      | 10442      | 10479      |  15.4 | 83.58
Other   |            | 115.3      |            |       |  0.92

Nlocal:        83.3333 ave          93 max          76 min
Histogram: 1 4 9 5 14 6 5 3 0 1
Nghost:        2264.67 ave        2288 max        2239 min
Histogram: 1 2 8 4 9 6 7 4 2 5
Neighs:        15210.8 ave       17420 max       13840 min
Histogram: 6 7 9 3 9 5 2 5 1 1
FullNghs:      30422.1 ave       33834 max       27388 min
Histogram: 1 3 5 10 9 8 5 6 0 1

Total # of neighbors = 1460261
Ave neighs/atom = 365.06525
Neighbor list builds = 270242
Dangerous builds = 0

#clear
#
#next RN
#
#jump SELF
Total wall time: 3:28:15
