
units lj                  # Use reduced LJ style units
atom_style atomic         # Uncharged point particles
atom_modify map hash      # Needed for indexing of clusters etc
                          # Used to be able to find where atoms are in relation to each other.

lattice fcc 1.0 spacing 1 1 1
Lattice spacing in x,y,z = 1.5874011 1.5874011 1.5874011
region box block 0 10 0 10 0 10 units lattice
create_box 2 box
Created orthogonal box = (0.0000000 0.0000000 0.0000000) to (15.874011 15.874011 15.874011)
  3 by 4 by 4 MPI processor grid
create_atoms 1 box
Created 4000 atoms
  using lattice units in orthogonal box = (0.0000000 0.0000000 0.0000000) to (15.874011 15.874011 15.874011)
  create_atoms CPU = 0.002 seconds
set type 1 type/fraction 2 0.29 78393
Setting atom values ...
  1200 settings made for type/fraction
mass 1 1.0
mass 2 1.0
pair_style lj/cut  3.5
pair_modify tail  yes
pair_coeff 1  1  1.0  1.0   # Intearaction between 1 and 1 set with epsilon = 1 and sigma = 1
pair_coeff 1  2  1.5  0.8
pair_coeff 2  2  0.5  0.88

write_data data.0
System init for write_data ...
Neighbor list info ...
  update every 1 steps, delay 10 steps, check yes
  max neighbors/atom: 2000, page size: 100000
  master list distance cutoff = 3.8
  ghost atom cutoff = 3.8
  binsize = 1.9, bins = 9 9 9
  1 neighbor lists, perpetual/occasional/extra = 1 0 0
  (1) pair lj/cut, perpetual
      attributes: half, newton on
      pair build: half/bin/atomonly/newton
      stencil: half/bin/3d
      bin: standard
WARNING: Not all mixed pair coeffs generated from mixing. Use write_data with 'pair ij' option to store all pair coeffs. (../write_data.cpp:312)


#############################
#   M E L T   S Y S T E M   #
#############################

velocity all create 2.4 1741580 mom yes dist gaussian # Assign velocities
                                                    # Temperature 2.4, random number seed, zero linear momentum
                                                                                # Gaussian distribution

timestep 0.002   # simulation timestep
thermo 1000       # output thermodynamic data every 1000 steps bf 100

# Define a fix  in this case with index 1 applied to all
# particles in the simulation. This fix is for simulations
# in the anisotropic NPT ensemble. Note that we use the MTK
# correction.
fix 1 all npt temp 2.4 2.4 0.1 iso 5.68 5.68 0.5 mtk yes tchain 5 pchain 5 # Use NPT ensemble
                                                                         # Set temperature and pressure and damping
                                                                         # Numbers of thermostats in chain and in barostat
run 10000          # run for 10000 steps
Per MPI rank memory allocation (min/avg/max) = 3.642 | 3.644 | 3.648 Mbytes
Step Temp E_pair E_mol TotEng Press Volume 
       0          2.4   -6.4756105            0   -2.8765105   -3.9602485         4000 
    1000     2.468397   -4.9548607            0   -1.2531909    5.6678105    4192.7435 
    2000    2.3853738   -4.9803894            0   -1.4032232    5.5842434    4181.0927 
    3000    2.4141675   -4.9461996            0   -1.3258536    5.6705891    4199.3433 
    4000    2.4298835   -4.9876209            0   -1.3437069      5.69904     4177.548 
    5000    2.4146918   -4.9810175            0   -1.3598853    5.7572829    4176.6609 
    6000    2.3391083   -4.9202061            0   -1.4124208    5.4975196    4214.9735 
    7000    2.3942646   -4.9606633            0   -1.3701642     5.544326    4198.7661 
    8000    2.3774719   -4.9857064            0     -1.42039    5.7275028    4159.0054 
    9000    2.4456386   -4.8980525            0   -1.2305117    5.7522562     4207.519 
   10000    2.3711178   -4.9808933            0   -1.4251058    5.7043092    4172.0705 
Loop time of 2.42273 on 48 procs for 10000 steps with 4000 atoms

Performance: 713244.029 tau/day, 4127.570 timesteps/s
99.6% CPU use with 48 MPI tasks x no OpenMP threads

MPI task timing breakdown:
Section |  min time  |  avg time  |  max time  |%varavg| %total
---------------------------------------------------------------
Pair    | 1.0519     | 1.1184     | 1.205      |   3.2 | 46.16
Neigh   | 0.20566    | 0.21416    | 0.23419    |   1.0 |  8.84
Comm    | 0.74764    | 0.82915    | 0.91025    |   4.0 | 34.22
Output  | 0.00025123 | 0.00025438 | 0.00032313 |   0.0 |  0.01
Modify  | 0.21357    | 0.24574    | 0.26582    |   3.1 | 10.14
Other   |            | 0.01502    |            |       |  0.62

Nlocal:        83.3333 ave          93 max          77 min
Histogram: 4 7 7 10 4 8 2 2 1 3
Nghost:        1597.44 ave        1627 max        1573 min
Histogram: 4 1 5 8 13 8 3 3 0 3
Neighs:        9149.19 ave       10574 max        8030 min
Histogram: 3 4 6 9 7 10 2 4 1 2

Total # of neighbors = 439161
Ave neighs/atom = 109.79025
Neighbor list builds = 913
Dangerous builds = 252

# Equilibrate just above the melting temperature to avoid step fn in T

fix 1 all npt temp 1.25 1.25 0.1 iso 5.68 5.68 0.5 mtk yes tchain 5 pchain 5
run 2000
Per MPI rank memory allocation (min/avg/max) = 3.643 | 3.645 | 3.649 Mbytes
Step Temp E_pair E_mol TotEng Press Volume 
   10000    2.3711178   -4.9808933            0   -1.4251058    5.7043092    4172.0705 
   11000    1.2299917   -6.8384512            0   -4.9939248    5.8460573    3351.2105 
   12000    1.2877164   -6.7909719            0   -4.8598801    5.3908245    3394.4543 
Loop time of 0.566461 on 48 procs for 2000 steps with 4000 atoms

Performance: 610103.456 tau/day, 3530.691 timesteps/s
99.6% CPU use with 48 MPI tasks x no OpenMP threads

MPI task timing breakdown:
Section |  min time  |  avg time  |  max time  |%varavg| %total
---------------------------------------------------------------
Pair    | 0.24628    | 0.27485    | 0.29187    |   1.9 | 48.52
Neigh   | 0.037278   | 0.0401     | 0.042084   |   0.5 |  7.08
Comm    | 0.18578    | 0.20108    | 0.22817    |   2.3 | 35.50
Output  | 5.1916e-05 | 5.3771e-05 | 6.6586e-05 |   0.0 |  0.01
Modify  | 0.042082   | 0.04562    | 0.051252   |   1.0 |  8.05
Other   |            | 0.004757   |            |       |  0.84

Nlocal:        83.3333 ave          90 max          75 min
Histogram: 1 0 3 7 11 6 7 3 6 4
Nghost:        1831.23 ave        1870 max        1796 min
Histogram: 1 2 9 7 8 9 4 6 1 1
Neighs:        11252.2 ave       12753 max        9573 min
Histogram: 1 1 3 4 11 12 10 2 2 2

Total # of neighbors = 540106
Ave neighs/atom = 135.02650
Neighbor list builds = 143
Dangerous builds = 7

#############################
# L I N E A R  Q U E N C H  #
#############################

# Define solid atoms. This closely follows ten Wolde  Ruiz-Montero and Frenkel  Faraday Discuss  1996  104  93-110
# Compute components of the per-atom q6 vector
compute q6 all orientorder/atom degrees 1 6 components 6 nnn NULL cutoff 1.3 # compute the Q6 parameter.
                                                                             # Use all neighbours within 1.3 unit cell.

# get number of connections
compute coord_number all coord/atom orientorder q6 0.5

# An atom is solid if it has 8 or more connections (of a possible 14)
variable is_solid atom c_coord_number>=8
group solid dynamic all var is_solid    # Must be dynamic to update
dynamic group solid defined

# do clustering
compute cluster solid cluster/atom 1.3 # Create a cluster where all atoms within are solid and max 1.3 units from another member

# define chunks one chunk per cluster
compute clus_chunks solid chunk/atom c_cluster nchunk every compress yes  # Says which atoms are in which chunk

# count the size of each chunk
compute size_chunks solid property/chunk clus_chunks count


# Find the maximum entry in the vector of chunk sizes
variable max_n equal max(c_size_chunks)


# Thermo style which includes this variable
# thermo_style custom step temp pe vol v_max_n

thermo ${N}  # Print the thermo information every 100 steps
thermo 1000  

# Reset the npt fix at a lower temperature (below freezing)
fix 1  all npt temp  ${temp} ${temp}  0.1  iso  5.68  5.68  0.5  mtk yes tchain  5  pchain  5
fix 1  all npt temp  0.45 ${temp}  0.1  iso  5.68  5.68  0.5  mtk yes tchain  5  pchain  5
fix 1  all npt temp  0.45 0.45  0.1  iso  5.68  5.68  0.5  mtk yes tchain  5  pchain  5

dump dmp2 all dcd ${N} traj.dcd
dump dmp2 all dcd 1000 traj.dcd


compute msd all msd com yes
variable twopoint equal c_msd[4]/6/(step*dt+1.0e-6)
fix 9 all vector 10 c_msd[4]
variable fit equal slope(f_9)/6/(10*dt)
thermo_style custom step temp pe c_msd[4] v_twopoint v_fit v_max_n

fix 1 all npt temp 1.25 ${temp} 0.1 iso 5.68 5.68 0.5 mtk yes tchain 5 pchain 5
fix 1 all npt temp 1.25 0.45 0.1 iso 5.68 5.68 0.5 mtk yes tchain 5 pchain 5
run 2000000 # 5000000  # Run for this many steps
Neighbor list info ...
  update every 1 steps, delay 10 steps, check yes
  max neighbors/atom: 2000, page size: 100000
  master list distance cutoff = 3.8
  ghost atom cutoff = 3.8
  binsize = 1.9, bins = 8 8 8
  4 neighbor lists, perpetual/occasional/extra = 1 3 0
  (1) pair lj/cut, perpetual
      attributes: half, newton on
      pair build: half/bin/atomonly/newton
      stencil: half/bin/3d
      bin: standard
  (2) compute orientorder/atom, occasional
      attributes: full, newton on
      pair build: full/bin/atomonly
      stencil: full/bin/3d
      bin: standard
  (3) compute coord/atom, occasional
      attributes: full, newton on
      pair build: full/bin/atomonly
      stencil: full/bin/3d
      bin: standard
  (4) compute cluster/atom, occasional
      attributes: full, newton on
      pair build: full/bin/atomonly
      stencil: full/bin/3d
      bin: standard
Per MPI rank memory allocation (min/avg/max) = 9.805 | 9.813 | 9.821 Mbytes
Step Temp PotEng c_msd[4] v_twopoint v_fit v_max_n 
   12000    1.2877164   -6.7909719            0            0 8.3333333e+20            2 
   13000    1.2658538   -6.8377509   0.54404017 0.0034874369  0.045045376            1 
   14000    1.2380494   -6.8519363    1.0298791 0.0061302324   0.04260315            1 
   15000    1.2551766   -6.9010469    1.4971367 0.0083174257  0.041175841            1 
   16000    1.2501169   -6.9013135    2.0140258  0.010489717  0.040694826            1 
   17000    1.2619885   -6.8771046    2.4786995  0.012150487   0.04100989            1 
   18000     1.248002   -6.8668838    2.9500733  0.013657747  0.040645405            3 
   19000    1.2407823   -6.8485195    3.4335612  0.015059479  0.040347173            2 
   20000    1.2392669   -6.8562316     3.907104    0.0162796   0.04018883            1 
   21000    1.2140395   -6.8643164    4.3866994  0.017407537  0.040117366            2 
   22000    1.2483042   -6.8587868    4.8407834    0.0183363  0.040020371            1 
   23000     1.240171   -6.8093241    5.3369447  0.019336756  0.039902788            1 
   24000    1.2635843   -6.9062096    5.8341302  0.020257396  0.039968783            2 
   25000    1.2441955   -6.8518016     6.320091   0.02106697  0.039965095            3 
   26000    1.2716183   -6.8516651     6.759602  0.021665391  0.040009432            1 
   27000     1.263178   -6.8939711    7.2170385   0.02227481  0.039988443            1 
   28000    1.2367358   -6.8913834    7.6275955  0.022701177   0.03980929            1 
   29000    1.2311889   -6.8724779    8.0825438    0.0232257  0.039688131            1 
   30000    1.2436147   -6.8750622    8.6343654  0.023984348  0.039609066            1 
   31000    1.2397118   -6.8391838    9.0183413  0.024242852   0.03952152            2 
   32000    1.2258668   -6.8594298    9.4763156  0.024677905  0.039420635            1 
   33000     1.228121   -6.9012348    9.9460933  0.025116397   0.03930459            2 
   34000    1.2529324   -6.8594884     10.43149  0.025567377  0.039273919            2 
   35000    1.2286468   -6.8950094    10.927947   0.02601892  0.039245899            1 
   36000    1.2275999   -6.8982877     11.40685  0.026404745  0.039234623            1 
   37000    1.2456102   -6.8924198    12.019138  0.027070131  0.039315289            2 
   38000    1.2289539   -6.8328771    12.512103  0.027438823  0.039392989            1 
   39000    1.2222755   -6.9055776    13.067043  0.027921033  0.039501179            2 
   40000    1.2407932    -6.857799     13.49934  0.028123625  0.039561585            1 
   41000     1.247075   -6.8749683    13.688484  0.027822121  0.039503178            2 
   42000    1.2432198   -6.9354787    13.997563  0.027772942  0.039368485            1 
   43000    1.2402136   -6.8472128    14.430969  0.027966994  0.039230127       -1e+20 
   44000    1.2607541   -6.9457768    14.916078  0.028250147  0.039112815            2 
   45000    1.2456538   -6.8936029    15.367158  0.028457701  0.039001466            1 
   46000    1.2321335   -6.8774607    15.758087  0.028547258  0.038886405            1 
   47000    1.2309403   -6.8823329    16.217194  0.028753889  0.038772053            1 
   48000     1.227073   -6.8777106    16.759897  0.029097044  0.038703929            2 
   49000    1.2333027   -6.8912244    17.333346  0.029478479  0.038662904            2 
   50000    1.2315648   -6.9116406    17.805533  0.029675888  0.038657247            2 
   51000    1.2509964   -6.8950257    18.259916  0.029836463  0.038659236            2 
   52000    1.2704313    -6.883539     18.81775  0.030156651  0.038660703            1 
   53000    1.2308775   -6.9403334    19.239796  0.030251251    0.0386788            1 
   54000    1.2145941   -6.9173744    19.619595  0.030277152  0.038671143            2 
   55000    1.2133558   -6.9117541    20.096702  0.030449548  0.038668439            1 
   56000    1.2560222   -6.8793818    20.565782  0.030603842  0.038642757            1 
   57000     1.220576   -6.8790593    21.047836   0.03077169  0.038636713            3 
   58000     1.209503   -6.9024027     21.49323  0.030881077  0.038627954            1 
   59000    1.2363595   -6.9200418    21.816694  0.030814539  0.038606877            1 
   60000    1.2439738    -6.891166    22.378768  0.031081622  0.038587314            1 
   61000    1.2400981   -6.8868164    22.952209  0.031355476  0.038584037            2 
   62000     1.226684    -6.898468    23.261966  0.031266084  0.038564622            1 
   63000    1.2589904   -6.8816726    23.810621   0.03149553  0.038552929            4 
   64000    1.2110561   -6.8804394    24.301581  0.031642683  0.038556433            2 
   65000    1.2243719   -6.9113328    24.709422  0.031678746  0.038543051            2 
   66000    1.2267803   -6.8917219    25.086433  0.031674789  0.038521158            4 
   67000    1.2155262   -6.8920644    25.668012  0.031925388  0.038521493            2 
   68000    1.2168659   -6.8826073    25.939122   0.03178814  0.038510335            2 
   69000    1.2568899   -6.8721302    26.608552  0.032135932  0.038497359            2 
   70000    1.2486834   -6.8931111    27.011987  0.032157127  0.038485515            2 
   71000    1.2024029   -6.9447342    27.430151  0.032195012  0.038486306            2 
   72000    1.2116515    -6.939495    27.899775  0.032291406  0.038482984            1 
   73000    1.2342115   -6.8933613    28.363356  0.032378261  0.038477448            2 
   74000     1.255419   -6.9112801    28.728934  0.032352403  0.038458675            1 
   75000    1.2273566   -6.9168266     29.01514  0.032239045  0.038431728            2 
   76000    1.2280097   -6.9299002    29.373104  0.032207351   0.03840164            4 
   77000    1.2260978   -6.9366323    29.898762  0.032357967  0.038366527            2 
   78000    1.2147033   -6.8966212    30.259488  0.032328513  0.038333817            2 
   79000    1.2309774   -6.8343636    30.951292  0.032649042  0.038303794            1 
   80000    1.2249895   -6.8996372       31.498  0.032810416  0.038295455            2 
   81000    1.1842298   -6.8813618    31.801937  0.032718042  0.038288982            4 
   82000    1.2336364   -6.8707089    32.215881  0.032739716  0.038277965            1 
   83000    1.2142513   -6.8946698    32.861434  0.032993407  0.038267774            1 
   84000    1.2441564   -6.9335739    33.332134  0.033067593  0.038273804            2 
   85000    1.2294307   -6.9096346    33.805935  0.033143074  0.038276424            1 
   86000     1.229487   -6.9174768     34.34796  0.033282907  0.038283692            2 
   87000    1.2057161   -6.9250504    34.931444  0.033459237  0.038301318            2 
   88000    1.2176117   -6.8880483    35.696185  0.033803206  0.038324647            4 
   89000    1.2284285   -6.9221336    35.997348  0.033705381  0.038349209            2 
   90000    1.2238972   -6.9476357    36.519951  0.033814769  0.038376771            2 
   91000     1.242044   -6.9642905    36.948341  0.033835477  0.038396357            1 
   92000     1.230543   -6.9248518    37.326743  0.033810456  0.038418284            2 
   93000    1.2148948   -6.9343787    37.710626  0.033790883  0.038425213            1 
   94000    1.2306287   -6.8981387    38.151936  0.033822638  0.038434613            2 
   95000    1.1915405    -6.963469    38.382292  0.033668677  0.038433569            2 
   96000    1.1918597   -6.9244133    38.848736  0.033722861  0.038431731            1 
   97000    1.2312952   -6.9885437    39.214941  0.033689811  0.038426243            1 
   98000    1.2188747   -6.9242035    39.837152  0.033875129  0.038411174            1 
   99000    1.2324321   -6.9840115    39.844056  0.033538768  0.038393198            1 
  100000    1.2153163    -6.927953    40.422262  0.033685219  0.038365264            6 
  101000    1.2420199   -6.9087214    40.819507  0.033679461   0.03833579            2 
  102000    1.2228492   -6.9295889    41.510944   0.03391417  0.038318389            2 
  103000    1.1833956   -6.8869528    41.930896  0.033924673  0.038299814            2 
  104000    1.2153209   -6.9646019    41.879138  0.033557002  0.038270189            1 
  105000    1.2036387   -6.9595166    42.091059  0.033405602  0.038228211            2 
  106000    1.2340407   -6.9075392    42.765529  0.033620699  0.038186109            1 
  107000    1.1902347   -6.9587351    43.186328  0.033634211  0.038152995            1 
  108000     1.219023   -6.9370679    43.738154  0.033748576  0.038120554            3 
  109000    1.1926653   -6.9522664    44.067101  0.033690444  0.038087706            1 
  110000    1.2296399   -6.8964499    44.688985  0.033855291  0.038057994            1 
  111000    1.1990498   -6.9540248    45.073747  0.033839149  0.038026152            1 
  112000    1.2002611   -6.9771239     45.44126  0.033810461  0.037999283            2 
  113000    1.2061456   -6.9792999    45.637774  0.033656175  0.037972645            2 
  114000    1.1807508   -6.9763019     46.40682  0.033923114  0.037946605            2 
  115000    1.2088942     -6.92767    46.829402  0.033934349  0.037921076            4 
  116000     1.192972   -6.9452425    47.291283  0.033973623  0.037895226            1 
  117000    1.2060719   -6.9397318    47.618844  0.033916556   0.03787277            1 
  118000    1.2235574   -6.9508125    48.070095  0.033947807  0.037849472            3 
  119000    1.2050372   -6.9520049    48.765463  0.034149484  0.037825979            2 
  120000    1.2061197   -6.9386251    49.055116  0.034066053  0.037806321            2 
  121000    1.2236274   -6.9121642    49.296254  0.033950588  0.037781901            2 
  122000    1.2180532   -6.9384335    49.781975  0.034004081   0.03775531            1 
  123000    1.2047947   -6.9675206    50.147311  0.033975143  0.037729157            1 
  124000    1.1980702   -7.0019327    50.348373  0.033836272  0.037700769            2 
  125000     1.207768   -6.9592508    50.671678  0.033781119  0.037664312            1 
  126000    1.2072442   -6.9463738    51.078785  0.033782265  0.037627105            2 
  127000    1.1778391   -6.9655459    51.482121  0.033780919  0.037588171            1 
  128000    1.2157823   -6.9016319    51.990896  0.033848239   0.03755189            2 
  129000    1.1986689   -6.9473267     52.50352  0.033917002  0.037516507            3 
  130000    1.1819668   -6.9051243    52.969075  0.033954535  0.037487076            1 
  131000    1.2233742   -6.9356874     53.23038  0.033861565  0.037460829            2 
  132000    1.1944223   -6.9542137    53.896797  0.034025756  0.037435718            2 
  133000    1.2059151   -6.9194195    54.323237  0.034037115  0.037411377            1 
  134000     1.204582   -6.9494494    54.569684  0.033936371  0.037386167            1 
  135000    1.2075263   -6.9395988    55.081893  0.034001168  0.037362549            1 
  136000    1.2037139   -6.9393831    55.706292  0.034133758   0.03733889            2 
  137000    1.1998444   -6.9534102    55.794497  0.033938258  0.037314443            2 
  138000    1.1786465   -6.9872906    56.327602  0.034014252  0.037291585            2 
  139000    1.1815982   -6.9318684    57.045625  0.034200015  0.037271187            2 
  140000    1.1726516   -6.9779161    57.309574  0.034112841  0.037254796            2 
  141000    1.2095986   -6.9204569    57.792041  0.034156052    0.0372321            1 
  142000    1.1923703    -6.936899    58.160135  0.034131534  0.037212309            1 
  143000    1.1928316   -6.9355049    58.633622  0.034168777  0.037193025            1 
  144000     1.199631   -6.9451109    58.896789   0.03408379  0.037171974            2 
  145000    1.2031769   -6.9674867    59.253185  0.034053554   0.03714808            1 
  146000    1.1859869   -6.9786572    59.615357   0.03402703  0.037121925            1 
  147000    1.1889848   -6.9808994     60.24741  0.034153861  0.037100526            2 
  148000    1.1925212   -6.9704371    60.786525  0.034226647  0.037083787            2 
  149000    1.1889952   -6.9544578    61.250935  0.034256675  0.037069572            2 
  150000    1.2041525    -6.962071    61.635474   0.03424193  0.037053608            2 
  151000     1.208389   -6.9890401    61.868698  0.034143873  0.037035455            2 
  152000    1.1782998   -6.9161868    62.446891  0.034236234  0.037019787            2 
  153000    1.2138971    -7.001787    62.582641  0.034086406  0.037000547            2 
  154000    1.2012416   -6.9816872    62.902542  0.034038172  0.036980792            2 
  155000     1.198755    -6.983241    63.713381  0.034254506  0.036959337            1 
  156000    1.1782596   -6.9697164    64.159975  0.034273491  0.036943559            1 
  157000    1.2175968   -6.9772796    64.617952  0.034298276  0.036928862            1 
  158000    1.2104243   -6.9700516    64.808903  0.034181911  0.036913805            2 
  159000    1.1914418   -6.9688738    65.755275  0.034462933  0.036901379            2 
  160000    1.1965223   -6.9446675    65.948533  0.034348194  0.036889451            1 
  161000     1.195017   -6.9651479    66.175174  0.034252161  0.036872067            1 
  162000     1.190149   -6.9655184     66.79791  0.034361065  0.036858117            1 
  163000     1.194696   -6.9794702    67.338897  0.034426839   0.03684617            2 
  164000    1.1778231   -6.9456731    67.578809  0.034338826  0.036834661            2 
  165000    1.1707128   -7.0357463     67.65776  0.034170586  0.036821807            4 
  166000    1.1968777   -6.9820118    68.259736  0.034266935  0.036807339            1 
  167000    1.2056252    -7.032922     68.56303  0.034213089  0.036794986            2 
  168000     1.196431   -7.0014081    69.181354  0.034316148   0.03678303            2 
  169000    1.1657059   -6.9737026    69.563617  0.034301586  0.036769706            2 
  170000    1.1791582   -6.9733242    70.448709  0.034533681  0.036757885            2 
  171000    1.1830629   -6.9840188    70.603871  0.034407345  0.036749033            3 
  172000    1.2009198   -6.9876779    71.234332  0.034512758  0.036742244            2 
  173000    1.1760644   -6.9876721    71.755573  0.034564341   0.03673596            4 
  174000    1.1886857   -7.0286884    72.074843  0.034518603  0.036731191            1 
  175000    1.1787637   -6.9357478    72.718639  0.034627923  0.036725511            2 
  176000    1.1758301   -6.9817999    72.980401  0.034555114  0.036719286            2 
  177000    1.2048088    -7.023172    73.068253  0.034401249  0.036709075            1 
  178000    1.2057833   -6.9472108    73.890334  0.034592853   0.03670248            1 
  179000    1.2123031   -6.9977153    74.329389  0.034603998  0.036697149            2 
  180000    1.1742952   -6.9734915    74.475882  0.034479575  0.036687885            1 
  181000    1.1982595   -6.9849623     75.03515   0.03454657   0.03667699            3 
  182000    1.1880004   -6.9933134    75.293126  0.034474874  0.036666752            2 
  183000    1.1767995   -7.0444099     75.38663  0.034329067  0.036653733            1 
  184000    1.1909217   -7.0077497    75.787076  0.034323857  0.036638442            2 
  185000    1.1985712   -7.0001763    76.340471  0.034387599  0.036623787            1 
  186000    1.1798219   -6.9729431    76.512256  0.034279685  0.036608175            1 
  187000     1.180351   -7.0315063     76.96837   0.03429963  0.036592278            1 
  188000    1.1901997    -7.014552    77.224426  0.034230685  0.036572995            3 
  189000    1.1681803   -7.0055672    77.793273  0.034300385  0.036554825            2 
  190000    1.1911644   -7.0518216    77.769552  0.034109453  0.036536764            1 
  191000    1.1657649   -7.0078067    78.460917  0.034232512  0.036518469            1 
  192000    1.1503542   -7.0163168    79.104423  0.034333517  0.036500786            1 
  193000    1.1982664   -7.0316435    79.343549  0.034258872  0.036484277            1 
  194000    1.1942274   -6.9757546    79.552197  0.034171906  0.036466001            1 
  195000    1.1808711   -7.0127515    79.983424   0.03418095  0.036446236            1 
  196000     1.191609   -6.9946751    80.403202  0.034185035  0.036426071            1 
  197000    1.1768672   -7.0223067    80.427317  0.034021708  0.036404499            4 
  198000    1.1948584   -7.0461747    80.978155  0.034081715  0.036382644            2 
  199000    1.1838734   -7.0151332    81.338216  0.034061229  0.036360439            2 
  200000    1.1756146    -7.002963    81.489662  0.033954026  0.036336447            2 
  201000    1.1747802   -7.0253342    81.960572  0.033980337  0.036313831            3 
  202000    1.1644757   -7.0149138    82.291194  0.033948512  0.036288511            1 
  203000    1.1635929   -6.9833611    82.419876  0.033834103  0.036262212            3 
  204000     1.167997   -7.0149092    82.732024  0.033795761  0.036236036            2 
  205000    1.1836213     -7.03802    83.258137  0.033844771  0.036208294            2 
  206000    1.1484748   -7.0468357    83.489065  0.033773893  0.036179272            1 
  207000    1.1867942   -7.0338572    84.026536  0.033827108  0.036152544            3 
  208000    1.1850387   -7.0442683     84.19972  0.033733862  0.036124688            1 
  209000    1.1694453   -7.0439588    84.694225  0.033769627  0.036096728            1 
  210000    1.1954074   -7.0477219    84.916193  0.033696902  0.036068219            3 
  211000    1.1771932   -7.0231514    85.532219  0.033780497  0.036040326            3 
  212000     1.154544   -7.0060414    86.197581  0.033882697  0.036015433            2 
  213000    1.1652138   -7.0064152    86.443632  0.033819887  0.035991083            3 
  214000    1.1780746   -7.0104706    86.513688  0.033689131  0.035965197            1 
  215000    1.1656402   -7.0711333    86.831304  0.033655544  0.035937835            2 
  216000    1.1719036   -7.0063266    87.669387  0.033823066  0.035910606            1 
  217000    1.1419262   -6.9768121    88.022627  0.033802852  0.035884834            2 
  218000     1.162602   -7.0079046    88.438625  0.033806814  0.035861623            1 
  219000    1.1579787   -7.0063112    88.557007  0.033697491  0.035836354            1 
  220000    1.1611364   -7.0661556    88.459105  0.033507237   0.03580911            2 
  221000    1.1435808   -7.0314667    89.095307  0.033595515   0.03578091            1 
  222000    1.1845035   -7.0560344     89.22847   0.03349417    0.0357496            1 
  223000    1.1804632   -7.0399329    89.778743  0.033549605  0.035718257            4 
  224000    1.1730056   -6.9826266    90.072254  0.033509023  0.035688965            1 
  225000    1.1483542   -7.0366978    90.668434  0.033580901  0.035661508            1 
  226000    1.1887136   -6.9954116    91.016027  0.033560482  0.035631947            1 
  227000    1.1636421   -7.0367793    91.348875  0.033534829  0.035603993            3 
  228000    1.1440824   -7.0169805    91.694084   0.03351392  0.035577913            2 
  229000    1.1693551   -7.0571884    92.144423  0.033531449  0.035551183            3 
  230000    1.1741306   -7.0398857     92.13159  0.033381011  0.035524771            3 
  231000     1.189999    -7.034934    92.749468  0.033459404  0.035497902            1 
  232000    1.1614262   -7.0493689    93.189649  0.033473293  0.035471103            1 
  233000    1.1695814    -7.075603    93.338832  0.033382987  0.035445688            2 
  234000    1.1534122    -7.058925    94.152462  0.033530079  0.035421387            2 
  235000    1.1469699   -7.0435489    94.817941  0.033623383  0.035395198            1 
  236000    1.1886787   -7.0224949    94.817989  0.033480928  0.035370655            1 
  237000    1.1517585   -7.0696382     94.94085  0.033382858  0.035346137            2 
  238000    1.1658011   -7.0250261    95.806856  0.033545818  0.035322635            4 
  239000    1.1553139   -7.0488523    96.149476  0.033524922  0.035301158            1 
  240000    1.1664342   -7.0581595    96.669226  0.033565703  0.035278987            1 
  241000      1.16994   -7.0723916    96.874879  0.033497538  0.035259287            1 
  242000    1.1740016   -7.0717399    96.989517  0.033398594  0.035236849            1 
  243000    1.1584461   -7.0874843    97.584133  0.033465066  0.035213792            3 
  244000    1.1481637   -7.0513253    98.213445  0.033542843  0.035192512            1 
  245000     1.172806   -7.0620204    98.061336  0.033354196  0.035172046            2 
  246000    1.1696854    -7.070169    98.734526  0.033446655  0.035151109            2 
  247000    1.1983988   -7.0730467     99.34811  0.033518256   0.03513112            1 
  248000    1.1446567    -7.041641    100.05917  0.033622034  0.035112571            1 
  249000    1.1514984   -7.0479617    100.11952  0.033507201  0.035092361            3 
  250000    1.1343029    -7.056451    100.42061  0.033473537  0.035071662            1 
  251000    1.1427487   -7.1047129    100.17939   0.03326009  0.035051165            3 
  252000    1.1632392   -7.0360434    100.71555  0.033305407  0.035029004            3 
  253000    1.1545622   -7.0443702     101.2194  0.033339722  0.035007199            1 
  254000    1.1599044    -7.106477    101.59531  0.033331796  0.034984784            1 
  255000    1.1524892   -7.0661432    101.76616  0.033256916  0.034962339            1 
  256000     1.165183   -7.0304737    101.92929  0.033180108  0.034939912            2 
  257000    1.1282822   -7.0690673    102.11294  0.033110551  0.034916555            2 
  258000    1.1430234   -7.0969168    102.51475     0.033112  0.034892558            2 
  259000    1.1775518   -7.0383264    103.16205  0.033192422  0.034867443            2 
  260000    1.1556845   -7.0357374    103.34315  0.033122806  0.034843827            2 
  261000    1.1486903    -7.041148    103.80117  0.033142134  0.034820071            1 
  262000    1.1729369   -7.0973711    103.91689  0.033052446  0.034796402            1 
  263000    1.1444384   -7.0811053    104.52669  0.033119991  0.034773854            1 
  264000    1.1374736   -7.1100035    104.72913  0.033058436   0.03475067            5 
  265000    1.1433714   -7.0849228    105.02975  0.033028224  0.034727799            1 
  266000     1.164598   -7.0752068    105.82644  0.033153647   0.03470575            1 
  267000    1.1393001   -7.0955083    106.07383  0.033106688  0.034684631            2 
  268000    1.1565761   -7.0491861     106.4013  0.033084983  0.034662916            1 
  269000    1.1499129   -7.0698283    106.77185  0.033076782  0.034640801            2 
  270000    1.1394673   -7.0842654      107.254  0.033103085  0.034618325            1 
  271000    1.1606146   -7.0863239    107.64621   0.03310154  0.034595952            2 
  272000    1.1391582   -7.0800776    107.87664   0.03305044  0.034573621            2 
  273000    1.1527428   -7.0612999    108.22986  0.033037199  0.034551765            2 
  274000    1.1474218   -7.0511317    108.53346   0.03300896  0.034531657            2 
  275000    1.1495825   -7.1026273    109.03499  0.033040905  0.034511304            3 
  276000    1.1524303   -7.1007861    109.48536  0.033057175    0.0344894            2 
  277000    1.1221133   -7.0886297    109.37395  0.032904318  0.034468822            1 
  278000    1.1445588   -7.0989986    109.99799  0.032973018  0.034448679            2 
  279000    1.1425091    -7.100747    110.84892  0.033108997  0.034428213            2 
  280000    1.1300187   -7.0997849    111.21251  0.033098961  0.034409315            2 
  281000    1.1664115   -7.0823577     111.3722  0.033028529  0.034390303            4 
  282000    1.1444781   -7.0810551    111.53093  0.032958312  0.034370211            2 
  283000    1.1252611   -7.1047322    111.82712  0.032929069  0.034348674            1 
  284000    1.1265071   -7.1201677    112.15446  0.032909173  0.034327281            1 
  285000    1.1326384   -7.1018976    112.73672  0.032963952  0.034307539            1 
  286000    1.1502826   -7.0954955    112.73583  0.032848434  0.034288108            2 
  287000     1.146823   -7.0694689    113.31181  0.032901221  0.034269451            1 
  288000    1.1423744   -7.1416355    113.68823    0.0328959   0.03425097            2 
  289000    1.1296623   -7.0781102    114.38624  0.032983345  0.034232789            1 
  290000    1.1156915   -7.0566582       114.67   0.03295115  0.034216128            1 
  291000    1.1578661   -7.0728053    115.02038  0.032938254  0.034197903            2 
  292000    1.1363372   -7.0853391    115.41038  0.032936752  0.034180585            1 
  293000    1.1232279   -7.0925318    115.85321  0.032950288  0.034163142            2 
  294000    1.1074959   -7.0814574    116.47092  0.033013299  0.034146364            2 
  295000    1.1217595   -7.1168895    116.30068  0.032853299  0.034129641            2 
  296000    1.1190886   -7.0968283    116.53776  0.032809054  0.034112737            1 
  297000    1.1101364   -7.0646392    117.33433   0.03292209  0.034095197            2 
  298000     1.124954   -7.0893185    117.53156  0.032866766  0.034077889            2 
  299000    1.1400389   -7.0425303     117.7223  0.032810006  0.034060548            2 
  300000    1.1392652   -7.0760425    118.09504  0.032804179   0.03404216            5 
  301000    1.1429587   -7.0800043    118.59832   0.03283453  0.034024639            1 
  302000    1.1291269   -7.0880161    119.04221  0.032848291  0.034007217            1 
  303000    1.1105344   -7.1166737      119.286  0.032806931   0.03398901            1 
  304000    1.1553004   -7.0764787    119.61626  0.032789544  0.033970797            2 
  305000    1.1424259   -7.1215532    119.79242  0.032730169  0.033953304            2 
  306000    1.1247436   -7.1214435    119.79251  0.032623232  0.033934083            2 
  307000    1.1619605    -7.130463    120.16192  0.032617243   0.03391438            1 
  308000    1.1268781   -7.0981784    120.73142  0.032665428  0.033895262            1 
  309000    1.1357709   -7.0955614    121.28429  0.032708816   0.03387642            2 
  310000    1.1360652   -7.0959619    121.54473  0.032673316  0.033858472            5 
  311000    1.1284249   -7.0541008    122.49221  0.032822137  0.033841008            2 
  312000    1.1362782   -7.1280241    122.34035  0.032676377   0.03382386            3 
  313000    1.1221144   -7.1391279    122.38183  0.032583023   0.03380608            2 
  314000    1.1353902   -7.1185191    122.89084  0.032614342  0.033789402            2 
  315000     1.135288   -7.1105078    123.47799  0.032666135  0.033772369            1 
  316000    1.1237429   -7.0812767    124.03957  0.032710856  0.033755094            2 
  317000    1.1400106   -7.1294604    123.76922  0.032536598  0.033736529            2 
  318000    1.1330358     -7.13539     124.3037  0.032574344  0.033718496            1 
  319000    1.1458431   -7.0775036    125.01236  0.032657356  0.033701479            3 
  320000    1.1156656   -7.1130107    125.21098  0.032607025  0.033684368            2 
  321000    1.1161222   -7.1158216    125.02405  0.032456917  0.033667267            1 
  322000    1.1398846   -7.1331825    125.35051  0.032440608  0.033649755            2 
  323000    1.1155891   -7.1108865    126.49489  0.032635421  0.033631447            1 
  324000    1.1246586   -7.1098139    126.06067  0.032423012  0.033613292            1 
  325000    1.1359569   -7.1592858    126.11086  0.032336118   0.03359393            5 
  326000    1.1201352   -7.0983801     126.7218  0.032393098  0.033574295            2 
  327000    1.1005177   -7.1335862    127.63884  0.032527737  0.033556334            2 
  328000    1.1338116   -7.1353943    127.40305  0.032368662  0.033538184            2 
  329000    1.1170916   -7.0943258    128.59075  0.032571111  0.033520724            3 
  330000    1.1273766   -7.1174418    128.40128  0.032424565  0.033503399            1 
  331000    1.1359373   -7.1207481     128.6745  0.032395394  0.033485073            2 
  332000    1.1396753   -7.1256676    128.46223  0.032244535   0.03346633            2 
  333000    1.1031465   -7.1282185    129.49597  0.032406398  0.033447488            1 
  334000    1.1174886   -7.1227686    129.44161  0.032295812  0.033429223            1 
  335000     1.114507   -7.1541571    129.73522  0.032272443  0.033411304            4 
  336000    1.1177502   -7.1113369    130.23451  0.032300227  0.033393714            2 
  337000     1.139722   -7.1062482    131.18146   0.03243854  0.033376698            2 
  338000    1.1177911   -7.1520096    130.70156   0.03222425  0.033359509            2 
  339000    1.1401796   -7.1803692    130.80873  0.032155537  0.033341478            3 
  340000    1.1134898    -7.141975    131.71914  0.032284103  0.033324161            2 
  341000    1.1483425   -7.1870707    132.38307   0.03235168  0.033307481            2 
  342000    1.1317253   -7.1406781    133.18612  0.032452758  0.033291968            1 
  343000    1.1038082   -7.1293252    133.56063  0.032449133  0.033277212            3 
  344000    1.1119242   -7.1280647    133.74285  0.032398946  0.033263843            2 
  345000    1.1100994   -7.1269694    134.34535  0.032450567  0.033250905            2 
  346000    1.1324006   -7.1595346    135.01874  0.032518965  0.033238613            1 
  347000    1.1460738   -7.1112324    135.45756  0.032530634  0.033226128            2 
  348000    1.1244144   -7.1238415     135.1328  0.032359388  0.033213651            1 
  349000    1.1172648   -7.1496775    136.29004  0.032542989  0.033201423            1 
  350000    1.1097092   -7.1617731    136.24906  0.032440252   0.03318863            2 
  351000    1.1188111   -7.1474241    136.25684  0.032349677  0.033175161            1 
  352000    1.1267733    -7.133899    136.90471  0.032411152  0.033161402            1 
  353000     1.090346   -7.1445245    137.51976  0.032464533  0.033148663            2 
  354000    1.1065318   -7.1354267    137.46449  0.032359814  0.033135756            2 
  355000    1.1188045   -7.1167844    137.84112  0.032357071  0.033123058            1 
  356000     1.109048   -7.1163251    138.15963  0.032340736  0.033110277            1 
  357000    1.1074094   -7.1344387    138.51946   0.03233414  0.033096452            3 
  358000    1.1104565   -7.1167744     139.1389  0.032388013  0.033083388            2 
  359000    1.1452379   -7.1304045    139.64973  0.032416372  0.033070826            1 
  360000     1.091658   -7.1652471    139.56041   0.03230565   0.03305824            2 
  361000     1.123716   -7.1737095    140.08102   0.03233634  0.033045378            1 
  362000    1.1212967   -7.1197934    141.01456  0.032461915  0.033033156            3 
  363000    1.1073602   -7.1800418    140.36646  0.032223706    0.0330204            1 
  364000    1.1246128    -7.154733    140.62109  0.032193474  0.033007452            2 
  365000    1.1198988   -7.1712154    141.24641  0.032248039  0.032993958            2 
  366000    1.1084978   -7.1560687      141.451  0.032206513  0.032980248            1 
  367000     1.093145   -7.1517604    141.62942   0.03215927  0.032966181            1 
  368000    1.1044447   -7.1440378    142.03454  0.032163619  0.032951635            1 
  369000    1.1046956   -7.1766472    141.93244  0.032053396  0.032935702            1 
  370000    1.0934212   -7.1385323    142.35333   0.03206156  0.032920384            2 
  371000    1.0954391   -7.1792484    142.72484  0.032058589  0.032905051            1 
  372000    1.0986107   -7.1139259    142.75271  0.031978653  0.032889262            3 
  373000    1.1003375   -7.1705636    142.63391  0.031866377  0.032872385            1 
  374000    1.1054485   -7.1537031    143.04216   0.03187214    0.0328547            2 
  375000    1.1268185   -7.1762344    143.35493   0.03185665  0.032836858            1 
  376000    1.0990967   -7.1540644    144.12523  0.031942649  0.032819645            2 
  377000    1.0990724   -7.1599747    144.19109  0.031872477  0.032802184            1 
  378000     1.104355   -7.1863731    144.29819   0.03181177   0.03278467            2 
  379000    1.1073018   -7.1848034    145.03222  0.031889231  0.032767603            4 
  380000    1.0901906   -7.1464056    144.91089  0.031778704   0.03275019            1 
  381000    1.1034165   -7.1637758    145.70668  0.031869353  0.032733196            3 
  382000      1.12133   -7.1628785    146.00515  0.031851036  0.032716605            4 
  383000    1.1037926   -7.2053757     145.9744  0.031761185  0.032699056            1 
  384000    1.0909655   -7.2053579    145.61604  0.031600704  0.032680045            1 
  385000    1.1165187   -7.1439197    146.59188  0.031729843  0.032661617            1 
  386000    1.1068274   -7.1873884    147.00645  0.031737145  0.032644272            3 
  387000    1.1001309   -7.1607526    147.39737  0.031739313  0.032626413            1 
  388000    1.1118259   -7.1689216    147.30277  0.031637192  0.032608716            2 
  389000    1.1021366   -7.1848877    147.88798  0.031681229  0.032591252            1 
  390000    1.0891299   -7.1663481    148.20104  0.031666889  0.032574095            1 
  391000    1.0840348   -7.1482015    148.88584   0.03173185  0.032556744            1 
  392000    1.0898853   -7.1647563     148.8186  0.031636606  0.032539416            2 
  393000     1.113928   -7.1574109    149.54547  0.031710235  0.032522508            1 
  394000    1.0813874   -7.2114532    149.27585  0.031572726  0.032505562            2 
  395000    1.0930747    -7.200231    149.40689  0.031520442  0.032488061            4 
  396000    1.0838978     -7.16072    149.79743  0.031523028  0.032470979            2 
  397000    1.0847461    -7.175222     150.4579  0.031582264   0.03245393            2 
  398000    1.0675328   -7.1770455    150.73772  0.031561499  0.032436254            1 
  399000    1.0963362   -7.1840629    151.10676  0.031559474  0.032419441            2 
  400000    1.0786862   -7.1430974    151.46224  0.031554633  0.032402771            1 
  401000    1.0954995   -7.2131078    151.06041  0.031392439  0.032386346            5 
  402000    1.0833876   -7.1994315    152.16352  0.031543018   0.03236914            1 
  403000    1.1033198   -7.1902239    152.55125  0.031544923  0.032352603            3 
  404000    1.0847324   -7.1803061    152.58666  0.031474146  0.032335782            1 
  405000     1.107039   -7.2086669    153.26065  0.031535114  0.032319212            2 
  406000    1.0858674   -7.1825363    153.66248  0.031539918  0.032303082            1 
  407000    1.0854889   -7.1878978    153.82988  0.031496699  0.032286988            4 
  408000    1.0726129    -7.163031    154.32232  0.031520081   0.03227062            2 
  409000    1.1128356   -7.2155348    154.18064  0.031414149  0.032253845            2 
  410000    1.1176356   -7.2259107    154.33713  0.031369335   0.03223653            1 
  411000    1.0896874   -7.2153099    154.44086  0.031314042  0.032219241            2 
  412000    1.0858084   -7.1943734    155.50534  0.031453346  0.032202064            1 
  413000    1.0853028   -7.1965229    155.50346  0.031376807  0.032184906            2 
  414000    1.0690272   -7.1596064    156.10835  0.031422776  0.032168355            1 
  415000    1.0870552   -7.1673529    156.29402  0.031384342  0.032152023            3 
  416000    1.0902996   -7.2196332    156.28887  0.031307867  0.032135492            4 
  417000    1.0801197   -7.1862862    157.63672  0.031502142  0.032119461            2 
  418000    1.0836271   -7.1800291    157.94638  0.031488513  0.032104183            2 
  419000    1.1042994   -7.2216062    157.37488  0.031299698   0.03208872            2 
  420000    1.0662435   -7.2194959    157.03888  0.031158509  0.032071942            2 
  421000    1.0866582   -7.1682231    157.88159  0.031251304  0.032055479            2 
  422000    1.0881745   -7.2144908    158.36244  0.031272204  0.032039279            4 
  423000    1.1043869   -7.2294081    158.90218  0.031304605  0.032022823            1 
  424000     1.091474    -7.235772    159.24774  0.031298692  0.032005767            2 
  425000    1.0891486   -7.1817102    159.28037  0.031231446   0.03198917            1 
  426000    1.0641779   -7.1780902    159.59056   0.03121881  0.031972446            2 
  427000    1.0705516   -7.1833472    159.85726  0.031197748  0.031956626            1 
  428000    1.0979716   -7.1961401    160.14817  0.031181497  0.031940173            2 
  429000    1.0692375   -7.1874831    160.29962  0.031138231   0.03192339            1 
  430000    1.1269785   -7.1658433    160.42727  0.031090556  0.031906589            1 
  431000    1.0675237   -7.2093162    160.54631  0.031041437  0.031890366            2 
  432000     1.092581   -7.2239753    161.79621  0.031210688  0.031873625            2 
  433000    1.0923371    -7.189841     162.0472  0.031186912  0.031857993            3 
  434000    1.0717251   -7.1733813    162.26192  0.031156282  0.031841678            1 
  435000    1.0784483   -7.2078112    162.15701  0.031064562  0.031825063            2 
  436000    1.0939881   -7.1928669    162.83746  0.031123367  0.031808519            2 
  437000    1.0930522   -7.1759686     162.8101   0.03104693  0.031792363            2 
  438000    1.0520725   -7.1872103    163.76284  0.031157313  0.031776556            1 
  439000    1.0983801   -7.2074117    164.17471  0.031164523  0.031760981            1 
  440000    1.0839379    -7.189426    164.51846  0.031158799  0.031745629            1 
  441000    1.0896172   -7.2009622    164.82755  0.031146551  0.031730074            2 
  442000    1.0734385   -7.1892274    164.90937   0.03109151  0.031714306            2 
  443000    1.0661737   -7.2256997    164.60965  0.030964945  0.031698289            4 
  444000    1.0743677   -7.2492532    164.56656  0.030887118  0.031681511            3 
  445000    1.0710728   -7.2452473    164.77971  0.030857623  0.031664259            3 
  446000    1.0772838   -7.2036931     164.9471  0.030819713  0.031647075            1 
  447000    1.0766225   -7.2027335    165.26481  0.030809995  0.031629437            1 
  448000    1.0788189   -7.1955186    165.29777  0.030747354   0.03161082            7 
  449000    1.0632508   -7.2201064    165.81104  0.030774136  0.031592054            1 
  450000    1.0913202   -7.2642713    165.58343  0.030663598   0.03157288            4 
  451000      1.08962   -7.2735651     166.1841  0.030706596  0.031554031            2 
  452000    1.0879746   -7.2383485    166.68792  0.030731549   0.03153503            5 
  453000    1.0623546   -7.2443479    166.31575  0.030595244  0.031515871            1 
  454000    1.0815603   -7.2232022     166.9069  0.030636362  0.031496638            2 
  455000    1.0832152   -7.2173589    167.17863  0.030618796  0.031477102            1 
  456000    1.0724803   -7.2285083    167.66579  0.030640678  0.031457953            3 
  457000    1.0862946   -7.2437246    167.48809  0.030541227  0.031438895            1 
  458000    1.0669514   -7.2122578    168.18759  0.030601817  0.031419868            2 
  459000    1.0647894   -7.2623939     168.1017  0.030519553  0.031400784            1 
  460000    1.0502098   -7.2476473    168.72255   0.03056568  0.031381734            1 
  461000    1.0730657   -7.2516313    168.60203   0.03047759  0.031362769            1 
  462000    1.0742811     -7.26391     168.5739  0.030406548  0.031343039            1 
  463000    1.0722235   -7.2319272    169.63615  0.030532064  0.031323393            1 
  464000    1.0778489   -7.2270944    169.73701  0.030484376  0.031304241            1 
  465000    1.0660578   -7.2493992    169.36226  0.030351659   0.03128436            1 
  466000    1.0875525   -7.2516195     170.1405  0.030425697  0.031264389            3 
  467000     1.058753   -7.2539498    169.53118  0.030251817  0.031244873            1 
  468000     1.066017   -7.2435806    169.75823  0.030227605  0.031224089            2 
  469000    1.0774994   -7.2709744    170.36405  0.030270798  0.031204078            2 
  470000    1.0634152   -7.2450368    171.18183  0.030351389  0.031184554            2 
  471000    1.0550045   -7.2493907    171.38065  0.030322126  0.031164703            1 
  472000    1.0742898   -7.2338517     171.7667  0.030326042  0.031144789            1 
  473000    1.0516713   -7.2508461    171.76289  0.030261257  0.031124865            1 
  474000    1.0489393   -7.2883743    171.44353  0.030141267   0.03110461            1 
  475000    1.0980448   -7.2511663    172.37784  0.030241727     0.031084            5 
  476000    1.0715901   -7.2707737    172.45698  0.030192048  0.031064099            1 
  477000    1.0587195   -7.2686839    172.35504  0.030110943  0.031044368            2 
  478000    1.0807538   -7.2300296    172.53107  0.030078638  0.031024432            3 
  479000    1.0457201   -7.2253928    173.37685  0.030162987  0.031004895            2 
  480000    1.0407946   -7.2819708     173.3816  0.030100972  0.030984823            1 
  481000    1.0518327   -7.2482297     172.8463  0.029945652  0.030964816            1 
  482000    1.0824837   -7.2536471    173.41965   0.02998265  0.030944248            1 
  483000    1.0564883   -7.2569353    173.84762  0.029994414  0.030923665            1 
  484000    1.0676302   -7.2486444     174.4039   0.03002822  0.030903592            3 
  485000    1.0619349   -7.2475998     174.3616  0.029959039  0.030883336            1 
  486000    1.0631689   -7.2834201     174.4977   0.02992073  0.030862445            1 
  487000    1.0561755   -7.2152253    175.29528   0.02999577  0.030841949            2 
  488000    1.0585692   -7.2450622    174.78458  0.029847094  0.030821837            1 
  489000    1.0610245   -7.2632688    175.27902  0.029870316  0.030800875            2 
  490000    1.0521775   -7.3175227     174.9005  0.029744983  0.030779755            1 
  491000    1.0507752    -7.282733    175.16064  0.029728555  0.030758251            2 
  492000     1.060234   -7.2560667    175.86431  0.029787316  0.030736565            2 
  493000    1.0679344   -7.2366952    176.47743  0.029830533  0.030715018            3 
  494000    1.0888272   -7.2559456    176.69238  0.029806407  0.030693917            2 
  495000    1.0532757   -7.2752898    177.06475   0.02980888   0.03067342            2 
  496000    1.0568071   -7.2599906    177.50148  0.029822158  0.030653133            1 
  497000    1.0617162   -7.2649544    177.65144  0.029787298  0.030632894            1 
  498000    1.0401204   -7.2634204    177.82512  0.029756546  0.030612174            1 
  499000     1.048674   -7.2820746     178.0838  0.029740114  0.030591485            1 
  500000    1.0580539   -7.2974068    178.64852  0.029774754  0.030571159            3 
  501000    1.0354917   -7.2714911     179.2281  0.029811726  0.030551087            1 
  502000    1.0393684   -7.2449072    179.46509  0.029791682  0.030531861            1 
  503000    1.0652194   -7.2771447    179.72398  0.029775344  0.030512142            3 
  504000    1.0429952   -7.2856889    179.64546  0.029703284  0.030492684            1 
  505000     1.029171   -7.2481641    180.10335  0.029720026  0.030473326            2 
  506000    1.0387749   -7.2786207    180.26209  0.029687433  0.030454221            2 
  507000    1.0450972   -7.2742636    179.87606  0.029565427   0.03043509            3 
  508000    1.0467427   -7.2270904    181.19149  0.029723014  0.030416401            2 
  509000    1.0461634   -7.2731752    181.40458  0.029699505  0.030397388            3 
  510000    1.0491479   -7.2643221    181.95497  0.029731205  0.030378251            1 
  511000     1.080095   -7.3064796    181.54628  0.029606373  0.030359278            2 
  512000    1.0462731   -7.3096236    181.85313  0.029598491  0.030340747            4 
  513000    1.0418046   -7.2772364    182.39935  0.029629524  0.030322387            2 
  514000    1.0627004   -7.2795863    182.79945  0.029636747  0.030304024            2 
  515000    1.0566147    -7.346171    182.33584  0.029504181  0.030285021            2 
  516000    1.0443158   -7.2646544    183.11113   0.02957221  0.030265554            2 
  517000    1.0430982   -7.2830821    183.69332  0.029608853  0.030246732            1 
  518000    1.0456317   -7.3011783    183.50838   0.02952194  0.030227523            2 
  519000    1.0342341   -7.2665487    183.95992   0.02953756  0.030208216            2 
  520000    1.0343651   -7.2845849    183.85377  0.029463744  0.030188956            1 
  521000    1.0771127   -7.3051474    184.13601  0.029452336   0.03016958            2 
  522000    1.0589148   -7.2973914    184.36988   0.02943325   0.03015023            1 
  523000    1.0734436   -7.3043962    184.06392  0.029328221  0.030130284            3 
  524000    1.0287054   -7.3300822    184.28318  0.029307122  0.030110665            2 
  525000    1.0623699   -7.2895632    184.79926  0.029333215  0.030090647            2 
  526000    1.0274008   -7.2952374    184.53075  0.029234909   0.03007057            2 
  527000     1.048446   -7.3363464    184.81696  0.029224693  0.030050217            1 
  528000     1.029417    -7.326847    185.40552  0.029262234  0.030030457            2 
  529000    1.0245588   -7.3056106    185.98894  0.029298825    0.0300105            1 
  530000    1.0245208   -7.2812803    185.81573   0.02921631  0.029990694            1 
  531000    1.0562818   -7.3031986     186.3587    0.0292465  0.029970736            1 
  532000    1.0630546   -7.2668906    186.67428  0.029240959  0.029950958            2 
  533000    1.0535322   -7.2947305    186.87098  0.029216851  0.029931572            1 
  534000    1.0322567    -7.285575    187.39924  0.029244576  0.029912213            2 
  535000    1.0337535   -7.2868443    187.53974  0.029211798  0.029893326            2 
  536000    1.0641606   -7.3318398    187.94822  0.029220805  0.029874947            2 
  537000    1.0371873   -7.3204291    187.98687  0.029172389  0.029856139            1 
  538000    1.0522218   -7.3189322    188.54337  0.029204363   0.02983724            3 
  539000    1.0551409   -7.3102658    188.51699  0.029146102  0.029818403            2 
  540000    1.0354108   -7.3123366    189.08002  0.029179015  0.029799727            1 
  541000    1.0465124   -7.2592747    189.17964  0.029140425  0.029781636            1 
  542000    1.0344377    -7.302698    189.32356  0.029108788  0.029763296            1 
  543000    1.0278285   -7.2676294    189.96687  0.029153908  0.029744566            4 
  544000    1.0329571   -7.3111816    189.64872  0.029051581  0.029725386            2 
  545000    1.0141101   -7.3252962      189.051   0.02890688  0.029705696            2 
  546000    1.0382944   -7.2791883     189.9585  0.028992446  0.029685868            3 
  547000    1.0592425   -7.3230864    189.20584  0.028824778  0.029665766            2 
  548000    1.0122198   -7.3117168    189.55016  0.028824537  0.029645642            4 
  549000    1.0360854   -7.3328169    189.72523  0.028798609  0.029625317            1 
  550000    1.0068237   -7.3651726    190.43637  0.028853995  0.029605527            1 
  551000    1.0500896   -7.3363629    191.10374  0.028902562  0.029585413            1 
  552000    1.0495883   -7.3313377     191.1408  0.028855797  0.029565181            2 
  553000    1.0403677   -7.3477098    191.40409  0.028843293  0.029544872            2 
  554000    1.0223613   -7.3820218    190.72083  0.028688452  0.029524087            2 
  555000    1.0124572   -7.3178873     191.5973  0.028768363  0.029503592            1 
  556000    1.0326224   -7.3416877     192.0733  0.028787964   0.02948322            2 
  557000    1.0399881   -7.3470876    191.21272  0.028607529  0.029462782            2 
  558000    1.0305252   -7.3193174     192.5287  0.028752793  0.029442535            3 
  559000    1.0362714   -7.3452444    192.91668  0.028759195  0.029422643            1 
  560000    1.0093436   -7.3483531    192.23113  0.028605823  0.029402355            1 
  561000    1.0078782   -7.3533887    193.31981   0.02871655  0.029381791            1 
  562000    1.0181515   -7.3361895    192.98796  0.028616246  0.029361496            1 
  563000    1.0300165    -7.332734    192.93217   0.02855716  0.029341618            1 
  564000    1.0387552   -7.3358636    193.28629  0.028558849  0.029321781            1 
  565000    1.0182826   -7.3525641    193.47165  0.028535641  0.029301826            3 
  566000     1.019884   -7.3384636    193.81436  0.028535684  0.029281543            4 
  567000    1.0409856   -7.3426347     193.8024  0.028483598  0.029261601            1 
  568000    1.0241386   -7.3681247    194.00212  0.028462752  0.029241553            2 
  569000    1.0110571   -7.3304363    194.16094   0.02843599  0.029221181            3 
  570000    1.0262216   -7.3601323    194.12723  0.028381174  0.029200477            1 
  571000    1.0495025   -7.3635711    193.95737   0.02830668  0.029179113            2 
  572000    1.0414593   -7.3752297    194.77644  0.028376521  0.029158254            2 
  573000    1.0314362   -7.2898803    195.03549  0.028364672  0.029137366            3 
  574000    1.0170817   -7.3351719    194.45599  0.028231125  0.029116364            1 
  575000    1.0494934    -7.335975    195.44503  0.028325366  0.029095518            1 
  576000    1.0223458   -7.3562308    194.95235  0.028204911  0.029073933            2 
  577000    1.0233747    -7.333696     195.1058  0.028178192  0.029052388            2 
  578000    1.0201258    -7.376784    195.94955  0.028251089  0.029031085            1 
  579000    1.0197419   -7.3160425    196.30592  0.028253587  0.029009726            2 
  580000    1.0400847   -7.3400946    195.98562  0.028158853  0.028988462            1 
  581000    1.0290485   -7.3299581    196.19489  0.028140403  0.028967513            2 
  582000    1.0347878    -7.378923    196.57376    0.0281463  0.028946836            2 
  583000    1.0389878   -7.3790605     196.1433  0.028036492  0.028925955            2 
  584000    1.0390798   -7.3328957    196.33616  0.028016004  0.028904696            2 
  585000    1.0356464   -7.3348103    197.42629  0.028123403  0.028883402            3 
  586000    1.0367533   -7.3528387    196.77415  0.027982672  0.028862332            2 
  587000   0.99324994   -7.3413052    197.12516  0.027984833  0.028840824            1 
  588000    1.0170473   -7.3881396      196.833  0.027895834  0.028818862            2 
  589000    1.0028948    -7.330713    197.81344  0.027987188  0.028797095            2 
  590000    1.0187269    -7.386013    198.03231  0.027970665  0.028775212            1 
  591000    1.0046842   -7.3138949    198.35351  0.027968628  0.028753434            2 
  592000     1.018778   -7.3564413    198.52411  0.027945399  0.028731956            1 
  593000   0.99365115   -7.3290513    199.30281  0.028007702  0.028710333            2 
  594000    1.0067188   -7.3649091    198.88372  0.027901756  0.028688892            2 
  595000    1.0043477   -7.3829827    197.98296  0.027728706  0.028667146            1 
  596000    1.0388191    -7.350476    198.61956  0.027771191  0.028645194            1 
  597000    1.0148936   -7.3130598    199.88134  0.027900802  0.028623224            2 
  598000    1.0204895   -7.4033149    199.33169  0.027777549  0.028601491            1 
  599000    1.0012484   -7.3856099    199.62589  0.027772104  0.028579696            2 
  600000   0.98967696    -7.363556    199.63391  0.027726932  0.028557726            3 
  601000    0.9884783   -7.3387751    200.54826  0.027807579   0.02853615            2 
  602000    1.0265459   -7.3396002    200.79741  0.027795877  0.028514945            2 
  603000    1.0231403   -7.3402303    200.79061  0.027748841  0.028493915            2 
  604000   0.99625119   -7.3709512    200.56785  0.027672165  0.028472801            1 
  605000      1.02561   -7.3817534    201.08469  0.027697615  0.028451552            3 
  606000    1.0147058   -7.3853364    200.70846  0.027600174  0.028430324            1 
  607000    0.9992442    -7.369043    201.50598  0.027664193  0.028409349            5 
  608000   0.99409443   -7.3543428     201.7655  0.027654263  0.028388326            2 
  609000    1.0260736   -7.3893953    202.26398  0.027677063  0.028367301            4 
  610000    1.0126502   -7.3701488    201.98303   0.02759331   0.02834637            2 
  611000     1.020072   -7.3727395    202.22739  0.027581476  0.028325037            1 
  612000   0.99986668   -7.3641248    202.89428  0.027627216   0.02830374            2 
  613000    1.0059677   -7.3924004    202.29593  0.027500806  0.028282101            2 
  614000   0.99628684   -7.3547217    201.98015  0.027413158   0.02826066            2 
  615000    1.0159617   -7.3537844    202.52752  0.027442754  0.028239373            2 
  616000    1.0313565   -7.3928818    202.60044  0.027408068  0.028218243            4 
  617000    1.0307726   -7.3608671    203.19105  0.027443416  0.028197089            1 
  618000    1.0281644   -7.3486637    203.40454  0.027427796  0.028175717            3 
  619000    1.0388966   -7.3738801    203.62556  0.027413242  0.028154384            3 
  620000    1.0224485   -7.3760997    203.53804  0.027357264  0.028133239            2 
  621000    1.0078242   -7.3986657    203.77836  0.027345458  0.028112095            3 
  622000    1.0137153   -7.3800064    203.68759  0.027289334  0.028090696            1 
  623000    1.0128653   -7.3866084    204.42295  0.027343894  0.028069425            2 
  624000   0.99589773   -7.3657246    204.70154  0.027337279  0.028048044            2 
  625000    1.0062954   -7.4064097    204.89522  0.027319363  0.028026785            3 
  626000    0.9873559   -7.3795664    204.97359  0.027286154  0.028005459            2 
  627000   0.99924452    -7.428001    204.90866  0.027234006   0.02798403            4 
  628000   0.99961863   -7.3701677    205.18129  0.027226817   0.02796251            2 
  629000    1.0091853   -7.3687629    204.58469  0.027104489  0.027940525            3 
  630000   0.99900603   -7.3966183    205.15399  0.027136771  0.027918827            1 
  631000    1.0133764   -7.4025184    205.73141  0.027170023  0.027897177            3 
  632000   0.99105905   -7.4040142    205.66731   0.02711858  0.027875688            2 
  633000   0.99286031   -7.3699198     205.9205   0.02710907  0.027853957            3 
  634000   0.98286531   -7.4034912    205.49902  0.027010912  0.027832414            3 
  635000   0.99041332   -7.4060217    205.56557  0.026977109  0.027810461            2 
  636000    1.0212956   -7.3597744    206.86372  0.027104786  0.027788774            3 
  637000    1.0126713   -7.4161586    206.41889  0.027004041  0.027767259            2 
  638000   0.99487427   -7.3977093    206.60951  0.026986614  0.027746007            2 
  639000   0.98615564    -7.428066    207.19429  0.027020643  0.027724814            2 
  640000     0.992679   -7.3933613    207.47324  0.027014745  0.027703354            1 
  641000   0.99125497   -7.4045634    207.28682  0.026948364  0.027682119            6 
  642000     0.996154   -7.4219221    207.45798  0.026928607  0.027660961            1 
  643000   0.99163197   -7.3834893    207.37789  0.026876346  0.027639836            2 
  644000    1.0010319   -7.3771042    208.39899  0.026966743  0.027618802            1 
  645000    1.0070546   -7.3983269    208.09545  0.026885716  0.027598064            2 
  646000   0.99200413   -7.4076533    208.72872   0.02692579  0.027577037            2 
  647000   0.99466883   -7.4327164    208.02644   0.02679372  0.027555603            2 
  648000   0.99404052   -7.3896316    209.16217  0.026898428   0.02753447            1 
  649000     1.001339   -7.3952161    208.95198  0.026829992  0.027513325            1 
  650000    1.0111367   -7.3889903    209.69517  0.026883996  0.027492244            1 
  651000   0.99879418   -7.4194579    208.51854  0.026692082  0.027470857            1 
  652000   0.99301424   -7.4124637    209.62978  0.026793173  0.027449598            2 
  653000     1.015273   -7.4074212    209.36807  0.026718743  0.027428603            1 
  654000    1.0081842   -7.4157314    209.36623  0.026677655  0.027407464            3 
  655000   0.97735037   -7.4464154    209.19966  0.026615733  0.027386151            2 
  656000   0.98891015    -7.417498    210.11588   0.02669155  0.027365099            2 
  657000   0.98305181   -7.3831586    210.04372   0.02664177  0.027344109            2 
  658000    1.0000005   -7.4273616    210.16498  0.026616639  0.027322811            2 
  659000   0.99713818   -7.4087825    210.61404  0.026633035  0.027301525            2 
  660000   0.98221683   -7.4116323    211.23038  0.026670502  0.027280572            3 
  661000   0.98242122    -7.468153    211.03034  0.026604934  0.027259494            1 
  662000   0.99127418   -7.4416778    211.48098  0.026621472  0.027238725            1 
  663000   0.95591837   -7.4230554     211.6476  0.026602262   0.02721805            3 
  664000   0.98194266    -7.436282    212.47061  0.026665488  0.027197515            2 
  665000    0.9791045   -7.4179089    212.30614  0.026604779  0.027176974            1 
  666000   0.99626711   -7.4520696    211.99013  0.026525291   0.02715625            2 
  667000   0.97125252   -7.4098823    212.20913  0.026512884  0.027135755            4 
  668000   0.97741705   -7.3922093    212.22272   0.02647489  0.027115023            2 
  669000   0.98709238   -7.4241455    212.65807  0.026489545  0.027094162            3 
  670000   0.99433438   -7.4077481    212.66126  0.026450405  0.027073331            2 
  671000   0.99845379   -7.4222999    213.41106  0.026504105   0.02705289            1 
  672000    0.9866858   -7.4704356    212.86342  0.026396754   0.02703216            5 
  673000   0.98108358   -7.4338142    213.46721  0.026432294  0.027011888            1 
  674000   0.97354276   -7.4732648    213.81864  0.026436528  0.026991468            4 
  675000   0.98378906   -7.4341809    213.68125  0.026380401  0.026971172            4 
  676000   0.99617318   -7.4449343    214.17796  0.026402608  0.026950566            2 
  677000   0.98274381   -7.4327897     214.4963  0.026402794  0.026930205            2 
  678000   0.97493024    -7.419778    213.89173  0.026289544  0.026909892            3 
  679000    0.9691608    -7.417576    214.74107  0.026355065  0.026889511            3 
  680000   0.99552158    -7.456878    214.83059  0.026327278    0.0268693            3 
  681000   0.94889775   -7.4151563    214.72484  0.026275678  0.026849216            2 
  682000   0.96540854   -7.4403543     214.8954  0.026257991   0.02682913            1 
  683000   0.96876781   -7.4732581    215.37556   0.02627813  0.026808669            3 
  684000   0.98419663   -7.4438516    215.35221  0.026236868  0.026788668            2 
  685000   0.96220127   -7.4406714    215.79109  0.026251958  0.026768824            3 
  686000   0.98021136   -7.4525956      216.132  0.026255103   0.02674885            1 
  687000   0.95141882   -7.4441776    215.35573  0.026122723  0.026728514            2 
  688000   0.96388396   -7.4820144    215.82474  0.026141562  0.026708069            2 
  689000   0.97673787   -7.4979668     216.0331  0.026128821  0.026687762            1 
  690000   0.98552913   -7.4533482    216.31692  0.026125232  0.026667613            1 
  691000    0.9587374   -7.4377935    216.11856  0.026063502  0.026647345            2 
  692000   0.98122582   -7.4661906    216.74793  0.026101629  0.026626739            2 
  693000   0.98204037   -7.4717318    216.70165    0.0260584  0.026606328            2 
  694000   0.95948398   -7.4677319     216.6757  0.026017736  0.026585512            2 
  695000   0.98908266   -7.4464439    216.81099  0.025996522  0.026564995            2 
  696000   0.98872714   -7.4200539    217.09665  0.025993373  0.026544652            2 
  697000   0.97189091   -7.4197293    217.71729  0.026030283  0.026524437            2 
  698000   0.98395962   -7.4353089    217.41636  0.025957063  0.026503843            2 
  699000   0.97220222   -7.4608247    217.43661  0.025922343   0.02648331            1 
  700000   0.95460393   -7.4584891    217.05027  0.025839318  0.026462471            5 
  701000   0.95456394   -7.4834585    218.03281  0.025919259  0.026441818            1 
  702000   0.96221563    -7.475036    217.82768  0.025857987  0.026421163            3 
  703000   0.96802439   -7.4609447    217.45264  0.025776748   0.02640028            1 
  704000   0.99116069   -7.4782026    217.84526  0.025786608  0.026379429            2 
  705000   0.98496887   -7.4541267    218.22172  0.025794529   0.02635864            2 
  706000   0.95098417   -7.4548438    218.38287  0.025777014  0.026337839            2 
  707000   0.94947062   -7.4854432    217.99346  0.025694655  0.026316755            3 
  708000    0.9635791   -7.4450789    219.26458  0.025807978   0.02629594            2 
  709000   0.97669063   -7.4638283    218.80244  0.025717259  0.026275305            2 
  710000   0.94702894   -7.4764295    218.53179  0.025649271  0.026254621            1 
  711000   0.97628317   -7.4798517    218.78613  0.025643007  0.026233966            1 
  712000   0.97617417   -7.4688066    219.32001  0.025669477  0.026213189            2 
  713000    0.9820087   -7.4733343    219.49153  0.025653522  0.026192475            2 
  714000   0.95084763   -7.4816984    219.43135  0.025610568  0.026171592            3 
  715000    0.9569373   -7.4599693     219.9604   0.02563641  0.026151016            1 
  716000   0.97013699   -7.4378579    220.05749  0.025611905  0.026130586            2 
  717000   0.98314655   -7.4936477    219.87163  0.025554583  0.026110095            1 
  718000   0.95176719   -7.5102658    219.79057  0.025509583  0.026089359            1 
  719000   0.96590234   -7.4732077    220.22347  0.025524278   0.02606879            1 
  720000   0.96201198   -7.4959287    220.34361  0.025502733   0.02604783            1 
  721000   0.95444483   -7.4574424    220.21499  0.025452496  0.026026733            1 
  722000   0.95441804   -7.4928594    220.04909  0.025398095  0.026005856            3 
  723000   0.94843238   -7.4828324    219.91273  0.025347249  0.025984779            3 
  724000   0.93884798   -7.4435945    220.42865  0.025371621  0.025963842            2 
  725000   0.95552199   -7.4413817    220.70469  0.025368355    0.0259429            1 
  726000   0.94481161    -7.485147    220.35012  0.025292714  0.025921844            2 
  727000   0.99559436   -7.4937324    220.66239  0.025293718  0.025900765            2 
  728000    0.9804305   -7.5018958      220.938  0.025290522  0.025879741            2 
  729000   0.96260145   -7.4708847    221.45957  0.025315451  0.025858912            2 
  730000   0.97009238   -7.5018689    221.87553  0.025328257  0.025837984            1 
  731000   0.96319611   -7.5105874    221.69987  0.025273583  0.025817136            2 
  732000   0.97131266   -7.5113402    222.03058  0.025276705  0.025796622            2 
  733000   0.95272052   -7.5152626    222.39281  0.025283403  0.025776226            1 
  734000   0.97331511   -7.4943612    222.24061  0.025231677  0.025755901            3 
  735000   0.97046516   -7.4731385    222.77243  0.025257645  0.025735659            2 
  736000   0.95927048   -7.4956656    222.25326  0.025164545  0.025715347            2 
  737000   0.98194053   -7.5351683    222.75941  0.025187631  0.025694842            2 
  738000   0.96059209   -7.4871713    222.98027   0.02517844  0.025674302            2 
  739000     0.986695   -7.5010238    223.10606  0.025158554  0.025654034            4 
  740000   0.93821863   -7.4956915    222.96825  0.025109038  0.025633661            1 
  741000   0.96576137    -7.502603    223.69055  0.025156382  0.025613223            1 
  742000   0.95057198   -7.5030394     223.2378  0.025071631  0.025592789            1 
  743000   0.96806176   -7.5070596    223.30887  0.025045858  0.025572339            1 
  744000   0.93607155   -7.5022516    223.49213  0.025032721  0.025552159            1 
  745000   0.98200288   -7.4785556    223.87333  0.025041759  0.025531928            1 
  746000   0.94908689   -7.5047666    223.81406  0.025001571  0.025511874            3 
  747000   0.96052267   -7.5016228    224.48099  0.025042502  0.025491739            3 
  748000   0.95713328   -7.4666043    225.05583  0.025073065  0.025471586            3 
  749000   0.96087268   -7.4926082    224.74991  0.025005553  0.025451565            2 
  750000   0.94624333   -7.5062786    224.57024  0.024952249  0.025431494            2 
  751000   0.96587788   -7.4904175     224.5547  0.024917299  0.025411099            2 
  752000   0.95740075   -7.5140147     225.5893  0.024998814  0.025390936            3 
  753000   0.95345707   -7.5349353    225.45394  0.024950635  0.025371319            3 
  754000   0.95366897   -7.4757986    226.17309  0.024997026  0.025351556            1 
  755000   0.97070909   -7.5167774    225.60391  0.024901094   0.02533185            5 
  756000   0.94779105   -7.4950136    225.79053  0.024888727  0.025312063            1 
  757000    0.9690634    -7.505374    226.15355  0.024895812  0.025292648            1 
  758000    0.9373325   -7.5373894    225.92573  0.024837921  0.025272786            3 
  759000   0.94957015   -7.5194466    226.14923  0.024829736  0.025252843            3 
  760000   0.94390346   -7.5288709     225.2956  0.024703464  0.025233177            4 
  761000   0.94554729    -7.512252    226.58267  0.024811944  0.025213581            2 
  762000   0.92664548   -7.4981135    227.18952  0.024845748  0.025194276            4 
  763000   0.94723959   -7.4937975    227.21515  0.024815984  0.025174962            1 
  764000    0.9366046   -7.4990389    227.40592  0.024804311  0.025155774            2 
  765000   0.95177026   -7.5529155    227.43564  0.024775124  0.025136309            1 
  766000   0.95194102   -7.4992952    228.27342  0.024833923  0.025117061            2 
  767000   0.95689566   -7.5136289    228.33099    0.0248078  0.025098154            2 
  768000   0.94980098    -7.490512    228.66034  0.024811235  0.025079277            1 
  769000   0.95249217   -7.5213643    229.18377  0.024835693  0.025060335            2 
  770000   0.96517253   -7.5263263    228.51651  0.024731224  0.025041119            2 
  771000   0.94722962   -7.5378626    228.05269  0.024649015   0.02502189            3 
  772000   0.93986219    -7.503268    228.52793  0.024668386  0.025002551            2 
  773000   0.94519076   -7.5344023    228.59223  0.024643405  0.024983381            1 
  774000   0.94306019   -7.5227751    229.16129  0.024672835  0.024964365            2 
  775000   0.95255147   -7.5467177    229.22568  0.024647923  0.024945106            3 
  776000   0.94400459   -7.5368134      229.335    0.0246279   0.02492589            3 
  777000   0.95358665   -7.5072151    229.79496  0.024645534  0.024906666            2 
  778000   0.94256105   -7.5254893     229.8412  0.024618809  0.024887693            1 
  779000   0.91838607   -7.5361144    230.19676  0.024625242  0.024868836            3 
  780000   0.96786621   -7.5102423    229.57863  0.024527632  0.024849912            3 
  781000   0.94810585   -7.5113846    230.31398  0.024574689  0.024831149            6 
  782000   0.94446586   -7.5107187    230.67889   0.02458215  0.024812438            2 
  783000   0.93862427   -7.5481092    230.45624  0.024527059  0.024793652            1 
  784000   0.93891653   -7.5203938    230.62216   0.02451341  0.024774846            1 
  785000   0.93240697   -7.5552363    230.97813  0.024519971  0.024755858            2 
  786000   0.94897215   -7.5545918    230.25569  0.024412181  0.024737001            2 
  787000   0.92229665   -7.5404258    230.49435  0.024406433  0.024718008            1 
  788000   0.92671961   -7.5907574    230.55237  0.024381596  0.024698912            2 
  789000   0.95435463    -7.521043    231.76502  0.024478773  0.024679961            1 
  790000   0.92265992   -7.5186824    231.28669   0.02439733  0.024661304            3 
  791000   0.94406664   -7.5527527    230.92227  0.024328094  0.024642567            1 
  792000   0.92919078   -7.5557577    231.19715    0.0243263   0.02462357            3 
  793000   0.93731029   -7.5175711    232.49738  0.024432259  0.024604441            2 
  794000   0.94557072   -7.5661542    230.59931  0.024202278  0.024585056            3 
  795000   0.92970937   -7.5747714     230.8695  0.024200158  0.024565617            2 
  796000   0.93682358   -7.5668166    231.19463  0.024203793  0.024546109            1 
  797000   0.91398615   -7.5834411    230.94592  0.024147419  0.024526576            2 
  798000    0.9315716   -7.5699592    231.86834  0.024213486  0.024507295            1 
  799000   0.94360117   -7.5736696    231.97709  0.024194523  0.024488153            1 
  800000   0.90530301   -7.5545316    231.84624   0.02415065  0.024468843            2 
  801000   0.93363619   -7.6073434    231.66664  0.024101815  0.024449716            1 
  802000   0.94465554   -7.5338607    232.06847  0.024113515  0.024430609            3 
  803000   0.94694198   -7.6030828    231.76002  0.024051476   0.02441158            2 
  804000   0.93075551   -7.5004935    233.79874  0.024232871  0.024392804            3 
  805000   0.93981797   -7.5959849    232.75608  0.024094832   0.02437403            3 
  806000   0.95012393   -7.5420085    233.40498  0.024132028  0.024355136            2 
  807000   0.92687111    -7.549471     232.8291  0.024042658  0.024335943            1 
  808000   0.95094747   -7.5578644    233.20498  0.024051668    0.0243169            1 
  809000   0.92206439   -7.5545948    233.10587   0.02401173   0.02429778            2 
  810000   0.94142515   -7.5436436    232.61774  0.023931867  0.024278603            1 
  811000   0.92706733   -7.5798127    232.87115  0.023928396  0.024259427            2 
  812000   0.94468372   -7.5371971    233.65909  0.023979792  0.024240211            4 
  813000   0.94989185   -7.5587764    233.25985  0.023909373  0.024220973            1 
  814000    0.9410673   -7.5488274    233.50285  0.023904878  0.024201709            1 
  815000   0.92721845   -7.5853329     233.6925  0.023894939  0.024182502            1 
  816000    0.9247494   -7.5771798    234.42945  0.023940916  0.024163194            2 
  817000   0.93552173   -7.5678893     233.9281  0.023860475  0.024144072            3 
  818000   0.93259569    -7.575669    234.18076  0.023857045  0.024125101            1 
  819000   0.93087798   -7.5821726    234.15045  0.023824832  0.024106136            1 
  820000   0.93222576   -7.5473938    235.39386   0.02392214  0.024087245            1 
  821000    0.9386169   -7.5942735    234.39919  0.023792041  0.024068545            1 
  822000   0.93270141   -7.6181043    235.45514  0.023870148   0.02404969            2 
  823000   0.92379787   -7.5840684    234.91217  0.023786166  0.024030791            2 
  824000   0.93315844   -7.6126901    234.84666  0.023750674  0.024012099            4 
  825000   0.91844448   -7.5620092    235.13981  0.023751495  0.023993334            1 
  826000   0.93274285   -7.5663509    235.71324  0.023780594  0.023974699            1 
  827000   0.92502479   -7.6091232    235.47562  0.023727894  0.023955998            1 
  828000   0.94430972   -7.5726153    236.45952  0.023798261  0.023937183            2 
  829000   0.91362128   -7.5790775    235.89244  0.023712549  0.023918438            1 
  830000   0.92863612    -7.585365    235.87211  0.023681938   0.02389961            3 
  831000    0.9433431   -7.5573158    235.83648  0.023649868  0.023881022            1 
  832000   0.92640818   -7.5846556    236.28741  0.023666608  0.023862412            2 
  833000   0.92425414   -7.6052066    235.65706  0.023575136  0.023843669            2 
  834000   0.90782659   -7.5786077     236.6115  0.023642236  0.023825241            3 
  835000   0.94063247   -7.5463833    236.70181  0.023622936  0.023806951            3 
  836000   0.91324628    -7.552753    236.85496  0.023609944  0.023788567            3 
  837000   0.92208433   -7.5947986    236.56862  0.023553228  0.023770029            3 
  838000   0.91872859   -7.5716769     236.8719  0.023555281  0.023751621            3 
  839000   0.92577753   -7.5834523    237.44282  0.023583911  0.023733326            2 
  840000   0.91653825   -7.5701874    236.91254  0.023503228  0.023714968            3 
  841000   0.91524041   -7.5702785    237.69535  0.023552849  0.023696527            4 
  842000   0.93705515   -7.6050408    236.75864  0.023432169   0.02367813            1 
  843000   0.92611989   -7.5717357     238.0454  0.023531574  0.023659514            5 
  844000   0.91377255   -7.5835041    238.21594  0.023520531  0.023641033            1 
  845000   0.90093405   -7.6144616    237.77739  0.023449447  0.023622573            1 
  846000   0.91053353   -7.6043446    237.67374  0.023411519  0.023604231            3 
  847000   0.95339918   -7.5690885    238.25493  0.023441059  0.023586032            3 
  848000   0.93672439   -7.5676349    238.27266  0.023415159  0.023567685            2 
  849000   0.91282492   -7.5974927     238.3988   0.02339996  0.023549418            2 
  850000   0.91291953   -7.5732176    238.81798  0.023413527  0.023531141            1 
  851000   0.92971004   -7.5886949     238.8671  0.023390825  0.023512782            2 
  852000   0.93490568   -7.6237282    237.96542  0.023275178  0.023494316            1 
  853000   0.90998516   -7.5957274     238.9456   0.02334365  0.023476022            2 
  854000     0.905086     -7.57758    239.43926  0.023364487  0.023457762            2 
  855000   0.91193476   -7.5981351    238.92377  0.023286917  0.023439517            3 
  856000   0.90777093   -7.6008503    239.56421  0.023322061  0.023421612            2 
  857000   0.90781721   -7.5997048    239.61783  0.023300062  0.023403631            1 
  858000   0.90412305   -7.5897423     239.1841  0.023230779  0.023385643            2 
  859000   0.90235587    -7.644889    239.70519  0.023254287  0.023367624            2 
  860000   0.91936249   -7.6261056    239.99692  0.023255515  0.023349626            2 
  861000    0.9155829   -7.6254526    239.48044  0.023178518  0.023331617            2 
  862000   0.93500745   -7.6161351    240.66755  0.023266391  0.023313645            2 
  863000   0.90574309   -7.6135884    239.71232  0.023147192   0.02329562            1 
  864000    0.9047111   -7.6163804    240.58241  0.023204322  0.023277535            2 
  865000   0.90585089   -7.6155932    240.04189  0.023125423  0.023259472            4 
  866000   0.90222928   -7.5899301    240.52001  0.023144728  0.023241394            2 
  867000   0.90176795   -7.6179966     240.4893  0.023115081  0.023223408            3 
  868000   0.91414156   -7.6189584     240.9247  0.023130251  0.023205293            6 
  869000   0.90626667   -7.6070313    240.22013  0.023036069  0.023187123            1 
  870000   0.89585474   -7.6352868    240.35418  0.023022431  0.023168986            2 
  871000   0.90931682   -7.6062512    240.99174  0.023056997  0.023150679            1 
  872000   0.91701003   -7.6462889    240.58258  0.022991455   0.02313248            1 
  873000   0.90861656   -7.5794779    241.61535  0.023063702  0.023114324            1 
  874000   0.93056825   -7.6235584    241.79396  0.023054344  0.023096396            3 
  875000    0.9146451   -7.5844691    241.88888  0.023037036  0.023078424            2 
  876000   0.92995836   -7.6308691    241.85821  0.023007821  0.023060701            2 
  877000   0.91089847   -7.6106174    241.18998   0.02291809  0.023042869            4 
  878000   0.91107513   -7.6461896    241.44635  0.022916321   0.02302506            2 
  879000   0.89524277   -7.6428688    241.38312  0.022884255  0.023007244            3 
  880000   0.90462831   -7.6189274    241.80789  0.022898474  0.022989412            2 
  881000     0.903813   -7.6360199    242.00595  0.022891217   0.02297155            1 
  882000   0.92133906   -7.6545132    242.25681  0.022888965  0.022953894            1 
  883000   0.90053859   -7.6403951    242.58412  0.022893933  0.022936428            2 
  884000   0.91115137   -7.6118535    243.05779  0.022912687  0.022918981            2 
  885000   0.90008434   -7.6239049    242.86457  0.022868604  0.022901656            1 
  886000   0.90446355   -7.6103502    243.10603  0.022865503  0.022884321            2 
  887000   0.89379762   -7.6177249    243.49256  0.022876039  0.022867009            2 
  888000   0.89711906   -7.6329504    243.64172  0.022864275  0.022849757            2 
  889000   0.87668485   -7.6260617    243.58434  0.022833177  0.022832545            5 
  890000   0.91914158   -7.6049927    243.70138  0.022818482  0.022815423            3 
  891000    0.9171725   -7.6602039    243.62542  0.022785767  0.022798235            2 
  892000   0.90856997   -7.6210176    243.57939  0.022755922  0.022780909            1 
  893000   0.87398617   -7.6301294    244.29061   0.02279681  0.022763564            1 
  894000   0.90791973   -7.6761265    242.99193  0.022650254  0.022746036            1 
  895000   0.89138335   -7.6478729    243.96636  0.022715676  0.022728451            3 
  896000    0.8934204   -7.6573166    243.51729  0.022648558  0.022710938            1 
  897000   0.89355249   -7.6751221    244.32576  0.022698417  0.022693402            4 
  898000   0.89037991   -7.6595955    244.25148  0.022666247  0.022675788            3 
  899000    0.8902572   -7.6473231    244.26616  0.022642395   0.02265826            2 
  900000   0.89268868   -7.6356827    244.43039  0.022632443    0.0226409            2 
  901000   0.89730935    -7.627531    244.25282  0.022590901  0.022623636            1 
  902000   0.89851841   -7.6167679    244.36225  0.022575965  0.022606059            5 
  903000   0.90466942   -7.6005878    244.76261  0.022587912  0.022588487            2 
  904000    0.9078246   -7.6399911    244.29273   0.02251961  0.022570863            2 
  905000    0.8770765   -7.6688541    244.47244  0.022511275  0.022553114            3 
  906000   0.87563165    -7.655455    244.26057   0.02246694  0.022535295            3 
  907000   0.88295267   -7.6740729    244.49578   0.02246378  0.022517471            3 
  908000   0.89348935   -7.6740619    244.87507   0.02247385  0.022499632            2 
  909000   0.87939922   -7.6152326    244.98236  0.022458962  0.022481952            2 
  910000   0.89474464   -7.6697555    244.63545  0.022402514  0.022464334            2 
  911000   0.88908535     -7.64725     245.1075  0.022421104  0.022446647            2 
  912000   0.89271589   -7.6290014    245.45924  0.022428659  0.022429023            2 
  913000   0.87741646    -7.671408    245.28153  0.022387873  0.022411575            2 
  914000   0.87836998   -7.6897537    244.88071  0.022326834   0.02239391            6 
  915000   0.88603638   -7.6341963    245.43191  0.022352633  0.022376379            1 
  916000   0.91661778   -7.6642402    245.17381   0.02230475  0.022358792            1 
  917000   0.89476188   -7.6601882     245.6844  0.022326827  0.022341328            2 
  918000   0.91438917   -7.6567098    245.86839  0.022319208  0.022323831            1 
  919000   0.87785997    -7.628954    246.32529  0.022336352  0.022306357            5 
  920000   0.90068323   -7.6411721    245.85933  0.022269867  0.022288925            2 
  921000   0.88019827   -7.6389279    245.93024  0.022252103  0.022271578            2 
  922000   0.89083768   -7.6712621    246.01899   0.02223599  0.022253961            4 
  923000   0.87876954   -7.6735076    246.17362  0.022225859  0.022236512            1 
  924000   0.87013797   -7.6480251    246.85017  0.022262822  0.022218952            2 
  925000   0.89031365   -7.7013472     245.6906  0.022134288  0.022201276            7 
  926000   0.90116044   -7.6815013    246.08543  0.022145917  0.022183632            2 
  927000   0.87964218   -7.6864946    246.84601    0.0221904   0.02216613            2 
  928000   0.89906527   -7.6924648    246.20027  0.022108501    0.0221485            2 
  929000   0.88154498   -7.7044832    246.16027  0.022081115  0.022130853            2 
  930000   0.89362642   -7.6733505    246.64522  0.022100826  0.022113264            1 
  931000   0.86672383   -7.6809354     247.0098  0.022109721  0.022095813            2 
  932000   0.89003648   -7.6899138    246.74763  0.022062557  0.022078343            2 
  933000   0.87858209   -7.6863502    247.06843  0.022067563  0.022060993            3 
  934000   0.87008574   -7.7003906     246.5977  0.022001936  0.022043599            2 
  935000    0.8694824   -7.6864835    247.67429  0.022074358  0.022026159            3 
  936000   0.88667456   -7.7030246    246.98499  0.021989404  0.022008816            3 
  937000   0.87493878    -7.706147      247.401  0.022002935  0.021991512            2 
  938000   0.89878028   -7.6544742    247.45113  0.021983931  0.021974324            3 
  939000   0.88292615   -7.6751813    247.62653  0.021976085  0.021957139            4 
  940000   0.87159047   -7.7212461    247.24887  0.021919226  0.021940025            3 
  941000   0.86212237   -7.6996366    248.64768  0.022019809  0.021923107            3 
  942000   0.87413136   -7.6519212    248.76272   0.02200661  0.021906208            4 
  943000   0.87516237   -7.6800533    248.78307  0.021985071   0.02188919            2 
  944000   0.87599063   -7.6802504    248.88298  0.021970602  0.021872156            3 
  945000   0.87687024   -7.7062255    248.74014  0.021934756  0.021855244            2 
  946000   0.87587259   -7.6639327    249.10109  0.021943366  0.021838293            2 
  947000   0.86525189   -7.7009234    248.54642  0.021871385  0.021821347            4 
  948000   0.86951893   -7.6704879    248.92663  0.021881736  0.021804519            1 
  949000   0.87733474   -7.6494127    249.62132   0.02191968  0.021787621            1 
  950000   0.88267839   -7.6609137    249.77473  0.021910064  0.021770704            1 
  951000   0.88122864   -7.6526666    249.21466  0.021837948  0.021753941            1 
  952000   0.85329929   -7.7098446    249.29761   0.02182227  0.021737234            4 
  953000   0.84044001   -7.6956443    249.89631  0.021851723  0.021720486            2 
  954000   0.88015231   -7.7208717     249.7339  0.021814631  0.021703625            1 
  955000    0.8538186     -7.70362    249.87049  0.021803708    0.0216868            2 
  956000   0.88461672   -7.7015305    249.94362  0.021787275  0.021670127            2 
  957000   0.86551772    -7.702706    249.28415  0.021707084  0.021653376            5 
  958000   0.88055741   -7.7197056    249.35862  0.021690903  0.021636774            2 
  959000   0.87207506   -7.7205512    249.67585  0.021695851  0.021620112            2 
  960000   0.85262727    -7.700631    250.17571  0.021716642  0.021603405            3 
  961000   0.86850184   -7.7101449     249.9914  0.021678061  0.021586655            3 
  962000    0.8772603   -7.6763062    250.56481  0.021705198  0.021570154            2 
  963000   0.88996529   -7.6944596    250.32178  0.021661629   0.02155349            2 
  964000   0.87181536   -7.6828372    250.38563  0.021644678  0.021536979            5 
  965000   0.86570606    -7.671307    251.17518   0.02169043  0.021520515            1 
  966000   0.88353421   -7.6995396    251.29133  0.021677996  0.021503938            3 
  967000   0.87545548   -7.6965099    251.47556  0.021671455  0.021487409            2 
  968000   0.85810039   -7.7270971    250.67839   0.02158044  0.021470778            3 
  969000    0.8686212   -7.7159038    250.97726  0.021583872  0.021454148            2 
  970000   0.88597359   -7.7586528    250.78174  0.021544823  0.021437464            4 
  971000   0.85494223   -7.7391731    251.07183  0.021547531  0.021420872            2 
  972000   0.84192155   -7.7201364    251.38177  0.021551935  0.021404364            2 
  973000   0.87039102   -7.6987727    251.56503   0.02154548  0.021387806            3 
  974000   0.87275997   -7.7160688    251.41753   0.02151074  0.021371275            3 
  975000   0.86382091   -7.7379567    251.10677  0.021462117  0.021354709            4 
  976000   0.86989166   -7.7143272    251.46178  0.021470438   0.02133823            2 
  977000   0.86094821    -7.730672    252.17024  0.021508891  0.021321746            2 
  978000   0.86843422   -7.7324045    251.45746  0.021426164  0.021305225            4 
  979000   0.87229345   -7.7389332    251.60999  0.021417262  0.021288579            2 
  980000   0.84883634   -7.7117223    251.68757  0.021402005  0.021271823            2 
  981000   0.88344514   -7.7283901    251.75902  0.021386257  0.021255219            7 
  982000   0.85554795   -7.7179124    251.71535  0.021360773  0.021238654            3 
  983000   0.85544934   -7.7540173    251.86705  0.021351903  0.021222194            1 
  984000   0.83944119   -7.7341817    252.68915  0.021399826  0.021205733            2 
  985000   0.86507107   -7.7189384    252.20802  0.021337396  0.021189309            4 
  986000   0.87186341   -7.6903699    252.41744  0.021333455  0.021173051            4 
  987000   0.86121256    -7.716933    252.04945  0.021280771  0.021156668            1 
  988000   0.84793905   -7.7129154    252.36076  0.021285489   0.02114032            2 
  989000   0.86920201   -7.7029317     252.9135  0.021310541  0.021123997            4 
  990000   0.84499496   -7.7457448     253.1971  0.021312887  0.021107689            3 
  991000   0.85327192   -7.7584837    252.13589  0.021202144  0.021091423            2 
  992000   0.85437892   -7.7256664    252.75994  0.021233194  0.021075047            2 
  993000   0.86051675   -7.7109739    254.23323   0.02133545  0.021058748            2 
  994000   0.83726135   -7.6974182    253.88401  0.021284709   0.02104264            3 
  995000   0.86270958    -7.745798    253.71263  0.021248964  0.021026567            2 
  996000    0.8521374   -7.7446332    253.21592  0.021186071  0.021010503            2 
  997000   0.85072955   -7.7177287    253.44888  0.021184293  0.020994364            1 
  998000   0.85085913    -7.727099    253.42586  0.021161144  0.020978307            2 
  999000    0.8634614   -7.7002708    253.76796  0.021168499  0.020962209            2 
 1000000   0.85420162   -7.7272015     254.5819  0.021215158  0.020946265            1 
 1001000   0.84986225   -7.7355916    253.80798  0.021129535  0.020930204            2 
 1002000    0.8575624    -7.759465    253.87752  0.021114232  0.020914085            1 
 1003000   0.84282679   -7.7642031    252.90646  0.021012501  0.020897897            2 
 1004000   0.86865133    -7.748627      253.962  0.021079184  0.020881793            2 
 1005000   0.86567361   -7.7486949    254.14858   0.02107368  0.020865729            2 
 1006000     0.852594   -7.7579109    254.41998  0.021075214  0.020849737            3 
 1007000   0.86024451    -7.715029    254.71737  0.021078895  0.020833822            2 
 1008000   0.84949324   -7.7162778    254.53436  0.021042854  0.020817892            1 
 1009000   0.83797713   -7.7252778    255.52762  0.021104032  0.020802041            1 
 1010000   0.83592798   -7.7437993    255.63878  0.021092308  0.020786203            4 
 1011000   0.83789499   -7.7320616    255.32072  0.021045229  0.020770577            3 
 1012000    0.8536362   -7.7249912    255.47789  0.021037376  0.020754952            2 
 1013000   0.86030888   -7.7670929    255.02584  0.020979421  0.020739121            1 
 1014000   0.85699525   -7.7575497    255.05048  0.020960756  0.020723216            6 
 1015000   0.86332101   -7.7428771    254.95746  0.020932468  0.020707322            4 
 1016000    0.8512585   -7.7410603    255.33762  0.020943046    0.0206914            2 
 1017000   0.82448541   -7.7561732    254.99922  0.020894725  0.020675407            3 
 1018000   0.84791851   -7.7669267    254.73658    0.0208527  0.020659325            6 
 1019000   0.83456466   -7.7649529    254.63626  0.020824031  0.020643226            3 
 1020000   0.83356581   -7.8058667    254.47811  0.020790695  0.020627101            4 
 1021000    0.8493166   -7.7662988    255.52971  0.020856163  0.020611016            2 
 1022000   0.85365221   -7.7716064    255.18578  0.020807712  0.020594877            1 
 1023000   0.83882906    -7.822849    254.84055   0.02075925  0.020578667            1 
 1024000   0.85524049   -7.7890091    254.93303  0.020746503  0.020562456            1 
 1025000   0.83137081   -7.7635887    255.14883  0.020743807  0.020546341            3 
 1026000   0.85446547   -7.7481046    255.21343  0.020728836  0.020530326            2 
 1027000   0.84733669   -7.6966057     256.2185  0.020790206  0.020514436            3 
 1028000   0.85493564   -7.7603752    255.60509  0.020720257  0.020498512            2 
 1029000   0.85814842    -7.761071    255.61361  0.020700811  0.020482509            1 
 1030000   0.83304305   -7.7698968     256.3076  0.020736861   0.02046652            2 
 1031000   0.84963758   -7.7922854    255.26616   0.02063257  0.020450502            1 
 1032000   0.82101799   -7.7691943    255.45806  0.020628073  0.020434537            3 
 1033000   0.83135799   -7.7419367    256.33251  0.020678647   0.02041862            1 
 1034000   0.82861446   -7.7864659    256.57328  0.020678053  0.020402654            2 
 1035000   0.87364463   -7.7666665    256.40013  0.020644133  0.020386741            1 
 1036000   0.84247214   -7.7765597    256.26029  0.020612958   0.02037074            2 
 1037000   0.84039823   -7.7922389    255.55743  0.020536598  0.020354727            5 
 1038000   0.82534857   -7.7753999    256.46572  0.020589733  0.020338798            3 
 1039000   0.83467453   -7.7791239    256.42826  0.020566912  0.020322713            3 
 1040000   0.83823452   -7.7842432    256.00229  0.020513004  0.020306795            3 
 1041000   0.84609058   -7.7594151    256.48636  0.020532049    0.0202908            2 
 1042000   0.83304545   -7.7904503    256.05505  0.020477851  0.020274745            1 
 1043000   0.83079466    -7.775097    256.07225  0.020459592  0.020258686            3 
 1044000   0.83187564   -7.8160742    255.90026  0.020426266  0.020242617            3 
 1045000   0.82413994   -7.8246548    255.95999  0.020411482   0.02022647            3 
 1046000    0.8334103   -7.7908022    256.48787  0.020434024  0.020210334            8 
 1047000   0.82396969   -7.7891252    256.04893  0.020379571  0.020194254            2 
 1048000   0.83683654   -7.7721179    256.56629  0.020401263  0.020178259            5 
 1049000    0.8405284   -7.8008229    255.88308   0.02032754  0.020162195            2 
 1050000   0.84900504   -7.7737366     256.2703  0.020338913  0.020146116            2 
 1051000   0.85011989   -7.8091372    256.11111  0.020306939  0.020130003            4 
 1052000   0.83664431   -7.7858132    256.61666  0.020327682  0.020113964            3 
 1053000   0.82382727   -7.7733512    257.11804  0.020348056  0.020097997            2 
 1054000   0.83529443   -7.8012943    256.12027  0.020249863  0.020082009            4 
 1055000   0.83488929   -7.7883576    256.79587  0.020284034  0.020066132            2 
 1056000   0.81774096   -7.7699034    256.93512  0.020275814   0.02005023            2 
 1057000   0.82334569   -7.8042219    257.43078  0.020295709  0.020034184            5 
 1058000   0.83048549   -7.7970553     257.0021  0.020242761  0.020018164            2 
 1059000   0.81438303   -7.8180243    257.05664  0.020227938  0.020002128            5 
 1060000   0.83728277   -7.7869356    257.59313  0.020251032  0.019986137            4 
 1061000   0.84218797   -7.8291901    257.69211  0.020239719  0.019970133            3 
 1062000   0.83140021    -7.841268    256.88972    0.0201577  0.019954027            2 
 1063000   0.82322217    -7.774293    257.46659   0.02018396   0.01993799            3 
 1064000   0.82601785   -7.8198974    257.15899  0.020140899  0.019922076            6 
 1065000   0.81253012   -7.8115375    256.88773  0.020100761  0.019905973            3 
 1066000   0.81718205   -7.8318519    256.60115  0.020059502  0.019889842            3 
 1067000   0.82914905    -7.795141    256.93168  0.020066517  0.019873866            4 
 1068000   0.84036621   -7.8088985    257.72909  0.020109948  0.019857982            3 
 1069000   0.81320477   -7.7730963    258.10792  0.020120667   0.01984206            3 
 1070000   0.84308237    -7.811424    257.44434  0.020050182  0.019826173            3 
 1071000   0.84224657   -7.8020201    257.70185  0.020051498  0.019810147            2 
 1072000   0.83175879    -7.810947    257.14054  0.019989159  0.019794208            2 
 1073000   0.80969534   -7.7840051    257.36737  0.019988146  0.019778273            2 
 1074000   0.81459498   -7.8006422    258.01213  0.020019563  0.019762386            2 
 1075000   0.82494063   -7.8145958     257.5487  0.019965015  0.019746504            2 
 1076000   0.82471088   -7.8220322    257.80307  0.019966161  0.019730724            3 
 1077000   0.81551237   -7.8204967    258.37089  0.019991558  0.019714853            6 
 1078000   0.83371105   -7.8070587    258.41896  0.019976729  0.019699093            2 
 1079000   0.83431954   -7.8263434    258.34392  0.019952419  0.019683357            2 
 1080000    0.8277658   -7.8178416    258.16973  0.019920504  0.019667539            4 
 1081000    0.8315619   -7.8303275    258.40991  0.019920591  0.019651732            2 
 1082000   0.81485522   -7.8274159    258.20226  0.019886187  0.019635967            3 
 1083000   0.82084808   -7.8258894    258.82779  0.019915958  0.019620287            2 
 1084000   0.81434109   -7.8188757    258.84655  0.019899028  0.019604646            3 
 1085000   0.82735865   -7.7970299    258.15836  0.019827831  0.019588994            2 
 1086000   0.81436038   -7.7992975    258.62719  0.019845548  0.019573482            1 
 1087000   0.83445081   -7.8131394    258.87338  0.019846165  0.019557793            1 
 1088000   0.81986971   -7.8352542    258.96093   0.01983463  0.019542082            2 
 1089000   0.82200924   -7.8015122    259.21361  0.019835752  0.019526416            3 
 1090000    0.8123786    -7.837659    258.66777  0.019775823  0.019510806            1 
 1091000   0.80286933   -7.8153209    258.59675  0.019752272  0.019495188            4 
 1092000   0.82512546   -7.8507065    258.91103  0.019758168  0.019479536            5 
 1093000   0.81854705    -7.823545    259.20997  0.019762883  0.019463889            3 
 1094000   0.79530071   -7.8319799    259.10652  0.019736938   0.01944832            2 
 1095000   0.79803876   -7.8424016    259.49444  0.019748436  0.019432835            4 
 1096000   0.82715735   -7.7638695    259.47612  0.019729023  0.019417358            2 
 1097000   0.80991336   -7.8123077    259.27987  0.019696131  0.019401945            2 
 1098000   0.80688694   -7.8185178    259.57642  0.019700699  0.019386515            2 
 1099000     0.819646   -7.8068626     259.6969  0.019691909  0.019371098            1 
 1100000   0.80869687   -7.8441554    259.92632  0.019691388  0.019355705            1 
 1101000    0.8180089   -7.8309146    259.70597  0.019656825  0.019340303            2 
 1102000   0.79696303   -7.8280992    259.86927  0.019651337  0.019324927            1 
 1103000    0.8109724   -7.8454748    259.99942  0.019643353  0.019309539            1 
 1104000    0.8142891    -7.850015    259.87132  0.019615891  0.019294018            3 
 1105000   0.80909381   -7.8471354    259.74621  0.019588703  0.019278517            4 
 1106000   0.79484197   -7.8353928    259.98959   0.01958933  0.019263008            2 
 1107000   0.80294345   -7.8471572    259.81393  0.019558411  0.019247532            2 
 1108000   0.81667786   -7.8525587    259.57361  0.019522684  0.019232048            1 
 1109000   0.81296701   -7.8796077    260.06428  0.019541951   0.01921658            1 
 1110000   0.81186197    -7.857099    259.80892  0.019505174  0.019201121            3 
 1111000   0.81598856    -7.876199    259.62334  0.019473698  0.019185626            6 
 1112000   0.80184288   -7.8960473    259.33163  0.019434325   0.01917018            2 
 1113000    0.8185045   -7.8396031    260.34489  0.019492729  0.019154828            6 
 1114000   0.81749664   -7.8284835    260.19452  0.019463982  0.019139444            2 
 1115000    0.8024581   -7.9085545    260.18305  0.019445669  0.019124106            2 
 1116000   0.83386508   -7.8712042    260.67055  0.019464647  0.019108764            2 
 1117000   0.80972289   -7.9030512      260.233  0.019414578   0.01909347            2 
 1118000   0.81854447   -7.8741701    261.02579  0.019456305   0.01907827            1 
 1119000   0.82577536   -7.8850498    260.57854   0.01940561  0.019063098            3 
 1120000   0.80859342    -7.858286     261.5661  0.019461763  0.019047881            2 
 1121000    0.8123036     -7.85811     260.7975  0.019387266  0.019032648            2 
 1122000   0.79326683   -7.8447692    261.61312  0.019430564  0.019017512            1 
 1123000   0.77587062   -7.8747688    261.30542  0.019390429   0.01900231            2 
 1124000    0.8151101   -7.9036472    260.85362  0.019339681  0.018987185            1 
 1125000   0.79785402   -7.8690985    261.33797  0.019358368  0.018972091            2 
 1126000   0.80342308   -7.8640171    261.68502  0.019366861  0.018956985            1 
 1127000   0.79183409    -7.857653    261.30971  0.019321925  0.018941882            3 
 1128000   0.81605319   -7.9020476    261.06083  0.019286409  0.018926831            2 
 1129000   0.79355954   -7.8786678    261.43787  0.019297156  0.018911836            1 
 1130000   0.79299597   -7.8783588    261.75484  0.019303455  0.018896847            2 
 1131000   0.80314581   -7.9024723    261.27544  0.019251064  0.018881829            3 
 1132000   0.81077374   -7.8781006    261.00773   0.01921435  0.018866727            2 
 1133000   0.80267128   -7.8724416    261.86488  0.019260436    0.0188517            4 
 1134000   0.79695792   -7.8586962    261.82479  0.019240505    0.0188367            2 
 1135000   0.78529756   -7.9096849    261.05019  0.019166681  0.018821673            1 
 1136000     0.809476   -7.8723313    261.44761  0.019178962  0.018806696            3 
 1137000   0.79927827   -7.8536917    262.11993   0.01921137  0.018791817            2 
 1138000   0.79947661   -7.8502121    262.38744  0.019214077  0.018776983            3 
 1139000   0.80696665   -7.8770114    262.38946  0.019197356  0.018762192            3 
 1140000   0.81146772   -7.8616392    261.81843  0.019138774  0.018747387            3 
 1141000   0.79022568   -7.8862635    262.30211  0.019157326  0.018732582            3 
 1142000    0.8085789   -7.8711414    261.98035  0.019117072   0.01871779            2 
 1143000   0.78928511     -7.87381    262.20871  0.019116995  0.018702843            2 
 1144000   0.79607885   -7.8907503    261.59334  0.019055459  0.018687924            2 
 1145000    0.7900753   -7.9066715    261.97983  0.019066945  0.018672937            4 
 1146000   0.80566466   -7.8729987    262.53936  0.019090995   0.01865802            3 
 1147000   0.80006661    -7.900229    261.95835  0.019032138  0.018643067            3 
 1148000   0.79936765   -7.9300074     261.9318  0.019013632  0.018628108            2 
 1149000   0.79607098   -7.8877431    261.65098  0.018976717  0.018613124            3 
 1150000   0.80367839   -7.9019259    262.13899  0.018995579  0.018598139            3 
 1151000   0.81452898   -7.9042989    262.24841  0.018986998  0.018583228            2 
 1152000   0.77594775   -7.9456152    261.92271  0.018946956  0.018568299            5 
 1153000   0.78854992   -7.9108382    262.79464  0.018993541  0.018553405            2 
 1154000   0.78236448   -7.9233662    262.05955     0.018924  0.018538553            3 
 1155000   0.79492427   -7.9110998    262.23091  0.018919979  0.018523686            1 
 1156000   0.77233881   -7.9120373    262.78655  0.018943667  0.018508798            3 
 1157000   0.79027959   -7.9327439    262.69494  0.018920696  0.018493941            2 
 1158000   0.80551319   -7.9046081    262.64372  0.018900671  0.018479016            2 
 1159000    0.7986159   -7.9095329    262.23347  0.018854866  0.018464142            5 
 1160000   0.78676037   -7.9196091    262.75493  0.018876072  0.018449316            2 
 1161000   0.78859789   -7.9321101    263.21132  0.018892573   0.01843447            2 
 1162000    0.8072783   -7.9106351    262.41422   0.01881915   0.01841967            2 
 1163000   0.78827953   -7.9261926    262.87386  0.018835903  0.018404827            1 
 1164000   0.79080716   -7.8939845    263.49985  0.018864537  0.018390078            1 
 1165000   0.80359223   -7.9050644    263.34736  0.018837436  0.018375332            1 
 1166000   0.78514244   -7.8996553    263.79029  0.018852936  0.018360612            4 
 1167000   0.78509629   -7.9128437    263.18475  0.018793541  0.018345867            2 
 1168000   0.77840663   -7.9158812    262.77182  0.018747989  0.018331085            1 
 1169000    0.7931244   -7.9243097    262.70433   0.01872714  0.018316261            1 
 1170000   0.77232734    -7.945658    262.59304  0.018703208  0.018301423            3 
 1171000   0.78995986   -7.9314745    263.36881  0.018742443  0.018286643            3 
 1172000   0.78445155    -7.879462    263.29394  0.018721128  0.018271914            2 
 1173000   0.78916883   -7.8923777    263.49055  0.018719135  0.018257272            1 
 1174000   0.78146944   -7.9198839     263.1082  0.018676051  0.018242618            4 
 1175000   0.78815291     -7.90112    263.17774  0.018665088   0.01822793            3 
 1176000   0.77069776   -7.9410951    262.64034  0.018611135  0.018213235            4 
 1177000   0.77821082    -7.910133    263.51643  0.018657351  0.018198533            1 
 1178000   0.77773741   -7.8915527    263.94266  0.018671665  0.018183856            4 
 1179000   0.78889423   -7.8962139    263.76286   0.01864312   0.01816923            2 
 1180000    0.7788729   -7.9161175    263.80937  0.018630605  0.018154605            3 
 1181000   0.77676756     -7.92118    263.66832  0.018604877  0.018139961            3 
 1182000   0.77002824   -7.9083579    263.43399  0.018572617  0.018125333            6 
 1183000   0.77434217   -7.9376357    263.49643  0.018561315   0.01811069            2 
 1184000   0.77309541   -7.9323028    263.49214  0.018545337  0.018096015            2 
 1185000    0.7938243   -7.9190659    263.47024  0.018528147  0.018081343            2 
 1186000   0.78546385   -7.9001485    263.76214  0.018533034  0.018066738            2 
 1187000   0.78911499   -7.9075389    263.49981  0.018499004  0.018052057            3 
 1188000   0.77711023   -7.9178251    263.53563  0.018485945  0.018037338            4 
 1189000   0.79655592   -7.9217194    264.22214  0.018518513  0.018022685            2 
 1190000   0.76820921   -7.9415949    263.28364  0.018437229  0.018008069            3 
 1191000   0.77859279   -7.9576106      263.338  0.018425553  0.017993423            2 
 1192000   0.76545159   -7.9352982    263.68721  0.018434509  0.017978782            4 
 1193000   0.78724614   -7.9504507    263.37902  0.018397529  0.017964064            2 
 1194000   0.76752718   -7.9636503    263.73943  0.018407274  0.017949368            4 
 1195000   0.77512416   -7.9374179    263.69351  0.018388669  0.017934699            4 
 1196000   0.78096711   -7.9193856    263.93253  0.018389948  0.017920071            4 
 1197000   0.77425142   -7.9588263    263.57364  0.018349599  0.017905465            3 
 1198000   0.78275584   -7.9458135    263.82075  0.018351471  0.017890797            1 
 1199000   0.76558996   -7.9651785    263.41737  0.018308129  0.017876142            1 
 1200000   0.76698856   -7.9568095    263.21914  0.018279107  0.017861545            3 
 1201000   0.77297271   -7.9498834    264.05978  0.018322216  0.017847009            3 
 1202000    0.7809545   -7.9589367    264.21632  0.018317825   0.01783249            3 
 1203000   0.76634088   -7.9523073    264.45926  0.018319428  0.017818011            5 
 1204000   0.77961662   -7.9348744    264.73193  0.018323085  0.017803647            3 
 1205000   0.78361966    -7.940012    264.40599  0.018285338  0.017789307            1 
 1206000   0.76449066   -7.9542632    264.02212  0.018243651   0.01777493            2 
 1207000   0.76250257   -7.9490828    264.54861  0.018264886  0.017760567            3 
 1208000   0.78449595   -7.9655833    263.92941  0.018207051  0.017746133            1 
 1209000   0.77957661   -7.9154837    264.60549  0.018238592   0.01773177            2 
 1210000    0.7848579   -7.9399905    264.67948  0.018228615  0.017717428            3 
 1211000   0.76878297   -7.9583881    264.51173  0.018202018  0.017703061            2 
 1212000   0.76024632   -7.9392923    264.85843  0.018210838  0.017688644            3 
 1213000   0.78853941   -7.9419075    264.75283  0.018188571  0.017674268            3 
 1214000   0.76650914   -7.9737983    264.51218  0.018157069  0.017659906            5 
 1215000   0.77103476   -7.9722733    264.20538  0.018121082  0.017645546            4 
 1216000   0.76685465   -7.9808969    264.30708   0.01811315  0.017631148            3 
 1217000   0.76519931   -7.9748457    265.01522  0.018146756   0.01761676            2 
 1218000   0.77384312   -7.9884022    264.38467  0.018088716  0.017602355            4 
 1219000   0.77424969   -7.9844706     264.3051  0.018068437  0.017587945            3 
 1220000   0.74006804   -7.9766553    264.36206  0.018057518  0.017573557            2 
 1221000   0.76070182   -7.9796324    263.81606  0.018005464  0.017559048            3 
 1222000   0.76455463   -7.9480634    264.51462  0.018038367  0.017544542            3 
 1223000   0.77063135   -7.9784545    264.60854  0.018030018  0.017530093            2 
 1224000   0.74983586   -7.9871604    264.19707  0.017987273   0.01751564            2 
 1225000   0.77542218   -7.9540054    264.52682  0.017995022  0.017501228            2 
 1226000   0.77304151     -7.98356    264.01488  0.017945546  0.017486884            2 
 1227000   0.76882333   -7.9713921    264.88808  0.017990225  0.017472598            2 
 1228000   0.76507814   -7.9721279    264.50217  0.017949387  0.017458301            2 
 1229000   0.76788365   -7.9803623    264.55374  0.017938279  0.017443935            1 
 1230000   0.76100392   -7.9614827    264.38776   0.01791245  0.017429576            2 
 1231000   0.77335404   -7.9785154     264.3701  0.017896703  0.017415159            2 
 1232000   0.76150664   -7.9823412    264.17195  0.017868774  0.017400722            6 
 1233000   0.76397333    -8.004573    264.50656  0.017876896  0.017386324            4 
 1234000   0.77031716   -7.9718691     264.5158  0.017863034  0.017371963            3 
 1235000   0.76288504   -7.9678427    264.64193   0.01785708  0.017357638            2 
 1236000   0.75405913   -7.9942414     264.9547  0.017863721  0.017343311            1 
 1237000    0.7550323   -7.9745968    265.04064  0.017855069  0.017329029            1 
 1238000   0.76898484   -7.9746294    264.92248  0.017832693  0.017314758            2 
 1239000   0.76008146    -7.972359    264.60246  0.017796776  0.017300534            2 
 1240000   0.75764697   -8.0014514    264.97203   0.01780726  0.017286275            4 
 1241000   0.76870053   -7.9941309    265.23754   0.01781074  0.017272028            1 
 1242000    0.7557054   -7.9899084    265.17484  0.017792192  0.017257843            2 
 1243000   0.75691629   -7.9931831    265.20386  0.017779824    0.0172437            4 
 1244000    0.7659265   -7.9974463    264.78419  0.017737419  0.017229503            2 
 1245000   0.76616773     -7.96916    265.48054  0.017769782  0.017215375            2 
 1246000    0.7644387   -8.0139387    264.77671  0.017708447  0.017201175            2 
 1247000   0.74568808   -8.0011219    265.15342  0.017719421  0.017186982            1 
 1248000   0.73894688   -7.9755569    265.28271  0.017713856  0.017172816            1 
 1249000   0.76726219   -7.9956682    264.84577  0.017670521  0.017158687            3 
 1250000   0.73838654   -7.9783578    265.21371  0.017680914  0.017144545            2 
 1251000   0.74745588   -7.9927148    265.22848  0.017667764  0.017130394            3 
 1252000   0.75315679   -7.9682793    265.29857  0.017658318   0.01711627            2 
 1253000   0.76756238   -8.0091598    264.85773  0.017614906  0.017102106            2 
 1254000   0.75096407   -8.0030706    264.65543  0.017587416  0.017087902            2 
 1255000   0.75730833   -8.0241142    264.62695  0.017571511  0.017073663            1 
 1256000   0.77021349   -8.0164826    264.59776  0.017555584  0.017059468            1 
 1257000    0.7506524   -8.0313571    265.34005  0.017590828  0.017045309            1 
 1258000   0.76259036   -7.9958646    265.62073  0.017595438  0.017031233            3 
 1259000   0.76672984   -8.0135747    265.51625  0.017574547  0.017017114            2 
 1260000   0.74125909   -8.0076578    265.18909  0.017538961  0.017002976            1 
 1261000   0.74212533   -8.0120205    265.46271  0.017543134  0.016988837            1 
 1262000   0.74620304   -8.0209576    264.94746   0.01749521  0.016974761            2 
 1263000   0.74867684   -8.0154863    265.15228  0.017494872  0.016960624            3 
 1264000   0.73639281   -8.0059916    265.30211  0.017490909  0.016946492            2 
 1265000   0.74261338   -8.0093144    264.61193  0.017431616  0.016932383            6 
 1266000   0.73814306   -8.0065139    264.76477  0.017427907  0.016918231            3 
 1267000   0.74655188   -8.0025095    265.21587  0.017443822  0.016904128            1 
 1268000   0.73485785   -8.0113221    265.35572  0.017439256  0.016890084           10 
 1269000   0.73484824   -8.0094892    265.25369  0.017418813  0.016876098            2 
 1270000   0.75056994   -7.9965531    265.71864  0.017435607  0.016862121            3 
 1271000   0.75893344    -8.004686    265.40888  0.017401579  0.016848125            5 
 1272000   0.75236739   -8.0133627    265.66428   0.01740463   0.01683411            1 
 1273000   0.73717088   -8.0295529    265.26193   0.01736462  0.016820116            1 
 1274000   0.73974846   -7.9926238    265.57447  0.017371433  0.016806126            1 
 1275000   0.73874772   -7.9847255    265.68144    0.0173648  0.016792141            2 
 1276000   0.74295949   -7.9819894    265.27735  0.017324801  0.016778217            3 
 1277000   0.74253627    -8.011476    265.13852  0.017302174   0.01676424            1 
 1278000   0.73962497   -8.0124575    265.63513  0.017321018  0.016750188            2 
 1279000   0.72680923   -8.0169993    264.89422  0.017259201  0.016736158            1 
 1280000    0.7511033   -8.0146397    265.41776  0.017279802  0.016722168            3 
 1281000   0.75271803   -8.0406002     265.3016  0.017258756  0.016708161            2 
 1282000   0.74434228   -8.0231658     265.0573  0.017229414  0.016694157            5 
 1283000   0.74539072   -8.0141051    265.32343   0.01723327  0.016680196            4 
 1284000   0.73340328   -8.0027566    265.41357  0.017225699  0.016666288            4 
 1285000   0.75897517   -8.0390404    265.48546  0.017216956  0.016652379            3 
 1286000   0.73203812    -8.019645    265.18144  0.017183867  0.016638485            2 
 1287000   0.73579515   -8.0276845    265.55412  0.017194646  0.016624602            2 
 1288000   0.72783418   -8.0344009    266.20946  0.017223697  0.016610714            4 
 1289000   0.74971845   -8.0270386    265.27342   0.01714982  0.016596812           11 
 1290000   0.73098089   -8.0497558    265.20479  0.017132092  0.016582843            2 
 1291000   0.72992408   -8.0061556    265.89455  0.017163346  0.016568912            2 
 1292000   0.73478742   -8.0242465    265.40814  0.017118688  0.016555043            3 
 1293000   0.73037274   -8.0515877    265.70427  0.017124534  0.016541148            4 
 1294000   0.74753998   -8.0347938    266.05195  0.017133691  0.016527237            3 
 1295000   0.73384737   -8.0388407    264.98179  0.017051595  0.016513408            2 
 1296000   0.72952071   -8.0228498    266.09962  0.017110315  0.016499644            1 
 1297000   0.74733838     -8.05746    266.02977  0.017092635  0.016485863            8 
 1298000   0.73330554   -8.0678765     265.9386  0.017073613  0.016472054            3 
 1299000    0.7245717   -8.0462246    266.38809  0.017089305  0.016458265            4 
 1300000   0.72225381   -8.0544476     266.0377  0.017053699  0.016444556            1 
 1301000   0.74025384   -8.0482729    265.75274  0.017022338  0.016430849            2 
 1302000   0.74728389   -8.0283832    265.83986   0.01701484   0.01641719            1 
 1303000   0.72550278   -8.0173363    266.69962  0.017056768  0.016403588            2 
 1304000   0.74717841   -8.0518773    265.97265   0.01699723  0.016390037            3 
 1305000   0.74284152   -8.0461284    266.27526  0.017003529  0.016376472            3 
 1306000   0.74364495   -8.0812199    266.29774  0.016991943  0.016362889            2 
 1307000   0.72228584    -8.052858    266.67887  0.017003244  0.016349326            3 
 1308000   0.75361918    -8.064328    266.32074  0.016967428  0.016335742            1 
 1309000   0.73585058   -8.0392347    266.70098  0.016978672  0.016322171            2 
 1310000   0.71047938   -8.0688906    266.16365   0.01693153  0.016308565            2 
 1311000   0.72648022   -8.0719615    266.09846  0.016914471  0.016294995            2 
 1312000   0.74745024   -8.0725763    266.24638  0.016910975  0.016281403            4 
 1313000   0.72365617   -8.0457649    266.42405  0.016909371  0.016267876            3 
 1314000   0.72841075   -8.0565169    266.61227  0.016908439  0.016254359            2 
 1315000   0.74142771   -8.0832306    266.11362  0.016863981  0.016240892            2 
 1316000   0.73307506   -8.0543059    266.38151   0.01686813  0.016227373            1 
 1317000   0.72461451   -8.0477031    266.57499  0.016867564  0.016213985            3 
 1318000   0.72052351   -8.0690512    266.75941  0.016866427  0.016200543            3 
 1319000   0.72104263   -8.0663469    266.13974   0.01681449  0.016187068            2 
 1320000   0.72074147   -8.0861905    267.12152  0.016863732  0.016173642            1 
 1321000   0.72384986   -8.0702375    266.71179  0.016825119  0.016160262            3 
 1322000   0.74296103   -8.0526585    266.90929  0.016824842  0.016146884            2 
 1323000   0.73766272   -8.0448547    266.62207  0.016794033  0.016133484            2 
 1324000   0.72307556    -8.087751    266.71957  0.016787486  0.016120154            2 
 1325000   0.73794189   -8.0482825    266.56048   0.01676481   0.01610678            2 
 1326000   0.73694063   -8.0961788    267.29646   0.01679842  0.016093432            2 
 1327000    0.7197425   -8.0900636    266.75342  0.016751659  0.016080105            2 
 1328000   0.72856704   -8.0712842     267.1037  0.016761026  0.016066772            2 
 1329000   0.71899435   -8.0795242    266.67939  0.016721808  0.016053431            3 
 1330000   0.73181024   -8.0800834    266.83033  0.016718692  0.016040083            3 
 1331000    0.7249005   -8.0646114    266.76039  0.016701752  0.016026756            1 
 1332000   0.72034569   -8.0829215    267.16777  0.016714701  0.016013426            2 
 1333000   0.72561134   -8.1032149    266.39173  0.016653646  0.016000103            3 
 1334000   0.71116451   -8.0871063     266.5354  0.016650137  0.015986804            2 
 1335000    0.7083339   -8.1107034    267.07234  0.016671182  0.015973474            2 
 1336000    0.7436018   -8.0769966    267.04269  0.016656855  0.015960192            6 
 1337000   0.70541205   -8.1087923    266.55757  0.016614159  0.015946903            4 
 1338000   0.73129828    -8.070301     267.0306  0.016631203  0.015933617            2 
 1339000   0.72030756   -8.0832042    266.87163  0.016608889  0.015920355            2 
 1340000   0.70843425   -8.1037859    266.52963  0.016575226  0.015907094            4 
 1341000   0.71383031   -8.0852911      266.764   0.01657743  0.015893794            2 
 1342000   0.71768792   -8.0664096    266.74058  0.016563623  0.015880537            3 
 1343000   0.71589414    -8.081292    267.13667  0.016575867  0.015867281            6 
 1344000   0.71857817   -8.0834308    267.18074  0.016566266  0.015854024            2 
 1345000    0.7212323   -8.0718292    267.33941   0.01656378  0.015840804            3 
 1346000   0.71395037   -8.1028713       267.09  0.016536033  0.015827595            3 
 1347000   0.72005116   -8.0820543    266.97022  0.016516346  0.015814379            2 
 1348000   0.72134304   -8.0606633    267.08057  0.016510915  0.015801189            3 
 1349000   0.69908857   -8.0848131    267.49621  0.016524352  0.015787966            3 
 1350000   0.71848933   -8.0953273    266.58355  0.016455774  0.015774722            5 
 1351000   0.71399636   -8.0784641    266.53088  0.016440345  0.015761465            7 
 1352000    0.7201461   -8.0938277    266.96154   0.01645473  0.015748286            2 
 1353000   0.70949873   -8.1264528    266.90007  0.016438782  0.015735061            4 
 1354000   0.70838746   -8.1020949    267.14241  0.016441556  0.015721859            1 
 1355000   0.71086292   -8.0962701    266.67805  0.016400864  0.015708676            2 
 1356000   0.70035877   -8.0897445    267.21805  0.016421955  0.015695538            2 
 1357000   0.71416688   -8.0630711     267.1575  0.016406135  0.015682391            2 
 1358000   0.72808159   -8.1186071    267.32441  0.016404296  0.015669264            3 
 1359000   0.70520381   -8.0916524    267.12619   0.01638007   0.01565615            5 
 1360000   0.72153771   -8.0924672    267.40309  0.016384993  0.015643058            2 
 1361000   0.72249732   -8.1122019    267.06619  0.016352326  0.015629954            3 
 1362000   0.70597078   -8.1083248    266.96609  0.016334195  0.015616851            3 
 1363000   0.70244413   -8.1205844    266.56068  0.016297425  0.015603751            4 
 1364000   0.72915927   -8.1091891    267.19525  0.016324246  0.015590664            3 
 1365000   0.72226252   -8.1142554    266.91462  0.016295154  0.015577617            2 
 1366000   0.70609613   -8.1000128    267.27189   0.01630502  0.015564537            6 
 1367000   0.70563159   -8.1448062    266.49851  0.016245947  0.015551438            5 
 1368000    0.7112998   -8.0976387    266.83389  0.016254501  0.015538365            2 
 1369000   0.71098272   -8.1102761    267.14446  0.016261532  0.015525309            1 
 1370000   0.71760426   -8.1044056      267.055  0.016244221  0.015512306            2 
 1371000   0.71483609   -8.1259993    266.86903  0.016221069  0.015499284            3 
 1372000   0.69892823   -8.1266676    266.91438  0.016212001  0.015486246            2 
 1373000   0.70959096   -8.1134912     267.2593  0.016221128  0.015473253            3 
 1374000   0.69788897     -8.11578    267.59661   0.01622978  0.015460329            1 
 1375000   0.70342741   -8.0952055     267.3315  0.016201909  0.015447451            2 
 1376000   0.71042787   -8.1193519    267.20128  0.016182248  0.015434565            3 
 1377000   0.71887815   -8.1239136    267.44056  0.016184977  0.015421758            2 
 1378000   0.71570904   -8.1195584    267.08691  0.016151845  0.015408958            3 
 1379000   0.70297726   -8.1357326    267.41505  0.016159962   0.01539614            2 
 1380000   0.70156441   -8.1130458    267.81138  0.016172185  0.015383286            3 
 1381000   0.69383213   -8.1279749    267.29286  0.016129185   0.01537047            4 
 1382000   0.68821997   -8.1284004    267.50638   0.01613039  0.015357662            1 
 1383000   0.70458146   -8.1069556    267.73026  0.016132216  0.015344841            2 
 1384000   0.70081568    -8.109693    267.32358  0.016096073     0.015332            4 
 1385000   0.71364379   -8.1465484    267.33584  0.016085189  0.015319204            2 
 1386000   0.70172875   -8.1324056    267.03517  0.016055506  0.015306388            8 
 1387000   0.68727247   -8.1316799    267.01203  0.016042539  0.015293551            3 
 1388000   0.69675193   -8.1147687    268.24762  0.016105165  0.015280705            2 
 1389000   0.69626066   -8.1094153    267.32721  0.016038349  0.015267896            5 
 1390000   0.70840531   -8.1736176    266.92346  0.016002605  0.015255093            3 
 1391000   0.72018107   -8.1384987    267.34208   0.01601618  0.015242275            2 
 1392000   0.70034871   -8.1082413    267.42806  0.016009821  0.015229475            1 
 1393000   0.71460731   -8.1510161    267.28511  0.015989777  0.015216682            3 
 1394000   0.69554843   -8.1606582    267.17018  0.015971436  0.015203884            3 
 1395000   0.70586996   -8.1586616    267.42284   0.01597508  0.015191074            3 
 1396000   0.69834434   -8.1593398    266.93233  0.015934356  0.015178269            2 
 1397000   0.68639141   -8.1581587    266.85984  0.015918626  0.015165421            4 
 1398000   0.69831354   -8.1451493    267.34825  0.015936352  0.015152617            2 
 1399000   0.69491053   -8.1552135    266.88722  0.015897499  0.015139812            3 
 1400000   0.69090955   -8.1464672    267.08203   0.01589774  0.015127002            2 
 1401000   0.69966906   -8.1516539    266.92547   0.01587708  0.015114196            2 
 1402000   0.70263561   -8.1359663    267.51611  0.015900862   0.01510139            3 
 1403000   0.67549367   -8.1840997    267.23127  0.015872611  0.015088609            5 
 1404000   0.69071096   -8.1498143    267.31609   0.01586634  0.015075837            2 
 1405000   0.70402273   -8.1489292    266.68344  0.015817523  0.015063057            1 
 1406000   0.69933534    -8.172717    266.49204  0.015794929  0.015050256            1 
 1407000   0.68006607   -8.1713421    266.60358  0.015790309  0.015037483            2 
 1408000   0.66979913   -8.1516899    266.50194  0.015773079  0.015024724            2 
 1409000     0.691471   -8.1797072    266.64417  0.015770296  0.015011957            3 
 1410000    0.6909004   -8.1466481    266.71678  0.015763403  0.014999216            2 
 1411000   0.68420596   -8.1750026    267.15958  0.015778383  0.014986488            1 
 1412000   0.69201127   -8.1663078    267.24098  0.015772012  0.014973755            5 
 1413000   0.69754122   -8.1552661    266.99994  0.015746635  0.014961074            4 
 1414000   0.68860955   -8.1769565    266.44872  0.015703013  0.014948399            3 
 1415000    0.6948324   -8.1651333    267.20082  0.015736208  0.014935775            2 
 1416000   0.68105005   -8.1722429    267.27013  0.015729175  0.014923171            4 
 1417000   0.69044086   -8.1711635    266.64498  0.015681309  0.014910556            1 
 1418000   0.67102236   -8.1637158    267.19427  0.015702531  0.014897963            4 
 1419000   0.67685801   -8.1420467    267.20284  0.015691969  0.014885376            4 
 1420000   0.68567798   -8.1466834    268.21408  0.015740263  0.014872818            2 
 1421000   0.69262776    -8.152889    267.47059  0.015685585  0.014860284            3 
 1422000   0.69166105   -8.1540476    267.55033  0.015679227   0.01484774            6 
 1423000   0.68734841   -8.1785414    267.71933  0.015678105  0.014835212            5 
 1424000    0.6756942   -8.1853528    267.25424  0.015639878  0.014822709            3 
 1425000   0.68745669   -8.1651662    267.38045  0.015636283  0.014810196            2 
 1426000   0.68475783   -8.1834428    267.25488  0.015617981  0.014797679            2 
 1427000   0.68844244   -8.1824172    267.12116  0.015599227  0.014785162            2 
 1428000   0.68814425    -8.182014    267.41266  0.015605314  0.014772638            2 
 1429000   0.66885044   -8.1926867    266.94195  0.015566943  0.014760148            2 
 1430000   0.69525374   -8.1636787    267.48323  0.015587601  0.014747627            2 
 1431000   0.67950182   -8.1670208    267.27813  0.015564764   0.01473515            3 
 1432000    0.6758973   -8.2244748    266.98541   0.01553686  0.014722652            3 
 1433000   0.68961592   -8.1866268    267.17381  0.015536974  0.014710155            2 
 1434000   0.66649408   -8.1917958     267.3653  0.015537268  0.014697658            2 
 1435000   0.67669737   -8.1849069    267.35194  0.015525664  0.014685145            4 
 1436000   0.68696773   -8.1904269    267.31786  0.015512875  0.014672673            2 
 1437000   0.68119169   -8.2086691    266.98561  0.015482812  0.014660237            2 
 1438000   0.67718761   -8.1929523    267.27114  0.015488592   0.01464779            1 
 1439000   0.68062965   -8.1852486    267.64595  0.015499534  0.014635349            2 
 1440000   0.68393702   -8.2091742    267.44585   0.01547719  0.014622959            5 
 1441000   0.67965507   -8.1711603     267.6528  0.015478418  0.014610521            3 
 1442000   0.66897325   -8.2010193    266.75409  0.015415747    0.0145981            2 
 1443000    0.6701647   -8.1848219    267.20474  0.015431089  0.014585694            2 
 1444000   0.67380939   -8.2062365    267.12955  0.015416064  0.014573317            2 
 1445000   0.67828934   -8.1824916    267.53973   0.01542905  0.014560929            2 
 1446000   0.67463072    -8.210413    266.87576  0.015380115  0.014548573            4 
 1447000   0.67717042   -8.1995439    266.93724  0.015373027  0.014536212            5 
 1448000   0.68494739   -8.1959527     267.4233  0.015390383  0.014523886            1 
 1449000   0.68506234   -8.2157472     266.7799  0.015342759  0.014511529            3 
 1450000   0.67618774   -8.1851078    267.15328  0.015353637  0.014499178            3 
 1451000   0.66540592    -8.208677    267.12937  0.015341682  0.014486863            3 
 1452000   0.66525412   -8.2164476    266.93514  0.015319969   0.01447454            2 
 1453000   0.68308857   -8.2065832    267.65823  0.015350896  0.014462219            2 
 1454000   0.66490016   -8.2116766    267.26167  0.015317611  0.014449881            1 
 1455000   0.66415185   -8.2339415    267.00356    0.0152923  0.014437551            3 
 1456000   0.67307639   -8.2126012     266.7727  0.015268584  0.014425253            2 
 1457000     0.672223   -8.2132197    266.97877  0.015269891  0.014412947            3 
 1458000   0.66756391   -8.2321161    266.93128  0.015256703  0.014400671            1 
 1459000   0.67870905   -8.2133953    266.64043  0.015229634  0.014388396            4 
 1460000    0.6533328   -8.2272264    267.07901  0.015244236  0.014376117            2 
 1461000    0.6675399   -8.2254063    267.42106  0.015253311  0.014363856            3 
 1462000    0.6660803   -8.2359722    266.85967   0.01521088  0.014351583            2 
 1463000   0.68841653   -8.2373713    266.51204  0.015180681  0.014339298            2 
 1464000   0.66517831   -8.2278206    266.99659  0.015197894  0.014327056            6 
 1465000   0.68447979   -8.2188756    266.89047  0.015181483   0.01431484            3 
 1466000    0.6737922   -8.2248956    267.00389  0.015177575   0.01430265            5 
 1467000   0.66599221   -8.2190699    267.59847  0.015201004   0.01429048            5 
 1468000   0.66803224    -8.217631    267.45045  0.015182246  0.014278342            4 
 1469000   0.66563176   -8.2160681     267.1632  0.015155616  0.014266188            2 
 1470000   0.68431259   -8.2232354    267.03899  0.015138264  0.014254056            2 
 1471000   0.65576008   -8.2525159    266.70848   0.01510925  0.014241912            1 
 1472000   0.66593643   -8.2345594    267.12371  0.015122492  0.014229794            4 
 1473000   0.65932014   -8.2359547    266.67789  0.015087005  0.014217678            3 
 1474000   0.67096246   -8.2198139    266.96175  0.015092817  0.014205582            3 
 1475000   0.64736923   -8.2355253    267.27493  0.015100278  0.014193485            2 
 1476000   0.68516719    -8.227296    267.30506  0.015091749   0.01418143            4 
 1477000   0.67614069   -8.2272328    267.90919  0.015115617  0.014169382            2 
 1478000   0.64865261   -8.2349602    267.30855  0.015071524  0.014157309            3 
 1479000    0.6512828   -8.1988446    266.72718  0.015028577  0.014145247            3 
 1480000   0.66507263   -8.2350122    267.45987  0.015059678  0.014133172            3 
 1481000   0.66608568   -8.2474662    267.30599   0.01504085  0.014121104            2 
 1482000    0.6537521   -8.2538986      266.714  0.014997414   0.01410901            5 
 1483000   0.64569218    -8.230433    267.07892  0.015007806    0.0140969            2 
 1484000   0.65387701   -8.2635493    266.78328  0.014981092   0.01408485            2 
 1485000   0.64459723   -8.2480689    266.42507  0.014950902  0.014072788            1 
 1486000   0.68034913   -8.2547845    266.66235  0.014954147  0.014060739            3 
 1487000   0.66537897   -8.2606033    266.85431  0.014954848  0.014048661            4 
 1488000   0.65236816   -8.2556114    266.37387  0.014917892  0.014036607            3 
 1489000   0.65651009   -8.2468338    267.60202  0.014976607  0.014024612            4 
 1490000   0.66045152   -8.2334722    267.01424  0.014933682  0.014012606            5 
 1491000   0.65150902   -8.2278251    266.70905  0.014906609  0.014000668            2 
 1492000   0.65099698   -8.2165784     267.1333  0.014920314  0.013988715            2 
 1493000   0.64887336   -8.2395979    267.00606  0.014903218   0.01397677            2 
 1494000   0.64947154   -8.2495804    267.37644  0.014913903  0.013964865            3 
 1495000    0.6542667   -8.2637682    266.86785  0.014875577  0.013952953            2 
 1496000   0.65948569   -8.2626681    266.74353  0.014858708  0.013941039            2 
 1497000   0.65954818   -8.2570002    266.89168   0.01485703  0.013929151            4 
 1498000   0.65892767   -8.2515662    267.04182  0.014855464  0.013917277            2 
 1499000   0.65389869   -8.2126027    266.75572  0.014829649  0.013905401            2 
 1500000   0.64353583   -8.2451912    267.46368  0.014859093  0.013893521            3 
 1501000   0.65095848   -8.2318885    267.18234  0.014833574  0.013881672            2 
 1502000   0.65367429   -8.2452835    267.44969  0.014838532  0.013869825            2 
 1503000    0.6389565   -8.2367606    267.54442  0.014833911  0.013858004            2 
 1504000   0.65819587   -8.2744755    266.67259  0.014775742   0.01384619            1 
 1505000   0.65568609   -8.2550289    267.00795  0.014784493  0.013834369            3 
 1506000   0.66371007   -8.2383238    267.23189  0.014787068  0.013822563            2 
 1507000   0.65265622   -8.2628783    266.82213  0.014754597  0.013810792            2 
 1508000   0.65938242   -8.2425733    267.52751  0.014783793  0.013799035            2 
 1509000   0.66108572   -8.2695209    267.08218  0.014749402  0.013787295            2 
 1510000   0.65404517   -8.2486075    267.28195   0.01475066  0.013775581            1 
 1511000   0.65423555   -8.2533822    267.05208   0.01472822  0.013763865            1 
 1512000   0.64926461   -8.2520118    267.46414   0.01474119  0.013752171            2 
 1513000    0.6331249   -8.2836583    267.53011   0.01473508  0.013740472            3 
 1514000   0.65213297   -8.2506095    267.21023  0.014707741  0.013728743            3 
 1515000   0.66170413   -8.2434811     266.8573  0.014678619  0.013717052            2 
 1516000   0.65356307   -8.2526923    266.94194   0.01467359  0.013705375            4 
 1517000   0.65220299   -8.2654684    266.90052  0.014661642  0.013693668            5 
 1518000   0.64869629    -8.256777    267.57852  0.014689203  0.013681976            2 
 1519000   0.64195139   -8.2677735    266.75075   0.01463412  0.013670318            2 
 1520000   0.64667901   -8.2885777    266.77457  0.014625799  0.013658633            3 
 1521000   0.64625495   -8.2890678    266.86456  0.014621113   0.01364695            3 
 1522000   0.64122735   -8.2613184    266.88982   0.01461289  0.013635288            4 
 1523000   0.63824413   -8.2764241    267.01813  0.014610316  0.013623646            1 
 1524000   0.63922371   -8.2696146    267.41413  0.014622383  0.013612019            4 
 1525000   0.64222432   -8.2447061    267.35034  0.014609308  0.013600401            2 
 1526000   0.64287334   -8.2741533    267.52944  0.014609515  0.013588815            6 
 1527000   0.65216015   -8.2962798    267.10147  0.014576592  0.013577205            3 
 1528000   0.64815416   -8.2571304    267.08603   0.01456621  0.013565598            3 
 1529000   0.64038613   -8.2652982    267.28409  0.014567478  0.013554018            1 
 1530000   0.62833707   -8.2669025     267.3984  0.014564183  0.013542446            3 
 1531000   0.64453057   -8.2830181    266.74368  0.014519034  0.013530881            4 
 1532000   0.63691619   -8.3002128    266.94675  0.014520602  0.013519328            1 
 1533000   0.64711906    -8.249663    266.70865  0.014498187  0.013507771            3 
 1534000    0.6498458    -8.280677    266.85773  0.014496835  0.013496232            2 
 1535000   0.63015153   -8.3186581    266.37071  0.014460951  0.013484689            1 
 1536000   0.64443262    -8.295237    266.79926  0.014474786  0.013473142            1 
 1537000   0.63247714   -8.2804167    266.56218  0.014452515  0.013461574            3 
 1538000   0.62244729   -8.2932075    266.91788  0.014462391  0.013450031            7 
 1539000   0.64165697   -8.2847404    266.82779  0.014448115   0.01343852            1 
 1540000   0.62951023   -8.3003921    266.28027  0.014409106  0.013426994            3 
 1541000   0.64431919    -8.312883    266.34034  0.014403003  0.013415472            3 
 1542000   0.64056988   -8.2972599    266.49871  0.014402222  0.013403947            2 
 1543000   0.64573993   -8.3195866    266.64206   0.01440063  0.013392429            3 
 1544000   0.62573432   -8.3266613    266.92373  0.014406505  0.013380896            2 
 1545000    0.6369173   -8.2965201    266.71749  0.014386057  0.013369364            3 
 1546000   0.62813812   -8.3119114    266.47126  0.014363479  0.013357831            3 
 1547000   0.62611332   -8.3089798    266.55393  0.014358647  0.013346305            2 
 1548000   0.64051457   -8.3243023    265.94087  0.014316369   0.01333479            4 
 1549000   0.63342264   -8.3288917    266.44208  0.014334091  0.013323271            4 
 1550000   0.63662183   -8.3101245    266.70696  0.014339084  0.013311781            4 
 1551000   0.64308861   -8.3165989     266.6329   0.01432586  0.013300303            4 
 1552000   0.63862097   -8.3219001    266.20316  0.014293555  0.013288834            2 
 1553000   0.63870207    -8.322191    266.91825  0.014322722  0.013277368            3 
 1554000   0.61658565   -8.3244395    266.63938  0.014298551  0.013265955            5 
 1555000   0.62920862   -8.3288743     266.7253   0.01429396  0.013254532            1 
 1556000   0.61911079    -8.328912    266.50571  0.014273014  0.013243106            4 
 1557000   0.63211852   -8.3135385    266.22927  0.014249051  0.013231681            1 
 1558000   0.62154381   -8.3092867    266.57471  0.014258382  0.013220253            2 
 1559000   0.63048197   -8.3456842    266.38321     0.014239  0.013208859            4 
 1560000   0.61805617   -8.3329797    265.88441  0.014203227  0.013197493            2 
 1561000   0.62373011   -8.3390467    266.17796  0.014209799  0.013186126            2 
 1562000   0.63399639   -8.3279075    266.03045  0.014192832  0.013174773            2 
 1563000   0.62888606   -8.3261699    266.38407  0.014202605  0.013163438            6 
 1564000   0.63661733   -8.3138743     266.1317  0.014180078  0.013152093            2 
 1565000   0.62257606    -8.338542    266.09649  0.014169142  0.013140753            2 
 1566000   0.62810271   -8.3121301    266.46531   0.01417972  0.013129429            2 
 1567000   0.63351032   -8.3368679    266.39883  0.014167136  0.013118117            4 
 1568000   0.63991434   -8.3296606    266.54471  0.014165854  0.013106801            2 
 1569000   0.62275175   -8.3321428    266.14076  0.014135371  0.013095489            2 
 1570000    0.6252013   -8.3333556    267.08203  0.014176328  0.013084213            2 
 1571000   0.62416537   -8.3352184    266.00844  0.014110356  0.013072947            2 
 1572000   0.62248045   -8.3299749     265.8246  0.014091635  0.013061682            3 
 1573000   0.62787851   -8.3316592    266.54392  0.014120784  0.013050442            2 
 1574000    0.6084104   -8.3578456    266.08851  0.014087702  0.013039206            3 
 1575000   0.63460184   -8.3120647    266.92035   0.01412277  0.013028003            1 
 1576000   0.63229349   -8.3630729    265.97329  0.014063731  0.013016799            4 
 1577000   0.61991981   -8.3351402    266.36658  0.014075596   0.01300559            3 
 1578000   0.61682892   -8.3371102    266.36881  0.014066794  0.012994374            4 
 1579000   0.62856495   -8.3314909    266.15808  0.014046764  0.012983187            2 
 1580000    0.6164167   -8.3453682    265.86724  0.014022534  0.012972006            2 
 1581000   0.62563071   -8.3218854    266.42575  0.014043103  0.012960831            3 
 1582000   0.61553912   -8.3432097    265.81233  0.014001914  0.012949664            2 
 1583000   0.61427936   -8.3260463    266.07146   0.01400671  0.012938525            4 
 1584000   0.62771976   -8.3361549    266.05631   0.01399707  0.012927404            3 
 1585000    0.6038836   -8.3184401    266.38274  0.014005402  0.012916294            3 
 1586000   0.61814333   -8.3478651    266.30045  0.013992247  0.012905178            3 
 1587000   0.61283059    -8.346277    266.46841   0.01399225  0.012894087            3 
 1588000   0.62258048    -8.344429    266.48437  0.013984276  0.012882996            3 
 1589000   0.64146372   -8.3506257    265.83673  0.013941511  0.012871914            4 
 1590000     0.626985   -8.3499456    266.25183  0.013954499  0.012860847            4 
 1591000   0.61742479   -8.3353769    266.38337  0.013952617  0.012849792            3 
 1592000   0.61469425   -8.3532764    266.57816  0.013954049  0.012838747            2 
 1593000   0.60695258   -8.3533433    266.14789  0.013922782  0.012827719            2 
 1594000   0.62318343   -8.3654287    265.85245  0.013898602  0.012816686            4 
 1595000   0.60777813   -8.3540328    266.04369  0.013899879  0.012805661            1 
 1596000   0.61143077     -8.35668    266.36379  0.013907884  0.012794643            6 
 1597000   0.61756205   -8.3625376    265.99488  0.013879925  0.012783634            8 
 1598000   0.62330348   -8.3625267     266.5492  0.013900146  0.012772634            4 
 1599000   0.61808003   -8.3422916    266.20062  0.013873286  0.012761648            3 
 1600000    0.6048894   -8.3530079    266.09779   0.01385926  0.012750661            3 
 1601000   0.61346412   -8.3708745     265.9442  0.013842609  0.012739703            5 
 1602000   0.60888602   -8.3736561     266.0816  0.013841115  0.012728726            4 
 1603000   0.60952892   -8.3620422    266.33381  0.013845592  0.012717756            2 
 1604000    0.6137189   -8.3460045     266.0375  0.013821566  0.012706795            5 
 1605000   0.59495534   -8.3440822    266.63447   0.01384395  0.012695841            1 
 1606000   0.61012603   -8.3434268    266.03412  0.013804178  0.012684904            3 
 1607000   0.61578247   -8.3412399    266.00984  0.013794329  0.012673989            1 
 1608000   0.60929627   -8.3582329    266.07984  0.013789378  0.012663083            2 
 1609000   0.61996121   -8.3594244    265.83562  0.013768159  0.012652169            2 
 1610000   0.60744123   -8.3655405    265.73315  0.013754304  0.012641263            3 
 1611000   0.60946743   -8.3880657    266.24709  0.013772351  0.012630367            1 
 1612000   0.61682549   -8.3635195    266.65719  0.013785008  0.012619486            4 
 1613000   0.60674316   -8.3756808    265.97458  0.013741196  0.012608618            3 
 1614000   0.59795697   -8.3664538    265.62656  0.013714713  0.012597758            3 
 1615000   0.60229246   -8.3747139    265.49236  0.013699296  0.012586888            2 
 1616000   0.59750766   -8.3612071     266.0284  0.013718461   0.01257604            2 
 1617000   0.60490859   -8.3489497    266.11892  0.013714643    0.0125652            2 
 1618000   0.60659215   -8.3680762    265.80821  0.013690163  0.012554369            4 
 1619000   0.61843074   -8.3638217    265.93697  0.013688335  0.012543585            4 
 1620000     0.612747   -8.3576154    265.53475  0.013659195  0.012532795            7 
 1621000   0.59636562   -8.3630914    266.10078  0.013679867  0.012521999            5 
 1622000   0.60663114   -8.3795021    265.71012  0.013651362  0.012511217            4 
 1623000   0.58898972   -8.3846788    265.86799  0.013651057  0.012500447            4 
 1624000   0.62418278   -8.3884623    266.33512  0.013666622  0.012489699           12 
 1625000   0.59437361   -8.3593479    265.80799  0.013631179  0.012478961            4 
 1626000   0.60083398   -8.3843701    265.67897  0.013616183  0.012468212            4 
 1627000   0.61202061   -8.3897049    266.19631  0.013634312  0.012457481            2 
 1628000   0.61242303   -8.3851768     266.0961  0.013620808  0.012446773            2 
 1629000   0.59842055   -8.3936891    265.47543  0.013580695  0.012436055            1 
 1630000   0.59583701   -8.3885364    266.18417  0.013608598  0.012425376            2 
 1631000   0.59371333   -8.3951444    265.99667  0.013590674  0.012414705            2 
 1632000   0.59453508   -8.4059467    265.80819  0.013572722  0.012404013            4 
 1633000     0.589755   -8.3806915    265.31158  0.013539068  0.012393334            3 
 1634000    0.6116412   -8.3765404    266.10011  0.013570997  0.012382673            3 
 1635000   0.58500137   -8.3833185    266.13249  0.013564347  0.012372021            3 
 1636000   0.59764873   -8.4016606    265.72455  0.013535277  0.012361391            1 
 1637000   0.61591829   -8.3779174    265.74692  0.013528147  0.012350787            3 
 1638000   0.61090535   -8.3872234    265.98248  0.013531872  0.012340186            2 
 1639000   0.58995053   -8.3966737    266.19059  0.013534197  0.012329599            4 
 1640000   0.59006005   -8.3909261    265.87084  0.013509697  0.012319001            2 
 1641000   0.60386454   -8.3899724    265.96258  0.013506123  0.012308439            1 
 1642000   0.59569423   -8.3833316    265.23895  0.013461173  0.012297877            2 
 1643000   0.60194587   -8.3633418    265.95863  0.013489482  0.012287329            5 
 1644000   0.58993431   -8.4006073    266.32685  0.013499942   0.01227681            2 
 1645000   0.58179936   -8.4032255     266.1806  0.013484326  0.012266308            2 
 1646000   0.59480454   -8.3835832    266.12096  0.013473115  0.012255802            3 
 1647000   0.58640997   -8.4003418     265.9426   0.01345591   0.01224529            1 
 1648000   0.59233856   -8.3975852    265.62595  0.013431733  0.012234792            3 
 1649000   0.60959062   -8.3900751    266.15028  0.013450085  0.012224301            3 
 1650000   0.58960117   -8.3921134    266.27553  0.013448259  0.012213823            2 
 1651000   0.59311641   -8.4247001    265.83111  0.013417682  0.012203348            3 
 1652000   0.59717899   -8.3805903    265.71091  0.013403496  0.012192901            4 
 1653000   0.60045442   -8.4073721    266.19101  0.013419591  0.012182461            2 
 1654000   0.58174039   -8.3930454    265.93033  0.013398344  0.012172019            5 
 1655000    0.6072851   -8.4054099    266.00386   0.01339395  0.012161615            3 
 1656000   0.59291353   -8.3775462    266.11206  0.013391307  0.012151216            2 
 1657000   0.58907338   -8.3735142    265.96343  0.013375751  0.012140841            4 
 1658000   0.60340355   -8.3985258    265.86364  0.013362668  0.012130465            4 
 1659000   0.60127986   -8.4049996    266.04034  0.013363489  0.012120089            1 
 1660000   0.59282061   -8.4037015    265.54979  0.013330813  0.012109726            3 
 1661000   0.59271659   -8.4034115    265.22308  0.013306396  0.012099377            2 
 1662000   0.58814033   -8.3832819    265.94177  0.013334425  0.012089021            3 
 1663000   0.59442726   -8.3915817    265.71693   0.01331514  0.012078674            1 
 1664000   0.59181728   -8.4116366    265.80338  0.013311467  0.012068334            2 
 1665000   0.58744587   -8.3998176     265.9485  0.013310736  0.012057999            1 
 1666000    0.5879328   -8.3865354    265.70372  0.013290502  0.012047679            4 
 1667000   0.57858845    -8.394229    265.61318  0.013278003  0.012037359            3 
 1668000   0.57864188    -8.416975    265.64246  0.013271506  0.012027055            3 
 1669000   0.58917579   -8.4094246    266.11086  0.013286941  0.012016753            5 
 1670000    0.5950842   -8.4270793    265.66639  0.013256806  0.012006459            4 
 1671000   0.59866607     -8.40951    265.19395  0.013225312  0.011996164            3 
 1672000   0.58501005    -8.396075    265.59443  0.013237362  0.011985891            2 
 1673000     0.581522   -8.4008571      266.178  0.013258518  0.011975635            3 
 1674000   0.59615163   -8.4178782     265.5771  0.013220684  0.011965371            2 
 1675000   0.58146921   -8.4092529    265.53877  0.013210884  0.011955133            4 
 1676000   0.57825109   -8.4193637    265.45679  0.013198926  0.011944898            3 
 1677000   0.59715929   -8.4142011    266.00008  0.013218052  0.011934682            4 
 1678000   0.58075017   -8.4267581    265.76363  0.013198432  0.011924463            5 
 1679000   0.57467313   -8.4133028    265.87333  0.013196016  0.011914252            3 
 1680000   0.59446021    -8.429695    265.31347   0.01316039  0.011904062            3 
 1681000   0.59499625   -8.4180619    265.37138  0.013155432  0.011893871            3 
 1682000   0.58474317   -8.4170261    265.42711  0.013150372    0.0118837            3 
 1683000   0.58603271   -8.4301588    265.45413  0.013143896   0.01187352            2 
 1684000   0.58094404   -8.4078593    265.82127  0.013154259  0.011863356            3 
 1685000   0.58662876   -8.4345489    265.63974  0.013137475  0.011853189            2 
 1686000   0.56584586    -8.421315    265.71764  0.013133533  0.011843059            3 
 1687000   0.58779621   -8.4099416     265.6717  0.013123479  0.011832942            5 
 1688000   0.57489246   -8.4267322    265.35413  0.013100026  0.011822833            5 
 1689000   0.58373151   -8.4196053    265.15242  0.013082318   0.01181273            2 
 1690000   0.56959435   -8.4302735    265.43007  0.013088268  0.011802627            3 
 1691000   0.58058811   -8.4288711     265.3978  0.013078937  0.011792549            2 
 1692000     0.578852   -8.4406238    265.29618  0.013066203  0.011782467            3 
 1693000   0.57387579   -8.4395675    265.70655  0.013078684  0.011772388            4 
 1694000   0.58317423   -8.4213426    265.20806  0.013046442  0.011762324            2 
 1695000   0.57381688   -8.4200287    265.28777  0.013042663  0.011752281            3 
 1696000   0.56482703   -8.4305704    265.09061  0.013025285  0.011742222            2 
 1697000   0.59341915   -8.4588737     265.1624  0.013021135  0.011732173            4 
 1698000   0.57944072   -8.4489103    265.32316  0.013021356  0.011722133            2 
 1699000   0.57650258   -8.4495374    265.25626  0.013010411  0.011712111            1 
 1700000   0.58069885   -8.4341712    265.11693  0.012995928  0.011702108            3 
 1701000   0.58004039   -8.4392576    265.29092  0.012996812  0.011692102            7 
 1702000   0.58160024   -8.4502418     265.3671  0.012992905  0.011682097            3 
 1703000    0.5730273   -8.4379284    265.32437  0.012983185  0.011672102            3 
 1704000   0.58617643   -8.4562483    265.24167  0.012971522  0.011662109            9 
 1705000   0.56742965   -8.4435471    265.59744  0.012981302  0.011652117            3 
 1706000   0.57022366    -8.441784    265.09611  0.012949204  0.011642146            3 
 1707000   0.57607629   -8.4565427    264.98226   0.01293606  0.011632196            3 
 1708000   0.56265328   -8.4449361    265.31628  0.012944783   0.01162225            4 
 1709000   0.56363476      -8.4501    265.36011  0.012939346  0.011612312            5 
 1710000   0.56567657   -8.4537688    265.37385  0.012932449  0.011602379            3 
 1711000   0.57508803   -8.4341162     265.5411  0.012933036  0.011592465            2 
 1712000   0.57492339   -8.4369241    265.45792  0.012921433  0.011582562            1 
 1713000   0.56296946   -8.4590733    265.18447  0.012900587  0.011572645            3 
 1714000   0.56995763   -8.4506859    265.16922  0.012892319   0.01156275            4 
 1715000    0.5600399   -8.4662948    265.12516  0.012882661  0.011552848            2 
 1716000   0.57455101   -8.4591183    265.22952  0.012880221  0.011542963            2 
 1717000   0.57222653   -8.4703606     265.1088  0.012866861  0.011533088            2 
 1718000   0.57497888   -8.4499158     265.4234  0.012874631  0.011523231            2 
 1719000   0.56254736   -8.4342462    265.12783  0.012852813  0.011513379            3 
 1720000   0.55843366   -8.4382962    265.14589  0.012846216  0.011503543            2 
 1721000   0.57701586    -8.442477    264.80404  0.012822198  0.011493712            4 
 1722000   0.55888428   -8.4569313    264.62758  0.012806213    0.0114839            3 
 1723000     0.562443   -8.4517015    264.96512  0.012815106  0.011474093            2 
 1724000   0.56984222   -8.4435691    265.32483  0.012825059  0.011464281            3 
 1725000   0.55560017   -8.4586714    265.17596  0.012810433  0.011454487            3 
 1726000   0.56307245   -8.4527247     264.9099  0.012790165  0.011444706            4 
 1727000    0.5679116   -8.4605435    265.07577  0.012790763  0.011434948            2 
 1728000   0.56637479   -8.4564152    264.77825  0.012769013  0.011425187            3 
 1729000   0.57263678   -8.4596266    264.95099  0.012769953  0.011415442            2 
 1730000   0.56308742   -8.4454167    265.23224   0.01277612  0.011405697            2 
 1731000   0.55790187    -8.475109    264.61993  0.012739261  0.011395951            2 
 1732000   0.56349121   -8.4534759    265.26459  0.012762923  0.011386223            4 
 1733000   0.55584513   -8.4713154    264.73218  0.012729957  0.011376512            4 
 1734000   0.55826809   -8.4454992    265.35652   0.01275262  0.011366813            3 
 1735000   0.56501275   -8.4550347    265.32172  0.012743598  0.011357117            2 
 1736000   0.56062828   -8.4674093    265.26042  0.012733315  0.011347428            2 
 1737000   0.54936855   -8.4340972    264.62402  0.012695453  0.011337741            2 
 1738000   0.55884323   -8.4683049    265.27994  0.012719598  0.011328074            6 
 1739000   0.54765049   -8.4595818    264.77491  0.012688083  0.011318409            2 
 1740000   0.57417202    -8.480012    264.77324  0.012680711  0.011308752            3 
 1741000   0.56753207   -8.4662925    265.12107  0.012690076  0.011299101            3 
 1742000   0.55959858   -8.4722472     264.9181  0.012673082  0.011289454            2 
 1743000   0.56447128   -8.4757999    264.78919  0.012659648  0.011279824            2 
 1744000   0.56967392   -8.4580312    264.90436  0.012657892  0.011270193            4 
 1745000   0.57293223    -8.464915    265.24223  0.012666773  0.011260589            2 
 1746000   0.56241142   -8.4511906    264.62294  0.012629961  0.011251001            4 
 1747000   0.54421149   -8.4966822    264.89244  0.012635587  0.011241411            3 
 1748000    0.5563485   -8.4597966    265.15625  0.012640935  0.011231823            4 
 1749000   0.55450723   -8.4741326    264.83888  0.012618586  0.011222267            1 
 1750000   0.55505315   -8.4699413    264.99538  0.012618828  0.011212703            4 
 1751000   0.56786477   -8.4733164    265.31829  0.012626989  0.011203152            4 
 1752000   0.55043797   -8.4846217    264.31894  0.012572248  0.011193609            4 
 1753000   0.54623435   -8.4865888    264.81391  0.012588606   0.01118407            4 
 1754000   0.55493325   -8.4814165    264.94927   0.01258786  0.011174552            2 
 1755000   0.55897527   -8.4670203    264.88383   0.01257758   0.01116503            5 
 1756000   0.56012057   -8.4784656    264.75069  0.012564099  0.011155514            2 
 1757000   0.54881104   -8.4714706    264.67972  0.012553582  0.011146009            2 
 1758000   0.56085887    -8.484529    264.59257   0.01254231  0.011136529            5 
 1759000   0.55603808   -8.4658771    264.54437  0.012532896  0.011127046            2 
 1760000   0.55047236   -8.4719089    264.80215   0.01253798  0.011117572            5 
 1761000   0.54346896    -8.468039    264.75382  0.012528574  0.011108101            2 
 1762000   0.54116784    -8.465898    264.91083  0.012528889  0.011098649            3 
 1763000   0.54459882   -8.4769245    265.15439  0.012533295  0.011089213            3 
 1764000   0.55209413   -8.4770258    264.73993  0.012506611  0.011079792            4 
 1765000   0.54175764   -8.4846425    264.89936  0.012507052  0.011070358            3 
 1766000   0.56093171   -8.4923917    264.69725  0.012490433   0.01106094            1 
 1767000   0.55631759   -8.4833575     264.5438  0.012476127  0.011051521            2 
 1768000   0.54305867   -8.4747158    264.10721  0.012448492  0.011042114            2 
 1769000   0.54709197   -8.4829239    264.52043  0.012460921  0.011032719            3 
 1770000   0.55180388   -8.5009972    265.15515  0.012483764  0.011023333            1 
 1771000   0.54998007   -8.5135808    264.50762  0.012446246  0.011013956            3 
 1772000    0.5298006   -8.5038037    264.61439  0.012444243  0.011004584            6 
 1773000   0.55190521   -8.4716578    264.57846  0.012435536  0.010995227            4 
 1774000    0.5402566   -8.4950225     264.1568  0.012408719  0.010985874            3 
 1775000   0.54472849   -8.4924811    264.53774  0.012419612  0.010976533            3 
 1776000   0.53824831   -8.4881455    264.72855  0.012421572  0.010967199            4 
 1777000   0.54720026   -8.4874861     264.6253   0.01240974  0.010957872            2 
 1778000   0.54610818   -8.4894845    264.68038  0.012405342  0.010948561            3 
 1779000    0.5525473   -8.4879387    264.62007  0.012395544  0.010939253            2 
 1780000    0.5406868   -8.4977665     264.0477  0.012361784  0.010929944            2 
 1781000    0.5440261   -8.4971274    264.61575  0.012381422  0.010920652            4 
 1782000   0.54482862   -8.4897018    264.72581  0.012379621  0.010911389            2 
 1783000   0.53838379   -8.4852309    264.35592   0.01235539  0.010902117            3 
 1784000   0.55221628   -8.4822001    264.38538   0.01234984  0.010892871            2 
 1785000   0.53251654    -8.483167    264.97147  0.012370283  0.010883632            2 
 1786000   0.54730696   -8.4937505    264.89217  0.012359657  0.010874392            3 
 1787000   0.53711778   -8.4846836    264.61935  0.012340018  0.010865164            2 
 1788000    0.5263021   -8.4923857     264.2717  0.012316914  0.010855946            1 
 1789000    0.5455879   -8.4820022    264.54256  0.012322646  0.010846733            2 
 1790000   0.52939792   -8.5091456    264.07354  0.012293926  0.010837536            4 
 1791000   0.53097154   -8.5212113    264.07976  0.012287351  0.010828347            3 
 1792000   0.52175023    -8.484267      264.188  0.012285528  0.010819165            3 
 1793000   0.54449418   -8.4933552    264.77067  0.012305757  0.010809992            4 
 1794000   0.53758976   -8.5087246    264.59507  0.012290741  0.010800838            2 
 1795000   0.52667336   -8.5185848    264.60534   0.01228437  0.010791678            1 
 1796000   0.53442791   -8.5118098    264.65566  0.012279866   0.01078254            2 
 1797000    0.5358042   -8.5309258    264.13345  0.012248815  0.010773398            2 
 1798000   0.53563496   -8.5148782    264.06353  0.012238762  0.010764269            2 
 1799000   0.52923633   -8.5138859    264.28086  0.012242026  0.010755145            2 
 1800000   0.53454574   -8.5246815    264.13835  0.012228627  0.010746027            1 
 1801000   0.54778948   -8.5063877    264.00876  0.012215841  0.010736922            4 
 1802000    0.5305778   -8.5113777    264.07256  0.012212013  0.010727821            2 
 1803000   0.52171722   -8.5141899    264.81515  0.012239561  0.010718739            5 
 1804000   0.53172961   -8.5161751    264.01577   0.01219585   0.01070966            4 
 1805000   0.53106682   -8.5144828    264.44171  0.012208759  0.010700598            2 
 1806000   0.54097236   -8.5174306    263.97093  0.012180275  0.010691539            3 
 1807000   0.52112131   -8.5138814    263.85697  0.012168279  0.010682488            3 
 1808000   0.52338098   -8.5175179    264.21104  0.012177869  0.010673453            1 
 1809000    0.5306659   -8.5177558    264.47108  0.012183116  0.010664427            2 
 1810000   0.53182467   -8.5091282    264.38953   0.01217263  0.010655418            3 
 1811000   0.53785088   -8.5049849    264.17166  0.012155884  0.010646417            2 
 1812000   0.51989569   -8.5119808    264.68698  0.012172874  0.010637424            2 
 1813000   0.53153103   -8.5193708    264.06704  0.012137665  0.010628424            2 
 1814000   0.53419779   -8.5312399    264.49503  0.012150635  0.010619443            3 
 1815000   0.52685478   -8.5192943    264.25621  0.012132976  0.010610466            3 
 1816000   0.53473524   -8.5313546      264.321  0.012129267  0.010601499            4 
 1817000   0.53120733   -8.5218496     264.2383  0.012118799   0.01059254            2 
 1818000   0.52338573   -8.5222145    264.30594  0.012115234  0.010583591            2 
 1819000   0.52490319    -8.517779    264.36061  0.012111078  0.010574659            3 
 1820000   0.52581871   -8.5138054    264.23236  0.012098551  0.010565717            2 
 1821000   0.52510905   -8.5237205    263.40748  0.012054159   0.01055679            2 
 1822000   0.53458773   -8.5505036    264.32662  0.012089582  0.010547866            2 
 1823000   0.53470419    -8.541763    264.16307  0.012075474  0.010538957            4 
 1824000   0.53073895   -8.5471551    264.25789  0.012073186  0.010530046            1 
 1825000   0.51104967   -8.5444069    263.93044  0.012051618  0.010521144            2 
 1826000   0.52553609   -8.5423588    264.17041   0.01205597   0.01051225            5 
 1827000   0.52726004   -8.5419858    264.21474  0.012051393   0.01050337            1 
 1828000   0.51914131   -8.5269741    263.81737  0.012026686  0.010494497            2 
 1829000   0.50978965   -8.5425746    264.08818  0.012032448  0.010485638            7 
 1830000   0.53717994    -8.549924    263.61962  0.012004537  0.010476786            2 
 1831000   0.53194298   -8.5519435    264.30642  0.012029238  0.010467938            5 
 1832000    0.5301567    -8.529473    263.75885  0.011997764  0.010459095            2 
 1833000   0.52692801    -8.543847    264.01554  0.012002889  0.010450274            1 
 1834000   0.52374847   -8.5146649    263.96445  0.011994023  0.010441457            1 
 1835000   0.52370777   -8.5180324    264.25442  0.012000655  0.010432643            5 
 1836000   0.52169722   -8.5441221    264.19861  0.011991586  0.010423835            2 
 1837000   0.52461191   -8.5520467    263.86358  0.011969859  0.010415045            5 
 1838000   0.52485065   -8.5410476     264.1459  0.011976147  0.010406265            4 
 1839000   0.53343791   -8.5372528    263.74372   0.01195141  0.010397479            3 
 1840000   0.52490249   -8.5353608    263.87396  0.011950813  0.010388707            2 
 1841000   0.52334257   -8.5513478    264.59427  0.011976927  0.010379943            2 
 1842000   0.51581858   -8.5461079    263.64943  0.011927679  0.010371189            5 
 1843000   0.51919783   -8.5366158    264.22798  0.011947368  0.010362442            5 
 1844000   0.51772355   -8.5450317    263.73323   0.01191853  0.010353721            2 
 1845000   0.51509044   -8.5474566    263.66916  0.011909176  0.010344998            4 
 1846000   0.50569417   -8.5708282    263.85046  0.011910909  0.010336283            2 
 1847000   0.51539159   -8.5563181    264.33383  0.011926269  0.010327571            2 
 1848000   0.50696244   -8.5474207    263.61592  0.011887442  0.010318871            3 
 1849000   0.50090883   -8.5466108    263.72191   0.01188579  0.010310176            1 
 1850000   0.51448587    -8.542188    264.15296  0.011898782  0.010301488            4 
 1851000   0.51690853   -8.5523342    264.01801  0.011886278  0.010292814            2 
 1852000    0.5129076   -8.5347984     263.6949  0.011865321  0.010284159            6 
 1853000   0.51535418   -8.5526403    263.74139  0.011861009  0.010275511            6 
 1854000   0.50156528   -8.5473902    264.15776  0.011873326  0.010266874            2 
 1855000   0.51238364   -8.5556932    263.65721  0.011844439  0.010258244            3 
 1856000   0.51885728    -8.548881    263.64219  0.011837383  0.010249614            2 
 1857000    0.5123542   -8.5453706    263.72314  0.011834641  0.010241005            4 
 1858000   0.51821482    -8.560731    263.54818  0.011820424  0.010232391            1 
 1859000   0.50834251   -8.5535124    263.68471  0.011820186  0.010223786            3 
 1860000   0.51312587   -8.5581779    263.97739  0.011826944  0.010215185            5 
 1861000   0.50910944   -8.5672041    263.45267  0.011797092    0.0102066            2 
 1862000   0.52041437   -8.5672346      263.722  0.011802811  0.010198009            2 
 1863000   0.51965126   -8.5491596    263.65857  0.011793638  0.010189439            2 
 1864000   0.50788247   -8.5514629    264.07054  0.011805729  0.010180878            2 
 1865000   0.51584086   -8.5652123    263.34895  0.011767156  0.010172325            3 
 1866000   0.49988964    -8.560666    263.55398  0.011770006   0.01016378            2 
 1867000    0.5265435   -8.5628226    263.61649  0.011766492  0.010155249            2 
 1868000   0.51566757   -8.5673293    263.82881  0.011769665  0.010146725            2 
 1869000   0.49704882   -8.5583391    263.62157  0.011754127  0.010138214            3 
 1870000    0.4986105   -8.5576924    264.00404  0.011764886    0.0101297            3 
 1871000   0.51525884   -8.5559547    263.85421  0.011751925  0.010121199            4 
 1872000   0.51191302   -8.5590993    263.64564  0.011736362  0.010112716            2 
 1873000    0.5141203   -8.5782808    263.93708  0.011743063   0.01010423            4 
 1874000   0.50062837   -8.5603211    263.45306  0.011715273  0.010095755            2 
 1875000   0.51046616   -8.5680648    263.78411  0.011723738   0.01008729            4 
 1876000   0.50232742   -8.5455306    263.86133  0.011720919  0.010078838            2 
 1877000   0.50299047   -8.5611928    263.47995  0.011697742  0.010070398            3 
 1878000   0.50692807    -8.569989    263.82172  0.011706679  0.010061973            5 
 1879000   0.50234492   -8.5633198    263.70461  0.011695255  0.010053549            4 
 1880000   0.49533277   -8.5765946    263.56486  0.011682839  0.010045124            4 
 1881000   0.49253028   -8.5699219    263.45421  0.011671727  0.010036717            2 
 1882000   0.49890173   -8.5642448    263.55637  0.011670048  0.010028311            4 
 1883000   0.50736554   -8.5609992    263.56368  0.011664174  0.010019915            3 
 1884000   0.50179577   -8.5680286    263.86902  0.011671489  0.010011528            5 
 1885000   0.49997371   -8.5667394    263.45325  0.011646916  0.010003149            4 
 1886000   0.49386143   -8.5670915    263.53136  0.011644192 0.0099947809            4 
 1887000   0.49947686   -8.5802869    263.36571  0.011630706 0.0099864067            4 
 1888000   0.49368005   -8.5606476    263.74437  0.011641259 0.0099780476            4 
 1889000   0.49155409    -8.574835    263.61432   0.01162936 0.0099696972            2 
 1890000   0.49456291   -8.5781079    263.13874  0.011602237  0.009961356            3 
 1891000   0.49104906   -8.5812971    263.43187  0.011609019 0.0099530221            6 
 1892000   0.49171175   -8.5663593    263.64662  0.011612342 0.0099446987            4 
 1893000   0.50433386   -8.5601673    263.31097  0.011591432 0.0099363835            3 
 1894000   0.48603247   -8.5769094    263.24479    0.0115824 0.0099280667            5 
 1895000   0.49941409    -8.565932     263.2043  0.011574508 0.0099197735            2 
 1896000   0.49569469   -8.5861071    263.43096  0.011578365 0.0099114782            4 
 1897000   0.50045983   -8.5674152    263.38726  0.011570342 0.0099032012            3 
 1898000   0.49172482   -8.5806993    263.79184  0.011582009 0.0098949282            3 
 1899000   0.49093683    -8.589572    263.18697  0.011549367 0.0098866676            5 
 1900000   0.48586025   -8.5789904    263.38823  0.011552115 0.0098784138            3 
 1901000   0.49301437   -8.5842443    263.18819   0.01153727 0.0098701664            4 
 1902000   0.49879942   -8.5822121    263.59675  0.011549104  0.009861927            6 
 1903000   0.50555776   -8.5894332     263.3368  0.011531652 0.0098536954            4 
 1904000   0.50272005   -8.5834317    263.43516    0.0115299 0.0098454736            2 
 1905000   0.50431844   -8.5763733    263.85218   0.01154209 0.0098372628            3 
 1906000   0.48570931    -8.584125    263.08736  0.011502595 0.0098290561            5 
 1907000   0.48233306   -8.5927363    263.48373  0.011513884 0.0098208628            4 
 1908000    0.4958125   -8.5698907    263.45975  0.011506802 0.0098126765            3 
 1909000   0.47862962   -8.5908227    262.88237   0.01147557 0.0098044982            5 
 1910000   0.49730139    -8.578723    262.99619  0.011474528 0.0097963268            6 
 1911000   0.47934448   -8.5808408    263.17999  0.011476539 0.0097881673            4 
 1912000   0.48998853   -8.5863505    263.54887  0.011486614 0.0097800172            4 
 1913000   0.48794899    -8.582684    263.49305  0.011478178   0.00977187            2 
 1914000   0.49951892   -8.5929186    263.08597  0.011454457 0.0097637301            6 
 1915000   0.49050156   -8.5741706    263.52822   0.01146772 0.0097556108            5 
 1916000    0.4864307   -8.5874408    263.17154  0.011446222 0.0097474886            3 
 1917000   0.48397214   -8.5908282      263.069  0.011435794 0.0097393755            6 
 1918000   0.48860001   -8.5937569    263.23042  0.011436845 0.0097312739            4 
 1919000   0.48991256   -8.6095986    262.91631  0.011417245 0.0097231745            4 
 1920000   0.48965582   -8.5885663    263.17065  0.011422337 0.0097150832            3 
 1921000   0.47614864   -8.5800595    263.02606  0.011410119 0.0097069992            4 
 1922000   0.48560334   -8.5838415    263.02027  0.011403931 0.0096989272            4 
 1923000   0.49663662   -8.5975858    262.66765   0.01138272 0.0096908632            5 
 1924000   0.48333163   -8.5996705    263.58039  0.011416337 0.0096828165            5 
 1925000   0.49046132   -8.6057011    263.00272  0.011385399  0.009674766            3 
 1926000   0.48997109   -8.6113043    263.08693  0.011383131 0.0096667333            5 
 1927000   0.48446404    -8.584796    263.28851  0.011385941 0.0096587076            4 
 1928000     0.480018   -8.5973409    263.13927  0.011373585 0.0096506913            4 
 1929000   0.48711518   -8.5976804     263.0066  0.011361958 0.0096426721            2 
 1930000   0.47855761   -8.5960699     263.2219  0.011365367 0.0096346758            3 
 1931000   0.48329414   -8.5962608    262.88993  0.011345155 0.0096266804            4 
 1932000   0.47863927   -8.5915996    263.27954  0.011356088 0.0096186976            5 
 1933000   0.48065208   -8.5859421    263.17827  0.011345847  0.009610721            2 
 1934000   0.48759526   -8.5936178    263.51833  0.011354633 0.0096027481            3 
 1935000   0.48341747   -8.6028876    263.08937  0.011330292 0.0095947776            4 
 1936000   0.49441464   -8.6012611    263.28499   0.01133286 0.0095868186            3 
 1937000   0.47373334   -8.6026439    263.30626  0.011327924 0.0095788663            4 
 1938000   0.47206729   -8.6059935    263.06955    0.0113119  0.009570923            4 
 1939000   0.47510774   -8.6117308    262.65532  0.011288264 0.0095629921            6 
 1940000    0.4847943   -8.5876619    263.27725   0.01130916 0.0095550712            5 
 1941000   0.48684696   -8.6252567    263.28308  0.011303584 0.0095471661            5 
 1942000   0.47751024   -8.6115637    262.89423  0.011281077 0.0095392585            4 
 1943000   0.47227165   -8.6115921    262.67846  0.011266017 0.0095313577            4 
 1944000   0.47583555   -8.5937601    262.90582  0.011269968 0.0095234641            3 
 1945000   0.47610096   -8.6069562    263.23971  0.011278479 0.0095155775            4 
 1946000   0.47444901      -8.6029    262.97342   0.01126128 0.0095077018            6 
 1947000   0.47060154   -8.6117571    263.07591  0.011259883 0.0094998252            3 
 1948000   0.47592648   -8.6098464    262.91131  0.011247061 0.0094919617            5 
 1949000   0.48878761   -8.6130302    262.88633  0.011240223 0.0094841042            4 
 1950000   0.47997814   -8.6057297    262.55933  0.011220484 0.0094762624           10 
 1951000    0.4849897   -8.6040648    263.27663  0.011245371 0.0094684243            2 
 1952000   0.46198804   -8.6118642    262.92951  0.011224791 0.0094605929            4 
 1953000    0.4692722   -8.6100729    263.50393  0.011243554 0.0094527642            3 
 1954000   0.47534165   -8.6155619    262.75583  0.011205895 0.0094449562            3 
 1955000   0.47748001   -8.6063237    263.07965  0.011213966 0.0094371527            4 
 1956000   0.47186291   -8.6069133    262.96761   0.01120346 0.0094293522            3 
 1957000   0.46101812    -8.611982    262.88488  0.011194212 0.0094215719            2 
 1958000   0.46743072   -8.6236302    262.95068  0.011191296 0.0094137947            3 
 1959000   0.47572072   -8.6199378    262.83625  0.011180715 0.0094060302            3 
 1960000   0.46013072    -8.606364    262.83342   0.01117489 0.0093982709            3 
 1961000   0.45997904    -8.619388    263.41059  0.011193719 0.0093905098            4 
 1962000   0.47580859   -8.6202506    262.76656  0.011160659 0.0093827692            2 
 1963000   0.46443881   -8.6008281    262.87655  0.011159643 0.0093750371            2 
 1964000   0.46665437    -8.601243     263.0324  0.011160573 0.0093673135            2 
 1965000   0.46604791   -8.6004932    262.98077  0.011152704 0.0093595974            5 
 1966000   0.47194809   -8.6037116    262.71849  0.011135914 0.0093518815            4 
 1967000   0.46511859   -8.6212377    262.89315  0.011137652 0.0093441777            4 
 1968000   0.46190982   -8.6187272    262.62247  0.011120532 0.0093364782            2 
 1969000   0.47344368   -8.6213903    263.07205  0.011133911 0.0093287847            5 
 1970000   0.46544814   -8.6295481    262.52148   0.01110497 0.0093211035            5 
 1971000   0.46012637   -8.6263232    263.09903  0.011123754 0.0093134309            4 
 1972000   0.46810324   -8.6405198    262.81021  0.011105908  0.009305776            5 
 1973000   0.46527234   -8.6247481    262.71078   0.01109608 0.0092981198            3 
 1974000   0.46359656   -8.6215677    262.69899  0.011089961  0.009290477            4 
 1975000   0.46859005   -8.6172595     262.4217  0.011072646 0.0092828365            6 
 1976000    0.4606934   -8.6304308    262.84793  0.011085017 0.0092752052            4 
 1977000   0.47082843   -8.6324206    262.96305  0.011084263 0.0092675767            2 
 1978000   0.45459315   -8.6292614    263.08015  0.011083592 0.0092599618            4 
 1979000   0.47112586   -8.6206264    262.70077  0.011062017 0.0092523497            6 
 1980000   0.46084772   -8.6388074    262.83691  0.011062159 0.0092447483            4 
 1981000    0.4623581   -8.6357431    262.51934  0.011043216 0.0092371516            4 
 1982000   0.46323338   -8.6306481    262.70222  0.011045334 0.0092295641            4 
 1983000   0.46197906   -8.6249815      262.706  0.011039922 0.0092219915            5 
 1984000     0.464368   -8.6409373    262.83509   0.01103978 0.0092144343            5 
 1985000   0.46646949   -8.6172514    262.53107  0.011021456 0.0092068813            4 
 1986000    0.4664824   -8.6212535    262.67508  0.011021949  0.009199327            3 
 1987000   0.45044362    -8.618358       262.73  0.011018705 0.0091917775            3 
 1988000   0.46917564   -8.6379108    262.66653  0.011010502 0.0091842377            4 
 1989000   0.45859062   -8.6474999    262.59065  0.011001787 0.0091767004            4 
 1990000   0.46594134   -8.6338795    262.98624  0.011012824 0.0091691746            4 
 1991000   0.46215572   -8.6355334    262.15659  0.010972568 0.0091616539            4 
 1992000   0.45679696     -8.62909    263.03136  0.011003655 0.0091541479            2 
 1993000   0.44471741    -8.639431    262.22113  0.010964255 0.0091466489            5 
 1994000   0.45547109     -8.64233    262.86283  0.010985575 0.0091391545            6 
 1995000   0.45356923    -8.627899    262.57031  0.010967849 0.0091316708            6 
 1996000   0.45444597   -8.6354256    262.53627  0.010960933 0.0091241922            3 
 1997000   0.46224304     -8.63387    262.44611  0.010951682 0.0091167206            3 
 1998000   0.45750869   -8.6301257     262.5473  0.010950421 0.0091092575            5 
 1999000   0.44593293   -8.6404527    262.40474     0.010939 0.0091018005            3 
 2000000   0.46232236   -8.6412029    262.54421  0.010939342 0.0090943558            4 
 2001000   0.45722184   -8.6625626    262.49498  0.010931825  0.009086912            4 
 2002000   0.45605368   -8.6225918    262.88849  0.010942744  0.009079475            3 
 2003000    0.4517582   -8.6453828    262.86894  0.010936468 0.0090720499            3 
 2004000   0.45366272   -8.6462855    262.75434  0.010926245 0.0090646344            5 
 2005000   0.45041627   -8.6312087    262.95806  0.010929263 0.0090572266            6 
 2006000   0.45165431   -8.6575173    262.71155  0.010913574 0.0090498314            3 
 2007000   0.45394144   -8.6412716    262.21076  0.010887343 0.0090424352            4 
 2008000   0.44165343   -8.6540161    262.68945  0.010901786 0.0090350524            6 
 2009000   0.43988038   -8.6263223    262.51862  0.010889274 0.0090276755            4 
 2010000   0.44797835   -8.6443962    262.26063  0.010873161 0.0090203056            4 
 2011000    0.4502703   -8.6365307    262.64187  0.010883552 0.0090129474            3 
 2012000    0.4501081   -8.6595887    262.78686  0.010884148 0.0090055926            3 
Loop time of 4800.98 on 48 procs for 2000000 steps with 4000 atoms

Performance: 71985.333 tau/day, 416.582 timesteps/s
99.4% CPU use with 48 MPI tasks x no OpenMP threads

MPI task timing breakdown:
Section |  min time  |  avg time  |  max time  |%varavg| %total
---------------------------------------------------------------
Pair    | 299.06     | 327.47     | 354.61     |  74.3 |  6.82
Neigh   | 31.04      | 32.575     | 33.878     |  12.1 |  0.68
Comm    | 296.71     | 324.14     | 360.18     |  90.7 |  6.75
Output  | 4.081      | 4.0832     | 4.1206     |   0.3 |  0.09
Modify  | 4049.4     | 4068.3     | 4081.2     |  11.6 | 84.74
Other   |            | 44.39      |            |       |  0.92

Nlocal:        83.3333 ave          91 max          78 min
Histogram: 4 8 3 11 3 8 6 1 3 1
Nghost:        2055.50 ave        2084 max        2035 min
Histogram: 3 6 4 12 7 6 4 4 1 1
Neighs:        13274.4 ave       15044 max       12219 min
Histogram: 4 13 5 5 8 5 1 3 3 1
FullNghs:      26548.9 ave       29145 max       24500 min
Histogram: 3 5 8 8 5 7 4 4 2 2

Total # of neighbors = 1274347
Ave neighs/atom = 318.58675
Neighbor list builds = 107104
Dangerous builds = 0

#clear
#
#next RN
#
#jump SELF
Total wall time: 1:20:04
