
units lj                  # Use reduced LJ style units
atom_style atomic         # Uncharged point particles
atom_modify map hash      # Needed for indexing of clusters etc
                          # Used to be able to find where atoms are in relation to each other.

lattice fcc 1.0 spacing 1 1 1
Lattice spacing in x,y,z = 1.5874011 1.5874011 1.5874011
region box block 0 10 0 10 0 10 units lattice
create_box 2 box
Created orthogonal box = (0.0000000 0.0000000 0.0000000) to (15.874011 15.874011 15.874011)
  3 by 4 by 4 MPI processor grid
create_atoms 1 box
Created 4000 atoms
  using lattice units in orthogonal box = (0.0000000 0.0000000 0.0000000) to (15.874011 15.874011 15.874011)
  create_atoms CPU = 0.002 seconds
set type 1 type/fraction 2 0.58 78393
Setting atom values ...
  2338 settings made for type/fraction
mass 1 1.0
mass 2 1.0
pair_style lj/cut  3.5
pair_modify tail  yes
pair_coeff 1  1  1.0  1.0   # Intearaction between 1 and 1 set with epsilon = 1 and sigma = 1
pair_coeff 1  2  1.5  0.8
pair_coeff 2  2  0.5  0.88

write_data data.0
System init for write_data ...
Neighbor list info ...
  update every 1 steps, delay 10 steps, check yes
  max neighbors/atom: 2000, page size: 100000
  master list distance cutoff = 3.8
  ghost atom cutoff = 3.8
  binsize = 1.9, bins = 9 9 9
  1 neighbor lists, perpetual/occasional/extra = 1 0 0
  (1) pair lj/cut, perpetual
      attributes: half, newton on
      pair build: half/bin/atomonly/newton
      stencil: half/bin/3d
      bin: standard
WARNING: Not all mixed pair coeffs generated from mixing. Use write_data with 'pair ij' option to store all pair coeffs. (../write_data.cpp:312)


#############################
#   M E L T   S Y S T E M   #
#############################

velocity all create 2.4 3143649 mom yes dist gaussian # Assign velocities
                                                    # Temperature 2.4, random number seed, zero linear momentum
                                                                                # Gaussian distribution

timestep 0.002   # simulation timestep
thermo 1000       # output thermodynamic data every 1000 steps bf 100

# Define a fix  in this case with index 1 applied to all
# particles in the simulation. This fix is for simulations
# in the anisotropic NPT ensemble. Note that we use the MTK
# correction.
fix 1 all npt temp 2.4 2.4 0.1 iso 5.68 5.68 0.5 mtk yes tchain 5 pchain 5 # Use NPT ensemble
                                                                         # Set temperature and pressure and damping
                                                                         # Numbers of thermostats in chain and in barostat
run 10000          # run for 10000 steps
Per MPI rank memory allocation (min/avg/max) = 3.642 | 3.644 | 3.648 Mbytes
Step Temp E_pair E_mol TotEng Press Volume 
       0          2.4   -4.8268882            0   -1.2277882   -4.1002737         4000 
    1000    2.4293102   -4.4710053            0  -0.82795105    5.8477595    3652.9453 
    2000    2.4342023   -4.6091124            0  -0.95872173    5.3159015    3634.2576 
    3000    2.3911025   -4.5646626            0  -0.97890547      5.34291    3654.2409 
    4000    2.3564695   -4.5246614            0  -0.99084072    5.4512788     3648.994 
    5000    2.4361861   -4.5684872            0   -0.9151216    5.4394674    3642.5552 
    6000    2.4041216   -4.5143163            0  -0.90903538    5.9766079    3620.3025 
    7000    2.4298406     -4.61235            0  -0.96850027    5.4137176    3607.6425 
    8000     2.386096   -4.5357266            0  -0.95747733     5.727812    3620.4878 
    9000    2.4036732   -4.5478374            0  -0.94322899     5.413825    3650.9506 
   10000    2.4040205   -4.5721935            0  -0.96706434     5.689709    3609.7907 
Loop time of 2.66443 on 48 procs for 10000 steps with 4000 atoms

Performance: 648544.344 tau/day, 3753.150 timesteps/s
99.6% CPU use with 48 MPI tasks x no OpenMP threads

MPI task timing breakdown:
Section |  min time  |  avg time  |  max time  |%varavg| %total
---------------------------------------------------------------
Pair    | 1.2256     | 1.2733     | 1.3711     |   2.6 | 47.79
Neigh   | 0.21712    | 0.22349    | 0.23369    |   0.7 |  8.39
Comm    | 0.78982    | 0.89578    | 0.95289    |   3.2 | 33.62
Output  | 0.00024724 | 0.00025221 | 0.00031791 |   0.0 |  0.01
Modify  | 0.23313    | 0.25592    | 0.28541    |   2.9 |  9.61
Other   |            | 0.01569    |            |       |  0.59

Nlocal:        83.3333 ave          92 max          72 min
Histogram: 1 0 1 2 10 11 12 6 3 2
Nghost:        1757.69 ave        1786 max        1733 min
Histogram: 2 3 4 9 9 10 3 6 1 1
Neighs:        10573.9 ave       11779 max        8902 min
Histogram: 1 1 2 3 6 12 13 4 4 2

Total # of neighbors = 507546
Ave neighs/atom = 126.88650
Neighbor list builds = 904
Dangerous builds = 199

# Equilibrate just above the melting temperature to avoid step fn in T

fix 1 all npt temp 1.25 1.25 0.1 iso 5.68 5.68 0.5 mtk yes tchain 5 pchain 5
run 2000
Per MPI rank memory allocation (min/avg/max) = 3.644 | 3.646 | 3.650 Mbytes
Step Temp E_pair E_mol TotEng Press Volume 
   10000    2.4040205   -4.5721935            0  -0.96706434     5.689709    3609.7907 
   11000    1.2615443   -6.6369251            0   -4.7450817    5.7136965    2787.8486 
   12000    1.2409603    -6.726821            0   -4.8658459    5.9455394    2755.8009 
Loop time of 0.655127 on 48 procs for 2000 steps with 4000 atoms

Performance: 527531.153 tau/day, 3052.842 timesteps/s
99.6% CPU use with 48 MPI tasks x no OpenMP threads

MPI task timing breakdown:
Section |  min time  |  avg time  |  max time  |%varavg| %total
---------------------------------------------------------------
Pair    | 0.30377    | 0.32441    | 0.35674    |   2.1 | 49.52
Neigh   | 0.041313   | 0.043957   | 0.047271   |   0.6 |  6.71
Comm    | 0.20184    | 0.23684    | 0.26345    |   2.8 | 36.15
Output  | 5.3597e-05 | 5.4562e-05 | 7.0965e-05 |   0.0 |  0.01
Modify  | 0.039985   | 0.045014   | 0.05043    |   1.5 |  6.87
Other   |            | 0.004861   |            |       |  0.74

Nlocal:        83.3333 ave          89 max          78 min
Histogram: 7 3 5 4 4 7 5 5 4 4
Nghost:        2118.48 ave        2142 max        2102 min
Histogram: 5 4 7 9 6 5 3 5 3 1
Neighs:        13854.3 ave       15704 max       12258 min
Histogram: 2 6 4 9 4 8 7 5 2 1

Total # of neighbors = 665008
Ave neighs/atom = 166.25200
Neighbor list builds = 144
Dangerous builds = 20

#############################
# L I N E A R  Q U E N C H  #
#############################

# Define solid atoms. This closely follows ten Wolde  Ruiz-Montero and Frenkel  Faraday Discuss  1996  104  93-110
# Compute components of the per-atom q6 vector
compute q6 all orientorder/atom degrees 1 6 components 6 nnn NULL cutoff 1.3 # compute the Q6 parameter.
                                                                             # Use all neighbours within 1.3 unit cell.

# get number of connections
compute coord_number all coord/atom orientorder q6 0.5

# An atom is solid if it has 8 or more connections (of a possible 14)
variable is_solid atom c_coord_number>=8
group solid dynamic all var is_solid    # Must be dynamic to update
dynamic group solid defined

# do clustering
compute cluster solid cluster/atom 1.3 # Create a cluster where all atoms within are solid and max 1.3 units from another member

# define chunks one chunk per cluster
compute clus_chunks solid chunk/atom c_cluster nchunk every compress yes  # Says which atoms are in which chunk

# count the size of each chunk
compute size_chunks solid property/chunk clus_chunks count


# Find the maximum entry in the vector of chunk sizes
variable max_n equal max(c_size_chunks)


# Thermo style which includes this variable
# thermo_style custom step temp pe vol v_max_n

thermo ${N}  # Print the thermo information every 100 steps
thermo 1000  

# Reset the npt fix at a lower temperature (below freezing)
fix 1  all npt temp  ${temp} ${temp}  0.1  iso  5.68  5.68  0.5  mtk yes tchain  5  pchain  5
fix 1  all npt temp  0.45 ${temp}  0.1  iso  5.68  5.68  0.5  mtk yes tchain  5  pchain  5
fix 1  all npt temp  0.45 0.45  0.1  iso  5.68  5.68  0.5  mtk yes tchain  5  pchain  5

dump dmp2 all dcd ${N} traj.dcd
dump dmp2 all dcd 1000 traj.dcd


compute msd all msd com yes
variable twopoint equal c_msd[4]/6/(step*dt+1.0e-6)
fix 9 all vector 10 c_msd[4]
variable fit equal slope(f_9)/6/(10*dt)
thermo_style custom step temp pe c_msd[4] v_twopoint v_fit v_max_n

fix 1 all npt temp 1.25 ${temp} 0.1 iso 5.68 5.68 0.5 mtk yes tchain 5 pchain 5
fix 1 all npt temp 1.25 0.45 0.1 iso 5.68 5.68 0.5 mtk yes tchain 5 pchain 5
run 2000000 # 5000000  # Run for this many steps
Neighbor list info ...
  update every 1 steps, delay 10 steps, check yes
  max neighbors/atom: 2000, page size: 100000
  master list distance cutoff = 3.8
  ghost atom cutoff = 3.8
  binsize = 1.9, bins = 8 8 8
  4 neighbor lists, perpetual/occasional/extra = 1 3 0
  (1) pair lj/cut, perpetual
      attributes: half, newton on
      pair build: half/bin/atomonly/newton
      stencil: half/bin/3d
      bin: standard
  (2) compute orientorder/atom, occasional
      attributes: full, newton on
      pair build: full/bin/atomonly
      stencil: full/bin/3d
      bin: standard
  (3) compute coord/atom, occasional
      attributes: full, newton on
      pair build: full/bin/atomonly
      stencil: full/bin/3d
      bin: standard
  (4) compute cluster/atom, occasional
      attributes: full, newton on
      pair build: full/bin/atomonly
      stencil: full/bin/3d
      bin: standard
Per MPI rank memory allocation (min/avg/max) = 9.848 | 9.852 | 9.856 Mbytes
Step Temp PotEng c_msd[4] v_twopoint v_fit v_max_n 
   12000    1.2409603    -6.726821 1.5260514e-30 1.0597579e-32 8.3333333e+20            2 
   13000    1.2614907    -6.761555   0.50397873 0.0032306327  0.041983477            3 
   14000    1.2438435   -6.7699987   0.94632298 0.0056328747  0.037955201            4 
   15000    1.2590222    -6.753172    1.3951871 0.0077510391  0.037402338            2 
   16000    1.2587809   -6.7531542    1.8294576 0.0095284247  0.037403365            1 
   17000    1.2606907   -6.7746169    2.2764198   0.01115892  0.037177292            1 
   18000    1.2718747   -6.7539758    2.7213179  0.012598694  0.037259384            2 
   19000     1.235602    -6.779409    3.1329205  0.013740879  0.037041016            2 
   20000     1.216144   -6.7759004    3.6123375  0.015051406  0.036828959            1 
   21000    1.2515108   -6.7262306     4.032698  0.016002769  0.036855495            1 
   22000    1.2323127   -6.7294613    4.4752186  0.016951585  0.036683047            1 
   23000    1.2229002   -6.7987407    4.8706591  0.017647315  0.036635486            2 
   24000    1.2380556    -6.759573    5.3146026  0.018453481  0.036526059            2 
   25000    1.2629753   -6.7325062     5.817658  0.019392193  0.036557422            1 
   26000    1.2595647   -6.7481752    6.2242285   0.01994945  0.036580668            2 
   27000    1.2287209    -6.743971    6.6191415  0.020429449  0.036558799            4 
   28000      1.25501   -6.7981068    6.9027115  0.020543784  0.036354761            2 
   29000    1.2477048   -6.7469988    7.3238506  0.021045547  0.036087812            2 
   30000    1.2401765   -6.7291117    7.7273964   0.02146499  0.035857466            3 
   31000    1.2196225   -6.7848191    8.1202175  0.021828541  0.035656471            3 
   32000    1.2480113   -6.7913895    8.5663191  0.022308122  0.035531136            2 
   33000    1.2672624   -6.8270388    8.9585449  0.022622588  0.035422126            1 
   34000    1.2610119   -6.7964522    9.5249483  0.023345461  0.035391801            3 
   35000    1.2423857   -6.7866503    9.8679088  0.023495021  0.035371705            1 
   36000      1.24153    -6.742912    10.157281  0.023512223  0.035253249            2 
   37000    1.2473483   -6.7657659    10.576929  0.023821911  0.035104324            2 
   38000    1.2246094   -6.7189769    11.030276  0.024189202  0.035002811            4 
   39000    1.2653186   -6.8208226     11.46999  0.024508526  0.034947893            2 
   40000    1.2145436   -6.8096241    11.961396  0.024919576  0.034915961            4 
   41000    1.2265307   -6.8182014    12.243115  0.024884379  0.034871924            1 
   42000    1.2347769   -6.8076066    12.663317   0.02512563  0.034808738            3 
   43000    1.2382742   -6.7877642    13.196951  0.025575486  0.034810192            2 
   44000    1.2667104   -6.7569971    13.699868  0.025946719  0.034854703            4 
   45000      1.23424    -6.732607    14.011072  0.025946429   0.03487044            2 
   46000    1.2453021   -6.8014469    14.588107  0.026427729   0.03490385            2 
   47000    1.2158044   -6.8099872    15.023476  0.026637368  0.034973255            1 
   48000    1.2524185   -6.7726727    15.352662  0.026653928  0.035015131            4 
   49000    1.2180568   -6.8014778    15.765187  0.026811542  0.035029343            2 
   50000    1.2311568   -6.7975126    16.217698  0.027029497  0.035049448            3 
   51000    1.2476129   -6.7742617    16.646724  0.027200529  0.035083087            4 
   52000    1.2390382   -6.8215716    17.074266  0.027362605  0.035100203            1 
   53000    1.2784761   -6.7674782    17.396798  0.027353455  0.035090971            1 
   54000    1.2382564   -6.8115832    17.870843  0.027578461  0.035086805            3 
   55000    1.2207173   -6.7658497    18.236715  0.027631387  0.035089789            2 
   56000    1.2541358   -6.8464002    18.587838  0.027660473  0.035081617            2 
   57000    1.2258397   -6.8214549    18.826268  0.027523784  0.035044176            2 
   58000    1.2415103   -6.7961199    19.324218   0.02776468  0.034995744            2 
   59000    1.2307045   -6.8407175     19.70375  0.027830155  0.034945669            2 
   60000    1.2228662   -6.7995816    20.198995   0.02805416  0.034918249            1 
   61000    1.2172041   -6.8367717    20.496154   0.02800021   0.03487878            3 
   62000    1.2380735   -6.8084963    20.864138  0.028043196  0.034829426            4 
   63000    1.2410637   -6.8149999     21.29547   0.02816861  0.034782496            3 
   64000    1.2440398   -6.8302847    21.703242  0.028259429  0.034734612            5 
   65000    1.2062912   -6.7693524    22.162881   0.02841395  0.034700673            2 
   66000    1.2405986   -6.8258993    22.438696  0.028331687  0.034661069            4 
   67000    1.2228685   -6.7948278    22.827226  0.028392072  0.034605056            2 
   68000    1.2146591   -6.8436752    23.344083  0.028607945  0.034564433            5 
   69000    1.1749804   -6.8590204     23.78154  0.028721666  0.034547445            2 
   70000    1.2284932   -6.8200669     24.29743  0.028925511  0.034532058            3 
   71000    1.2124824   -6.8326181    24.597763  0.028870614  0.034517132            2 
   72000    1.2474963   -6.7834715    25.009593  0.028946288  0.034485161            2 
   73000    1.2309988   -6.8332866    25.433514  0.029033691  0.034464871            6 
   74000    1.2393697   -6.8289967    25.747302  0.028994709  0.034445218            2 
   75000    1.1904367   -6.8519424    26.067382  0.028963758   0.03442683            2 
   76000    1.2227151   -6.8307594    26.481148  0.029036346  0.034391466            3 
   77000    1.2115476   -6.8241435    26.826314  0.029032807   0.03435232            3 
   78000    1.2179369   -6.8583317    27.091531  0.028943943   0.03430754            1 
   79000    1.2057693   -6.8496362    27.674736  0.029192759  0.034274689            3 
   80000    1.2016628   -6.8459385    28.085911  0.029256157    0.0342505            2 
   81000    1.2115461   -6.8256335     28.44683  0.029266286  0.034226713            3 
   82000    1.2211638   -6.8233955    28.794753   0.02926296  0.034189135            1 
   83000    1.2148958    -6.837396    29.247852  0.029365313  0.034156886            1 
   84000    1.2423921    -6.813349    29.506643  0.029272463  0.034131135            2 
   85000    1.2296328   -6.7883077    29.970641  0.029382981  0.034098619            2 
   86000    1.2214222    -6.868434    30.233659  0.029296181  0.034065942            2 
   87000    1.2211171   -6.8788186    30.721571  0.029426792  0.034038896            3 
   88000    1.2305784   -6.7877394      31.2973  0.029637594  0.034018229            2 
   89000    1.2532754   -6.8235194    31.523164  0.029516071  0.033994534            3 
   90000     1.215194   -6.8316861    32.067907  0.029692506  0.033970667            2 
   91000     1.239675   -6.7841219    32.419999  0.029688644  0.033949899            2 
   92000    1.2326322   -6.8664985    32.678122  0.029599748  0.033932713            3 
   93000    1.2367035   -6.9075622    33.161315   0.02971444  0.033913465            4 
   94000    1.2113945   -6.8227523    33.755578  0.029925157  0.033896409            2 
   95000    1.2332241   -6.8372652     34.11988  0.029929719  0.033888771            5 
   96000    1.2331881   -6.8065501    34.712528  0.030132402  0.033886142            1 
   97000    1.2048454   -6.8907489    34.986047  0.030056741  0.033889803            2 
   98000    1.1920924   -6.8686586    35.371391  0.030077713  0.033888329            1 
   99000    1.2289314   -6.8180446    35.782672  0.030120094  0.033883108            2 
  100000     1.220439   -6.8519411    36.040074  0.030033395  0.033874273            2 
  101000    1.2006225   -6.8367082    36.483953  0.030102271  0.033864155            3 
  102000    1.2191056   -6.8804898    37.209541  0.030399951  0.033869245            3 
  103000    1.2040061   -6.8975774    37.754036  0.030545336  0.033887145            4 
  104000    1.2021884   -6.8469069    38.203482  0.030611764  0.033902685            2 
  105000    1.1868436   -6.8687262    38.568239  0.030609713  0.033919626            4 
  106000    1.2117791   -6.8785711     39.14341  0.030773121  0.033938988            2 
  107000    1.2252383   -6.8686692    39.546488  0.030799445  0.033960873            2 
  108000    1.1904646   -6.9370873    39.685147  0.030621255  0.033977133            2 
  109000    1.1926982   -6.8468082    40.328191   0.03083195  0.033989707            2 
  110000     1.213039   -6.8559862    40.749547  0.030870869  0.034009898            2 
  111000    1.2284405   -6.8808428     41.02617  0.030800428  0.034021749            2 
  112000    1.2000526    -6.854924    41.527013  0.030898075  0.034035974            1 
  113000    1.2131143   -6.8734927    42.028141  0.030994204  0.034056194            4 
  114000    1.2138028   -6.8900928    42.179558   0.03083301  0.034067662            1 
  115000    1.2179004   -6.8953098    42.433661   0.03074903  0.034064224            2 
  116000    1.2146056   -6.8836007    42.511492  0.030539865  0.034057737            5 
  117000    1.2188976   -6.9050358    43.056712  0.030667174  0.034048069            3 
  118000    1.1990546   -6.9135017    43.571832  0.030771067  0.034036552            3 
  119000    1.2272221   -6.8657585    43.796901  0.030670099  0.034027838            5 
  120000    1.1863633   -6.8577507    43.985708  0.030545631  0.034009842            2 
  121000    1.2304549   -6.8720388    44.451467  0.030613958  0.033991056            3 
  122000    1.2213774   -6.8668894    44.967819  0.030715723  0.033974453            1 
  123000    1.1912245   -6.8621779    45.344751  0.030721376  0.033964253            3 
  124000    1.2330809   -6.9187656    45.366107  0.030487975  0.033947326            3 
  125000     1.212554   -6.8727262    45.920137  0.030613425    0.0339242            1 
  126000    1.2187499   -6.8817448    46.239898  0.030581943  0.033903328            4 
  127000    1.2118131   -6.8594711    46.840263   0.03073508  0.033885636            2 
  128000    1.2047417   -6.8597397    47.107803  0.030669142  0.033869547            3 
  129000     1.188702   -6.8589971    47.463847  0.030661399  0.033851427            2 
  130000    1.2021616   -6.8669943    47.678238  0.030562973  0.033832709            3 
  131000    1.2043044   -6.9160231    48.097331  0.030596266  0.033808841            1 
  132000    1.2060654    -6.865314     48.62233  0.030695915  0.033784333            4 
  133000    1.1880774   -6.8897194    48.626757  0.030467892  0.033758806            4 
  134000    1.2301009   -6.8445431    49.223141  0.030611406  0.033732398            2 
  135000    1.2084787   -6.9001531    49.708522  0.030684273  0.033706944            4 
  136000    1.1991476   -6.8799907    50.053655  0.030670131  0.033685191            2 
  137000    1.1782015   -6.8805491    50.245595  0.030563014  0.033659787            1 
  138000    1.1961535    -6.884072     50.33994  0.030398514  0.033629081            3 
  139000    1.1926548   -6.8571302    50.852884   0.03048734  0.033595776            4 
  140000    1.2062504   -6.9024469    51.011583  0.030364038  0.033562684            1 
  141000    1.2077835   -6.8880348    51.223197  0.030273757  0.033527995            4 
  142000     1.188399   -6.9051794    51.451688  0.030194653  0.033487442            2 
  143000    1.2089302   -6.9093288    51.807362  0.030190771  0.033450428            2 
  144000    1.1731331   -6.8600857    52.077876   0.03013766  0.033408082            4 
  145000    1.2041341   -6.9001574    52.522836  0.030185538  0.033367575            2 
  146000    1.2051521   -6.8704074    52.875706  0.030180197  0.033328289            2 
  147000    1.1981348   -6.8629268       53.455  0.030303288  0.033287674            4 
  148000    1.1794544   -6.9123795    53.358871  0.030044409  0.033245106            2 
  149000    1.1778498   -6.9088907    53.686858  0.030026207  0.033201806            3 
  150000    1.1884172   -6.9210726    54.226954  0.030126086  0.033159083            5 
  151000    1.1695656   -6.9312686    54.174503  0.029897629   0.03311333            5 
  152000    1.2070094   -6.9678313    54.585378  0.029926194  0.033065725            8 
  153000    1.1859865   -6.8952662    55.252083  0.030093727   0.03301954            3 
  154000    1.1960637   -6.9173789    55.363425  0.029958563  0.032972781            2 
  155000    1.1926599   -6.8747158    55.655623  0.029922378   0.03292919            2 
  156000    1.2099029   -6.9282583    56.096902  0.029966293  0.032886361            4 
  157000    1.1770561   -6.9610847    56.528693  0.030004614  0.032844043            2 
  158000    1.1950666   -6.9155103    56.943647  0.030033569  0.032805005            2 
  159000    1.1993347    -6.891154    57.137972  0.029946526  0.032765812            1 
  160000    1.1961128   -6.8879572     57.43471  0.029913911  0.032727835            3 
  161000    1.1748862   -6.8668012    58.038499  0.030040631  0.032691686            4 
  162000    1.1880447   -6.8841254    58.623249  0.030155992  0.032658061            2 
  163000    1.2150461   -6.8916586      58.6865  0.030003323  0.032623741            2 
  164000    1.1817044   -6.9429694    58.957583  0.029958122   0.03258834            5 
  165000    1.1726802   -6.8917733    59.723202  0.030163233  0.032556476            4 
  166000    1.1515877   -6.9613638    59.894923  0.030067732   0.03252693            4 
  167000    1.1827103   -6.9470834    60.065165  0.029972637  0.032495307            3 
  168000    1.1875003   -6.9549841    60.228288  0.029875143   0.03245821            2 
  169000    1.2030596   -6.9247715    60.735403  0.029948423  0.032422784            2 
  170000     1.204231    -6.896846    61.263099  0.030030931  0.032390197            2 
  171000    1.1699582   -6.9422016    61.276243  0.029861717  0.032357742            3 
  172000    1.1876422   -6.9601453    61.781722  0.029933005  0.032327582            3 
  173000    1.1898901    -6.917126     62.14834   0.02993658  0.032295006            4 
  174000    1.1803365   -6.9733193    62.146273  0.029763541  0.032264354            8 
  175000    1.1929884   -6.9062772    62.878363  0.029942078  0.032231902            2 
  176000    1.1779791   -6.9526891    62.902353  0.029783311  0.032195644            5 
  177000    1.2071889   -6.9486675      63.2246  0.029766761  0.032162006            3 
  178000    1.1920524   -6.9581804     63.69098  0.029817874  0.032127639            2 
  179000    1.1903395   -6.8870171    64.237291  0.029905629  0.032098302            2 
  180000    1.1789593   -6.9248806    64.154567  0.029701188  0.032067525            3 
  181000    1.1926642   -6.8997207    64.673681  0.029776096  0.032034015            4 
  182000    1.2005996   -6.9323113    65.026144  0.029773875  0.032001707            2 
  183000    1.1718348   -6.9521538    65.322027  0.029745914   0.03196864            4 
  184000    1.1821434   -6.9525559    65.535222  0.029680807  0.031939177            2 
  185000    1.1699245   -6.9138921    66.202485  0.029820939  0.031909577            2 
  186000    1.1862144   -6.9514615    66.239664  0.029677269  0.031879621            3 
  187000    1.1913397    -6.912599    66.867446  0.029798327  0.031850848            2 
  188000    1.1992965   -6.9577893    66.933001  0.029668883  0.031819966            8 
  189000    1.1833813   -6.9709373    67.412784  0.029723449  0.031791447            3 
  190000    1.1606947   -6.9296021     67.95509  0.029804864  0.031765356            1 
  191000    1.1573548   -6.9454859    68.271974  0.029787074  0.031740015            2 
  192000    1.1829018   -6.9311038     68.80761  0.029864414  0.031713843            6 
  193000    1.1391573   -6.9561594    69.390466  0.029961341  0.031691008            3 
  194000    1.1892594   -6.9929076     69.48948  0.029849433   0.03167002            4 
  195000    1.1916612   -6.9429062    70.023813  0.029924706   0.03165069            3 
  196000    1.1540436   -6.9735276    70.334712  0.029904214   0.03163178            2 
  197000    1.2099867   -6.9283046    71.043024  0.030052041  0.031613877            2 
  198000    1.1873886   -6.9010458    71.211661  0.029971238  0.031599081            2 
  199000    1.1689389   -6.9369706    71.650547  0.030004417  0.031583006            1 
  200000    1.2011737    -7.011675    71.899961  0.029958317  0.031567552            4 
  201000    1.1883933   -6.9276394    72.445917  0.030035621  0.031552046            4 
  202000     1.190846   -6.9386626    72.939482  0.030090545  0.031536774            3 
  203000    1.2009487   -6.9356238    73.360939  0.030115328  0.031524457            2 
  204000    1.1570331   -6.9554577      73.5538  0.030046487  0.031509626            3 
  205000    1.1661446   -6.9924125    73.842454  0.030017258  0.031494366            2 
  206000    1.1571121   -6.9543409    74.162121  0.030000858  0.031477551            3 
  207000    1.1463998   -6.9628854    74.611897  0.030036995  0.031463251            3 
  208000     1.167935   -6.9704629    74.818701  0.029975441  0.031448036            3 
  209000    1.1656659   -6.9849447    75.103975  0.029945763  0.031434222            2 
  210000    1.1670101   -6.9516437    75.440063  0.029936533  0.031420056            2 
  211000    1.1622166   -6.9767936    75.694565  0.029895168  0.031408533            6 
  212000    1.1411272   -7.0214961    76.133923  0.029926857  0.031395614            3 
  213000     1.171162   -6.9371363    76.754833  0.030029277  0.031382257            2 
  214000    1.1678214   -7.0094728    76.797465  0.029905555  0.031366944            4 
  215000    1.1856777   -7.0152375    76.629375  0.029701308  0.031350117            1 
  216000    1.1779218    -6.944901     77.33161  0.029834726  0.031332425            1 
  217000    1.1792379   -6.9315286    77.825487    0.0298869  0.031314152            5 
  218000    1.1624233   -6.9722017     77.57886  0.029655527  0.031294463           10 
  219000    1.1605815    -6.982454    77.894452  0.029640202  0.031273795            2 
  220000    1.1410829   -6.9511003    77.976089  0.029536397   0.03124959            2 
  221000    1.1771418   -6.9675016    78.475726  0.029591149  0.031224783            1 
  222000    1.1475625   -6.9747562    78.658639  0.029526516  0.031201067            2 
  223000    1.1515411   -6.9790725    78.823618  0.029455761  0.031176338            2 
  224000    1.1597976   -6.9919702    78.866888   0.02934036  0.031152228            2 
  225000    1.1873146   -6.9837008    79.139455  0.029310909  0.031125708            2 
  226000    1.1654555   -6.9914053    79.962577  0.029484726  0.031100922            2 
  227000    1.1437426   -7.0101455    80.280064  0.029471389  0.031078161            2 
  228000    1.1741086   -7.0217977    80.340763  0.029364314  0.031054048            3 
  229000    1.1559892   -6.9949311    80.965558  0.029463449  0.031030317            1 
  230000    1.1612392   -6.9867058    81.204564  0.029421943  0.031005954            1 
  231000    1.1808251   -6.9769036    81.577694  0.029429183  0.030984137            3 
  232000     1.164169   -7.0242448    81.592059  0.029307492  0.030961086            1 
  233000    1.1631261    -6.975923    81.909553  0.029295262  0.030937136            3 
  234000    1.1808311   -6.9777739    82.363341  0.029331674  0.030913522            2 
  235000    1.1799451   -6.9799777    82.613456  0.029295552  0.030891056            4 
  236000    1.1763723   -6.9626077    83.154368  0.029362418  0.030868683            3 
  237000    1.1688958   -7.0104855    83.530823  0.029370894  0.030846221            2 
  238000    1.1681878   -7.0012492    83.486003  0.029231794  0.030824121            2 
  239000     1.171767   -6.9975222    84.307542  0.029395935  0.030800525            4 
  240000     1.165271   -7.0682269    84.036872   0.02917947  0.030776403            3 
  241000    1.1391798   -6.9988619    84.653711  0.029271684  0.030753587            3 
  242000    1.1853234    -6.963569     85.14399  0.029319556  0.030731614            2 
  243000    1.1332211   -6.9720211     85.57519  0.029346773  0.030710155            3 
  244000    1.1685876   -6.9961769    85.733544  0.029280582  0.030690894            4 
  245000    1.1676328   -7.0154582    86.013455  0.029256277  0.030669493            3 
  246000    1.1605783   -6.9867396     86.31391  0.029239129  0.030647035            3 
  247000     1.167298   -6.9921815    86.413384  0.029154313  0.030626246            3 
  248000    1.1444064   -6.9884306    86.906625  0.029202495  0.030603752            6 
  249000    1.1579395   -6.9905872    87.309188  0.029219942  0.030580503            3 
  250000    1.1612232   -6.9889337     87.49454  0.029164847  0.030557631            5 
  251000    1.1764198   -6.9815743    88.227282  0.029291926  0.030535832            1 
  252000    1.1518293   -7.0240285    88.112699  0.029137797  0.030513099            5 
  253000      1.16852    -7.043508    88.099638  0.029018326  0.030490287            3 
  254000    1.1855887   -7.0102492     88.14489  0.028918927  0.030466206            2 
  255000    1.1338834    -7.022452    88.438677  0.028901528  0.030441484            3 
  256000    1.1462139   -7.0003817    88.811101  0.028909864  0.030415596            5 
  257000     1.125739    -7.021401    89.207539   0.02892592   0.03039049            2 
  258000    1.1523135    -6.964744    89.606378  0.028942629  0.030365141            4 
  259000     1.151607   -7.0230278    89.963681  0.028945843  0.030342315            2 
  260000    1.1465451   -7.0258195    90.280944    0.0289362  0.030317094            3 
  261000    1.1431042   -7.0427655    90.616226  0.028932384  0.030293179            3 
  262000    1.1717119   -7.0196318    90.760354  0.028867797  0.030268061            2 
  263000    1.1489142   -7.0173871    91.363026  0.028948994  0.030243527            3 
  264000    1.1493738   -7.0074699    91.313171  0.028823602  0.030220543            4 
  265000    1.1554924   -7.0416173    91.336035  0.028722024  0.030196175            2 
  266000    1.1357361   -6.9996829    91.675577  0.028720419  0.030170044            3 
  267000    1.1443034   -7.0623487      91.9229  0.028690044  0.030144469            1 
  268000    1.1631167   -7.0527763     92.34329   0.02871371  0.030119076            1 
  269000    1.1413168   -7.0455007    92.519062  0.028661419  0.030093144            4 
  270000    1.1364754   -7.0162578    92.977562  0.028696778  0.030067944            4 
  271000    1.1379149   -7.0422926    92.833319  0.028546531   0.03004102            2 
  272000    1.1427367   -7.0307195    93.088554  0.028519777  0.030013805            4 
  273000    1.1437372   -6.9742699    93.570597  0.028562453  0.029985557            1 
  274000    1.1546362   -7.0408411    93.898562  0.028557957  0.029958063            3 
  275000    1.1496477   -7.0571827    94.220762  0.028551746  0.029931843            2 
  276000    1.1439113   -7.0434527    94.281597  0.028466666  0.029905905            2 
  277000        1.135    -7.066848    94.779456  0.028513675  0.029879325            2 
  278000    1.1551799   -7.1134975    95.097823  0.028506542  0.029853251            3 
  279000    1.1474218    -7.045583    95.978662  0.028667462  0.029827906            1 
  280000    1.1529829   -7.0468136    96.066174  0.028591123  0.029804758            4 
  281000    1.1261372   -7.0205813    96.351807  0.028574083  0.029782007            3 
  282000     1.126673   -7.0245366    96.684478  0.028571063  0.029760904            2 
  283000    1.1219584   -7.0283431    97.064752  0.028582082   0.02973919            4 
  284000    1.1331399   -7.0315656    97.206364  0.028522994  0.029717144            5 
  285000    1.1319174   -7.0490462    97.470228  0.028500067  0.029695486            4 
  286000    1.1452912    -7.049964    97.724176   0.02847441  0.029672716            2 
  287000    1.1501677   -7.0526007    97.840639  0.028409012  0.029650339            4 
  288000     1.118593   -7.0872503    98.669033  0.028550067  0.029629591            3 
  289000    1.1396455   -7.0668302    99.026375  0.028554318  0.029610643            4 
  290000    1.1559587   -7.0507188    99.608797  0.028623217  0.029591774            2 
  291000    1.1184863    -7.084582    99.675764  0.028544033  0.029571962            5 
  292000    1.1478458   -7.0351157    99.709807  0.028455995  0.029550971            5 
  293000    1.1301695   -7.0195229     100.0159  0.028445933  0.029529545            2 
  294000    1.1279198   -7.0351426    100.40064  0.028458232  0.029508512            5 
  295000    1.1157543   -7.0408264    100.45815  0.028378007  0.029487516            4 
  296000    1.1376999   -7.0910189    100.48846   0.02829067  0.029465826            3 
  297000     1.156721   -7.0490998    101.37643  0.028444565  0.029442749            5 
  298000    1.1398387   -7.1023409     101.4611  0.028372791  0.029421216            3 
  299000     1.161629   -7.0544839    102.06617  0.028446537  0.029399665            5 
  300000    1.1285952   -7.0657345    102.17594  0.028382206  0.029378167            4 
  301000    1.1494185   -7.0278782    102.60915  0.028407849  0.029357478            3 
  302000    1.1281231   -7.0525362    102.71954  0.028344243  0.029336711            2 
  303000     1.139425   -7.0998904    102.50897  0.028192786  0.029316089            6 
  304000    1.1143725   -7.0788688    102.93835  0.028217749  0.029295177            3 
  305000    1.1174251   -7.0815147    103.71086  0.028336301  0.029274011            4 
  306000    1.1259806   -7.0721018    103.49309  0.028184392  0.029252561            4 
  307000    1.1653431   -7.0869695    103.64572  0.028134018  0.029229935            2 
  308000    1.1092159   -7.0847507    104.45824   0.02826251  0.029208872            2 
  309000    1.1262637   -7.0667647    104.62362  0.028215647  0.029188538            2 
  310000    1.1489724   -7.0472733     105.4574  0.028348763  0.029169731            2 
  311000    1.1735228   -7.0702421    105.12921   0.02816967  0.029150256            3 
  312000    1.1240594   -7.0567128    105.16537  0.028089041  0.029129567            5 
  313000    1.1287183   -7.0573593    105.59784  0.028114441  0.029108218            4 
  314000    1.1306425   -7.0865946     105.9727   0.02812439  0.029086016            3 
  315000    1.1421783   -7.1052778    106.12912  0.028076486  0.029064147            2 
  316000    1.1152769   -7.0453848    106.13107  0.027988152  0.029041451            1 
  317000    1.1389172   -7.0828922    106.06053  0.027881317   0.02901782            3 
  318000    1.1085513   -7.0639885    106.43401  0.027891511   0.02899374            2 
  319000    1.1482287   -7.0550695    107.26726   0.02802175  0.028971081            2 
  320000    1.1251203   -7.1074948    106.80894  0.027814829  0.028947835            5 
  321000    1.1386642   -7.0560045    107.62266  0.027939425  0.028925118            2 
  322000    1.1198582   -7.0967004    107.88646  0.027920927  0.028903027            1 
  323000    1.1176786   -7.1104961    107.97854   0.02785824  0.028880714            3 
  324000    1.1049172   -7.0984992    108.35779  0.027869803  0.028859407            2 
  325000    1.1216146    -7.101894    108.84071  0.027907873  0.028837594            2 
  326000    1.1454311   -7.0891366    109.16537  0.027905259  0.028816478            3 
  327000    1.1339613   -7.0863884    109.18441  0.027824772  0.028795578            3 
  328000    1.1129012   -7.0574784    109.59956  0.027845417    0.0287735            2 
  329000     1.127772   -7.0894943    109.49958  0.027735456  0.028750969            3 
  330000    1.1232399   -7.1261675    109.39028  0.027623808  0.028728488            3 
  331000    1.1328695   -7.0609635    110.73923  0.027879968  0.028706456            3 
  332000    1.1062054   -7.1099946    110.30888  0.027687972  0.028684347            4 
  333000    1.1053199   -7.0566178    110.67794  0.027697183   0.02866228            3 
  334000    1.1086052   -7.0908854    110.82872  0.027651876  0.028640394            6 
  335000    1.1011739   -7.0307897    111.35884  0.027701205  0.028618304            2 
  336000    1.1311612   -7.0613604     111.6752  0.027697223   0.02859687            1 
  337000    1.1397636   -7.0694187    112.08445  0.027716234  0.028577075            2 
  338000    1.1225422   -7.1033951    112.15121  0.027650694  0.028556819            4 
  339000    1.1205954   -7.0966581    112.62641  0.027685941  0.028536237            3 
  340000    1.1285908   -7.1085532    112.88236  0.027667244  0.028516055            4 
  341000    1.0924014   -7.0724802    113.37508  0.027706521  0.028495635            2 
  342000    1.1307202   -7.1480841    113.16987  0.027575505  0.028476019            4 
  343000    1.1095769   -7.0756506    113.65353  0.027612617  0.028455163            2 
  344000    1.1333439   -7.1084933    113.76482  0.027559306  0.028433543            1 
  345000    1.1253314   -7.1282928    113.93601  0.027520776  0.028412451            6 
  346000    1.1134356   -7.1223805    114.37935  0.027548013  0.028391723            6 
  347000    1.1223395   -7.1338675    114.49324  0.027495976  0.028370251            2 
  348000    1.1071026   -7.1701072     114.1365  0.027331537  0.028348568            6 
  349000    1.1320311   -7.1743162    114.57995  0.027359109  0.028327544            3 
  350000     1.121632   -7.1621988    114.92479  0.027363045  0.028305912            3 
  351000     1.122117   -7.1412421    115.68285  0.027465064  0.028284143            3 
  352000    1.1161002   -7.1181415     115.4309   0.02732739  0.028263353            3 
  353000    1.1113896   -7.1044339    115.36315  0.027233983  0.028241559            6 
  354000    1.1093897   -7.1347402    115.97867  0.027301946  0.028219674            2 
  355000    1.1203655   -7.1313683    116.48437   0.02734375  0.028196881            2 
  356000    1.1057369   -7.1197455     116.2454  0.027211001  0.028173601            4 
  357000    1.1121691   -7.1130092    117.01227  0.027313789  0.028152111            5 
  358000    1.0969008   -7.1299749    117.21748  0.027285261  0.028130479            2 
  359000    1.1030253   -7.1368161    117.81235  0.027347342   0.02810957            2 
  360000    1.1093769   -7.1506245    117.83216  0.027275963  0.028089188            2 
  361000    1.1319939   -7.1291442     118.3055  0.027309671  0.028069717            2 
  362000    1.1117888   -7.1365614     118.5798  0.027297376  0.028049966            3 
  363000    1.1030431   -7.1410439    118.30199  0.027158401  0.028028982            3 
  364000     1.090444   -7.0969388    119.16877  0.027282229  0.028008723            4 
  365000    1.1070342   -7.1229198    119.15382  0.027204068  0.027988492            2 
  366000    1.0914901   -7.1131771    119.17335  0.027134187  0.027967521            5 
  367000    1.1098427   -7.1135278    119.73315  0.027187364  0.027945944            2 
  368000    1.1033465   -7.1383585    119.54365  0.027070573  0.027924072            5 
  369000    1.1147704   -7.1507496    120.00253  0.027100843  0.027901391            4 
  370000     1.098973   -7.1859808    119.93406  0.027012175  0.027879796            5 
  371000    1.0950286   -7.1348132    120.53909  0.027075267  0.027858491            3 
  372000    1.0923843   -7.1402904    120.78543  0.027057668  0.027837127            4 
  373000    1.1189738   -7.0971904    121.12586  0.027061185  0.027816055            2 
  374000    1.0975346   -7.1190324    121.47257   0.02706608  0.027795435            3 
  375000    1.1134759   -7.1243343    121.51026  0.027002279  0.027773907            5 
  376000    1.1152338   -7.1464041    121.46885  0.026921287  0.027752308            2 
  377000    1.1170236   -7.1411178    121.91952  0.026949496  0.027730657            4 
  378000    1.0995023   -7.1546813    121.99333  0.026894473  0.027709304            4 
  379000    1.0904211   -7.1879542    122.06808  0.026839947  0.027686763            2 
  380000    1.0833246   -7.1952364    122.13553  0.026784107  0.027663798            4 
  381000    1.1055198   -7.0931272    123.05075  0.026913986  0.027642552            2 
  382000    1.0936721   -7.1484001    123.09519  0.026853227  0.027621072            2 
  383000    1.1209661   -7.1412794    123.44736  0.026859739  0.027599744            3 
  384000    1.1016786   -7.1878976    123.36659  0.026772262  0.027578602            3 
  385000    1.0928485   -7.1421109    123.77876  0.026791939  0.027557624            2 
  386000    1.1233077   -7.1224329    124.14808  0.026802263  0.027536646            2 
  387000    1.1177654   -7.1362813    124.66113  0.026843482  0.027516442            3 
  388000    1.0942579   -7.1418426    125.00282  0.026847686  0.027495831            2 
  389000    1.1277437   -7.1213876    125.14926  0.026810038   0.02747497            4 
  390000    1.1160962   -7.1452965     125.4399  0.026803398  0.027454252            3 
  391000    1.0703017   -7.1650426    125.11514  0.026665632  0.027433389            1 
  392000    1.0740566   -7.1803158     125.5759  0.026695557  0.027411971            5 
  393000    1.1288976    -7.191088    125.06081  0.026518408  0.027390632            3 
  394000    1.1117513   -7.1827869    125.81301  0.026610198  0.027369289            3 
  395000    1.0879342   -7.1692069    125.91479  0.026564302  0.027347384            2 
  396000    1.0828462   -7.1605686    126.29826  0.026577916  0.027325526            3 
  397000    1.0968475   -7.1564908    126.71248  0.026597919  0.027304979            3 
  398000    1.0982628   -7.2083943    126.53761  0.026494475  0.027283213            2 
  399000    1.0940301   -7.1585992    127.06345  0.026537898  0.027261988            4 
  400000    1.1166331   -7.1524164    127.08816  0.026476699   0.02724134            2 
  401000    1.0913611   -7.1569273    127.48834  0.026493836  0.027220598            3 
  402000    1.0828268   -7.1511983    128.15468  0.026566062   0.02720022            3 
  403000    1.1241902   -7.1978923     127.7158  0.026409388  0.027179418            3 
  404000    1.0656086   -7.1812633    128.45113  0.026495696  0.027158666            7 
  405000    1.0961625    -7.172178    128.58178  0.026457157  0.027137121            3 
  406000    1.1028969   -7.1703625    129.13747  0.026506048   0.02711655            2 
  407000    1.0969677   -7.1918572    129.61862  0.026539439   0.02709621            5 
  408000    1.1053243   -7.2266117    129.25119  0.026399344  0.027075893            3 
  409000    1.1069599   -7.1804597    130.03147   0.02649378  0.027056213            3 
  410000    1.0933577   -7.2367134    129.59796  0.026341049  0.027035391            4 
  411000    1.1014692   -7.1509563     130.0868  0.026376075  0.027014978            1 
  412000    1.0898328   -7.1765683    130.61279  0.026418445  0.026994726            2 
  413000    1.0873774   -7.1954041    130.26121  0.026283537  0.026974309            5 
  414000    1.0844942   -7.1718409    131.09445  0.026387772  0.026953798            3 
  415000    1.0881982   -7.1995153    130.97362  0.026299925  0.026933509            5 
  416000     1.081734   -7.1708354    131.18043  0.026278131  0.026912918            2 
  417000    1.1019069   -7.1691033        131.7  0.026318946  0.026892367            4 
  418000    1.0829119   -7.1697885    131.82106  0.026280117   0.02687195            3 
  419000    1.0887232   -7.1931402    131.92255  0.026237579  0.026851834            6 
  420000    1.0943475   -7.1294184    132.74293  0.026337883  0.026832184            3 
  421000    1.0904419   -7.1878562    132.44843  0.026217029  0.026812472            7 
  422000    1.0933605   -7.1935999    133.39146  0.026341125  0.026793246            4 
  423000    1.0952337   -7.2204043    133.06564  0.026214665  0.026774045            4 
  424000    1.1037797     -7.24483    133.36001  0.026210693  0.026754408            2 
  425000    1.0794792   -7.2131898    133.32738  0.026142624  0.026734331            3 
  426000    1.0950963   -7.2220896    133.30636  0.026077145  0.026714643            4 
  427000    1.0793921   -7.2103903    134.17037  0.026184693   0.02669469            5 
  428000     1.079071   -7.1840304    134.36508  0.026161425  0.026674735            4 
  429000    1.0926719   -7.2140094    134.63382  0.026152645  0.026655916            2 
  430000    1.0923915   -7.1980902    135.12428  0.026186875  0.026636985            5 
  431000    1.0471941   -7.2295864    135.12179  0.026125635  0.026618355            3 
  432000    1.0601496   -7.2043858    135.15091  0.026070778  0.026599292            3 
  433000    1.0641026   -7.1580623    135.31717  0.026042565  0.026580107            2 
  434000    1.0989293   -7.2175294     135.4639  0.026010734  0.026560408            3 
  435000    1.1014797   -7.2214595    135.59472  0.025976001  0.026540637            3 
  436000    1.0704285   -7.2239739    136.18768  0.026029755  0.026521225            7 
  437000    1.0571446   -7.2045689    135.96101  0.025926965  0.026501147            7 
  438000     1.089922   -7.2041955    135.66571  0.025811589  0.026480013            5 
  439000    1.0731928   -7.2147824    136.21045  0.025856197  0.026459236            3 
  440000    1.0790251   -7.2159663    136.40285  0.025833872  0.026438491            2 
  441000    1.0825483   -7.2199995    136.56932  0.025806749  0.026418149            4 
  442000    1.0920067   -7.2106228    137.19165  0.025865696  0.026398073            1 
  443000    1.1053934     -7.23266    137.14698  0.025798905   0.02637792            6 
  444000    1.0710295   -7.2240985    137.16713  0.025744581  0.026357197            3 
  445000    1.0677444   -7.2248094    137.26591  0.025705227   0.02633629            3 
  446000    1.0652893   -7.2154909    137.55031   0.02570073  0.026314922            3 
  447000    1.0795376   -7.2251075    137.38656  0.025612706  0.026294218            4 
  448000    1.0704506   -7.2111668    137.71601  0.025616818  0.026272298            2 
  449000    1.0690763   -7.2372692    137.64429  0.025546454  0.026250417            7 
  450000    1.0474941   -7.1937292    138.26359  0.025604369  0.026228927            2 
  451000    1.0813103   -7.1990398    138.47023  0.025585777  0.026207739            3 
  452000    1.0764742   -7.2090436    138.99014  0.025625026  0.026186401            3 
  453000    1.0939743   -7.2332698      138.615  0.025499448  0.026164619            5 
  454000    1.0669529    -7.234793    138.87574  0.025491142  0.026142752            4 
  455000    1.0570628   -7.2386142    138.74842  0.025411798  0.026121037            2 
  456000    1.0768274   -7.1931486    139.37369  0.025470337    0.0260991            5 
  457000    1.0552022    -7.186066    139.66396  0.025467535   0.02607753            3 
  458000    1.0716188   -7.2223919    139.04463  0.025299241  0.026055905            3 
  459000    1.0584686   -7.2430531    139.34636  0.025298903   0.02603383            7 
  460000    1.0541228   -7.2190474    139.83215  0.025331911   0.02601141            3 
  461000    1.0756769   -7.2326906    140.11613  0.025328295  0.025988846            5 
  462000    1.0684991   -7.2678697    140.25067  0.025297741  0.025966154            5 
  463000     1.069415   -7.2466434    140.30166  0.025252278  0.025943702            2 
  464000    1.0566309   -7.2527337    140.13322  0.025167604  0.025921025            4 
  465000    1.0745795   -7.2072173    140.71142    0.0252171  0.025898791            1 
  466000    1.0732976   -7.1850763    140.66503  0.025154691  0.025876325            6 
  467000    1.0617991   -7.2786118    140.60493  0.025090102  0.025853316            1 
  468000    1.0876203   -7.2721081    141.04866  0.025115502  0.025830286            8 
  469000    1.0686459   -7.2612852     141.1164  0.025073987   0.02580668            3 
  470000    1.0340564     -7.22289    141.33865  0.025060044  0.025783304            4 
  471000    1.0563637    -7.220259    141.91002   0.02510793  0.025760348            5 
  472000    1.0674035   -7.2259903    141.92803  0.025057915  0.025737988            2 
  473000    1.0540548   -7.2813402    142.58017  0.025119833  0.025715341            4 
  474000    1.0702012   -7.2622415    142.32646  0.025022233  0.025692687            4 
  475000    1.0742793   -7.2732358    142.31671  0.024967845  0.025669609            2 
  476000    1.0464103   -7.2659215    142.65301  0.024974266  0.025647169            6 
  477000    1.0710265   -7.2713749    142.72746  0.024934916  0.025624543            5 
  478000    1.0537542   -7.2458235    143.37478  0.024995603  0.025602295            3 
  479000    1.0881608   -7.2882966    143.15119  0.024904521  0.025579797            3 
  480000    1.0412888   -7.3247254    143.01816  0.024829542  0.025556947            4 
  481000    1.0847293   -7.2707287    143.52448   0.02486564  0.025534453            1 
  482000    1.0611519   -7.2777236    144.05874  0.024906421  0.025512085            2 
  483000    1.0762253   -7.2131897    144.03741  0.024851174  0.025490075            4 
  484000    1.0679051   -7.2686827    144.23842  0.024834439  0.025467955            3 
  485000    1.0542664   -7.2617812    144.91631  0.024899709  0.025446365            3 
  486000    1.0529837   -7.2877936    144.62263  0.024798119  0.025424664            2 
  487000    1.0670285   -7.2439572    145.11297  0.024831103  0.025402272            3 
  488000    1.0684072   -7.2384983     145.3072  0.024813388   0.02538061            2 
  489000    1.0459751   -7.2415575    145.78336   0.02484379  0.025359084            4 
  490000    1.0584236   -7.2632461    145.20926  0.024695452   0.02533746            4 
  491000    1.0864497   -7.2695564    145.56101  0.024704856  0.025315182            3 
  492000    1.0554175   -7.2442703    146.22414  0.024766961  0.025293279            3 
  493000    1.0567361   -7.2623504    146.15865  0.024705654  0.025271615            3 
  494000    1.0562971   -7.3029431    146.04822  0.024637013   0.02524998            2 
  495000    1.0310311   -7.2878574    146.22048  0.024616243  0.025228093            4 
  496000    1.0467635   -7.2618192    146.68981  0.024645466  0.025206101            3 
  497000    1.0378219   -7.2875794    146.21343     0.024516  0.025184331            3 
  498000    1.0692141   -7.3261428    146.67857  0.024544607   0.02516213            4 
  499000    1.0235515   -7.2821494    147.16854  0.024577245  0.025140265            3 
  500000    1.0358408   -7.2964573    147.05679  0.024509465  0.025117962            3 
  501000    1.0593006   -7.2797019    146.82483  0.024421962  0.025095607            3 
  502000    1.0356768   -7.2879383    147.27098  0.024447375  0.025073294            7 
  503000    1.0356266   -7.3306218     147.2543  0.024396007  0.025050952            8 
  504000    1.0713279   -7.2362564      148.298  0.024520172  0.025028715            3 
  505000    1.0501039   -7.2867116    147.88339    0.0244032  0.025006449            3 
  506000     1.062847    -7.301568    147.89061  0.024356161   0.02498466            3 
  507000    1.0556392   -7.2280487    149.05786  0.024499977  0.024962665            9 
  508000    1.0363725   -7.3286436    148.21059  0.024312761  0.024940558            4 
  509000    1.0576443   -7.2774553    148.48182  0.024309401  0.024918208            9 
  510000    1.0564244   -7.3347643    148.27202  0.024227454  0.024895731            6 
  511000    1.0751806   -7.3203238    148.05082  0.024143969  0.024872662            6 
  512000     1.062379   -7.2639733    149.22433  0.024287815  0.024849958            2 
  513000    1.0524566    -7.317598    148.91552  0.024190306  0.024827342            4 
  514000    1.0511119    -7.277069     149.2846  0.024203081  0.024804492            8 
  515000    1.0557639   -7.3586928    148.93644  0.024099748  0.024781224            5 
  516000     1.052438   -7.2974754    149.18102  0.024092542   0.02475819            3 
  517000    1.0628464   -7.3219357    149.13488  0.024038504  0.024735281            5 
  518000    1.0370491   -7.3014057    149.59081  0.024065446  0.024711841            3 
  519000    1.0601735   -7.3088722    149.46161  0.023998332  0.024688541            6 
  520000    1.0401079   -7.3086643    149.86066  0.024016131   0.02466557            6 
  521000    1.0428615   -7.2859083    150.58175  0.024085372  0.024642783            4 
  522000    1.0695631   -7.3243062    150.48786  0.024024243    0.0246202            7 
  523000    1.0726752   -7.3056027    151.16974  0.024086957  0.024597611            2 
  524000    1.0335216   -7.3371482    150.31605  0.023905224  0.024574518            2 
  525000     1.021849    -7.343803    150.57694  0.023901102   0.02455159            3 
  526000    1.0467888   -7.3199586     150.8809  0.023903818  0.024528616            4 
  527000     1.057339   -7.3414149    151.61358  0.023974317  0.024506404            3 
  528000    1.0276743   -7.3111132    151.87391  0.023969999  0.024484627           10 
  529000    1.0328338   -7.3509406    151.39209  0.023848785  0.024462512            5 
  530000    1.0379985   -7.2908042    152.39451    0.0239614  0.024440602            3 
  531000    1.0503329   -7.3050522    152.18132  0.023882819   0.02441871            3 
  532000    1.0283448   -7.3276496    152.55563  0.023896559  0.024397079            5 
  533000    1.0549798   -7.3165759    152.63612   0.02386431  0.024375391            6 
  534000    1.0329675   -7.2752441    153.36202  0.023932899  0.024354168            6 
  535000     1.053292   -7.3272526    153.70602  0.023941748   0.02433277            2 
  536000    1.0469626   -7.3203935    153.59634  0.023880028  0.024311559            4 
  537000    1.0554399   -7.3304638    153.06437  0.023753006  0.024289813            7 
  538000     1.017599   -7.3494237     153.7879  0.023820927  0.024268546            6 
  539000    1.0476406   -7.3450528    154.18013  0.023837374  0.024247273            3 
  540000    1.0522569   -7.3105405    154.32272  0.023815235  0.024226312            5 
  541000    1.0358362   -7.3163219    154.45067  0.023790923  0.024205446            1 
  542000    1.0344174    -7.305582    154.77559  0.023796986  0.024184515            2 
  543000    1.0301242    -7.309013    155.06917  0.023798215  0.024163961            3 
  544000    1.0356796   -7.2952363    155.29127  0.023788491  0.024143269            6 
  545000    1.0274426   -7.3685366    154.90481  0.023685751  0.024122376            3 
  546000     1.036727   -7.3313664    155.46946   0.02372855  0.024101412            7 
  547000    1.0467938   -7.2947675    155.92028  0.023753851  0.024080775            3 
  548000    1.0297689    -7.338695    155.38555   0.02362919  0.024060319            2 
  549000    1.0409948   -7.3191085     156.1885  0.023708029  0.024039947            4 
  550000    1.0329641   -7.2834739    156.61337  0.023729298  0.024019555            6 
  551000    1.0434937   -7.3081583    156.74396  0.023705983  0.023999479            3 
  552000    1.0351213   -7.3432494    156.58176   0.02363855  0.023979174            2 
  553000    1.0358761   -7.3688572     156.6352  0.023603857  0.023958789            4 
  554000    1.0486416    -7.333944    157.07894     0.023628  0.023938803            7 
  555000    1.0472769   -7.3362585    157.10217  0.023588914   0.02391941            4 
  556000     1.001835   -7.3289745    157.50771  0.023607271  0.023899949            5 
  557000      1.03091   -7.3160934    157.35043  0.023541357  0.023880416            3 
  558000   0.99925929   -7.3597811    157.80569  0.023567158  0.023861068            5 
  559000    1.0369946   -7.3675292    157.83867  0.023529915  0.023841207            4 
  560000    1.0510855   -7.3581793    158.23723  0.023547206  0.023821802            5 
  561000    1.0435085   -7.3077384    158.30039  0.023514615   0.02380225            2 
  562000    1.0333194   -7.3296904    159.14434  0.023597915  0.023783123            4 
  563000      1.01281   -7.3450599    158.56828  0.023470734  0.023763963            3 
  564000    1.0151342    -7.372844    158.66006   0.02344268  0.023744177            5 
  565000    1.0385992   -7.3966162    158.58228  0.023389717  0.023724231            4 
  566000    1.0200034   -7.3846081     158.7185  0.023368449  0.023704267            2 
  567000    1.0156686   -7.3638547    159.22893  0.023402253  0.023684882            6 
  568000    1.0202265   -7.3918849    159.51317  0.023402754  0.023665661            6 
  569000    1.0175703   -7.3880158    159.42318  0.023348445  0.023646129            2 
  570000    1.0022652   -7.3735296    160.13599  0.023411694  0.023626262            5 
  571000    1.0146353   -7.3717693    159.82423  0.023325194  0.023606843            4 
  572000    1.0171469   -7.3752609    160.20753  0.023340259  0.023587375            4 
  573000     1.031291   -7.3823549    160.14198  0.023289991  0.023568004            5 
  574000    1.0276484   -7.3553683    160.78139  0.023342246  0.023548511           11 
  575000   0.99459359   -7.3937684    159.93838  0.023179475  0.023528818            3 
  576000    1.0571727   -7.4106234    160.38549  0.023203919  0.023508707            3 
  577000    1.0448791   -7.3988561     160.0203  0.023110962  0.023488846            6 
  578000    1.0384856   -7.3676011    161.20247  0.023241418  0.023469158            9 
  579000    1.0090509   -7.3997229    160.94309  0.023163945  0.023449598            3 
  580000    1.0405149   -7.3987546    161.72718  0.023236664  0.023430308            4 
  581000    1.0144386   -7.3726288    161.46664    0.0231593  0.023411312            3 
  582000    1.0192119   -7.3732048    161.71745  0.023155419  0.023392156            2 
  583000    1.0118292   -7.3563184    161.95806  0.023150094   0.02337268            5 
  584000    1.0386643    -7.369886    162.40717  0.023174539  0.023353532            5 
  585000      1.01823   -7.3718115     162.5194  0.023150911  0.023334526            6 
  586000    1.0186665   -7.3839176    162.40598  0.023095275  0.023315338            3 
  587000    1.0126668   -7.3556028    162.75428  0.023105378  0.023296354            5 
  588000    1.0307924   -7.3770154    162.75676  0.023066435  0.023277259            7 
  589000    1.0295996   -7.3832759    163.18401   0.02308772   0.02325804            4 
  590000    1.0160509   -7.3900454    162.85684  0.023002379  0.023238674            3 
  591000    1.0145346   -7.4150065    162.95468  0.022977253  0.023219494            3 
  592000    1.0183811   -7.3567956     163.6579  0.023037429  0.023200694            6 
  593000    1.0221141   -7.3923536    163.34098  0.022954045  0.023181562            2 
  594000    1.0345102   -7.3834026    163.58089  0.022949058  0.023162403            4 
  595000     1.035082   -7.3872117    162.94134  0.022820915  0.023142753            3 
  596000    1.0153837   -7.4005979    163.42743  0.022850592  0.023123102            2 
  597000    1.0345409   -7.3816156    163.79931  0.022864225  0.023103518            4 
  598000     1.021078   -7.4017637    163.68299  0.022809781   0.02308378            7 
  599000    1.0053763   -7.4043729    163.66871  0.022769714  0.023063798            3 
  600000     1.025268   -7.3808517    163.52649  0.022712012  0.023043656            7 
  601000    1.0275831   -7.4100035    163.67511   0.02269483  0.023023064            3 
  602000    1.0101575   -7.4000825    164.01124  0.022703659  0.023002787            3 
  603000    1.0108711   -7.3610539    164.13732  0.022683433  0.022983022            4 
  604000    1.0040334   -7.3804196    164.22207   0.02265757  0.022963207            3 
  605000    1.0231341   -7.3949566    164.09078  0.022602036  0.022943138            3 
  606000    1.0309992   -7.3742057    165.49233   0.02275747  0.022922964            4 
  607000    1.0109365   -7.4294607    164.32074  0.022559136  0.022902888           12 
  608000     1.015767    -7.404189    164.44139  0.022538568  0.022882742            5 
  609000    1.0012784   -7.3951112    164.82007  0.022553376  0.022862109            2 
  610000    1.0184244   -7.3992154    164.81277  0.022515406   0.02284133            5 
  611000    1.0208029   -7.3934202    165.03807  0.022509284  0.022820288            2 
  612000     1.004537   -7.4116318     164.5762  0.022409613  0.022799615            3 
  613000    1.0059563   -7.4307882    164.47184  0.022358869  0.022778701            4 
  614000    1.0223034   -7.4316518    164.85256  0.022374126  0.022757726            5 
  615000    1.0192503   -7.4462046    164.95406  0.022351499  0.022736787            3 
  616000   0.99421509   -7.4272058    165.02925  0.022325385  0.022715873            4 
  617000   0.99813949   -7.4283115    165.51475  0.022354774  0.022695354            2 
  618000     1.011241   -7.4081914     165.9227  0.022373611  0.022674517            2 
  619000    1.0054141   -7.3761082    166.02187  0.022350817  0.022654117            7 
  620000   0.96975959   -7.4121813    165.84079  0.022290429  0.022633764            4 
  621000    1.0123244   -7.4188122    166.28229   0.02231378  0.022612984            4 
  622000   0.98697873   -7.4427654    166.52958  0.022311037  0.022592245            5 
  623000   0.99379467   -7.4004901    166.34588  0.022250652  0.022571841            6 
  624000   0.99946374   -7.3882254    166.84121  0.022281144  0.022551552            6 
  625000    1.0174595   -7.4521105    166.19494  0.022159325  0.022531216           13 
  626000     1.023809     -7.44769    166.53673  0.022169427  0.022511087            3 
  627000    1.0030364   -7.4506565    167.25936  0.022230112  0.022490887            6 
  628000    1.0220498   -7.4585205    166.95044   0.02215372  0.022470744           11 
  629000    1.0065716   -7.4357078    166.90605   0.02211262  0.022450516            6 
  630000    1.0054536     -7.44169    167.98154   0.02221978  0.022430272            4 
  631000   0.97709201   -7.4366076    167.71477  0.022149336  0.022410453            2 
  632000     1.013003   -7.4767034    167.65515  0.022106427  0.022390654            3 
  633000    1.0018728   -7.4218777    168.06583   0.02212557   0.02237087            3 
  634000    1.0215279     -7.41348    168.94268  0.022205925  0.022351261            6 
  635000    1.0081608   -7.4327252    168.78756  0.022150598  0.022331465            6 
  636000   0.97948326   -7.4396663     168.5268  0.022081603  0.022311801           11 
  637000   0.97406259   -7.4529479    168.38209  0.022028007   0.02229199            6 
  638000    0.9827981   -7.4135373    169.03556  0.022078834  0.022272125            8 
  639000    1.0197956   -7.4433165    168.90771  0.022027609  0.022252427            5 
  640000    1.0195324   -7.4248079    169.21217  0.022032835  0.022233014            3 
  641000   0.96814491   -7.4334776    169.23173  0.022001004  0.022213552            4 
  642000    1.0085408   -7.4763864    168.93957  0.021928812   0.02219384            4 
  643000   0.98696922   -7.4154333    169.40968  0.021955635  0.022174032            5 
  644000    1.0008529   -7.4923494    169.01414  0.021870359  0.022154196            9 
  645000   0.99711914   -7.4484929    169.79491  0.021937328  0.022134284            4 
  646000   0.98765359   -7.4648011    169.77504  0.021900805  0.022114641            6 
  647000   0.98340334   -7.4501686    169.85671  0.021877474  0.022094973            3 
  648000     1.003485   -7.4586359    170.21369   0.02188962  0.022075137            4 
  649000    0.9906606    -7.445167    170.32026  0.021869577  0.022055605            4 
  650000     1.002538    -7.418362    170.68141  0.021882232  0.022035971            2 
  651000     1.022936   -7.4516559    170.48069  0.021822925  0.022016635            6 
  652000    0.9858446   -7.4668539    170.25411  0.021760494  0.021997497            7 
  653000   0.99050493    -7.457147    170.32814  0.021736618  0.021978103            5 
  654000   0.99217176   -7.4714095    170.91455  0.021778103  0.021958688            4 
  655000   0.99004887   -7.4706881    170.74335  0.021723072  0.021939111            6 
  656000   0.99097677   -7.4436038    171.11747  0.021737483  0.021919471            4 
  657000   0.98931224   -7.4374368     171.4831  0.021750773  0.021900118            2 
  658000   0.99861326   -7.4732041    171.42388  0.021710218  0.021880758            8 
  659000    1.0122751   -7.4839347    171.58266  0.021697351  0.021861528            6 
  660000    0.9883072   -7.4072576    173.08579  0.021854267  0.021842748           13 
  661000   0.97692477   -7.4683678    171.98037  0.021681842  0.021823722           10 
  662000   0.99632187    -7.455725    171.84947  0.021632612  0.021804608            5 
  663000   0.97383197   -7.4991068     172.0413  0.021624095  0.021785293            3 
  664000   0.99226922   -7.4588494    171.95729  0.021580985  0.021766172            6 
  665000    1.0018924   -7.4939113    172.72331  0.021644525   0.02174709            4 
  666000   0.96587011    -7.473499    172.85377   0.02162835  0.021727828           10 
  667000   0.98937458   -7.4521413    172.46633  0.021547518  0.021708592            7 
  668000    1.0089468   -7.5144823    172.43026  0.021510761  0.021689392            7 
  669000    1.0095769   -7.4707868      172.776  0.021521674  0.021670049            4 
  670000   0.99111494   -7.4586075    173.03031  0.021521183  0.021650862            4 
  671000   0.99005981   -7.4868742    173.33145  0.021526509  0.021631824            4 
  672000   0.98237025   -7.4380308    173.08891  0.021464399  0.021612718           11 
  673000   0.95106118   -7.5029443     172.5685  0.021368066   0.02159376            6 
  674000   0.99806477   -7.5180187     172.9244  0.021380366  0.021574646            7 
  675000   0.99877546   -7.4564544    174.36403  0.021526423  0.021555915            4 
  676000   0.98809454   -7.4908624    173.65783  0.021407524  0.021536916            5 
  677000   0.98170371   -7.4604772    173.85678  0.021400391  0.021518148            7 
  678000   0.97848858   -7.4645878    173.66259  0.021344959  0.021499299            2 
  679000   0.98124226    -7.480567    174.38962  0.021402752  0.021480332            3 
  680000   0.97467653   -7.4581966    174.57773  0.021394329  0.021461501           10 
  681000   0.98641208   -7.5108565    174.06035  0.021299602  0.021442483            4 
  682000    0.9979162   -7.5252429    173.98138  0.021258722  0.021423405            5 
  683000    1.0027195   -7.4934944    174.53637  0.021295311  0.021404283            3 
  684000   0.97342325   -7.4983504    174.13282  0.021215012   0.02138538            7 
  685000   0.96371437   -7.5616258    174.28165  0.021202147  0.021366347            9 
  686000   0.99272173   -7.5019524    174.85968  0.021241458  0.021347094            5 
  687000   0.95546053   -7.5096629    174.40088  0.021154886  0.021327768            4 
  688000   0.97006229   -7.4550132    175.27232   0.02122969  0.021308634            4 
  689000   0.98703081   -7.5327446    174.49232  0.021104537    0.0212894            5 
  690000   0.96772713   -7.4941661    175.12635  0.021150525  0.021270136            5 
  691000   0.98201605    -7.518359    175.36874  0.021149149  0.021251124            6 
  692000   0.99544239   -7.5238178    175.09547  0.021085678  0.021232046            4 
  693000   0.97662841   -7.4649124    175.77485  0.021136947  0.021213399            7 
  694000     0.960929   -7.4855292    175.42172  0.021064087  0.021194414            3 
  695000   0.99556119   -7.5426373    175.40299  0.021031533  0.021175516            5 
  696000   0.96412555   -7.5227359    174.94387  0.020946344  0.021156286            5 
  697000   0.97606414   -7.5057319    175.42166  0.020973417  0.021136957            4 
  698000   0.99660938   -7.5163658    175.50776  0.020953649  0.021117822            3 
  699000    0.9839615   -7.5320442    175.31836  0.020901092  0.021098659            5 
  700000      0.95694    -7.519682    175.88424    0.0209386  0.021079352            6 
  701000   0.95282899   -7.5112561    175.79253  0.020897828  0.021060082            5 
  702000   0.99243624   -7.4756663    176.36195  0.020935654  0.021040852           10 
  703000   0.96792853   -7.4885844    176.75172  0.020952076  0.021022102            8 
  704000   0.99413313   -7.5414363    176.12008  0.020847547  0.021003294            6 
  705000   0.95264669   -7.5551265    176.41596   0.02085295  0.020984345            5 
  706000   0.98731386   -7.4959608    176.75851  0.020863847  0.020965439            6 
  707000   0.99161355   -7.5129703     177.1079  0.020875518  0.020946604            3 
  708000   0.96099322    -7.513804    177.00802  0.020834277  0.020927928            4 
  709000   0.97102401   -7.5485427     177.4813  0.020860519  0.020909239            4 
  710000   0.95770052   -7.5289779    177.32425  0.020812706  0.020890405            7 
  711000   0.98557851   -7.5205768     177.2526  0.020775036  0.020871628            1 
  712000   0.99345856   -7.5178803    177.54945    0.0207806  0.020852723            5 
  713000   0.96814654    -7.501677     177.7229  0.020771727  0.020834198           11 
  714000   0.95730391   -7.5629902    177.64964  0.020734085  0.020815802            7 
  715000   0.95283628    -7.528418    177.97863   0.02074343  0.020797077            3 
  716000   0.96038358   -7.5930262    177.38835  0.020645758  0.020778089            8 
  717000   0.96373897    -7.545323    177.87316  0.020673311  0.020759047            5 
  718000   0.96172839   -7.5880765    178.16255  0.020678105  0.020740233            8 
  719000   0.94466877   -7.5451027     178.0445  0.020635663  0.020721474            2 
  720000   0.95462553   -7.5302223    178.29935  0.020636499  0.020702662            7 
  721000   0.96950672   -7.5412494    178.52394  0.020633835   0.02068419            4 
  722000   0.95142268   -7.5211661    178.95484  0.020654991  0.020665742           15 
  723000   0.97502913   -7.5275642    178.85868  0.020615338  0.020647506            2 
  724000   0.95130462   -7.5327432    178.50592  0.020546262  0.020629152            4 
  725000   0.93102207   -7.5422006    178.68064  0.020538005  0.020610654            6 
  726000   0.94976835   -7.5584555    178.91955  0.020537139  0.020592207            7 
  727000   0.97406053   -7.5690609    178.98717   0.02051664  0.020573585           10 
  728000   0.95135435    -7.542374    179.92071  0.020595319  0.020555452            5 
  729000   0.97194009   -7.5471247    179.36895  0.020503995  0.020537416            3 
  730000    0.9551932    -7.552741     179.5633  0.020498093  0.020519273            7 
  731000   0.95706708   -7.5551748    179.43818  0.020455789  0.020500937            8 
  732000   0.96474842   -7.5172551    179.93004  0.020483839  0.020482729            3 
  733000   0.96037328   -7.4822092    180.34111  0.020502627  0.020464628            5 
  734000   0.94245693   -7.5474234    179.93662  0.020428772  0.020446447            3 
  735000   0.96812018   -7.5264992    180.00701  0.020408958  0.020428206           13 
  736000   0.94570507   -7.5670558    180.20654   0.02040382  0.020410019            8 
  737000   0.95923815   -7.5495168    180.46001  0.020404795  0.020391844            6 
  738000   0.96176691   -7.5986186    179.67546  0.020288556  0.020373624            9 
  739000   0.95035673   -7.5968916    179.97354  0.020294716  0.020355166            8 
  740000   0.95169084   -7.5689464    180.43435  0.020319184  0.020336809            5 
  741000   0.96277905   -7.5861594    180.34714  0.020281955  0.020318546            7 
  742000   0.95256745   -7.5889494    180.68913  0.020293029   0.02030028            9 
  743000   0.96788039   -7.5829537    181.07208  0.020308668  0.020282032            3 
  744000   0.94873039   -7.5561015    181.08717  0.020283062   0.02026403            7 
  745000   0.96481652   -7.5487012    181.83313  0.020339276  0.020246163            4 
  746000   0.94533359   -7.5637826    181.83171  0.020311853  0.020228445            8 
  747000   0.94950268   -7.5727222    181.73587   0.02027397  0.020210934            7 
  748000   0.95079054   -7.6230554    181.22669  0.020190139   0.02019319            5 
  749000   0.95094137   -7.5634248    181.94715  0.020243341  0.020175184            6 
  750000   0.95150459   -7.5973806    181.20755  0.020134172  0.020156998            7 
  751000   0.95647892   -7.5777112    181.65502  0.020157015  0.020138949            4 
  752000   0.96387324   -7.5744339     181.6017  0.020124302  0.020121094            6 
  753000   0.94892624   -7.5439924    182.82574  0.020233039  0.020103287            4 
  754000   0.94955154   -7.5718839    182.39884  0.020159023  0.020085587            4 
  755000   0.95887087   -7.5844305    182.41763  0.020134397  0.020067998            6 
  756000   0.94737496   -7.5762398    183.01017  0.020173079  0.020050494            5 
  757000    0.9560539   -7.5752432    182.02825  0.020038337  0.020032947            4 
  758000   0.94606577   -7.6132374    181.88591  0.019996252  0.020015024            8 
  759000   0.97420746   -7.6041111     182.6289  0.020051483  0.019997247            9 
  760000   0.94397533   -7.5742277    182.94521  0.020059782   0.01997956            3 
  761000   0.96547601   -7.5611024    183.26185  0.020068096  0.019961876           10 
  762000   0.93673447   -7.5816728    182.96265  0.020009039  0.019944181            6 
  763000   0.94624252    -7.567912    182.95271  0.019981729  0.019926456            5 
  764000   0.93092117   -7.6080166    183.02694  0.019963671  0.019908704           12 
  765000   0.93543731    -7.594779    182.89522  0.019923226  0.019891013            6 
  766000   0.92603529   -7.5921051    182.98546  0.019907034  0.019873127            3 
  767000   0.94475254   -7.5505897    183.09931  0.019893449  0.019855335            6 
  768000   0.96267186   -7.6212149    182.85368  0.019840894  0.019837332            6 
  769000   0.94605692   -7.6258937    182.65364  0.019793416  0.019819203            9 
  770000   0.95898045   -7.6114131    182.98575  0.019803653  0.019801086            3 
  771000   0.95835069   -7.6253139    182.87376  0.019765862  0.019782932            3 
  772000   0.92357851     -7.62918    183.31623  0.019788022  0.019764849            5 
  773000   0.92730377    -7.600796    183.36407  0.019767579  0.019747076            5 
  774000   0.95631692   -7.6008968    183.82725  0.019791909  0.019729217            2 
  775000   0.96486159   -7.6253335    184.12449  0.019798333  0.019711513            7 
  776000   0.95438041   -7.5911606    183.85813  0.019744215  0.019693831            5 
  777000   0.95545793   -7.5552624    184.48484  0.019786019  0.019676155            5 
  778000   0.95929479   -7.6279984    184.10254  0.019719638  0.019658601            4 
  779000   0.95865231   -7.6066795    184.39266  0.019725359  0.019641183            6 
  780000   0.97305175   -7.5956817    184.96338  0.019761045  0.019623817            5 
  781000   0.94105522    -7.649718    184.06672  0.019640069   0.01960635            6 
  782000    0.9406859   -7.5994487    185.21683  0.019737513   0.01958895            6 
  783000   0.94785912   -7.6161467    184.80573  0.019668553  0.019571444            4 
  784000   0.95889607   -7.6122141    184.65578  0.019627528  0.019553931            5 
  785000   0.95623986   -7.6042915    185.18683  0.019658899  0.019536357           11 
  786000   0.95340027   -7.5807838    184.40554  0.019551054  0.019518942            3 
  787000   0.93628843   -7.6192293    184.80342  0.019568341   0.01950148            4 
  788000   0.94829063    -7.647589    184.90305  0.019554045  0.019484122            4 
  789000   0.94527179   -7.6226801    185.19783  0.019560396  0.019466529            4 
  790000   0.92492625   -7.6051062    185.67224   0.01958568  0.019449423            8 
  791000   0.94666681   -7.6178691    185.75642  0.019569787  0.019432348            7 
  792000    0.9184963   -7.6365552    185.67026  0.019536012  0.019414999            7 
  793000   0.91184816   -7.6255537    185.72744  0.019517385  0.019397682            7 
  794000   0.94206112   -7.6093798     185.2327   0.01944088   0.01938043           12 
  795000   0.94878084    -7.616665    186.02076  0.019499032  0.019363028            2 
  796000   0.93393756   -7.6018427    185.94705  0.019466818  0.019345775            4 
  797000   0.94847804   -7.6441751    185.79587  0.019426586  0.019328636            7 
  798000   0.91994492   -7.6478787    185.76829  0.019399361  0.019311422            5 
  799000     0.933022   -7.6389065    186.19617  0.019419709  0.019294181            4 
  800000   0.93641114   -7.6569137    185.90478  0.019365081  0.019277014            5 
  801000   0.96247433    -7.649667    186.03105  0.019354042  0.019259813            8 
  802000    0.9226182   -7.6203261    186.96461  0.019426913  0.019242653            2 
  803000   0.93013731   -7.6532083    186.42341  0.019346556  0.019225603            4 
  804000   0.94303452   -7.6260016     186.7286  0.019354126  0.019208646            5 
  805000   0.91802782   -7.6720819    186.57674  0.019314363  0.019191582            3 
  806000   0.93398281   -7.6238008    186.90558  0.019324398  0.019174483            5 
  807000   0.92662863   -7.6783682    186.32649  0.019240653  0.019157348           10 
  808000   0.92035949   -7.6550641    187.12047  0.019298728  0.019140318            4 
  809000   0.93406173   -7.6530651    186.94316  0.019256609  0.019123345            6 
  810000   0.92922803   -7.6439626     187.2391  0.019263282  0.019106374            4 
  811000    0.9339628   -7.6749006    187.21371   0.01923692  0.019089464            5 
  812000   0.92702356   -7.6735428    186.86752  0.019177701  0.019072424            3 
  813000   0.93105626   -7.6616225    187.27673  0.019196057  0.019055421            5 
  814000   0.91167386   -7.6369324    187.20335  0.019164963  0.019038389            4 
  815000   0.93610083   -7.6588549    188.06356  0.019229402  0.019021474            6 
  816000   0.93923296   -7.6431588    188.28126   0.01922807  0.019004764            3 
  817000   0.93243944   -7.6757524    187.65123  0.019140273  0.018988049            7 
  818000   0.93808175   -7.6775322    188.11457  0.019164076   0.01897122            4 
  819000   0.90127011   -7.6671826    188.21333  0.019150725  0.018954519            6 
  820000   0.94921244   -7.6700625      188.524  0.019158943  0.018937818            4 
  821000    0.9321654   -7.6639667    188.25647  0.019108452  0.018921107            8 
  822000    0.9201568    -7.657215    188.38737  0.019098476  0.018904204            5 
  823000   0.89215109   -7.6736578    188.51656  0.019088352  0.018887163            4 
  824000   0.94519196   -7.6820633    187.86914  0.018999711  0.018870271            5 
  825000   0.94195782   -7.6716981    188.39396  0.019029693  0.018853547            9 
  826000   0.92662415    -7.632345    188.64018  0.019031495  0.018836745            5 
  827000   0.90785334   -7.6260816    188.58841  0.019003265  0.018819833            6 
  828000   0.92176572   -7.6883795    188.43699  0.018965075  0.018802881            7 
  829000   0.92545432   -7.6720735    188.95271   0.01899404  0.018786056            5 
  830000   0.90936405    -7.701716    188.45485  0.018921169  0.018769048            3 
  831000   0.91274292   -7.6827053    188.26511  0.018879373  0.018752183            5 
  832000   0.92161781   -7.6499958     189.3143  0.018961768  0.018735514            3 
  833000   0.91614908   -7.6748169    188.93861  0.018901421  0.018718627            6 
  834000   0.91638541   -7.6663961    189.44446  0.018929303  0.018701818            6 
  835000   0.93027508   -7.6873801    188.62855  0.018825205  0.018684962            7 
  836000   0.91554436   -7.6691918    188.60261    0.0188001  0.018668191            5 
  837000   0.94389379   -7.6783215    188.57524  0.018774915  0.018651389           10 
  838000   0.92696727   -7.7012739    189.38704  0.018833238  0.018634602            5 
  839000   0.93677822   -7.6550441    189.42717  0.018814776  0.018617734           18 
  840000   0.91021876   -7.7023347    189.01052  0.018751043  0.018600972            4 
  841000   0.91685198   -7.6917816    189.14855  0.018742425  0.018584093           10 
  842000   0.92196431   -7.7027033    189.21427   0.01872667  0.018567245            5 
  843000   0.90870848   -7.6587763    189.70026  0.018752497  0.018550211           10 
  844000   0.90727281   -7.7004077    189.19026  0.018679923    0.0185333            5 
  845000   0.92348758   -7.6766082    190.13067  0.018750559  0.018516509            7 
  846000   0.92762377   -7.6796081    189.90091  0.018705764  0.018499691            5 
  847000   0.92075965   -7.6867871    189.74323  0.018668165  0.018482855            6 
  848000   0.92652032   -7.7002417    189.79666  0.018651401  0.018465951            7 
  849000    0.9193079   -7.6935161    189.38341   0.01858887  0.018448967           10 
  850000   0.92613602   -7.6791244    189.24754   0.01855368  0.018431982            5 
  851000   0.91935431   -7.6433964    190.22502  0.018627597  0.018415283            5 
  852000   0.90252319   -7.7016783    189.75558  0.018559819  0.018398559            6 
  853000   0.92217455   -7.6626151    190.37479  0.018598554  0.018381847            3 
  854000   0.89074451   -7.6991826    190.26197  0.018565766  0.018365171            9 
  855000   0.92466333   -7.6894782    190.46575  0.018563913  0.018348445            6 
  856000   0.89901308   -7.7026058    190.97633  0.018591932  0.018331795            4 
  857000   0.93529723   -7.7005985    190.40947  0.018515118  0.018315113            5 
  858000   0.88753994    -7.724016    190.43843  0.018496351  0.018298426            6 
  859000   0.92470928   -7.6968621    190.70231  0.018500418  0.018281788           15 
  860000   0.92512023   -7.7468118    190.19561  0.018429807  0.018265045            8 
  861000   0.93413043   -7.6847037    190.94662   0.01848109  0.018248268            4 
  862000   0.89938468   -7.7042115    190.75557  0.018441181  0.018231684            5 
  863000   0.89456308   -7.6928232    190.93602  0.018437237  0.018214918            8 
  864000   0.91498341     -7.75251    190.95518  0.018417745  0.018198125            4 
  865000   0.92011663   -7.7566957    189.99443  0.018303895  0.018181468            9 
  866000   0.90611341    -7.721614    190.91852  0.018371682  0.018164895            4 
  867000   0.88713192   -7.7181264    191.05359  0.018363474  0.018148294            6 
  868000   0.89722416   -7.7252173    191.75247  0.018409415  0.018131753            3 
  869000   0.90974636   -7.7495335    190.94308  0.018310614  0.018115208            8 
  870000   0.90873761   -7.7191406    191.56525  0.018349162  0.018098652            8 
  871000   0.89952299   -7.7339679     191.7721  0.018347886  0.018082298            5 
  872000   0.90534144   -7.7201758    191.73621  0.018323415  0.018066042           12 
  873000   0.91167269   -7.7614405    191.87608  0.018315777  0.018049743           11 
  874000   0.89711659   -7.7096764     191.6643  0.018274629  0.018033378           18 
  875000   0.91345022   -7.7092012    191.55154  0.018243004  0.018016972           17 
  876000   0.89677024    -7.742017    191.67129   0.01823357  0.018000337            4 
  877000   0.89254862   -7.7317789    191.45794  0.018192506  0.017983824           16 
  878000   0.92190635   -7.7514666    190.91619  0.018120368  0.017967186            5 
  879000    0.9147772   -7.7397442       192.15  0.018216723  0.017950527            5 
  880000   0.89724554   -7.7417437    191.65209  0.018148872  0.017934014            4 
  881000   0.90790773   -7.7364583    192.20186  0.018180274  0.017917631            7 
  882000   0.92058414   -7.7256714    191.91944  0.018132978  0.017901298           10 
  883000   0.90086528   -7.7628449    191.85508  0.018106369  0.017884867            4 
  884000   0.86953012   -7.7654635    192.02345  0.018101758  0.017868412            8 
  885000   0.90077163   -7.7935252    191.73717  0.018054347  0.017851886            8 
  886000    0.8993166   -7.7574854    192.55319  0.018110722  0.017835301           19 
  887000   0.90201025   -7.7807133    192.08954  0.018046743  0.017818836            7 
  888000   0.87728396   -7.7436593    192.04523  0.018022263  0.017802392            6 
  889000   0.89216158   -7.7223521    192.74607  0.018067686  0.017786173            8 
  890000   0.88437161   -7.7356783    192.07592  0.017984637  0.017769908           10 
  891000   0.87202434   -7.7706831    191.86926  0.017945123  0.017753459            7 
  892000   0.88993797   -7.7472815    192.59256  0.017992578  0.017737053           14 
  893000   0.89033035   -7.7534619    192.51629  0.017965313  0.017720658            7 
  894000   0.88686123   -7.7526615    192.64242  0.017956974  0.017704278            6 
  895000   0.89535685   -7.7690103    192.21868  0.017897456  0.017687827            5 
  896000   0.89267529    -7.717715    192.70884   0.01792307  0.017671438           13 
  897000   0.89121698   -7.7317457    192.58673  0.017891744  0.017655149            4 
  898000   0.90022263   -7.7585874    192.46209  0.017860253  0.017638868            5 
  899000   0.89896413   -7.7508377    192.97565  0.017887991   0.01762257            7 
  900000   0.88479463   -7.7600952    192.60868  0.017834137  0.017606259            5 
  901000   0.90440712   -7.7624576    192.87105   0.01783861  0.017589871            5 
  902000   0.89791305   -7.7591808    192.83902  0.017815874  0.017573494            6 
  903000   0.88450848   -7.7612821     193.0197  0.017812819  0.017557204            6 
  904000   0.88036375   -7.8073619    193.00343  0.017791614  0.017540857            3 
  905000   0.90232373   -7.7487257    193.41575  0.017809922  0.017524586            7 
  906000   0.91798189    -7.774335    193.34598  0.017783847  0.017508341            4 
  907000   0.90491503   -7.7587703    193.49937  0.017778332  0.017492219            6 
  908000   0.91016512   -7.7566181    193.59613  0.017767633  0.017476101            6 
  909000   0.87716054   -7.7442125    194.20109  0.017803547  0.017459999            5 
  910000   0.88081381   -7.8060256    193.56336  0.017725582   0.01744399            6 
  911000   0.88880481   -7.7742466    194.36761  0.017779694  0.017428036            4 
  912000   0.86913355   -7.7975863    193.73591  0.017702477  0.017412179            7 
  913000   0.87182892   -7.8009554    193.91104  0.017699072  0.017396238            9 
  914000    0.8892395   -7.7795352    193.90115  0.017678807  0.017380402           12 
  915000    0.8952812   -7.7723457    194.36658  0.017701874  0.017364587            7 
  916000   0.87969549   -7.7804501    194.20586  0.017667928  0.017348803            6 
  917000   0.88142965   -7.7644026    193.98155  0.017628276  0.017333002            5 
  918000   0.88181984   -7.7673055    194.19326  0.017628292   0.01731713            6 
  919000   0.88794805   -7.8094774    194.43317  0.017630865  0.017301377           15 
  920000   0.85604299   -7.7843821     194.6859  0.017634593   0.01728558            6 
  921000   0.88307494    -7.807924    194.60434  0.017608065  0.017269733           14 
  922000   0.87325993   -7.7938296    194.50274  0.017579784     0.017254            7 
  923000   0.88164398   -7.8097571    194.13503   0.01752754  0.017238144            8 
  924000   0.88986446   -7.7686874    194.40064  0.017532525  0.017222316            4 
  925000   0.88670377   -7.7750221    194.38103  0.017511804  0.017206554            7 
  926000   0.88394194   -7.8095247    194.62117  0.017514504  0.017190873            4 
  927000   0.88151238   -7.8167394    194.44734  0.017479984  0.017175105            8 
  928000   0.89215645   -7.7921309    194.54343  0.017469776  0.017159215           11 
  929000   0.88009356   -7.8698829     194.2981  0.017428965  0.017143403            5 
  930000   0.89075859   -7.7974486    194.97269  0.017470671  0.017127608            5 
  931000   0.88541691   -7.8042778    194.49193  0.017408873  0.017111863            8 
  932000   0.87427265   -7.8007053    195.12608  0.017446896  0.017096119           26 
  933000   0.87674729   -7.8594263    195.32464  0.017445931  0.017080354           16 
  934000   0.88829893   -7.8118132    195.14499  0.017411223  0.017064652           12 
  935000   0.86748975   -7.8493283    195.19795  0.017397322  0.017049004            8 
  936000   0.86254341   -7.8464676    195.02842  0.017363642  0.017033402            8 
  937000   0.85760762   -7.8412857    195.26627  0.017366264  0.017017639           10 
  938000   0.88503853   -7.8155116    195.49145  0.017367755  0.017001956           11 
  939000   0.87986411   -7.8334027    195.19847  0.017323258  0.016986293           11 
  940000   0.89126265   -7.8318937    195.37864  0.017320801  0.016970596            5 
  941000   0.88552582   -7.8410907    195.09725  0.017277476  0.016954923           12 
  942000   0.87333872    -7.811568    195.85219  0.017325919  0.016939399           13 
  943000   0.87512741   -7.8367703    195.82147  0.017304832  0.016923833            7 
  944000   0.90015762   -7.7971246    196.13198  0.017313911  0.016908298           14 
  945000    0.8626906   -7.8483167    195.63162  0.017251466  0.016892746            5 
  946000   0.87055776   -7.8149121    195.36449  0.017209698  0.016877335           23 
  947000   0.85109142   -7.8400792    195.98111  0.017245785  0.016861966           14 
  948000   0.88116077   -7.8310013    195.96134  0.017225856  0.016846568            4 
  949000   0.87315935   -7.8300173     195.7331  0.017187663  0.016831166            8 
  950000   0.88410264   -7.8153426    195.99993  0.017192976   0.01681581            5 
  951000   0.87933737   -7.8284231     195.7457   0.01715262  0.016800292            4 
  952000   0.89454777   -7.8367494    195.93351  0.017151043  0.016784895            8 
  953000    0.8648238   -7.8294054    195.94939  0.017134435  0.016769451            4 
  954000   0.85649213   -7.8496873    196.06287  0.017126386  0.016753967            8 
  955000   0.85990345   -7.8455389    196.02734  0.017105353  0.016738518           15 
  956000      0.88506   -7.8286674     196.2809  0.017109563  0.016723257           15 
  957000   0.87427352   -7.8314495    196.06364  0.017072766  0.016707836           19 
  958000   0.87512877   -7.8608688    196.01747  0.017050928  0.016692428           12 
  959000   0.87723352   -7.8320328    196.44316  0.017070139  0.016676941            4 
  960000   0.87542131   -7.8513742    196.46831   0.01705454  0.016661514            5 
  961000   0.85268387     -7.84948    196.02442  0.016998302  0.016646142            5 
  962000   0.87750956   -7.8366982    196.49718  0.017021585   0.01663077           14 
  963000   0.86774962   -7.8077805    196.62137  0.017014657  0.016615436           14 
  964000   0.86698312   -7.8345094    196.21324  0.016961725  0.016600091            8 
  965000     0.867302   -7.8416137    196.06436  0.016931291  0.016584669            7 
  966000   0.87984885    -7.829354    196.56666  0.016957096  0.016569288            6 
  967000    0.8592102   -7.8625208    196.63967  0.016945852  0.016553816           13 
  968000   0.89412788   -7.8668657    196.17795  0.016888597  0.016538271            7 
  969000   0.86095354   -7.8596062    196.70339  0.016916356  0.016522699            7 
  970000   0.87198524   -7.8746546    196.08528  0.016845815  0.016507259            4 
  971000   0.85900594   -7.8344087    197.28128  0.016931109  0.016491853           15 
  972000   0.86195664   -7.8467879    196.72969    0.0168664  0.016476549           22 
  973000   0.87945437    -7.852969    196.99028  0.016871384  0.016461109           17 
  974000   0.87185412   -7.8603615    196.57651  0.016818661  0.016445671           10 
  975000   0.84902766   -7.8657953    196.63929  0.016806777  0.016430326           10 
  976000   0.85778633   -7.8701636    196.46923  0.016775037  0.016414935            5 
  977000   0.86546769   -7.8308574    196.95504  0.016799304  0.016399542           26 
  978000   0.87915917   -7.8622372    196.67978  0.016758673  0.016384211           10 
  979000   0.86832064   -7.8671244    195.82768  0.016669023  0.016368893            8 
  980000   0.86442148   -7.8904843    197.00834   0.01675241  0.016353573            7 
  981000   0.86345487    -7.878372    196.68643  0.016707988  0.016338233            7 
  982000   0.86513592   -7.8502197    196.59626  0.016683321  0.016322813           14 
  983000   0.85430735   -7.9053253    196.83014  0.016686177  0.016307425            9 
  984000   0.85365208   -7.8467048    196.99355  0.016683058  0.016291991           10 
  985000   0.85939734   -7.8960271    196.50381  0.016624688  0.016276542            7 
  986000   0.86398253    -7.893448    196.97171  0.016647372  0.016261175            6 
  987000   0.85701304   -7.8730603    197.08629   0.01664018  0.016245775           13 
  988000   0.86491002   -7.8947474    196.63371  0.016585165  0.016230406            6 
  989000   0.87180331   -7.8579699    197.26339  0.016621452  0.016215056           13 
  990000   0.85219178   -7.9097466    196.93579  0.016577087   0.01619982           10 
  991000   0.88272662   -7.8998517    196.77064  0.016546471  0.016184479            5 
  992000   0.86618589   -7.8756706    197.53071  0.016593641  0.016169201            5 
  993000   0.85256019     -7.88207    196.68413  0.016505885  0.016153978           12 
  994000   0.88232388   -7.9117911    197.67612  0.016572445  0.016138782            6 
  995000   0.84861518   -7.8954213    197.36161  0.016529448   0.01612352            9 
  996000    0.8672323   -7.8913431    197.13509    0.0164939  0.016108231            5 
  997000   0.85888066   -7.8880553    197.16925  0.016480212  0.016092942            6 
  998000   0.82687474   -7.9221687    197.14323  0.016461526  0.016077555            6 
  999000   0.84150026   -7.9125932    197.06111  0.016438198  0.016062189            5 
 1000000   0.85286202   -7.8893838    197.48116  0.016456763  0.016046851            6 
 1001000   0.83916854     -7.90514    197.27285  0.016422981   0.01603167            6 
 1002000   0.85317443   -7.9237203    196.86763   0.01637289  0.016016425            7 
 1003000   0.84573934   -7.8849087    197.73927  0.016428986  0.016001259           13 
 1004000   0.86665111   -7.8988557    197.63115  0.016403648  0.015986146            6 
 1005000   0.85814992   -7.9023373    197.70068  0.016393091  0.015971025           10 
 1006000   0.87331134   -7.8979489    197.53757  0.016363284   0.01595595           13 
 1007000   0.86417058   -7.9431969    197.38788  0.016334647  0.015940856           10 
 1008000   0.85392058   -7.9369075    197.90869  0.016361498  0.015925732            7 
 1009000   0.85643052   -7.9146653     197.9148  0.016345787  0.015910628           11 
 1010000   0.82250762   -7.9140986    198.03295  0.016339352  0.015895567            5 
 1011000   0.84343876   -7.9412126    197.95695  0.016316927  0.015880574           11 
 1012000   0.83621584   -7.9073622    197.75338   0.01628404   0.01586564            6 
 1013000   0.83001273    -7.922751    197.79889  0.016271708  0.015850652            9 
 1014000   0.84779636   -7.9274771    197.76842  0.016253157  0.015835649            7 
 1015000   0.84902654   -7.9092667    197.74834  0.016235496  0.015820628           13 
 1016000   0.86511637   -7.8949408    197.77174  0.016221436  0.015805664           17 
 1017000   0.84643988   -7.9183739    197.70438  0.016199965  0.015790646           22 
 1018000   0.85648319   -7.9115368    198.09678  0.016216174  0.015775706           19 
 1019000   0.85172663    -7.936596    198.13805  0.016203635  0.015760743           17 
 1020000   0.84879616     -7.89889    198.57202  0.016223204  0.015745854           15 
 1021000   0.84683613   -7.9255968     198.4663  0.016198686  0.015730984           10 
 1022000   0.85405539   -7.9480336    198.20397  0.016161446  0.015716048           16 
 1023000   0.83745227   -7.8867793    198.19015  0.016144522  0.015701099           15 
 1024000   0.84385527    -7.940081    197.71377  0.016089988  0.015686107           16 
 1025000   0.83752447     -7.93182    198.19872  0.016113717  0.015671187           15 
 1026000   0.84651159   -7.9371812    197.90984  0.016074549   0.01565625            8 
 1027000   0.83728017   -7.9472007    198.27741  0.016088722  0.015641328           11 
 1028000   0.85156394   -7.9028335    198.08479  0.016057457  0.015626479            7 
 1029000   0.85037082   -7.9576626    197.98233  0.016033554  0.015611588           12 
 1030000   0.82823797   -7.9693698    197.98595  0.016018281  0.015596702            9 
 1031000   0.86721892   -7.9537497    198.60352  0.016052661  0.015581777            8 
 1032000   0.85247833   -7.9307755    199.00604  0.016069609  0.015566942           14 
 1033000   0.84230058   -7.9217395    198.35209  0.016001298  0.015552129           15 
 1034000   0.83224274   -7.9195684    198.49814  0.015997593  0.015537375           14 
 1035000   0.84616961    -7.932526    198.34421  0.015969743    0.0155226           13 
 1036000   0.83257997   -7.9471885    198.39728  0.015958597  0.015507932            5 
 1037000   0.86242914   -7.9459794    199.16692  0.016005056   0.01549326           13 
 1038000   0.83365859   -7.9281376    198.83617  0.015963084  0.015478584           13 
 1039000    0.8542159    -7.947611    199.07085  0.015966542  0.015464018            9 
 1040000   0.84683262   -7.9393005    198.79587  0.015929157  0.015449425           11 
 1041000   0.81652697   -7.9513059    198.63876  0.015901278  0.015434732           19 
 1042000   0.85301048   -7.9577654    199.38926  0.015946038  0.015420048           13 
 1043000   0.86052263   -7.9599057    198.96098  0.015896531  0.015405361            9 
 1044000   0.82388092    -7.978267    199.09395  0.015891918  0.015390702           11 
 1045000   0.84270437   -7.9303768    199.25943  0.015889907  0.015376038            8 
 1046000   0.84950551   -7.9787976    198.59328  0.015821644   0.01536131           19 
 1047000   0.82996477   -7.9854562    198.75454  0.015819368  0.015346571            6 
 1048000   0.82849984   -7.9937166    198.66494  0.015797148  0.015331904           14 
 1049000   0.84753238   -7.9584016    198.38239  0.015759643  0.015317283           11 
 1050000   0.84342238   -7.9829337    199.17538   0.01580757  0.015302754            9 
 1051000   0.84075199   -7.9636311    199.20827  0.015795138  0.015288343           10 
 1052000   0.82415819   -7.9780978    199.70328  0.015819335  0.015273868            6 
 1053000   0.84400911   -8.0003193    199.05001  0.015752613  0.015259319            4 
 1054000   0.82745961   -7.9718037    199.57049  0.015778818   0.01524484           10 
 1055000   0.81529598   -7.9656663    199.27571  0.015740578  0.015230266           11 
 1056000   0.84135683   -8.0029837     198.5827  0.015670983  0.015215679           15 
 1057000   0.83237697   -7.9825796    198.87276  0.015679025  0.015201129           17 
 1058000   0.83047121   -7.9965103    198.79288  0.015657914  0.015186613           15 
 1059000   0.83896214    -7.984168     199.3162  0.015684309   0.01517208           16 
 1060000   0.81584342    -7.980244    199.18881  0.015659497  0.015157555           18 
 1061000    0.8360032   -7.9634524    199.73943  0.015687985  0.015143143           10 
 1062000   0.85823823   -7.9951737    198.66606  0.015588988   0.01512867           11 
 1063000   0.83168865   -7.9767795    199.88839  0.015670147  0.015114205           15 
 1064000   0.82187378   -7.9764083    199.52696  0.015627112  0.015099831           12 
 1065000   0.81870586   -7.9600217    199.20805  0.015587484  0.015085454            7 
 1066000   0.83014658   -7.9970672    199.84434  0.015622603  0.015071063           10 
 1067000    0.8309444   -7.9515999    199.83774  0.015607446  0.015056649           19 
 1068000   0.85162866   -7.9658105    199.72451  0.015583998  0.015042259           11 
 1069000   0.82976595   -7.9969815    199.66663  0.015564907  0.015027878           29 
 1070000   0.82014938   -8.0123191    199.10097  0.015506306  0.015013511           16 
 1071000   0.84380981   -8.0411102    199.32435  0.015509209  0.014999122           25 
 1072000    0.8448732   -7.9897752    199.83488  0.015534428  0.014984769           38 
 1073000   0.83294019   -8.0058214     199.5431   0.01549729  0.014970438           17 
 1074000    0.8211883   -8.0047168    199.71412   0.01549613  0.014956084           21 
 1075000    0.8379986   -7.9960823    199.21618  0.015443115  0.014941768            7 
 1076000   0.82961251   -7.9852202    199.99229   0.01548887  0.014927528           18 
 1077000   0.81249522   -8.0044794    199.85819  0.015464113  0.014913271           23 
 1078000   0.84079273   -8.0245898     199.4938  0.015421598  0.014898957           16 
 1079000   0.83094227   -8.0039513    199.87693  0.015436896  0.014884671           20 
 1080000    0.8245807   -8.0228361    199.14033  0.015365766  0.014870396           19 
 1081000    0.8231331   -8.0358233    199.91404  0.015411196  0.014856129           24 
 1082000    0.8251307    -7.992117    199.91593  0.015397099  0.014841866           30 
 1083000   0.83396024   -8.0078467    200.17884  0.015403112   0.01482769           11 
 1084000   0.81041021   -8.0461502    200.04088  0.015378297  0.014813417           28 
 1085000   0.81708952   -8.0232668     199.7641  0.015342865  0.014799154           38 
 1086000   0.81717763   -8.0223576    199.74551  0.015327311  0.014784928           83 
 1087000    0.8289249   -8.0409624    200.09127  0.015339717   0.01477076           81 
 1088000   0.82054677   -8.0175498    200.30089  0.015341673  0.014756714           81 
 1089000   0.81598014   -8.0464887       199.67  0.015279308  0.014742596           67 
 1090000   0.81807085   -8.0464173    199.37431  0.015242684  0.014728363           23 
 1091000    0.8308065   -8.0408967    199.68142  0.015252171  0.014714167           44 
 1092000   0.79912333   -8.0451612    199.57691  0.015230228   0.01470001           73 
 1093000   0.83786673   -7.9969374    200.35641  0.015275725  0.014685842           50 
 1094000   0.81157082   -8.0191168    200.08053  0.015240747  0.014671748           54 
 1095000   0.82229078   -8.0349931    199.86415  0.015210361  0.014657643           46 
 1096000   0.81668518   -8.0228472    199.69804  0.015183853  0.014643568           60 
 1097000   0.80422875   -8.0048115    200.00148  0.015193063  0.014629495           51 
 1098000   0.80529598   -8.0199685    200.28084  0.015200428  0.014615405           68 
 1099000   0.81424241   -8.0269771    200.12326  0.015174648  0.014601368           54 
 1100000   0.81744293   -8.0364808    199.99378  0.015151044  0.014587308           74 
 1101000   0.82918267   -8.0541886    200.04244  0.015140965  0.014573208           66 
 1102000   0.83256716    -8.075937    199.71766  0.015102666  0.014559066           70 
 1103000   0.81854952   -8.0403783    200.27409  0.015131013  0.014544962           62 
 1104000   0.80882546   -8.0479955    200.04885  0.015100306  0.014530917           32 
 1105000   0.82923654   -8.0620714    199.59415  0.015052349  0.014516882           54 
 1106000   0.81051574   -8.0562613    199.89087  0.015061096  0.014502795           84 
 1107000    0.8209952   -8.0683824    199.21216  0.014996399  0.014488628           62 
 1108000   0.80340213    -8.045109    200.20568  0.015057587  0.014474501           59 
 1109000   0.79355078   -8.0682523    199.77972  0.015012002  0.014460457           55 
 1110000   0.81119036   -8.0487025    200.35988  0.015042033  0.014446419           53 
 1111000   0.80753553   -8.0772547    200.06072  0.015006055  0.014432381           72 
 1112000   0.80068813   -8.0501308    199.91953  0.014981979  0.014418292           74 
 1113000   0.80133111   -8.0836178    199.55248  0.014941036  0.014404184           63 
 1114000   0.80631621    -8.065477    199.60254  0.014931369  0.014390041           86 
 1115000   0.78728676    -8.097784    199.80358  0.014933003  0.014375915           85 
 1116000   0.80795248   -8.1111483    199.44247  0.014892657  0.014361757          101 
 1117000   0.79061338   -8.1020875    199.01051  0.014847099  0.014347629           78 
 1118000   0.78633336   -8.0770045    199.85295  0.014896612  0.014333513           88 
 1119000   0.80148503   -8.0560208    199.67151  0.014869788  0.014319475          109 
 1120000    0.8037514   -8.0830258    199.80125  0.014866165  0.014305438           89 
 1121000   0.80321728   -8.0814529    200.31928  0.014891413  0.014291501           94 
 1122000   0.81707437   -8.0829044    200.36342  0.014881419  0.014277593           76 
 1123000   0.81193323   -8.0669521    200.04746  0.014844721  0.014263696           77 
 1124000   0.80225116   -8.0876253    200.29597  0.014849938  0.014249801          133 
 1125000   0.78693564   -8.0930525    200.18412  0.014828453   0.01423581          118 
 1126000   0.78658422   -8.0862214     199.9141  0.014795301  0.014221844           79 
 1127000   0.81395818   -8.0658029    200.13726  0.014798673  0.014207926           96 
 1128000   0.79477669   -8.0981508    199.92412  0.014769808  0.014193991           98 
 1129000    0.8064652      -8.0954    199.71962  0.014741631   0.01417998           62 
 1130000   0.82257273   -8.1034883    199.82757  0.014736546  0.014166006           95 
 1131000   0.80098744   -8.1398206    199.57676  0.014705037  0.014151935          108 
 1132000   0.81135301   -8.1288454    199.50657  0.014686879   0.01413788           96 
 1133000   0.79842131   -8.1218429    199.29657  0.014658471  0.014123826           87 
 1134000   0.81005317   -8.1463662    199.51227  0.014661395  0.014109774           77 
 1135000   0.81307384   -8.1326125    199.35511  0.014636939  0.014095779           98 
 1136000   0.78317622   -8.1015154    200.07458  0.014676833  0.014081796           89 
 1137000   0.80644507   -8.1319865    200.08236  0.014664494  0.014067798           99 
 1138000   0.79450116   -8.1721682    199.36186  0.014598848  0.014053845           92 
 1139000   0.79281779   -8.1448752    199.31807  0.014582826  0.014039846          101 
 1140000   0.80265934   -8.1610332    199.73432  0.014600462  0.014025874           96 
 1141000    0.8132396   -8.1265893    200.13388  0.014616848  0.014011976          107 
 1142000   0.80296879   -8.1379483    199.86723  0.014584591  0.013998062          257 
 1143000   0.78488232   -8.1520339    199.49681  0.014544824  0.013984162          122 
 1144000   0.80056211   -8.1433027      199.357  0.014521926  0.013970239          125 
 1145000   0.78475814   -8.1088476    199.69809  0.014534068  0.013956392          162 
 1146000   0.80271859   -8.1194562    200.23168  0.014560186  0.013942526          104 
 1147000   0.78201273   -8.1097964    200.36221  0.014556975  0.013928727          108 
 1148000   0.79346332   -8.1381018    199.81766  0.014504766  0.013914911          138 
 1149000   0.79848363   -8.1416399    199.67978  0.014482142  0.013901044          242 
 1150000   0.79786695   -8.1234916    199.98144  0.014491408  0.013887299          102 
 1151000   0.79475756   -8.1369249    199.74887   0.01446198  0.013873564           88 
 1152000   0.80092703   -8.1259838    199.97097  0.014465493  0.013859778          119 
 1153000   0.79654299   -8.1541607    199.84214  0.014443635  0.013846015          134 
 1154000   0.79032515   -8.1565901    199.74908  0.014424399  0.013832235          141 
 1155000   0.78817679   -8.1655062    199.16755  0.014369953   0.01381848          112 
 1156000   0.81162263   -8.1390952    199.86779  0.014408001  0.013804669          149 
 1157000   0.77863623   -8.1452332    200.01256  0.014405975  0.013790901          162 
 1158000   0.78415964   -8.1613002     199.5291  0.014358744   0.01377707          236 
 1159000   0.78650287   -8.1406908    199.84291  0.014368918  0.013763262          156 
 1160000   0.77837293   -8.1829798    199.37431  0.014322867  0.013749508          168 
 1161000   0.78504775   -8.1908037    199.46168  0.014316802    0.0137357          227 
 1162000   0.78596215   -8.1444691     199.5247     0.014309   0.01372194          163 
 1163000   0.79607318   -8.1660983    199.99363  0.014330297  0.013708206          276 
 1164000    0.7961996   -8.1854892    199.63771  0.014292505  0.013694479          279 
 1165000   0.78382923   -8.1740318    199.73618  0.014287281  0.013680767          150 
 1166000   0.79786377   -8.2070518    199.74951   0.01427598  0.013667039          190 
 1167000   0.80533221   -8.2029568    199.30474  0.014231986  0.013653292          229 
 1168000   0.77926842   -8.1859941    200.09638  0.014276283  0.013639549          248 
 1169000   0.80018139   -8.1998557    199.90497  0.014250425  0.013625814          216 
 1170000   0.78832164   -8.1934695    199.08507  0.014179848  0.013612042          269 
 1171000   0.77858997   -8.2092444    199.65812   0.01420852  0.013598331          217 
 1172000   0.76893822   -8.2081504    199.59909    0.0141922  0.013584651          222 
 1173000    0.7846195   -8.1989264    200.20404  0.014223077  0.013570995          338 
 1174000   0.77406196   -8.1897606     199.1258  0.014134427  0.013557361          440 
 1175000    0.7887568   -8.1765944     200.0945    0.0141911  0.013543714          290 
 1176000   0.77869061   -8.1995207    200.05372  0.014176142  0.013530115          256 
 1177000   0.77939403   -8.2049655    199.61709  0.014133184  0.013516525          277 
 1178000     0.772945   -8.2055683    199.79138  0.014133516  0.013502913          560 
 1179000   0.79063914   -8.2084992    199.66501  0.014112596   0.01348932          217 
 1180000   0.78417713   -8.2089176    200.10208  0.014131503  0.013475685          446 
 1181000   0.77534982   -8.2145124    199.74376  0.014094253  0.013462054          259 
 1182000   0.77956691   -8.2352091    199.48329  0.014063966  0.013448437          418 
 1183000   0.78323039   -8.2362035    199.14779  0.014028444  0.013434843          233 
 1184000   0.76394697   -8.2220625    199.32638  0.014029165  0.013421228          647 
 1185000   0.78150604   -8.2272959    199.65255  0.014040264  0.013407632          463 
 1186000   0.76535355   -8.2258887    199.42065  0.014012131  0.013394041          468 
 1187000   0.78858349   -8.2397972    198.86479  0.013961302  0.013380447          284 
 1188000   0.79270251   -8.2300343    199.27319  0.013978198  0.013366837          407 
 1189000   0.76574628   -8.2417297    199.43413  0.013977721  0.013353202          789 
 1190000   0.79137205   -8.2224078    199.22724  0.013951487  0.013339577          753 
 1191000   0.78189968   -8.2319639     199.4155  0.013952946  0.013325994          424 
 1192000   0.75924573   -8.2587157    199.50159  0.013947259  0.013312435          457 
 1193000   0.76465553   -8.2482949    199.05126  0.013904112  0.013298896          728 
 1194000   0.77731464   -8.2796028    199.07836  0.013894358  0.013285322          544 
 1195000   0.79244121   -8.2390229    199.65136  0.013922689  0.013271746          499 
 1196000   0.77672229   -8.2541067    199.15343  0.013876354  0.013258209          476 
 1197000   0.78010835   -8.2447126    199.41959  0.013883291  0.013244687          503 
 1198000   0.76680218   -8.2823154     198.8354  0.013831065  0.013231154          892 
 1199000   0.76934748    -8.285655    198.63002  0.013805256  0.013217533          920 
 1200000   0.77572561    -8.253017    199.12902  0.013828404  0.013203933          879 
 1201000   0.76031549    -8.283202    198.68536  0.013786106  0.013190337          895 
 1202000   0.77385142   -8.2897224    199.14132  0.013806248  0.013176731          933 
 1203000   0.75703427   -8.2888531    198.72661  0.013766044  0.013163124          959 
 1204000   0.77446426   -8.2810336    198.74804  0.013756093   0.01314955          976 
 1205000   0.76586481   -8.2690941    199.10052  0.013769054  0.013136012          971 
 1206000   0.78934427   -8.2984448     198.4797  0.013714739  0.013122451          968 
 1207000   0.76167458   -8.3022216    198.47877  0.013703312  0.013108873          965 
 1208000   0.77739779   -8.2851548    199.34521  0.013751739  0.013095293          978 
 1209000   0.77967315   -8.3014716    199.02053  0.013717985   0.01308174         1032 
 1210000   0.79213991   -8.2975966    198.79301  0.013690979  0.013068207         1059 
 1211000    0.7700258   -8.2895864    199.12654  0.013702625  0.013054698         1052 
 1212000   0.76593302   -8.3120556    198.87668  0.013674139  0.013041161         1100 
 1213000   0.76348102   -8.3005411     198.8366  0.013660113  0.013027648         1137 
 1214000   0.78994199    -8.313983     198.7947  0.013645984   0.01301414         1138 
 1215000    0.7556861   -8.3321022    199.02952  0.013650859  0.013000611         1108 
 1216000   0.78051366    -8.361512    198.10369  0.013576185  0.012987084         1182 
 1217000   0.77884445   -8.3172426    198.99925  0.013626352  0.012973633         1137 
 1218000   0.78737323   -8.3346129    198.25831  0.013564471  0.012960131         1180 
 1219000   0.76195243   -8.3431916    198.20749  0.013549869   0.01294663         1174 
 1220000    0.7644477   -8.3437309    198.37865  0.013550454  0.012933204         1241 
 1221000   0.75347871   -8.3512978    198.62577  0.013556222  0.012919734         1268 
 1222000   0.77578167   -8.3402949    198.54391  0.013539547  0.012906264         1334 
 1223000   0.76564946   -8.3170012    198.45822  0.013522637  0.012892772         1283 
 1224000   0.77065378   -8.3642885    198.58121  0.013519962  0.012879288         1351 
 1225000   0.75298675   -8.3509146    198.71972  0.013518349  0.012865879         1300 
 1226000   0.75980729    -8.325833    199.10175  0.013533289  0.012852421         1307 
 1227000   0.76085216   -8.3410057    198.44104  0.013477387   0.01283902         1347 
 1228000   0.77878377   -8.3592261    198.11288  0.013444142   0.01282561         1292 
 1229000   0.77567153   -8.3872017    198.19378  0.013438689  0.012812176         1396 
 1230000   0.76727524     -8.40199    198.06483  0.013419026  0.012798752         1407 
 1231000   0.76634202   -8.3994894    198.34807  0.013427299  0.012785332         1459 
 1232000   0.75784539    -8.375409    197.60608  0.013366212  0.012771898         1447 
 1233000   0.75184548   -8.3499756    198.46092  0.013413147  0.012758455         1408 
 1234000   0.76575427   -8.3634614    198.17381  0.013382888  0.012745044         1442 
 1235000   0.75700916   -8.3876328    198.21322  0.013374711   0.01273163         1439 
 1236000   0.76659931   -8.4026305    198.23622  0.013365441  0.012718174         1376 
 1237000   0.76679679   -8.3758754    198.22943  0.013354179   0.01270475         1469 
 1238000   0.75270659   -8.4004017    198.06605  0.013332394  0.012691319         1438 
 1239000   0.75721175   -8.3816223    198.12106  0.013325334  0.012677942         1467 
 1240000   0.76551112   -8.4085791     198.1828  0.013318737   0.01266455         1437 
 1241000   0.75712155   -8.4137748    197.99878  0.013295647  0.012651125         1483 
 1242000    0.7724247   -8.3954756    197.94609  0.013281407  0.012637723         1457 
 1243000     0.768827   -8.4330081    197.49857  0.013240719  0.012624294         1493 
 1244000   0.75558064   -8.4168167    198.15386  0.013273972  0.012610893         1528 
 1245000   0.76659827   -8.4362444    197.97032  0.013251025  0.012597491         1569 
 1246000    0.7694214   -8.4398805     197.6431  0.013218506  0.012584087         1555 
 1247000   0.73909394   -8.4634156    197.77483  0.013216709  0.012570716         1642 
 1248000   0.74783598   -8.4352823    197.89831  0.013214364  0.012557398         1564 
 1249000   0.76196345   -8.4240799    197.71982  0.013191875  0.012544052         1639 
 1250000   0.73734431   -8.4119869    197.78203  0.013185469  0.012530738         1558 
 1251000   0.76465265   -8.4077124    197.84692  0.013179251  0.012517422         1625 
 1252000   0.75488182   -8.4352063    197.93754  0.013174756   0.01250412         1573 
 1253000   0.75661322   -8.4471942    197.49795  0.013135006  0.012490779         1692 
 1254000    0.7564712   -8.4261574    197.97624  0.013156315  0.012477476         1604 
 1255000   0.76549877   -8.4328106    197.80294  0.013134325  0.012464195         1697 
 1256000   0.74159498   -8.4616379    197.61195  0.013111196  0.012450918         1631 
 1257000   0.76237885   -8.4464764    197.28695   0.01307922  0.012437617         1711 
 1258000   0.75767112   -8.4711795    197.15591  0.013060143  0.012424328         1669 
 1259000   0.74002373   -8.4636942    197.63935  0.013081768  0.012411043         1711 
 1260000   0.77083823   -8.4597753    197.32643   0.01305069   0.01239779         1710 
 1261000   0.73949694   -8.4765013    197.62943  0.013060364  0.012384545         1709 
 1262000   0.73544501   -8.4483369    197.39896  0.013034797  0.012371317         1729 
 1263000      0.76289   -8.4489014    197.35035  0.013021269  0.012358115         1715 
 1264000   0.75940881   -8.4703788    197.41401  0.013015164  0.012344934         1785 
 1265000   0.75599009   -8.4981194    197.52179  0.013011976  0.012331753         1749 
 1266000   0.73986239   -8.4653123    197.50528  0.013000611  0.012318556         1812 
 1267000   0.73727593   -8.4247836    197.51048  0.012990692  0.012305379         1751 
 1268000   0.73948299   -8.4797388    197.47456  0.012978086   0.01229223         1733 
 1269000   0.75929906   -8.4489706     197.5179  0.012970705  0.012279083         1787 
 1270000   0.75879449    -8.481904    197.28587  0.012945267  0.012265926         1875 
 1271000   0.75285784   -8.4876862    197.40595  0.012942955  0.012252784         1833 
 1272000   0.76227958   -8.4623752    197.16083  0.012916721  0.012239656         1828 
 1273000   0.74548009   -8.4875461    197.37412  0.012920537   0.01222651         1936 
 1274000   0.73670229   -8.4701866    197.14998  0.012895734  0.012213394         1902 
 1275000   0.73150805   -8.4949756    197.30387  0.012895678  0.012200292         1938 
 1276000   0.73340281    -8.499931    196.88297  0.012858083  0.012187173         1986 
 1277000   0.74532234   -8.4765906    197.12033  0.012863504  0.012174075         1945 
 1278000   0.72584725    -8.487147    196.98212  0.012844426  0.012160958         1968 
 1279000   0.75263853   -8.4741647    197.53379  0.012870328  0.012147858         1948 
 1280000   0.73849693   -8.4976337    196.69833  0.012805881  0.012134739         1996 
 1281000    0.7486427   -8.4879068    196.75357  0.012799477  0.012121656         2018 
 1282000   0.74613347    -8.515488    196.77931  0.012791167  0.012108619         2095 
 1283000   0.73551383   -8.4990738    197.12099   0.01280339  0.012095589         2089 
 1284000   0.75231421   -8.5295195    197.03831  0.012788052  0.012082525         2059 
 1285000   0.74620393   -8.5220605    196.88437  0.012768117  0.012069504         2099 
 1286000   0.72826674   -8.5147202     197.1485  0.012775305  0.012056508         2169 
 1287000    0.7415033   -8.5261352    197.20507  0.012769041  0.012043542         2124 
 1288000   0.74618616   -8.5362936    196.99983  0.012745848  0.012030551         2113 
 1289000   0.74051042   -8.5068979    196.82869  0.012724896  0.012017577         2030 
 1290000   0.74232084   -8.5143001    196.24878   0.01267757  0.012004595         2103 
 1291000   0.73059352   -8.5273724    196.69191  0.012696353  0.011991646         2095 
 1292000   0.72979163   -8.5308007     196.8831  0.012698858  0.011978688         2149 
 1293000   0.74518693   -8.5366157    196.89847  0.012690028  0.011965747         2169 
 1294000   0.74124942   -8.5231164    196.90121  0.012680397   0.01195282         2166 
 1295000   0.72915291    -8.528072    196.91835  0.012671708  0.011939885         2107 
 1296000   0.73089204   -8.5149046    197.02247  0.012668626  0.011926998         2105 
 1297000   0.72109576   -8.5181621    196.85931  0.012648375  0.011914126         2160 
 1298000   0.72981264   -8.5506991    196.81309  0.012635663  0.011901257         2246 
 1299000   0.73519312    -8.545534    197.04675  0.012640926  0.011888382         2239 
 1300000   0.73480073   -8.5361515     196.8693  0.012619827  0.011875518         2300 
 1301000   0.72644192   -8.5328099    196.74181  0.012601961  0.011862696         2267 
 1302000   0.74251039   -8.5614441    196.63064  0.012585167  0.011849909         2293 
 1303000   0.73763284   -8.5375788    196.53401  0.012569328  0.011837112         2293 
 1304000   0.73796996   -8.5698797    196.89097  0.012582501  0.011824333         2305 
 1305000   0.73263382    -8.544743    196.91071   0.01257412  0.011811568         2296 
 1306000   0.73861121   -8.5460451    196.37002  0.012529991   0.01179882         2245 
 1307000   0.74018613   -8.5566253    196.61139  0.012535794  0.011786075         2381 
 1308000   0.72378668   -8.5583126    196.63889  0.012527962   0.01177335         2379 
 1309000   0.72137306   -8.5466813    196.61791  0.012517056  0.011760645         2378 
 1310000   0.73029797   -8.5684778    196.41934  0.012494869  0.011747938         2422 
 1311000   0.73951972   -8.5494322    196.66832  0.012501164  0.011735257         2405 
 1312000   0.74179171   -8.5469288     196.5482  0.012484006   0.01172257         2403 
 1313000   0.72253788   -8.5835925    196.19631  0.012452165  0.011709871         2351 
 1314000   0.72086011   -8.5770519    196.44467  0.012458439  0.011697173         2457 
 1315000   0.73548283   -8.5585659    196.57421  0.012457174  0.011684494         2384 
 1316000   0.71733604   -8.5671261    196.33535  0.012432583  0.011671841         2390 
 1317000   0.72655353   -8.5792235    196.82934    0.0124544  0.011659204         2465 
 1318000    0.7131689   -8.5801061    196.65586  0.012433982  0.011646595         2500 
 1319000   0.72534152   -8.5771907    196.27846  0.012400711  0.011633972         2434 
 1320000   0.71668629   -8.5900786    196.19208  0.012385864  0.011621371         2521 
 1321000   0.71987231   -8.5575389    196.18877  0.012376279  0.011608762         2447 
 1322000   0.72130967   -8.5838248    196.18164  0.012366468  0.011596171         2548 
 1323000   0.73163793   -8.6138034    196.27122  0.012362763    0.0115836         2445 
 1324000   0.70881816    -8.587088    196.16358   0.01234665  0.011571027         2577 
 1325000   0.70421542   -8.5933297    196.24726  0.012342595  0.011558484         2508 
 1326000   0.72811631   -8.5916397    196.39652  0.012342667  0.011545974         2563 
 1327000   0.71224023   -8.5975218    196.34208  0.012329947  0.011533446         2567 
 1328000   0.71864569   -8.5936511    195.83399   0.01228878  0.011520949         2604 
 1329000   0.72817605   -8.6206659    196.18391  0.012301474  0.011508462         2567 
 1330000   0.72942156   -8.6060029    196.44289  0.012308451  0.011495974         2518 
 1331000    0.7143591   -8.6214977    196.04922  0.012274557  0.011483505         2590 
 1332000   0.72766856   -8.6312026    196.15129  0.012271727   0.01147104         2627 
 1333000   0.73041645   -8.6375789    196.16401  0.012263316  0.011458579         2694 
 1334000   0.72160093   -8.6405193    195.74755  0.012228108   0.01144612         2677 
 1335000   0.72753449   -8.6308329    196.02211  0.012236087  0.011433689         2631 
 1336000   0.72817512    -8.621432    196.17953  0.012236747  0.011421256         2520 
 1337000   0.70834336    -8.609713    196.09113  0.012222085   0.01140886         2656 
 1338000   0.74579708   -8.6346161    196.07767  0.012212112   0.01139647         2665 
 1339000   0.72128954   -8.6034421    195.54265  0.012169694  0.011384092         2679 
 1340000   0.71323401   -8.6295296     195.9768  0.012187612  0.011371727         2691 
 1341000   0.71870898   -8.6059506    195.92138  0.012175079  0.011359403         2682 
 1342000   0.72026092   -8.6393726    195.92483  0.012166221  0.011347074         2665 
 1343000   0.70736045   -8.6088004    196.55302  0.012196142  0.011334754         2768 
 1344000   0.71710439   -8.6314778    196.14551    0.0121618  0.011322423         2708 
 1345000   0.72320408   -8.6359136    195.70335  0.012125362  0.011310094         2667 
 1346000    0.7086435   -8.6384493    195.69708  0.012115966  0.011297773         2715 
 1347000   0.71975928   -8.6379535    195.45514  0.012092003  0.011285461         2706 
 1348000   0.70915564   -8.6476801     195.4696  0.012083927  0.011273168         2706 
 1349000   0.70988483   -8.6421241    195.69268   0.01208875  0.011260862         2730 
 1350000   0.72731646   -8.6655308    195.62906  0.012075868  0.011248583         2746 
 1351000   0.71018618   -8.6566066    195.41063  0.012053456  0.011236328         2718 
 1352000   0.70958682   -8.6564859    195.64229   0.01205882  0.011224108         2707 
 1353000    0.7196727   -8.6770106    195.39576  0.012034723  0.011211867         2740 
 1354000   0.70921287   -8.6183391    195.86011  0.012054414  0.011199642         2697 
 1355000   0.72127413   -8.6679877     195.6927  0.012035221  0.011187438         2831 
 1356000   0.72864649   -8.6527585    195.69256  0.012026337  0.011175228         2805 
 1357000   0.71765309   -8.6697253     195.3351  0.011995523  0.011163023         2804 
 1358000   0.73531939   -8.6687655     195.3924  0.011990206  0.011150819         2817 
 1359000    0.7011029   -8.6885774    195.11382  0.011964301  0.011138634         2780 
 1360000   0.70492986   -8.6597919    195.71891   0.01199258  0.011126465         2781 
 1361000   0.71599849     -8.67885    195.67152  0.011980867  0.011114313         2786 
 1362000    0.7027099   -8.6646302    195.67529  0.011972301   0.01110215         2833 
 1363000   0.70476447   -8.6726229    195.50299  0.011952983   0.01109001         2888 
 1364000   0.71451471   -8.6528662    195.54676  0.011946894  0.011077916         2774 
 1365000    0.7079434   -8.6848799    194.98572   0.01190389   0.01106581         2845 
 1366000   0.70301595   -8.6734205    195.50002  0.011926551   0.01105372         2867 
 1367000   0.70891963   -8.6965444    195.69036   0.01192943  0.011041629         2844 
 1368000   0.70564079   -8.6814371    195.22051  0.011892088  0.011029547         2852 
 1369000   0.71999782   -8.6692654    195.38039  0.011893133  0.011017493         2774 
 1370000   0.70795687   -8.6992189    195.27077  0.011877784  0.011005472         2914 
 1371000   0.71338369   -8.6669484    195.45875  0.011880546  0.010993461         2911 
 1372000   0.72457303    -8.679705    195.69564  0.011886276  0.010981475         2868 
 1373000   0.70001863   -8.6805522    195.26637  0.011851564  0.010969492         2835 
 1374000   0.69860623   -8.6638263    195.59446  0.011862837  0.010957519         2869 
 1375000   0.70624524     -8.68321    195.65522  0.011857892  0.010945576         2855 
 1376000   0.69994327    -8.696298    195.10333  0.011815851   0.01093366         2819 
 1377000   0.71336317   -8.7114556    195.02863  0.011802749  0.010921754         2934 
 1378000   0.70934982   -8.7037329    195.58403  0.011827771  0.010909856         2889 
 1379000   0.70334975   -8.6895195    195.71405  0.011827052  0.010897982         2871 
 1380000   0.71420372   -8.7051283    195.32089   0.01179474    0.0108861         2794 
 1381000   0.70116739    -8.703848    195.09336  0.011772469  0.010874251         2810 
 1382000   0.68768943    -8.695922     195.0416   0.01176083  0.010862401         2971 
 1383000   0.71446148   -8.6941996    195.36252  0.011771663  0.010850559         2868 
 1384000    0.7041132   -8.6992334    195.45365  0.011768645   0.01083875         2828 
 1385000   0.70142276   -8.7059173    195.54509  0.011765649  0.010826931         2794 
 1386000   0.68179798   -8.6705022    195.45237  0.011751586  0.010815139         2883 
 1387000   0.71444507   -8.6891794    195.33579  0.011736109  0.010803372         2878 
 1388000   0.71603873   -8.6779065    195.32045  0.011726732  0.010791636         2853 
 1389000   0.68780429   -8.7203961    195.09074  0.011704508  0.010779876         2854 
 1390000   0.71662987   -8.7034411    195.06028  0.011694261  0.010768148         2904 
 1391000   0.69927661   -8.7099221    194.98555  0.011681377  0.010756431         3022 
 1392000   0.69375994   -8.7002509    195.01408  0.011674693  0.010744727         2891 
 1393000   0.70346658    -8.706814    195.14966  0.011674423  0.010733031         2997 
 1394000   0.70951778   -8.6910573    195.01824  0.011658192  0.010721346         2910 
 1395000   0.67786661   -8.7002588    195.07547  0.011653254  0.010709684         2961 
 1396000   0.68953983   -8.7244318    195.13975  0.011648743  0.010698049         3026 
 1397000   0.68474303   -8.7197324    194.88609  0.011625274  0.010686416         2969 
 1398000   0.68931316   -8.7331169    195.32124  0.011642897  0.010674803         2981 
 1399000   0.70738769   -8.7144075    195.15104  0.011624436  0.010663201         2974 
 1400000   0.69228767   -8.7276225    195.10557  0.011613427  0.010651608         2930 
 1401000   0.71136018   -8.7013272    195.10127  0.011604881  0.010640034         2913 
 1402000   0.71307165     -8.71466    195.10229  0.011596665  0.010628485         2928 
 1403000   0.68811788   -8.7105716    195.40921  0.011606629  0.010616942         2960 
 1404000   0.69521784   -8.7246515    195.02538   0.01157558  0.010605412         2883 
 1405000    0.6998107   -8.7084144    195.04786  0.011568675  0.010593888         2944 
 1406000   0.69263379   -8.6939913    194.84733  0.011548561  0.010582382         2855 
 1407000   0.69707728   -8.7214297     195.1483  0.011558179  0.010570911         2904 
 1408000   0.69111909   -8.7236174    195.05025  0.011544167  0.010559454         2895 
 1409000    0.7038909   -8.7168494    194.97982  0.011531809  0.010547995         2919 
 1410000    0.6769579   -8.7154871    194.56939  0.011499373  0.010536558         2898 
 1411000   0.68391648    -8.711818    194.70615    0.0114993  0.010525141         2895 
 1412000   0.68938071   -8.6950064    195.39577  0.011531856  0.010513735         2871 
 1413000   0.69168886   -8.7395885     194.8354  0.011490646  0.010502332         2965 
 1414000   0.68775944   -8.7332504     194.9209  0.011487559  0.010490938         2887 
 1415000    0.6917263   -8.7342169    194.90902  0.011478741  0.010479546         2950 
 1416000   0.68351852   -8.7216703    194.86595    0.0114681  0.010468173         2894 
 1417000   0.67327169   -8.7482697    194.75393  0.011453419   0.01045683         2941 
 1418000   0.69777542   -8.7183459    194.97898  0.011458567  0.010445497         2970 
 1419000   0.67678069   -8.7092684    194.92435  0.011447284  0.010434195         2875 
 1420000   0.69170489   -8.7073363    194.95285  0.011440895  0.010422907         2980 
 1421000     0.691258   -8.7455467    194.85244  0.011426955  0.010411636         2915 
 1422000   0.68782896   -8.7510209    194.50303  0.011398443   0.01040038         3006 
 1423000    0.6850841   -8.7161303    194.77318  0.011406253  0.010389132         2915 
 1424000   0.68773345   -8.7343716    194.66477  0.011391899  0.010377921         3013 
 1425000   0.67915469   -8.7508574    194.41842  0.011369499  0.010366709         2975 
 1426000   0.68432477   -8.7072283    195.22404  0.011408605  0.010355512         2963 
 1427000   0.68979249   -8.7263016    194.97713  0.011386191   0.01034433         2993 
 1428000   0.66930517   -8.7186622    195.10831  0.011385873  0.010333175         2974 
 1429000   0.67693577   -8.7350967    194.89503  0.011365467  0.010322027         2956 
 1430000   0.69015629   -8.7390293     194.6781  0.011344877  0.010310892         2962 
 1431000   0.68598284   -8.7096351    195.03124  0.011357514  0.010299772         3034 
 1432000   0.69299531   -8.7377358    194.67539  0.011328875  0.010288651         2943 
 1433000   0.68287967   -8.7497752    194.77219  0.011326599  0.010277564         2989 
 1434000   0.67257601   -8.7197603    195.12431  0.011339162  0.010266499         2986 
 1435000   0.68090106   -8.7446778    195.16004  0.011333336  0.010255441         2956 
 1436000   0.68362994   -8.7281082    194.95385  0.011313478  0.010244393         2997 
 1437000   0.70091901   -8.7329937    194.47185  0.011277653  0.010233352         2954 
 1438000   0.66846498   -8.7413315    194.92209  0.011295902  0.010222326         2949 
 1439000   0.68986878   -8.7627258    194.85478  0.011284155  0.010211316         3016 
 1440000   0.68877839   -8.7487935    194.77238   0.01127155  0.010200321         3061 
 1441000   0.68581771   -8.7388299    194.87685  0.011269769  0.010189341         3032 
 1442000   0.67299616    -8.763899    194.69766  0.011251598   0.01017838         3005 
 1443000   0.68013147   -8.7362114    195.01831  0.011262319  0.010167434         3033 
 1444000   0.66548504    -8.734951    194.73625  0.011238241  0.010156494         2996 
 1445000   0.66918312   -8.7632543    195.00826  0.011246151  0.010145564         2991 
 1446000   0.67018156   -8.7550497    194.82504  0.011227815   0.01013465         3092 
 1447000   0.67959601   -8.7371654    194.65473  0.011210247  0.010123748         2984 
 1448000   0.67671506   -8.7424237    194.87936  0.011215433  0.010112872         2935 
 1449000   0.67501553   -8.7559242    194.66449  0.011195335  0.010102002         2958 
 1450000   0.66266414   -8.7583692    195.01849  0.011207959  0.010091157         3034 
 1451000   0.68239068   -8.7551136    194.71753   0.01118295  0.010080312         2984 
 1452000   0.66633513   -8.7762981    194.30633  0.011151649  0.010069476         3013 
 1453000      0.68567   -8.7604126    194.52985  0.011156794  0.010058659         2974 
 1454000   0.67450067   -8.7549056    194.65927  0.011156538  0.010047859         2989 
 1455000   0.66785969    -8.744347     194.8145  0.011157761   0.01003707         2944 
 1456000   0.70347196   -8.7389158    195.05604  0.011163922  0.010026314         2889 
 1457000   0.66658631   -8.7769221    194.70354  0.011136098  0.010015585         2961 
 1458000   0.67423257   -8.7594791    194.61076  0.011123157  0.010004848         2919 
 1459000   0.67729052   -8.7885536     194.6726  0.011119065 0.0099941356         3056 
 1460000   0.65748648   -8.7437672    194.92275  0.011125728 0.0099834271         2970 
 1461000   0.67788742   -8.7610411    194.43887  0.011090513 0.0099727359         2963 
 1462000   0.66438602   -8.7815958     194.0633   0.01106152  0.009962052         2988 
 1463000   0.68318466   -8.7721144    194.60806  0.011084988  0.009951383         2959 
 1464000   0.67733717   -8.7514817    194.81111  0.011088975 0.0099407129         2950 
 1465000   0.66939038    -8.772447    194.70839  0.011075563 0.0099300773         3016 
 1466000   0.66145636    -8.766249    194.45172  0.011053417 0.0099194422         3037 
 1467000     0.655048   -8.7737704    194.74386  0.011062478 0.0099088279         3003 
 1468000   0.66836604   -8.7690818    194.39977  0.011035409 0.0098982201         2942 
 1469000   0.66890739   -8.7912329    194.64908   0.01104204 0.0098876359         3003 
 1470000   0.67652668   -8.7749706    194.65903  0.011035093 0.0098770664         3019 
 1471000   0.66308419   -8.7984043    194.29674  0.011007067  0.009866505         2993 
 1472000    0.6717239   -8.7692154    194.35929   0.01100313 0.0098559547         3032 
 1473000   0.67592061   -8.7734072    194.57129  0.011007654 0.0098454139         3065 
 1474000   0.67321288   -8.7758796    194.25787  0.010982466 0.0098349011         3066 
 1475000   0.65916433   -8.7774531    194.52628  0.010990185  0.009824395         2992 
 1476000   0.66098054   -8.7631741    194.40695  0.010976002 0.0098138939         3029 
 1477000   0.66728285   -8.7863005    194.38839  0.010967524  0.009803424         3077 
 1478000   0.67398094   -8.7635438    194.52262  0.010967672 0.0097929629         2985 
 1479000   0.65189372   -8.7520374     194.5533  0.010961985 0.0097825102         3028 
 1480000    0.6412889   -8.7784916    194.56066  0.010954992 0.0097720634         3035 
 1481000   0.66204452   -8.7678292    194.40874  0.010939047 0.0097616311         2986 
 1482000   0.66133719   -8.7799976    194.27044  0.010923889 0.0097512307         2969 
 1483000    0.6584187    -8.793807    194.27478  0.010916767 0.0097408352         2967 
 1484000   0.66630884   -8.7767763    194.33857  0.010912992 0.0097304431         3068 
 1485000   0.65919594   -8.7937747     194.3886  0.010908451 0.0097200676         3005 
 1486000   0.66380706   -8.7898217    194.90082  0.010929835 0.0097097149         3063 
 1487000   0.64936761   -8.7749013    194.29169  0.010888348 0.0096993628         3105 
 1488000   0.65630389   -8.7980339    194.33839  0.010883646 0.0096890274         3056 
 1489000   0.65925501   -8.8065105    194.44786  0.010882464 0.0096787203         2979 
 1490000   0.64329812   -8.7765742    194.30723  0.010867295 0.0096684233         2999 
 1491000   0.66625434   -8.7937747    194.42066  0.010866346 0.0096581351         2996 
 1492000   0.65639481   -8.7772013    194.19324   0.01084636 0.0096478574         3017 
 1493000   0.65749246   -8.7361964    194.47514   0.01085483 0.0096376154         2993 
 1494000   0.65327779   -8.7700374    194.12117  0.010827821  0.009627373         2992 
 1495000   0.65908281   -8.7785267    194.84152  0.010860731 0.0096171542         2979 
 1496000   0.66132533   -8.7995298    194.14446  0.010814642  0.009606929         3013 
 1497000    0.6568951   -8.7945207    194.53445  0.010829128 0.0095967226         3016 
 1498000    0.6555555   -8.7864232    194.58079  0.010824476 0.0095865262         3029 
 1499000   0.64737655    -8.806661    194.25303  0.010799034 0.0095763358         3003 
 1500000   0.65971767   -8.7845371    194.40586  0.010800326 0.0095661768         2972 
 1501000   0.66646255   -8.7804041    194.29466  0.010786957 0.0095560272         3033 
 1502000   0.64168596   -8.7998955    194.21326  0.010775259 0.0095458825         3032 
 1503000   0.64880489   -8.7922055    194.28801  0.010772234  0.009535758         3027 
 1504000   0.64355059   -8.7977064    194.45817    0.0107745 0.0095256504         3056 
 1505000    0.6483509   -8.8206542    194.38482  0.010763279 0.0095155515         3049 
 1506000   0.65477638   -8.7931314    194.38644  0.010756222 0.0095054642         2974 
 1507000   0.67213501   -8.7789073    194.27186  0.010742748  0.009495395         2990 
 1508000   0.65309844   -8.8132865    194.03037  0.010722279 0.0094853336         3020 
 1509000    0.6615126   -8.8292865    194.49979  0.010741097 0.0094752884         3053 
 1510000   0.65387332   -8.8005829    194.63289   0.01074133 0.0094652536         3042 
 1511000   0.65962185   -8.7917164    194.41799  0.010722369 0.0094552471         2987 
 1512000   0.64240409   -8.7860697     194.2971  0.010708615 0.0094452351         3049 
 1513000   0.63968581    -8.804815     194.3716   0.01070564 0.0094352486         2995 
 1514000   0.66130595   -8.7834801    194.18692  0.010688404 0.0094252696         3036 
 1515000   0.65524613   -8.7925277    194.33564  0.010689529 0.0094153036         3057 
 1516000   0.65880404   -8.8217891    194.11399  0.010670294 0.0094053526         3058 
 1517000    0.6563112   -8.8225284     194.0394  0.010659163 0.0093954237         3024 
 1518000   0.65578699   -8.7687642    194.62197  0.010684122 0.0093855011         3061 
 1519000   0.64763279       -8.803    194.34746  0.010662029 0.0093755901         3064 
 1520000   0.63418005   -8.8056806    194.15974  0.010644722 0.0093656953         3047 
 1521000   0.63640169   -8.8100244     193.8262   0.01061945 0.0093558103         3123 
 1522000   0.65288872    -8.834271     194.1172  0.010628406 0.0093459323         3118 
 1523000   0.66011278   -8.7846889    194.49265   0.01064197  0.009336082         3055 
 1524000   0.65336769   -8.8285053    194.36422  0.010627965 0.0093262474         3113 
 1525000   0.65188359   -8.7922094     194.5243  0.010629743 0.0093164138         3003 
 1526000   0.64259106   -8.8138782    194.16734  0.010603284  0.009306588         3076 
 1527000   0.64412203   -8.8196571    194.15251  0.010595531 0.0092967896         3051 
 1528000   0.64312074    -8.801742    194.27704  0.010595388 0.0092869896         3047 
 1529000   0.65021425   -8.8082388    193.63872  0.010553669  0.009277189         3027 
 1530000   0.64532282    -8.811908    193.79154  0.010555095 0.0092674209         3041 
 1531000   0.65150837   -8.8182015    194.03733  0.010561579 0.0092576603         3013 
 1532000   0.65634958   -8.8225922    193.94264  0.010549534 0.0092479141         3023 
 1533000     0.642178   -8.8055081    194.12541  0.010552588  0.009238167         3033 
 1534000   0.63922478    -8.802495    193.89707  0.010533305 0.0092284467         3032 
 1535000   0.64821265   -8.8228757    194.18977  0.010542333  0.009218738         3083 
 1536000   0.62671936   -8.8177988    193.95226  0.010522584 0.0092090491         3097 
 1537000   0.64217059   -8.8166419    194.17649  0.010527895 0.0091993626         3009 
 1538000   0.63736797   -8.8223771    193.87776  0.010504863 0.0091896894         3048 
 1539000   0.64603042   -8.7838413    194.11779  0.010511035 0.0091800396         3058 
 1540000   0.62335441   -8.8405763    193.80655  0.010487367 0.0091703825         3100 
 1541000   0.63740251   -8.7965818     193.8349  0.010482095 0.0091607497         3044 
 1542000   0.63838764   -8.8117874    194.06177  0.010487558 0.0091511357         3026 
 1543000   0.64553609   -8.8099216    194.04032  0.010479603 0.0091415295         3134 
 1544000   0.63570599    -8.808418    194.25792  0.010484559 0.0091319347         3087 
 1545000   0.64080259   -8.8152803    194.03646  0.010465828 0.0091223485         3070 
 1546000   0.63403429   -8.8068131    194.03612  0.010459041 0.0091127965         3066 
 1547000   0.64106733   -8.8247153    193.93446  0.010446804 0.0091032341         3015 
 1548000   0.63552399   -8.8348177    194.19361  0.010454006 0.0090936882         3079 
 1549000   0.62382769   -8.8171348     194.1167  0.010443119 0.0090841759         3106 
 1550000   0.63356777   -8.8130478    194.71675  0.010468643 0.0090746652         2950 
 1551000   0.63884926   -8.8339283    193.97288  0.010421926 0.0090651607         3104 
 1552000   0.63068106   -8.8305014    193.95987  0.010414512 0.0090556759         3043 
 1553000   0.62848921   -8.8129825    193.70809  0.010394296 0.0090462086         3075 
 1554000   0.62819675   -8.8208186    193.62767  0.010383294 0.0090367433         3060 
 1555000    0.6314094   -8.8207101    193.94823  0.010393796  0.009027305         3063 
 1556000   0.63467161   -8.8224948    194.38196  0.010410345 0.0090178732         3052 
 1557000   0.63441717   -8.8430852     194.1291  0.010390125 0.0090084506         3065 
 1558000    0.6162991   -8.8261036    194.09831  0.010381809 0.0089990361         3052 
 1559000   0.62417032   -8.8230838    194.20466  0.010380835 0.0089896402         3052 
 1560000   0.63854832   -8.8466693    193.98181  0.010362276 0.0089802598         3119 
 1561000   0.61823874   -8.8317586     193.9761  0.010355333 0.0089708903         3093 
 1562000   0.62596794   -8.8410581    193.74188  0.010336208 0.0089615265         3085 
 1563000   0.62906073    -8.828732    193.68737  0.010326688 0.0089521711         3023 
 1564000   0.62481291   -8.8151771    194.08139   0.01034108 0.0089428242         3056 
 1565000    0.6307508   -8.8510025    193.70389  0.010314371 0.0089335008         3016 
 1566000   0.63530405   -8.8326382    193.93788  0.010320236 0.0089241861         3054 
 1567000   0.62068091   -8.8393944    194.16014   0.01032547  0.008914888         3019 
 1568000   0.62314854   -8.8406744    193.85975  0.010302921 0.0089055966         3025 
 1569000   0.62451414   -8.8340479    194.01539   0.01030462  0.008896316         3067 
 1570000   0.64624657   -8.8205941    194.05209  0.010300005 0.0088870438         3029 
 1571000    0.6023802   -8.8275613    194.01596  0.010291532 0.0088777857         3034 
 1572000   0.62968269   -8.8216675    194.06159  0.010287404 0.0088685407         3041 
 1573000   0.62409729   -8.8368664    193.69544  0.010261466 0.0088593023         3086 
 1574000   0.61364175   -8.8249274    194.38946  0.010291691 0.0088500893         2980 
 1575000   0.61581723   -8.8370272     193.9622   0.01026255 0.0088408839         3027 
 1576000   0.62500681   -8.8377976    193.72833  0.010243672 0.0088316869         3069 
 1577000   0.63372874   -8.8271773    193.58024  0.010229351 0.0088224993         3086 
 1578000   0.61221465   -8.8496124    193.71702  0.010230092  0.008813324         3118 
 1579000   0.62654343   -8.8356087    194.17595  0.010247834 0.0088041649         3032 
 1580000   0.61399582   -8.8350806    193.91544  0.010227608 0.0087950147         3048 
 1581000   0.62108032   -8.8385695    193.80898  0.010215527 0.0087858856         3066 
 1582000   0.61810703   -8.8304689    193.84745  0.010211096  0.008776773         3000 
 1583000    0.6200913    -8.838742    193.77573   0.01020087 0.0087676636         3095 
 1584000    0.6188294   -8.8616366     193.5138   0.01018065 0.0087585708         3047 
 1585000   0.61175134   -8.8433143    194.09518  0.010204794  0.008749493         3055 
 1586000   0.63300807   -8.8332723    193.36296  0.010159886 0.0087404357         3023 
 1587000   0.64006893   -8.8410991     193.7373  0.010173141 0.0087313759         3026 
 1588000   0.60229718   -8.8472769    193.89886  0.010175213 0.0087223367         3048 
 1589000   0.61928304   -8.8505871    193.68674  0.010157685 0.0087133037         3066 
 1590000   0.61958488   -8.8375411    194.07745  0.010171774  0.008704286         3012 
 1591000   0.62830765   -8.8557236    193.76057  0.010148783 0.0086952844         3052 
 1592000   0.62600676   -8.8523655    193.87893  0.010148604 0.0086862853         3042 
 1593000   0.61641439   -8.8539739    193.77429  0.010136759 0.0086772988         3056 
 1594000   0.62064307   -8.8795045    193.49644  0.010115874 0.0086683229         3070 
 1595000   0.61049934   -8.8444885    193.79984  0.010125384 0.0086593656         3003 
 1596000   0.60385443   -8.8728996    193.55144  0.010106069 0.0086504148         3067 
 1597000   0.61167827   -8.8685312     193.4099  0.010092356 0.0086414719         3093 
 1598000   0.61782675   -8.8705475    193.59418   0.01009565 0.0086325448         3086 
 1599000   0.60756314   -8.8498922    193.77443   0.01009873 0.0086236391         3034 
 1600000   0.60733797   -8.8584984    193.62394   0.01008458 0.0086147399         3062 
 1601000   0.62158975     -8.87869    193.75528  0.010085117 0.0086058548         3146 
 1602000   0.61005344   -8.8553958    193.73641  0.010077841 0.0085969812         3111 
 1603000   0.61802852   -8.8458755    193.71371  0.010070374 0.0085881094         3044 
 1604000   0.61193032   -8.8433788     193.5343  0.010054775 0.0085792582         3077 
 1605000    0.6136498   -8.8590715    193.52774  0.010048169 0.0085704136         3101 
 1606000   0.60545273   -8.8786545    193.64057  0.010047767 0.0085615852         3074 
 1607000   0.59933946   -8.8646827    193.59662  0.010039236 0.0085527629         3072 
 1608000   0.61117357   -8.8552068    193.62274  0.010034346 0.0085439517         3116 
 1609000   0.61571873    -8.872225    193.63007  0.010028489 0.0085351575         3125 
 1610000   0.59740014    -8.860776    193.56126  0.010018699 0.0085263775         3163 
 1611000   0.62170711   -8.8633989    193.76497  0.010023017 0.0085176058         3129 
 1612000   0.60422441   -8.8693321    193.62702  0.010009668 0.0085088454         3141 
 1613000    0.6076265   -8.8607524    193.55195  0.009999584 0.0085000973         3128 
 1614000   0.60283039   -8.8589674    193.48283 0.0099898197 0.0084913674         3194 
 1615000   0.60305829   -8.8721523    193.76918 0.0099984095  0.008482636         3126 
 1616000   0.59368154   -8.8430208    193.36736 0.0099715015 0.0084739278         3093 
 1617000   0.61197346   -8.8670287    193.62514 0.0099786198 0.0084652237         3109 
 1618000   0.60810972   -8.8796207    193.52926 0.0099675146 0.0084565356         3046 
 1619000   0.60668113   -8.8920827    193.36356 0.0099528291 0.0084478597         3086 
 1620000     0.595708   -8.8516217    193.22275 0.0099394416 0.0084391999         3079 
 1621000   0.60247832   -8.8911337    193.12943 0.0099285126 0.0084305371         3101 
 1622000   0.60013829   -8.8619927    193.44136 0.0099384175    0.0084219         3046 
 1623000   0.59857804   -8.8528537    193.68367 0.0099447358  0.008413266         3079 
 1624000   0.60574189   -8.8556846    193.53781 0.0099311274  0.008404641         3109 
 1625000    0.6048608   -8.8641896     193.5421 0.0099252357 0.0083960233         3104 
 1626000   0.60541908   -8.8899869    193.17859 0.0099005019 0.0083874196         3137 
 1627000   0.62419854   -8.8733999    193.71264 0.0099217699 0.0083788242         3105 
 1628000   0.60358663   -8.8634363    193.46869 0.0099031886 0.0083702406         3100 
 1629000   0.60264359   -8.8866072    193.37646 0.0098923911 0.0083616678         3125 
 1630000    0.6147271   -8.8695014    193.42023 0.0098885596 0.0083531209         3083 
 1631000   0.60358272   -8.8645629    193.59048 0.0098911957 0.0083445806         3084 
 1632000   0.59633445   -8.8716591    193.47886 0.0098794352 0.0083360361         3112 
 1633000   0.62153826   -8.9080524    193.18393 0.0098583348 0.0083275151         3096 
 1634000   0.60723422   -8.8823977    193.20032 0.0098531375 0.0083189944         3081 
 1635000   0.61396687   -8.8939266    193.56077 0.0098654828 0.0083104952         3131 
 1636000   0.60874225   -8.8820557    193.28118 0.0098452108 0.0083020115         3107 
 1637000   0.60199405   -8.9031459    193.25684 0.0098379578 0.0082935334         3051 
 1638000   0.61369476   -8.8501614    193.22811 0.0098304899 0.0082850659         3073 
 1639000   0.59805152   -8.8737692    193.52969 0.0098398254 0.0082766226         3118 
 1640000   0.60463793   -8.8657033    193.47199  0.009830894 0.0082681821         3102 
 1641000   0.59364337   -8.8935755    193.17918 0.0098100335 0.0082597535         3096 
 1642000   0.59938084   -8.8880176     193.3466 0.0098125557 0.0082513337         3106 
 1643000   0.60499602   -8.8731568    192.93469 0.0097856915 0.0082429142         3177 
 1644000   0.59623542   -8.8969554     193.2696 0.0097967153 0.0082345175         3135 
 1645000   0.59070963   -8.8807551    193.17386   0.00978591 0.0082261308         3069 
 1646000   0.58611743   -8.8899778    193.07943 0.0097751836 0.0082177557         3114 
 1647000   0.57900641   -8.8787603    193.52548 0.0097918174 0.0082093888         3104 
 1648000   0.58098908   -8.8732034    193.40362 0.0097797137 0.0082010344         3062 
 1649000    0.5927043   -8.8969035    193.33617 0.0097703745  0.008192691         3092 
 1650000   0.58692313   -8.8876801     193.2547 0.0097603384 0.0081843546         3122 
 1651000   0.59486322    -8.889138    193.25719 0.0097545523 0.0081760343         3063 
 1652000   0.60048397   -8.8728929    193.44614  0.009758179 0.0081677342         3068 
 1653000   0.61012256   -8.8921565    193.28174 0.0097439877 0.0081594407         3116 
 1654000    0.5960365   -8.8505323    193.20393 0.0097341761 0.0081511662         3018 
 1655000   0.60636972   -8.8821871    193.45937 0.0097411564 0.0081429002         3115 
 1656000   0.59389019   -8.9236285    193.32103 0.0097283129 0.0081346412         3113 
 1657000   0.58887052   -8.8904095    193.08769 0.0097107067 0.0081263891         3088 
 1658000   0.60028482   -8.8792519    193.31723 0.0097163868 0.0081181508         3130 
 1659000   0.59848921    -8.898944    193.56084 0.0097227669 0.0081099253         3114 
 1660000   0.58752137   -8.8833079    193.06674 0.0096921056 0.0081017059         3112 
 1661000   0.58105231   -8.8924493    193.39026 0.0097025014 0.0080934987         3122 
 1662000   0.58584273   -8.8896278    193.24056 0.0096891577 0.0080853116         3035 
 1663000   0.57446316   -8.8870959    193.43458 0.0096930537 0.0080771304         3148 
 1664000   0.58593877   -8.8999862    193.24119 0.0096775435 0.0080689516         3106 
 1665000   0.57907995   -8.8766667    193.31163 0.0096752566 0.0080607879         3104 
 1666000   0.58811451   -8.8987431    193.23167 0.0096654497 0.0080526361         3143 
 1667000   0.58337573   -8.8782635    193.64398  0.009680263 0.0080444997         3092 
 1668000   0.58555687   -8.9032854    193.20195 0.0096523754 0.0080363657         3131 
 1669000   0.60028383   -8.9110284    193.06636 0.0096398221 0.0080282457         3067 
 1670000   0.58874611   -8.8792475    193.38687 0.0096500434 0.0080201354         3097 
 1671000   0.57806535   -8.9040031     193.0282 0.0096263812 0.0080120381         3151 
 1672000   0.57712709   -8.8923332    193.16206 0.0096272957 0.0080039512         3097 
 1673000   0.57479155    -8.897071    193.10898 0.0096188974 0.0079958681         3138 
 1674000   0.58012959   -8.9057882     192.9982 0.0096076366 0.0079878017         3076 
 1675000   0.58129717   -8.8948194    193.18577 0.0096112322 0.0079797435         3098 
 1676000   0.56889846   -8.8974216    192.84326 0.0095884678 0.0079716961         3110 
 1677000    0.5734318   -8.8816371    193.35522 0.0096081903 0.0079636611         3109 
 1678000   0.58843929   -8.9091994    193.27014 0.0095982392 0.0079556416         3093 
 1679000    0.5829156   -8.9183023    193.10126 0.0095841404 0.0079476274         3113 
 1680000   0.57918333     -8.89429    193.13813 0.0095802643 0.0079396262         3101 
 1681000   0.57962242   -8.9047939    193.21879 0.0095785637 0.0079316373         3123 
 1682000   0.58803362   -8.8935323     193.0001 0.0095620343  0.007923646         3077 
 1683000   0.58873642   -8.9193069    193.05233  0.009558939  0.007915677         3150 
 1684000   0.58027513   -8.9163191    192.82833 0.0095421778 0.0079077212         3103 
 1685000    0.5700479   -8.9332526    193.26168 0.0095579464 0.0078997586         3119 
 1686000   0.58214654   -8.9128702    193.16231  0.009547366 0.0078918056         3095 
 1687000   0.57653593   -8.9203288    193.03972 0.0095356513 0.0078838664         3149 
 1688000   0.57470926   -8.9017113    192.95694 0.0095259155 0.0078759431         3149 
 1689000   0.57695059   -8.9145615     193.0955 0.0095271117 0.0078680322         3077 
 1690000   0.56027281   -8.9273963    193.10799 0.0095220904 0.0078601257         3169 
 1691000   0.57415421   -8.9018078    193.06931 0.0095145529 0.0078522292         3124 
 1692000   0.58451035   -8.9134671    193.00785 0.0095059028 0.0078443435         3138 
 1693000   0.58844974   -8.9199553    193.15806 0.0095076817 0.0078364696         3130 
 1694000   0.57152866   -8.9238083    193.03052 0.0094957952 0.0078286098         3131 
 1695000   0.58113239   -8.9083645    192.96609 0.0094870252 0.0078207638         3129 
 1696000   0.57325874   -8.9400855    192.99232 0.0094827204 0.0078129237         3147 
 1697000   0.57598274   -8.9062277    192.93747 0.0094744388 0.0078050915         3141 
 1698000   0.56701509    -8.926118     193.1033 0.0094769977  0.007797271         3154 
 1699000   0.58832397   -8.9181655    193.20892    0.0094766 0.0077894526         3121 
 1700000   0.58630833   -8.9249798    192.90058  0.009455911 0.0077816597         3118 
 1701000    0.5838061   -8.9132866    192.81156 0.0094459903 0.0077738668         3063 
 1702000   0.56892261   -8.9228627      193.009 0.0094501078 0.0077660861         3108 
 1703000   0.56755439   -8.9390148    193.08068 0.0094480663 0.0077583242         3163 
 1704000   0.57397699   -8.9150147    193.05285 0.0094411607 0.0077505617         3173 
 1705000   0.58324515   -8.9226169    192.86793  0.009426585 0.0077428042         3030 
 1706000   0.57023827     -8.91516     193.0545 0.0094301729 0.0077350723         3087 
 1707000   0.57446153   -8.9246878    193.12497 0.0094280887 0.0077273439         3084 
 1708000   0.57882506   -8.9314914    192.76597  0.009405053 0.0077196326         3084 
 1709000   0.58689595   -8.9228441    193.06378 0.0094140714 0.0077119352         3078 
 1710000   0.57213849   -8.9453553    192.70936 0.0093912943 0.0077042356         3128 
 1711000   0.56760692   -8.9279617    192.95277 0.0093976609 0.0076965576         3090 
 1712000   0.56977711    -8.921638    192.97372 0.0093931911 0.0076888841         3118 
 1713000   0.57650046   -8.9351567    193.26341 0.0094018005 0.0076812284         3105 
 1714000    0.5791784   -8.9237382    192.98885 0.0093829663 0.0076735841         3096 
 1715000   0.56368116   -8.9311476    192.93995 0.0093751191 0.0076659422         3133 
 1716000   0.57230635   -8.9185023    193.08002 0.0093764577 0.0076583136         3076 
 1717000   0.57457393   -8.9295604    192.97518 0.0093659085 0.0076506891         3087 
 1718000   0.57671407   -8.9244349    192.69204 0.0093467231 0.0076430666         3122 
 1719000   0.56550184   -8.9341909    193.05332 0.0093587998 0.0076354531         3153 
 1720000   0.56837327   -8.9384902     193.1738 0.0093591958 0.0076278504         3100 
 1721000     0.574707   -8.9384446    192.67995 0.0093298445 0.0076202638         3078 
 1722000   0.56598069   -8.9324621    192.60655 0.0093208742 0.0076126938         3144 
 1723000   0.56684033   -8.9320851    193.00572 0.0093347709 0.0076051276         3150 
 1724000   0.56726703   -8.9534337    193.23751 0.0093405603 0.0075975696         3087 
 1725000   0.56205491   -8.9354689    192.89112 0.0093184115 0.0075900329         3063 
 1726000   0.56296604   -8.9332915    192.86076  0.009311547 0.0075824944         3102 
 1727000   0.54810959   -8.9506447     192.8669 0.0093064512 0.0075749727         3125 
 1728000   0.55310216    -8.948322    192.84303 0.0092999148 0.0075674559         3138 
 1729000   0.56588201   -8.9506494    192.96705 0.0093005134 0.0075599428         3107 
 1730000   0.56153924    -8.942703    193.11218 0.0093021284 0.0075524468         3186 
 1731000   0.55782157   -8.9224392    192.89231 0.0092861695 0.0075449568         3107 
 1732000   0.56611358   -8.9465753    192.80384 0.0092765512 0.0075374758         3142 
 1733000   0.56105486   -8.9525542    192.77067 0.0092696032 0.0075299991         3071 
 1734000   0.58738561   -8.9272676    192.97046 0.0092738593 0.0075225435         3119 
 1735000   0.56258418   -8.9350038     192.7885 0.0092597742 0.0075150957         3048 
 1736000   0.54840212   -8.9153894    192.82057 0.0092559799 0.0075076526         3103 
 1737000   0.55010493   -8.9504345    192.88771 0.0092538719  0.007500216         3133 
 1738000   0.55376144    -8.946412    192.48301 0.0092291432 0.0074927911         3118 
 1739000   0.55555467   -8.9478673    192.73134 0.0092357361 0.0074853761         3149 
 1740000   0.56184719   -8.9578722    192.99922 0.0092432578 0.0074779709         3114 
 1741000   0.55706615   -8.9442055    192.89418 0.0092329208 0.0074705743         3147 
 1742000   0.55448393   -8.9479726    192.97793 0.0092316269 0.0074631903         3117 
 1743000   0.54629947   -8.9364082    192.59656  0.009208097 0.0074558061         3097 
 1744000   0.55465326   -8.9603012     192.6314 0.0092044819 0.0074484421         3114 
 1745000   0.56877107   -8.9454247     192.3708 0.0091867619 0.0074410876         3121 
 1746000   0.56681457   -8.9407782    192.78218  0.009201135 0.0074337367         3113 
 1747000   0.55315193    -8.946396    192.67608 0.0091908072 0.0074263997         3077 
 1748000    0.5640588   -8.9610328    192.71476 0.0091873934 0.0074190685         3148 
 1749000   0.55190478   -8.9711309    192.77812 0.0091851593 0.0074117429         3116 
 1750000   0.53882566   -8.9608787    192.83643 0.0091826871 0.0074044314         3189 
 1751000    0.5554979   -8.9467812    192.99804 0.0091851341 0.0073971259         3078 
 1752000   0.54284112   -8.9490891    192.55564  0.009158849 0.0073898391         3072 
 1753000   0.54842548   -8.9629516    192.93311 0.0091715683 0.0073825574         3115 
 1754000   0.56141038   -8.9505851    192.56393 0.0091487993 0.0073752851         3113 
 1755000   0.56108493   -8.9633302    192.71251 0.0091506414 0.0073680226         3072 
 1756000   0.53992298   -8.9436614    192.64615 0.0091422814 0.0073607625         3110 
 1757000   0.56337477   -8.9669681    192.62963 0.0091362943 0.0073535105         3134 
 1758000   0.56212095   -8.9424429    192.96754 0.0091471149 0.0073462824         3155 
 1759000   0.54655098   -8.9507322    192.48715 0.0091191562  0.007339055         3134 
 1760000   0.55154532   -8.9556684    192.54567 0.0091167456 0.0073318344         3156 
 1761000    0.5589274   -8.9697152     192.6852 0.0091181715 0.0073246222         3119 
 1762000   0.54924252   -8.9471244    192.50989 0.0091047052 0.0073174182         3080 
 1763000   0.55347226   -8.9542054    192.62985 0.0091052112 0.0073102199         3101 
 1764000   0.54726816   -8.9607664    192.59084 0.0090982067 0.0073030395         3090 
 1765000   0.53754097    -8.953875    192.66558 0.0090965809 0.0072958726         3105 
 1766000   0.55344195    -8.965552    192.36231 0.0090771191 0.0072887189         3131 
 1767000   0.54848736    -8.964965    192.48456 0.0090777478 0.0072815664         3055 
 1768000   0.54610005   -8.9592262     192.5692 0.0090766024 0.0072744234         3156 
 1769000   0.55883297   -8.9667724    192.76875 0.0090808718 0.0072672851         3115 
 1770000   0.54960167   -8.9883034    192.68264 0.0090716873  0.007260162         3123 
 1771000   0.53286146   -8.9734347    192.50094 0.0090580151  0.007253044         3083 
 1772000   0.54761743   -8.9899544    192.47517 0.0090516916 0.0072459323         3174 
 1773000   0.53696607   -8.9692052    192.57208 0.0090511413 0.0072388286         3120 
 1774000   0.54602525     -8.97994    192.47726  0.009041585 0.0072317335         3088 
 1775000   0.54617775   -8.9589299    192.47588 0.0090364264 0.0072246567         3133 
 1776000   0.55709666   -8.9534246    192.50534 0.0090327207 0.0072175784         3127 
 1777000   0.53628742   -8.9635344    192.29617 0.0090178285 0.0072105092         3094 
 1778000   0.53776435   -8.9944679     192.4367 0.0090193429  0.007203458         3132 
 1779000   0.53534181   -8.9728518    192.54216 0.0090192132 0.0071964163         3170 
 1780000   0.55347405   -8.9886916    192.35318 0.0090052987 0.0071893734         3149 
 1781000   0.54050895   -8.9722864    192.50663 0.0090074224 0.0071823477         3107 
 1782000   0.54148137   -8.9849578    192.71468 0.0090120971 0.0071753325         3146 
 1783000   0.53806748   -8.9719367    192.49398 0.0089967274 0.0071683279         3102 
 1784000   0.54414723   -8.9733104    192.50137 0.0089920296 0.0071613239         3147 
 1785000   0.55699123   -8.9683087    192.25676 0.0089755723 0.0071543357         3150 
 1786000   0.53861194   -8.9664154    192.73707 0.0089929579 0.0071473597         3159 
 1787000   0.54375992   -8.9718809    192.46546 0.0089752593 0.0071403855         3154 
 1788000   0.53987639   -8.9791308    192.60031 0.0089765247 0.0071334225         3207 
 1789000    0.5400314   -8.9586583    192.03282 0.0089450727 0.0071264692         3137 
 1790000   0.53969673   -8.9946381    192.50733  0.008962166   0.00711953         3118 
 1791000   0.53614592   -8.9704406    192.28376   0.00894676 0.0071125952         3168 
 1792000   0.53414902   -8.9627018    192.52418 0.0089529471 0.0071056711         3198 
 1793000   0.52748047   -8.9949215    192.57661 0.0089503909 0.0070987509         3127 
 1794000   0.53277249   -8.9789793     192.5936 0.0089461912 0.0070918349         3182 
 1795000   0.55569376   -8.9872199    192.25628 0.0089255468 0.0070849273         3128 
 1796000   0.54499171   -8.9966132    192.74483 0.0089432455 0.0070780301         3182 
 1797000   0.53446549   -8.9919342    192.65674 0.0089341838 0.0070711403         3230 
 1798000   0.54440014   -8.9859984    192.26993 0.0089112872 0.0070642594         3109 
 1799000   0.53236549   -8.9949732    192.58327 0.0089208482 0.0070573932         3154 
 1800000   0.53066652   -8.9879503    192.44884 0.0089096687 0.0070505293         3186 
 1801000   0.52031968   -9.0022048    192.26682 0.0088962991  0.007043677         3149 
 1802000   0.52769643   -8.9709114     192.7011 0.0089114458 0.0070368412         3153 
 1803000   0.53782658   -8.9805598    192.20519 0.0088835825 0.0070300033         3169 
 1804000   0.54689764   -8.9930443    192.33494 0.0088846515 0.0070231822         3161 
 1805000   0.54219409   -8.9983817     192.4606  0.008885531 0.0070163706         3116 
 1806000   0.53454655    -8.988227    192.37484 0.0088766537 0.0070095635         3171 
 1807000   0.53290984   -8.9925766    192.39145 0.0088725072 0.0070027642         3177 
 1808000   0.52450065   -8.9995326    192.31873 0.0088642482 0.0069959711         3187 
 1809000   0.52539742   -8.9955552    192.14602  0.008851392 0.0069891885         3133 
 1810000   0.52698702   -9.0126542    192.54377 0.0088648144 0.0069824248         3111 
 1811000   0.53455657   -8.9952853    192.60386 0.0088626846 0.0069756641         3116 
 1812000   0.53404894   -8.9966055    192.44031 0.0088502718  0.006968917         3159 
 1813000   0.53178918   -8.9803805    192.68367 0.0088565761 0.0069621733         3156 
 1814000   0.52988654   -8.9864065    192.59082 0.0088474284 0.0069554426         3167 
 1815000   0.53229047   -8.9800786    192.55666 0.0088409852 0.0069487237         3115 
 1816000   0.52265121   -9.0051844    192.09785 0.0088150629 0.0069420038         3158 
 1817000   0.52658511   -9.0117501    192.01029 0.0088061955 0.0069352968         3120 
 1818000    0.5283631   -8.9863844    192.06771 0.0088039836 0.0069285889         3158 
 1819000   0.52863323   -8.9866163     192.4299 0.0088157368 0.0069218985         3157 
 1820000   0.52549755   -9.0030268    192.07893 0.0087948226 0.0069152089         3164 
 1821000   0.52600353   -8.9874252    192.38189 0.0088038575 0.0069085353         3155 
 1822000   0.51265122   -9.0023514    192.15391 0.0087885979 0.0069018675         3178 
 1823000   0.52228907   -8.9986314    192.20012 0.0087858894 0.0068952082         3146 
 1824000   0.52907141   -8.9831713    192.18504 0.0087803836 0.0068885541         3178 
 1825000   0.54081941   -9.0176984    192.15846  0.008774359 0.0068819072         3194 
 1826000   0.52695946   -9.0089381    192.15119 0.0087692218  0.006875274         3139 
 1827000   0.52441164   -9.0120479    192.04547 0.0087596001 0.0068686472         3130 
 1828000   0.51875749    -9.012226    191.99698 0.0087525976 0.0068620282         3158 
 1829000    0.5244466   -9.0007121     192.1107 0.0087529935 0.0068554238         3161 
 1830000   0.51482102   -8.9887484    192.40537 0.0087616289 0.0068488183         3123 
 1831000   0.52682814   -8.9962276    192.22978  0.008748852 0.0068422279         3177 
 1832000   0.52392883   -9.0047778    192.26088 0.0087454913 0.0068356412         3184 
 1833000   0.51364756   -9.0118653     192.2784 0.0087415168 0.0068290591         3178 
 1834000   0.52958003   -9.0370952    191.95021  0.008721838 0.0068224849         3175 
 1835000   0.51350778    -9.028955    192.03028  0.008720721 0.0068159207         3200 
 1836000   0.51952613   -9.0009008    192.41897 0.0087336135 0.0068093674         3159 
 1837000   0.52793445   -9.0162268    192.35201 0.0087258215 0.0068028212         3156 
 1838000   0.51456941   -9.0082871    192.12957 0.0087109886  0.006796287         3160 
 1839000   0.51600757   -8.9942206    192.05738 0.0087029808 0.0067897578         3213 
 1840000   0.52391373   -9.0127483    191.98858  0.008695135 0.0067832326         3189 
 1841000   0.52574551   -9.0180582    191.96707 0.0086894384  0.006776728         3129 
 1842000   0.52124986    -9.005047    191.94216 0.0086835938 0.0067702214         3155 
 1843000   0.50994236   -9.0141801    191.99377 0.0086812157 0.0067637222         3198 
 1844000   0.51724533   -9.0211002    191.99257 0.0086764539 0.0067572371         3186 
 1845000    0.5329277   -9.0388121    192.15358 0.0086790233  0.006750756         3188 
 1846000   0.52178113    -9.016461    192.35883 0.0086835874 0.0067442862         3167 
 1847000   0.51691921   -8.9995341    191.94234 0.0086600949 0.0067378276         3207 
 1848000   0.51753051   -9.0098148    192.26637 0.0086700202  0.006731377         3185 
 1849000   0.51353694   -9.0329503    192.14812 0.0086600017 0.0067249337         3178 
 1850000   0.51137114   -9.0040956    192.07841 0.0086521806 0.0067185034         3174 
 1851000   0.50628978   -9.0191714    192.02678  0.008645182 0.0067120778         3227 
 1852000   0.51788927   -9.0273412    191.81847 0.0086311407 0.0067056569         3212 
 1853000   0.50561953   -9.0189254    192.01069 0.0086351271 0.0066992457         3201 
 1854000   0.51378158   -9.0297063    191.63459 0.0086135647 0.0066928426         3141 
 1855000   0.51110382    -9.029712    192.03145 0.0086267496 0.0066864488         3200 
 1856000   0.51003447   -9.0179591    191.97079 0.0086193779 0.0066800667         3136 
 1857000   0.51063905   -9.0476456    191.87278 0.0086103382  0.006673692         3212 
 1858000   0.51648348   -9.0242345    192.37318 0.0086281475  0.006667323         3198 
 1859000   0.50274718   -9.0148436    191.96536 0.0086052249 0.0066609577         3162 
 1860000   0.49950352   -9.0242848    191.63196 0.0085856613 0.0066546024         3152 
 1861000   0.50351702    -9.029685    191.50457 0.0085753436 0.0066482522         3190 
 1862000   0.50731033   -9.0178793    192.02367 0.0085939703 0.0066419132         3137 
 1863000   0.49949596   -9.0435006    192.04519 0.0085903198  0.006635582         3176 
 1864000   0.50388081   -9.0324255     191.7767  0.008573708 0.0066292597         3199 
 1865000   0.50663686   -9.0341545    191.99037  0.008578658 0.0066229451         3220 
 1866000   0.50604316   -9.0426004      191.863 0.0085683726 0.0066166326         3192 
 1867000   0.51218615   -9.0172241      191.906 0.0085657026 0.0066103389         3158 
 1868000   0.50266193   -9.0278614    192.07492 0.0085686526 0.0066040469         3133 
 1869000   0.50493171   -9.0385047    192.14967 0.0085674008 0.0065977681         3159 
 1870000   0.51039268   -9.0497549    191.70743 0.0085431118 0.0065914978         3151 
 1871000   0.50401941   -9.0405959    192.01833  0.008552393 0.0065852297         3184 
 1872000   0.50095295   -9.0344134    191.63359 0.0085306975 0.0065789703         3184 
 1873000   0.51259962    -9.031664     192.1175 0.0085476732 0.0065727248         3129 
 1874000   0.49924383   -9.0224502    192.13176  0.008543746 0.0065664838         3207 
 1875000   0.50027664   -9.0340515    191.93785  0.008530571 0.0065602502         3221 
 1876000    0.5026558    -9.045044    191.74106 0.0085172823 0.0065540243         3201 
 1877000   0.51274718   -9.0308378    191.90878 0.0085201911 0.0065478049         3163 
 1878000   0.50892344   -9.0353802     191.6318 0.0085033637 0.0065415984         3185 
 1879000   0.49564197   -9.0217202    191.69492 0.0085016373 0.0065353963         3149 
 1880000   0.50856163   -9.0457301    191.76405 0.0085001795 0.0065292039         3145 
 1881000   0.49693535   -9.0303033    191.84497 0.0084992457 0.0065230147         3205 
 1882000   0.50356882   -9.0339138    191.89808 0.0084970809 0.0065168349         3175 
 1883000   0.50611245   -9.0319882    191.95988 0.0084953034 0.0065106658         3166 
 1884000   0.51273752   -9.0517805    191.73363 0.0084807868 0.0065045025         3208 
 1885000   0.49316815    -9.061501    191.96472 0.0084865038 0.0064983502         3197 
 1886000   0.49575183   -9.0349272    191.74933 0.0084724872  0.006492203         3185 
 1887000   0.51164362   -9.0484261    191.71528 0.0084664936 0.0064860651         3185 
 1888000   0.50846674     -9.04557    191.67641 0.0084602937 0.0064799267         3213 
 1889000   0.50266804    -9.028118    192.00986 0.0084705251 0.0064738042         3190 
 1890000   0.48631181   -9.0413457    191.83675 0.0084584103 0.0064676873         3183 
 1891000   0.51598417    -9.028543    191.93054 0.0084580705 0.0064615782         3163 
 1892000   0.50188536   -9.0405693    191.91948 0.0084531129 0.0064554742         3154 
 1893000   0.49280241   -9.0450193    192.02762 0.0084534083 0.0064493811         3173 
 1894000   0.50165139    -9.048148    191.83697 0.0084405564 0.0064432934         3203 
 1895000   0.50760196    -9.036147    191.47797 0.0084203155   0.00643722         3187 
 1896000   0.50106431   -9.0446043    191.58085 0.0084203959 0.0064311519         3177 
 1897000     0.504431   -9.0657371    191.65642  0.008419277 0.0064250849         3192 
 1898000   0.50211814   -9.0489542    191.59856 0.0084123005 0.0064190288         3188 
 1899000   0.48708619   -9.0395117    191.60499 0.0084081531 0.0064129857         3133 
 1900000     0.493316   -9.0424292    191.58081 0.0084026673  0.006406938         3193 
 1901000   0.50389976   -9.0607053    191.47789 0.0083937355 0.0064009055         3196 
 1902000   0.49572246   -9.0431083    191.69508 0.0083988381 0.0063948796         3171 
 1903000   0.49369397   -9.0492415     191.8716 0.0084021544 0.0063888569         3212 
 1904000   0.49329418    -9.065163    191.79048 0.0083941911 0.0063828476         3173 
 1905000     0.489286   -9.0471835    191.79872 0.0083901454 0.0063768429         3169 
 1906000   0.49641366   -9.0403085    191.68826 0.0083809137 0.0063708443         3171 
 1907000   0.49558455   -9.0540525     191.6053 0.0083728938 0.0063648539         3200 
 1908000   0.49258768   -9.0530782    191.83549 0.0083785591 0.0063588716         3190 
 1909000   0.48757594   -9.0440568     192.0335 0.0083828138 0.0063529002         3193 
 1910000   0.49379047   -9.0550273    191.54979 0.0083573205 0.0063469277         3191 
 1911000   0.49485955    -9.064803    191.49053 0.0083503634 0.0063409632         3216 
 1912000    0.5015627   -9.0753786    192.04527 0.0083701741 0.0063350139         3149 
 1913000   0.49360593   -9.0549834    191.70296 0.0083508867   0.00632907         3173 
 1914000   0.49140101   -9.0666071    191.70507 0.0083466156 0.0063231306         3191 
 1915000   0.48904869   -9.0658176    191.67605 0.0083409942 0.0063172072         3228 
 1916000   0.48404152   -9.0644959    191.77465 0.0083409296 0.0063112845         3218 
 1917000    0.5056523    -9.079291    191.58623 0.0083283877 0.0063053689         3178 
 1918000    0.4917058   -9.0563637    191.62511 0.0083257346 0.0062994612         3183 
 1919000   0.48309811   -9.0483005    191.65132 0.0083225343 0.0062935549         3230 
 1920000   0.48293004   -9.0685345    191.49095 0.0083112393 0.0062876645         3189 
 1921000   0.49572596   -9.0468637    191.92353 0.0083256782 0.0062817809         3218 
 1922000   0.47942022   -9.0504632    191.85012 0.0083181633 0.0062759077         3216 
 1923000   0.48789758   -9.0635812     191.5883 0.0083024919 0.0062700394         3194 
 1924000   0.48808916   -9.0677013    191.68448 0.0083023424 0.0062641754         3208 
 1925000   0.47151323    -9.065101    191.67456 0.0082975999 0.0062583188         3192 
 1926000    0.4869577   -9.0685889     191.5394 0.0082874436 0.0062524695         3226 
 1927000   0.48573801   -9.0774662    191.70429 0.0082902735 0.0062466253         3216 
 1928000   0.47679577   -9.0687653    191.46831 0.0082757743 0.0062407912         3159 
 1929000   0.47725807   -9.0631461    191.55576 0.0082752618 0.0062349601         3180 
 1930000   0.47964389   -9.0850764    191.44265 0.0082660904 0.0062291417         3198 
 1931000   0.47689369   -9.0846161    191.70609 0.0082731784 0.0062233308         3220 
 1932000   0.47172094   -9.0600762    191.75027 0.0082708018 0.0062175263         3186 
 1933000   0.49299446   -9.0717478    191.66859  0.008263002  0.006211729         3179 
 1934000   0.48658263   -9.0607494    191.25964 0.0082411083 0.0062059372         3178 
 1935000   0.48814647   -9.0614113    191.57221 0.0082503107 0.0062001593         3147 
 1936000    0.4805699   -9.0776674    191.65037 0.0082494132 0.0061943833         3152 
 1937000   0.47752687   -9.0823645    191.73866 0.0082489526  0.006188614         3180 
 1938000   0.48636941   -9.0685367    191.37957 0.0082292559 0.0061828553         3167 
 1939000   0.47983836   -9.0782757    191.56114 0.0082328149 0.0061771042         3174 
 1940000   0.48647099   -9.0725259    191.53354 0.0082273857 0.0061713652         3213 
 1941000   0.46715292   -9.0957983    191.25097 0.0082110155 0.0061656219         3222 
 1942000     0.486803   -9.0609332    191.50008 0.0082174768   0.00615989         3164 
 1943000    0.4792735   -9.0701981    191.45773 0.0082114311 0.0061541666         3179 
 1944000   0.48091752   -9.0833436    191.49945 0.0082089957 0.0061484472         3144 
 1945000   0.46917675    -9.055382    191.52153 0.0082057209 0.0061427335         3227 
 1946000   0.46758982   -9.0889512    191.66785 0.0082077702 0.0061370285         3233 
 1947000   0.46480299   -9.0865016    191.67513 0.0082038664 0.0061313309         3232 
 1948000   0.48042427   -9.0797664    191.60321 0.0081965782 0.0061256411         3262 
 1949000   0.48562486   -9.0712555     191.2556 0.0081775098 0.0061199536         3210 
 1950000   0.46831233   -9.0844841    191.26902 0.0081738897 0.0061142769         3190 
 1951000   0.47170939   -9.0808267    191.50198 0.0081796504 0.0061086073         3191 
 1952000     0.460223   -9.0895301    191.29268 0.0081665249 0.0061029421         3243 
 1953000   0.47019846   -9.0789022    191.40324  0.008167061 0.0060972863         3233 
 1954000   0.46816947   -9.0862688    191.36286  0.008161159 0.0060916392         3166 
 1955000    0.4718846   -9.0912703    191.43077 0.0081598796 0.0060860024         3198 
 1956000   0.46153787   -9.0734167    191.54251 0.0081604682 0.0060803713         3241 
 1957000   0.46642037   -9.0843733    191.34691 0.0081479695 0.0060747484         3220 
 1958000   0.46333055   -9.0731786    191.61527 0.0081552296 0.0060691333         3158 
 1959000   0.46916731   -9.0782061    191.17435 0.0081323102 0.0060635238         3168 
 1960000   0.47916221   -9.0741101    191.43036 0.0081390458 0.0060579203         3208 
 1961000   0.48535542   -9.0959394    191.60928 0.0081424986 0.0060523201         3180 
 1962000   0.47004292   -9.0929527    191.37996 0.0081286084 0.0060467282         3260 
 1963000   0.46679343   -9.0761609    191.16791 0.0081154656 0.0060411424         3202 
 1964000   0.46687466   -9.0967523    191.46713 0.0081240296 0.0060355681         3233 
 1965000   0.47237344   -9.1010093    191.24352 0.0081104122 0.0060299967         3221 
 1966000   0.45949383   -9.0908806    191.29394 0.0081084239 0.0060244305         3207 
 1967000   0.45845494   -9.0991354    191.56585 0.0081158213 0.0060188717         3210 
 1968000   0.45743968   -9.0917356    191.34991 0.0081025536 0.0060133204         3214 
 1969000   0.47224519    -9.100283    190.87497  0.008078338 0.0060077779         3241 
 1970000   0.46296371   -9.0749007    191.35912 0.0080947176 0.0060022418         3221 
 1971000   0.46428021   -9.0869075    191.41968 0.0080931708 0.0059967103         3163 
 1972000   0.46470219   -9.0977678    191.23162 0.0080811198 0.0059911903         3249 
 1973000   0.47241374   -9.0981612    190.90648  0.008063291 0.0059856759         3178 
 1974000   0.46049309   -9.0917409     191.2242 0.0080726192 0.0059801621         3199 
 1975000   0.45709553   -9.0954507    191.36365 0.0080744157 0.0059746618         3193 
 1976000   0.46570437   -9.0998447    191.49509 0.0080758726 0.0059691609         3198 
 1977000   0.46020049     -9.09141    190.98521 0.0080502954 0.0059636742         3227 
 1978000   0.46921305     -9.10718    191.46499 0.0080664389 0.0059581973         3233 
 1979000   0.46370728   -9.1015665    191.38634 0.0080590507 0.0059527215         3188 
 1980000   0.45540622   -9.1098451    191.45796 0.0080579948 0.0059472481         3190 
 1981000   0.46039883   -9.0819682    191.37021 0.0080502362 0.0059417848         3195 
 1982000   0.46722851    -9.091627    191.42976  0.008048678 0.0059363333         3212 
 1983000   0.45756757   -9.1131243    191.35916 0.0080416522 0.0059308877         3218 
 1984000   0.46309366    -9.099159    191.30563 0.0080353508 0.0059254498         3225 
 1985000   0.46426806   -9.1002336    191.36862 0.0080339471 0.0059200178         3262 
 1986000   0.45457417   -9.0800474    191.25678 0.0080252089 0.0059145874         3202 
 1987000   0.45655615   -9.0931558    191.53225 0.0080327232 0.0059091672         3199 
 1988000   0.46308369   -9.0961504    191.35998 0.0080214611 0.0059037514         3194 
 1989000   0.45033286   -9.1022888    191.16329 0.0080091876 0.0058983428         3183 
 1990000   0.45683343   -9.1010142     191.1818 0.0080059379 0.0058929446         3229 
 1991000   0.45544327   -9.1104259    191.11476 0.0079991109 0.0058875465         3229 
 1992000   0.45029466   -9.0944278    191.32725 0.0080039848 0.0058821589         3175 
 1993000   0.45168182   -9.1028831    191.25899 0.0079971146 0.0058767741         3193 
 1994000   0.46505719    -9.109597    191.32142 0.0079957129 0.0058713973         3195 
 1995000   0.46165235   -9.0958107    191.27718  0.007989857 0.0058660302         3209 
 1996000   0.45769577   -9.1110932    191.52573 0.0079962314 0.0058606694         3215 
 1997000   0.45732683   -9.0914464    191.20885 0.0079790038 0.0058553124         3172 
 1998000   0.44866159   -9.0949532    191.33979 0.0079804719 0.0058499637         3165 
 1999000   0.45304205   -9.1148051    191.28409 0.0079741575 0.0058446201         3185 
 2000000    0.4536732    -9.109829    191.23054 0.0079679393 0.0058392811         3189 
 2001000   0.45217208    -9.105334    190.94329 0.0079519942 0.0058339509         3215 
 2002000   0.45441651   -9.1088371    191.46296 0.0079696538 0.0058286345         3219 
 2003000   0.45031333    -9.115361    191.10132 0.0079506291 0.0058233169         3240 
 2004000   0.45179689   -9.1098883      191.006  0.007942698 0.0058180032         3166 
 2005000   0.44806222   -9.1247592    191.32689 0.0079520734 0.0058126983         3200 
 2006000   0.45087441   -9.1111492    191.00985  0.007934939 0.0058074044         3173 
 2007000   0.45639056   -9.1016118    191.36797  0.007945855 0.0058021146         3194 
 2008000   0.44639491   -9.1167005    190.97691 0.0079256684 0.0057968286         3236 
 2009000   0.45161883   -9.1112708    191.07759 0.0079258997 0.0057915495         3154 
 2010000   0.45444458   -9.1177851    191.31301 0.0079317168 0.0057862786         3181 
 2011000   0.44697132   -9.1017408    191.18267 0.0079223715  0.005781014         3223 
 2012000   0.45664803   -9.1154904    191.16655 0.0079177663 0.0057757558         3166 
Loop time of 5274.64 on 48 procs for 2000000 steps with 4000 atoms

Performance: 65521.114 tau/day, 379.173 timesteps/s
99.4% CPU use with 48 MPI tasks x no OpenMP threads

MPI task timing breakdown:
Section |  min time  |  avg time  |  max time  |%varavg| %total
---------------------------------------------------------------
Pair    | 386.29     | 426.72     | 480.82     | 102.7 |  8.09
Neigh   | 36.641     | 38.405     | 40.911     |  13.8 |  0.73
Comm    | 318.59     | 380.36     | 418.15     | 110.4 |  7.21
Output  | 5.8861     | 5.8881     | 5.9363     |   0.3 |  0.11
Modify  | 4357.7     | 4374.2     | 4388.9     |  10.4 | 82.93
Other   |            | 49.09      |            |       |  0.93

Nlocal:        83.3333 ave          90 max          77 min
Histogram: 2 1 3 9 11 10 8 2 0 2
Nghost:        2431.38 ave        2463 max        2408 min
Histogram: 2 8 7 6 8 4 6 5 0 2
Neighs:        16844.8 ave       19987 max       14696 min
Histogram: 3 10 5 7 7 6 4 4 0 2
FullNghs:      33690.1 ave       36758 max       30904 min
Histogram: 2 2 6 5 15 6 6 4 0 2

Total # of neighbors = 1617126
Ave neighs/atom = 404.28150
Neighbor list builds = 106398
Dangerous builds = 0

#clear
#
#next RN
#
#jump SELF
Total wall time: 1:27:58
