
units lj                  # Use reduced LJ style units
atom_style atomic         # Uncharged point particles
atom_modify map hash      # Needed for indexing of clusters etc
                          # Used to be able to find where atoms are in relation to each other.

lattice fcc 1.0 spacing 1 1 1
Lattice spacing in x,y,z = 1.5874011 1.5874011 1.5874011
region box block 0 10 0 10 0 10 units lattice
create_box 2 box
Created orthogonal box = (0.0000000 0.0000000 0.0000000) to (15.874011 15.874011 15.874011)
  3 by 4 by 4 MPI processor grid
create_atoms 1 box
Created 4000 atoms
  using lattice units in orthogonal box = (0.0000000 0.0000000 0.0000000) to (15.874011 15.874011 15.874011)
  create_atoms CPU = 0.037 seconds
set type 1 type/fraction 2 0.63 78393
Setting atom values ...
  2531 settings made for type/fraction
mass 1 1.0
mass 2 1.0
pair_style lj/cut  3.5
pair_modify tail  yes
pair_coeff 1  1  1.0  1.0   # Intearaction between 1 and 1 set with epsilon = 1 and sigma = 1
pair_coeff 1  2  1.5  0.8
pair_coeff 2  2  0.5  0.88

write_data data.0
System init for write_data ...
Neighbor list info ...
  update every 1 steps, delay 10 steps, check yes
  max neighbors/atom: 2000, page size: 100000
  master list distance cutoff = 3.8
  ghost atom cutoff = 3.8
  binsize = 1.9, bins = 9 9 9
  1 neighbor lists, perpetual/occasional/extra = 1 0 0
  (1) pair lj/cut, perpetual
      attributes: half, newton on
      pair build: half/bin/atomonly/newton
      stencil: half/bin/3d
      bin: standard
WARNING: Not all mixed pair coeffs generated from mixing. Use write_data with 'pair ij' option to store all pair coeffs. (../write_data.cpp:312)


#############################
#   M E L T   S Y S T E M   #
#############################

velocity all create 2.4 9622624 mom yes dist gaussian # Assign velocities
                                                    # Temperature 2.4, random number seed, zero linear momentum
                                                                                # Gaussian distribution

timestep 0.002   # simulation timestep
thermo 1000       # output thermodynamic data every 1000 steps bf 100

# Define a fix  in this case with index 1 applied to all
# particles in the simulation. This fix is for simulations
# in the anisotropic NPT ensemble. Note that we use the MTK
# correction.
fix 1 all npt temp 2.4 2.4 0.1 iso 5.68 5.68 0.5 mtk yes tchain 5 pchain 5 # Use NPT ensemble
                                                                         # Set temperature and pressure and damping
                                                                         # Numbers of thermostats in chain and in barostat
run 10000          # run for 10000 steps
Per MPI rank memory allocation (min/avg/max) = 3.642 | 3.644 | 3.648 Mbytes
Step Temp E_pair E_mol TotEng Press Volume 
       0          2.4    -4.562992            0  -0.96389204   -3.9987934         4000 
    1000    2.3842884   -4.2934404            0  -0.71790192    5.3983915    3639.8443 
    2000     2.419007   -4.3259726            0  -0.69836918    5.8015475    3581.8643 
    3000    2.4081501    -4.340785            0  -0.72946284    5.8036601    3583.1949 
    4000    2.4047218   -4.2687272            0  -0.66254634    5.7144975    3630.9116 
    5000    2.3792413   -4.2792631            0  -0.71129344     5.779234     3609.007 
    6000    2.4404092   -4.3326174            0  -0.67291876    5.6985869    3597.2633 
    7000    2.3949525   -4.3122759            0  -0.72074525    5.8102338    3603.7053 
    8000    2.3609876   -4.2852445            0  -0.74464851    5.8601739    3596.4298 
    9000    2.4249462   -4.3248769            0  -0.68836698    5.8598738    3590.5886 
   10000    2.3970328   -4.2667165            0  -0.67206612    5.5750632    3635.1709 
Loop time of 2.73279 on 48 procs for 10000 steps with 4000 atoms

Performance: 632321.226 tau/day, 3659.266 timesteps/s
99.7% CPU use with 48 MPI tasks x no OpenMP threads

MPI task timing breakdown:
Section |  min time  |  avg time  |  max time  |%varavg| %total
---------------------------------------------------------------
Pair    | 1.2266     | 1.28       | 1.4736     |   3.5 | 46.84
Neigh   | 0.21698    | 0.22412    | 0.25605    |   1.3 |  8.20
Comm    | 0.78933    | 0.93026    | 1.0417     |   6.5 | 34.04
Output  | 0.00025    | 0.00025453 | 0.00032912 |   0.0 |  0.01
Modify  | 0.19303    | 0.28218    | 0.37381    |  12.7 | 10.33
Other   |            | 0.01596    |            |       |  0.58

Nlocal:        83.3333 ave          92 max          74 min
Histogram: 3 1 3 6 5 8 14 5 2 1
Nghost:        1752.69 ave        1777 max        1727 min
Histogram: 3 1 7 4 5 6 11 5 4 2
Neighs:        10507.6 ave       12025 max        8923 min
Histogram: 1 5 2 3 9 12 9 4 2 1

Total # of neighbors = 504366
Ave neighs/atom = 126.09150
Neighbor list builds = 902
Dangerous builds = 160

# Equilibrate just above the melting temperature to avoid step fn in T

fix 1 all npt temp 1.25 1.25 0.1 iso 5.68 5.68 0.5 mtk yes tchain 5 pchain 5
run 2000
Per MPI rank memory allocation (min/avg/max) = 3.644 | 3.646 | 3.650 Mbytes
Step Temp E_pair E_mol TotEng Press Volume 
   10000    2.3970328   -4.2667165            0  -0.67206612    5.5750632    3635.1709 
   11000    1.2476468   -6.2644878            0   -4.3934854    6.1432248    2761.7732 
   12000    1.2763159   -6.3836819            0   -4.4696867    5.6316624     2743.441 
Loop time of 0.663967 on 48 procs for 2000 steps with 4000 atoms

Performance: 520508.016 tau/day, 3012.199 timesteps/s
99.6% CPU use with 48 MPI tasks x no OpenMP threads

MPI task timing breakdown:
Section |  min time  |  avg time  |  max time  |%varavg| %total
---------------------------------------------------------------
Pair    | 0.29562    | 0.32613    | 0.36071    |   2.7 | 49.12
Neigh   | 0.039956   | 0.043737   | 0.049542   |   0.9 |  6.59
Comm    | 0.20921    | 0.24345    | 0.27789    |   3.7 | 36.67
Output  | 5.0699e-05 | 5.7013e-05 | 6.8975e-05 |   0.0 |  0.01
Modify  | 0.039422   | 0.045643   | 0.050489   |   1.5 |  6.87
Other   |            | 0.004946   |            |       |  0.74

Nlocal:        83.3333 ave          88 max          77 min
Histogram: 3 3 2 5 5 5 7 3 10 5
Nghost:        2115.33 ave        2133 max        2097 min
Histogram: 3 2 5 7 4 5 16 4 1 1
Neighs:        13913.2 ave       15401 max       12233 min
Histogram: 2 3 4 4 5 13 5 7 4 1

Total # of neighbors = 667833
Ave neighs/atom = 166.95825
Neighbor list builds = 143
Dangerous builds = 16

#############################
# L I N E A R  Q U E N C H  #
#############################

# Define solid atoms. This closely follows ten Wolde  Ruiz-Montero and Frenkel  Faraday Discuss  1996  104  93-110
# Compute components of the per-atom q6 vector
compute q6 all orientorder/atom degrees 1 6 components 6 nnn NULL cutoff 1.3 # compute the Q6 parameter.
                                                                             # Use all neighbours within 1.3 unit cell.

# get number of connections
compute coord_number all coord/atom orientorder q6 0.5

# An atom is solid if it has 8 or more connections (of a possible 14)
variable is_solid atom c_coord_number>=8
group solid dynamic all var is_solid    # Must be dynamic to update
dynamic group solid defined

# do clustering
compute cluster solid cluster/atom 1.3 # Create a cluster where all atoms within are solid and max 1.3 units from another member

# define chunks one chunk per cluster
compute clus_chunks solid chunk/atom c_cluster nchunk every compress yes  # Says which atoms are in which chunk

# count the size of each chunk
compute size_chunks solid property/chunk clus_chunks count


# Find the maximum entry in the vector of chunk sizes
variable max_n equal max(c_size_chunks)


# Thermo style which includes this variable
# thermo_style custom step temp pe vol v_max_n

thermo ${N}  # Print the thermo information every 100 steps
thermo 1000  

# Reset the npt fix at a lower temperature (below freezing)
fix 1  all npt temp  ${temp} ${temp}  0.1  iso  5.68  5.68  0.5  mtk yes tchain  5  pchain  5
fix 1  all npt temp  0.45 ${temp}  0.1  iso  5.68  5.68  0.5  mtk yes tchain  5  pchain  5
fix 1  all npt temp  0.45 0.45  0.1  iso  5.68  5.68  0.5  mtk yes tchain  5  pchain  5

dump dmp2 all dcd ${N} traj.dcd
dump dmp2 all dcd 1000 traj.dcd


compute msd all msd com yes
variable twopoint equal c_msd[4]/6/(step*dt+1.0e-6)
fix 9 all vector 10 c_msd[4]
variable fit equal slope(f_9)/6/(10*dt)
thermo_style custom step temp pe c_msd[4] v_twopoint v_fit v_max_n

fix 1 all npt temp 1.25 ${temp} 0.1 iso 5.68 5.68 0.5 mtk yes tchain 5 pchain 5
fix 1 all npt temp 1.25 0.45 0.1 iso 5.68 5.68 0.5 mtk yes tchain 5 pchain 5
run 2000000 # 5000000  # Run for this many steps
Neighbor list info ...
  update every 1 steps, delay 10 steps, check yes
  max neighbors/atom: 2000, page size: 100000
  master list distance cutoff = 3.8
  ghost atom cutoff = 3.8
  binsize = 1.9, bins = 8 8 8
  4 neighbor lists, perpetual/occasional/extra = 1 3 0
  (1) pair lj/cut, perpetual
      attributes: half, newton on
      pair build: half/bin/atomonly/newton
      stencil: half/bin/3d
      bin: standard
  (2) compute orientorder/atom, occasional
      attributes: full, newton on
      pair build: full/bin/atomonly
      stencil: full/bin/3d
      bin: standard
  (3) compute coord/atom, occasional
      attributes: full, newton on
      pair build: full/bin/atomonly
      stencil: full/bin/3d
      bin: standard
  (4) compute cluster/atom, occasional
      attributes: full, newton on
      pair build: full/bin/atomonly
      stencil: full/bin/3d
      bin: standard
Per MPI rank memory allocation (min/avg/max) = 9.845 | 9.852 | 9.856 Mbytes
Step Temp PotEng c_msd[4] v_twopoint v_fit v_max_n 
   12000    1.2763159   -6.3836819 4.6773535e-30 3.248162e-32 8.3333333e+20            2 
   13000    1.2473864   -6.4132137   0.54362284 0.0034847617  0.045194023            2 
   14000    1.2574976   -6.4525103   0.99217734 0.0059058173  0.040815169            4 
   15000    1.2907205   -6.4003333    1.4630026 0.0081277919  0.039927998            1 
   16000    1.2502528   -6.3738653    1.9001713 0.0098967251  0.038841733            3 
   17000    1.2755313   -6.4097255    2.3702438  0.011618842  0.038485971            3 
   18000    1.2344709   -6.3669848     2.848318  0.013186657  0.038584556            3 
   19000    1.2660227   -6.4102388    3.3583905  0.014729783  0.038869321            3 
   20000     1.230862   -6.3585149    3.8793979  0.016164157   0.03933304            2 
   21000    1.2329404   -6.4044371    4.3508939  0.017265452  0.039737505            2 
   22000    1.2146393   -6.3949354    4.8091042  0.018216304  0.039858388            2 
   23000    1.2586384   -6.4112682    5.2904227  0.019168198  0.039912964            1 
   24000    1.2387182   -6.3894217    5.7329718  0.019906152  0.039865126            4 
   25000    1.2338737   -6.4077935    6.1588727  0.020529575   0.03974298            2 
   26000    1.2400044   -6.3314845    6.6993968  0.021472425  0.039704678            4 
   27000    1.2275357   -6.4030918    7.0318498   0.02170324  0.039524199            2 
   28000    1.2365912   -6.3541467    7.4538409   0.02218405  0.039226972            5 
   29000    1.2635683    -6.372047    7.9414716   0.02282032  0.038976069            3 
   30000    1.2156856   -6.4307772    8.3250369  0.023125102  0.038789507            2 
   31000     1.243792   -6.4033959    8.6921152  0.023365901  0.038533353            4 
   32000    1.2564313   -6.3903265    9.0960219  0.023687557  0.038284601            2 
   33000    1.2370332   -6.3895553    9.5325767  0.024072163  0.038044673            1 
   34000    1.2352231   -6.4143589    10.025769  0.024572963  0.037851788            3 
   35000    1.2364203   -6.4270047    10.499566  0.024998967  0.037764513            5 
   36000    1.2665891   -6.4322195    10.937839  0.025319072  0.037713037            1 
   37000    1.2330179   -6.3732761    11.467032  0.025826648  0.037672718            1 
   38000    1.2236722   -6.4100775    11.827074  0.025936565  0.037638333            2 
   39000     1.243183   -6.3727487    12.337546  0.026362278  0.037589821            2 
   40000    1.2438445   -6.3912593    12.783973  0.026633277  0.037546201            2 
   41000    1.2648349   -6.4207141    13.312565  0.027058058  0.037544734            2 
   42000    1.2492667   -6.3961599    13.777133  0.027335581  0.037595515            3 
   43000    1.2410427   -6.4228519    14.227599  0.027572866  0.037626654            3 
   44000    1.2262979   -6.4251266    14.797579  0.028025717  0.037649015            2 
   45000    1.2313946   -6.4360852    15.159291   0.02807276  0.037709305            2 
   46000    1.2440694   -6.4272113    15.636717  0.028327385  0.037737789            2 
   47000    1.2239455   -6.4053861    16.140662  0.028618195  0.037773301            3 
   48000    1.2515532    -6.354324    16.637886  0.028885218  0.037823896            2 
   49000    1.2259919   -6.3925881    17.019809  0.028945253  0.037866816            2 
   50000    1.2099236    -6.414969    17.461983  0.029103304  0.037892942            2 
   51000    1.2285767   -6.4193937    18.022519   0.02944856  0.037917427            5 
   52000    1.2253583   -6.4332931    18.615396  0.029832365  0.037972329            4 
   53000    1.2282902   -6.3855567    18.910078  0.029732827   0.03801622            2 
   54000    1.2384538   -6.4023575    19.258557  0.029719995  0.038029508            5 
   55000     1.256087   -6.4126199    19.789079  0.029983452  0.038017475            3 
   56000    1.2034244   -6.3890599     20.18139  0.030031831  0.038011859            2 
   57000    1.2213614   -6.4602958    20.413162  0.029843804  0.037974421            3 
   58000    1.2422939   -6.4483069    20.944666   0.03009291  0.037941262            2 
   59000    1.2043864   -6.4528828    21.495436  0.030360785  0.037920553            2 
   60000    1.2216458   -6.4423566    21.942308  0.030475428  0.037914965            2 
   61000    1.2514296   -6.4080258    22.447195  0.030665567   0.03791594            3 
   62000    1.2265194   -6.4022685    22.835683  0.030693122  0.037904544            3 
   63000    1.2148332   -6.4535326    23.319794  0.030846288  0.037892255            2 
   64000    1.2392543   -6.4516752    23.610598  0.030742966  0.037864943            3 
   65000    1.2486299   -6.4432625    23.932991  0.030683321   0.03783329            4 
   66000    1.2356474    -6.449092     24.40345  0.030812437  0.037788919            3 
   67000     1.208131   -6.4088125    24.889446  0.030957023  0.037748818            2 
   68000    1.2043226   -6.3964155    25.290773  0.030993595  0.037705493            3 
   69000     1.234331   -6.4240931    25.658843   0.03098894  0.037666251            2 
   70000    1.2393486   -6.4320752    26.197125  0.031187054  0.037623869            5 
   71000    1.2320592   -6.4638915    26.608119  0.031230187  0.037587795            3 
   72000    1.2420399   -6.4477744    27.112251   0.03137992  0.037556282            4 
   73000    1.2121036   -6.4376637    27.537474  0.031435473  0.037538899            3 
   74000    1.1918547   -6.4523678    27.992164  0.031522707  0.037528972            3 
   75000     1.215464     -6.46122    28.531445  0.031701606  0.037513902            5 
   76000    1.2134375   -6.3949989    29.124423  0.031934674  0.037505753            2 
   77000      1.25075   -6.4404365    29.442341  0.031864005  0.037495794            3 
   78000    1.2216325   -6.4996979    29.655918  0.031683672  0.037484342            8 
   79000    1.2372677   -6.4210754     30.26325  0.031923259  0.037456276            2 
   80000    1.2377953   -6.4804318    30.391277   0.03165758  0.037431122            2 
   81000    1.2441389   -6.4414091    30.940545  0.031831837  0.037394881            1 
   82000      1.23025   -6.4033046    31.228967  0.031736754   0.03735532            3 
   83000    1.2333109   -6.4106564    31.915603  0.032043778  0.037313182            3 
   84000    1.2134206   -6.4191669    32.210843  0.031955202  0.037274009            1 
   85000    1.2300805   -6.4761194    32.618426  0.031978849   0.03723595            2 
   86000    1.2131714   -6.4715921      33.0061  0.031982654  0.037203019            4 
   87000    1.2483205    -6.483444    33.359551  0.031953593  0.037166612            2 
   88000    1.2090968   -6.4486595    33.784515  0.031992912  0.037124275            2 
   89000     1.211247   -6.4934172    33.977444  0.031814086  0.037083098            3 
   90000     1.228222   -6.4298877    34.573053  0.032012086  0.037033909            3 
   91000     1.251567   -6.4571223    34.936153  0.031992814  0.036993999            4 
   92000    1.2140807   -6.4835652    35.500185  0.032155964  0.036958537            4 
   93000    1.1868144   -6.4839163    35.914757  0.032181682  0.036929508            1 
   94000    1.1796065   -6.5061709    36.483496  0.032343525   0.03690446            3 
   95000    1.1939374   -6.4628215    36.942902  0.032406055  0.036882169            6 
   96000    1.2195641   -6.4282192    37.455169  0.032513168  0.036867919            3 
   97000    1.2220067   -6.4602252    37.904657  0.032564138  0.036854697            4 
   98000    1.2274674   -6.4598575     38.36274  0.032621377  0.036844962            3 
   99000    1.2052836   -6.4457172    38.895006  0.032739904  0.036837427            1 
  100000    1.2335795   -6.4904353    39.218914  0.032682428  0.036828634            5 
  101000    1.2090516   -6.4535407    39.654682  0.032718385  0.036817346            3 
  102000    1.2250631   -6.4979156    40.045801  0.032717157  0.036810251            2 
  103000     1.206817   -6.4260341    40.591131  0.032840721  0.036804113            1 
  104000    1.2027413   -6.4760101    40.965608  0.032825006  0.036800437            2 
  105000    1.2008976   -6.4861331    41.531634  0.032961614  0.036793935            3 
  106000    1.2246247   -6.4393296    42.020409  0.033034913  0.036789919            3 
  107000    1.2076023   -6.4859252    42.408549  0.033028465  0.036789677            2 
  108000    1.2133588   -6.4771901     42.85418  0.033066497  0.036785678            3 
  109000    1.2392002    -6.430825    43.314297  0.033114906  0.036784265            3 
  110000    1.2295444   -6.4684492     43.81567  0.033193689  0.036790675            1 
  111000    1.2051449    -6.477913    44.227332  0.033203702  0.036793182            3 
  112000    1.2245109   -6.5150275    44.477636  0.033093479  0.036792117            3 
  113000    1.1933798   -6.5202114    44.617844  0.032904015  0.036782653            2 
  114000    1.2036111   -6.4906885    45.168223  0.033017707   0.03676739            3 
  115000    1.1891714   -6.4549781    45.566884  0.033019481  0.036752987            2 
  116000     1.187446   -6.5024262     45.90302  0.032976308  0.036737283            6 
  117000      1.21191   -6.5123367    46.385595  0.033038173  0.036719909            3 
  118000    1.2246953   -6.5053045    46.568052  0.032887042  0.036697058            2 
  119000    1.2130853    -6.465094    47.103355  0.032985542   0.03667055            1 
  120000    1.1910998   -6.4549268    47.612708   0.03306438  0.036642887            1 
  121000    1.1810176   -6.4865304    47.749704  0.032885471  0.036615333            2 
  122000    1.2402392   -6.5070424    48.210026  0.032930346  0.036587554            2 
  123000    1.2044149   -6.4684005    48.469563  0.032838458  0.036558387            2 
  124000    1.1868877   -6.5312884    48.979853  0.032916568  0.036535974            4 
  125000    1.1925356   -6.4801362    49.499829  0.032999886  0.036517623            2 
  126000    1.2096913   -6.4645112    50.213761  0.033210159  0.036505083            3 
  127000    1.2043272   -6.5239156    50.584132  0.033191687  0.036495312            4 
  128000    1.2036856   -6.4680591    51.406711  0.033467911  0.036487541            3 
  129000    1.1904272   -6.5206355    51.682883  0.033386875  0.036481415            3 
  130000    1.1987959   -6.4633782    52.601584  0.033718964  0.036486286            1 
  131000    1.2037542   -6.4894144    53.055121  0.033750077  0.036494034            2 
  132000    1.2269921   -6.5115129    53.676229  0.033886508   0.03650699            2 
  133000    1.1834215   -6.5430521    53.805808  0.033712912   0.03651662            4 
  134000    1.2016959   -6.4719958    54.306902  0.033772949  0.036525508            3 
  135000    1.1723839   -6.5102356    54.306295  0.033522404  0.036527039            2 
  136000     1.201405   -6.5555513    54.593441  0.033451864  0.036520884            3 
  137000    1.1939015   -6.5150511    55.090973  0.033510324  0.036517181            1 
  138000    1.2058331   -6.5176482    55.310075  0.033399804  0.036508368            4 
  139000    1.2076252   -6.4889272    56.040564   0.03359746  0.036502512            2 
  140000    1.2118499   -6.5384053    56.697153  0.033748305  0.036503746            6 
  141000     1.191744   -6.4971473    57.044645  0.033714329  0.036503981            3 
  142000    1.1740399     -6.49985    57.583668  0.033793232  0.036500659            1 
  143000    1.1925345   -6.5412732    57.500206  0.033508279   0.03649639            3 
  144000    1.1826435   -6.5354154    57.864523  0.033486414  0.036485547            3 
  145000    1.2206407   -6.4906039    58.554565  0.033652049  0.036475841            2 
  146000    1.2198224    -6.508813    59.060043   0.03371007  0.036467804            2 
  147000    1.1908472   -6.5383433    59.275679  0.033602993  0.036460872            3 
  148000    1.2273269   -6.5542417    59.420334  0.033457395  0.036448068            4 
  149000    1.1817532   -6.5275635    59.963128  0.033536425  0.036429607            2 
  150000    1.1749123   -6.5202997    60.187222  0.033437346  0.036411182            3 
  151000    1.2009609   -6.5002594    60.689117   0.03349289  0.036394928            2 
  152000    1.1870031   -6.5495455    61.036249  0.033462856  0.036376858            3 
  153000    1.1956962   -6.5577735    61.407972  0.033446608  0.036360043            2 
  154000    1.1995303   -6.5274263    62.020513  0.033560883  0.036344995            2 
  155000    1.2165094   -6.5801951    62.093547  0.033383627  0.036324288            2 
  156000    1.2263117   -6.5122062    62.790756   0.03354207  0.036307416            3 
  157000    1.2116447    -6.530626    63.130008  0.033508497  0.036290954            3 
  158000    1.2107668   -6.5433769    63.759169  0.033628254  0.036274019            2 
  159000    1.1653096   -6.5595477    63.881541  0.033480892  0.036254149            3 
  160000    1.2052245   -6.5287051    64.583106  0.033637034  0.036241154            3 
  161000    1.1981333   -6.5243793    64.885136  0.033584439  0.036225323            2 
  162000    1.1925471   -6.5376241    65.648409  0.033769758  0.036213876            3 
  163000    1.2216426   -6.5246914    65.990173  0.033737307  0.036202666            2 
  164000    1.1944464   -6.4975519    66.422272  0.033751154   0.03619459            2 
  165000    1.1856072   -6.5264908    66.496615  0.033584149  0.036182472            2 
  166000    1.1634401   -6.5242075    67.094065  0.033681759  0.036167821            3 
  167000    1.2016899   -6.4971188    67.467046  0.033666191  0.036155894            1 
  168000    1.1806942   -6.5696527    67.519875  0.033492002  0.036137442            3 
  169000    1.2013693   -6.5212349    67.775951  0.033420094  0.036118458            6 
  170000    1.1908211   -6.5597326    68.102829   0.03338374  0.036097739            5 
  171000    1.1866346   -6.5245154    68.471587   0.03336822  0.036078817            3 
  172000    1.1918394   -6.5138987    69.251325  0.033551998  0.036057714            2 
  173000    1.2104866   -6.5387573    69.392285  0.033425956  0.036034867            4 
  174000    1.1692258   -6.5240624    69.970119  0.033510593  0.036009843            2 
  175000    1.1576841   -6.5143231    70.387389  0.033517804  0.035987085            1 
  176000    1.2010281   -6.5677014    70.337063  0.033303534  0.035964344            3 
  177000    1.1962148   -6.5332829    70.852646   0.03335812  0.035939889            5 
  178000     1.175485   -6.5560088    71.358277  0.033407433  0.035916111            2 
  179000    1.1870929   -6.5766665    71.345784  0.033214983  0.035891839            4 
  180000    1.1750372   -6.5424213    71.906865  0.033290215  0.035863641            4 
  181000     1.161173   -6.5571934    72.346637  0.033308765  0.035839959            3 
  182000    1.1977492   -6.5529539    72.971894  0.033412039  0.035820598            4 
  183000     1.179924   -6.5855322    73.211367  0.033338509  0.035801429            4 
  184000    1.2164163   -6.5536723    73.442784  0.033262131  0.035779148            2 
  185000    1.1851131   -6.5370474    74.070401  0.033365045  0.035758035            3 
  186000    1.1962588   -6.5716852    74.311048   0.03329348  0.035735842            2 
  187000    1.1905392   -6.5494574    74.678829  0.033279335  0.035714246            5 
  188000    1.1928367   -6.5754538    75.201352  0.033333933  0.035696566            4 
  189000    1.1659158   -6.6190907    75.653466  0.033356908  0.035677341            2 
  190000    1.1747275   -6.5855459    75.786206  0.033239564  0.035658768            3 
  191000    1.1702403   -6.5411782    76.508516  0.033380679  0.035637398            1 
  192000    1.1752282   -6.5654042    76.486298  0.033197178  0.035616795            3 
  193000    1.1692489   -6.5409833    76.993644  0.033244233  0.035595849            2 
  194000    1.1753181   -6.5969784    77.009711  0.033079773   0.03557088            2 
  195000    1.1860507   -6.6291979    77.390767  0.033072977  0.035545352            2 
  196000    1.1729351   -6.5338282    78.009134  0.033167149  0.035522326            2 
  197000    1.1638447    -6.532726    77.977954  0.032985598  0.035495321            2 
  198000     1.159987   -6.5954283    78.485742  0.033032719  0.035468335            2 
  199000    1.1789695   -6.6208617    78.917648  0.033047591  0.035441387            4 
  200000    1.1502977   -6.5779988     79.23982  0.033016592  0.035414828            5 
  201000    1.1690107   -6.5444203    80.048639  0.033187661  0.035389396            3 
  202000     1.171054   -6.5627715    79.973178  0.032992235  0.035363579            4 
  203000    1.1836518   -6.6052185    80.293276  0.032961115  0.035338942            4 
  204000    1.2010589   -6.5945578    80.831557  0.033019427  0.035313231            5 
  205000    1.1626525   -6.5925202    81.439503  0.033105489  0.035289248            2 
  206000    1.1722977    -6.562062    81.897928   0.03313023  0.035267358            1 
  207000    1.1667344   -6.5966067    81.866449  0.032957508  0.035245157            4 
  208000    1.1968759   -6.5746781    82.600327   0.03309308  0.035221086            7 
  209000    1.1564196   -6.5817389    82.770702  0.033002672  0.035197638            6 
  210000    1.1868246   -6.5992836    83.043182  0.032953643  0.035172633            3 
  211000    1.1646817   -6.5801781    83.351523  0.032919243  0.035144435            3 
  212000    1.1814385   -6.5533423     83.82757  0.032951089  0.035117381            2 
  213000    1.1765612    -6.566869    83.754658  0.032767863    0.0350914            4 
  214000    1.1587853   -6.5659045    84.214462  0.032793793  0.035061734            2 
  215000    1.1602752   -6.5416701    84.759259  0.032852426  0.035034197            6 
  216000    1.1631948     -6.57293    85.109625  0.032835503  0.035008663            5 
  217000    1.1644874   -6.5854244      85.9102  0.032991628  0.034983987            1 
  218000    1.1743217   -6.5758571    85.952296  0.032856382  0.034960899            4 
  219000    1.1625907   -6.5879977    86.911101  0.033071195  0.034939073            2 
  220000    1.1822208   -6.5353685    87.203288  0.033031548  0.034919446            1 
  221000    1.1660666    -6.618697    87.196394  0.032879485  0.034898791            4 
  222000    1.1571339   -6.6072918    87.630807  0.032894447  0.034876363            5 
  223000    1.1589034    -6.583152    88.183326   0.03295341  0.034853403            2 
  224000     1.164126   -6.5857632    88.542335  0.032939857  0.034830473            4 
  225000    1.1640189   -6.6509245    88.531457  0.032789428  0.034807915            3 
  226000    1.1596249   -6.5719736    89.424797  0.032973745   0.03478557            4 
  227000    1.1603649   -6.6068901     89.44581    0.0328362  0.034763002            2 
  228000    1.1521145   -6.5898476    90.209224  0.032971208  0.034742146            3 
  229000    1.1807506   -6.6215513    90.262435  0.032846592  0.034722912            4 
  230000    1.1761944   -6.5890172    90.853916  0.032918086  0.034703551            2 
  231000    1.1439646   -6.5766719    91.299499  0.032936327  0.034684855            5 
  232000    1.1755176   -6.6048247    91.649093  0.032919933   0.03466554            3 
  233000    1.1550673   -6.6108603    92.266165  0.032999344  0.034648503            6 
  234000    1.1697688   -6.5761366    92.731016  0.033023866  0.034632275            2 
  235000    1.1506073   -6.5845634    93.374586  0.033111555   0.03461726            3 
  236000    1.1607646   -6.6122708    93.667122  0.033074548  0.034602708            2 
  237000     1.196077    -6.615574    94.061817  0.033073775  0.034590677            6 
  238000    1.1626322   -6.5896969    94.766079    0.0331814  0.034579892            4 
  239000    1.1567029   -6.6164488    94.633455  0.032996323  0.034566077            3 
  240000    1.1565742   -6.5957936    95.041986   0.03300069  0.034551948            4 
  241000    1.1665004   -6.5828969    95.821944  0.033133452  0.034539341            3 
  242000    1.1685964   -6.5669571    96.435202  0.033207714  0.034527209            3 
  243000    1.1672678   -6.5920555    96.278812  0.033017425  0.034514638            5 
  244000    1.1697536   -6.6329283    96.130814  0.032831562  0.034500183            5 
  245000    1.1392933   -6.6318568    96.442947  0.032803723  0.034485038            2 
  246000    1.1458007   -6.6559928    97.115184  0.032898097  0.034470026            4 
  247000    1.1851316   -6.6371008    97.738552   0.03297522  0.034455436            2 
  248000    1.1493357   -6.6692112    97.804785  0.032864511  0.034442232            2 
  249000    1.1479362   -6.5986551     98.93684  0.033111392  0.034427405            4 
  250000    1.1591399    -6.575314    99.114114  0.033038038  0.034415496            8 
  251000    1.1575699   -6.6654623    99.126796  0.032910623  0.034403732            2 
  252000    1.1616305   -6.6419493     99.37162  0.032860985  0.034389126            2 
  253000    1.1778726    -6.664054    99.813543  0.032876661  0.034372088            4 
  254000    1.1442473   -6.6171551    100.45923  0.032959064   0.03436021            4 
  255000    1.1916926   -6.6240756    100.53599  0.032854899  0.034347247            5 
  256000    1.1365946   -6.6331149    101.17459  0.032934437  0.034332676            2 
  257000    1.1413418   -6.6365761    101.41847  0.032885368     0.034318            2 
  258000    1.1574258   -6.6278219     102.0197  0.032952099  0.034305863            3 
  259000    1.1603561   -6.6530161    102.17461  0.032874714  0.034292629            3 
  260000    1.1399335   -6.5786479     102.9363  0.032992405  0.034279657            2 
  261000    1.1453288   -6.6155043    102.92291  0.032861722  0.034266286            3 
  262000    1.1333311   -6.6602384    102.93298  0.032739497  0.034252007            2 
  263000    1.1696386   -6.6460686    103.26378  0.032719829  0.034235325            7 
  264000    1.1511958   -6.6652295    103.65849  0.032720482  0.034218199            3 
  265000    1.1333098   -6.6035966    104.97914  0.033012309  0.034202758            2 
  266000    1.1636138   -6.6680962    104.52784  0.032746817  0.034187891            2 
  267000     1.129028    -6.619723    104.82854  0.032718022  0.034171876            3 
  268000    1.1634612   -6.6514721    104.77818   0.03258028  0.034154392            2 
  269000    1.1640816   -6.6581979    105.55363   0.03269939  0.034137357            2 
  270000    1.1500536   -6.6110335    105.99493  0.032714484  0.034120965            3 
  271000    1.1681843   -6.6552494    105.99186  0.032592823  0.034103873            3 
  272000    1.1401999   -6.6181876     106.9472  0.032765687  0.034087231            3 
  273000    1.1572392   -6.6121548    107.08718  0.032688394  0.034072626            2 
  274000    1.1374069   -6.6935829    107.07557  0.032565564  0.034055543            3 
  275000    1.1243658   -6.6278928     107.8145  0.032671061  0.034036559            3 
  276000    1.1032087   -6.6618918     108.1329  0.032648821   0.03401898            4 
  277000    1.1325976   -6.5850818    108.43872   0.03262296  0.034000875            3 
  278000     1.142953     -6.64973    108.71339  0.032587945  0.033983258            1 
  279000    1.1395719   -6.6241028    108.85251  0.032512696  0.033965538            3 
  280000    1.1182717   -6.6153976    109.37453  0.032551942  0.033947192            4 
  281000    1.1356631   -6.6128571    109.54033  0.032485271  0.033928806            4 
  282000    1.1334782   -6.6302277    109.74309  0.032429991  0.033908937            4 
  283000    1.1422407   -6.6332303    110.02897   0.03239958   0.03388901            2 
  284000    1.1537997   -6.7073467    109.97718    0.0322703  0.033868833            2 
  285000    1.1312342   -6.6124328    111.19404  0.032512879  0.033848754            5 
  286000    1.1359265   -6.6776659    110.90222  0.032314167  0.033830745            3 
  287000    1.1381998   -6.6627699    111.89772  0.032490627   0.03381323            4 
  288000    1.1470414   -6.6438866    112.08347   0.03243156  0.033797274            3 
  289000     1.123446     -6.63972    113.02905  0.032591997  0.033780085            4 
  290000    1.1399466   -6.6750947    113.08651  0.032496124  0.033764132            5 
  291000     1.138412   -6.6357087    113.58153  0.032526212  0.033749183            4 
  292000    1.1062378   -6.6197002    114.21702   0.03259618    0.0337337            2 
  293000    1.1263285   -6.6492999    114.05124  0.032437781  0.033719673            2 
  294000    1.1148289   -6.6385228    114.64857  0.032496761   0.03370448            6 
  295000    1.1485817   -6.6602236    115.24526  0.032555157  0.033689801            2 
  296000    1.1313039   -6.6897443    115.21527  0.032436731  0.033673978            4 
  297000    1.1104044   -6.6269424    115.89374  0.032517883  0.033660065            2 
  298000    1.1482887   -6.6614419     115.8684  0.032401677  0.033644691            2 
  299000    1.1209483   -6.6976834    115.87509  0.032295175  0.033629016            2 
  300000     1.146095   -6.6817692    116.36649  0.032324026  0.033612104            4 
  301000    1.1316169   -6.6392804     116.8744  0.032357252   0.03359599            2 
  302000    1.1494528   -6.7016351    116.65193  0.032188723  0.033578983            8 
  303000    1.1189587   -6.6550638    117.72485  0.032377572  0.033563753            1 
  304000    1.1409332   -6.6654501    118.17424  0.032394255  0.033548663            2 
  305000     1.174786   -6.6822098    118.38406  0.032345371   0.03353384            6 
  306000    1.1232396   -6.6851055    118.58059  0.032293188  0.033518476            1 
  307000    1.1163661   -6.6962768    118.78427  0.032243286  0.033503182            7 
  308000    1.1251895   -6.6825495    118.78426  0.032138598  0.033485545            2 
  309000    1.1257758   -6.6443965    119.48787  0.032224344  0.033466632            2 
  310000    1.1403733   -6.6982261    119.11018  0.032018867  0.033445955            1 
  311000    1.1117288   -6.6777184    119.57682  0.032040947  0.033425601            8 
  312000    1.1141458   -6.7164262     119.4006  0.031891185   0.03340556            3 
  313000    1.1418175   -6.6982735    119.74654    0.0318814  0.033384343            2 
  314000    1.1331894   -6.7015207    120.47011  0.031971899  0.033363159            2 
  315000    1.0967571   -6.6656072    121.08072  0.032031935  0.033344397            6 
  316000    1.1515397   -6.6779922    120.97316  0.031902203     0.033326            3 
  317000    1.1340814   -6.6422201     121.9741  0.032064696  0.033307505            4 
  318000    1.1540044   -6.7132998     121.5803  0.031860667   0.03328949            3 
  319000    1.1366745   -6.7289881    122.05305  0.031884287  0.033269966            2 
  320000    1.1027875   -6.7205322    122.07938  0.031791506  0.033250067            3 
  321000     1.110931   -6.7138504    122.75701  0.031868382  0.033230018            4 
  322000    1.1438762   -6.6758333    123.78779  0.032036178  0.033210913            2 
  323000    1.1317862   -6.6763258    123.58781  0.031885401  0.033192456            2 
  324000    1.1349508   -6.7724613    123.10342  0.031662401  0.033172275            2 
  325000    1.1199928   -6.7559853    123.96377  0.031785582  0.033151782            5 
  326000    1.1154857   -6.7005628    124.21379   0.03175199  0.033131407            3 
  327000    1.1144563   -6.6925604    124.62513  0.031759717  0.033110539            2 
  328000    1.1438865   -6.6792183     125.0326  0.031766414  0.033089581            2 
  329000    1.1314492    -6.710066    125.08086  0.031682082  0.033067769            4 
  330000    1.1044083   -6.7031595    125.26027   0.03163138  0.033045232            2 
  331000    1.1100362   -6.7266363    125.67445  0.031640093  0.033023211            2 
  332000    1.1069971    -6.730243    125.91999  0.031606424  0.033001364            3 
  333000    1.1409178   -6.6440026    126.57656  0.031675817  0.032980926            3 
  334000    1.1274818   -6.6993951    126.88493  0.031657916  0.032959764            3 
  335000    1.1195229   -6.7191451    126.35904  0.031432598  0.032937671            4 
  336000    1.1404601   -6.6939491    126.63312  0.031407023   0.03291538            2 
  337000    1.1143062   -6.7292191    127.19449  0.031452643  0.032893475            5 
  338000    1.1183968   -6.7586742    127.26208  0.031376252  0.032869783            4 
  339000    1.1338932   -6.6786941    127.74503  0.031402416  0.032846281            4 
  340000    1.1056134   -6.7501479    128.34948  0.031458207   0.03282274            4 
  341000    1.1224581   -6.7513122    128.26587   0.03134552  0.032800082            5 
  342000    1.1112821   -6.6951928    129.57735  0.031573428  0.032778737            3 
  343000    1.1037343   -6.7047671    129.18141  0.031385182  0.032757009            3 
  344000    1.1401423   -6.7360543    129.14821  0.031285905  0.032734625            5 
  345000    1.1131716   -6.7341745    130.27445  0.031467258  0.032712163            2 
  346000     1.150111    -6.694338    130.87581  0.031521148  0.032690873            6 
  347000    1.1084017   -6.7232048    130.94593  0.031447149  0.032669062            3 
  348000    1.1222407   -6.7086385    131.14506  0.031404469  0.032648872            3 
  349000    1.1209841   -6.7063284    131.35809  0.031365351  0.032628067            2 
  350000    1.1290231    -6.722349    131.83304  0.031388818  0.032607935            6 
  351000    1.1079837   -6.7739702    131.72394  0.031273489  0.032587827            4 
  352000     1.097448   -6.7910367    131.56448  0.031146894  0.032565896            4 
  353000     1.120042   -6.7442071    132.44824   0.03126729  0.032543359            6 
  354000     1.107236   -6.7318152    132.75739  0.031251739  0.032520272            2 
  355000    1.1220191   -6.7460476    132.64381  0.031137044  0.032498018            3 
  356000    1.1367832    -6.739134    132.97886  0.031128011   0.03247489            4 
  357000    1.1263812   -6.7253666    133.60494  0.031186962  0.032452296            4 
  358000    1.1064641   -6.7864855    133.62078  0.031103533  0.032429531            4 
  359000     1.112216    -6.784626    134.12835  0.031134715  0.032406906            3 
  360000    1.1145409   -6.7318664    134.73523  0.031188711  0.032384661            3 
  361000    1.1012825   -6.7925777    134.07779  0.030950551  0.032362323            5 
  362000    1.1223753   -6.7667022     135.1189  0.031104719  0.032338618            3 
  363000     1.136585   -6.7256918    135.15396  0.031027079  0.032315272            3 
  364000    1.0867936   -6.7281455    135.60535  0.031045182  0.032292272            3 
  365000    1.1241995   -6.7134586    135.93977  0.031036478  0.032269354            1 
  366000    1.0817032   -6.7502665    135.84952  0.030931129  0.032246012            2 
  367000    1.0846706   -6.7975147     135.2705  0.030715373  0.032221815            2 
  368000    1.1063082   -6.8138326    135.88066  0.030770078  0.032197518            4 
  369000    1.1113716   -6.6970973    136.77914  0.030889597   0.03217479            8 
  370000    1.1073482   -6.7542764    136.80399  0.030811708  0.032151169            3 
  371000    1.0815833    -6.694249    137.33526  0.030847992  0.032128471            9 
  372000    1.1188142   -6.7681896    137.58351  0.030820679   0.03210583            2 
  373000    1.1049712   -6.7364193     138.2373  0.030884116  0.032083228            4 
  374000     1.099801   -6.7513961     137.8929    0.0307248  0.032060473            2 
  375000    1.0779996   -6.7299936    138.25014  0.030722253  0.032037758            3 
  376000    1.1095959   -6.7687974    138.02266  0.030590129  0.032014287            2 
  377000    1.0777833   -6.7463453    139.13319  0.030754463  0.031990479            4 
  378000    1.1118255   -6.7580295    139.74704  0.030808431  0.031966961            3 
  379000    1.1065708   -6.7976268    139.18862  0.030604358  0.031942054            4 
  380000    1.1106691    -6.745644    139.65236  0.030625518    0.0319176            7 
  381000    1.1047191   -6.7735604    139.86453  0.030591541  0.031894583            3 
  382000    1.0843202      -6.7731    140.48505  0.030646825  0.031871729            4 
  383000    1.1335771   -6.7253346    140.90161  0.030657444  0.031848524            5 
  384000    1.0646255   -6.7255474    140.98012  0.030594643  0.031825219            6 
  385000    1.1180792   -6.7567557    141.12391    0.0305463    0.0318011            4 
  386000    1.1107608   -6.7403421    141.47585  0.030543145  0.031778145            5 
  387000    1.1009366   -6.7563832    141.61886  0.030495017  0.031755416            3 
  388000     1.114953   -6.7880754    142.27204  0.030556709  0.031732786            6 
  389000    1.1064037   -6.8152995    142.46069  0.030518571  0.031710121            5 
  390000    1.0841889   -6.7955694    142.71738  0.030495168  0.031687884            2 
  391000    1.0691164   -6.7822504    143.44174  0.030571556  0.031665872            3 
  392000    1.0914301   -6.8005467    143.33799   0.03047151  0.031642886            7 
  393000    1.0745121   -6.8276386    143.33564  0.030393478  0.031619603            3 
  394000    1.1108095   -6.8199613    143.45825  0.030342269  0.031595962            4 
  395000    1.1106475   -6.7723699     144.5642  0.030498777  0.031573317            3 
  396000    1.0850188   -6.7650651     144.2071  0.030346611   0.03155036            2 
  397000    1.1002828    -6.808019    144.29426  0.030288468  0.031526682            2 
  398000    1.0942884   -6.7985193    144.48973  0.030253294  0.031502722            8 
  399000    1.1252659    -6.767156    144.88002  0.030258986  0.031478292           14 
  400000    1.0905965   -6.7679844     145.5023  0.030312979  0.031454494            2 
  401000    1.1055662   -6.7740919    145.36301   0.03020844   0.03143024            5 
  402000    1.1198863   -6.7876476    145.82287  0.030228622   0.03140628            4 
  403000     1.083376   -6.7319651    146.16282  0.030223909  0.031382866            3 
  404000    1.0892301    -6.746818    146.87226  0.030295433  0.031360002            4 
  405000    1.0562337   -6.8085104    146.80201  0.030206174  0.031336754            4 
  406000     1.090388   -6.8005955    146.41628  0.030052603  0.031313599            3 
  407000    1.0843277    -6.795796    147.04961  0.030108437  0.031289492            4 
  408000    1.1229626   -6.8420442    146.40714   0.02990342  0.031265436            4 
  409000    1.1034891   -6.8360007    147.20981  0.029993848  0.031240747            2 
  410000    1.0758454   -6.8103858    147.55942  0.029991751  0.031216782            1 
  411000    1.0732351   -6.7770677    148.36337  0.030081785  0.031193231            6 
  412000    1.1074675   -6.8046072    148.27713   0.02999133  0.031169855            6 
  413000     1.097922   -6.8270309    148.78654  0.030021498  0.031145727            3 
  414000    1.0645795   -6.8075726    148.83882  0.029959505  0.031122345            5 
  415000    1.0782666   -6.7664098    149.41994  0.030004003  0.031099505            2 
  416000    1.0884709   -6.8248682    149.66534  0.029981038  0.031076552            2 
  417000     1.088802   -6.7578659    150.05718  0.029987446   0.03105436            4 
  418000    1.0921876   -6.7549017    151.19511  0.030142565  0.031032115            3 
  419000    1.0667289   -6.8223029    149.90121  0.029813288  0.031009219            2 
  420000    1.0505207   -6.8362116    150.22152  0.029805858   0.03098561            5 
  421000    1.0862746   -6.8287658    151.06484  0.029901987  0.030961848            3 
  422000    1.0706966   -6.8061873    150.78828  0.029776517  0.030938558            4 
  423000    1.0908831   -6.7916097    151.57467  0.029861047  0.030915906            2 
  424000     1.075962   -6.8302727    152.04727  0.029883505  0.030893557            4 
  425000    1.1091304   -6.8136421     152.5283  0.029907509  0.030871488            6 
  426000    1.0852474   -6.8238556    152.20417  0.029773898  0.030850251            3 
  427000    1.0814356    -6.776342    153.17886  0.029894391  0.030828587            4 
  428000    1.0655306   -6.8088464    153.08956  0.029807157  0.030807222            3 
  429000    1.0957747   -6.8044775    153.38544  0.029795152   0.03078596            2 
  430000    1.1178504   -6.8523062    153.92898  0.029831198  0.030764738            5 
  431000    1.0777154   -6.8287033    154.42788  0.029858446   0.03074366            4 
  432000    1.0784014   -6.8241481     154.3373  0.029771855  0.030722865            5 
  433000    1.0748916   -6.8329118    154.35041  0.029705621  0.030702043            3 
  434000     1.058886   -6.7988951     155.4779  0.029853667  0.030682099            4 
  435000    1.0557221    -6.820763    156.08445  0.029901236  0.030662565            4 
  436000    1.0739938   -6.7816391    156.06423   0.02982879  0.030642764            3 
  437000    1.0860111   -6.8335175    155.98846  0.029746084   0.03062311            3 
  438000    1.0744882   -6.8147227    156.76738  0.029826366  0.030603648            5 
  439000    1.1026208   -6.8216364    156.80416  0.029765406  0.030583834            4 
  440000    1.0882468   -6.8164851    157.05392   0.02974506  0.030564635            4 
  441000    1.0785638   -6.8148617    157.03137   0.02967335  0.030544978            2 
  442000    1.0889153   -6.7954334    157.62604  0.029718333  0.030525212            7 
  443000    1.0746097   -6.8396603     158.1109  0.029742457  0.030505581            3 
  444000    1.0870038   -6.8753586    157.55538  0.029571205  0.030485501           11 
  445000    1.0597322   -6.8591219    158.28968  0.029642262  0.030465855            2 
  446000    1.0680082   -6.8468956    158.95613  0.029700323  0.030445957            3 
  447000    1.0894894   -6.8767329    158.73295  0.029592272  0.030426368            5 
  448000    1.0685517   -6.8383308    158.99216  0.029574434  0.030406357            3 
  449000    1.0748069   -6.8789472    158.94675  0.029500138  0.030386775            3 
  450000    1.0633383   -6.9049735     159.1453  0.029471351  0.030366234            1 
  451000    1.0803965     -6.85207    159.97394  0.029559117  0.030345419            4 
  452000     1.080671   -6.8272575    159.46086  0.029399126  0.030324437            4 
  453000    1.0639986   -6.8766757    159.99531  0.029432544  0.030304161            6 
  454000    1.0673153   -6.8276792    160.18037  0.029401683  0.030283778            4 
  455000    1.0983728   -6.8774035    160.54066  0.029403052  0.030263361            2 
  456000    1.0652535   -6.8215064    160.68619  0.029365166  0.030243725            4 
  457000     1.090339   -6.8616532    160.99579  0.029357365    0.0302234            2 
  458000    1.0735556   -6.8744497    161.38484  0.029364054  0.030202178            3 
  459000    1.0940728   -6.8837026    161.17585  0.029262137  0.030180637            3 
  460000    1.0424453   -6.8075494    162.17241  0.029379061  0.030159479            3 
  461000    1.0711698   -6.8199843    162.47435  0.029369912  0.030139015            3 
  462000    1.0861233   -6.8472988    162.53114  0.029316584  0.030118743            3 
  463000    1.0940348    -6.858913    162.92029  0.029323307  0.030099129            2 
  464000    1.0458551   -6.8552956     163.2755  0.029323904  0.030079314            3 
  465000    1.0630521   -6.8246219    163.99778  0.029390283  0.030059885            3 
  466000    1.0647882   -6.8621256     164.0177  0.029330776  0.030040837            5 
  467000    1.0611819   -6.8377084     164.3138  0.029320807  0.030021525            3 
  468000    1.0528983   -6.8780022    163.76089  0.029159702   0.03000166            4 
  469000    1.0634576   -6.8325414    164.53865  0.029235723  0.029981612            5 
  470000     1.053295   -6.8461035    165.14523  0.029281068  0.029961172            6 
  471000     1.071429   -6.8849549     164.7221  0.029144037  0.029940778            4 
  472000    1.0644804    -6.872723    164.90965  0.029115404  0.029920894            4 
  473000    1.0623795   -6.8916659    165.60473  0.029176309  0.029900895            2 
  474000    1.0594672   -6.8326588    165.92567   0.02917118  0.029881578            8 
  475000    1.0615714   -6.8481367    166.11258  0.029142558  0.029861822            2 
  476000    1.0538123   -6.8875332    165.80106  0.029026796  0.029841656            3 
  477000    1.0548808   -6.8779206    166.33102   0.02905853  0.029820719            4 
  478000    1.0585379   -6.8581004    166.92364  0.029101053  0.029800415            4 
  479000    1.0635499    -6.886864    166.65551  0.028993652  0.029780104            5 
  480000    1.0882682   -6.8591642    167.45491  0.029072033  0.029759834            6 
  481000    1.0441824   -6.8506752    168.07592  0.029119182  0.029739409            2 
  482000    1.0421922   -6.8672056    167.31746  0.028927638  0.029719311            3 
  483000    1.0809761   -6.8103307    167.63579  0.028922668  0.029698606           10 
  484000    1.0374361   -6.8835353    167.20977  0.028789561  0.029677591            2 
  485000    1.0734903   -6.8777983    168.32336  0.028921539  0.029656449            9 
  486000    1.0560536   -6.8814774    168.13584  0.028829876  0.029634745            5 
  487000    1.0381555   -6.8920606    167.74034  0.028703002  0.029612747            5 
  488000    1.0847172   -6.8879582    168.66045  0.028801306   0.02959118            4 
  489000    1.0466234   -6.8438316    168.76713  0.028760588  0.029569215            3 
  490000    1.0429892   -6.8622813    168.76715  0.028701896  0.029547344            4 
  491000    1.0568103   -6.8680455    169.25103  0.028725565  0.029525475            3 
  492000    1.0726478   -6.8606344    169.37531   0.02868823  0.029504455            4 
  493000    1.0556668   -6.8714687    170.21742  0.028772383  0.029483462            3 
  494000    1.0365488   -6.8820791    170.43438  0.028750739  0.029462841            5 
  495000    1.0712598   -6.8904746    170.53121  0.028708958  0.029442292            1 
  496000    1.0447058   -6.8794152    170.13344  0.028584247  0.029421203            5 
  497000    1.0334712   -6.8972767    170.69327  0.028620601  0.029399911            3 
  498000    1.0955595   -6.8773447    170.55625  0.028540202  0.029378475            5 
  499000    1.0459919   -6.8953246    170.99109  0.028555625  0.029357051            1 
  500000    1.0332674   -6.8900615    170.91905  0.028486508  0.029335529            3 
  501000    1.0587265   -6.9287435    170.81986   0.02841315   0.02931409            5 
  502000    1.0530224   -6.9006385    171.68474  0.028500124  0.029292699            3 
  503000    1.0650082   -6.9382682     171.2041  0.028363834  0.029271133            2 
  504000    1.0661695      -6.9038    172.36804  0.028500006   0.02924913            5 
  505000    1.0493595   -6.8619902    172.08666  0.028397138  0.029227443            4 
  506000    1.0351109   -6.8583879    172.50507  0.028409926  0.029205802            9 
  507000    1.0524837   -6.8667966    172.46143  0.028346718  0.029183843            4 
  508000     1.044955   -6.8875112    173.02248  0.028382952  0.029161913            6 
  509000    1.0573322   -6.8949145    172.84936  0.028298847  0.029139757            6 
  510000    1.0546254   -6.8827665     172.7662  0.028229771  0.029117486            4 
  511000    1.0858468   -6.9282998    172.54667  0.028138726  0.029094405            5 
  512000    1.0374016   -6.8904507    173.05138  0.028165915  0.029071171            3 
  513000    1.0636952   -6.8811741    173.61217  0.028202107  0.029048354            6 
  514000     1.062141   -6.9137864    173.55036  0.028137218  0.029025712            6 
  515000    1.0699494   -6.9187787    174.17215  0.028183196  0.029003488            2 
  516000    1.0661824   -6.9557922    174.31913  0.028152314  0.028981007            3 
  517000     1.060844   -6.8815674    175.02811   0.02821214  0.028958662            3 
  518000    1.0490713   -6.8868386    174.77751   0.02811736  0.028936433            2 
  519000     1.030274   -6.9120789    175.07286  0.028110606  0.028914525            5 
  520000      1.04389   -6.9290838    174.22731  0.027921043   0.02889162            8 
  521000    1.0484615     -6.89116    175.38869  0.028053213  0.028868336            3 
  522000    1.0424392   -6.9186975    175.37362  0.027997065  0.028845756            2 
  523000    1.0359213   -6.8968929    175.44137   0.02795433  0.028822886            7 
  524000    1.0442867   -6.9322993    175.64477  0.027933328  0.028800054            6 
  525000    1.0454777   -6.9294175    176.02333  0.027940211  0.028777299            3 
  526000    1.0439202   -6.9143855    176.59756  0.027978067  0.028755105            6 
  527000    1.0334461   -6.9087901    176.77015  0.027952268   0.02873285            4 
  528000    1.0127003   -6.9019756    177.77752  0.028058321   0.02871074            3 
  529000    1.0322149   -6.9333354    176.36187  0.027782273  0.028688675            4 
  530000    1.0587322    -6.905152    177.39537  0.027892353  0.028666728            5 
  531000    1.0479161   -6.8903516    177.62932  0.027876542   0.02864529            9 
  532000     1.022189   -6.9230015     178.1947  0.027912704  0.028623585            2 
  533000    1.0365691   -6.9607318    177.97466  0.027825932  0.028601823            3 
  534000    1.0307897   -6.9483424    177.95689   0.02777105  0.028580013            6 
  535000    1.0432825    -6.941955    178.79601  0.027849846  0.028558403            5 
  536000    1.0238869    -6.896613    179.27741  0.027872732  0.028537403            2 
  537000    1.0248467   -6.9439365    178.83248  0.027751782  0.028515851            4 
  538000    1.0602492   -6.9302754    179.48491  0.027801256  0.028494723            6 
  539000    1.0324978   -6.9356121    180.00201  0.027829624  0.028473672            4 
  540000    1.0465387   -6.9243622    180.24287  0.027815258  0.028452767            4 
  541000    1.0247476   -6.9644047     179.9866  0.027724369  0.028431411            3 
  542000    1.0247855   -6.9580242    179.85398  0.027652825  0.028410101            4 
  543000    1.0253862   -6.9107578    180.34325  0.027676988  0.028388974            7 
  544000    1.0475066   -6.8999532    181.33901  0.027778647  0.028367649            7 
  545000    1.0499004   -6.9287361    180.44965   0.02759169  0.028345854            6 
  546000    1.0520581    -6.935405    180.79416  0.027593736  0.028323627            8 
  547000     1.040514   -6.9129627    180.23876  0.027458678  0.028300824            1 
  548000    1.0532869   -6.9546668    180.16248  0.027396971  0.028278012            6 
  549000    1.0405902   -6.9440594    180.27527  0.027364187   0.02825494            3 
  550000    1.0291695   -6.9367473    180.79601  0.027393335  0.028231499            4 
  551000     1.040431   -6.9395849    181.04088  0.027380653   0.02820887            7 
  552000    1.0132701     -6.96247    181.03136  0.027329613  0.028185948            7 
  553000    1.0348202   -6.9407659    180.81871  0.027248148  0.028162707            3 
  554000    1.0422426   -6.9374033    181.11369  0.027243334  0.028139415            5 
  555000    1.0098251   -6.9668901    181.77517  0.027293569  0.028116069            5 
  556000    1.0306996   -6.9356914    181.43917   0.02719412  0.028092517            3 
  557000     1.043577   -6.9681175    181.34488  0.027131191  0.028069096            7 
  558000    1.0220615   -6.9587656     181.5685  0.027115965   0.02804546            6 
  559000    1.0093817   -6.9855735    182.58335  0.027218747  0.028021894            3 
  560000    1.0282289   -6.9190494    183.36954  0.027287134   0.02799929           10 
  561000    1.0262571   -6.9760853    182.91843  0.027171484  0.027976627            4 
  562000    1.0308822   -6.9782348     183.2071  0.027165941  0.027954019            5 
  563000    1.0337687   -6.9410459    183.88697   0.02721832  0.027932046            6 
  564000    1.0745979   -6.9743407    183.14877  0.027060989  0.027909718            5 
  565000    1.0273321   -6.9658989    184.03673   0.02714406  0.027887648            2 
  566000    1.0321351   -6.9457489    184.44476  0.027156178  0.027865694            3 
  567000    1.0247503   -6.9817684    184.86213  0.027169625  0.027844115            7 
  568000    1.0174067   -6.9498849    185.05784  0.027150504  0.027822335            3 
  569000     1.045779   -6.9384249    184.96621  0.027089369  0.027800788            4 
  570000    1.0267774   -7.0076491     185.0466  0.027053597  0.027779056            8 
  571000    1.0182115   -6.9546974    185.38017    0.0270549   0.02775724            3 
  572000    1.0300371   -6.9562604      185.948  0.027090327  0.027736037            6 
  573000    1.0246997   -6.9721096    186.23145  0.027084272  0.027714533            2 
  574000    1.0084754   -6.9616928    186.39684  0.027061097  0.027693346            7 
  575000    1.0142552   -6.9952614    186.37591  0.027011001  0.027672193            4 
  576000    1.0255831     -6.96723    186.83218  0.027030118  0.027651035            2 
  577000    1.0344986   -6.9708304    187.19134  0.027035145  0.027629965            5 
  578000    1.0393754   -6.9451018      187.096  0.026974625  0.027609376            2 
  579000    1.0086277   -6.9448932    187.92357  0.027047145  0.027588568            3 
  580000     1.030635   -6.9093585    187.95803  0.027005464  0.027567695            4 
  581000    1.0232959   -6.9432497    188.20075  0.026993796  0.027546718            6 
  582000    1.0215499   -6.9350813    188.32102  0.026964636  0.027526009            3 
  583000    1.0353774   -6.9469656    188.66666   0.02696779  0.027504878            3 
  584000    1.0188653   -6.9987063    187.83703  0.026803229  0.027483849            6 
  585000    1.0256867   -6.9558654    188.83414   0.02689945  0.027463132            6 
  586000    1.0133534   -6.9859442     189.0408  0.026882936  0.027442547            3 
  587000    1.0105083   -6.9688173    189.56956  0.026912204  0.027421886            3 
  588000    1.0182029   -6.9382903    189.94118  0.026919101  0.027401469            4 
  589000    1.0115552   -6.9986802    189.98271  0.026879274  0.027380351            3 
  590000     1.014209   -6.9583173    189.48639  0.026763614  0.027359627            3 
  591000    1.0204428   -6.9851226    188.89617  0.026635105  0.027338689            7 
  592000    1.0278978   -7.0047581     189.5156  0.026677309  0.027317472            4 
  593000    1.0624612   -7.0193367    190.34522  0.026748906  0.027296071            7 
  594000   0.98986606   -6.9795822    190.02755  0.026659308  0.027274618            3 
  595000    1.0088709   -6.9622576    190.74328  0.026714746  0.027253933            4 
  596000    1.0421279   -6.9928396    190.39915  0.026621806  0.027232762            3 
  597000     1.043326    -6.983702    191.04369  0.026667182   0.02721151            2 
  598000    1.0241813   -6.9669511    191.03673  0.026621618  0.027190439            3 
  599000    1.0153307   -6.9865187    191.01702  0.026574433   0.02716947            4 
  600000    1.0002533   -6.9709171    191.23467   0.02656037  0.027148172            5 
  601000   0.99644525   -7.0184904    191.38937  0.026537628  0.027127305            6 
  602000    1.0257302   -7.0428859    191.55907  0.026517036  0.027106343            4 
  603000    1.0091636   -6.9695595    192.48589  0.026601146  0.027085748            5 
  604000   0.99148404   -7.0323029    191.96655  0.026485451   0.02706531            4 
  605000    1.0196049   -7.0054419    192.42783  0.026505211  0.027044439            4 
  606000    1.0121951    -7.015901    192.31424  0.026445852   0.02702377            2 
  607000    1.0018459   -6.9667348    193.13817    0.0265154   0.02700341            8 
  608000    1.0030055   -7.0014488    193.24771  0.026486802  0.026983216            5 
  609000    1.0232063   -7.0152292    193.94607  0.026538872  0.026963199           11 
  610000    1.0266552   -6.9965342    194.18346  0.026527795  0.026943388            4 
  611000    1.0346376    -6.994783    194.40365  0.026514409  0.026923171            2 
  612000     1.021311   -7.0429332    193.58233   0.02635925  0.026902929            3 
  613000    1.0007109   -7.0774488    193.69759  0.026331918  0.026882448            3 
  614000    1.0073554   -7.0039507    194.97378  0.026462239   0.02686224            8 
  615000    1.0228347   -7.0146091    194.28283  0.026325587  0.026842064            4 
  616000    1.0161714    -6.985685    195.09878  0.026393233  0.026821949            3 
  617000    1.0076613   -7.0399948    194.82941  0.026314075   0.02680206            9 
  618000    1.0017812   -7.0343747    194.72177  0.026256981  0.026781666            8 
  619000    1.0005751   -7.0059541    195.08372   0.02626329  0.026761142            2 
  620000    1.0322816   -7.0285739    195.15951  0.026231118  0.026740431            4 
  621000    1.0067227   -7.0243748    194.89195  0.026152973  0.026719905            5 
  622000    1.0208855    -7.055215    194.07122  0.026000967   0.02669937            4 
  623000    1.0123286    -7.015079    195.49524  0.026149711  0.026678559            4 
  624000   0.98999415   -7.0142258    195.50402  0.026108977  0.026658015            3 
  625000    1.0106276   -6.9969578    196.17699  0.026156932  0.026637268            3 
  626000    1.0062544   -7.0035192    196.53403  0.026162677  0.026616704            4 
  627000    1.0030694   -7.0461703    196.33184  0.026094078  0.026596075            3 
  628000    1.0005689    -7.001968      196.946  0.026134023  0.026575146            5 
  629000    1.0171413   -7.0224075    196.54772  0.026039709  0.026554063            2 
  630000    1.0085975   -6.9987426    196.78376  0.026029598   0.02653264            8 
  631000   0.98128221   -6.9919885    197.07372  0.026026641  0.026511742            7 
  632000     1.009786   -7.0443022    196.85367  0.025956444  0.026490832            4 
  633000   0.99927472   -7.0742117    196.37191  0.025852016  0.026470137            5 
  634000    1.0045583   -7.0962343    197.15588  0.025914284  0.026449225            6 
  635000   0.98979693   -7.0237259    197.54142   0.02592407  0.026428505            2 
  636000    1.0003562   -7.0182153    197.35656  0.025859088  0.026407529            5 
  637000    1.0221528   -7.0372482    197.63061  0.025854345  0.026386687            2 
  638000    1.0076499   -7.0277975    198.58218  0.025938111  0.026366076            5 
  639000    1.0073541   -7.0618768    198.45202  0.025880545  0.026345819            3 
  640000   0.99903251   -7.0167836    199.41001  0.025964845  0.026325419            4 
  641000   0.97288365   -7.0537015    199.22955  0.025900878  0.026305432            7 
  642000    1.0057771     -7.04733    198.90071  0.025817849  0.026285233           11 
  643000    0.9952118   -7.0393962    199.56608   0.02586393  0.026265081            5 
  644000   0.98112175   -7.0033403    199.68368  0.025838986  0.026245028            5 
  645000    1.0112541    -7.053438    199.60824  0.025789178  0.026224958            7 
  646000   0.98134502   -7.0163424    200.44208  0.025856822  0.026205383            4 
  647000   0.97932618   -7.0454641    199.95248  0.025753797  0.026185724            5 
  648000    1.0131965   -7.0472711    200.52675  0.025787905  0.026165664            7 
  649000   0.99663755   -7.0148064    200.80739  0.025784205  0.026145837            6 
  650000   0.99438459   -7.0489035     200.1012     0.025654  0.026126041            6 
  651000    0.9825661   -7.0613655    201.62182  0.025809245  0.026106158            6 
  652000    1.0087691   -7.0519224    200.87905  0.025674725  0.026086313            4 
  653000    0.9931433   -7.0376439    201.09426  0.025662871  0.026066726            3 
  654000    1.0191328   -7.0712961    200.58316  0.025558507  0.026046932            3 
  655000   0.98825615   -7.0707066    201.59687  0.025648456  0.026027039            7 
  656000   0.97781375   -7.0858201    200.98851  0.025532077   0.02600712            5 
  657000   0.97291114   -7.1322246    201.15013  0.025513715  0.025987167            5 
  658000    0.9915057   -7.0871154    201.55723  0.025526498  0.025967267            6 
  659000   0.99258429   -7.0930574    201.84786  0.025524514  0.025947162            4 
  660000   0.99671902   -7.0420182    202.67349  0.025590088   0.02592749            3 
  661000   0.98231174   -7.0492972     202.0432  0.025471911  0.025907935            3 
  662000   0.98578858   -7.0902625     202.4469  0.025484252  0.025888118            4 
  663000   0.97523709    -7.014289     203.8309  0.025619772  0.025868579            2 
  664000   0.97451027   -7.0712353    203.28793  0.025513044  0.025849425            4 
  665000   0.99734881   -7.1004916    203.42473  0.025491821  0.025829697           11 
  666000   0.97163977   -7.0706009    203.83761  0.025505206  0.025810606            4 
  667000   0.96919996   -7.0372286    204.30202   0.02552499  0.025791671            7 
  668000   0.97160801   -7.0562742    204.09628  0.025461112  0.025772819            3 
  669000    0.9759422   -7.0636578    205.11829   0.02555036  0.025754209            5 
  670000    0.9530939   -7.0606242    205.47476  0.025556562   0.02573562            7 
  671000   0.99523737   -7.0850414    205.47199  0.025518131  0.025717417            3 
  672000   0.98980672   -7.0611245    205.99473  0.025544981  0.025699496           11 
  673000    0.9692137   -7.0736469    205.93015  0.025499028  0.025681427            3 
  674000    0.9811143   -7.0731783    205.85992  0.025452512  0.025662909            8 
  675000   0.99722148   -7.1085672    205.51172  0.025371817  0.025644295            5 
  676000    1.0068414   -7.0578381    205.95656  0.025389122  0.025625796            5 
  677000   0.96946799   -7.1140279    206.19055  0.025380422   0.02560761            4 
  678000   0.99591794   -7.1072214    206.20042  0.025344201  0.025589208            5 
  679000   0.96778444   -7.0918005    206.66254  0.025363592  0.025571168            2 
  680000    0.9730611   -7.0803003    206.80534  0.025343792  0.025553067            2 
  681000   0.97380003   -7.0687691    207.22624  0.025358082  0.025534761            3 
  682000   0.98984632   -7.1171048    207.05068  0.025299447  0.025516482           15 
  683000   0.97403825   -7.0937886    207.13623  0.025272844  0.025497742            9 
  684000   0.99659806   -7.0894838    207.27928  0.025253324  0.025479169            5 
  685000   0.98806762   -7.0854089    207.40368  0.025231591  0.025460623            8 
  686000    1.0029488   -7.0849737    208.56528  0.025335919  0.025442247            3 
  687000   0.97003164   -7.1129634    207.77559  0.025203249  0.025424059            7 
  688000   0.96182513   -7.1122041    207.94003  0.025186535  0.025405622           10 
  689000   0.98202316   -7.0616786    208.36965  0.025201942  0.025387659            5 
  690000   0.98681948   -7.1128816     207.6442  0.025077801  0.025369165            7 
  691000   0.96040453   -7.1042784     208.3538  0.025127087  0.025350554            7 
  692000     0.985501   -7.0968125    208.38507  0.025094541   0.02533215            5 
  693000   0.97465203   -7.0589645     209.2675  0.025164442   0.02531377            2 
  694000   0.99298187   -7.0920297    208.87228  0.025080725  0.025295399            5 
  695000   0.97763518    -7.086986    208.99823   0.02505974  0.025276832            4 
  696000   0.96896018   -7.1242226     208.9724  0.025020642  0.025258283            6 
  697000   0.98573663   -7.1168864     209.1573  0.025006851  0.025239713            7 
  698000   0.96297441   -7.1224519    209.38594  0.024998321  0.025220816            5 
  699000   0.96580344   -7.1349914     209.4142  0.024965927  0.025202405            4 
  700000   0.98685817   -7.0842509    209.23414  0.024908826  0.025183752            4 
  701000   0.99428886   -7.0904228    209.72802  0.024932005  0.025165081            5 
  702000    0.9710765   -7.1313677    209.49328  0.024868623   0.02514627            4 
  703000   0.97503175   -7.1160522    210.72155  0.024978847  0.025127597            6 
  704000   0.94422678    -7.140733    210.54528  0.024922499  0.025109056            6 
  705000   0.96485488   -7.1161696    210.37097  0.024866545  0.025090493            3 
  706000   0.97586086   -7.1200315    210.58892  0.024857049  0.025071808            3 
  707000   0.96554268   -7.1207792    210.60013  0.024823212  0.025053281            7 
  708000   0.97109519   -7.1071448    211.48774  0.024892625  0.025034866            7 
  709000   0.97093019   -7.1093562    210.98896  0.024798891  0.025016712            3 
  710000   0.96805938   -7.1293383    211.20299  0.024789083  0.024998052            3 
  711000   0.95478487   -7.1278569    211.03699  0.024734762  0.024979249            4 
  712000    0.9651795   -7.1292022    211.87114  0.024797652  0.024960828            3 
  713000   0.98449247   -7.0787585    212.29249  0.024812119   0.02494237            4 
  714000   0.96711683   -7.0651255    213.03039  0.024863491   0.02492397            4 
  715000   0.97510412   -7.1252249    211.66546  0.024669634  0.024905455            6 
  716000   0.96382041   -7.1326207    212.01513  0.024675876  0.024886906            2 
  717000   0.98368124   -7.0945339    212.65491  0.024715819   0.02486853            3 
  718000    0.9675072   -7.0827491    212.67648    0.0246839  0.024849977            4 
  719000   0.95917762   -7.1235357    212.31205  0.024607331  0.024831367            5 
  720000   0.96759104   -7.1349381    212.83231  0.024633369  0.024812823            6 
  721000   0.95755858   -7.1910987    211.45796  0.024440356  0.024793895            7 
  722000   0.96697241   -7.1841884    211.78033  0.024443713  0.024774556            4 
  723000   0.97680963   -7.1624001    212.26375  0.024465624  0.024755244           17 
  724000   0.98779307   -7.1474507    212.73243  0.024485777  0.024736215            6 
  725000   0.97749264   -7.1663312    212.45363  0.024419958  0.024717519            7 
  726000   0.96306235   -7.1452605    212.79056  0.024424995  0.024698372            3 
  727000   0.95775692   -7.1190712     212.8279  0.024395679  0.024679454            2 
  728000    0.9710951   -7.1467107    212.47464  0.024321731  0.024660438            5 
  729000   0.97822764   -7.1351762    213.28458  0.024380954  0.024641293            3 
  730000   0.97443949    -7.131611    213.23165  0.024341513  0.024622072            4 
  731000   0.98062731   -7.1411696    213.48948  0.024337606  0.024602732            5 
  732000   0.96564792    -7.205997      212.482  0.024189663  0.024583281            6 
  733000    0.9954148   -7.1506578    213.70669  0.024295894  0.024563686            9 
  734000   0.96648916   -7.1979471    213.28457   0.02421487  0.024543991            3 
  735000   0.95290639   -7.1562864    213.59433  0.024217045  0.024524405            3 
  736000    0.9506215   -7.1561185    214.30085  0.024264136  0.024504961            4 
  737000   0.95526312   -7.1689676    213.89436  0.024185251   0.02448548            6 
  738000   0.94585377   -7.1371747     213.9642  0.024160366  0.024465839            3 
  739000   0.95634177   -7.1601168    214.08791  0.024141622   0.02444639           13 
  740000   0.96602843   -7.1486778    215.09793   0.02422274   0.02442735           11 
  741000   0.96594068   -7.1490434    214.95634  0.024174128   0.02440798            6 
  742000   0.96320108   -7.1702942    215.58053  0.024211649  0.024388627            4 
  743000   0.98000541   -7.1209157    215.07723  0.024122614  0.024369494            4 
  744000   0.97941292   -7.1710582    215.19576  0.024103468  0.024350291            1 
  745000   0.97100938   -7.1398491    215.29155  0.024081829  0.024331458            4 
  746000   0.97884867   -7.1502766    215.15923  0.024034767  0.024312242            4 
  747000   0.94308118   -7.1616791    215.66144  0.024058616  0.024293257            5 
  748000   0.94937427   -7.2062782    214.97503  0.023949981  0.024273864            5 
  749000   0.96839469   -7.1496022    216.31484  0.024067072  0.024254559            9 
  750000   0.94633966   -7.1490987    216.12804  0.024014227  0.024235388            6 
  751000   0.95570473   -7.1479344    216.02467   0.02397078   0.02421619           10 
  752000   0.95799043   -7.1575222    216.04181  0.023940803   0.02419691            7 
  753000   0.96389963   -7.1739408    215.67773  0.023868718  0.024177481           10 
  754000   0.92373118   -7.1646729    215.66494  0.023835648  0.024157972            3 
  755000   0.95393975   -7.1670915    215.85161  0.023824681  0.024138586            4 
  756000   0.94084553   -7.2049546    215.41644  0.023745198  0.024119098            3 
  757000   0.94546294   -7.1346999    216.71762  0.023857069  0.024099836            6 
  758000   0.93563293   -7.1672116    216.70668  0.023824393  0.024080658            6 
  759000   0.94995476   -7.1974221    216.47151  0.023767184  0.024061636            4 
  760000   0.95778317   -7.1679339    217.06538  0.023801029    0.0240425            4 
  761000    0.9745862    -7.141938    217.89142  0.023860208   0.02402317            4 
  762000   0.95827238   -7.2004323    217.06211  0.023738201   0.02400383            5 
  763000   0.93307741   -7.2067418    216.89645  0.023688996  0.023984391            8 
  764000   0.97478238   -7.1374608    217.87959  0.023765226  0.023964786            7 
  765000   0.92869343   -7.2076055    217.01152  0.023639599  0.023945087            8 
  766000    0.9499709   -7.1862838    216.86385  0.023592673  0.023925416            4 
  767000   0.94876092   -7.2270552    217.56031  0.023637583  0.023905916           12 
  768000   0.93910057    -7.218153    217.56101   0.02360688  0.023886373            3 
  769000    0.9318268   -7.1645708    218.24595  0.023650407  0.023866787            3 
  770000   0.95522141   -7.1982957    217.75412  0.023566463  0.023847476            3 
  771000   0.94176322   -7.1856734    218.28536  0.023593316   0.02382825            8 
  772000   0.95736562   -7.2337559    218.17059  0.023550366  0.023809027            4 
  773000   0.95499893   -7.1832703    218.15289  0.023517992  0.023789579            4 
  774000   0.96932503   -7.1899153    218.25608  0.023498717  0.023770702            5 
  775000   0.93471287   -7.2093985    218.35682  0.023479227  0.023751483            5 
  776000   0.94013184   -7.1813416    219.22627   0.02354234  0.023732436            4 
  777000   0.92305491   -7.1880297    218.82051  0.023468523  0.023713342            5 
  778000   0.94987703    -7.192896     218.5527  0.023409672  0.023694038            5 
  779000   0.94972195   -7.2604186    218.14128   0.02333561  0.023674537            8 
  780000   0.94247889   -7.2220481    218.73095  0.023368692  0.023654977            6 
  781000   0.92847196   -7.2043688    218.59133  0.023323872  0.023635679            7 
  782000   0.96234267   -7.2136996    219.43657  0.023384118  0.023616493            7 
  783000   0.95155093    -7.177404     219.6991  0.023382195  0.023597337            3 
  784000   0.93878204   -7.2313776    219.24264  0.023303852  0.023578006           12 
  785000   0.94305499   -7.2252956    219.24244  0.023274144  0.023558906            4 
  786000   0.92884704   -7.2305554    219.92383  0.023316776  0.023539697            7 
  787000   0.94012918   -7.1976866    219.74772  0.023268501  0.023520644            3 
  788000   0.94179827   -7.2020312     220.1415  0.023280615  0.023501497           17 
  789000   0.93228817   -7.2015397    220.32416  0.023270401  0.023482432           11 
  790000   0.93805277   -7.2042473    220.00052  0.023206806  0.023463382            4 
  791000   0.95905878   -7.2013233    220.63027  0.023243813  0.023444412            3 
  792000   0.93496243   -7.2548907    220.21041  0.023170288  0.023425586            6 
  793000   0.93334839   -7.2017579    220.74891  0.023197657  0.023406669            8 
  794000   0.92869558   -7.1955738    221.04712   0.02319974  0.023387708            7 
  795000   0.93988463   -7.2399538    220.92904   0.02315818  0.023368841            8 
  796000   0.93695957   -7.2452789    220.58361  0.023092924  0.023349944            4 
  797000   0.95138452   -7.2428588    220.93443   0.02310063  0.023331016            7 
  798000   0.93371661   -7.2347452    221.20765  0.023100214  0.023312039            8 
  799000   0.92517981   -7.2132832    221.86482  0.023139844  0.023293022            5 
  800000   0.93687229   -7.2428187    220.28663  0.022946524  0.023274116            8 
  801000    0.9506029   -7.2348198    221.64135  0.023058817  0.023255018           10 
  802000   0.93359448   -7.2709497     220.9683   0.02296013  0.023235843            6 
  803000   0.90881227   -7.2313794    222.03415  0.023042149  0.023216787            7 
  804000   0.91171732   -7.2183518    222.30653  0.023041722  0.023197792            4 
  805000   0.92552077   -7.2280257    222.32709  0.023015227  0.023178841            3 
  806000   0.90772703   -7.2132684    221.93356  0.022945984  0.023160155            4 
  807000    0.9320166   -7.2328437    221.83383  0.022907253  0.023141178            3 
  808000   0.93702167   -7.2368652    222.31375  0.022928399  0.023122321            7 
  809000   0.94516654   -7.2516087    222.04076  0.022871937  0.023103301            5 
  810000   0.94166677   -7.2797452    222.16674   0.02285666  0.023084241            5 
  811000   0.92436957   -7.2548348    222.59367  0.022872346  0.023065122           11 
  812000   0.92197093   -7.2449703    222.89215   0.02287481  0.023046009            6 
  813000   0.94777819   -7.2454294    223.51423  0.022910438   0.02302701            4 
  814000   0.93770807   -7.2864493    221.95862  0.022723037  0.023007958            7 
  815000   0.92566163   -7.2522474    222.78984  0.022780147  0.022988921            7 
  816000   0.91006446   -7.2256972    223.79136   0.02285451  0.022970192            7 
  817000   0.92465776   -7.2611699     222.8631  0.022731855  0.022951216            5 
  818000   0.92753508   -7.2686734    222.74779  0.022692318  0.022932134            5 
  819000   0.91320175   -7.2482851    223.64191  0.022755587   0.02291324            8 
  820000   0.91806569   -7.2738346    223.76833  0.022740684  0.022894147            5 
  821000    0.9078676   -7.2592229    223.67529  0.022703542  0.022875198           15 
  822000   0.94476234   -7.2559635    224.26863  0.022736074  0.022856359            6 
  823000   0.94004457   -7.2791425    224.50037  0.022731912  0.022837581            5 
  824000   0.91691083   -7.2690932    224.29525  0.022683581  0.022819097            6 
  825000   0.91322912   -7.2716372    224.96473   0.02272371  0.022800551            7 
  826000   0.92894006   -7.2614394    224.98537  0.022698282  0.022781915            7 
  827000   0.94041902   -7.2469522    224.38222  0.022610059  0.022763486            6 
  828000   0.90786996   -7.2845722    224.33121  0.022577618   0.02274494            4 
  829000   0.92892483   -7.2935262    223.65229  0.022482136   0.02272608            5 
  830000   0.92643555   -7.2347917    224.53833  0.022544009  0.022707179            5 
  831000   0.92969148    -7.266804    224.69712  0.022532804   0.02268826            5 
  832000   0.91677562   -7.2662837    224.54059  0.022490043  0.022669333            7 
  833000   0.91966738   -7.2858371    224.35451  0.022444429  0.022650241            4 
  834000   0.89640516   -7.2681886     224.6726  0.022449301  0.022631336           11 
  835000    0.9259113   -7.2727716    224.99806  0.022454897  0.022612591            6 
  836000   0.93492955   -7.2724443    225.30242  0.022458375    0.0225939            8 
  837000   0.91180887   -7.2817876     224.7239  0.022373944  0.022575341            6 
  838000    0.9432066   -7.2572301    225.05737  0.022380407   0.02255668            5 
  839000   0.90258149   -7.3010985    225.14228  0.022362165  0.022537799            3 
  840000   0.93534092   -7.2867808    225.50338  0.022371367  0.022518854            5 
  841000   0.90173945   -7.2413136    225.72983  0.022367205  0.022500103            6 
  842000    0.9071933   -7.2567614    225.21646  0.022289832  0.022481349            8 
  843000   0.94647038   -7.2684048    225.75405  0.022316533  0.022462612            3 
  844000   0.89714324   -7.3099036    225.84619  0.022299189  0.022443833            7 
  845000   0.91154841   -7.2764548    226.18435  0.022306149  0.022425009            5 
  846000   0.90488465   -7.2793747    225.38837  0.022201376  0.022406154            4 
  847000   0.91968124   -7.2950922    225.16738  0.022153422  0.022387188            8 
  848000    0.9049806   -7.2690359    226.51199  0.022259433  0.022368215            6 
  849000   0.90612284   -7.3008274      225.842  0.022167452  0.022349259            8 
  850000    0.9140159   -7.2892316    225.80745  0.022137985  0.022330283            7 
  851000   0.91332369   -7.2840809    226.14555   0.02214508  0.022311329           11 
  852000   0.92816849   -7.2890553    225.68353  0.022073897  0.022292177            3 
  853000   0.91228454   -7.3123711    225.78772  0.022058198  0.022273052            5 
  854000   0.91476273   -7.2935225    227.08521  0.022158978   0.02225402            8 
  855000   0.93041363   -7.3165881    226.16888  0.022043751  0.022235101           15 
  856000   0.90703512   -7.2753053    226.91121  0.022090266  0.022216143            6 
  857000   0.89833608   -7.3058009    226.11826  0.021987385  0.022196956            6 
  858000   0.92146487   -7.3116091    225.93972  0.021944417  0.022178052            4 
  859000   0.91998727   -7.2853742    226.59599  0.021982537  0.022159016            5 
  860000   0.89180027   -7.2786196    226.94306  0.021990607  0.022140014            5 
  861000   0.89838773   -7.3023566    227.10302  0.021980548  0.022121074            4 
  862000   0.91079016   -7.3156126    226.92123  0.021937474  0.022102167            6 
  863000   0.91093043   -7.3439219    227.15332  0.021934465  0.022083418            8 
  864000    0.9089024   -7.3124958    227.57279  0.021949536  0.022064528            3 
  865000   0.89837253   -7.3156735    226.64512   0.02183479  0.022045541            8 
  866000   0.90163769   -7.2944709    227.47245  0.021889189  0.022026616            4 
  867000   0.88549492   -7.3212617    226.80999  0.021800268  0.022007554            7 
  868000   0.88185367   -7.2750907    227.59132  0.021850165  0.021988653           11 
  869000   0.91919576    -7.294845    227.78818  0.021843899  0.021969591            8 
  870000   0.91349019   -7.3409666    227.36781  0.021778526  0.021950591            9 
  871000   0.91388264   -7.3366663    227.50093  0.021766258   0.02193176            5 
  872000   0.88602233   -7.3262227    227.78084  0.021768047  0.021913093            4 
  873000   0.91605016   -7.3329809    227.89529  0.021754037  0.021894238           10 
  874000   0.91435786   -7.3217759    227.71051  0.021711529  0.021875434            6 
  875000   0.92140834   -7.3679702    227.30804  0.021648385    0.0218567            5 
  876000   0.91749231   -7.2959712    228.15334  0.021704085  0.021838105            3 
  877000   0.90674776   -7.3373964    228.35964  0.021698939   0.02181951            6 
  878000   0.91350304   -7.3183743    227.82507  0.021623488  0.021800914            6 
  879000    0.9232157   -7.3306962    228.52142  0.021664905  0.021782128            6 
  880000   0.90112955   -7.3279094    227.91133  0.021582512   0.02176339            7 
  881000   0.90165899   -7.3519412    227.99442  0.021565874  0.021744543            7 
  882000   0.90920763   -7.3420908    228.66439  0.021604723  0.021725621            9 
  883000   0.91095896   -7.3573734    228.60229  0.021574395  0.021707026            4 
  884000    0.9022464   -7.3261644    229.13336  0.021600053  0.021688372            9 
  885000   0.89934615   -7.3048539    228.98521  0.021561696  0.021669723            7 
  886000   0.90232636   -7.3381757    228.69842  0.021510386  0.021651232            6 
  887000   0.91947335   -7.3014008    230.00022  0.021608439  0.021632831           10 
  888000    0.8783997   -7.3147188     230.0377  0.021587622  0.021614559           12 
  889000   0.89887836   -7.3503235     229.3405  0.021497985  0.021596368            6 
  890000   0.88904096   -7.3354961    230.32175  0.021565707  0.021578255            8 
  891000   0.89355982    -7.325328    230.31767  0.021541121  0.021560337            7 
  892000   0.91139504   -7.3156213    230.37995   0.02152279  0.021542193            4 
  893000   0.89502625   -7.3342522    230.38098  0.021498785  0.021524045            5 
  894000   0.89283101    -7.370606    229.92157  0.021431913  0.021505816            8 
  895000   0.89020182   -7.3961499    229.70628  0.021387921  0.021487461           14 
  896000   0.90499682   -7.3952235    229.50782  0.021345593  0.021469016           11 
  897000   0.90515366   -7.3772159    230.15515  0.021381935  0.021450678           11 
  898000   0.88839131   -7.3826011     230.2998  0.021371548  0.021432576            6 
  899000   0.90537559    -7.362504    230.62735  0.021378138  0.021414468           16 
  900000   0.90150521   -7.3633613    230.53061  0.021345427  0.021396317            6 
  901000   0.88567856   -7.3425523    230.68449  0.021335969  0.021378267            5 
  902000   0.89258819   -7.3773415    230.67771  0.021311688   0.02136021           11 
  903000   0.89866258   -7.3514505    231.19858  0.021336155  0.021342152            9 
  904000   0.89853551   -7.3623949    230.51394  0.021249441  0.021324216            8 
  905000    0.8905844   -7.3448976    230.81592  0.021253768  0.021306223           17 
  906000    0.8776304   -7.3420981    232.03614  0.021342544  0.021288241           14 
  907000   0.88611791   -7.3414255      231.413   0.02126176  0.021270481            7 
  908000   0.88735428   -7.3520435    232.10862  0.021302186  0.021252668            7 
  909000   0.87129327   -7.3110823    232.40589  0.021306004  0.021235114            6 
  910000   0.86859956    -7.357162    231.78673  0.021225891  0.021217346            8 
  911000   0.87675359   -7.3965835    231.62513  0.021187809  0.021199448            4 
  912000    0.8786939   -7.3391115    231.77775  0.021178523  0.021181485           10 
  913000   0.87272234   -7.3791479    231.95569  0.021171567  0.021163589            7 
  914000   0.90169402   -7.3799024    232.17467  0.021168369  0.021145612            7 
  915000   0.87516509   -7.3887844    231.48405  0.021082336  0.021127489            5 
  916000   0.89015988   -7.3750931    232.08542   0.02111403  0.021109619           10 
  917000   0.90694882   -7.4139135    231.09303  0.021000821  0.021091503           12 
  918000    0.8927088   -7.3781236    232.09795  0.021069167  0.021073483            6 
  919000   0.86889695    -7.396429    231.81826   0.02102088  0.021055485            8 
  920000   0.88191243   -7.3818224    232.28286  0.021040114   0.02103751            5 
  921000   0.89198176   -7.4077149    231.86205  0.020979193  0.021019583           11 
  922000   0.87538109   -7.3861731     232.7015  0.021032312  0.021001749            7 
  923000   0.86910916   -7.3921023    232.22246  0.020966274  0.020983905           11 
  924000   0.88146263   -7.3879888    232.86339  0.021001388  0.020966214            8 
  925000   0.87807353   -7.4165802    232.73544  0.020967157  0.020948579           13 
  926000   0.89929964   -7.3736606    233.14963  0.020981788  0.020930861            7 
  927000   0.87945245   -7.4191092    233.47268  0.020988195   0.02091324           13 
  928000   0.87888572     -7.37893    233.47981  0.020966218  0.020895626           12 
  929000   0.87919354   -7.3955501    233.21239  0.020919662  0.020878133            4 
  930000   0.87981284   -7.3907995    233.19896  0.020895964  0.020860677           10 
  931000   0.91827799   -7.3837142     233.3988  0.020891407  0.020843216           13 
  932000   0.88422137   -7.3566691    234.15399  0.020936515  0.020825868            6 
  933000   0.87829851   -7.3655582    233.77683  0.020880389  0.020808422            4 
  934000   0.89403989   -7.3869426    233.96915  0.020875192  0.020790952            8 
  935000   0.88378655   -7.3871337    233.97938  0.020853777  0.020773461            5 
  936000   0.90267642   -7.3656061    234.35431  0.020864878  0.020755909            5 
  937000   0.86133533   -7.3823072    233.77136  0.020790765  0.020738471           11 
  938000   0.87323011   -7.3701782     233.4331  0.020738548  0.020721026            9 
  939000   0.86166486   -7.3971774    233.61363  0.020732484  0.020703495            5 
  940000   0.86856706   -7.4097462    233.53038  0.020703048  0.020685848           18 
  941000    0.8665921   -7.4148133    233.75279  0.020700743  0.020668339           20 
  942000   0.87832781   -7.4051268    234.16386  0.020715133  0.020650966            4 
  943000   0.86465149    -7.411615    233.86142  0.020666438  0.020633537           16 
  944000    0.8651121   -7.4051757    233.66982  0.020627632   0.02061599           35 
  945000   0.88970993   -7.3958408    234.16279  0.020649276  0.020598348           22 
  946000   0.88076665   -7.3891493    234.16618  0.020627747   0.02058074           32 
  947000   0.87687174   -7.4121356     233.9043  0.020582919  0.020563151           25 
  948000   0.88783016   -7.4309393    233.21689  0.020500782  0.020545506           46 
  949000   0.87747701   -7.3911664    234.73046  0.020612088  0.020527839           19 
  950000   0.89848962   -7.4136688    234.68127  0.020586076  0.020510252           21 
  951000   0.87744863   -7.3966267    234.38424  0.020538402  0.020492772           13 
  952000   0.88485704   -7.3873983    234.96424  0.020567598  0.020475314           11 
  953000   0.88458114   -7.4212735    234.97858   0.02054727  0.020457831            6 
  954000   0.87441285   -7.4244706    234.96606  0.020524638  0.020440392           15 
  955000   0.88233755   -7.4535073    234.42699  0.020456108  0.020422903            7 
  956000    0.8658552   -7.4277162    235.36682  0.020516634  0.020405309            7 
  957000    0.8708562   -7.4255278    235.83687  0.020536126  0.020387879           10 
  958000   0.87842899   -7.4670327    234.72881  0.020418302  0.020370468            7 
  959000   0.87739596   -7.4274681    235.89825  0.020498632  0.020353093           12 
  960000   0.87652352   -7.4304337    234.69963  0.020373232  0.020335774           14 
  961000   0.87094839   -7.4511406    235.32379  0.020406156   0.02031848            4 
  962000   0.87592271   -7.4158455    235.18942  0.020373304   0.02030104            9 
  963000   0.88106428   -7.4109649     235.4461   0.02037436  0.020283814            7 
  964000   0.85785418   -7.4326106    235.72856  0.020377642  0.020266568           14 
  965000   0.86989643   -7.4448355    236.04887  0.020384186  0.020249329            9 
  966000   0.85596077   -7.4295474    235.54758  0.020319839  0.020232076            5 
  967000   0.85834123   -7.4540301    235.76222  0.020317323  0.020214854            7 
  968000   0.87496462    -7.412924    236.54929  0.020364092  0.020197619            7 
  969000   0.87990913   -7.4550203    236.16179  0.020309751    0.0201805            6 
  970000   0.84936799   -7.4371028    236.37043  0.020306738  0.020163478            7 
  971000   0.86886631   -7.4720059    235.41123  0.020203504  0.020146331            7 
  972000   0.85702057   -7.4675993    235.96284  0.020230011  0.020129203            9 
  973000   0.86072904   -7.4340939    236.42237  0.020248576   0.02011216           10 
  974000   0.85325862   -7.4348172    236.20212  0.020208942  0.020095031           18 
  975000   0.84690249    -7.440279    236.35383  0.020201182  0.020077776            8 
  976000   0.85875981   -7.4480729    236.48196  0.020191424  0.020060645            9 
  977000   0.86724751   -7.4893762    236.38719  0.020162674  0.020043401           11 
  978000   0.86492628   -7.4476619     235.8685  0.020097861  0.020026075           10 
  979000   0.85797008   -7.4749344    236.21341  0.020106691  0.020008653           10 
  980000   0.86087502   -7.4476685    236.19016  0.020084197  0.019991221            6 
  981000   0.87606552   -7.4707311    236.48854  0.020089071   0.01997377            3 
  982000   0.85620586   -7.4726719    235.83467  0.020013126  0.019956317            9 
  983000   0.83989479   -7.5067484    235.58072  0.019971237  0.019938802           17 
  984000   0.88942619   -7.4541739    236.45296  0.020024811  0.019921291           11 
  985000   0.84137782   -7.4521414    236.35103  0.019995857   0.01990382           13 
  986000   0.85463508     -7.47812    235.73475  0.019923492  0.019886189           22 
  987000   0.85833898   -7.5134107    235.89743  0.019917041    0.0198686           16 
  988000   0.84553954   -7.5064548    235.62752  0.019874116  0.019851161            6 
  989000   0.86162458   -7.4489754    236.85134   0.01995714  0.019833779            9 
  990000   0.83943036   -7.4524464    237.09255  0.019957285  0.019816538           10 
  991000   0.89639785   -7.4713518    236.04365  0.019848945  0.019799274            4 
  992000   0.87664436   -7.4813125    237.35132  0.019938787  0.019782019            4 
  993000   0.86692624    -7.444557    237.21966  0.019907658  0.019764943           10 
  994000   0.86414589   -7.4942686    236.76703  0.019849684  0.019747912            6 
  995000     0.852569    -7.501789    236.80034  0.019832524  0.019730786            3 
  996000   0.85584345   -7.5062509    237.18239  0.019844578  0.019713723            5 
  997000   0.87400185   -7.5112634    237.28518  0.019833264  0.019696603           10 
  998000   0.85597959    -7.447147     237.4186  0.019824532  0.019679539           11 
  999000   0.84784383   -7.4147924    237.87232  0.019842536  0.019662557            4 
 1000000   0.85917081   -7.4758196    237.35353  0.019779461  0.019645532           22 
 1001000   0.84036114    -7.494686    237.06589  0.019735755  0.019628388            8 
 1002000   0.85777734   -7.4849002    237.37298  0.019741598  0.019611438            8 
 1003000   0.85279603    -7.504484    237.58905  0.019739868  0.019594415            6 
 1004000   0.85607483   -7.4505079    237.90329  0.019746289  0.019577408           13 
 1005000   0.85722436   -7.4864371    238.38789  0.019766823   0.01956051            9 
 1006000   0.85264712   -7.4785851    238.34543  0.019743657  0.019543656           10 
 1007000   0.84672597   -7.4598241     237.9635  0.019692445  0.019526719            9 
 1008000   0.85656293   -7.5014587    237.82966  0.019661843  0.019509698            6 
 1009000   0.85276032   -7.4928332    237.59098  0.019622644  0.019492659           14 
 1010000   0.85935555    -7.500143    237.98937  0.019636086  0.019475628           12 
 1011000   0.84565604   -7.4741201    238.16224  0.019630914  0.019458708            4 
 1012000   0.84750964   -7.4629743    238.25038  0.019618773   0.01944179           19 
 1013000   0.85350833      -7.4893    238.24541  0.019598997  0.019424864           11 
 1014000   0.85078241   -7.5154952    237.24504  0.019497456  0.019407953           10 
 1015000   0.84868714   -7.4660708     237.6392  0.019510608  0.019390936            8 
 1016000   0.85064991   -7.5181044    238.05718  0.019525688   0.01937382           10 
 1017000   0.83172328    -7.499061     237.9759  0.019499828   0.01935677            7 
 1018000   0.84714888   -7.5352773    238.30178  0.019507349  0.019339699            9 
 1019000    0.8491742   -7.5380236    238.05786  0.019468258  0.019322582           19 
 1020000   0.85541736   -7.5242287    237.59067  0.019411002  0.019305503           11 
 1021000   0.85147911    -7.504463     237.9779  0.019423596  0.019288575           11 
 1022000   0.83366834   -7.5396842    238.61067  0.019456187  0.019271541           13 
 1023000   0.83841765   -7.5330972    238.64849  0.019440248  0.019254484           19 
 1024000   0.83412025    -7.534046    238.26804  0.019390303   0.01923753           10 
 1025000   0.84671346   -7.5340843    238.45687  0.019386737  0.019220592           20 
 1026000   0.84441703    -7.521899    238.12858  0.019341177  0.019203562           19 
 1027000   0.85170446   -7.5356412    237.83849  0.019298807   0.01918642           26 
 1028000   0.83931919   -7.5436246    238.42684  0.019327727  0.019169314           14 
 1029000   0.85642593   -7.5157243    238.61497  0.019324179    0.0191524            9 
 1030000   0.83363317   -7.5092032    238.82988  0.019322806  0.019135509           19 
 1031000   0.85833229   -7.5183956    238.91354  0.019310826  0.019118667           11 
 1032000   0.84953736   -7.5246994    238.46169  0.019255628  0.019101805           12 
 1033000   0.82932763    -7.517098    239.11603  0.019289774  0.019084811            2 
 1034000   0.84124722   -7.5553322    238.10323  0.019189493  0.019067829            8 
 1035000   0.83086451   -7.5527948    239.28572  0.019266161   0.01905091           18 
 1036000   0.86221247   -7.5286652    238.71825  0.019201918  0.019034048           11 
 1037000   0.83521668   -7.5077367    239.30622  0.019230651  0.019017276            6 
 1038000   0.83859795   -7.5447576    239.13526  0.019198399  0.019000578           11 
 1039000   0.83421837   -7.5530948    239.35344  0.019197421  0.018983906           17 
 1040000   0.83633717   -7.5102941    239.61212  0.019199689  0.018967182           14 
 1041000    0.8371805   -7.5627744    239.24455  0.019151821  0.018950423            6 
 1042000   0.84472118   -7.5085477    240.03852  0.019196938  0.018933701           13 
 1043000   0.82494452   -7.5417962    239.53159  0.019138031  0.018917016            7 
 1044000   0.83757931   -7.5535558     238.6712  0.019051022  0.018900228            7 
 1045000   0.83856381   -7.5785907    238.81028  0.019043882  0.018883468            9 
 1046000   0.84788068   -7.5466148     239.5127  0.019081636  0.018866636            9 
 1047000   0.81959235   -7.5241714    239.43585  0.019057294  0.018849883           19 
 1048000    0.8099399   -7.5659527     238.7129  0.018981624  0.018833038           10 
 1049000   0.83791061   -7.5546929    238.95069  0.018982419  0.018816246           12 
 1050000    0.8300197   -7.5850723    239.09363  0.018975685  0.018799483           11 
 1051000   0.83266711   -7.5530186    239.50914  0.018990576  0.018782775           11 
 1052000   0.83639578   -7.5281618    240.24094  0.019030492  0.018766191           11 
 1053000   0.84259456   -7.5014248    240.05169  0.018997443  0.018749653            9 
 1054000   0.83465619   -7.5371072    240.18518  0.018989973  0.018733205           10 
 1055000   0.83394597    -7.532536    239.78268   0.01894018  0.018716678           16 
 1056000   0.84588324   -7.5394114    239.81832  0.018925057  0.018700093           10 
 1057000   0.81852926   -7.5394345    240.42824  0.018955238  0.018683456           11 
 1058000   0.82441084   -7.5432608    240.27673  0.018925388  0.018666798           30 
 1059000   0.81441016   -7.5723474    239.65913  0.018858918  0.018650254            7 
 1060000   0.83751006   -7.5564589    239.29024  0.018812126  0.018633628           10 
 1061000   0.82085347   -7.5396902    239.94456  0.018845787  0.018617126           10 
 1062000   0.82141541    -7.538084    240.28771  0.018854968  0.018600651           11 
 1063000   0.84338241   -7.5869916    239.13529  0.018746887  0.018584174           19 
 1064000   0.83783092   -7.5911668    239.98142  0.018795537   0.01856762            9 
 1065000   0.82018107   -7.5572743    239.52385  0.018742085  0.018551069           12 
 1066000   0.82546502     -7.58221    239.81478  0.018747247  0.018534458            7 
 1067000    0.8325991   -7.5998766    240.18929  0.018758926  0.018517886            4 
 1068000   0.82062888   -7.6055983    240.07864  0.018732728  0.018501226            8 
 1069000    0.8281779   -7.5704123    240.42426  0.018742147  0.018484763           10 
 1070000   0.82271176   -7.5686684    239.41395  0.018645946  0.018468263            9 
 1071000   0.82162304   -7.5753309    240.70949  0.018729341  0.018451804           11 
 1072000   0.81185479   -7.5570009    240.61364  0.018704418  0.018435457            7 
 1073000   0.83029215   -7.5706609    241.00689  0.018717528  0.018419139           15 
 1074000   0.83323455   -7.5761119    240.77466  0.018682081  0.018402829           12 
 1075000   0.81820558   -7.6018982     240.3239   0.01862976  0.018386423           10 
 1076000   0.82631094   -7.5728265    240.45145  0.018622324  0.018370127           11 
 1077000   0.81533311   -7.5704409    240.35771   0.01859778   0.01835379            6 
 1078000   0.82358225   -7.5648778    240.51648  0.018592801  0.018337508           17 
 1079000   0.82608723   -7.5805772    240.97542  0.018611014  0.018321209           12 
 1080000   0.83226102   -7.5808223    240.97258  0.018593564   0.01830481            7 
 1081000   0.82100459   -7.5827883    240.86334  0.018567941  0.018288476           11 
 1082000   0.81919724   -7.5823449    240.74873  0.018541954  0.018272199           18 
 1083000   0.82569321   -7.5837707    240.88379  0.018535226  0.018255952           23 
 1084000   0.81533141   -7.5812176    241.22045  0.018544008  0.018239706            6 
 1085000   0.81302819   -7.5969355    240.51318  0.018472595  0.018223424           20 
 1086000   0.82000043   -7.5830339    241.16304  0.018505451  0.018207217            5 
 1087000    0.8260648   -7.6066457     241.0566  0.018480267  0.018190982           11 
 1088000   0.81595201   -7.6010006    240.62432  0.018430171  0.018174654            6 
 1089000   0.81282364   -7.5633677    241.03831  0.018444927   0.01815838            8 
 1090000   0.81217273   -7.5696211    241.74461  0.018482004  0.018142142           20 
 1091000   0.80365157   -7.6140721    240.87279  0.018398471  0.018125866           19 
 1092000   0.81967068   -7.6121823    240.32542  0.018339852  0.018109563           12 
 1093000   0.82458563   -7.6297477    240.24349  0.018316826  0.018093186            9 
 1094000   0.80628122   -7.6185218    240.41548  0.018313184  0.018076821           14 
 1095000   0.82131134   -7.5740878    241.09609  0.018348256  0.018060459            7 
 1096000   0.81183411   -7.5819628    241.60159   0.01836995  0.018044236            9 
 1097000   0.82537292   -7.5791879    241.34284  0.018333549  0.018028051            5 
 1098000   0.81059979   -7.5959146    241.05131  0.018294726  0.018011797           14 
 1099000   0.81732747   -7.6094219     241.3958  0.018304201  0.017995622           27 
 1100000   0.81597196   -7.6048317    240.48462  0.018218531  0.017979379            7 
 1101000   0.81174931   -7.5997502    240.58672  0.018209712  0.017963188            8 
 1102000   0.82541647   -7.6130728    240.90193  0.018217024  0.017946857           12 
 1103000   0.81141955   -7.6091838    240.65035  0.018181501  0.017930528           15 
 1104000   0.80440807   -7.6438531    240.90512  0.018184263  0.017914162           26 
 1105000   0.81062154   -7.6100998    240.94585  0.018170878  0.017897804           12 
 1106000    0.7991402   -7.6141421     241.3587  0.018185556  0.017881425           18 
 1107000   0.79969271   -7.6282207    240.63265  0.018114472  0.017865107           16 
 1108000   0.83254074   -7.6426105     240.6389  0.018098593  0.017848757           13 
 1109000   0.81051347   -7.6113069    241.23658  0.018127185  0.017832468            9 
 1110000   0.80304328   -7.6455818    240.63214  0.018065476  0.017816192           10 
 1111000   0.79418107   -7.6469354    241.17078  0.018089617  0.017799869           24 
 1112000    0.8136297   -7.6643583     240.5712  0.018028417  0.017783542           13 
 1113000   0.81395884   -7.6147535    241.17339  0.018057306  0.017767191           22 
 1114000   0.81498613   -7.6321184    241.09001   0.01803486  0.017750901           26 
 1115000   0.81628876   -7.6306153    240.92288  0.018006194  0.017734678           23 
 1116000   0.81768757    -7.611077    242.16548  0.018082847  0.017718563           13 
 1117000   0.79765768   -7.6215982    241.50079  0.018017069  0.017702503           16 
 1118000   0.82441155   -7.5956284    241.52798   0.01800298   0.01768633           23 
 1119000   0.82027621   -7.6727532    241.39866  0.017977261  0.017670189           22 
 1120000   0.80872277   -7.6419708    241.63035  0.017978449  0.017653991           20 
 1121000   0.79696217   -7.6527015    241.33395  0.017940377  0.017637839           25 
 1122000    0.8258537   -7.6824581    241.05939  0.017903995  0.017621604           20 
 1123000   0.80313559   -7.6588923    240.86421  0.017873569  0.017605403           28 
 1124000   0.81764346   -7.6860097    240.96212  0.017864926   0.01758918            9 
 1125000   0.79439126   -7.6558449    241.07898  0.017857702  0.017572965            9 
 1126000   0.81320089   -7.6473934    241.47718  0.017871313  0.017556754            8 
 1127000   0.80306228   -7.6642888    241.41364  0.017850757  0.017540649           14 
 1128000   0.81583653   -7.6614534     241.0962   0.01781148  0.017524553           16 
 1129000   0.80081948   -7.6544972     241.9859  0.017861375  0.017508562           16 
 1130000   0.81610469   -7.6478465    241.91205  0.017840122  0.017492556           15 
 1131000   0.79069832   -7.6594148    241.94649  0.017826885  0.017476568           10 
 1132000   0.79902595    -7.690857    241.76167  0.017797531   0.01746047           10 
 1133000   0.79442525   -7.6978618    241.21783  0.017741823   0.01744433            9 
 1134000   0.79155204   -7.6507551     242.0195   0.01778509   0.01742821           12 
 1135000   0.80081816   -7.6587093      241.953  0.017764538  0.017412205           11 
 1136000   0.81053657   -7.6943804    241.29977  0.017700981  0.017396192           16 
 1137000    0.8043228    -7.666285    241.89072  0.017728725  0.017380228            8 
 1138000   0.79308794   -7.6800941    241.59243  0.017691302  0.017364334           22 
 1139000   0.80785643   -7.6888379    241.25623  0.017651173  0.017348394           14 
 1140000   0.80126793   -7.6587623    241.64819  0.017664341  0.017332445           15 
 1141000   0.79507298   -7.6585976    241.89217  0.017666679  0.017316486           11 
 1142000   0.79231654   -7.6825638    241.50395   0.01762288   0.01730058           15 
 1143000   0.80762423   -7.6446976    242.23204  0.017660545  0.017284744           16 
 1144000   0.79279691    -7.644128    241.59971  0.017599046  0.017268937           25 
 1145000   0.81454411   -7.6779691    241.42921  0.017571267   0.01725312           17 
 1146000   0.79525865   -7.6701742    241.64465  0.017571601  0.017237291           21 
 1147000   0.80717444   -7.6400722    242.50965  0.017619126  0.017221556           23 
 1148000   0.78411281   -7.6416682    242.13994  0.017576941  0.017205845            8 
 1149000   0.78697395   -7.6743712    242.01273  0.017552418  0.017190165            9 
 1150000   0.79359336    -7.640403    243.15319  0.017619796  0.017174492           15 
 1151000   0.80601947    -7.642619    242.04341  0.017524139  0.017158816           12 
 1152000   0.81450688   -7.6680049    242.33376  0.017529931  0.017143105            6 
 1153000   0.79323971   -7.6512415    242.34793  0.017515751  0.017127403           24 
 1154000   0.79231555    -7.674798    241.67386  0.017451896  0.017111661            7 
 1155000   0.78450505    -7.665547    242.50258  0.017496578  0.017095958           15 
 1156000    0.7832561   -7.6716204    241.96423  0.017442635  0.017080218           16 
 1157000   0.79820407   -7.6831945     241.8703  0.017420794  0.017064454           21 
 1158000   0.78026579   -7.6677766    242.24334  0.017432595  0.017048846           12 
 1159000   0.77823736   -7.6733986    242.17614  0.017412722   0.01703323           13 
 1160000   0.80850838   -7.6936843    241.83856  0.017373459  0.017017508           18 
 1161000   0.77711603   -7.6690861    242.32374  0.017393321   0.01700181            7 
 1162000   0.77727671   -7.6695837    241.79436  0.017340388  0.016986146            7 
 1163000   0.80069625   -7.6849705    241.75825   0.01732289  0.016970563           13 
 1164000   0.78412935   -7.7000966    242.29949  0.017346756  0.016955006           11 
 1165000   0.79026829   -7.6495429    241.96411  0.017307876   0.01693938           22 
 1166000   0.78743752   -7.7189004    241.64644  0.017270329  0.016923772            8 
 1167000   0.79725874   -7.6807309    243.14295  0.017362393  0.016908216           19 
 1168000    0.7827236   -7.6830867    242.42709  0.017296454  0.016892691            7 
 1169000   0.78761465   -7.6750353    242.92404  0.017317083  0.016877175           10 
 1170000   0.78253888   -7.6848141    242.28345  0.017256656  0.016861687            8 
 1171000    0.8165371   -7.7033351    242.49381  0.017256889  0.016846181            9 
 1172000   0.77098524   -7.6883722    242.04394  0.017210178  0.016830688            6 
 1173000   0.79904853   -7.6869113    242.62122  0.017236518  0.016815225           11 
 1174000   0.78364179   -7.6763567     242.4339  0.017208539  0.016799767           15 
 1175000   0.80144501   -7.7218678     242.3027  0.017184589   0.01678429            9 
 1176000   0.79312565   -7.7022274    242.25532  0.017166618  0.016768877            6 
 1177000   0.77353911   -7.6982708    242.84009  0.017193436  0.016753506            9 
 1178000   0.77690911   -7.6994722    242.51959  0.017156168  0.016738131           30 
 1179000   0.76742088   -7.6786804    242.77878  0.017159936  0.016722805           29 
 1180000   0.79215282   -7.6934173    242.59669  0.017132534  0.016707429           13 
 1181000   0.78706432    -7.703888    242.01884  0.017077254  0.016691971            5 
 1182000   0.79319029   -7.6853679    243.15747  0.017143082  0.016676588            7 
 1183000   0.78413172   -7.7161218    242.81063  0.017104158  0.016661209           28 
 1184000   0.75974925   -7.7067883    242.98566  0.017102031  0.016645876           32 
 1185000   0.78004081   -7.6976139    243.01873  0.017089925  0.016630545           15 
 1186000   0.79308635   -7.7021758    242.37594   0.01703035  0.016615173           14 
 1187000   0.77787281   -7.7233912    242.39109  0.017017066  0.016599823           12 
 1188000     0.785863   -7.7392895     242.6117  0.017018217  0.016584469           22 
 1189000   0.79356844   -7.7213166    242.47246  0.016994145  0.016569087           10 
 1190000   0.78854695   -7.7078681    242.78873  0.017002012  0.016553701           27 
 1191000   0.78516521    -7.741378    242.69201  0.016980969  0.016538369           21 
 1192000   0.78535957   -7.7034799    242.51934  0.016954652  0.016523048           12 
 1193000   0.78272796   -7.7211664    242.21416  0.016919123   0.01650773           30 
 1194000   0.76144902   -7.7090835    243.11377   0.01696774  0.016492353           16 
 1195000   0.77274283   -7.7578554    242.09524  0.016882513   0.01647692           29 
 1196000   0.79379264   -7.7262288     242.4792   0.01689515  0.016461475           25 
 1197000   0.77739535   -7.7352998    242.12952  0.016856692  0.016446041           26 
 1198000   0.77893107   -7.7495775    241.77036  0.016817638  0.016430679           42 
 1199000   0.77035597   -7.7352692    242.49751   0.01685415  0.016415363           14 
 1200000   0.75081779   -7.7433558    242.16604  0.016817086  0.016400125           16 
 1201000   0.77799432   -7.7114556     242.3271  0.016814259  0.016384825           11 
 1202000   0.80040199   -7.7246525    242.46419  0.016809775  0.016369588           12 
 1203000   0.74530066    -7.721689    243.11734  0.016841046  0.016354363           16 
 1204000   0.78737833   -7.7022268    243.15177  0.016829441  0.016339185           10 
 1205000   0.76681165   -7.7553836    242.64906  0.016780709  0.016323979           17 
 1206000    0.7674822   -7.7689996    242.29809  0.016742544  0.016308744           14 
 1207000   0.77151217   -7.7422737     242.4463  0.016738905  0.016293498            5 
 1208000   0.78614396   -7.7372889    242.57706  0.016734069  0.016278332           23 
 1209000   0.77345007   -7.7456053    242.74004  0.016731461  0.016263229           11 
 1210000   0.76599202   -7.7365272    243.31846   0.01675747  0.016248178           12 
 1211000   0.78354217   -7.7243389    243.08219  0.016727374  0.016233073            7 
 1212000   0.75704247   -7.7407354    243.06738  0.016712554  0.016217982           13 
 1213000   0.77390942   -7.7107467    242.79237  0.016679882  0.016202948           15 
 1214000   0.77443472   -7.7401491    242.62059  0.016654351  0.016187957           15 
 1215000   0.75354961   -7.7541601    243.06913  0.016671408  0.016172958           14 
 1216000   0.77458623   -7.7305594    242.81969  0.016640604  0.016158026           19 
 1217000   0.77696047    -7.718037    243.47691  0.016671933  0.016143084           16 
 1218000   0.76921778   -7.7429654    242.98893  0.016624858  0.016128169           11 
 1219000   0.77415269   -7.7520301    243.36156  0.016636694  0.016113222           22 
 1220000   0.76635418   -7.7833637     243.0073  0.016598859  0.016098262           15 
 1221000    0.7760733   -7.7370125    243.19543  0.016598105  0.016083274           21 
 1222000   0.75710769   -7.7760483    242.75535  0.016554511  0.016068259           26 
 1223000    0.7743476   -7.7974165    242.78876  0.016543251  0.016053355           13 
 1224000   0.78958392   -7.7681341    243.04514  0.016547191   0.01603843           26 
 1225000   0.76284589   -7.7787044    243.45823  0.016561785  0.016023528           25 
 1226000   0.75808388   -7.7632227    242.90645   0.01651077   0.01600871           17 
 1227000   0.76173752   -7.7820031    243.40968  0.016531491  0.015993869           22 
 1228000    0.7621479   -7.7862039    242.85191  0.016480178  0.015979051           14 
 1229000   0.77197636   -7.7727674    243.37208   0.01650204  0.015964255           11 
 1230000   0.76518741   -7.7929679    243.00352  0.016463653   0.01594948           19 
 1231000   0.76790816   -7.7939467    243.00936  0.016450674  0.015934641           13 
 1232000    0.7623517   -7.8107323    242.99615  0.016436428  0.015919767           29 
 1233000   0.76185617   -7.7931715    243.28276  0.016442468  0.015904867           24 
 1234000   0.75539989   -7.7807404    243.73262  0.016459523  0.015890032           29 
 1235000   0.75130848   -7.7801575    243.62749  0.016439102  0.015875242           29 
 1236000   0.76033365   -7.7904603    243.18196  0.016395763  0.015860461           38 
 1237000   0.76255826   -7.7970964    242.97512  0.016368575  0.015845672           24 
 1238000    0.7475728   -7.8061878    242.89603  0.016350029  0.015830947           10 
 1239000   0.74548116   -7.7981025    243.43473  0.016373065  0.015816205           15 
 1240000   0.74229005   -7.8384011    242.85583  0.016320956  0.015801455           39 
 1241000   0.75816686   -7.8139453    242.94327  0.016313677  0.015786676           36 
 1242000   0.76121933    -7.792898    243.17139  0.016315848  0.015771895           21 
 1243000    0.7447396   -7.8338195     243.2336  0.016306892  0.015757173           42 
 1244000   0.74907398   -7.8467356     242.9492  0.016274732  0.015742477           19 
 1245000   0.75948112   -7.8036403    243.60857  0.016305795  0.015727807           36 
 1246000   0.74550137   -7.8246616    243.30458  0.016272377   0.01571323           23 
 1247000   0.75326855   -7.8025613    243.69994  0.016285749  0.015698608           19 
 1248000   0.74384861   -7.8079238    244.23245  0.016308256  0.015684006           21 
 1249000   0.75910665   -7.7938777    243.61349  0.016253903  0.015669497           14 
 1250000   0.74739127     -7.81989    243.60482  0.016240321  0.015655028           33 
 1251000   0.75931949   -7.8038654    243.23281  0.016202559  0.015640534           24 
 1252000   0.76358212    -7.825061    243.77278  0.016225558  0.015626067           14 
 1253000   0.74888801   -7.8130276    243.50237  0.016194625   0.01561163           15 
 1254000   0.75618908   -7.8191049    243.45511  0.016178569  0.015597186           25 
 1255000   0.74726915   -7.8162671    243.72909  0.016183871  0.015582739           26 
 1256000   0.75805123   -7.7954541    243.71995  0.016170379  0.015568297           10 
 1257000   0.74587943   -7.8185656    243.88171  0.016168239  0.015553897           31 
 1258000   0.76641133   -7.8153476    243.49417  0.016129714  0.015539513           22 
 1259000    0.7480689    -7.833667    243.59837    0.0161238  0.015525116           26 
 1260000   0.73671741   -7.8119392    243.95545   0.01613462  0.015510783           33 
 1261000    0.7514464   -7.8218952    243.87375  0.016116426   0.01549643           26 
 1262000   0.75671626   -7.8194893    243.58064    0.0160843  0.015482087           21 
 1263000    0.7715673   -7.7889875    243.65386  0.016076396  0.015467779           18 
 1264000   0.75611651   -7.8560201    243.75204  0.016070151    0.0154535           51 
 1265000   0.74990966   -7.7943397     244.5102  0.016107391  0.015439249           39 
 1266000   0.74134659    -7.814813    243.11734  0.016002985  0.015424981           36 
 1267000   0.74806703   -7.8239632    244.17124  0.016059671  0.015410703           17 
 1268000   0.76792268   -7.8295524    243.58595  0.016008541  0.015396435           12 
 1269000   0.74899679   -7.8350333    244.39561  0.016049095  0.015382209           16 
 1270000    0.7458982   -7.8492759    243.22739  0.015959802  0.015367981           36 
 1271000   0.73796082   -7.8327217    244.33451  0.016019834  0.015353762           21 
 1272000   0.76195984   -7.8250698    244.19493  0.015998096  0.015339551           14 
 1273000   0.73652634   -7.8145787    243.89789  0.015966084  0.015325361           21 
 1274000   0.73726519   -7.8086386    244.38338  0.015985308   0.01531114           52 
 1275000   0.75629352   -7.8706345    243.55086  0.015918357  0.015296936           39 
 1276000   0.73001012   -7.8369389    244.42276  0.015962824  0.015282735           19 
 1277000   0.75217441   -7.8405608    244.30894  0.015942896  0.015268553           27 
 1278000   0.74923018   -7.8460407    243.89883   0.01590368  0.015254374           15 
 1279000   0.74086518    -7.857178    243.29258  0.015851745  0.015240189           26 
 1280000    0.7342892   -7.8609658    243.80547  0.015872752  0.015226031           29 
 1281000   0.74397397   -7.8532219    243.71421  0.015854424  0.015211915           20 
 1282000   0.74399569   -7.8719853    243.89847  0.015854035  0.015197748           24 
 1283000   0.73263118   -7.8538192    243.40642  0.015809718   0.01518363           46 
 1284000   0.73063323   -7.8612256    242.92969  0.015766465  0.015169466           29 
 1285000   0.73504434   -7.8534235    243.95325  0.015820574  0.015155343           28 
 1286000   0.75472745   -7.8690259    243.31955  0.015767208  0.015141203           55 
 1287000   0.74050275    -7.875212    243.92757  0.015794326  0.015127074           36 
 1288000   0.72241257   -7.8567535    243.37522  0.015746326  0.015112909           31 
 1289000   0.73844355   -7.8709764    243.91152  0.015768782  0.015098774           40 
 1290000   0.74881182   -7.8746288    243.81252  0.015750163  0.015084627           67 
 1291000    0.7507458   -7.8786331    243.64917  0.015727419  0.015070575           71 
 1292000   0.72994116   -7.8733941    244.16927  0.015748792  0.015056454           51 
 1293000    0.7315745   -7.8800806    243.34006   0.01568317  0.015042339           69 
 1294000   0.74711233   -7.8874881    243.96817    0.0157115  0.015028245           96 
 1295000   0.73583886   -7.8554573    244.08094  0.015706624  0.015014161           73 
 1296000   0.73968731   -7.8836584    243.56142  0.015661099  0.015000087           40 
 1297000   0.74386794   -7.9030694    243.28288  0.015631128  0.014986012           49 
 1298000   0.73457689   -7.8810753    243.84214  0.015654991  0.014971943           86 
 1299000   0.72429867   -7.9000294    244.41841  0.015679908  0.014957888           66 
 1300000   0.73135271   -7.8657297    243.94031  0.015637199  0.014943858           92 
 1301000    0.7365956   -7.8924198    243.58701   0.01560255  0.014929861          125 
 1302000   0.72991859   -7.8536019    244.04947  0.015620166  0.014915877           74 
 1303000   0.73219482   -7.8887904    243.69856  0.015585735  0.014901959          101 
 1304000   0.72771595   -7.9132934    243.30512   0.01554864  0.014888001           82 
 1305000   0.73521408   -7.8809113    243.63227  0.015557616  0.014874037           77 
 1306000   0.74488138   -7.9080152    243.56653  0.015541509  0.014860041           82 
 1307000   0.71273195   -7.8985323    243.74684  0.015541114  0.014846068           85 
 1308000   0.72205277    -7.917521    243.92408  0.015540525  0.014832088           93 
 1309000   0.73661334   -7.9177504    243.13431  0.015478374  0.014818165           79 
 1310000   0.73390681   -7.9022439    243.35185  0.015480398   0.01480424           71 
 1311000   0.72861085   -7.9044445    243.55862  0.015481733   0.01479031           58 
 1312000   0.73020067   -7.9092622    243.51733   0.01546731  0.014776389           91 
 1313000   0.74380617     -7.91009    243.22446  0.015436942  0.014762471           62 
 1314000   0.73549463   -7.9193137    243.77468  0.015460089  0.014748584           80 
 1315000   0.72489528    -7.905547    243.16801  0.015409887  0.014734697           80 
 1316000   0.74145951   -7.9486775    243.21214  0.015400971  0.014720858          137 
 1317000   0.72780311   -7.9387851    243.48163  0.015406329  0.014707023          105 
 1318000   0.70788972   -7.9451906    243.68104  0.015407248  0.014693147          109 
 1319000   0.72983912   -7.9544279    243.35589  0.015375024  0.014679281           91 
 1320000   0.72257363    -7.939275    243.19454  0.015353191  0.014665444          111 
 1321000   0.74031589   -7.9372651    243.85203  0.015383045  0.014651606          127 
 1322000   0.71724483   -7.9358675    243.58641  0.015354665  0.014637814          180 
 1323000   0.73020334   -7.9221625    244.08816  0.015374664  0.014624052           84 
 1324000    0.7206449   -7.9076477    243.77777  0.015343515  0.014610323           85 
 1325000   0.73422238   -7.9166811    243.88919  0.015338942  0.014596553          102 
 1326000   0.72076074   -7.9123424    243.32453  0.015291888    0.0145828          104 
 1327000   0.71587188   -7.9122323     242.9191  0.015254904  0.014569041           92 
 1328000   0.69836549   -7.9180697    243.41856  0.015274759  0.014555232           85 
 1329000   0.70277706   -7.9514439     243.0914  0.015242751  0.014541458          124 
 1330000   0.73084698   -7.9567913    242.68522  0.015205841  0.014527686           73 
 1331000   0.73788739   -7.9386144    243.43693  0.015241481  0.014513927           81 
 1332000   0.70886196   -7.9692647    243.17737    0.0152138  0.014500146          116 
 1333000   0.73135399   -7.9182091    243.56321  0.015226508  0.014486399           89 
 1334000   0.72576249   -7.9648317    242.85512  0.015170859  0.014472659           99 
 1335000    0.7228537   -7.9406099     243.2009   0.01518108  0.014458901          100 
 1336000   0.72525658   -7.9507684    242.78868  0.015144005  0.014445185          116 
 1337000   0.71602137   -7.9544697    242.89457  0.015139278  0.014431467           74 
 1338000   0.71939904   -7.9778701    242.56918  0.015107697  0.014417741          125 
 1339000   0.72024804   -7.9705326    242.85407  0.015114144  0.014404026          122 
 1340000   0.71816589   -7.9562976    243.42397  0.015138306  0.014390276          159 
 1341000    0.7189518   -7.9613436    242.38566  0.015062494  0.014376573          134 
 1342000   0.70867798   -7.9377037    243.24788  0.015104811  0.014362894          149 
 1343000   0.71610001   -7.9589734    242.81256  0.015066553  0.014349231          104 
 1344000   0.71785306   -7.9641381     243.2585  0.015082992  0.014335584          107 
 1345000   0.71034966   -7.9744683    243.06986  0.015060091  0.014321944          192 
 1346000   0.73300247   -7.9732743    243.02068  0.015045857  0.014308262          134 
 1347000   0.71399365   -7.9634144    243.22872  0.015047557   0.01429466          117 
 1348000   0.71004095   -7.9468564    243.08297  0.015027384  0.014281043          127 
 1349000   0.71839585   -7.9735898    242.79177  0.014998256  0.014267423          193 
 1350000   0.71032794   -7.9682109    243.13223  0.015008162  0.014253841          164 
 1351000   0.71116852   -7.9915262    242.67751  0.014969005  0.014240243          148 
 1352000   0.71774506   -7.9626842    243.42624  0.015004083  0.014226673          122 
 1353000   0.69569357   -7.9767755    242.86753  0.014958582   0.01421309          138 
 1354000   0.73072406   -7.9873046    243.42161  0.014981635  0.014199517          128 
 1355000   0.69956809   -7.9913397    242.55176  0.014917083  0.014185954          134 
 1356000   0.72288897   -7.9715251    242.86783  0.014925506    0.0141724          138 
 1357000    0.7266528   -7.9850177    242.21191  0.014874227  0.014158865          155 
 1358000   0.71591027   -7.9612532    242.66984  0.014891375  0.014145327          145 
 1359000   0.71934097   -7.9873297    242.96595  0.014898575  0.014131812          159 
 1360000   0.70779639   -7.9807524    242.88418  0.014882609  0.014118303          159 
 1361000   0.69878303   -7.9939831    242.36981  0.014840179  0.014104848          146 
 1362000   0.71355636   -7.9770539    243.09381  0.014873581  0.014091392          139 
 1363000   0.69409839   -7.9585478    243.28277  0.014874222  0.014077968          177 
 1364000   0.73133394    -7.982746    242.54214  0.014818068  0.014064539          172 
 1365000   0.71837725   -7.9850696    243.11709  0.014842313  0.014051124          130 
 1366000    0.7083539   -7.9965447      242.706  0.014806369  0.014037728          163 
 1367000   0.72142359   -7.9967193    242.19621   0.01476446  0.014024294          171 
 1368000   0.69576386   -7.9960522    242.90201  0.014796662  0.014010893          137 
 1369000   0.72328985   -8.0103007     242.3529  0.014752429  0.013997496          179 
 1370000   0.69596402   -7.9884542    242.73249   0.01476475  0.013984081          192 
 1371000   0.70225534   -7.9975916    243.00178  0.014770349  0.013970721          157 
 1372000   0.70178156   -7.9838707    242.37421  0.014721466  0.013957341          147 
 1373000   0.71009194   -8.0069271    242.45148  0.014715433  0.013943988          141 
 1374000   0.70742742   -8.0073543    242.87822  0.014730605  0.013930635          167 
 1375000   0.70610189   -8.0293405    242.65316  0.014706252  0.013917269          170 
 1376000   0.70150604   -8.0009372    242.35982  0.014677799  0.013903957          187 
 1377000   0.70194298   -7.9786758    243.28303  0.014723011  0.013890675          129 
 1378000   0.68549722   -7.9641304    243.20463  0.014707585  0.013877402          147 
 1379000   0.70756748   -7.9884856    242.81637  0.014673458   0.01386415          176 
 1380000   0.69767787   -8.0137763    242.36398  0.014635506  0.013850887          164 
 1381000   0.72341738   -7.9845209    242.48442  0.014632176  0.013837654          300 
 1382000    0.6969853   -7.9871293    242.95851  0.014650175  0.013824427          186 
 1383000   0.71373762   -8.0245311    242.39349  0.014605537  0.013811219          180 
 1384000   0.69875846   -7.9884327    242.96882  0.014629625  0.013798008          168 
 1385000   0.69555792   -8.0000934      242.552  0.014593983  0.013784827          170 
 1386000   0.69679946   -8.0031611    242.83184  0.014600279  0.013771614          165 
 1387000   0.69864336   -7.9871673    242.41619   0.01456478  0.013758445          160 
 1388000   0.69447822   -7.9951905     242.5449  0.014562014  0.013745241          146 
 1389000   0.68940987   -8.0070986    242.58798  0.014554114  0.013732088          186 
 1390000   0.68198405   -8.0038338     242.6471  0.014547188  0.013718959          114 
 1391000   0.70341679   -8.0056715    242.82647  0.014547476  0.013705862          170 
 1392000   0.70468162   -7.9901946    242.75046  0.014532475   0.01369276          203 
 1393000    0.6902246   -7.9837614    242.65704  0.014516454  0.013679662          171 
 1394000   0.68853897   -7.9873661     242.9486   0.01452347  0.013666576          158 
 1395000    0.6843428   -7.9988877    242.99692  0.014515945  0.013653489          174 
 1396000   0.69313157   -8.0156484    242.32369  0.014465359  0.013640363          205 
 1397000   0.70198642   -8.0239296    242.34242  0.014456122  0.013627284          158 
 1398000   0.70274775   -8.0170238    242.43269  0.014451162  0.013614199          221 
 1399000   0.67840057   -8.0011627    242.73279  0.014458708  0.013601177          392 
 1400000   0.69071061    -8.010359    242.08608  0.014409886  0.013588132          197 
 1401000   0.68970546   -8.0312658    242.26561  0.014410279  0.013575106          209 
 1402000   0.68080102   -8.0046969    241.95898  0.014381775  0.013562084          185 
 1403000   0.69455293   -8.0480554    242.34694  0.014394568  0.013549066          221 
 1404000   0.68571677   -8.0155173    242.56584  0.014397308  0.013536089          190 
 1405000   0.68959384   -8.0158347    242.44284  0.014379765  0.013523165          169 
 1406000   0.69328086   -8.0243348    242.58312  0.014377852  0.013510248          152 
 1407000     0.698785   -8.0332023    242.78684  0.014379699  0.013497361          155 
 1408000   0.69309112   -8.0233888    242.48914  0.014351867  0.013484458          181 
 1409000   0.69327698   -8.0099594    242.30689  0.014330902  0.013471554          177 
 1410000    0.6951228   -8.0342201    242.28013  0.014319157  0.013458665          193 
 1411000   0.69250381   -8.0196748    242.45674  0.014319439  0.013445763          212 
 1412000   0.68542703   -8.0397601     242.9202   0.01433665  0.013432875          386 
 1413000   0.69351077   -8.0559281    242.34228   0.01429242  0.013419978          250 
 1414000   0.68076687   -8.0496275    242.09095  0.014267501  0.013407108          429 
 1415000   0.70255808   -8.0199527    242.20394  0.014264072  0.013394243          184 
 1416000   0.68745003   -8.0418734    242.00884  0.014242516    0.0133814          216 
 1417000   0.69024654   -8.0426261    242.66592  0.014271108  0.013368551          410 
 1418000   0.67893233   -8.0590395    242.32863  0.014241222  0.013355697          425 
 1419000   0.69914619   -8.0555748    241.91058  0.014206635  0.013342857          387 
 1420000   0.68246966   -8.0360637    242.69986   0.01424295  0.013330015          335 
 1421000   0.69413366   -8.0492508     242.3894   0.01421472  0.013317195          397 
 1422000   0.69948993   -8.0414866    242.64439  0.014219667  0.013304397          202 
 1423000   0.67311508   -8.0580051    242.46301  0.014199052  0.013291626          388 
 1424000   0.68831011   -8.0290831    242.28074  0.014178414  0.013278874          190 
 1425000   0.69175953   -8.0366636    242.20725  0.014164167  0.013266148          391 
 1426000   0.67483891   -8.0379779    242.47476  0.014169867  0.013253438          178 
 1427000   0.68636912   -8.0531535    241.95782  0.014129749  0.013240716          223 
 1428000   0.67850287    -8.026497    242.17814  0.014132711  0.013228004          187 
 1429000   0.69090873   -8.0776175    242.14855  0.014121096  0.013215293          455 
 1430000   0.68975778   -8.0506651    242.39403  0.014125526  0.013202596          215 
 1431000   0.68143417   -8.0263319    242.71859  0.014134555  0.013189911          377 
 1432000   0.69185081   -8.0471389    242.04412  0.014085435  0.013177264          253 
 1433000   0.69270152    -8.045815    241.98809  0.014072348  0.013164615          257 
 1434000   0.68478298   -8.0458186    241.94313  0.014059922  0.013151951          424 
 1435000   0.67632532    -8.079596      241.597  0.014030023  0.013139298          278 
 1436000   0.68539988   -8.0610345    242.13599  0.014051532  0.013126662          300 
 1437000   0.68485177   -8.0578944    242.33251  0.014053149  0.013114006          523 
 1438000   0.67697074   -8.0602383    242.26464  0.014039444  0.013101369          200 
 1439000   0.68686571   -8.0707042    241.83693  0.014004918  0.013088727          270 
 1440000    0.6792535   -8.0590963    241.74178  0.013989686  0.013076098          379 
 1441000   0.67393145   -8.0700656    241.75462  0.013980721  0.013063489          221 
 1442000   0.67524031   -8.0588989    242.04184  0.013987624  0.013050894          393 
 1443000   0.67497665   -8.0543684    241.71801  0.013959229  0.013038301          222 
 1444000   0.67531266   -8.0646557    241.70179  0.013948626  0.013025724          291 
 1445000   0.67488363   -8.0692977    241.92108   0.01395162  0.013013163          242 
 1446000   0.67319962   -8.0514231    241.78624    0.0139342  0.013000597          411 
 1447000   0.68947824   -8.0365529     241.8339  0.013927315  0.012988069          468 
 1448000   0.68758256   -8.0683654    241.85226  0.013918753  0.012975533          465 
 1449000   0.67015891   -8.0682017    241.73059   0.01390215  0.012963028          277 
 1450000   0.66785485   -8.0711538    241.38213  0.013872536  0.012950562          489 
 1451000   0.67072198   -8.0786481    241.92861  0.013894361  0.012938085          213 
 1452000   0.65824478   -8.0897874    241.21204  0.013843666  0.012925597          572 
 1453000   0.66730526   -8.1050055    241.81347  0.013868632  0.012913118          416 
 1454000   0.66840921   -8.0829319    241.58584  0.013846048  0.012900631          524 
 1455000   0.66976269   -8.0768958    241.63948  0.013839604  0.012888169          482 
 1456000   0.67298872   -8.0844035    241.83156  0.013841092   0.01287574          589 
 1457000   0.67635141   -8.0728019    241.42157  0.013808143  0.012863325          508 
 1458000   0.66391741   -8.0978324    241.43781  0.013799601  0.012850928          585 
 1459000   0.67675381   -8.1047453    241.22809  0.013778164  0.012838542          313 
 1460000   0.66751831   -8.0749478    242.04691  0.013815463  0.012826171          227 
 1461000   0.65535221   -8.0753833    242.14187  0.013811423  0.012813782          475 
 1462000   0.66504005   -8.0582016    241.43115  0.013761466  0.012801421          527 
 1463000   0.66254533   -8.0923239    241.61211  0.013762367  0.012789072          256 
 1464000   0.66590991   -8.0769198     242.0928  0.013780328  0.012776764          261 
 1465000   0.66780612   -8.0661303    241.77863  0.013753051   0.01276445          505 
 1466000   0.67009974   -8.0858431    241.42918  0.013723805  0.012752165          417 
 1467000   0.67076514   -8.0757099    242.22382   0.01375959  0.012739878          465 
 1468000   0.66896797    -8.071307     241.8978   0.01373171   0.01272764          200 
 1469000   0.66249533   -8.0882305    241.65931  0.013708833  0.012715392          208 
 1470000   0.66592677   -8.0948962    241.40551   0.01368512  0.012703146          199 
 1471000   0.66611234   -8.1064392     241.3013  0.013669913  0.012690917          431 
 1472000   0.66809749   -8.0834829    241.70532  0.013683499  0.012678695          283 
 1473000   0.65829062   -8.0697239    241.68742  0.013673197   0.01266649          295 
 1474000   0.66665061   -8.1169789     241.6267  0.013660487  0.012654318          415 
 1475000   0.66784011   -8.0927604    241.18207  0.013626106  0.012642126          465 
 1476000   0.65180762   -8.1020146    241.85379  0.013654798   0.01262995          568 
 1477000   0.67174273   -8.0640733    241.98948  0.013653209  0.012617797          203 
 1478000   0.65897188   -8.0817546    241.80837   0.01363376  0.012605636          458 
 1479000   0.66229108   -8.0756401     241.6758  0.013617073  0.012593506          477 
 1480000   0.65150163   -8.1042616    241.46811  0.013596177  0.012581388          424 
 1481000   0.64956197   -8.1119759    241.72612  0.013601514  0.012569285          240 
 1482000   0.66441501   -8.0821408    241.25495  0.013565843  0.012557175          257 
 1483000   0.65315749   -8.1010287    241.74616  0.013584297  0.012545097          223 
 1484000   0.67602933   -8.1042879    241.93029  0.013585483   0.01253302          470 
 1485000   0.65563799   -8.0828672    241.38395  0.013545676  0.012520968          464 
 1486000   0.66511697   -8.0951417    241.36875  0.013535708  0.012508891          529 
 1487000   0.66183477   -8.1020508    241.26038  0.013520532  0.012496838          515 
 1488000   0.66209342   -8.1101205    241.49058  0.013524338  0.012484813          610 
 1489000   0.65215841   -8.0996039    241.76514  0.013530621  0.012472831          356 
 1490000   0.66344885   -8.1123285    241.88103  0.013528022  0.012460858          427 
 1491000   0.65657576   -8.1031703    241.32072  0.013487632  0.012448878          470 
 1492000   0.67382491   -8.1034998    241.57364  0.013492719  0.012436892          201 
 1493000   0.64239292   -8.1185552    241.54486  0.013482075  0.012424926          568 
 1494000    0.6537093   -8.1119321    241.47588  0.013469204   0.01241297          530 
 1495000   0.65718856   -8.1102689     241.4693  0.013459827  0.012401023          601 
 1496000   0.65354429   -8.1159845    241.51192  0.013453204  0.012389117          529 
 1497000   0.66311433   -8.0991731    241.52721  0.013445069  0.012377223          559 
 1498000   0.64890477   -8.1229937    241.48854  0.013433942  0.012365334          583 
 1499000   0.65316651   -8.1250976    241.34131  0.013416795  0.012353461          489 
 1500000   0.65180567   -8.1207454     241.1752  0.013398622  0.012341606          511 
 1501000    0.6530847   -8.1083379    241.31969  0.013397718  0.012329764          551 
 1502000   0.65316023   -8.0927933    241.84879  0.013418153  0.012317936          602 
 1503000   0.65623728    -8.114096    241.75922  0.013404259  0.012306131          491 
 1504000   0.64276924   -8.0982737    241.11686  0.013359755  0.012294323          538 
 1505000    0.6610929   -8.1105809    241.37932  0.013365411  0.012282533          504 
 1506000   0.64775833   -8.1150658    241.42446  0.013359034  0.012270783          499 
 1507000   0.63943912   -8.1510123    241.42175  0.013350019  0.012258998          524 
 1508000   0.66267571   -8.1477848    241.01687  0.013318793  0.012247223          408 
 1509000   0.64475731   -8.1374592    240.91464  0.013304321  0.012235469          437 
 1510000   0.65203054   -8.1397351    241.06593  0.013303859  0.012223719          552 
 1511000   0.64785482   -8.1298545    240.90127  0.013285973  0.012212004          512 
 1512000   0.65163389   -8.1343057    241.85972  0.013330011  0.012200305          257 
 1513000   0.64167083   -8.1444568    241.19909  0.013284815  0.012188604          553 
 1514000    0.6533136   -8.1277549    241.19618   0.01327588  0.012176915          448 
 1515000   0.64256941    -8.181139    240.95513  0.013253857  0.012165229          271 
 1516000   0.65480579   -8.1488313    241.20348  0.013258766  0.012153542          473 
 1517000   0.65654942   -8.1229006    240.87039  0.013231729  0.012141896          290 
 1518000   0.64793528   -8.1274574    241.23956  0.013243278  0.012130236          528 
 1519000   0.64485867   -8.1458932     241.7596   0.01326309   0.01211858          460 
 1520000   0.63809665   -8.1534849    241.06311  0.013216179  0.012106953          498 
 1521000     0.662123   -8.1412536    240.90155  0.013198639  0.012095331          303 
 1522000   0.63967448   -8.1544019    240.73974  0.013181107  0.012083705          603 
 1523000   0.64283369   -8.1537626    241.22187  0.013198833  0.012072112          565 
 1524000   0.66514671   -8.1471948    241.12657  0.013184961  0.012060541          511 
 1525000   0.63631012    -8.136205    241.39095  0.013190762  0.012048971          596 
 1526000   0.64740268   -8.1387025    241.19402  0.013171364  0.012037439          680 
 1527000   0.63297394   -8.1551542    241.27109  0.013166944  0.012025898          560 
 1528000   0.64686304   -8.1588953    241.12882  0.013150568  0.012014389          455 
 1529000   0.64492873   -8.1390354    240.56579  0.013111281  0.012002896          560 
 1530000    0.6507668   -8.1574264    241.44938  0.013150838  0.011991392          534 
 1531000    0.6644371    -8.158702    240.90673  0.013112711  0.011979923          528 
 1532000   0.63499205   -8.1437482    241.01013  0.013109777  0.011968439          528 
 1533000   0.62330257   -8.1643085    241.16981  0.013109905  0.011956973          566 
 1534000   0.62992991   -8.1655453     241.0837  0.013096681   0.01194554          511 
 1535000   0.63696677   -8.1514454    241.40406  0.013105541  0.011934108          568 
 1536000   0.63393688   -8.1697816    241.01747  0.013076035  0.011922693          578 
 1537000   0.62947558   -8.1799988    240.95381  0.013064076  0.011911289          506 
 1538000   0.63429042   -8.1421452    241.29076  0.013073838  0.011899903          527 
 1539000   0.65695155   -8.1474643    241.01676  0.013050507  0.011888528          523 
 1540000   0.62783498   -8.1545883    240.71296  0.013025593  0.011877173          363 
 1541000   0.63248331   -8.1529428    241.58657  0.013064383   0.01186583          598 
 1542000   0.64111042    -8.154621    241.17316  0.013033569  0.011854473          595 
 1543000   0.63839643   -8.1711823    240.71074  0.013000148  0.011843141          513 
 1544000    0.6600625    -8.177068    241.10257  0.013012876  0.011831811          580 
 1545000    0.6486413   -8.1505067    241.12475   0.01300565  0.011820504          506 
 1546000   0.63100902   -8.1885379    241.37718  0.013010844   0.01180921          559 
 1547000   0.64808458   -8.1665085    241.40391  0.013003874  0.011797923          556 
 1548000   0.62721319   -8.1817872    240.91291  0.012969041  0.011786652          568 
 1549000   0.63985656   -8.1650137    241.16833   0.01297441  0.011775393          526 
 1550000   0.63859484   -8.1727611    240.59261  0.012935087  0.011764158          604 
 1551000   0.63937116   -8.1777638    240.88464  0.012942437  0.011752927          290 
 1552000   0.62451331   -8.1645894    240.64441  0.012921199  0.011741716          611 
 1553000   0.64672669   -8.1695582    240.91686  0.012927498  0.011730522          546 
 1554000   0.62804971   -8.1696995    240.90174  0.012918369  0.011719344          292 
 1555000   0.63118411    -8.173122    240.43314  0.012884949  0.011708146          553 
 1556000   0.63853212   -8.1595101    241.09203  0.012911955  0.011696971          235 
 1557000   0.63381955   -8.1666759    241.00133  0.012898808  0.011685817          236 
 1558000   0.62995756   -8.1560655     241.5154  0.012918025  0.011674677          273 
 1559000   0.62806649   -8.1934641    240.66332  0.012864193  0.011663539          535 
 1560000   0.62758726   -8.1941331    240.28362  0.012835663  0.011652408          249 
 1561000   0.62535939    -8.178199    240.90606   0.01286067  0.011641287          518 
 1562000    0.6272583    -8.181775    240.45866  0.012828567  0.011630182          306 
 1563000    0.6275593    -8.180456    241.03859  0.012851279  0.011619071          543 
 1564000    0.6395899   -8.1826908    240.88774  0.012835025  0.011607968          492 
 1565000   0.63567799   -8.1691264    241.03292  0.012834554  0.011596886          265 
 1566000   0.62594025   -8.1662768     241.0366  0.012826554  0.011585816          560 
 1567000   0.62044345   -8.1845964    240.75751  0.012803526  0.011574767          317 
 1568000    0.6271048   -8.1692917    240.96658  0.012806472  0.011563715          277 
 1569000   0.61658587   -8.1680921    241.22835  0.012812213  0.011552702          292 
 1570000   0.63292311   -8.1715901    241.28131  0.012806864  0.011541697          353 
 1571000   0.62963078   -8.1625526     240.7321  0.012769579  0.011530705          222 
 1572000   0.63250069   -8.1755294    240.92911    0.0127719  0.011519726          569 
 1573000   0.62396985   -8.1697098    241.04819  0.012770089  0.011508763          279 
 1574000   0.60937954   -8.1959188     240.8295  0.012750397  0.011497805          527 
 1575000   0.61772434   -8.1800303    240.52637  0.012726263  0.011486861          333 
 1576000   0.62121962   -8.1902127     240.2338  0.012702718  0.011475921          479 
 1577000   0.62135955   -8.1960487    240.57229   0.01271255   0.01146499          588 
 1578000   0.63414542   -8.1730516    241.29003  0.012742397  0.011454084          527 
 1579000   0.62833832   -8.1940188    240.58181   0.01269695  0.011443177          267 
 1580000   0.62711783   -8.1821277    240.65381  0.012692712  0.011432275          489 
 1581000   0.63017357   -8.1709616    240.42263  0.012672498  0.011421392          247 
 1582000   0.60728576   -8.1863402    240.56222  0.012671841  0.011410521          279 
 1583000    0.6258284   -8.1881421    240.67385  0.012669712  0.011399651          275 
 1584000   0.60235765   -8.1815188    240.52207  0.012653729  0.011388793          532 
 1585000   0.62065802   -8.1953207    240.27061  0.012632524  0.011377954          354 
 1586000   0.62135967   -8.1944223    240.87416  0.012656272  0.011367128          509 
 1587000   0.62084046   -8.1991582    240.58012  0.012632856  0.011356321          554 
 1588000   0.62394551   -8.2136065    240.24588  0.012607362  0.011345513          606 
 1589000   0.60093792   -8.1828482    240.39764  0.012607386   0.01133472          562 
 1590000   0.61968768   -8.1988034    240.89955  0.012625763  0.011323921          334 
 1591000   0.61534137   -8.2205506    240.40914   0.01259214   0.01131313          335 
 1592000   0.63687373   -8.1861022     240.8962  0.012609726  0.011302378          624 
 1593000   0.62473173   -8.1910419    239.71556  0.012540048  0.011291626          640 
 1594000   0.62294739   -8.1877279    240.84293  0.012591119  0.011280875          286 
 1595000   0.61387658   -8.1894983    240.53055  0.012566905  0.011270136          656 
 1596000   0.61109924    -8.206174    240.56708  0.012560938  0.011259424          271 
 1597000   0.61671351   -8.2002991     240.6968  0.012559842  0.011248718          549 
 1598000    0.6252345   -8.1838436    240.73395  0.012553919  0.011238036          567 
 1599000   0.60876777   -8.1989078    240.15077  0.012515675  0.011227356          596 
 1600000   0.62309237   -8.1971832    240.46724  0.012524335   0.01121668          616 
 1601000   0.61524936   -8.2022465    240.30792   0.01250822  0.011206027          425 
 1602000   0.60444128   -8.2098946    240.15912  0.012492672  0.011195382          657 
 1603000   0.62459921   -8.1953815    240.81134  0.012518784  0.011184762          373 
 1604000    0.6080602   -8.2100167    240.07807  0.012472884  0.011174167          632 
 1605000   0.61135671   -8.2016036    240.57874  0.012491108  0.011163566          651 
 1606000   0.61179447   -8.2235522    240.21863  0.012464644  0.011152965          673 
 1607000   0.60950301   -8.2038512    240.60705   0.01247703   0.01114237          421 
 1608000   0.61035641   -8.1778772    240.46597   0.01246196  0.011131795          623 
 1609000   0.60727407   -8.2142488    240.77113  0.012470019  0.011121241          696 
 1610000   0.60749454    -8.201305    240.56739  0.012451728  0.011110691          304 
 1611000   0.61069465   -8.1941084    240.43515  0.012437159  0.011100161          379 
 1612000   0.60982475   -8.2366288      240.567   0.01243626  0.011089661          713 
 1613000    0.6129042     -8.21743    240.38723  0.012419262  0.011079171          602 
 1614000    0.6114249   -8.2031632    240.30635  0.012407391  0.011068698          714 
 1615000   0.59331808   -8.2159165    240.20961  0.012394717  0.011058237          412 
 1616000    0.6163366   -8.2314454    239.97646  0.012375024  0.011047793          723 
 1617000   0.60240307   -8.2297154     240.3566  0.012386962  0.011037365          710 
 1618000   0.60246559   -8.2078422    240.20703  0.012371602  0.011026937          745 
 1619000   0.59607081   -8.2127481    240.55289  0.012381763  0.011016516          499 
 1620000   0.61761318    -8.199823    240.41388  0.012366969  0.011006115          740 
 1621000    0.6028205   -8.2053883    240.30389  0.012353686  0.010995719          747 
 1622000   0.60617034   -8.2281005    240.47974  0.012355104  0.010985317          493 
 1623000   0.61028678    -8.240502    239.99239  0.012322468  0.010974945          703 
 1624000   0.60739126   -8.2200034     240.4522  0.012338475  0.010964589          509 
 1625000   0.60859007   -8.2315389    240.01883  0.012308658  0.010954252          828 
 1626000   0.60959652   -8.2215496     240.1811  0.012309404  0.010943887          694 
 1627000   0.60570421   -8.2146398    240.20712  0.012303171  0.010933544          770 
 1628000   0.60541314   -8.2217396    240.97502  0.012334921  0.010923224          681 
 1629000   0.59694782   -8.2325377    240.07601  0.012281359  0.010912922          759 
 1630000   0.60218512   -8.2256722    239.72083  0.012255666   0.01090263          801 
 1631000    0.5963331   -8.2194274     240.5261  0.012289296  0.010892341          775 
 1632000    0.5998058   -8.2012969    239.63963  0.012236501  0.010882059          731 
 1633000   0.60668633   -8.2065832    240.13413  0.012254242  0.010871801          528 
 1634000   0.60927245   -8.2518943    239.99142  0.012239465   0.01086156          743 
 1635000   0.59768694   -8.2157618    240.42133  0.012253891  0.010851303          757 
 1636000   0.59602961    -8.231846    239.91063  0.012220387  0.010841064          740 
 1637000    0.5900214   -8.2473525    239.82122   0.01220837  0.010830819          741 
 1638000   0.60609782   -8.2270251    239.54408  0.012186817  0.010820588          756 
 1639000   0.59232561   -8.2443893    240.49105  0.012227529  0.010810374          665 
 1640000   0.58153607   -8.2367825    240.51319  0.012221199  0.010800161          702 
 1641000   0.57764703   -8.2525525     239.9269  0.012183978  0.010789961          750 
 1642000   0.59239585   -8.2384461    239.81148  0.012170701  0.010779778          651 
 1643000   0.60999939   -8.2452689    240.54316  0.012200404  0.010769607          707 
 1644000   0.61426124   -8.2386468    240.04124   0.01216754  0.010759458          703 
 1645000   0.60230077   -8.2417863    239.72183  0.012143963  0.010749311          798 
 1646000   0.58883352   -8.2605747    239.82839   0.01214198  0.010739177          752 
 1647000   0.60799566   -8.2243673    240.14854  0.012150807  0.010729057          762 
 1648000   0.59114141   -8.2541699      239.759  0.012123736  0.010718947          742 
 1649000    0.6020456   -8.2319395    240.09669  0.012133449   0.01070884          727 
 1650000    0.5950354   -8.2389245    240.16082  0.012129334  0.010698759          699 
 1651000   0.59250449    -8.241032    240.47589  0.012137891   0.01068867          719 
 1652000   0.58093828   -8.2411915    239.88301  0.012100636  0.010678595          764 
 1653000   0.58232847    -8.237689    240.39153  0.012118952   0.01066852          650 
 1654000    0.5995384   -8.2518669    239.99194  0.012091492  0.010658463          668 
 1655000   0.58909684   -8.2640036    239.89187  0.012079147  0.010648436          695 
 1656000   0.58707667   -8.2490357    239.42146  0.012048181  0.010638401          448 
 1657000   0.58990992    -8.252217    239.91468  0.012065715  0.010628373          705 
 1658000   0.58967191   -8.2462278    240.17682  0.012071613  0.010618366          771 
 1659000   0.59351801   -8.2506865    240.13733  0.012062353  0.010608376          698 
 1660000   0.59740646   -8.2633357    239.84352  0.012040337  0.010598402          694 
 1661000    0.5944418   -8.2611262    239.99485  0.012040681  0.010588433          680 
 1662000   0.58867233   -8.2806241    239.52908  0.012010082  0.010578466          769 
 1663000   0.57994146   -8.2715091    239.95379  0.012024143  0.010568498          790 
 1664000   0.58426749   -8.2668641    240.20163  0.012029328  0.010558549          740 
 1665000   0.57556855   -8.2653432    239.78538   0.01200127  0.010548612          724 
 1666000   0.59342455   -8.2662833    239.94986  0.012002294  0.010538695          738 
 1667000   0.59252095   -8.2694247    239.70651  0.011982929  0.010528796          713 
 1668000   0.57730564   -8.2564653    239.82516  0.011981673  0.010518908          699 
 1669000   0.58536393   -8.2587027    239.74952  0.011970717  0.010509033          723 
 1670000    0.5852527   -8.2566579    239.90659  0.011971387  0.010499158          757 
 1671000   0.58035341    -8.261671    239.86457  0.011962127  0.010489307          725 
 1672000   0.58661692   -8.2542691    239.29652  0.011926661  0.010479444          746 
 1673000   0.59044099   -8.2701314    239.79652  0.011944437  0.010469616          686 
 1674000   0.58969895   -8.2639397    239.38237  0.011916685   0.01045979          772 
 1675000   0.59164032   -8.2744198    239.52701  0.011916767  0.010449967          582 
 1676000   0.59333588    -8.288722    239.75409  0.011920947  0.010440173          715 
 1677000   0.57949671    -8.256444    239.43954  0.011898208  0.010430371          611 
 1678000   0.58415442   -8.2835055    240.03309  0.011920594   0.01042058          713 
 1679000   0.59577559   -8.2902131    240.08413  0.011916028  0.010410814          721 
 1680000   0.59160982   -8.2767852    239.91319  0.011900456  0.010401066          707 
 1681000    0.5797862   -8.2701755    239.72299  0.011883948   0.01039132          476 
 1682000   0.57302457   -8.2735418    239.95113  0.011888185  0.010381588          688 
 1683000   0.57866422   -8.2709441    239.51704  0.011859628  0.010371859          785 
 1684000   0.56938708   -8.2855423    239.52845   0.01185315  0.010362149          728 
 1685000   0.57576466    -8.272893      239.758  0.011857468  0.010352445          759 
 1686000   0.58954087   -8.2805034    239.86156  0.011855554  0.010342758          720 
 1687000   0.57735995   -8.2665981    239.34838  0.011823176  0.010333051          694 
 1688000   0.56843218   -8.2560348    239.39686  0.011818565  0.010323356          416 
 1689000   0.59698645   -8.2951177     239.5986  0.011821522  0.010313674          763 
 1690000   0.58097962   -8.2826509    239.32776  0.011801172  0.010303998          695 
 1691000    0.5788792   -8.2818351    239.53064  0.011804191  0.010294332          740 
 1692000   0.58236458   -8.2653842    239.33516  0.011787587  0.010284685          649 
 1693000   0.57905107   -8.2914653    239.49626  0.011788554  0.010275059          778 
 1694000   0.58039474   -8.2841778    239.18454   0.01176626  0.010265439          772 
 1695000   0.58347012   -8.3016192     239.3051  0.011765246  0.010255827          626 
 1696000   0.58905122   -8.2978179    239.75189  0.011780262  0.010246236          745 
 1697000   0.58013047   -8.2904893    239.12018  0.011742299  0.010236661          727 
 1698000   0.57192015   -8.2786397    239.38143  0.011748205  0.010227097          759 
 1699000   0.58360038   -8.3047033    239.64384  0.011754161  0.010217556          672 
 1700000   0.59032952   -8.2734379    239.30522  0.011730648   0.01020802          687 
 1701000   0.57377603   -8.2852834    239.21138  0.011719154  0.010198485          789 
 1702000   0.58409689   -8.2842438    239.30076  0.011716645  0.010188964          777 
 1703000   0.56225867   -8.2766902     239.8504  0.011736661  0.010179459          736 
 1704000   0.57427609    -8.287698    239.73625   0.01172419  0.010169952          781 
 1705000   0.57620324   -8.3022954    239.52964  0.011707216  0.010160456          823 
 1706000   0.56045765    -8.291094    239.34792  0.011691477  0.010150973          715 
 1707000   0.57865097   -8.3098207    239.14297  0.011674622  0.010141506          741 
 1708000   0.58071319   -8.2791743    239.40732  0.011680685  0.010132053          729 
 1709000   0.56994008   -8.2902341    239.55756  0.011681176  0.010122601          749 
 1710000   0.55996822   -8.3027102    239.24741   0.01165923  0.010113157          765 
 1711000    0.5766385   -8.3087454    239.57536  0.011668389  0.010103723          443 
 1712000   0.56400973    -8.309582    239.54664  0.011660175  0.010094304          823 
 1713000   0.57051987   -8.2873745    239.49646  0.011650927  0.010084891          654 
 1714000     0.574356   -8.2889483    239.65005  0.011651597  0.010075495          738 
 1715000   0.56383999   -8.3058292    239.24737  0.011625237   0.01006612          762 
 1716000   0.57251455   -8.3148817    239.03111   0.01160796  0.010056758          800 
 1717000   0.56330212    -8.296839    239.31793   0.01161512  0.010047396          776 
 1718000   0.57124683    -8.291657    239.13127  0.011599305  0.010038042          736 
 1719000   0.56313641   -8.2796209    238.99973   0.01158618    0.0100287          780 
 1720000    0.5681899   -8.3216108    238.94691  0.011576885  0.010019375          775 
 1721000    0.5801536   -8.3119814    239.04103  0.011574716  0.010010064          434 
 1722000   0.55293131   -8.3116769    239.17666  0.011574558  0.010000751          681 
 1723000   0.56048138   -8.3102223    239.46916  0.011581987 0.0099914381          782 
 1724000   0.58575858    -8.324664    239.41959  0.011572872 0.0099821475          702 
 1725000   0.55902652   -8.3128273    239.30506  0.011560631 0.0099728663          801 
 1726000   0.57000506   -8.3133398    238.94431  0.011536515  0.009963596          830 
 1727000   0.55510589   -8.3169744    239.12933  0.011538763 0.0099543386          752 
 1728000   0.56023746    -8.313366    239.02008  0.011526817  0.009945076          762 
 1729000   0.55140548   -8.3149773    239.27198  0.011532291 0.0099358249          662 
 1730000   0.56145316    -8.303383     239.1786  0.011521127  0.009926575          737 
 1731000   0.56844535   -8.3248751     238.7432   0.01149351 0.0099173508          779 
 1732000   0.56697493   -8.3212179     238.7511  0.011487254 0.0099081377          780 
 1733000   0.57758211   -8.2985697    239.01609  0.011493369 0.0098989312          736 
 1734000   0.55711498    -8.313289    239.07424  0.011489535 0.0098897309          787 
 1735000   0.54404064   -8.3231433    238.59789  0.011460033 0.0098805512          782 
 1736000   0.56389394   -8.3199489    238.92318  0.011469047 0.0098713697          769 
 1737000   0.56493747   -8.3231923    238.87773  0.011460263 0.0098621965          876 
 1738000   0.56313896   -8.3216235    238.74412  0.011447263 0.0098530437          366 
 1739000   0.54813722   -8.3220249     238.9479  0.011450446 0.0098439009          801 
 1740000   0.55778881   -8.3358038    239.06767  0.011449601 0.0098347601          802 
 1741000   0.54214998   -8.3392164    239.08979  0.011444083 0.0098256403          785 
 1742000   0.55065939   -8.3175251    238.83108  0.011425138 0.0098165256          768 
 1743000   0.56702197    -8.322668       238.83  0.011418531  0.009807423          402 
 1744000    0.5386711    -8.320093    239.01472   0.01142081 0.0097983264          766 
 1745000   0.54724094   -8.3307069    238.88053  0.011407857 0.0097892307          842 
 1746000   0.55763418    -8.335139    238.82053   0.01139846 0.0097801594          795 
 1747000   0.56082174   -8.3379332    239.10512  0.011405511 0.0097710959          742 
 1748000   0.54987879   -8.3352134    238.66073    0.0113778 0.0097620406          921 
 1749000    0.5595854   -8.3471225    238.71521  0.011373891  0.009753004          816 
 1750000   0.56463277   -8.3369512    238.68408  0.011365909 0.0097439775          788 
 1751000   0.54661986   -8.3093926    238.86468  0.011368013 0.0097349604          856 
 1752000   0.54583704   -8.3244243    238.80177  0.011358532 0.0097259528          828 
 1753000   0.55265319   -8.3309244    238.58266  0.011341636 0.0097169524          822 
 1754000   0.54373056   -8.3403747    238.77464  0.011344291 0.0097079614          704 
 1755000   0.55560681   -8.3283218    238.98586  0.011347857 0.0096989828          806 
 1756000   0.55576135   -8.3350533      238.774   0.01133134 0.0096900231          728 
 1757000   0.54339385   -8.3705488    238.72767  0.011322694 0.0096810597          862 
 1758000   0.53853636    -8.327555    239.17541  0.011337477 0.0096721136          798 
 1759000   0.54865545   -8.3075877    239.04031  0.011324631 0.0096631843          749 
 1760000    0.5564889   -8.3308645    238.63193   0.01129886 0.0096542555          794 
 1761000   0.54485338   -8.3456152    239.19135  0.011318917 0.0096453401          794 
 1762000   0.54401123   -8.3012706    239.04278  0.011305466 0.0096364346          793 
 1763000   0.53697943   -8.3440753     238.5573  0.011276106 0.0096275362          839 
 1764000   0.55044397   -8.3112772    238.98108  0.011289734 0.0096186546          811 
 1765000   0.54658008   -8.3439256    238.88825  0.011278954 0.0096097967          744 
 1766000   0.55975961    -8.351867    238.85245  0.011270878   0.00960093          840 
 1767000    0.5421909   -8.3462327    238.68758  0.011256724 0.0095920796          848 
 1768000   0.53908241   -8.3458349    238.86009  0.011258488 0.0095832566          802 
 1769000   0.54817208   -8.3459851    238.75255  0.011247058 0.0095744181          879 
 1770000   0.54845615   -8.3297302    238.57869  0.011232518 0.0095655988          744 
 1771000   0.55565983   -8.3393545    238.52616  0.011223704 0.0095567952          764 
 1772000   0.55132416   -8.3504214    239.05123  0.011242063 0.0095480031          450 
 1773000   0.55293697   -8.3560838    238.96285  0.011231569 0.0095392174          797 
 1774000   0.54793078    -8.356672    238.56079  0.011206351 0.0095304487          804 
 1775000   0.54188538   -8.3577839    238.58217  0.011201041 0.0095216694          918 
 1776000   0.53682632   -8.3631711    238.72988  0.011201665    0.0095129          852 
 1777000    0.5375005   -8.3515935    238.74937  0.011196275 0.0095041409          758 
 1778000    0.5423509   -8.3485934    238.09072  0.011159108 0.0094953995          801 
 1779000   0.55712787   -8.3441571     238.5625  0.011174934 0.0094866659          776 
 1780000    0.5311617   -8.3552016    238.60305  0.011170555 0.0094779414          787 
 1781000   0.54014344   -8.3532716    238.53449  0.011161075 0.0094692282          384 
 1782000   0.55100512   -8.3504881    238.66776  0.011161044 0.0094605395          755 
 1783000   0.52676424   -8.3475397     238.6226  0.011152673 0.0094518431          856 
 1784000   0.54072697   -8.3428086    238.73326  0.011151591 0.0094431596          791 
 1785000   0.54316878    -8.356916    239.09026   0.01116201 0.0094345001          786 
 1786000   0.54479252   -8.3715142    238.62715  0.011134152 0.0094258447          797 
 1787000   0.54809323   -8.3829523    238.27581  0.011111538 0.0094171984          835 
 1788000   0.52889398   -8.3199275     238.7967    0.0111296 0.0094085602          790 
 1789000   0.54865138   -8.3515622    238.85268  0.011125987 0.0093999364          788 
 1790000   0.54105196   -8.3511491    238.78231  0.011116495 0.0093913253          805 
 1791000   0.54228548   -8.3541255    238.42306  0.011093573  0.009382727          751 
 1792000   0.52707844   -8.3402697    238.47656   0.01108987 0.0093741311          773 
 1793000   0.53957785   -8.3667431    238.59285   0.01108909   0.00936555          813 
 1794000   0.53305181   -8.3589589    238.49253  0.011078248 0.0093569795          828 
 1795000   0.53028117   -8.3602667      238.193  0.011058171 0.0093484162          742 
 1796000   0.53804075   -8.3629111    238.49995  0.011066256 0.0093398558          739 
 1797000   0.53016391    -8.358072    238.34477  0.011052902 0.0093313079          816 
 1798000    0.5421911   -8.3645968    238.34474  0.011046753 0.0093227756          765 
 1799000   0.53648162   -8.3703894    238.92167  0.011067337 0.0093142468          770 
 1800000   0.52452695   -8.3696913    238.24588  0.011029902 0.0093057215          713 
 1801000   0.54513943   -8.3568729    238.54615  0.011037671  0.009297206          730 
 1802000   0.53338658   -8.3641639    238.46682  0.011027877 0.0092887079          808 
 1803000   0.54096822    -8.373475    238.36484  0.011017048 0.0092802102          819 
 1804000   0.53979779   -8.3742603     238.4171  0.011013355 0.0092717297          800 
 1805000   0.52888822   -8.3692572    238.67534  0.011019175 0.0092632606          804 
 1806000   0.53325309     -8.36667    238.62941  0.011010954 0.0092548106          806 
 1807000   0.53481013   -8.3702354     238.4664  0.010997344 0.0092463685          792 
 1808000   0.53976625   -8.3788644    238.13232  0.010975863 0.0092379268          895 
 1809000   0.54229286   -8.3675013    238.37285  0.010980876 0.0092295007          729 
 1810000    0.5323163   -8.3748494    238.57428  0.010984083 0.0092210904          791 
 1811000   0.52468562   -8.3785164    238.40513  0.010970234 0.0092126737          765 
 1812000   0.52754592   -8.3889963     238.6317    0.0109746 0.0092042727          801 
 1813000   0.53013869   -8.3652745    238.73837   0.01097345 0.0091958807          791 
 1814000   0.53975325   -8.3603179    238.37051  0.010950501 0.0091875029          797 
 1815000   0.53309751   -8.3823998    238.41777  0.010946638  0.009179135          874 
 1816000   0.53083379   -8.3799384    238.56882  0.010947541 0.0091707678          778 
 1817000   0.52242948   -8.3748439    238.68642   0.01094691 0.0091624097          786 
 1818000   0.53005849    -8.378347    238.86775    0.0109492 0.0091540697          849 
 1819000   0.52636673   -8.3782244    238.43656  0.010923427 0.0091457404          879 
 1820000   0.52741643   -8.3594718    238.57369  0.010923704 0.0091374247          774 
 1821000   0.52348298   -8.3804784    238.33438  0.010906754  0.009129113          885 
 1822000   0.53025383   -8.3823685    238.70033  0.010917505 0.0091208107          821 
 1823000    0.5215015   -8.3902528    238.29632  0.010893048 0.0091125071          746 
 1824000   0.52110985   -8.3780653    238.29866  0.010887183 0.0091042115          793 
 1825000   0.52857863   -8.3731888    238.35501  0.010883791 0.0090959338          778 
 1826000   0.51788772   -8.3805858    238.18914   0.01087026 0.0090876608          882 
 1827000   0.51995788   -8.4021371    238.18273  0.010864018 0.0090793951          828 
 1828000   0.52577132     -8.38588    238.35389  0.010865877 0.0090711509          850 
 1829000   0.51188245   -8.3794123    238.41212   0.01086259 0.0090629184          835 
 1830000   0.52535709   -8.3801535    238.64947  0.010867462 0.0090546962          918 
 1831000   0.52593629   -8.3983811    237.80987  0.010823315 0.0090464798          815 
 1832000   0.53798889   -8.3887035    238.34902  0.010841931 0.0090382692          835 
 1833000   0.49697186   -8.4099578     237.9934  0.010819849 0.0090300575          831 
 1834000   0.52427625   -8.3872804    238.30719  0.010828207 0.0090218601          834 
 1835000   0.52460839   -8.3974869     238.3457  0.010824055 0.0090136773          755 
 1836000   0.52708182    -8.386105    238.32327  0.010817142 0.0090054941          443 
 1837000    0.5148278   -8.3881999    238.39952  0.010814712 0.0089973246          822 
 1838000   0.51678931   -8.3998988    238.32996  0.010805675 0.0089891676          843 
 1839000   0.51550032   -8.3754931    238.45295  0.010805372 0.0089810123          853 
 1840000   0.51935311   -8.3952758    237.88762  0.010773896 0.0089728748          832 
 1841000   0.51640882   -8.3824702    237.99003  0.010772679 0.0089647441          832 
 1842000   0.51644468    -8.390983    238.04079  0.010769127 0.0089566255          871 
 1843000   0.51685933   -8.3816155    238.51411  0.010784686 0.0089485125          844 
 1844000   0.51603262   -8.3928559    238.37649  0.010772618 0.0089404196          844 
 1845000   0.50808407   -8.3900513    238.27146  0.010762035 0.0089323374          397 
 1846000   0.52279866    -8.396028    238.20404  0.010753162 0.0089242626          821 
 1847000    0.5109935   -8.4171778    238.48985  0.010760235 0.0089161956          862 
 1848000   0.51662539   -8.3912993    238.54444  0.010756874 0.0089081282          882 
 1849000   0.52039383    -8.388941    237.77944  0.010716578 0.0089000737          856 
 1850000   0.52031095   -8.3785887     238.1902  0.010729288 0.0088920245          786 
 1851000   0.51570867   -8.4031939    238.19649  0.010723775 0.0088839926          813 
 1852000   0.51280962   -8.3919739    238.23918  0.010719906 0.0088759608          809 
 1853000   0.51360558   -8.3928668    238.22829  0.010713631 0.0088679447          806 
 1854000   0.51336732   -8.4015874    238.12056   0.01070301 0.0088599427          855 
 1855000   0.51487436   -8.3861713    237.57094  0.010672549 0.0088519453          868 
 1856000   0.51069968   -8.4115429    237.99179  0.010685695 0.0088439577          920 
 1857000   0.51961499   -8.3958768    237.80269  0.010671455 0.0088359677          840 
 1858000   0.51451045   -8.4008323     238.4936  0.010696699  0.008827997          834 
 1859000    0.5117647   -8.4034293    238.30039  0.010682284 0.0088200325          455 
 1860000   0.50548987   -8.4045899     238.3904  0.010680573 0.0088120708          900 
 1861000   0.51346445   -8.3981703    238.09698  0.010661695 0.0088041177          863 
 1862000   0.51127539   -8.4056874    237.97068  0.010650317 0.0087961763          827 
 1863000   0.51110641   -8.4141495    237.69169  0.010632121 0.0087882464          848 
 1864000   0.51045852   -8.3968814    237.88532  0.010635073  0.008780331          781 
 1865000   0.50413251   -8.3991916     237.7295  0.010622408 0.0087724302          840 
 1866000   0.50773957   -8.4134899    237.67075  0.010614092 0.0087645335          871 
 1867000   0.50087641   -8.4141138    238.37389  0.010639792 0.0087566429          862 
 1868000   0.50589919   -8.3991038    238.08654  0.010621277 0.0087487661          919 
 1869000   0.51000016   -8.4100121    237.57754  0.010592899 0.0087408951          894 
 1870000   0.49403669   -8.3992306    238.21012  0.010615424 0.0087330371          827 
 1871000   0.51568904   -8.4101552    237.86212  0.010594251 0.0087251866          791 
 1872000   0.50311132    -8.409894    237.83755  0.010587498 0.0087173369          958 
 1873000   0.51158764   -8.4163015    237.90782  0.010584972 0.0087095036          820 
 1874000   0.51583232   -8.4148833    237.71124  0.010570582 0.0087016801          873 
 1875000   0.50858642   -8.4152822    237.37796  0.010550132 0.0086938608          781 
 1876000   0.49524961    -8.412154    237.63383  0.010555874 0.0086860476          833 
 1877000   0.51553767   -8.4184381    237.47159  0.010543047 0.0086782495          924 
 1878000   0.50162346   -8.4017595    237.68053  0.010546704 0.0086704601          866 
 1879000   0.50621046   -8.4319962     237.7865  0.010545791 0.0086626738          808 
 1880000   0.50491796   -8.4199985    237.81472  0.010541433 0.0086549029          792 
 1881000   0.49967384   -8.4290036    237.58191  0.010525514 0.0086471379          929 
 1882000    0.5055412   -8.4131469     237.8576  0.010532129 0.0086393818          473 
 1883000   0.49310611   -8.4116044    237.88551  0.010527771 0.0086316383          856 
 1884000    0.4924634   -8.4323432    237.97015  0.010525927 0.0086238953          893 
 1885000   0.49560028   -8.4277466    238.02347    0.0105227 0.0086161685          842 
 1886000   0.50243339   -8.4207529    237.53398  0.010495492 0.0086084447          856 
 1887000   0.49599709   -8.4225462    237.73406  0.010498766 0.0086007345          868 
 1888000   0.49088811   -8.4252924    238.13503  0.010510904 0.0085930256          824 
 1889000   0.50262123   -8.4294612    238.01047  0.010499844 0.0085853296          817 
 1890000   0.48563949   -8.4222076    237.81452  0.010485649 0.0085776481          832 
 1891000   0.50028145   -8.4248638    237.76555  0.010477946 0.0085699759          849 
 1892000   0.49065765   -8.4418854    238.01504  0.010483397 0.0085623112          871 
 1893000   0.50419912   -8.4405961    237.75958  0.010466613 0.0085546536          855 
 1894000   0.49293337   -8.4349006    237.56857  0.010452682 0.0085470132          757 
 1895000   0.50018978   -8.4268051    237.81231  0.010457885 0.0085393753          956 
 1896000   0.49622423   -8.4229303    237.77379  0.010450676 0.0085317614          819 
 1897000   0.49400731   -8.4400023    237.69487  0.010441701 0.0085241441          787 
 1898000   0.49524224   -8.4193507    237.74397  0.010438355 0.0085165199          846 
 1899000   0.49024715   -8.4250677    237.65371  0.010428897 0.0085089174          854 
 1900000   0.49390901   -8.4344882    237.60005  0.010421055 0.0085013204          860 
 1901000   0.49581715   -8.4302504    237.70408  0.010420133 0.0084937342          858 
 1902000   0.50119481   -8.4400043    237.80761  0.010419191  0.008486156          914 
 1903000    0.4879301   -8.4208298    237.39316  0.010395567 0.0084785836          836 
 1904000   0.49108373   -8.4449625    238.04102  0.010418462 0.0084710273          879 
 1905000    0.4951241   -8.4413052    237.77523  0.010401366 0.0084634741          835 
 1906000   0.48911962   -8.4419765    237.54104   0.01038567 0.0084559318          905 
 1907000   0.49922309   -8.4407458    237.63021   0.01038412 0.0084484019          868 
 1908000   0.48671564   -8.4329771    237.95491  0.010392859 0.0084408794          864 
 1909000    0.4882546   -8.4349122    238.04675  0.010391424 0.0084333669          780 
 1910000   0.49342463   -8.4284039    237.86795  0.010378183 0.0084258575          955 
 1911000   0.48738263   -8.4447446    237.53587  0.010358271 0.0084183578          816 
 1912000   0.48118469   -8.4369361    237.90374  0.010368887  0.008410863          812 
 1913000   0.49588261   -8.4472585    237.68668  0.010354011 0.0084033642          787 
 1914000   0.48591368   -8.4246496    237.70139  0.010349242 0.0083958872          945 
 1915000   0.49446494   -8.4333794    237.72732  0.010344966 0.0083884226          953 
 1916000   0.48659681    -8.437046    237.51969  0.010330536 0.0083809656          850 
 1917000   0.49649825   -8.4389857    237.53918  0.010325995 0.0083735149          902 
 1918000   0.48551055   -8.4392775     237.6077  0.010323588 0.0083660707          874 
 1919000   0.48687434   -8.4258473    237.34663  0.010306871 0.0083586301          934 
 1920000   0.48262048   -8.4395009    237.47822  0.010307215 0.0083512012          789 
 1921000   0.48078705   -8.4305874    237.73881  0.010313153 0.0083437896          924 
 1922000   0.48191245   -8.4457784    237.85697  0.010312911 0.0083363849          882 
 1923000   0.48012719     -8.45673     237.7593  0.010303315 0.0083289929          918 
 1924000   0.48917838   -8.4331567    237.50319  0.010286867 0.0083216063          862 
 1925000   0.48597188   -8.4355637    237.42393  0.010278092 0.0083142288          832 
 1926000   0.48380226   -8.4489312    237.21969  0.010263919 0.0083068529          839 
 1927000   0.48684209   -8.4356504    237.34658   0.01026408 0.0082994837          827 
 1928000    0.4793523   -8.4426351    237.18883  0.010251938 0.0082921259          779 
 1929000   0.46660869   -8.4345678    237.79987   0.01027302 0.0082847799          802 
 1930000   0.49177691   -8.4433572    237.06315  0.010235887 0.0082774449          885 
 1931000   0.47371049   -8.4450663    237.38499  0.010244476 0.0082701098          858 
 1932000   0.48186442   -8.4551316    237.63132  0.010249798 0.0082627867          864 
 1933000   0.48887259   -8.4343159    237.87344  0.010254934 0.0082554744          844 
 1934000   0.47726733   -8.4631314    237.61518  0.010238503 0.0082481644          885 
 1935000   0.48011417   -8.4385253    237.56492  0.010231047 0.0082408528          842 
 1936000   0.48658615   -8.4585468    237.19997  0.010210054 0.0082335663          819 
 1937000   0.48003839   -8.4404507    237.64413  0.010223891 0.0082262842          957 
 1938000   0.48731689   -8.4366179    237.32582  0.010204929 0.0082190104          863 
 1939000   0.47613248    -8.427553    237.36103  0.010201179 0.0082117404          866 
 1940000   0.47945344   -8.4480372    237.67242  0.010209296 0.0082044831          882 
 1941000   0.48077654   -8.4462664    237.55728  0.010199093 0.0081972357          862 
 1942000   0.48064216   -8.4559031    237.21164   0.01017901 0.0081899944          884 
 1943000   0.47193157    -8.442938    237.21722   0.01017401 0.0081827485          894 
 1944000   0.48277425   -8.4456956    237.12194  0.010164692 0.0081755189          813 
 1945000   0.48553472   -8.4600678    237.15297  0.010160796 0.0081682996          843 
 1946000   0.47191659   -8.4439848    237.91598  0.010188249 0.0081610828          856 
 1947000   0.48279309   -8.4406159    237.41311  0.010161493 0.0081538839          806 
 1948000   0.47774384   -8.4464193     237.0175  0.010139352 0.0081466887          841 
 1949000   0.46904426    -8.467599    237.13864   0.01013933 0.0081395066          781 
 1950000   0.47464806   -8.4772785     237.1317  0.010133833 0.0081323251          728 
 1951000   0.46260761   -8.4723943    237.01464  0.010123639 0.0081251483          758 
 1952000   0.48009224   -8.4661576    237.12143  0.010123012 0.0081179875          844 
 1953000   0.47458605   -8.4641264    237.06049  0.010115228 0.0081108377          796 
 1954000   0.46568118   -8.4537551    237.04648  0.010109454 0.0081036947          825 
 1955000   0.47404386   -8.4548087    237.32187  0.010116022  0.008096552          827 
 1956000   0.47137213   -8.4557217    237.29159   0.01010956 0.0080894269          410 
 1957000   0.46503283   -8.4651778    237.10987  0.010096656 0.0080823046          841 
 1958000   0.46496175   -8.4590989    237.38488  0.010103204 0.0080751888          764 
 1959000   0.47405023   -8.4728816    237.21347  0.010090755 0.0080680744          853 
 1960000   0.47020116   -8.4474121    237.27109  0.010088056 0.0080609751          854 
 1961000   0.47821201    -8.449706    237.13802  0.010077257  0.008053893          783 
 1962000   0.48007226   -8.4590796    237.39685  0.010083115 0.0080468135          763 
 1963000   0.47488414   -8.4709805    237.33153  0.010075205 0.0080397414          830 
 1964000   0.47038989    -8.484999    237.33051  0.010070032 0.0080326765          847 
 1965000   0.46484434   -8.4839095    237.25441   0.01006168 0.0080256148          774 
 1966000   0.47536948   -8.4769693    236.97348  0.010044654  0.008018562          741 
 1967000   0.46150182   -8.4601447    236.76094  0.010030543 0.0080115196          783 
 1968000   0.46942743   -8.4746897    237.17408   0.01004294 0.0080044857          832 
 1969000   0.47166166   -8.4551135    237.39119  0.010047029 0.0079974637          837 
 1970000    0.4563083   -8.4759187     237.2962   0.01003791 0.0079904439          835 
 1971000   0.46893456   -8.4684237    236.94051  0.010017779 0.0079834389          880 
 1972000   0.46829852   -8.4575287    236.77244  0.010005597 0.0079764413          924 
 1973000    0.4772359   -8.4802882    237.21855  0.010019368 0.0079694507          819 
 1974000   0.45964382   -8.4623863    237.68245  0.010033876 0.0079624694          820 
 1975000   0.45768333   -8.4728695     237.2184  0.010009215 0.0079554918          840 
 1976000   0.47135921   -8.4731252    237.00426 0.0099951191 0.0079485191          887 
 1977000   0.46387396   -8.4681193    237.02664 0.0099910066 0.0079415555          826 
 1978000   0.46994064   -8.4773876    237.04169 0.0099865896 0.0079346037          880 
 1979000   0.45689758   -8.4700733    236.89439 0.0099753408 0.0079276594          841 
 1980000   0.46591306   -8.4752932    237.00332  0.009974887   0.00792072          860 
 1981000   0.45754512   -8.4691043    237.34271 0.0099841286 0.0079137847          803 
 1982000   0.45212822   -8.4763598      237.293 0.0099770014 0.0079068658          853 
 1983000   0.46755613   -8.4780055    236.93806 0.0099570541 0.0078999459          929 
 1984000   0.45213616   -8.4737119    237.20464 0.0099632324 0.0078930389          867 
 1985000   0.45792892   -8.4825343    237.18734 0.0099574871 0.0078861388          809 
 1986000   0.46460457   -8.4828581    237.27628  0.009956205 0.0078792523          929 
 1987000   0.46634163   -8.4779841    237.39484 0.0099561666 0.0078723745          871 
 1988000   0.46461464   -8.4823959    237.34173 0.0099489324 0.0078655046          857 
 1989000   0.46496931   -8.4815599    236.94717 0.0099273995 0.0078586392          833 
 1990000   0.45624615   -8.4874677    236.92278 0.0099213896 0.0078517891          842 
 1991000   0.46035085    -8.478217    236.87898  0.009914573 0.0078449406          850 
 1992000    0.4555112   -8.4847227    237.02111 0.0099155419    0.0078381          842 
 1993000   0.44902309   -8.4786202     236.8105 0.0099017602 0.0078312681          810 
 1994000   0.45380799   -8.5004648    237.33357 0.0099186548 0.0078244467          851 
 1995000   0.44947886   -8.4858641    236.99471 0.0098995284 0.0078176249          881 
 1996000   0.45645762   -8.4938457     236.8294 0.0098876669 0.0078108143          772 
 1997000   0.46080601   -8.4934004    236.93382 0.0098870731 0.0078040095          787 
 1998000   0.45522905   -8.4975479     236.8682 0.0098793876 0.0077972124          835 
 1999000    0.4455279   -8.4924391     236.7263 0.0098685301 0.0077904249          780 
 2000000   0.45384417   -8.5087436    236.61937 0.0098591405 0.0077836463          862 
 2001000   0.45080891   -8.4859396    236.91456  0.009866507 0.0077768669          912 
 2002000   0.44860612    -8.478521    237.14242 0.0098710629 0.0077700976          783 
 2003000   0.45998668   -8.4866201    237.20402 0.0098686976 0.0077633389          859 
 2004000   0.44785729    -8.502763    237.09485 0.0098592337 0.0077565931          869 
 2005000   0.44946144   -8.4924506     236.9329 0.0098475852 0.0077498519          841 
 2006000   0.45107025   -8.5037398    237.14373 0.0098514346 0.0077431152          851 
 2007000   0.45276398   -8.5093916    237.07567 0.0098436998 0.0077363881          941 
 2008000   0.45436388   -8.4895156    237.00683 0.0098359406 0.0077296694          807 
 2009000   0.44190619   -8.4895185    236.78319 0.0098217682 0.0077229579          918 
 2010000    0.4591797   -8.4787314    237.17348 0.0098330631 0.0077162578          885 
 2011000   0.45183642   -8.5068265    236.94498 0.0098187048 0.0077095576          906 
 2012000   0.45166008   -8.5006231    236.87662 0.0098109932 0.0077028677          915 
Loop time of 5266.44 on 48 procs for 2000000 steps with 4000 atoms

Performance: 65623.112 tau/day, 379.763 timesteps/s
99.4% CPU use with 48 MPI tasks x no OpenMP threads

MPI task timing breakdown:
Section |  min time  |  avg time  |  max time  |%varavg| %total
---------------------------------------------------------------
Pair    | 388.4      | 425.49     | 465.97     |  96.6 |  8.08
Neigh   | 36.811     | 38.262     | 39.759     |  11.7 |  0.73
Comm    | 341.73     | 377.89     | 419.49     |  97.7 |  7.18
Output  | 5.3848     | 5.3868     | 5.4455     |   0.4 |  0.10
Modify  | 4349.3     | 4368.8     | 4382.8     |  13.4 | 82.96
Other   |            | 50.62      |            |       |  0.96

Nlocal:        83.3333 ave          91 max          77 min
Histogram: 5 1 7 6 6 12 1 7 1 2
Nghost:        2414.96 ave        2435 max        2395 min
Histogram: 2 3 6 6 6 8 7 4 2 4
Neighs:        16823.5 ave       20172 max       14467 min
Histogram: 4 3 12 7 3 6 7 5 0 1
FullNghs:      33647.3 ave       37036 max       31101 min
Histogram: 6 1 6 9 12 3 5 1 3 2

Total # of neighbors = 1615070
Ave neighs/atom = 403.76750
Neighbor list builds = 106559
Dangerous builds = 0

#clear
#
#next RN
#
#jump SELF
Total wall time: 1:27:50
